<?xml version="1.0" encoding="utf-8"?>
<VTKFile byte_order="LittleEndian" type="UnstructuredGrid" version="0.1">
   <UnstructuredGrid>
      <Piece NumberOfCells="39204" NumberOfPoints="19801">
         <Points>
            <DataArray Name="Points" NumberOfComponents="3" format="ascii" type="Float32">
0.0000 0.0000 0.0000
0.0000 0.0051 0.0000
0.0000 0.0101 0.0000
0.0000 0.0152 0.0000
0.0000 0.0202 0.0000
0.0000 0.0253 0.0000
0.0000 0.0303 0.0000
0.0000 0.0354 0.0000
0.0000 0.0404 0.0000
0.0000 0.0455 0.0000
0.0000 0.0505 0.0000
0.0000 0.0556 0.0000
0.0000 0.0606 0.0000
0.0000 0.0657 0.0000
0.0000 0.0707 0.0000
0.0000 0.0758 0.0000
0.0000 0.0808 0.0000
0.0000 0.0859 0.0000
0.0000 0.0909 0.0000
0.0000 0.0960 0.0000
0.0000 0.1010 0.0000
0.0000 0.1061 0.0000
0.0000 0.1111 0.0000
0.0000 0.1162 0.0000
0.0000 0.1212 0.0000
0.0000 0.1263 0.0000
0.0000 0.1313 0.0000
0.0000 0.1364 0.0000
0.0000 0.1414 0.0000
0.0000 0.1465 0.0000
0.0000 0.1515 0.0000
0.0000 0.1566 0.0000
0.0000 0.1616 0.0000
0.0000 0.1667 0.0000
0.0000 0.1717 0.0000
0.0000 0.1768 0.0000
0.0000 0.1818 0.0000
0.0000 0.1869 0.0000
0.0000 0.1919 0.0000
0.0000 0.1970 0.0000
0.0000 0.2020 0.0000
0.0000 0.2071 0.0000
0.0000 0.2121 0.0000
0.0000 0.2172 0.0000
0.0000 0.2222 0.0000
0.0000 0.2273 0.0000
0.0000 0.2323 0.0000
0.0000 0.2374 0.0000
0.0000 0.2424 0.0000
0.0000 0.2475 0.0000
0.0000 0.2525 0.0000
0.0000 0.2576 0.0000
0.0000 0.2626 0.0000
0.0000 0.2677 0.0000
0.0000 0.2727 0.0000
0.0000 0.2778 0.0000
0.0000 0.2828 0.0000
0.0000 0.2879 0.0000
0.0000 0.2929 0.0000
0.0000 0.2980 0.0000
0.0000 0.3030 0.0000
0.0000 0.3081 0.0000
0.0000 0.3131 0.0000
0.0000 0.3182 0.0000
0.0000 0.3232 0.0000
0.0000 0.3283 0.0000
0.0000 0.3333 0.0000
0.0000 0.3384 0.0000
0.0000 0.3434 0.0000
0.0000 0.3485 0.0000
0.0000 0.3535 0.0000
0.0000 0.3586 0.0000
0.0000 0.3636 0.0000
0.0000 0.3687 0.0000
0.0000 0.3737 0.0000
0.0000 0.3788 0.0000
0.0000 0.3838 0.0000
0.0000 0.3889 0.0000
0.0000 0.3939 0.0000
0.0000 0.3990 0.0000
0.0000 0.4040 0.0000
0.0000 0.4091 0.0000
0.0000 0.4141 0.0000
0.0000 0.4192 0.0000
0.0000 0.4242 0.0000
0.0000 0.4293 0.0000
0.0000 0.4343 0.0000
0.0000 0.4394 0.0000
0.0000 0.4444 0.0000
0.0000 0.4495 0.0000
0.0000 0.4545 0.0000
0.0000 0.4596 0.0000
0.0000 0.4646 0.0000
0.0000 0.4697 0.0000
0.0000 0.4747 0.0000
0.0000 0.4798 0.0000
0.0000 0.4848 0.0000
0.0000 0.4899 0.0000
0.0000 0.4949 0.0000
0.0000 0.5000 0.0000
0.0101 0.0000 0.0000
0.0101 0.0051 0.0000
0.0101 0.0101 0.0000
0.0101 0.0152 0.0000
0.0101 0.0202 0.0000
0.0101 0.0253 0.0000
0.0101 0.0303 0.0000
0.0101 0.0354 0.0000
0.0101 0.0404 0.0000
0.0101 0.0455 0.0000
0.0101 0.0505 0.0000
0.0101 0.0556 0.0000
0.0101 0.0606 0.0000
0.0101 0.0657 0.0000
0.0101 0.0707 0.0000
0.0101 0.0758 0.0000
0.0101 0.0808 0.0000
0.0101 0.0859 0.0000
0.0101 0.0909 0.0000
0.0101 0.0960 0.0000
0.0101 0.1010 0.0000
0.0101 0.1061 0.0000
0.0101 0.1111 0.0000
0.0101 0.1162 0.0000
0.0101 0.1212 0.0000
0.0101 0.1263 0.0000
0.0101 0.1313 0.0000
0.0101 0.1364 0.0000
0.0101 0.1414 0.0000
0.0101 0.1465 0.0000
0.0101 0.1515 0.0000
0.0101 0.1566 0.0000
0.0101 0.1616 0.0000
0.0101 0.1667 0.0000
0.0101 0.1717 0.0000
0.0101 0.1768 0.0000
0.0101 0.1818 0.0000
0.0101 0.1869 0.0000
0.0101 0.1919 0.0000
0.0101 0.1970 0.0000
0.0101 0.2020 0.0000
0.0101 0.2071 0.0000
0.0101 0.2121 0.0000
0.0101 0.2172 0.0000
0.0101 0.2222 0.0000
0.0101 0.2273 0.0000
0.0101 0.2323 0.0000
0.0101 0.2374 0.0000
0.0101 0.2424 0.0000
0.0101 0.2475 0.0000
0.0101 0.2525 0.0000
0.0101 0.2576 0.0000
0.0101 0.2626 0.0000
0.0101 0.2677 0.0000
0.0101 0.2727 0.0000
0.0101 0.2778 0.0000
0.0101 0.2828 0.0000
0.0101 0.2879 0.0000
0.0101 0.2929 0.0000
0.0101 0.2980 0.0000
0.0101 0.3030 0.0000
0.0101 0.3081 0.0000
0.0101 0.3131 0.0000
0.0101 0.3182 0.0000
0.0101 0.3232 0.0000
0.0101 0.3283 0.0000
0.0101 0.3333 0.0000
0.0101 0.3384 0.0000
0.0101 0.3434 0.0000
0.0101 0.3485 0.0000
0.0101 0.3535 0.0000
0.0101 0.3586 0.0000
0.0101 0.3636 0.0000
0.0101 0.3687 0.0000
0.0101 0.3737 0.0000
0.0101 0.3788 0.0000
0.0101 0.3838 0.0000
0.0101 0.3889 0.0000
0.0101 0.3939 0.0000
0.0101 0.3990 0.0000
0.0101 0.4040 0.0000
0.0101 0.4091 0.0000
0.0101 0.4141 0.0000
0.0101 0.4192 0.0000
0.0101 0.4242 0.0000
0.0101 0.4293 0.0000
0.0101 0.4343 0.0000
0.0101 0.4394 0.0000
0.0101 0.4444 0.0000
0.0101 0.4495 0.0000
0.0101 0.4545 0.0000
0.0101 0.4596 0.0000
0.0101 0.4646 0.0000
0.0101 0.4697 0.0000
0.0101 0.4747 0.0000
0.0101 0.4798 0.0000
0.0101 0.4848 0.0000
0.0101 0.4899 0.0000
0.0101 0.4949 0.0000
0.0101 0.5000 0.0000
0.0202 0.0000 0.0000
0.0202 0.0051 0.0000
0.0202 0.0101 0.0000
0.0202 0.0152 0.0000
0.0202 0.0202 0.0000
0.0202 0.0253 0.0000
0.0202 0.0303 0.0000
0.0202 0.0354 0.0000
0.0202 0.0404 0.0000
0.0202 0.0455 0.0000
0.0202 0.0505 0.0000
0.0202 0.0556 0.0000
0.0202 0.0606 0.0000
0.0202 0.0657 0.0000
0.0202 0.0707 0.0000
0.0202 0.0758 0.0000
0.0202 0.0808 0.0000
0.0202 0.0859 0.0000
0.0202 0.0909 0.0000
0.0202 0.0960 0.0000
0.0202 0.1010 0.0000
0.0202 0.1061 0.0000
0.0202 0.1111 0.0000
0.0202 0.1162 0.0000
0.0202 0.1212 0.0000
0.0202 0.1263 0.0000
0.0202 0.1313 0.0000
0.0202 0.1364 0.0000
0.0202 0.1414 0.0000
0.0202 0.1465 0.0000
0.0202 0.1515 0.0000
0.0202 0.1566 0.0000
0.0202 0.1616 0.0000
0.0202 0.1667 0.0000
0.0202 0.1717 0.0000
0.0202 0.1768 0.0000
0.0202 0.1818 0.0000
0.0202 0.1869 0.0000
0.0202 0.1919 0.0000
0.0202 0.1970 0.0000
0.0202 0.2020 0.0000
0.0202 0.2071 0.0000
0.0202 0.2121 0.0000
0.0202 0.2172 0.0000
0.0202 0.2222 0.0000
0.0202 0.2273 0.0000
0.0202 0.2323 0.0000
0.0202 0.2374 0.0000
0.0202 0.2424 0.0000
0.0202 0.2475 0.0000
0.0202 0.2525 0.0000
0.0202 0.2576 0.0000
0.0202 0.2626 0.0000
0.0202 0.2677 0.0000
0.0202 0.2727 0.0000
0.0202 0.2778 0.0000
0.0202 0.2828 0.0000
0.0202 0.2879 0.0000
0.0202 0.2929 0.0000
0.0202 0.2980 0.0000
0.0202 0.3030 0.0000
0.0202 0.3081 0.0000
0.0202 0.3131 0.0000
0.0202 0.3182 0.0000
0.0202 0.3232 0.0000
0.0202 0.3283 0.0000
0.0202 0.3333 0.0000
0.0202 0.3384 0.0000
0.0202 0.3434 0.0000
0.0202 0.3485 0.0000
0.0202 0.3535 0.0000
0.0202 0.3586 0.0000
0.0202 0.3636 0.0000
0.0202 0.3687 0.0000
0.0202 0.3737 0.0000
0.0202 0.3788 0.0000
0.0202 0.3838 0.0000
0.0202 0.3889 0.0000
0.0202 0.3939 0.0000
0.0202 0.3990 0.0000
0.0202 0.4040 0.0000
0.0202 0.4091 0.0000
0.0202 0.4141 0.0000
0.0202 0.4192 0.0000
0.0202 0.4242 0.0000
0.0202 0.4293 0.0000
0.0202 0.4343 0.0000
0.0202 0.4394 0.0000
0.0202 0.4444 0.0000
0.0202 0.4495 0.0000
0.0202 0.4545 0.0000
0.0202 0.4596 0.0000
0.0202 0.4646 0.0000
0.0202 0.4697 0.0000
0.0202 0.4747 0.0000
0.0202 0.4798 0.0000
0.0202 0.4848 0.0000
0.0202 0.4899 0.0000
0.0202 0.4949 0.0000
0.0202 0.5000 0.0000
0.0303 0.0000 0.0000
0.0303 0.0051 0.0000
0.0303 0.0101 0.0000
0.0303 0.0152 0.0000
0.0303 0.0202 0.0000
0.0303 0.0253 0.0000
0.0303 0.0303 0.0000
0.0303 0.0354 0.0000
0.0303 0.0404 0.0000
0.0303 0.0455 0.0000
0.0303 0.0505 0.0000
0.0303 0.0556 0.0000
0.0303 0.0606 0.0000
0.0303 0.0657 0.0000
0.0303 0.0707 0.0000
0.0303 0.0758 0.0000
0.0303 0.0808 0.0000
0.0303 0.0859 0.0000
0.0303 0.0909 0.0000
0.0303 0.0960 0.0000
0.0303 0.1010 0.0000
0.0303 0.1061 0.0000
0.0303 0.1111 0.0000
0.0303 0.1162 0.0000
0.0303 0.1212 0.0000
0.0303 0.1263 0.0000
0.0303 0.1313 0.0000
0.0303 0.1364 0.0000
0.0303 0.1414 0.0000
0.0303 0.1465 0.0000
0.0303 0.1515 0.0000
0.0303 0.1566 0.0000
0.0303 0.1616 0.0000
0.0303 0.1667 0.0000
0.0303 0.1717 0.0000
0.0303 0.1768 0.0000
0.0303 0.1818 0.0000
0.0303 0.1869 0.0000
0.0303 0.1919 0.0000
0.0303 0.1970 0.0000
0.0303 0.2020 0.0000
0.0303 0.2071 0.0000
0.0303 0.2121 0.0000
0.0303 0.2172 0.0000
0.0303 0.2222 0.0000
0.0303 0.2273 0.0000
0.0303 0.2323 0.0000
0.0303 0.2374 0.0000
0.0303 0.2424 0.0000
0.0303 0.2475 0.0000
0.0303 0.2525 0.0000
0.0303 0.2576 0.0000
0.0303 0.2626 0.0000
0.0303 0.2677 0.0000
0.0303 0.2727 0.0000
0.0303 0.2778 0.0000
0.0303 0.2828 0.0000
0.0303 0.2879 0.0000
0.0303 0.2929 0.0000
0.0303 0.2980 0.0000
0.0303 0.3030 0.0000
0.0303 0.3081 0.0000
0.0303 0.3131 0.0000
0.0303 0.3182 0.0000
0.0303 0.3232 0.0000
0.0303 0.3283 0.0000
0.0303 0.3333 0.0000
0.0303 0.3384 0.0000
0.0303 0.3434 0.0000
0.0303 0.3485 0.0000
0.0303 0.3535 0.0000
0.0303 0.3586 0.0000
0.0303 0.3636 0.0000
0.0303 0.3687 0.0000
0.0303 0.3737 0.0000
0.0303 0.3788 0.0000
0.0303 0.3838 0.0000
0.0303 0.3889 0.0000
0.0303 0.3939 0.0000
0.0303 0.3990 0.0000
0.0303 0.4040 0.0000
0.0303 0.4091 0.0000
0.0303 0.4141 0.0000
0.0303 0.4192 0.0000
0.0303 0.4242 0.0000
0.0303 0.4293 0.0000
0.0303 0.4343 0.0000
0.0303 0.4394 0.0000
0.0303 0.4444 0.0000
0.0303 0.4495 0.0000
0.0303 0.4545 0.0000
0.0303 0.4596 0.0000
0.0303 0.4646 0.0000
0.0303 0.4697 0.0000
0.0303 0.4747 0.0000
0.0303 0.4798 0.0000
0.0303 0.4848 0.0000
0.0303 0.4899 0.0000
0.0303 0.4949 0.0000
0.0303 0.5000 0.0000
0.0404 0.0000 0.0000
0.0404 0.0051 0.0000
0.0404 0.0101 0.0000
0.0404 0.0152 0.0000
0.0404 0.0202 0.0000
0.0404 0.0253 0.0000
0.0404 0.0303 0.0000
0.0404 0.0354 0.0000
0.0404 0.0404 0.0000
0.0404 0.0455 0.0000
0.0404 0.0505 0.0000
0.0404 0.0556 0.0000
0.0404 0.0606 0.0000
0.0404 0.0657 0.0000
0.0404 0.0707 0.0000
0.0404 0.0758 0.0000
0.0404 0.0808 0.0000
0.0404 0.0859 0.0000
0.0404 0.0909 0.0000
0.0404 0.0960 0.0000
0.0404 0.1010 0.0000
0.0404 0.1061 0.0000
0.0404 0.1111 0.0000
0.0404 0.1162 0.0000
0.0404 0.1212 0.0000
0.0404 0.1263 0.0000
0.0404 0.1313 0.0000
0.0404 0.1364 0.0000
0.0404 0.1414 0.0000
0.0404 0.1465 0.0000
0.0404 0.1515 0.0000
0.0404 0.1566 0.0000
0.0404 0.1616 0.0000
0.0404 0.1667 0.0000
0.0404 0.1717 0.0000
0.0404 0.1768 0.0000
0.0404 0.1818 0.0000
0.0404 0.1869 0.0000
0.0404 0.1919 0.0000
0.0404 0.1970 0.0000
0.0404 0.2020 0.0000
0.0404 0.2071 0.0000
0.0404 0.2121 0.0000
0.0404 0.2172 0.0000
0.0404 0.2222 0.0000
0.0404 0.2273 0.0000
0.0404 0.2323 0.0000
0.0404 0.2374 0.0000
0.0404 0.2424 0.0000
0.0404 0.2475 0.0000
0.0404 0.2525 0.0000
0.0404 0.2576 0.0000
0.0404 0.2626 0.0000
0.0404 0.2677 0.0000
0.0404 0.2727 0.0000
0.0404 0.2778 0.0000
0.0404 0.2828 0.0000
0.0404 0.2879 0.0000
0.0404 0.2929 0.0000
0.0404 0.2980 0.0000
0.0404 0.3030 0.0000
0.0404 0.3081 0.0000
0.0404 0.3131 0.0000
0.0404 0.3182 0.0000
0.0404 0.3232 0.0000
0.0404 0.3283 0.0000
0.0404 0.3333 0.0000
0.0404 0.3384 0.0000
0.0404 0.3434 0.0000
0.0404 0.3485 0.0000
0.0404 0.3535 0.0000
0.0404 0.3586 0.0000
0.0404 0.3636 0.0000
0.0404 0.3687 0.0000
0.0404 0.3737 0.0000
0.0404 0.3788 0.0000
0.0404 0.3838 0.0000
0.0404 0.3889 0.0000
0.0404 0.3939 0.0000
0.0404 0.3990 0.0000
0.0404 0.4040 0.0000
0.0404 0.4091 0.0000
0.0404 0.4141 0.0000
0.0404 0.4192 0.0000
0.0404 0.4242 0.0000
0.0404 0.4293 0.0000
0.0404 0.4343 0.0000
0.0404 0.4394 0.0000
0.0404 0.4444 0.0000
0.0404 0.4495 0.0000
0.0404 0.4545 0.0000
0.0404 0.4596 0.0000
0.0404 0.4646 0.0000
0.0404 0.4697 0.0000
0.0404 0.4747 0.0000
0.0404 0.4798 0.0000
0.0404 0.4848 0.0000
0.0404 0.4899 0.0000
0.0404 0.4949 0.0000
0.0404 0.5000 0.0000
0.0505 0.0000 0.0000
0.0505 0.0051 0.0000
0.0505 0.0101 0.0000
0.0505 0.0152 0.0000
0.0505 0.0202 0.0000
0.0505 0.0253 0.0000
0.0505 0.0303 0.0000
0.0505 0.0354 0.0000
0.0505 0.0404 0.0000
0.0505 0.0455 0.0000
0.0505 0.0505 0.0000
0.0505 0.0556 0.0000
0.0505 0.0606 0.0000
0.0505 0.0657 0.0000
0.0505 0.0707 0.0000
0.0505 0.0758 0.0000
0.0505 0.0808 0.0000
0.0505 0.0859 0.0000
0.0505 0.0909 0.0000
0.0505 0.0960 0.0000
0.0505 0.1010 0.0000
0.0505 0.1061 0.0000
0.0505 0.1111 0.0000
0.0505 0.1162 0.0000
0.0505 0.1212 0.0000
0.0505 0.1263 0.0000
0.0505 0.1313 0.0000
0.0505 0.1364 0.0000
0.0505 0.1414 0.0000
0.0505 0.1465 0.0000
0.0505 0.1515 0.0000
0.0505 0.1566 0.0000
0.0505 0.1616 0.0000
0.0505 0.1667 0.0000
0.0505 0.1717 0.0000
0.0505 0.1768 0.0000
0.0505 0.1818 0.0000
0.0505 0.1869 0.0000
0.0505 0.1919 0.0000
0.0505 0.1970 0.0000
0.0505 0.2020 0.0000
0.0505 0.2071 0.0000
0.0505 0.2121 0.0000
0.0505 0.2172 0.0000
0.0505 0.2222 0.0000
0.0505 0.2273 0.0000
0.0505 0.2323 0.0000
0.0505 0.2374 0.0000
0.0505 0.2424 0.0000
0.0505 0.2475 0.0000
0.0505 0.2525 0.0000
0.0505 0.2576 0.0000
0.0505 0.2626 0.0000
0.0505 0.2677 0.0000
0.0505 0.2727 0.0000
0.0505 0.2778 0.0000
0.0505 0.2828 0.0000
0.0505 0.2879 0.0000
0.0505 0.2929 0.0000
0.0505 0.2980 0.0000
0.0505 0.3030 0.0000
0.0505 0.3081 0.0000
0.0505 0.3131 0.0000
0.0505 0.3182 0.0000
0.0505 0.3232 0.0000
0.0505 0.3283 0.0000
0.0505 0.3333 0.0000
0.0505 0.3384 0.0000
0.0505 0.3434 0.0000
0.0505 0.3485 0.0000
0.0505 0.3535 0.0000
0.0505 0.3586 0.0000
0.0505 0.3636 0.0000
0.0505 0.3687 0.0000
0.0505 0.3737 0.0000
0.0505 0.3788 0.0000
0.0505 0.3838 0.0000
0.0505 0.3889 0.0000
0.0505 0.3939 0.0000
0.0505 0.3990 0.0000
0.0505 0.4040 0.0000
0.0505 0.4091 0.0000
0.0505 0.4141 0.0000
0.0505 0.4192 0.0000
0.0505 0.4242 0.0000
0.0505 0.4293 0.0000
0.0505 0.4343 0.0000
0.0505 0.4394 0.0000
0.0505 0.4444 0.0000
0.0505 0.4495 0.0000
0.0505 0.4545 0.0000
0.0505 0.4596 0.0000
0.0505 0.4646 0.0000
0.0505 0.4697 0.0000
0.0505 0.4747 0.0000
0.0505 0.4798 0.0000
0.0505 0.4848 0.0000
0.0505 0.4899 0.0000
0.0505 0.4949 0.0000
0.0505 0.5000 0.0000
0.0606 0.0000 0.0000
0.0606 0.0051 0.0000
0.0606 0.0101 0.0000
0.0606 0.0152 0.0000
0.0606 0.0202 0.0000
0.0606 0.0253 0.0000
0.0606 0.0303 0.0000
0.0606 0.0354 0.0000
0.0606 0.0404 0.0000
0.0606 0.0455 0.0000
0.0606 0.0505 0.0000
0.0606 0.0556 0.0000
0.0606 0.0606 0.0000
0.0606 0.0657 0.0000
0.0606 0.0707 0.0000
0.0606 0.0758 0.0000
0.0606 0.0808 0.0000
0.0606 0.0859 0.0000
0.0606 0.0909 0.0000
0.0606 0.0960 0.0000
0.0606 0.1010 0.0000
0.0606 0.1061 0.0000
0.0606 0.1111 0.0000
0.0606 0.1162 0.0000
0.0606 0.1212 0.0000
0.0606 0.1263 0.0000
0.0606 0.1313 0.0000
0.0606 0.1364 0.0000
0.0606 0.1414 0.0000
0.0606 0.1465 0.0000
0.0606 0.1515 0.0000
0.0606 0.1566 0.0000
0.0606 0.1616 0.0000
0.0606 0.1667 0.0000
0.0606 0.1717 0.0000
0.0606 0.1768 0.0000
0.0606 0.1818 0.0000
0.0606 0.1869 0.0000
0.0606 0.1919 0.0000
0.0606 0.1970 0.0000
0.0606 0.2020 0.0000
0.0606 0.2071 0.0000
0.0606 0.2121 0.0000
0.0606 0.2172 0.0000
0.0606 0.2222 0.0000
0.0606 0.2273 0.0000
0.0606 0.2323 0.0000
0.0606 0.2374 0.0000
0.0606 0.2424 0.0000
0.0606 0.2475 0.0000
0.0606 0.2525 0.0000
0.0606 0.2576 0.0000
0.0606 0.2626 0.0000
0.0606 0.2677 0.0000
0.0606 0.2727 0.0000
0.0606 0.2778 0.0000
0.0606 0.2828 0.0000
0.0606 0.2879 0.0000
0.0606 0.2929 0.0000
0.0606 0.2980 0.0000
0.0606 0.3030 0.0000
0.0606 0.3081 0.0000
0.0606 0.3131 0.0000
0.0606 0.3182 0.0000
0.0606 0.3232 0.0000
0.0606 0.3283 0.0000
0.0606 0.3333 0.0000
0.0606 0.3384 0.0000
0.0606 0.3434 0.0000
0.0606 0.3485 0.0000
0.0606 0.3535 0.0000
0.0606 0.3586 0.0000
0.0606 0.3636 0.0000
0.0606 0.3687 0.0000
0.0606 0.3737 0.0000
0.0606 0.3788 0.0000
0.0606 0.3838 0.0000
0.0606 0.3889 0.0000
0.0606 0.3939 0.0000
0.0606 0.3990 0.0000
0.0606 0.4040 0.0000
0.0606 0.4091 0.0000
0.0606 0.4141 0.0000
0.0606 0.4192 0.0000
0.0606 0.4242 0.0000
0.0606 0.4293 0.0000
0.0606 0.4343 0.0000
0.0606 0.4394 0.0000
0.0606 0.4444 0.0000
0.0606 0.4495 0.0000
0.0606 0.4545 0.0000
0.0606 0.4596 0.0000
0.0606 0.4646 0.0000
0.0606 0.4697 0.0000
0.0606 0.4747 0.0000
0.0606 0.4798 0.0000
0.0606 0.4848 0.0000
0.0606 0.4899 0.0000
0.0606 0.4949 0.0000
0.0606 0.5000 0.0000
0.0707 0.0000 0.0000
0.0707 0.0051 0.0000
0.0707 0.0101 0.0000
0.0707 0.0152 0.0000
0.0707 0.0202 0.0000
0.0707 0.0253 0.0000
0.0707 0.0303 0.0000
0.0707 0.0354 0.0000
0.0707 0.0404 0.0000
0.0707 0.0455 0.0000
0.0707 0.0505 0.0000
0.0707 0.0556 0.0000
0.0707 0.0606 0.0000
0.0707 0.0657 0.0000
0.0707 0.0707 0.0000
0.0707 0.0758 0.0000
0.0707 0.0808 0.0000
0.0707 0.0859 0.0000
0.0707 0.0909 0.0000
0.0707 0.0960 0.0000
0.0707 0.1010 0.0000
0.0707 0.1061 0.0000
0.0707 0.1111 0.0000
0.0707 0.1162 0.0000
0.0707 0.1212 0.0000
0.0707 0.1263 0.0000
0.0707 0.1313 0.0000
0.0707 0.1364 0.0000
0.0707 0.1414 0.0000
0.0707 0.1465 0.0000
0.0707 0.1515 0.0000
0.0707 0.1566 0.0000
0.0707 0.1616 0.0000
0.0707 0.1667 0.0000
0.0707 0.1717 0.0000
0.0707 0.1768 0.0000
0.0707 0.1818 0.0000
0.0707 0.1869 0.0000
0.0707 0.1919 0.0000
0.0707 0.1970 0.0000
0.0707 0.2020 0.0000
0.0707 0.2071 0.0000
0.0707 0.2121 0.0000
0.0707 0.2172 0.0000
0.0707 0.2222 0.0000
0.0707 0.2273 0.0000
0.0707 0.2323 0.0000
0.0707 0.2374 0.0000
0.0707 0.2424 0.0000
0.0707 0.2475 0.0000
0.0707 0.2525 0.0000
0.0707 0.2576 0.0000
0.0707 0.2626 0.0000
0.0707 0.2677 0.0000
0.0707 0.2727 0.0000
0.0707 0.2778 0.0000
0.0707 0.2828 0.0000
0.0707 0.2879 0.0000
0.0707 0.2929 0.0000
0.0707 0.2980 0.0000
0.0707 0.3030 0.0000
0.0707 0.3081 0.0000
0.0707 0.3131 0.0000
0.0707 0.3182 0.0000
0.0707 0.3232 0.0000
0.0707 0.3283 0.0000
0.0707 0.3333 0.0000
0.0707 0.3384 0.0000
0.0707 0.3434 0.0000
0.0707 0.3485 0.0000
0.0707 0.3535 0.0000
0.0707 0.3586 0.0000
0.0707 0.3636 0.0000
0.0707 0.3687 0.0000
0.0707 0.3737 0.0000
0.0707 0.3788 0.0000
0.0707 0.3838 0.0000
0.0707 0.3889 0.0000
0.0707 0.3939 0.0000
0.0707 0.3990 0.0000
0.0707 0.4040 0.0000
0.0707 0.4091 0.0000
0.0707 0.4141 0.0000
0.0707 0.4192 0.0000
0.0707 0.4242 0.0000
0.0707 0.4293 0.0000
0.0707 0.4343 0.0000
0.0707 0.4394 0.0000
0.0707 0.4444 0.0000
0.0707 0.4495 0.0000
0.0707 0.4545 0.0000
0.0707 0.4596 0.0000
0.0707 0.4646 0.0000
0.0707 0.4697 0.0000
0.0707 0.4747 0.0000
0.0707 0.4798 0.0000
0.0707 0.4848 0.0000
0.0707 0.4899 0.0000
0.0707 0.4949 0.0000
0.0707 0.5000 0.0000
0.0808 0.0000 0.0000
0.0808 0.0051 0.0000
0.0808 0.0101 0.0000
0.0808 0.0152 0.0000
0.0808 0.0202 0.0000
0.0808 0.0253 0.0000
0.0808 0.0303 0.0000
0.0808 0.0354 0.0000
0.0808 0.0404 0.0000
0.0808 0.0455 0.0000
0.0808 0.0505 0.0000
0.0808 0.0556 0.0000
0.0808 0.0606 0.0000
0.0808 0.0657 0.0000
0.0808 0.0707 0.0000
0.0808 0.0758 0.0000
0.0808 0.0808 0.0000
0.0808 0.0859 0.0000
0.0808 0.0909 0.0000
0.0808 0.0960 0.0000
0.0808 0.1010 0.0000
0.0808 0.1061 0.0000
0.0808 0.1111 0.0000
0.0808 0.1162 0.0000
0.0808 0.1212 0.0000
0.0808 0.1263 0.0000
0.0808 0.1313 0.0000
0.0808 0.1364 0.0000
0.0808 0.1414 0.0000
0.0808 0.1465 0.0000
0.0808 0.1515 0.0000
0.0808 0.1566 0.0000
0.0808 0.1616 0.0000
0.0808 0.1667 0.0000
0.0808 0.1717 0.0000
0.0808 0.1768 0.0000
0.0808 0.1818 0.0000
0.0808 0.1869 0.0000
0.0808 0.1919 0.0000
0.0808 0.1970 0.0000
0.0808 0.2020 0.0000
0.0808 0.2071 0.0000
0.0808 0.2121 0.0000
0.0808 0.2172 0.0000
0.0808 0.2222 0.0000
0.0808 0.2273 0.0000
0.0808 0.2323 0.0000
0.0808 0.2374 0.0000
0.0808 0.2424 0.0000
0.0808 0.2475 0.0000
0.0808 0.2525 0.0000
0.0808 0.2576 0.0000
0.0808 0.2626 0.0000
0.0808 0.2677 0.0000
0.0808 0.2727 0.0000
0.0808 0.2778 0.0000
0.0808 0.2828 0.0000
0.0808 0.2879 0.0000
0.0808 0.2929 0.0000
0.0808 0.2980 0.0000
0.0808 0.3030 0.0000
0.0808 0.3081 0.0000
0.0808 0.3131 0.0000
0.0808 0.3182 0.0000
0.0808 0.3232 0.0000
0.0808 0.3283 0.0000
0.0808 0.3333 0.0000
0.0808 0.3384 0.0000
0.0808 0.3434 0.0000
0.0808 0.3485 0.0000
0.0808 0.3535 0.0000
0.0808 0.3586 0.0000
0.0808 0.3636 0.0000
0.0808 0.3687 0.0000
0.0808 0.3737 0.0000
0.0808 0.3788 0.0000
0.0808 0.3838 0.0000
0.0808 0.3889 0.0000
0.0808 0.3939 0.0000
0.0808 0.3990 0.0000
0.0808 0.4040 0.0000
0.0808 0.4091 0.0000
0.0808 0.4141 0.0000
0.0808 0.4192 0.0000
0.0808 0.4242 0.0000
0.0808 0.4293 0.0000
0.0808 0.4343 0.0000
0.0808 0.4394 0.0000
0.0808 0.4444 0.0000
0.0808 0.4495 0.0000
0.0808 0.4545 0.0000
0.0808 0.4596 0.0000
0.0808 0.4646 0.0000
0.0808 0.4697 0.0000
0.0808 0.4747 0.0000
0.0808 0.4798 0.0000
0.0808 0.4848 0.0000
0.0808 0.4899 0.0000
0.0808 0.4949 0.0000
0.0808 0.5000 0.0000
0.0909 0.0000 0.0000
0.0909 0.0051 0.0000
0.0909 0.0101 0.0000
0.0909 0.0152 0.0000
0.0909 0.0202 0.0000
0.0909 0.0253 0.0000
0.0909 0.0303 0.0000
0.0909 0.0354 0.0000
0.0909 0.0404 0.0000
0.0909 0.0455 0.0000
0.0909 0.0505 0.0000
0.0909 0.0556 0.0000
0.0909 0.0606 0.0000
0.0909 0.0657 0.0000
0.0909 0.0707 0.0000
0.0909 0.0758 0.0000
0.0909 0.0808 0.0000
0.0909 0.0859 0.0000
0.0909 0.0909 0.0000
0.0909 0.0960 0.0000
0.0909 0.1010 0.0000
0.0909 0.1061 0.0000
0.0909 0.1111 0.0000
0.0909 0.1162 0.0000
0.0909 0.1212 0.0000
0.0909 0.1263 0.0000
0.0909 0.1313 0.0000
0.0909 0.1364 0.0000
0.0909 0.1414 0.0000
0.0909 0.1465 0.0000
0.0909 0.1515 0.0000
0.0909 0.1566 0.0000
0.0909 0.1616 0.0000
0.0909 0.1667 0.0000
0.0909 0.1717 0.0000
0.0909 0.1768 0.0000
0.0909 0.1818 0.0000
0.0909 0.1869 0.0000
0.0909 0.1919 0.0000
0.0909 0.1970 0.0000
0.0909 0.2020 0.0000
0.0909 0.2071 0.0000
0.0909 0.2121 0.0000
0.0909 0.2172 0.0000
0.0909 0.2222 0.0000
0.0909 0.2273 0.0000
0.0909 0.2323 0.0000
0.0909 0.2374 0.0000
0.0909 0.2424 0.0000
0.0909 0.2475 0.0000
0.0909 0.2525 0.0000
0.0909 0.2576 0.0000
0.0909 0.2626 0.0000
0.0909 0.2677 0.0000
0.0909 0.2727 0.0000
0.0909 0.2778 0.0000
0.0909 0.2828 0.0000
0.0909 0.2879 0.0000
0.0909 0.2929 0.0000
0.0909 0.2980 0.0000
0.0909 0.3030 0.0000
0.0909 0.3081 0.0000
0.0909 0.3131 0.0000
0.0909 0.3182 0.0000
0.0909 0.3232 0.0000
0.0909 0.3283 0.0000
0.0909 0.3333 0.0000
0.0909 0.3384 0.0000
0.0909 0.3434 0.0000
0.0909 0.3485 0.0000
0.0909 0.3535 0.0000
0.0909 0.3586 0.0000
0.0909 0.3636 0.0000
0.0909 0.3687 0.0000
0.0909 0.3737 0.0000
0.0909 0.3788 0.0000
0.0909 0.3838 0.0000
0.0909 0.3889 0.0000
0.0909 0.3939 0.0000
0.0909 0.3990 0.0000
0.0909 0.4040 0.0000
0.0909 0.4091 0.0000
0.0909 0.4141 0.0000
0.0909 0.4192 0.0000
0.0909 0.4242 0.0000
0.0909 0.4293 0.0000
0.0909 0.4343 0.0000
0.0909 0.4394 0.0000
0.0909 0.4444 0.0000
0.0909 0.4495 0.0000
0.0909 0.4545 0.0000
0.0909 0.4596 0.0000
0.0909 0.4646 0.0000
0.0909 0.4697 0.0000
0.0909 0.4747 0.0000
0.0909 0.4798 0.0000
0.0909 0.4848 0.0000
0.0909 0.4899 0.0000
0.0909 0.4949 0.0000
0.0909 0.5000 0.0000
0.1010 0.0000 0.0000
0.1010 0.0051 0.0000
0.1010 0.0101 0.0000
0.1010 0.0152 0.0000
0.1010 0.0202 0.0000
0.1010 0.0253 0.0000
0.1010 0.0303 0.0000
0.1010 0.0354 0.0000
0.1010 0.0404 0.0000
0.1010 0.0455 0.0000
0.1010 0.0505 0.0000
0.1010 0.0556 0.0000
0.1010 0.0606 0.0000
0.1010 0.0657 0.0000
0.1010 0.0707 0.0000
0.1010 0.0758 0.0000
0.1010 0.0808 0.0000
0.1010 0.0859 0.0000
0.1010 0.0909 0.0000
0.1010 0.0960 0.0000
0.1010 0.1010 0.0000
0.1010 0.1061 0.0000
0.1010 0.1111 0.0000
0.1010 0.1162 0.0000
0.1010 0.1212 0.0000
0.1010 0.1263 0.0000
0.1010 0.1313 0.0000
0.1010 0.1364 0.0000
0.1010 0.1414 0.0000
0.1010 0.1465 0.0000
0.1010 0.1515 0.0000
0.1010 0.1566 0.0000
0.1010 0.1616 0.0000
0.1010 0.1667 0.0000
0.1010 0.1717 0.0000
0.1010 0.1768 0.0000
0.1010 0.1818 0.0000
0.1010 0.1869 0.0000
0.1010 0.1919 0.0000
0.1010 0.1970 0.0000
0.1010 0.2020 0.0000
0.1010 0.2071 0.0000
0.1010 0.2121 0.0000
0.1010 0.2172 0.0000
0.1010 0.2222 0.0000
0.1010 0.2273 0.0000
0.1010 0.2323 0.0000
0.1010 0.2374 0.0000
0.1010 0.2424 0.0000
0.1010 0.2475 0.0000
0.1010 0.2525 0.0000
0.1010 0.2576 0.0000
0.1010 0.2626 0.0000
0.1010 0.2677 0.0000
0.1010 0.2727 0.0000
0.1010 0.2778 0.0000
0.1010 0.2828 0.0000
0.1010 0.2879 0.0000
0.1010 0.2929 0.0000
0.1010 0.2980 0.0000
0.1010 0.3030 0.0000
0.1010 0.3081 0.0000
0.1010 0.3131 0.0000
0.1010 0.3182 0.0000
0.1010 0.3232 0.0000
0.1010 0.3283 0.0000
0.1010 0.3333 0.0000
0.1010 0.3384 0.0000
0.1010 0.3434 0.0000
0.1010 0.3485 0.0000
0.1010 0.3535 0.0000
0.1010 0.3586 0.0000
0.1010 0.3636 0.0000
0.1010 0.3687 0.0000
0.1010 0.3737 0.0000
0.1010 0.3788 0.0000
0.1010 0.3838 0.0000
0.1010 0.3889 0.0000
0.1010 0.3939 0.0000
0.1010 0.3990 0.0000
0.1010 0.4040 0.0000
0.1010 0.4091 0.0000
0.1010 0.4141 0.0000
0.1010 0.4192 0.0000
0.1010 0.4242 0.0000
0.1010 0.4293 0.0000
0.1010 0.4343 0.0000
0.1010 0.4394 0.0000
0.1010 0.4444 0.0000
0.1010 0.4495 0.0000
0.1010 0.4545 0.0000
0.1010 0.4596 0.0000
0.1010 0.4646 0.0000
0.1010 0.4697 0.0000
0.1010 0.4747 0.0000
0.1010 0.4798 0.0000
0.1010 0.4848 0.0000
0.1010 0.4899 0.0000
0.1010 0.4949 0.0000
0.1010 0.5000 0.0000
0.1111 0.0000 0.0000
0.1111 0.0051 0.0000
0.1111 0.0101 0.0000
0.1111 0.0152 0.0000
0.1111 0.0202 0.0000
0.1111 0.0253 0.0000
0.1111 0.0303 0.0000
0.1111 0.0354 0.0000
0.1111 0.0404 0.0000
0.1111 0.0455 0.0000
0.1111 0.0505 0.0000
0.1111 0.0556 0.0000
0.1111 0.0606 0.0000
0.1111 0.0657 0.0000
0.1111 0.0707 0.0000
0.1111 0.0758 0.0000
0.1111 0.0808 0.0000
0.1111 0.0859 0.0000
0.1111 0.0909 0.0000
0.1111 0.0960 0.0000
0.1111 0.1010 0.0000
0.1111 0.1061 0.0000
0.1111 0.1111 0.0000
0.1111 0.1162 0.0000
0.1111 0.1212 0.0000
0.1111 0.1263 0.0000
0.1111 0.1313 0.0000
0.1111 0.1364 0.0000
0.1111 0.1414 0.0000
0.1111 0.1465 0.0000
0.1111 0.1515 0.0000
0.1111 0.1566 0.0000
0.1111 0.1616 0.0000
0.1111 0.1667 0.0000
0.1111 0.1717 0.0000
0.1111 0.1768 0.0000
0.1111 0.1818 0.0000
0.1111 0.1869 0.0000
0.1111 0.1919 0.0000
0.1111 0.1970 0.0000
0.1111 0.2020 0.0000
0.1111 0.2071 0.0000
0.1111 0.2121 0.0000
0.1111 0.2172 0.0000
0.1111 0.2222 0.0000
0.1111 0.2273 0.0000
0.1111 0.2323 0.0000
0.1111 0.2374 0.0000
0.1111 0.2424 0.0000
0.1111 0.2475 0.0000
0.1111 0.2525 0.0000
0.1111 0.2576 0.0000
0.1111 0.2626 0.0000
0.1111 0.2677 0.0000
0.1111 0.2727 0.0000
0.1111 0.2778 0.0000
0.1111 0.2828 0.0000
0.1111 0.2879 0.0000
0.1111 0.2929 0.0000
0.1111 0.2980 0.0000
0.1111 0.3030 0.0000
0.1111 0.3081 0.0000
0.1111 0.3131 0.0000
0.1111 0.3182 0.0000
0.1111 0.3232 0.0000
0.1111 0.3283 0.0000
0.1111 0.3333 0.0000
0.1111 0.3384 0.0000
0.1111 0.3434 0.0000
0.1111 0.3485 0.0000
0.1111 0.3535 0.0000
0.1111 0.3586 0.0000
0.1111 0.3636 0.0000
0.1111 0.3687 0.0000
0.1111 0.3737 0.0000
0.1111 0.3788 0.0000
0.1111 0.3838 0.0000
0.1111 0.3889 0.0000
0.1111 0.3939 0.0000
0.1111 0.3990 0.0000
0.1111 0.4040 0.0000
0.1111 0.4091 0.0000
0.1111 0.4141 0.0000
0.1111 0.4192 0.0000
0.1111 0.4242 0.0000
0.1111 0.4293 0.0000
0.1111 0.4343 0.0000
0.1111 0.4394 0.0000
0.1111 0.4444 0.0000
0.1111 0.4495 0.0000
0.1111 0.4545 0.0000
0.1111 0.4596 0.0000
0.1111 0.4646 0.0000
0.1111 0.4697 0.0000
0.1111 0.4747 0.0000
0.1111 0.4798 0.0000
0.1111 0.4848 0.0000
0.1111 0.4899 0.0000
0.1111 0.4949 0.0000
0.1111 0.5000 0.0000
0.1212 0.0000 0.0000
0.1212 0.0051 0.0000
0.1212 0.0101 0.0000
0.1212 0.0152 0.0000
0.1212 0.0202 0.0000
0.1212 0.0253 0.0000
0.1212 0.0303 0.0000
0.1212 0.0354 0.0000
0.1212 0.0404 0.0000
0.1212 0.0455 0.0000
0.1212 0.0505 0.0000
0.1212 0.0556 0.0000
0.1212 0.0606 0.0000
0.1212 0.0657 0.0000
0.1212 0.0707 0.0000
0.1212 0.0758 0.0000
0.1212 0.0808 0.0000
0.1212 0.0859 0.0000
0.1212 0.0909 0.0000
0.1212 0.0960 0.0000
0.1212 0.1010 0.0000
0.1212 0.1061 0.0000
0.1212 0.1111 0.0000
0.1212 0.1162 0.0000
0.1212 0.1212 0.0000
0.1212 0.1263 0.0000
0.1212 0.1313 0.0000
0.1212 0.1364 0.0000
0.1212 0.1414 0.0000
0.1212 0.1465 0.0000
0.1212 0.1515 0.0000
0.1212 0.1566 0.0000
0.1212 0.1616 0.0000
0.1212 0.1667 0.0000
0.1212 0.1717 0.0000
0.1212 0.1768 0.0000
0.1212 0.1818 0.0000
0.1212 0.1869 0.0000
0.1212 0.1919 0.0000
0.1212 0.1970 0.0000
0.1212 0.2020 0.0000
0.1212 0.2071 0.0000
0.1212 0.2121 0.0000
0.1212 0.2172 0.0000
0.1212 0.2222 0.0000
0.1212 0.2273 0.0000
0.1212 0.2323 0.0000
0.1212 0.2374 0.0000
0.1212 0.2424 0.0000
0.1212 0.2475 0.0000
0.1212 0.2525 0.0000
0.1212 0.2576 0.0000
0.1212 0.2626 0.0000
0.1212 0.2677 0.0000
0.1212 0.2727 0.0000
0.1212 0.2778 0.0000
0.1212 0.2828 0.0000
0.1212 0.2879 0.0000
0.1212 0.2929 0.0000
0.1212 0.2980 0.0000
0.1212 0.3030 0.0000
0.1212 0.3081 0.0000
0.1212 0.3131 0.0000
0.1212 0.3182 0.0000
0.1212 0.3232 0.0000
0.1212 0.3283 0.0000
0.1212 0.3333 0.0000
0.1212 0.3384 0.0000
0.1212 0.3434 0.0000
0.1212 0.3485 0.0000
0.1212 0.3535 0.0000
0.1212 0.3586 0.0000
0.1212 0.3636 0.0000
0.1212 0.3687 0.0000
0.1212 0.3737 0.0000
0.1212 0.3788 0.0000
0.1212 0.3838 0.0000
0.1212 0.3889 0.0000
0.1212 0.3939 0.0000
0.1212 0.3990 0.0000
0.1212 0.4040 0.0000
0.1212 0.4091 0.0000
0.1212 0.4141 0.0000
0.1212 0.4192 0.0000
0.1212 0.4242 0.0000
0.1212 0.4293 0.0000
0.1212 0.4343 0.0000
0.1212 0.4394 0.0000
0.1212 0.4444 0.0000
0.1212 0.4495 0.0000
0.1212 0.4545 0.0000
0.1212 0.4596 0.0000
0.1212 0.4646 0.0000
0.1212 0.4697 0.0000
0.1212 0.4747 0.0000
0.1212 0.4798 0.0000
0.1212 0.4848 0.0000
0.1212 0.4899 0.0000
0.1212 0.4949 0.0000
0.1212 0.5000 0.0000
0.1313 0.0000 0.0000
0.1313 0.0051 0.0000
0.1313 0.0101 0.0000
0.1313 0.0152 0.0000
0.1313 0.0202 0.0000
0.1313 0.0253 0.0000
0.1313 0.0303 0.0000
0.1313 0.0354 0.0000
0.1313 0.0404 0.0000
0.1313 0.0455 0.0000
0.1313 0.0505 0.0000
0.1313 0.0556 0.0000
0.1313 0.0606 0.0000
0.1313 0.0657 0.0000
0.1313 0.0707 0.0000
0.1313 0.0758 0.0000
0.1313 0.0808 0.0000
0.1313 0.0859 0.0000
0.1313 0.0909 0.0000
0.1313 0.0960 0.0000
0.1313 0.1010 0.0000
0.1313 0.1061 0.0000
0.1313 0.1111 0.0000
0.1313 0.1162 0.0000
0.1313 0.1212 0.0000
0.1313 0.1263 0.0000
0.1313 0.1313 0.0000
0.1313 0.1364 0.0000
0.1313 0.1414 0.0000
0.1313 0.1465 0.0000
0.1313 0.1515 0.0000
0.1313 0.1566 0.0000
0.1313 0.1616 0.0000
0.1313 0.1667 0.0000
0.1313 0.1717 0.0000
0.1313 0.1768 0.0000
0.1313 0.1818 0.0000
0.1313 0.1869 0.0000
0.1313 0.1919 0.0000
0.1313 0.1970 0.0000
0.1313 0.2020 0.0000
0.1313 0.2071 0.0000
0.1313 0.2121 0.0000
0.1313 0.2172 0.0000
0.1313 0.2222 0.0000
0.1313 0.2273 0.0000
0.1313 0.2323 0.0000
0.1313 0.2374 0.0000
0.1313 0.2424 0.0000
0.1313 0.2475 0.0000
0.1313 0.2525 0.0000
0.1313 0.2576 0.0000
0.1313 0.2626 0.0000
0.1313 0.2677 0.0000
0.1313 0.2727 0.0000
0.1313 0.2778 0.0000
0.1313 0.2828 0.0000
0.1313 0.2879 0.0000
0.1313 0.2929 0.0000
0.1313 0.2980 0.0000
0.1313 0.3030 0.0000
0.1313 0.3081 0.0000
0.1313 0.3131 0.0000
0.1313 0.3182 0.0000
0.1313 0.3232 0.0000
0.1313 0.3283 0.0000
0.1313 0.3333 0.0000
0.1313 0.3384 0.0000
0.1313 0.3434 0.0000
0.1313 0.3485 0.0000
0.1313 0.3535 0.0000
0.1313 0.3586 0.0000
0.1313 0.3636 0.0000
0.1313 0.3687 0.0000
0.1313 0.3737 0.0000
0.1313 0.3788 0.0000
0.1313 0.3838 0.0000
0.1313 0.3889 0.0000
0.1313 0.3939 0.0000
0.1313 0.3990 0.0000
0.1313 0.4040 0.0000
0.1313 0.4091 0.0000
0.1313 0.4141 0.0000
0.1313 0.4192 0.0000
0.1313 0.4242 0.0000
0.1313 0.4293 0.0000
0.1313 0.4343 0.0000
0.1313 0.4394 0.0000
0.1313 0.4444 0.0000
0.1313 0.4495 0.0000
0.1313 0.4545 0.0000
0.1313 0.4596 0.0000
0.1313 0.4646 0.0000
0.1313 0.4697 0.0000
0.1313 0.4747 0.0000
0.1313 0.4798 0.0000
0.1313 0.4848 0.0000
0.1313 0.4899 0.0000
0.1313 0.4949 0.0000
0.1313 0.5000 0.0000
0.1414 0.0000 0.0000
0.1414 0.0051 0.0000
0.1414 0.0101 0.0000
0.1414 0.0152 0.0000
0.1414 0.0202 0.0000
0.1414 0.0253 0.0000
0.1414 0.0303 0.0000
0.1414 0.0354 0.0000
0.1414 0.0404 0.0000
0.1414 0.0455 0.0000
0.1414 0.0505 0.0000
0.1414 0.0556 0.0000
0.1414 0.0606 0.0000
0.1414 0.0657 0.0000
0.1414 0.0707 0.0000
0.1414 0.0758 0.0000
0.1414 0.0808 0.0000
0.1414 0.0859 0.0000
0.1414 0.0909 0.0000
0.1414 0.0960 0.0000
0.1414 0.1010 0.0000
0.1414 0.1061 0.0000
0.1414 0.1111 0.0000
0.1414 0.1162 0.0000
0.1414 0.1212 0.0000
0.1414 0.1263 0.0000
0.1414 0.1313 0.0000
0.1414 0.1364 0.0000
0.1414 0.1414 0.0000
0.1414 0.1465 0.0000
0.1414 0.1515 0.0000
0.1414 0.1566 0.0000
0.1414 0.1616 0.0000
0.1414 0.1667 0.0000
0.1414 0.1717 0.0000
0.1414 0.1768 0.0000
0.1414 0.1818 0.0000
0.1414 0.1869 0.0000
0.1414 0.1919 0.0000
0.1414 0.1970 0.0000
0.1414 0.2020 0.0000
0.1414 0.2071 0.0000
0.1414 0.2121 0.0000
0.1414 0.2172 0.0000
0.1414 0.2222 0.0000
0.1414 0.2273 0.0000
0.1414 0.2323 0.0000
0.1414 0.2374 0.0000
0.1414 0.2424 0.0000
0.1414 0.2475 0.0000
0.1414 0.2525 0.0000
0.1414 0.2576 0.0000
0.1414 0.2626 0.0000
0.1414 0.2677 0.0000
0.1414 0.2727 0.0000
0.1414 0.2778 0.0000
0.1414 0.2828 0.0000
0.1414 0.2879 0.0000
0.1414 0.2929 0.0000
0.1414 0.2980 0.0000
0.1414 0.3030 0.0000
0.1414 0.3081 0.0000
0.1414 0.3131 0.0000
0.1414 0.3182 0.0000
0.1414 0.3232 0.0000
0.1414 0.3283 0.0000
0.1414 0.3333 0.0000
0.1414 0.3384 0.0000
0.1414 0.3434 0.0000
0.1414 0.3485 0.0000
0.1414 0.3535 0.0000
0.1414 0.3586 0.0000
0.1414 0.3636 0.0000
0.1414 0.3687 0.0000
0.1414 0.3737 0.0000
0.1414 0.3788 0.0000
0.1414 0.3838 0.0000
0.1414 0.3889 0.0000
0.1414 0.3939 0.0000
0.1414 0.3990 0.0000
0.1414 0.4040 0.0000
0.1414 0.4091 0.0000
0.1414 0.4141 0.0000
0.1414 0.4192 0.0000
0.1414 0.4242 0.0000
0.1414 0.4293 0.0000
0.1414 0.4343 0.0000
0.1414 0.4394 0.0000
0.1414 0.4444 0.0000
0.1414 0.4495 0.0000
0.1414 0.4545 0.0000
0.1414 0.4596 0.0000
0.1414 0.4646 0.0000
0.1414 0.4697 0.0000
0.1414 0.4747 0.0000
0.1414 0.4798 0.0000
0.1414 0.4848 0.0000
0.1414 0.4899 0.0000
0.1414 0.4949 0.0000
0.1414 0.5000 0.0000
0.1515 0.0000 0.0000
0.1515 0.0051 0.0000
0.1515 0.0101 0.0000
0.1515 0.0152 0.0000
0.1515 0.0202 0.0000
0.1515 0.0253 0.0000
0.1515 0.0303 0.0000
0.1515 0.0354 0.0000
0.1515 0.0404 0.0000
0.1515 0.0455 0.0000
0.1515 0.0505 0.0000
0.1515 0.0556 0.0000
0.1515 0.0606 0.0000
0.1515 0.0657 0.0000
0.1515 0.0707 0.0000
0.1515 0.0758 0.0000
0.1515 0.0808 0.0000
0.1515 0.0859 0.0000
0.1515 0.0909 0.0000
0.1515 0.0960 0.0000
0.1515 0.1010 0.0000
0.1515 0.1061 0.0000
0.1515 0.1111 0.0000
0.1515 0.1162 0.0000
0.1515 0.1212 0.0000
0.1515 0.1263 0.0000
0.1515 0.1313 0.0000
0.1515 0.1364 0.0000
0.1515 0.1414 0.0000
0.1515 0.1465 0.0000
0.1515 0.1515 0.0000
0.1515 0.1566 0.0000
0.1515 0.1616 0.0000
0.1515 0.1667 0.0000
0.1515 0.1717 0.0000
0.1515 0.1768 0.0000
0.1515 0.1818 0.0000
0.1515 0.1869 0.0000
0.1515 0.1919 0.0000
0.1515 0.1970 0.0000
0.1515 0.2020 0.0000
0.1515 0.2071 0.0000
0.1515 0.2121 0.0000
0.1515 0.2172 0.0000
0.1515 0.2222 0.0000
0.1515 0.2273 0.0000
0.1515 0.2323 0.0000
0.1515 0.2374 0.0000
0.1515 0.2424 0.0000
0.1515 0.2475 0.0000
0.1515 0.2525 0.0000
0.1515 0.2576 0.0000
0.1515 0.2626 0.0000
0.1515 0.2677 0.0000
0.1515 0.2727 0.0000
0.1515 0.2778 0.0000
0.1515 0.2828 0.0000
0.1515 0.2879 0.0000
0.1515 0.2929 0.0000
0.1515 0.2980 0.0000
0.1515 0.3030 0.0000
0.1515 0.3081 0.0000
0.1515 0.3131 0.0000
0.1515 0.3182 0.0000
0.1515 0.3232 0.0000
0.1515 0.3283 0.0000
0.1515 0.3333 0.0000
0.1515 0.3384 0.0000
0.1515 0.3434 0.0000
0.1515 0.3485 0.0000
0.1515 0.3535 0.0000
0.1515 0.3586 0.0000
0.1515 0.3636 0.0000
0.1515 0.3687 0.0000
0.1515 0.3737 0.0000
0.1515 0.3788 0.0000
0.1515 0.3838 0.0000
0.1515 0.3889 0.0000
0.1515 0.3939 0.0000
0.1515 0.3990 0.0000
0.1515 0.4040 0.0000
0.1515 0.4091 0.0000
0.1515 0.4141 0.0000
0.1515 0.4192 0.0000
0.1515 0.4242 0.0000
0.1515 0.4293 0.0000
0.1515 0.4343 0.0000
0.1515 0.4394 0.0000
0.1515 0.4444 0.0000
0.1515 0.4495 0.0000
0.1515 0.4545 0.0000
0.1515 0.4596 0.0000
0.1515 0.4646 0.0000
0.1515 0.4697 0.0000
0.1515 0.4747 0.0000
0.1515 0.4798 0.0000
0.1515 0.4848 0.0000
0.1515 0.4899 0.0000
0.1515 0.4949 0.0000
0.1515 0.5000 0.0000
0.1616 0.0000 0.0000
0.1616 0.0051 0.0000
0.1616 0.0101 0.0000
0.1616 0.0152 0.0000
0.1616 0.0202 0.0000
0.1616 0.0253 0.0000
0.1616 0.0303 0.0000
0.1616 0.0354 0.0000
0.1616 0.0404 0.0000
0.1616 0.0455 0.0000
0.1616 0.0505 0.0000
0.1616 0.0556 0.0000
0.1616 0.0606 0.0000
0.1616 0.0657 0.0000
0.1616 0.0707 0.0000
0.1616 0.0758 0.0000
0.1616 0.0808 0.0000
0.1616 0.0859 0.0000
0.1616 0.0909 0.0000
0.1616 0.0960 0.0000
0.1616 0.1010 0.0000
0.1616 0.1061 0.0000
0.1616 0.1111 0.0000
0.1616 0.1162 0.0000
0.1616 0.1212 0.0000
0.1616 0.1263 0.0000
0.1616 0.1313 0.0000
0.1616 0.1364 0.0000
0.1616 0.1414 0.0000
0.1616 0.1465 0.0000
0.1616 0.1515 0.0000
0.1616 0.1566 0.0000
0.1616 0.1616 0.0000
0.1616 0.1667 0.0000
0.1616 0.1717 0.0000
0.1616 0.1768 0.0000
0.1616 0.1818 0.0000
0.1616 0.1869 0.0000
0.1616 0.1919 0.0000
0.1616 0.1970 0.0000
0.1616 0.2020 0.0000
0.1616 0.2071 0.0000
0.1616 0.2121 0.0000
0.1616 0.2172 0.0000
0.1616 0.2222 0.0000
0.1616 0.2273 0.0000
0.1616 0.2323 0.0000
0.1616 0.2374 0.0000
0.1616 0.2424 0.0000
0.1616 0.2475 0.0000
0.1616 0.2525 0.0000
0.1616 0.2576 0.0000
0.1616 0.2626 0.0000
0.1616 0.2677 0.0000
0.1616 0.2727 0.0000
0.1616 0.2778 0.0000
0.1616 0.2828 0.0000
0.1616 0.2879 0.0000
0.1616 0.2929 0.0000
0.1616 0.2980 0.0000
0.1616 0.3030 0.0000
0.1616 0.3081 0.0000
0.1616 0.3131 0.0000
0.1616 0.3182 0.0000
0.1616 0.3232 0.0000
0.1616 0.3283 0.0000
0.1616 0.3333 0.0000
0.1616 0.3384 0.0000
0.1616 0.3434 0.0000
0.1616 0.3485 0.0000
0.1616 0.3535 0.0000
0.1616 0.3586 0.0000
0.1616 0.3636 0.0000
0.1616 0.3687 0.0000
0.1616 0.3737 0.0000
0.1616 0.3788 0.0000
0.1616 0.3838 0.0000
0.1616 0.3889 0.0000
0.1616 0.3939 0.0000
0.1616 0.3990 0.0000
0.1616 0.4040 0.0000
0.1616 0.4091 0.0000
0.1616 0.4141 0.0000
0.1616 0.4192 0.0000
0.1616 0.4242 0.0000
0.1616 0.4293 0.0000
0.1616 0.4343 0.0000
0.1616 0.4394 0.0000
0.1616 0.4444 0.0000
0.1616 0.4495 0.0000
0.1616 0.4545 0.0000
0.1616 0.4596 0.0000
0.1616 0.4646 0.0000
0.1616 0.4697 0.0000
0.1616 0.4747 0.0000
0.1616 0.4798 0.0000
0.1616 0.4848 0.0000
0.1616 0.4899 0.0000
0.1616 0.4949 0.0000
0.1616 0.5000 0.0000
0.1717 0.0000 0.0000
0.1717 0.0051 0.0000
0.1717 0.0101 0.0000
0.1717 0.0152 0.0000
0.1717 0.0202 0.0000
0.1717 0.0253 0.0000
0.1717 0.0303 0.0000
0.1717 0.0354 0.0000
0.1717 0.0404 0.0000
0.1717 0.0455 0.0000
0.1717 0.0505 0.0000
0.1717 0.0556 0.0000
0.1717 0.0606 0.0000
0.1717 0.0657 0.0000
0.1717 0.0707 0.0000
0.1717 0.0758 0.0000
0.1717 0.0808 0.0000
0.1717 0.0859 0.0000
0.1717 0.0909 0.0000
0.1717 0.0960 0.0000
0.1717 0.1010 0.0000
0.1717 0.1061 0.0000
0.1717 0.1111 0.0000
0.1717 0.1162 0.0000
0.1717 0.1212 0.0000
0.1717 0.1263 0.0000
0.1717 0.1313 0.0000
0.1717 0.1364 0.0000
0.1717 0.1414 0.0000
0.1717 0.1465 0.0000
0.1717 0.1515 0.0000
0.1717 0.1566 0.0000
0.1717 0.1616 0.0000
0.1717 0.1667 0.0000
0.1717 0.1717 0.0000
0.1717 0.1768 0.0000
0.1717 0.1818 0.0000
0.1717 0.1869 0.0000
0.1717 0.1919 0.0000
0.1717 0.1970 0.0000
0.1717 0.2020 0.0000
0.1717 0.2071 0.0000
0.1717 0.2121 0.0000
0.1717 0.2172 0.0000
0.1717 0.2222 0.0000
0.1717 0.2273 0.0000
0.1717 0.2323 0.0000
0.1717 0.2374 0.0000
0.1717 0.2424 0.0000
0.1717 0.2475 0.0000
0.1717 0.2525 0.0000
0.1717 0.2576 0.0000
0.1717 0.2626 0.0000
0.1717 0.2677 0.0000
0.1717 0.2727 0.0000
0.1717 0.2778 0.0000
0.1717 0.2828 0.0000
0.1717 0.2879 0.0000
0.1717 0.2929 0.0000
0.1717 0.2980 0.0000
0.1717 0.3030 0.0000
0.1717 0.3081 0.0000
0.1717 0.3131 0.0000
0.1717 0.3182 0.0000
0.1717 0.3232 0.0000
0.1717 0.3283 0.0000
0.1717 0.3333 0.0000
0.1717 0.3384 0.0000
0.1717 0.3434 0.0000
0.1717 0.3485 0.0000
0.1717 0.3535 0.0000
0.1717 0.3586 0.0000
0.1717 0.3636 0.0000
0.1717 0.3687 0.0000
0.1717 0.3737 0.0000
0.1717 0.3788 0.0000
0.1717 0.3838 0.0000
0.1717 0.3889 0.0000
0.1717 0.3939 0.0000
0.1717 0.3990 0.0000
0.1717 0.4040 0.0000
0.1717 0.4091 0.0000
0.1717 0.4141 0.0000
0.1717 0.4192 0.0000
0.1717 0.4242 0.0000
0.1717 0.4293 0.0000
0.1717 0.4343 0.0000
0.1717 0.4394 0.0000
0.1717 0.4444 0.0000
0.1717 0.4495 0.0000
0.1717 0.4545 0.0000
0.1717 0.4596 0.0000
0.1717 0.4646 0.0000
0.1717 0.4697 0.0000
0.1717 0.4747 0.0000
0.1717 0.4798 0.0000
0.1717 0.4848 0.0000
0.1717 0.4899 0.0000
0.1717 0.4949 0.0000
0.1717 0.5000 0.0000
0.1818 0.0000 0.0000
0.1818 0.0051 0.0000
0.1818 0.0101 0.0000
0.1818 0.0152 0.0000
0.1818 0.0202 0.0000
0.1818 0.0253 0.0000
0.1818 0.0303 0.0000
0.1818 0.0354 0.0000
0.1818 0.0404 0.0000
0.1818 0.0455 0.0000
0.1818 0.0505 0.0000
0.1818 0.0556 0.0000
0.1818 0.0606 0.0000
0.1818 0.0657 0.0000
0.1818 0.0707 0.0000
0.1818 0.0758 0.0000
0.1818 0.0808 0.0000
0.1818 0.0859 0.0000
0.1818 0.0909 0.0000
0.1818 0.0960 0.0000
0.1818 0.1010 0.0000
0.1818 0.1061 0.0000
0.1818 0.1111 0.0000
0.1818 0.1162 0.0000
0.1818 0.1212 0.0000
0.1818 0.1263 0.0000
0.1818 0.1313 0.0000
0.1818 0.1364 0.0000
0.1818 0.1414 0.0000
0.1818 0.1465 0.0000
0.1818 0.1515 0.0000
0.1818 0.1566 0.0000
0.1818 0.1616 0.0000
0.1818 0.1667 0.0000
0.1818 0.1717 0.0000
0.1818 0.1768 0.0000
0.1818 0.1818 0.0000
0.1818 0.1869 0.0000
0.1818 0.1919 0.0000
0.1818 0.1970 0.0000
0.1818 0.2020 0.0000
0.1818 0.2071 0.0000
0.1818 0.2121 0.0000
0.1818 0.2172 0.0000
0.1818 0.2222 0.0000
0.1818 0.2273 0.0000
0.1818 0.2323 0.0000
0.1818 0.2374 0.0000
0.1818 0.2424 0.0000
0.1818 0.2475 0.0000
0.1818 0.2525 0.0000
0.1818 0.2576 0.0000
0.1818 0.2626 0.0000
0.1818 0.2677 0.0000
0.1818 0.2727 0.0000
0.1818 0.2778 0.0000
0.1818 0.2828 0.0000
0.1818 0.2879 0.0000
0.1818 0.2929 0.0000
0.1818 0.2980 0.0000
0.1818 0.3030 0.0000
0.1818 0.3081 0.0000
0.1818 0.3131 0.0000
0.1818 0.3182 0.0000
0.1818 0.3232 0.0000
0.1818 0.3283 0.0000
0.1818 0.3333 0.0000
0.1818 0.3384 0.0000
0.1818 0.3434 0.0000
0.1818 0.3485 0.0000
0.1818 0.3535 0.0000
0.1818 0.3586 0.0000
0.1818 0.3636 0.0000
0.1818 0.3687 0.0000
0.1818 0.3737 0.0000
0.1818 0.3788 0.0000
0.1818 0.3838 0.0000
0.1818 0.3889 0.0000
0.1818 0.3939 0.0000
0.1818 0.3990 0.0000
0.1818 0.4040 0.0000
0.1818 0.4091 0.0000
0.1818 0.4141 0.0000
0.1818 0.4192 0.0000
0.1818 0.4242 0.0000
0.1818 0.4293 0.0000
0.1818 0.4343 0.0000
0.1818 0.4394 0.0000
0.1818 0.4444 0.0000
0.1818 0.4495 0.0000
0.1818 0.4545 0.0000
0.1818 0.4596 0.0000
0.1818 0.4646 0.0000
0.1818 0.4697 0.0000
0.1818 0.4747 0.0000
0.1818 0.4798 0.0000
0.1818 0.4848 0.0000
0.1818 0.4899 0.0000
0.1818 0.4949 0.0000
0.1818 0.5000 0.0000
0.1919 0.0000 0.0000
0.1919 0.0051 0.0000
0.1919 0.0101 0.0000
0.1919 0.0152 0.0000
0.1919 0.0202 0.0000
0.1919 0.0253 0.0000
0.1919 0.0303 0.0000
0.1919 0.0354 0.0000
0.1919 0.0404 0.0000
0.1919 0.0455 0.0000
0.1919 0.0505 0.0000
0.1919 0.0556 0.0000
0.1919 0.0606 0.0000
0.1919 0.0657 0.0000
0.1919 0.0707 0.0000
0.1919 0.0758 0.0000
0.1919 0.0808 0.0000
0.1919 0.0859 0.0000
0.1919 0.0909 0.0000
0.1919 0.0960 0.0000
0.1919 0.1010 0.0000
0.1919 0.1061 0.0000
0.1919 0.1111 0.0000
0.1919 0.1162 0.0000
0.1919 0.1212 0.0000
0.1919 0.1263 0.0000
0.1919 0.1313 0.0000
0.1919 0.1364 0.0000
0.1919 0.1414 0.0000
0.1919 0.1465 0.0000
0.1919 0.1515 0.0000
0.1919 0.1566 0.0000
0.1919 0.1616 0.0000
0.1919 0.1667 0.0000
0.1919 0.1717 0.0000
0.1919 0.1768 0.0000
0.1919 0.1818 0.0000
0.1919 0.1869 0.0000
0.1919 0.1919 0.0000
0.1919 0.1970 0.0000
0.1919 0.2020 0.0000
0.1919 0.2071 0.0000
0.1919 0.2121 0.0000
0.1919 0.2172 0.0000
0.1919 0.2222 0.0000
0.1919 0.2273 0.0000
0.1919 0.2323 0.0000
0.1919 0.2374 0.0000
0.1919 0.2424 0.0000
0.1919 0.2475 0.0000
0.1919 0.2525 0.0000
0.1919 0.2576 0.0000
0.1919 0.2626 0.0000
0.1919 0.2677 0.0000
0.1919 0.2727 0.0000
0.1919 0.2778 0.0000
0.1919 0.2828 0.0000
0.1919 0.2879 0.0000
0.1919 0.2929 0.0000
0.1919 0.2980 0.0000
0.1919 0.3030 0.0000
0.1919 0.3081 0.0000
0.1919 0.3131 0.0000
0.1919 0.3182 0.0000
0.1919 0.3232 0.0000
0.1919 0.3283 0.0000
0.1919 0.3333 0.0000
0.1919 0.3384 0.0000
0.1919 0.3434 0.0000
0.1919 0.3485 0.0000
0.1919 0.3535 0.0000
0.1919 0.3586 0.0000
0.1919 0.3636 0.0000
0.1919 0.3687 0.0000
0.1919 0.3737 0.0000
0.1919 0.3788 0.0000
0.1919 0.3838 0.0000
0.1919 0.3889 0.0000
0.1919 0.3939 0.0000
0.1919 0.3990 0.0000
0.1919 0.4040 0.0000
0.1919 0.4091 0.0000
0.1919 0.4141 0.0000
0.1919 0.4192 0.0000
0.1919 0.4242 0.0000
0.1919 0.4293 0.0000
0.1919 0.4343 0.0000
0.1919 0.4394 0.0000
0.1919 0.4444 0.0000
0.1919 0.4495 0.0000
0.1919 0.4545 0.0000
0.1919 0.4596 0.0000
0.1919 0.4646 0.0000
0.1919 0.4697 0.0000
0.1919 0.4747 0.0000
0.1919 0.4798 0.0000
0.1919 0.4848 0.0000
0.1919 0.4899 0.0000
0.1919 0.4949 0.0000
0.1919 0.5000 0.0000
0.2020 0.0000 0.0000
0.2020 0.0051 0.0000
0.2020 0.0101 0.0000
0.2020 0.0152 0.0000
0.2020 0.0202 0.0000
0.2020 0.0253 0.0000
0.2020 0.0303 0.0000
0.2020 0.0354 0.0000
0.2020 0.0404 0.0000
0.2020 0.0455 0.0000
0.2020 0.0505 0.0000
0.2020 0.0556 0.0000
0.2020 0.0606 0.0000
0.2020 0.0657 0.0000
0.2020 0.0707 0.0000
0.2020 0.0758 0.0000
0.2020 0.0808 0.0000
0.2020 0.0859 0.0000
0.2020 0.0909 0.0000
0.2020 0.0960 0.0000
0.2020 0.1010 0.0000
0.2020 0.1061 0.0000
0.2020 0.1111 0.0000
0.2020 0.1162 0.0000
0.2020 0.1212 0.0000
0.2020 0.1263 0.0000
0.2020 0.1313 0.0000
0.2020 0.1364 0.0000
0.2020 0.1414 0.0000
0.2020 0.1465 0.0000
0.2020 0.1515 0.0000
0.2020 0.1566 0.0000
0.2020 0.1616 0.0000
0.2020 0.1667 0.0000
0.2020 0.1717 0.0000
0.2020 0.1768 0.0000
0.2020 0.1818 0.0000
0.2020 0.1869 0.0000
0.2020 0.1919 0.0000
0.2020 0.1970 0.0000
0.2020 0.2020 0.0000
0.2020 0.2071 0.0000
0.2020 0.2121 0.0000
0.2020 0.2172 0.0000
0.2020 0.2222 0.0000
0.2020 0.2273 0.0000
0.2020 0.2323 0.0000
0.2020 0.2374 0.0000
0.2020 0.2424 0.0000
0.2020 0.2475 0.0000
0.2020 0.2525 0.0000
0.2020 0.2576 0.0000
0.2020 0.2626 0.0000
0.2020 0.2677 0.0000
0.2020 0.2727 0.0000
0.2020 0.2778 0.0000
0.2020 0.2828 0.0000
0.2020 0.2879 0.0000
0.2020 0.2929 0.0000
0.2020 0.2980 0.0000
0.2020 0.3030 0.0000
0.2020 0.3081 0.0000
0.2020 0.3131 0.0000
0.2020 0.3182 0.0000
0.2020 0.3232 0.0000
0.2020 0.3283 0.0000
0.2020 0.3333 0.0000
0.2020 0.3384 0.0000
0.2020 0.3434 0.0000
0.2020 0.3485 0.0000
0.2020 0.3535 0.0000
0.2020 0.3586 0.0000
0.2020 0.3636 0.0000
0.2020 0.3687 0.0000
0.2020 0.3737 0.0000
0.2020 0.3788 0.0000
0.2020 0.3838 0.0000
0.2020 0.3889 0.0000
0.2020 0.3939 0.0000
0.2020 0.3990 0.0000
0.2020 0.4040 0.0000
0.2020 0.4091 0.0000
0.2020 0.4141 0.0000
0.2020 0.4192 0.0000
0.2020 0.4242 0.0000
0.2020 0.4293 0.0000
0.2020 0.4343 0.0000
0.2020 0.4394 0.0000
0.2020 0.4444 0.0000
0.2020 0.4495 0.0000
0.2020 0.4545 0.0000
0.2020 0.4596 0.0000
0.2020 0.4646 0.0000
0.2020 0.4697 0.0000
0.2020 0.4747 0.0000
0.2020 0.4798 0.0000
0.2020 0.4848 0.0000
0.2020 0.4899 0.0000
0.2020 0.4949 0.0000
0.2020 0.5000 0.0000
0.2121 0.0000 0.0000
0.2121 0.0051 0.0000
0.2121 0.0101 0.0000
0.2121 0.0152 0.0000
0.2121 0.0202 0.0000
0.2121 0.0253 0.0000
0.2121 0.0303 0.0000
0.2121 0.0354 0.0000
0.2121 0.0404 0.0000
0.2121 0.0455 0.0000
0.2121 0.0505 0.0000
0.2121 0.0556 0.0000
0.2121 0.0606 0.0000
0.2121 0.0657 0.0000
0.2121 0.0707 0.0000
0.2121 0.0758 0.0000
0.2121 0.0808 0.0000
0.2121 0.0859 0.0000
0.2121 0.0909 0.0000
0.2121 0.0960 0.0000
0.2121 0.1010 0.0000
0.2121 0.1061 0.0000
0.2121 0.1111 0.0000
0.2121 0.1162 0.0000
0.2121 0.1212 0.0000
0.2121 0.1263 0.0000
0.2121 0.1313 0.0000
0.2121 0.1364 0.0000
0.2121 0.1414 0.0000
0.2121 0.1465 0.0000
0.2121 0.1515 0.0000
0.2121 0.1566 0.0000
0.2121 0.1616 0.0000
0.2121 0.1667 0.0000
0.2121 0.1717 0.0000
0.2121 0.1768 0.0000
0.2121 0.1818 0.0000
0.2121 0.1869 0.0000
0.2121 0.1919 0.0000
0.2121 0.1970 0.0000
0.2121 0.2020 0.0000
0.2121 0.2071 0.0000
0.2121 0.2121 0.0000
0.2121 0.2172 0.0000
0.2121 0.2222 0.0000
0.2121 0.2273 0.0000
0.2121 0.2323 0.0000
0.2121 0.2374 0.0000
0.2121 0.2424 0.0000
0.2121 0.2475 0.0000
0.2121 0.2525 0.0000
0.2121 0.2576 0.0000
0.2121 0.2626 0.0000
0.2121 0.2677 0.0000
0.2121 0.2727 0.0000
0.2121 0.2778 0.0000
0.2121 0.2828 0.0000
0.2121 0.2879 0.0000
0.2121 0.2929 0.0000
0.2121 0.2980 0.0000
0.2121 0.3030 0.0000
0.2121 0.3081 0.0000
0.2121 0.3131 0.0000
0.2121 0.3182 0.0000
0.2121 0.3232 0.0000
0.2121 0.3283 0.0000
0.2121 0.3333 0.0000
0.2121 0.3384 0.0000
0.2121 0.3434 0.0000
0.2121 0.3485 0.0000
0.2121 0.3535 0.0000
0.2121 0.3586 0.0000
0.2121 0.3636 0.0000
0.2121 0.3687 0.0000
0.2121 0.3737 0.0000
0.2121 0.3788 0.0000
0.2121 0.3838 0.0000
0.2121 0.3889 0.0000
0.2121 0.3939 0.0000
0.2121 0.3990 0.0000
0.2121 0.4040 0.0000
0.2121 0.4091 0.0000
0.2121 0.4141 0.0000
0.2121 0.4192 0.0000
0.2121 0.4242 0.0000
0.2121 0.4293 0.0000
0.2121 0.4343 0.0000
0.2121 0.4394 0.0000
0.2121 0.4444 0.0000
0.2121 0.4495 0.0000
0.2121 0.4545 0.0000
0.2121 0.4596 0.0000
0.2121 0.4646 0.0000
0.2121 0.4697 0.0000
0.2121 0.4747 0.0000
0.2121 0.4798 0.0000
0.2121 0.4848 0.0000
0.2121 0.4899 0.0000
0.2121 0.4949 0.0000
0.2121 0.5000 0.0000
0.2222 0.0000 0.0000
0.2222 0.0051 0.0000
0.2222 0.0101 0.0000
0.2222 0.0152 0.0000
0.2222 0.0202 0.0000
0.2222 0.0253 0.0000
0.2222 0.0303 0.0000
0.2222 0.0354 0.0000
0.2222 0.0404 0.0000
0.2222 0.0455 0.0000
0.2222 0.0505 0.0000
0.2222 0.0556 0.0000
0.2222 0.0606 0.0000
0.2222 0.0657 0.0000
0.2222 0.0707 0.0000
0.2222 0.0758 0.0000
0.2222 0.0808 0.0000
0.2222 0.0859 0.0000
0.2222 0.0909 0.0000
0.2222 0.0960 0.0000
0.2222 0.1010 0.0000
0.2222 0.1061 0.0000
0.2222 0.1111 0.0000
0.2222 0.1162 0.0000
0.2222 0.1212 0.0000
0.2222 0.1263 0.0000
0.2222 0.1313 0.0000
0.2222 0.1364 0.0000
0.2222 0.1414 0.0000
0.2222 0.1465 0.0000
0.2222 0.1515 0.0000
0.2222 0.1566 0.0000
0.2222 0.1616 0.0000
0.2222 0.1667 0.0000
0.2222 0.1717 0.0000
0.2222 0.1768 0.0000
0.2222 0.1818 0.0000
0.2222 0.1869 0.0000
0.2222 0.1919 0.0000
0.2222 0.1970 0.0000
0.2222 0.2020 0.0000
0.2222 0.2071 0.0000
0.2222 0.2121 0.0000
0.2222 0.2172 0.0000
0.2222 0.2222 0.0000
0.2222 0.2273 0.0000
0.2222 0.2323 0.0000
0.2222 0.2374 0.0000
0.2222 0.2424 0.0000
0.2222 0.2475 0.0000
0.2222 0.2525 0.0000
0.2222 0.2576 0.0000
0.2222 0.2626 0.0000
0.2222 0.2677 0.0000
0.2222 0.2727 0.0000
0.2222 0.2778 0.0000
0.2222 0.2828 0.0000
0.2222 0.2879 0.0000
0.2222 0.2929 0.0000
0.2222 0.2980 0.0000
0.2222 0.3030 0.0000
0.2222 0.3081 0.0000
0.2222 0.3131 0.0000
0.2222 0.3182 0.0000
0.2222 0.3232 0.0000
0.2222 0.3283 0.0000
0.2222 0.3333 0.0000
0.2222 0.3384 0.0000
0.2222 0.3434 0.0000
0.2222 0.3485 0.0000
0.2222 0.3535 0.0000
0.2222 0.3586 0.0000
0.2222 0.3636 0.0000
0.2222 0.3687 0.0000
0.2222 0.3737 0.0000
0.2222 0.3788 0.0000
0.2222 0.3838 0.0000
0.2222 0.3889 0.0000
0.2222 0.3939 0.0000
0.2222 0.3990 0.0000
0.2222 0.4040 0.0000
0.2222 0.4091 0.0000
0.2222 0.4141 0.0000
0.2222 0.4192 0.0000
0.2222 0.4242 0.0000
0.2222 0.4293 0.0000
0.2222 0.4343 0.0000
0.2222 0.4394 0.0000
0.2222 0.4444 0.0000
0.2222 0.4495 0.0000
0.2222 0.4545 0.0000
0.2222 0.4596 0.0000
0.2222 0.4646 0.0000
0.2222 0.4697 0.0000
0.2222 0.4747 0.0000
0.2222 0.4798 0.0000
0.2222 0.4848 0.0000
0.2222 0.4899 0.0000
0.2222 0.4949 0.0000
0.2222 0.5000 0.0000
0.2323 0.0000 0.0000
0.2323 0.0051 0.0000
0.2323 0.0101 0.0000
0.2323 0.0152 0.0000
0.2323 0.0202 0.0000
0.2323 0.0253 0.0000
0.2323 0.0303 0.0000
0.2323 0.0354 0.0000
0.2323 0.0404 0.0000
0.2323 0.0455 0.0000
0.2323 0.0505 0.0000
0.2323 0.0556 0.0000
0.2323 0.0606 0.0000
0.2323 0.0657 0.0000
0.2323 0.0707 0.0000
0.2323 0.0758 0.0000
0.2323 0.0808 0.0000
0.2323 0.0859 0.0000
0.2323 0.0909 0.0000
0.2323 0.0960 0.0000
0.2323 0.1010 0.0000
0.2323 0.1061 0.0000
0.2323 0.1111 0.0000
0.2323 0.1162 0.0000
0.2323 0.1212 0.0000
0.2323 0.1263 0.0000
0.2323 0.1313 0.0000
0.2323 0.1364 0.0000
0.2323 0.1414 0.0000
0.2323 0.1465 0.0000
0.2323 0.1515 0.0000
0.2323 0.1566 0.0000
0.2323 0.1616 0.0000
0.2323 0.1667 0.0000
0.2323 0.1717 0.0000
0.2323 0.1768 0.0000
0.2323 0.1818 0.0000
0.2323 0.1869 0.0000
0.2323 0.1919 0.0000
0.2323 0.1970 0.0000
0.2323 0.2020 0.0000
0.2323 0.2071 0.0000
0.2323 0.2121 0.0000
0.2323 0.2172 0.0000
0.2323 0.2222 0.0000
0.2323 0.2273 0.0000
0.2323 0.2323 0.0000
0.2323 0.2374 0.0000
0.2323 0.2424 0.0000
0.2323 0.2475 0.0000
0.2323 0.2525 0.0000
0.2323 0.2576 0.0000
0.2323 0.2626 0.0000
0.2323 0.2677 0.0000
0.2323 0.2727 0.0000
0.2323 0.2778 0.0000
0.2323 0.2828 0.0000
0.2323 0.2879 0.0000
0.2323 0.2929 0.0000
0.2323 0.2980 0.0000
0.2323 0.3030 0.0000
0.2323 0.3081 0.0000
0.2323 0.3131 0.0000
0.2323 0.3182 0.0000
0.2323 0.3232 0.0000
0.2323 0.3283 0.0000
0.2323 0.3333 0.0000
0.2323 0.3384 0.0000
0.2323 0.3434 0.0000
0.2323 0.3485 0.0000
0.2323 0.3535 0.0000
0.2323 0.3586 0.0000
0.2323 0.3636 0.0000
0.2323 0.3687 0.0000
0.2323 0.3737 0.0000
0.2323 0.3788 0.0000
0.2323 0.3838 0.0000
0.2323 0.3889 0.0000
0.2323 0.3939 0.0000
0.2323 0.3990 0.0000
0.2323 0.4040 0.0000
0.2323 0.4091 0.0000
0.2323 0.4141 0.0000
0.2323 0.4192 0.0000
0.2323 0.4242 0.0000
0.2323 0.4293 0.0000
0.2323 0.4343 0.0000
0.2323 0.4394 0.0000
0.2323 0.4444 0.0000
0.2323 0.4495 0.0000
0.2323 0.4545 0.0000
0.2323 0.4596 0.0000
0.2323 0.4646 0.0000
0.2323 0.4697 0.0000
0.2323 0.4747 0.0000
0.2323 0.4798 0.0000
0.2323 0.4848 0.0000
0.2323 0.4899 0.0000
0.2323 0.4949 0.0000
0.2323 0.5000 0.0000
0.2424 0.0000 0.0000
0.2424 0.0051 0.0000
0.2424 0.0101 0.0000
0.2424 0.0152 0.0000
0.2424 0.0202 0.0000
0.2424 0.0253 0.0000
0.2424 0.0303 0.0000
0.2424 0.0354 0.0000
0.2424 0.0404 0.0000
0.2424 0.0455 0.0000
0.2424 0.0505 0.0000
0.2424 0.0556 0.0000
0.2424 0.0606 0.0000
0.2424 0.0657 0.0000
0.2424 0.0707 0.0000
0.2424 0.0758 0.0000
0.2424 0.0808 0.0000
0.2424 0.0859 0.0000
0.2424 0.0909 0.0000
0.2424 0.0960 0.0000
0.2424 0.1010 0.0000
0.2424 0.1061 0.0000
0.2424 0.1111 0.0000
0.2424 0.1162 0.0000
0.2424 0.1212 0.0000
0.2424 0.1263 0.0000
0.2424 0.1313 0.0000
0.2424 0.1364 0.0000
0.2424 0.1414 0.0000
0.2424 0.1465 0.0000
0.2424 0.1515 0.0000
0.2424 0.1566 0.0000
0.2424 0.1616 0.0000
0.2424 0.1667 0.0000
0.2424 0.1717 0.0000
0.2424 0.1768 0.0000
0.2424 0.1818 0.0000
0.2424 0.1869 0.0000
0.2424 0.1919 0.0000
0.2424 0.1970 0.0000
0.2424 0.2020 0.0000
0.2424 0.2071 0.0000
0.2424 0.2121 0.0000
0.2424 0.2172 0.0000
0.2424 0.2222 0.0000
0.2424 0.2273 0.0000
0.2424 0.2323 0.0000
0.2424 0.2374 0.0000
0.2424 0.2424 0.0000
0.2424 0.2475 0.0000
0.2424 0.2525 0.0000
0.2424 0.2576 0.0000
0.2424 0.2626 0.0000
0.2424 0.2677 0.0000
0.2424 0.2727 0.0000
0.2424 0.2778 0.0000
0.2424 0.2828 0.0000
0.2424 0.2879 0.0000
0.2424 0.2929 0.0000
0.2424 0.2980 0.0000
0.2424 0.3030 0.0000
0.2424 0.3081 0.0000
0.2424 0.3131 0.0000
0.2424 0.3182 0.0000
0.2424 0.3232 0.0000
0.2424 0.3283 0.0000
0.2424 0.3333 0.0000
0.2424 0.3384 0.0000
0.2424 0.3434 0.0000
0.2424 0.3485 0.0000
0.2424 0.3535 0.0000
0.2424 0.3586 0.0000
0.2424 0.3636 0.0000
0.2424 0.3687 0.0000
0.2424 0.3737 0.0000
0.2424 0.3788 0.0000
0.2424 0.3838 0.0000
0.2424 0.3889 0.0000
0.2424 0.3939 0.0000
0.2424 0.3990 0.0000
0.2424 0.4040 0.0000
0.2424 0.4091 0.0000
0.2424 0.4141 0.0000
0.2424 0.4192 0.0000
0.2424 0.4242 0.0000
0.2424 0.4293 0.0000
0.2424 0.4343 0.0000
0.2424 0.4394 0.0000
0.2424 0.4444 0.0000
0.2424 0.4495 0.0000
0.2424 0.4545 0.0000
0.2424 0.4596 0.0000
0.2424 0.4646 0.0000
0.2424 0.4697 0.0000
0.2424 0.4747 0.0000
0.2424 0.4798 0.0000
0.2424 0.4848 0.0000
0.2424 0.4899 0.0000
0.2424 0.4949 0.0000
0.2424 0.5000 0.0000
0.2525 0.0000 0.0000
0.2525 0.0051 0.0000
0.2525 0.0101 0.0000
0.2525 0.0152 0.0000
0.2525 0.0202 0.0000
0.2525 0.0253 0.0000
0.2525 0.0303 0.0000
0.2525 0.0354 0.0000
0.2525 0.0404 0.0000
0.2525 0.0455 0.0000
0.2525 0.0505 0.0000
0.2525 0.0556 0.0000
0.2525 0.0606 0.0000
0.2525 0.0657 0.0000
0.2525 0.0707 0.0000
0.2525 0.0758 0.0000
0.2525 0.0808 0.0000
0.2525 0.0859 0.0000
0.2525 0.0909 0.0000
0.2525 0.0960 0.0000
0.2525 0.1010 0.0000
0.2525 0.1061 0.0000
0.2525 0.1111 0.0000
0.2525 0.1162 0.0000
0.2525 0.1212 0.0000
0.2525 0.1263 0.0000
0.2525 0.1313 0.0000
0.2525 0.1364 0.0000
0.2525 0.1414 0.0000
0.2525 0.1465 0.0000
0.2525 0.1515 0.0000
0.2525 0.1566 0.0000
0.2525 0.1616 0.0000
0.2525 0.1667 0.0000
0.2525 0.1717 0.0000
0.2525 0.1768 0.0000
0.2525 0.1818 0.0000
0.2525 0.1869 0.0000
0.2525 0.1919 0.0000
0.2525 0.1970 0.0000
0.2525 0.2020 0.0000
0.2525 0.2071 0.0000
0.2525 0.2121 0.0000
0.2525 0.2172 0.0000
0.2525 0.2222 0.0000
0.2525 0.2273 0.0000
0.2525 0.2323 0.0000
0.2525 0.2374 0.0000
0.2525 0.2424 0.0000
0.2525 0.2475 0.0000
0.2525 0.2525 0.0000
0.2525 0.2576 0.0000
0.2525 0.2626 0.0000
0.2525 0.2677 0.0000
0.2525 0.2727 0.0000
0.2525 0.2778 0.0000
0.2525 0.2828 0.0000
0.2525 0.2879 0.0000
0.2525 0.2929 0.0000
0.2525 0.2980 0.0000
0.2525 0.3030 0.0000
0.2525 0.3081 0.0000
0.2525 0.3131 0.0000
0.2525 0.3182 0.0000
0.2525 0.3232 0.0000
0.2525 0.3283 0.0000
0.2525 0.3333 0.0000
0.2525 0.3384 0.0000
0.2525 0.3434 0.0000
0.2525 0.3485 0.0000
0.2525 0.3535 0.0000
0.2525 0.3586 0.0000
0.2525 0.3636 0.0000
0.2525 0.3687 0.0000
0.2525 0.3737 0.0000
0.2525 0.3788 0.0000
0.2525 0.3838 0.0000
0.2525 0.3889 0.0000
0.2525 0.3939 0.0000
0.2525 0.3990 0.0000
0.2525 0.4040 0.0000
0.2525 0.4091 0.0000
0.2525 0.4141 0.0000
0.2525 0.4192 0.0000
0.2525 0.4242 0.0000
0.2525 0.4293 0.0000
0.2525 0.4343 0.0000
0.2525 0.4394 0.0000
0.2525 0.4444 0.0000
0.2525 0.4495 0.0000
0.2525 0.4545 0.0000
0.2525 0.4596 0.0000
0.2525 0.4646 0.0000
0.2525 0.4697 0.0000
0.2525 0.4747 0.0000
0.2525 0.4798 0.0000
0.2525 0.4848 0.0000
0.2525 0.4899 0.0000
0.2525 0.4949 0.0000
0.2525 0.5000 0.0000
0.2626 0.0000 0.0000
0.2626 0.0051 0.0000
0.2626 0.0101 0.0000
0.2626 0.0152 0.0000
0.2626 0.0202 0.0000
0.2626 0.0253 0.0000
0.2626 0.0303 0.0000
0.2626 0.0354 0.0000
0.2626 0.0404 0.0000
0.2626 0.0455 0.0000
0.2626 0.0505 0.0000
0.2626 0.0556 0.0000
0.2626 0.0606 0.0000
0.2626 0.0657 0.0000
0.2626 0.0707 0.0000
0.2626 0.0758 0.0000
0.2626 0.0808 0.0000
0.2626 0.0859 0.0000
0.2626 0.0909 0.0000
0.2626 0.0960 0.0000
0.2626 0.1010 0.0000
0.2626 0.1061 0.0000
0.2626 0.1111 0.0000
0.2626 0.1162 0.0000
0.2626 0.1212 0.0000
0.2626 0.1263 0.0000
0.2626 0.1313 0.0000
0.2626 0.1364 0.0000
0.2626 0.1414 0.0000
0.2626 0.1465 0.0000
0.2626 0.1515 0.0000
0.2626 0.1566 0.0000
0.2626 0.1616 0.0000
0.2626 0.1667 0.0000
0.2626 0.1717 0.0000
0.2626 0.1768 0.0000
0.2626 0.1818 0.0000
0.2626 0.1869 0.0000
0.2626 0.1919 0.0000
0.2626 0.1970 0.0000
0.2626 0.2020 0.0000
0.2626 0.2071 0.0000
0.2626 0.2121 0.0000
0.2626 0.2172 0.0000
0.2626 0.2222 0.0000
0.2626 0.2273 0.0000
0.2626 0.2323 0.0000
0.2626 0.2374 0.0000
0.2626 0.2424 0.0000
0.2626 0.2475 0.0000
0.2626 0.2525 0.0000
0.2626 0.2576 0.0000
0.2626 0.2626 0.0000
0.2626 0.2677 0.0000
0.2626 0.2727 0.0000
0.2626 0.2778 0.0000
0.2626 0.2828 0.0000
0.2626 0.2879 0.0000
0.2626 0.2929 0.0000
0.2626 0.2980 0.0000
0.2626 0.3030 0.0000
0.2626 0.3081 0.0000
0.2626 0.3131 0.0000
0.2626 0.3182 0.0000
0.2626 0.3232 0.0000
0.2626 0.3283 0.0000
0.2626 0.3333 0.0000
0.2626 0.3384 0.0000
0.2626 0.3434 0.0000
0.2626 0.3485 0.0000
0.2626 0.3535 0.0000
0.2626 0.3586 0.0000
0.2626 0.3636 0.0000
0.2626 0.3687 0.0000
0.2626 0.3737 0.0000
0.2626 0.3788 0.0000
0.2626 0.3838 0.0000
0.2626 0.3889 0.0000
0.2626 0.3939 0.0000
0.2626 0.3990 0.0000
0.2626 0.4040 0.0000
0.2626 0.4091 0.0000
0.2626 0.4141 0.0000
0.2626 0.4192 0.0000
0.2626 0.4242 0.0000
0.2626 0.4293 0.0000
0.2626 0.4343 0.0000
0.2626 0.4394 0.0000
0.2626 0.4444 0.0000
0.2626 0.4495 0.0000
0.2626 0.4545 0.0000
0.2626 0.4596 0.0000
0.2626 0.4646 0.0000
0.2626 0.4697 0.0000
0.2626 0.4747 0.0000
0.2626 0.4798 0.0000
0.2626 0.4848 0.0000
0.2626 0.4899 0.0000
0.2626 0.4949 0.0000
0.2626 0.5000 0.0000
0.2727 0.0000 0.0000
0.2727 0.0051 0.0000
0.2727 0.0101 0.0000
0.2727 0.0152 0.0000
0.2727 0.0202 0.0000
0.2727 0.0253 0.0000
0.2727 0.0303 0.0000
0.2727 0.0354 0.0000
0.2727 0.0404 0.0000
0.2727 0.0455 0.0000
0.2727 0.0505 0.0000
0.2727 0.0556 0.0000
0.2727 0.0606 0.0000
0.2727 0.0657 0.0000
0.2727 0.0707 0.0000
0.2727 0.0758 0.0000
0.2727 0.0808 0.0000
0.2727 0.0859 0.0000
0.2727 0.0909 0.0000
0.2727 0.0960 0.0000
0.2727 0.1010 0.0000
0.2727 0.1061 0.0000
0.2727 0.1111 0.0000
0.2727 0.1162 0.0000
0.2727 0.1212 0.0000
0.2727 0.1263 0.0000
0.2727 0.1313 0.0000
0.2727 0.1364 0.0000
0.2727 0.1414 0.0000
0.2727 0.1465 0.0000
0.2727 0.1515 0.0000
0.2727 0.1566 0.0000
0.2727 0.1616 0.0000
0.2727 0.1667 0.0000
0.2727 0.1717 0.0000
0.2727 0.1768 0.0000
0.2727 0.1818 0.0000
0.2727 0.1869 0.0000
0.2727 0.1919 0.0000
0.2727 0.1970 0.0000
0.2727 0.2020 0.0000
0.2727 0.2071 0.0000
0.2727 0.2121 0.0000
0.2727 0.2172 0.0000
0.2727 0.2222 0.0000
0.2727 0.2273 0.0000
0.2727 0.2323 0.0000
0.2727 0.2374 0.0000
0.2727 0.2424 0.0000
0.2727 0.2475 0.0000
0.2727 0.2525 0.0000
0.2727 0.2576 0.0000
0.2727 0.2626 0.0000
0.2727 0.2677 0.0000
0.2727 0.2727 0.0000
0.2727 0.2778 0.0000
0.2727 0.2828 0.0000
0.2727 0.2879 0.0000
0.2727 0.2929 0.0000
0.2727 0.2980 0.0000
0.2727 0.3030 0.0000
0.2727 0.3081 0.0000
0.2727 0.3131 0.0000
0.2727 0.3182 0.0000
0.2727 0.3232 0.0000
0.2727 0.3283 0.0000
0.2727 0.3333 0.0000
0.2727 0.3384 0.0000
0.2727 0.3434 0.0000
0.2727 0.3485 0.0000
0.2727 0.3535 0.0000
0.2727 0.3586 0.0000
0.2727 0.3636 0.0000
0.2727 0.3687 0.0000
0.2727 0.3737 0.0000
0.2727 0.3788 0.0000
0.2727 0.3838 0.0000
0.2727 0.3889 0.0000
0.2727 0.3939 0.0000
0.2727 0.3990 0.0000
0.2727 0.4040 0.0000
0.2727 0.4091 0.0000
0.2727 0.4141 0.0000
0.2727 0.4192 0.0000
0.2727 0.4242 0.0000
0.2727 0.4293 0.0000
0.2727 0.4343 0.0000
0.2727 0.4394 0.0000
0.2727 0.4444 0.0000
0.2727 0.4495 0.0000
0.2727 0.4545 0.0000
0.2727 0.4596 0.0000
0.2727 0.4646 0.0000
0.2727 0.4697 0.0000
0.2727 0.4747 0.0000
0.2727 0.4798 0.0000
0.2727 0.4848 0.0000
0.2727 0.4899 0.0000
0.2727 0.4949 0.0000
0.2727 0.5000 0.0000
0.2828 0.0000 0.0000
0.2828 0.0051 0.0000
0.2828 0.0101 0.0000
0.2828 0.0152 0.0000
0.2828 0.0202 0.0000
0.2828 0.0253 0.0000
0.2828 0.0303 0.0000
0.2828 0.0354 0.0000
0.2828 0.0404 0.0000
0.2828 0.0455 0.0000
0.2828 0.0505 0.0000
0.2828 0.0556 0.0000
0.2828 0.0606 0.0000
0.2828 0.0657 0.0000
0.2828 0.0707 0.0000
0.2828 0.0758 0.0000
0.2828 0.0808 0.0000
0.2828 0.0859 0.0000
0.2828 0.0909 0.0000
0.2828 0.0960 0.0000
0.2828 0.1010 0.0000
0.2828 0.1061 0.0000
0.2828 0.1111 0.0000
0.2828 0.1162 0.0000
0.2828 0.1212 0.0000
0.2828 0.1263 0.0000
0.2828 0.1313 0.0000
0.2828 0.1364 0.0000
0.2828 0.1414 0.0000
0.2828 0.1465 0.0000
0.2828 0.1515 0.0000
0.2828 0.1566 0.0000
0.2828 0.1616 0.0000
0.2828 0.1667 0.0000
0.2828 0.1717 0.0000
0.2828 0.1768 0.0000
0.2828 0.1818 0.0000
0.2828 0.1869 0.0000
0.2828 0.1919 0.0000
0.2828 0.1970 0.0000
0.2828 0.2020 0.0000
0.2828 0.2071 0.0000
0.2828 0.2121 0.0000
0.2828 0.2172 0.0000
0.2828 0.2222 0.0000
0.2828 0.2273 0.0000
0.2828 0.2323 0.0000
0.2828 0.2374 0.0000
0.2828 0.2424 0.0000
0.2828 0.2475 0.0000
0.2828 0.2525 0.0000
0.2828 0.2576 0.0000
0.2828 0.2626 0.0000
0.2828 0.2677 0.0000
0.2828 0.2727 0.0000
0.2828 0.2778 0.0000
0.2828 0.2828 0.0000
0.2828 0.2879 0.0000
0.2828 0.2929 0.0000
0.2828 0.2980 0.0000
0.2828 0.3030 0.0000
0.2828 0.3081 0.0000
0.2828 0.3131 0.0000
0.2828 0.3182 0.0000
0.2828 0.3232 0.0000
0.2828 0.3283 0.0000
0.2828 0.3333 0.0000
0.2828 0.3384 0.0000
0.2828 0.3434 0.0000
0.2828 0.3485 0.0000
0.2828 0.3535 0.0000
0.2828 0.3586 0.0000
0.2828 0.3636 0.0000
0.2828 0.3687 0.0000
0.2828 0.3737 0.0000
0.2828 0.3788 0.0000
0.2828 0.3838 0.0000
0.2828 0.3889 0.0000
0.2828 0.3939 0.0000
0.2828 0.3990 0.0000
0.2828 0.4040 0.0000
0.2828 0.4091 0.0000
0.2828 0.4141 0.0000
0.2828 0.4192 0.0000
0.2828 0.4242 0.0000
0.2828 0.4293 0.0000
0.2828 0.4343 0.0000
0.2828 0.4394 0.0000
0.2828 0.4444 0.0000
0.2828 0.4495 0.0000
0.2828 0.4545 0.0000
0.2828 0.4596 0.0000
0.2828 0.4646 0.0000
0.2828 0.4697 0.0000
0.2828 0.4747 0.0000
0.2828 0.4798 0.0000
0.2828 0.4848 0.0000
0.2828 0.4899 0.0000
0.2828 0.4949 0.0000
0.2828 0.5000 0.0000
0.2929 0.0000 0.0000
0.2929 0.0051 0.0000
0.2929 0.0101 0.0000
0.2929 0.0152 0.0000
0.2929 0.0202 0.0000
0.2929 0.0253 0.0000
0.2929 0.0303 0.0000
0.2929 0.0354 0.0000
0.2929 0.0404 0.0000
0.2929 0.0455 0.0000
0.2929 0.0505 0.0000
0.2929 0.0556 0.0000
0.2929 0.0606 0.0000
0.2929 0.0657 0.0000
0.2929 0.0707 0.0000
0.2929 0.0758 0.0000
0.2929 0.0808 0.0000
0.2929 0.0859 0.0000
0.2929 0.0909 0.0000
0.2929 0.0960 0.0000
0.2929 0.1010 0.0000
0.2929 0.1061 0.0000
0.2929 0.1111 0.0000
0.2929 0.1162 0.0000
0.2929 0.1212 0.0000
0.2929 0.1263 0.0000
0.2929 0.1313 0.0000
0.2929 0.1364 0.0000
0.2929 0.1414 0.0000
0.2929 0.1465 0.0000
0.2929 0.1515 0.0000
0.2929 0.1566 0.0000
0.2929 0.1616 0.0000
0.2929 0.1667 0.0000
0.2929 0.1717 0.0000
0.2929 0.1768 0.0000
0.2929 0.1818 0.0000
0.2929 0.1869 0.0000
0.2929 0.1919 0.0000
0.2929 0.1970 0.0000
0.2929 0.2020 0.0000
0.2929 0.2071 0.0000
0.2929 0.2121 0.0000
0.2929 0.2172 0.0000
0.2929 0.2222 0.0000
0.2929 0.2273 0.0000
0.2929 0.2323 0.0000
0.2929 0.2374 0.0000
0.2929 0.2424 0.0000
0.2929 0.2475 0.0000
0.2929 0.2525 0.0000
0.2929 0.2576 0.0000
0.2929 0.2626 0.0000
0.2929 0.2677 0.0000
0.2929 0.2727 0.0000
0.2929 0.2778 0.0000
0.2929 0.2828 0.0000
0.2929 0.2879 0.0000
0.2929 0.2929 0.0000
0.2929 0.2980 0.0000
0.2929 0.3030 0.0000
0.2929 0.3081 0.0000
0.2929 0.3131 0.0000
0.2929 0.3182 0.0000
0.2929 0.3232 0.0000
0.2929 0.3283 0.0000
0.2929 0.3333 0.0000
0.2929 0.3384 0.0000
0.2929 0.3434 0.0000
0.2929 0.3485 0.0000
0.2929 0.3535 0.0000
0.2929 0.3586 0.0000
0.2929 0.3636 0.0000
0.2929 0.3687 0.0000
0.2929 0.3737 0.0000
0.2929 0.3788 0.0000
0.2929 0.3838 0.0000
0.2929 0.3889 0.0000
0.2929 0.3939 0.0000
0.2929 0.3990 0.0000
0.2929 0.4040 0.0000
0.2929 0.4091 0.0000
0.2929 0.4141 0.0000
0.2929 0.4192 0.0000
0.2929 0.4242 0.0000
0.2929 0.4293 0.0000
0.2929 0.4343 0.0000
0.2929 0.4394 0.0000
0.2929 0.4444 0.0000
0.2929 0.4495 0.0000
0.2929 0.4545 0.0000
0.2929 0.4596 0.0000
0.2929 0.4646 0.0000
0.2929 0.4697 0.0000
0.2929 0.4747 0.0000
0.2929 0.4798 0.0000
0.2929 0.4848 0.0000
0.2929 0.4899 0.0000
0.2929 0.4949 0.0000
0.2929 0.5000 0.0000
0.3030 0.0000 0.0000
0.3030 0.0051 0.0000
0.3030 0.0101 0.0000
0.3030 0.0152 0.0000
0.3030 0.0202 0.0000
0.3030 0.0253 0.0000
0.3030 0.0303 0.0000
0.3030 0.0354 0.0000
0.3030 0.0404 0.0000
0.3030 0.0455 0.0000
0.3030 0.0505 0.0000
0.3030 0.0556 0.0000
0.3030 0.0606 0.0000
0.3030 0.0657 0.0000
0.3030 0.0707 0.0000
0.3030 0.0758 0.0000
0.3030 0.0808 0.0000
0.3030 0.0859 0.0000
0.3030 0.0909 0.0000
0.3030 0.0960 0.0000
0.3030 0.1010 0.0000
0.3030 0.1061 0.0000
0.3030 0.1111 0.0000
0.3030 0.1162 0.0000
0.3030 0.1212 0.0000
0.3030 0.1263 0.0000
0.3030 0.1313 0.0000
0.3030 0.1364 0.0000
0.3030 0.1414 0.0000
0.3030 0.1465 0.0000
0.3030 0.1515 0.0000
0.3030 0.1566 0.0000
0.3030 0.1616 0.0000
0.3030 0.1667 0.0000
0.3030 0.1717 0.0000
0.3030 0.1768 0.0000
0.3030 0.1818 0.0000
0.3030 0.1869 0.0000
0.3030 0.1919 0.0000
0.3030 0.1970 0.0000
0.3030 0.2020 0.0000
0.3030 0.2071 0.0000
0.3030 0.2121 0.0000
0.3030 0.2172 0.0000
0.3030 0.2222 0.0000
0.3030 0.2273 0.0000
0.3030 0.2323 0.0000
0.3030 0.2374 0.0000
0.3030 0.2424 0.0000
0.3030 0.2475 0.0000
0.3030 0.2525 0.0000
0.3030 0.2576 0.0000
0.3030 0.2626 0.0000
0.3030 0.2677 0.0000
0.3030 0.2727 0.0000
0.3030 0.2778 0.0000
0.3030 0.2828 0.0000
0.3030 0.2879 0.0000
0.3030 0.2929 0.0000
0.3030 0.2980 0.0000
0.3030 0.3030 0.0000
0.3030 0.3081 0.0000
0.3030 0.3131 0.0000
0.3030 0.3182 0.0000
0.3030 0.3232 0.0000
0.3030 0.3283 0.0000
0.3030 0.3333 0.0000
0.3030 0.3384 0.0000
0.3030 0.3434 0.0000
0.3030 0.3485 0.0000
0.3030 0.3535 0.0000
0.3030 0.3586 0.0000
0.3030 0.3636 0.0000
0.3030 0.3687 0.0000
0.3030 0.3737 0.0000
0.3030 0.3788 0.0000
0.3030 0.3838 0.0000
0.3030 0.3889 0.0000
0.3030 0.3939 0.0000
0.3030 0.3990 0.0000
0.3030 0.4040 0.0000
0.3030 0.4091 0.0000
0.3030 0.4141 0.0000
0.3030 0.4192 0.0000
0.3030 0.4242 0.0000
0.3030 0.4293 0.0000
0.3030 0.4343 0.0000
0.3030 0.4394 0.0000
0.3030 0.4444 0.0000
0.3030 0.4495 0.0000
0.3030 0.4545 0.0000
0.3030 0.4596 0.0000
0.3030 0.4646 0.0000
0.3030 0.4697 0.0000
0.3030 0.4747 0.0000
0.3030 0.4798 0.0000
0.3030 0.4848 0.0000
0.3030 0.4899 0.0000
0.3030 0.4949 0.0000
0.3030 0.5000 0.0000
0.3131 0.0000 0.0000
0.3131 0.0051 0.0000
0.3131 0.0101 0.0000
0.3131 0.0152 0.0000
0.3131 0.0202 0.0000
0.3131 0.0253 0.0000
0.3131 0.0303 0.0000
0.3131 0.0354 0.0000
0.3131 0.0404 0.0000
0.3131 0.0455 0.0000
0.3131 0.0505 0.0000
0.3131 0.0556 0.0000
0.3131 0.0606 0.0000
0.3131 0.0657 0.0000
0.3131 0.0707 0.0000
0.3131 0.0758 0.0000
0.3131 0.0808 0.0000
0.3131 0.0859 0.0000
0.3131 0.0909 0.0000
0.3131 0.0960 0.0000
0.3131 0.1010 0.0000
0.3131 0.1061 0.0000
0.3131 0.1111 0.0000
0.3131 0.1162 0.0000
0.3131 0.1212 0.0000
0.3131 0.1263 0.0000
0.3131 0.1313 0.0000
0.3131 0.1364 0.0000
0.3131 0.1414 0.0000
0.3131 0.1465 0.0000
0.3131 0.1515 0.0000
0.3131 0.1566 0.0000
0.3131 0.1616 0.0000
0.3131 0.1667 0.0000
0.3131 0.1717 0.0000
0.3131 0.1768 0.0000
0.3131 0.1818 0.0000
0.3131 0.1869 0.0000
0.3131 0.1919 0.0000
0.3131 0.1970 0.0000
0.3131 0.2020 0.0000
0.3131 0.2071 0.0000
0.3131 0.2121 0.0000
0.3131 0.2172 0.0000
0.3131 0.2222 0.0000
0.3131 0.2273 0.0000
0.3131 0.2323 0.0000
0.3131 0.2374 0.0000
0.3131 0.2424 0.0000
0.3131 0.2475 0.0000
0.3131 0.2525 0.0000
0.3131 0.2576 0.0000
0.3131 0.2626 0.0000
0.3131 0.2677 0.0000
0.3131 0.2727 0.0000
0.3131 0.2778 0.0000
0.3131 0.2828 0.0000
0.3131 0.2879 0.0000
0.3131 0.2929 0.0000
0.3131 0.2980 0.0000
0.3131 0.3030 0.0000
0.3131 0.3081 0.0000
0.3131 0.3131 0.0000
0.3131 0.3182 0.0000
0.3131 0.3232 0.0000
0.3131 0.3283 0.0000
0.3131 0.3333 0.0000
0.3131 0.3384 0.0000
0.3131 0.3434 0.0000
0.3131 0.3485 0.0000
0.3131 0.3535 0.0000
0.3131 0.3586 0.0000
0.3131 0.3636 0.0000
0.3131 0.3687 0.0000
0.3131 0.3737 0.0000
0.3131 0.3788 0.0000
0.3131 0.3838 0.0000
0.3131 0.3889 0.0000
0.3131 0.3939 0.0000
0.3131 0.3990 0.0000
0.3131 0.4040 0.0000
0.3131 0.4091 0.0000
0.3131 0.4141 0.0000
0.3131 0.4192 0.0000
0.3131 0.4242 0.0000
0.3131 0.4293 0.0000
0.3131 0.4343 0.0000
0.3131 0.4394 0.0000
0.3131 0.4444 0.0000
0.3131 0.4495 0.0000
0.3131 0.4545 0.0000
0.3131 0.4596 0.0000
0.3131 0.4646 0.0000
0.3131 0.4697 0.0000
0.3131 0.4747 0.0000
0.3131 0.4798 0.0000
0.3131 0.4848 0.0000
0.3131 0.4899 0.0000
0.3131 0.4949 0.0000
0.3131 0.5000 0.0000
0.3232 0.0000 0.0000
0.3232 0.0051 0.0000
0.3232 0.0101 0.0000
0.3232 0.0152 0.0000
0.3232 0.0202 0.0000
0.3232 0.0253 0.0000
0.3232 0.0303 0.0000
0.3232 0.0354 0.0000
0.3232 0.0404 0.0000
0.3232 0.0455 0.0000
0.3232 0.0505 0.0000
0.3232 0.0556 0.0000
0.3232 0.0606 0.0000
0.3232 0.0657 0.0000
0.3232 0.0707 0.0000
0.3232 0.0758 0.0000
0.3232 0.0808 0.0000
0.3232 0.0859 0.0000
0.3232 0.0909 0.0000
0.3232 0.0960 0.0000
0.3232 0.1010 0.0000
0.3232 0.1061 0.0000
0.3232 0.1111 0.0000
0.3232 0.1162 0.0000
0.3232 0.1212 0.0000
0.3232 0.1263 0.0000
0.3232 0.1313 0.0000
0.3232 0.1364 0.0000
0.3232 0.1414 0.0000
0.3232 0.1465 0.0000
0.3232 0.1515 0.0000
0.3232 0.1566 0.0000
0.3232 0.1616 0.0000
0.3232 0.1667 0.0000
0.3232 0.1717 0.0000
0.3232 0.1768 0.0000
0.3232 0.1818 0.0000
0.3232 0.1869 0.0000
0.3232 0.1919 0.0000
0.3232 0.1970 0.0000
0.3232 0.2020 0.0000
0.3232 0.2071 0.0000
0.3232 0.2121 0.0000
0.3232 0.2172 0.0000
0.3232 0.2222 0.0000
0.3232 0.2273 0.0000
0.3232 0.2323 0.0000
0.3232 0.2374 0.0000
0.3232 0.2424 0.0000
0.3232 0.2475 0.0000
0.3232 0.2525 0.0000
0.3232 0.2576 0.0000
0.3232 0.2626 0.0000
0.3232 0.2677 0.0000
0.3232 0.2727 0.0000
0.3232 0.2778 0.0000
0.3232 0.2828 0.0000
0.3232 0.2879 0.0000
0.3232 0.2929 0.0000
0.3232 0.2980 0.0000
0.3232 0.3030 0.0000
0.3232 0.3081 0.0000
0.3232 0.3131 0.0000
0.3232 0.3182 0.0000
0.3232 0.3232 0.0000
0.3232 0.3283 0.0000
0.3232 0.3333 0.0000
0.3232 0.3384 0.0000
0.3232 0.3434 0.0000
0.3232 0.3485 0.0000
0.3232 0.3535 0.0000
0.3232 0.3586 0.0000
0.3232 0.3636 0.0000
0.3232 0.3687 0.0000
0.3232 0.3737 0.0000
0.3232 0.3788 0.0000
0.3232 0.3838 0.0000
0.3232 0.3889 0.0000
0.3232 0.3939 0.0000
0.3232 0.3990 0.0000
0.3232 0.4040 0.0000
0.3232 0.4091 0.0000
0.3232 0.4141 0.0000
0.3232 0.4192 0.0000
0.3232 0.4242 0.0000
0.3232 0.4293 0.0000
0.3232 0.4343 0.0000
0.3232 0.4394 0.0000
0.3232 0.4444 0.0000
0.3232 0.4495 0.0000
0.3232 0.4545 0.0000
0.3232 0.4596 0.0000
0.3232 0.4646 0.0000
0.3232 0.4697 0.0000
0.3232 0.4747 0.0000
0.3232 0.4798 0.0000
0.3232 0.4848 0.0000
0.3232 0.4899 0.0000
0.3232 0.4949 0.0000
0.3232 0.5000 0.0000
0.3333 0.0000 0.0000
0.3333 0.0051 0.0000
0.3333 0.0101 0.0000
0.3333 0.0152 0.0000
0.3333 0.0202 0.0000
0.3333 0.0253 0.0000
0.3333 0.0303 0.0000
0.3333 0.0354 0.0000
0.3333 0.0404 0.0000
0.3333 0.0455 0.0000
0.3333 0.0505 0.0000
0.3333 0.0556 0.0000
0.3333 0.0606 0.0000
0.3333 0.0657 0.0000
0.3333 0.0707 0.0000
0.3333 0.0758 0.0000
0.3333 0.0808 0.0000
0.3333 0.0859 0.0000
0.3333 0.0909 0.0000
0.3333 0.0960 0.0000
0.3333 0.1010 0.0000
0.3333 0.1061 0.0000
0.3333 0.1111 0.0000
0.3333 0.1162 0.0000
0.3333 0.1212 0.0000
0.3333 0.1263 0.0000
0.3333 0.1313 0.0000
0.3333 0.1364 0.0000
0.3333 0.1414 0.0000
0.3333 0.1465 0.0000
0.3333 0.1515 0.0000
0.3333 0.1566 0.0000
0.3333 0.1616 0.0000
0.3333 0.1667 0.0000
0.3333 0.1717 0.0000
0.3333 0.1768 0.0000
0.3333 0.1818 0.0000
0.3333 0.1869 0.0000
0.3333 0.1919 0.0000
0.3333 0.1970 0.0000
0.3333 0.2020 0.0000
0.3333 0.2071 0.0000
0.3333 0.2121 0.0000
0.3333 0.2172 0.0000
0.3333 0.2222 0.0000
0.3333 0.2273 0.0000
0.3333 0.2323 0.0000
0.3333 0.2374 0.0000
0.3333 0.2424 0.0000
0.3333 0.2475 0.0000
0.3333 0.2525 0.0000
0.3333 0.2576 0.0000
0.3333 0.2626 0.0000
0.3333 0.2677 0.0000
0.3333 0.2727 0.0000
0.3333 0.2778 0.0000
0.3333 0.2828 0.0000
0.3333 0.2879 0.0000
0.3333 0.2929 0.0000
0.3333 0.2980 0.0000
0.3333 0.3030 0.0000
0.3333 0.3081 0.0000
0.3333 0.3131 0.0000
0.3333 0.3182 0.0000
0.3333 0.3232 0.0000
0.3333 0.3283 0.0000
0.3333 0.3333 0.0000
0.3333 0.3384 0.0000
0.3333 0.3434 0.0000
0.3333 0.3485 0.0000
0.3333 0.3535 0.0000
0.3333 0.3586 0.0000
0.3333 0.3636 0.0000
0.3333 0.3687 0.0000
0.3333 0.3737 0.0000
0.3333 0.3788 0.0000
0.3333 0.3838 0.0000
0.3333 0.3889 0.0000
0.3333 0.3939 0.0000
0.3333 0.3990 0.0000
0.3333 0.4040 0.0000
0.3333 0.4091 0.0000
0.3333 0.4141 0.0000
0.3333 0.4192 0.0000
0.3333 0.4242 0.0000
0.3333 0.4293 0.0000
0.3333 0.4343 0.0000
0.3333 0.4394 0.0000
0.3333 0.4444 0.0000
0.3333 0.4495 0.0000
0.3333 0.4545 0.0000
0.3333 0.4596 0.0000
0.3333 0.4646 0.0000
0.3333 0.4697 0.0000
0.3333 0.4747 0.0000
0.3333 0.4798 0.0000
0.3333 0.4848 0.0000
0.3333 0.4899 0.0000
0.3333 0.4949 0.0000
0.3333 0.5000 0.0000
0.3434 0.0000 0.0000
0.3434 0.0051 0.0000
0.3434 0.0101 0.0000
0.3434 0.0152 0.0000
0.3434 0.0202 0.0000
0.3434 0.0253 0.0000
0.3434 0.0303 0.0000
0.3434 0.0354 0.0000
0.3434 0.0404 0.0000
0.3434 0.0455 0.0000
0.3434 0.0505 0.0000
0.3434 0.0556 0.0000
0.3434 0.0606 0.0000
0.3434 0.0657 0.0000
0.3434 0.0707 0.0000
0.3434 0.0758 0.0000
0.3434 0.0808 0.0000
0.3434 0.0859 0.0000
0.3434 0.0909 0.0000
0.3434 0.0960 0.0000
0.3434 0.1010 0.0000
0.3434 0.1061 0.0000
0.3434 0.1111 0.0000
0.3434 0.1162 0.0000
0.3434 0.1212 0.0000
0.3434 0.1263 0.0000
0.3434 0.1313 0.0000
0.3434 0.1364 0.0000
0.3434 0.1414 0.0000
0.3434 0.1465 0.0000
0.3434 0.1515 0.0000
0.3434 0.1566 0.0000
0.3434 0.1616 0.0000
0.3434 0.1667 0.0000
0.3434 0.1717 0.0000
0.3434 0.1768 0.0000
0.3434 0.1818 0.0000
0.3434 0.1869 0.0000
0.3434 0.1919 0.0000
0.3434 0.1970 0.0000
0.3434 0.2020 0.0000
0.3434 0.2071 0.0000
0.3434 0.2121 0.0000
0.3434 0.2172 0.0000
0.3434 0.2222 0.0000
0.3434 0.2273 0.0000
0.3434 0.2323 0.0000
0.3434 0.2374 0.0000
0.3434 0.2424 0.0000
0.3434 0.2475 0.0000
0.3434 0.2525 0.0000
0.3434 0.2576 0.0000
0.3434 0.2626 0.0000
0.3434 0.2677 0.0000
0.3434 0.2727 0.0000
0.3434 0.2778 0.0000
0.3434 0.2828 0.0000
0.3434 0.2879 0.0000
0.3434 0.2929 0.0000
0.3434 0.2980 0.0000
0.3434 0.3030 0.0000
0.3434 0.3081 0.0000
0.3434 0.3131 0.0000
0.3434 0.3182 0.0000
0.3434 0.3232 0.0000
0.3434 0.3283 0.0000
0.3434 0.3333 0.0000
0.3434 0.3384 0.0000
0.3434 0.3434 0.0000
0.3434 0.3485 0.0000
0.3434 0.3535 0.0000
0.3434 0.3586 0.0000
0.3434 0.3636 0.0000
0.3434 0.3687 0.0000
0.3434 0.3737 0.0000
0.3434 0.3788 0.0000
0.3434 0.3838 0.0000
0.3434 0.3889 0.0000
0.3434 0.3939 0.0000
0.3434 0.3990 0.0000
0.3434 0.4040 0.0000
0.3434 0.4091 0.0000
0.3434 0.4141 0.0000
0.3434 0.4192 0.0000
0.3434 0.4242 0.0000
0.3434 0.4293 0.0000
0.3434 0.4343 0.0000
0.3434 0.4394 0.0000
0.3434 0.4444 0.0000
0.3434 0.4495 0.0000
0.3434 0.4545 0.0000
0.3434 0.4596 0.0000
0.3434 0.4646 0.0000
0.3434 0.4697 0.0000
0.3434 0.4747 0.0000
0.3434 0.4798 0.0000
0.3434 0.4848 0.0000
0.3434 0.4899 0.0000
0.3434 0.4949 0.0000
0.3434 0.5000 0.0000
0.3535 0.0000 0.0000
0.3535 0.0051 0.0000
0.3535 0.0101 0.0000
0.3535 0.0152 0.0000
0.3535 0.0202 0.0000
0.3535 0.0253 0.0000
0.3535 0.0303 0.0000
0.3535 0.0354 0.0000
0.3535 0.0404 0.0000
0.3535 0.0455 0.0000
0.3535 0.0505 0.0000
0.3535 0.0556 0.0000
0.3535 0.0606 0.0000
0.3535 0.0657 0.0000
0.3535 0.0707 0.0000
0.3535 0.0758 0.0000
0.3535 0.0808 0.0000
0.3535 0.0859 0.0000
0.3535 0.0909 0.0000
0.3535 0.0960 0.0000
0.3535 0.1010 0.0000
0.3535 0.1061 0.0000
0.3535 0.1111 0.0000
0.3535 0.1162 0.0000
0.3535 0.1212 0.0000
0.3535 0.1263 0.0000
0.3535 0.1313 0.0000
0.3535 0.1364 0.0000
0.3535 0.1414 0.0000
0.3535 0.1465 0.0000
0.3535 0.1515 0.0000
0.3535 0.1566 0.0000
0.3535 0.1616 0.0000
0.3535 0.1667 0.0000
0.3535 0.1717 0.0000
0.3535 0.1768 0.0000
0.3535 0.1818 0.0000
0.3535 0.1869 0.0000
0.3535 0.1919 0.0000
0.3535 0.1970 0.0000
0.3535 0.2020 0.0000
0.3535 0.2071 0.0000
0.3535 0.2121 0.0000
0.3535 0.2172 0.0000
0.3535 0.2222 0.0000
0.3535 0.2273 0.0000
0.3535 0.2323 0.0000
0.3535 0.2374 0.0000
0.3535 0.2424 0.0000
0.3535 0.2475 0.0000
0.3535 0.2525 0.0000
0.3535 0.2576 0.0000
0.3535 0.2626 0.0000
0.3535 0.2677 0.0000
0.3535 0.2727 0.0000
0.3535 0.2778 0.0000
0.3535 0.2828 0.0000
0.3535 0.2879 0.0000
0.3535 0.2929 0.0000
0.3535 0.2980 0.0000
0.3535 0.3030 0.0000
0.3535 0.3081 0.0000
0.3535 0.3131 0.0000
0.3535 0.3182 0.0000
0.3535 0.3232 0.0000
0.3535 0.3283 0.0000
0.3535 0.3333 0.0000
0.3535 0.3384 0.0000
0.3535 0.3434 0.0000
0.3535 0.3485 0.0000
0.3535 0.3535 0.0000
0.3535 0.3586 0.0000
0.3535 0.3636 0.0000
0.3535 0.3687 0.0000
0.3535 0.3737 0.0000
0.3535 0.3788 0.0000
0.3535 0.3838 0.0000
0.3535 0.3889 0.0000
0.3535 0.3939 0.0000
0.3535 0.3990 0.0000
0.3535 0.4040 0.0000
0.3535 0.4091 0.0000
0.3535 0.4141 0.0000
0.3535 0.4192 0.0000
0.3535 0.4242 0.0000
0.3535 0.4293 0.0000
0.3535 0.4343 0.0000
0.3535 0.4394 0.0000
0.3535 0.4444 0.0000
0.3535 0.4495 0.0000
0.3535 0.4545 0.0000
0.3535 0.4596 0.0000
0.3535 0.4646 0.0000
0.3535 0.4697 0.0000
0.3535 0.4747 0.0000
0.3535 0.4798 0.0000
0.3535 0.4848 0.0000
0.3535 0.4899 0.0000
0.3535 0.4949 0.0000
0.3535 0.5000 0.0000
0.3636 0.0000 0.0000
0.3636 0.0051 0.0000
0.3636 0.0101 0.0000
0.3636 0.0152 0.0000
0.3636 0.0202 0.0000
0.3636 0.0253 0.0000
0.3636 0.0303 0.0000
0.3636 0.0354 0.0000
0.3636 0.0404 0.0000
0.3636 0.0455 0.0000
0.3636 0.0505 0.0000
0.3636 0.0556 0.0000
0.3636 0.0606 0.0000
0.3636 0.0657 0.0000
0.3636 0.0707 0.0000
0.3636 0.0758 0.0000
0.3636 0.0808 0.0000
0.3636 0.0859 0.0000
0.3636 0.0909 0.0000
0.3636 0.0960 0.0000
0.3636 0.1010 0.0000
0.3636 0.1061 0.0000
0.3636 0.1111 0.0000
0.3636 0.1162 0.0000
0.3636 0.1212 0.0000
0.3636 0.1263 0.0000
0.3636 0.1313 0.0000
0.3636 0.1364 0.0000
0.3636 0.1414 0.0000
0.3636 0.1465 0.0000
0.3636 0.1515 0.0000
0.3636 0.1566 0.0000
0.3636 0.1616 0.0000
0.3636 0.1667 0.0000
0.3636 0.1717 0.0000
0.3636 0.1768 0.0000
0.3636 0.1818 0.0000
0.3636 0.1869 0.0000
0.3636 0.1919 0.0000
0.3636 0.1970 0.0000
0.3636 0.2020 0.0000
0.3636 0.2071 0.0000
0.3636 0.2121 0.0000
0.3636 0.2172 0.0000
0.3636 0.2222 0.0000
0.3636 0.2273 0.0000
0.3636 0.2323 0.0000
0.3636 0.2374 0.0000
0.3636 0.2424 0.0000
0.3636 0.2475 0.0000
0.3636 0.2525 0.0000
0.3636 0.2576 0.0000
0.3636 0.2626 0.0000
0.3636 0.2677 0.0000
0.3636 0.2727 0.0000
0.3636 0.2778 0.0000
0.3636 0.2828 0.0000
0.3636 0.2879 0.0000
0.3636 0.2929 0.0000
0.3636 0.2980 0.0000
0.3636 0.3030 0.0000
0.3636 0.3081 0.0000
0.3636 0.3131 0.0000
0.3636 0.3182 0.0000
0.3636 0.3232 0.0000
0.3636 0.3283 0.0000
0.3636 0.3333 0.0000
0.3636 0.3384 0.0000
0.3636 0.3434 0.0000
0.3636 0.3485 0.0000
0.3636 0.3535 0.0000
0.3636 0.3586 0.0000
0.3636 0.3636 0.0000
0.3636 0.3687 0.0000
0.3636 0.3737 0.0000
0.3636 0.3788 0.0000
0.3636 0.3838 0.0000
0.3636 0.3889 0.0000
0.3636 0.3939 0.0000
0.3636 0.3990 0.0000
0.3636 0.4040 0.0000
0.3636 0.4091 0.0000
0.3636 0.4141 0.0000
0.3636 0.4192 0.0000
0.3636 0.4242 0.0000
0.3636 0.4293 0.0000
0.3636 0.4343 0.0000
0.3636 0.4394 0.0000
0.3636 0.4444 0.0000
0.3636 0.4495 0.0000
0.3636 0.4545 0.0000
0.3636 0.4596 0.0000
0.3636 0.4646 0.0000
0.3636 0.4697 0.0000
0.3636 0.4747 0.0000
0.3636 0.4798 0.0000
0.3636 0.4848 0.0000
0.3636 0.4899 0.0000
0.3636 0.4949 0.0000
0.3636 0.5000 0.0000
0.3737 0.0000 0.0000
0.3737 0.0051 0.0000
0.3737 0.0101 0.0000
0.3737 0.0152 0.0000
0.3737 0.0202 0.0000
0.3737 0.0253 0.0000
0.3737 0.0303 0.0000
0.3737 0.0354 0.0000
0.3737 0.0404 0.0000
0.3737 0.0455 0.0000
0.3737 0.0505 0.0000
0.3737 0.0556 0.0000
0.3737 0.0606 0.0000
0.3737 0.0657 0.0000
0.3737 0.0707 0.0000
0.3737 0.0758 0.0000
0.3737 0.0808 0.0000
0.3737 0.0859 0.0000
0.3737 0.0909 0.0000
0.3737 0.0960 0.0000
0.3737 0.1010 0.0000
0.3737 0.1061 0.0000
0.3737 0.1111 0.0000
0.3737 0.1162 0.0000
0.3737 0.1212 0.0000
0.3737 0.1263 0.0000
0.3737 0.1313 0.0000
0.3737 0.1364 0.0000
0.3737 0.1414 0.0000
0.3737 0.1465 0.0000
0.3737 0.1515 0.0000
0.3737 0.1566 0.0000
0.3737 0.1616 0.0000
0.3737 0.1667 0.0000
0.3737 0.1717 0.0000
0.3737 0.1768 0.0000
0.3737 0.1818 0.0000
0.3737 0.1869 0.0000
0.3737 0.1919 0.0000
0.3737 0.1970 0.0000
0.3737 0.2020 0.0000
0.3737 0.2071 0.0000
0.3737 0.2121 0.0000
0.3737 0.2172 0.0000
0.3737 0.2222 0.0000
0.3737 0.2273 0.0000
0.3737 0.2323 0.0000
0.3737 0.2374 0.0000
0.3737 0.2424 0.0000
0.3737 0.2475 0.0000
0.3737 0.2525 0.0000
0.3737 0.2576 0.0000
0.3737 0.2626 0.0000
0.3737 0.2677 0.0000
0.3737 0.2727 0.0000
0.3737 0.2778 0.0000
0.3737 0.2828 0.0000
0.3737 0.2879 0.0000
0.3737 0.2929 0.0000
0.3737 0.2980 0.0000
0.3737 0.3030 0.0000
0.3737 0.3081 0.0000
0.3737 0.3131 0.0000
0.3737 0.3182 0.0000
0.3737 0.3232 0.0000
0.3737 0.3283 0.0000
0.3737 0.3333 0.0000
0.3737 0.3384 0.0000
0.3737 0.3434 0.0000
0.3737 0.3485 0.0000
0.3737 0.3535 0.0000
0.3737 0.3586 0.0000
0.3737 0.3636 0.0000
0.3737 0.3687 0.0000
0.3737 0.3737 0.0000
0.3737 0.3788 0.0000
0.3737 0.3838 0.0000
0.3737 0.3889 0.0000
0.3737 0.3939 0.0000
0.3737 0.3990 0.0000
0.3737 0.4040 0.0000
0.3737 0.4091 0.0000
0.3737 0.4141 0.0000
0.3737 0.4192 0.0000
0.3737 0.4242 0.0000
0.3737 0.4293 0.0000
0.3737 0.4343 0.0000
0.3737 0.4394 0.0000
0.3737 0.4444 0.0000
0.3737 0.4495 0.0000
0.3737 0.4545 0.0000
0.3737 0.4596 0.0000
0.3737 0.4646 0.0000
0.3737 0.4697 0.0000
0.3737 0.4747 0.0000
0.3737 0.4798 0.0000
0.3737 0.4848 0.0000
0.3737 0.4899 0.0000
0.3737 0.4949 0.0000
0.3737 0.5000 0.0000
0.3838 0.0000 0.0000
0.3838 0.0051 0.0000
0.3838 0.0101 0.0000
0.3838 0.0152 0.0000
0.3838 0.0202 0.0000
0.3838 0.0253 0.0000
0.3838 0.0303 0.0000
0.3838 0.0354 0.0000
0.3838 0.0404 0.0000
0.3838 0.0455 0.0000
0.3838 0.0505 0.0000
0.3838 0.0556 0.0000
0.3838 0.0606 0.0000
0.3838 0.0657 0.0000
0.3838 0.0707 0.0000
0.3838 0.0758 0.0000
0.3838 0.0808 0.0000
0.3838 0.0859 0.0000
0.3838 0.0909 0.0000
0.3838 0.0960 0.0000
0.3838 0.1010 0.0000
0.3838 0.1061 0.0000
0.3838 0.1111 0.0000
0.3838 0.1162 0.0000
0.3838 0.1212 0.0000
0.3838 0.1263 0.0000
0.3838 0.1313 0.0000
0.3838 0.1364 0.0000
0.3838 0.1414 0.0000
0.3838 0.1465 0.0000
0.3838 0.1515 0.0000
0.3838 0.1566 0.0000
0.3838 0.1616 0.0000
0.3838 0.1667 0.0000
0.3838 0.1717 0.0000
0.3838 0.1768 0.0000
0.3838 0.1818 0.0000
0.3838 0.1869 0.0000
0.3838 0.1919 0.0000
0.3838 0.1970 0.0000
0.3838 0.2020 0.0000
0.3838 0.2071 0.0000
0.3838 0.2121 0.0000
0.3838 0.2172 0.0000
0.3838 0.2222 0.0000
0.3838 0.2273 0.0000
0.3838 0.2323 0.0000
0.3838 0.2374 0.0000
0.3838 0.2424 0.0000
0.3838 0.2475 0.0000
0.3838 0.2525 0.0000
0.3838 0.2576 0.0000
0.3838 0.2626 0.0000
0.3838 0.2677 0.0000
0.3838 0.2727 0.0000
0.3838 0.2778 0.0000
0.3838 0.2828 0.0000
0.3838 0.2879 0.0000
0.3838 0.2929 0.0000
0.3838 0.2980 0.0000
0.3838 0.3030 0.0000
0.3838 0.3081 0.0000
0.3838 0.3131 0.0000
0.3838 0.3182 0.0000
0.3838 0.3232 0.0000
0.3838 0.3283 0.0000
0.3838 0.3333 0.0000
0.3838 0.3384 0.0000
0.3838 0.3434 0.0000
0.3838 0.3485 0.0000
0.3838 0.3535 0.0000
0.3838 0.3586 0.0000
0.3838 0.3636 0.0000
0.3838 0.3687 0.0000
0.3838 0.3737 0.0000
0.3838 0.3788 0.0000
0.3838 0.3838 0.0000
0.3838 0.3889 0.0000
0.3838 0.3939 0.0000
0.3838 0.3990 0.0000
0.3838 0.4040 0.0000
0.3838 0.4091 0.0000
0.3838 0.4141 0.0000
0.3838 0.4192 0.0000
0.3838 0.4242 0.0000
0.3838 0.4293 0.0000
0.3838 0.4343 0.0000
0.3838 0.4394 0.0000
0.3838 0.4444 0.0000
0.3838 0.4495 0.0000
0.3838 0.4545 0.0000
0.3838 0.4596 0.0000
0.3838 0.4646 0.0000
0.3838 0.4697 0.0000
0.3838 0.4747 0.0000
0.3838 0.4798 0.0000
0.3838 0.4848 0.0000
0.3838 0.4899 0.0000
0.3838 0.4949 0.0000
0.3838 0.5000 0.0000
0.3939 0.0000 0.0000
0.3939 0.0051 0.0000
0.3939 0.0101 0.0000
0.3939 0.0152 0.0000
0.3939 0.0202 0.0000
0.3939 0.0253 0.0000
0.3939 0.0303 0.0000
0.3939 0.0354 0.0000
0.3939 0.0404 0.0000
0.3939 0.0455 0.0000
0.3939 0.0505 0.0000
0.3939 0.0556 0.0000
0.3939 0.0606 0.0000
0.3939 0.0657 0.0000
0.3939 0.0707 0.0000
0.3939 0.0758 0.0000
0.3939 0.0808 0.0000
0.3939 0.0859 0.0000
0.3939 0.0909 0.0000
0.3939 0.0960 0.0000
0.3939 0.1010 0.0000
0.3939 0.1061 0.0000
0.3939 0.1111 0.0000
0.3939 0.1162 0.0000
0.3939 0.1212 0.0000
0.3939 0.1263 0.0000
0.3939 0.1313 0.0000
0.3939 0.1364 0.0000
0.3939 0.1414 0.0000
0.3939 0.1465 0.0000
0.3939 0.1515 0.0000
0.3939 0.1566 0.0000
0.3939 0.1616 0.0000
0.3939 0.1667 0.0000
0.3939 0.1717 0.0000
0.3939 0.1768 0.0000
0.3939 0.1818 0.0000
0.3939 0.1869 0.0000
0.3939 0.1919 0.0000
0.3939 0.1970 0.0000
0.3939 0.2020 0.0000
0.3939 0.2071 0.0000
0.3939 0.2121 0.0000
0.3939 0.2172 0.0000
0.3939 0.2222 0.0000
0.3939 0.2273 0.0000
0.3939 0.2323 0.0000
0.3939 0.2374 0.0000
0.3939 0.2424 0.0000
0.3939 0.2475 0.0000
0.3939 0.2525 0.0000
0.3939 0.2576 0.0000
0.3939 0.2626 0.0000
0.3939 0.2677 0.0000
0.3939 0.2727 0.0000
0.3939 0.2778 0.0000
0.3939 0.2828 0.0000
0.3939 0.2879 0.0000
0.3939 0.2929 0.0000
0.3939 0.2980 0.0000
0.3939 0.3030 0.0000
0.3939 0.3081 0.0000
0.3939 0.3131 0.0000
0.3939 0.3182 0.0000
0.3939 0.3232 0.0000
0.3939 0.3283 0.0000
0.3939 0.3333 0.0000
0.3939 0.3384 0.0000
0.3939 0.3434 0.0000
0.3939 0.3485 0.0000
0.3939 0.3535 0.0000
0.3939 0.3586 0.0000
0.3939 0.3636 0.0000
0.3939 0.3687 0.0000
0.3939 0.3737 0.0000
0.3939 0.3788 0.0000
0.3939 0.3838 0.0000
0.3939 0.3889 0.0000
0.3939 0.3939 0.0000
0.3939 0.3990 0.0000
0.3939 0.4040 0.0000
0.3939 0.4091 0.0000
0.3939 0.4141 0.0000
0.3939 0.4192 0.0000
0.3939 0.4242 0.0000
0.3939 0.4293 0.0000
0.3939 0.4343 0.0000
0.3939 0.4394 0.0000
0.3939 0.4444 0.0000
0.3939 0.4495 0.0000
0.3939 0.4545 0.0000
0.3939 0.4596 0.0000
0.3939 0.4646 0.0000
0.3939 0.4697 0.0000
0.3939 0.4747 0.0000
0.3939 0.4798 0.0000
0.3939 0.4848 0.0000
0.3939 0.4899 0.0000
0.3939 0.4949 0.0000
0.3939 0.5000 0.0000
0.4040 0.0000 0.0000
0.4040 0.0051 0.0000
0.4040 0.0101 0.0000
0.4040 0.0152 0.0000
0.4040 0.0202 0.0000
0.4040 0.0253 0.0000
0.4040 0.0303 0.0000
0.4040 0.0354 0.0000
0.4040 0.0404 0.0000
0.4040 0.0455 0.0000
0.4040 0.0505 0.0000
0.4040 0.0556 0.0000
0.4040 0.0606 0.0000
0.4040 0.0657 0.0000
0.4040 0.0707 0.0000
0.4040 0.0758 0.0000
0.4040 0.0808 0.0000
0.4040 0.0859 0.0000
0.4040 0.0909 0.0000
0.4040 0.0960 0.0000
0.4040 0.1010 0.0000
0.4040 0.1061 0.0000
0.4040 0.1111 0.0000
0.4040 0.1162 0.0000
0.4040 0.1212 0.0000
0.4040 0.1263 0.0000
0.4040 0.1313 0.0000
0.4040 0.1364 0.0000
0.4040 0.1414 0.0000
0.4040 0.1465 0.0000
0.4040 0.1515 0.0000
0.4040 0.1566 0.0000
0.4040 0.1616 0.0000
0.4040 0.1667 0.0000
0.4040 0.1717 0.0000
0.4040 0.1768 0.0000
0.4040 0.1818 0.0000
0.4040 0.1869 0.0000
0.4040 0.1919 0.0000
0.4040 0.1970 0.0000
0.4040 0.2020 0.0000
0.4040 0.2071 0.0000
0.4040 0.2121 0.0000
0.4040 0.2172 0.0000
0.4040 0.2222 0.0000
0.4040 0.2273 0.0000
0.4040 0.2323 0.0000
0.4040 0.2374 0.0000
0.4040 0.2424 0.0000
0.4040 0.2475 0.0000
0.4040 0.2525 0.0000
0.4040 0.2576 0.0000
0.4040 0.2626 0.0000
0.4040 0.2677 0.0000
0.4040 0.2727 0.0000
0.4040 0.2778 0.0000
0.4040 0.2828 0.0000
0.4040 0.2879 0.0000
0.4040 0.2929 0.0000
0.4040 0.2980 0.0000
0.4040 0.3030 0.0000
0.4040 0.3081 0.0000
0.4040 0.3131 0.0000
0.4040 0.3182 0.0000
0.4040 0.3232 0.0000
0.4040 0.3283 0.0000
0.4040 0.3333 0.0000
0.4040 0.3384 0.0000
0.4040 0.3434 0.0000
0.4040 0.3485 0.0000
0.4040 0.3535 0.0000
0.4040 0.3586 0.0000
0.4040 0.3636 0.0000
0.4040 0.3687 0.0000
0.4040 0.3737 0.0000
0.4040 0.3788 0.0000
0.4040 0.3838 0.0000
0.4040 0.3889 0.0000
0.4040 0.3939 0.0000
0.4040 0.3990 0.0000
0.4040 0.4040 0.0000
0.4040 0.4091 0.0000
0.4040 0.4141 0.0000
0.4040 0.4192 0.0000
0.4040 0.4242 0.0000
0.4040 0.4293 0.0000
0.4040 0.4343 0.0000
0.4040 0.4394 0.0000
0.4040 0.4444 0.0000
0.4040 0.4495 0.0000
0.4040 0.4545 0.0000
0.4040 0.4596 0.0000
0.4040 0.4646 0.0000
0.4040 0.4697 0.0000
0.4040 0.4747 0.0000
0.4040 0.4798 0.0000
0.4040 0.4848 0.0000
0.4040 0.4899 0.0000
0.4040 0.4949 0.0000
0.4040 0.5000 0.0000
0.4141 0.0000 0.0000
0.4141 0.0051 0.0000
0.4141 0.0101 0.0000
0.4141 0.0152 0.0000
0.4141 0.0202 0.0000
0.4141 0.0253 0.0000
0.4141 0.0303 0.0000
0.4141 0.0354 0.0000
0.4141 0.0404 0.0000
0.4141 0.0455 0.0000
0.4141 0.0505 0.0000
0.4141 0.0556 0.0000
0.4141 0.0606 0.0000
0.4141 0.0657 0.0000
0.4141 0.0707 0.0000
0.4141 0.0758 0.0000
0.4141 0.0808 0.0000
0.4141 0.0859 0.0000
0.4141 0.0909 0.0000
0.4141 0.0960 0.0000
0.4141 0.1010 0.0000
0.4141 0.1061 0.0000
0.4141 0.1111 0.0000
0.4141 0.1162 0.0000
0.4141 0.1212 0.0000
0.4141 0.1263 0.0000
0.4141 0.1313 0.0000
0.4141 0.1364 0.0000
0.4141 0.1414 0.0000
0.4141 0.1465 0.0000
0.4141 0.1515 0.0000
0.4141 0.1566 0.0000
0.4141 0.1616 0.0000
0.4141 0.1667 0.0000
0.4141 0.1717 0.0000
0.4141 0.1768 0.0000
0.4141 0.1818 0.0000
0.4141 0.1869 0.0000
0.4141 0.1919 0.0000
0.4141 0.1970 0.0000
0.4141 0.2020 0.0000
0.4141 0.2071 0.0000
0.4141 0.2121 0.0000
0.4141 0.2172 0.0000
0.4141 0.2222 0.0000
0.4141 0.2273 0.0000
0.4141 0.2323 0.0000
0.4141 0.2374 0.0000
0.4141 0.2424 0.0000
0.4141 0.2475 0.0000
0.4141 0.2525 0.0000
0.4141 0.2576 0.0000
0.4141 0.2626 0.0000
0.4141 0.2677 0.0000
0.4141 0.2727 0.0000
0.4141 0.2778 0.0000
0.4141 0.2828 0.0000
0.4141 0.2879 0.0000
0.4141 0.2929 0.0000
0.4141 0.2980 0.0000
0.4141 0.3030 0.0000
0.4141 0.3081 0.0000
0.4141 0.3131 0.0000
0.4141 0.3182 0.0000
0.4141 0.3232 0.0000
0.4141 0.3283 0.0000
0.4141 0.3333 0.0000
0.4141 0.3384 0.0000
0.4141 0.3434 0.0000
0.4141 0.3485 0.0000
0.4141 0.3535 0.0000
0.4141 0.3586 0.0000
0.4141 0.3636 0.0000
0.4141 0.3687 0.0000
0.4141 0.3737 0.0000
0.4141 0.3788 0.0000
0.4141 0.3838 0.0000
0.4141 0.3889 0.0000
0.4141 0.3939 0.0000
0.4141 0.3990 0.0000
0.4141 0.4040 0.0000
0.4141 0.4091 0.0000
0.4141 0.4141 0.0000
0.4141 0.4192 0.0000
0.4141 0.4242 0.0000
0.4141 0.4293 0.0000
0.4141 0.4343 0.0000
0.4141 0.4394 0.0000
0.4141 0.4444 0.0000
0.4141 0.4495 0.0000
0.4141 0.4545 0.0000
0.4141 0.4596 0.0000
0.4141 0.4646 0.0000
0.4141 0.4697 0.0000
0.4141 0.4747 0.0000
0.4141 0.4798 0.0000
0.4141 0.4848 0.0000
0.4141 0.4899 0.0000
0.4141 0.4949 0.0000
0.4141 0.5000 0.0000
0.4242 0.0000 0.0000
0.4242 0.0051 0.0000
0.4242 0.0101 0.0000
0.4242 0.0152 0.0000
0.4242 0.0202 0.0000
0.4242 0.0253 0.0000
0.4242 0.0303 0.0000
0.4242 0.0354 0.0000
0.4242 0.0404 0.0000
0.4242 0.0455 0.0000
0.4242 0.0505 0.0000
0.4242 0.0556 0.0000
0.4242 0.0606 0.0000
0.4242 0.0657 0.0000
0.4242 0.0707 0.0000
0.4242 0.0758 0.0000
0.4242 0.0808 0.0000
0.4242 0.0859 0.0000
0.4242 0.0909 0.0000
0.4242 0.0960 0.0000
0.4242 0.1010 0.0000
0.4242 0.1061 0.0000
0.4242 0.1111 0.0000
0.4242 0.1162 0.0000
0.4242 0.1212 0.0000
0.4242 0.1263 0.0000
0.4242 0.1313 0.0000
0.4242 0.1364 0.0000
0.4242 0.1414 0.0000
0.4242 0.1465 0.0000
0.4242 0.1515 0.0000
0.4242 0.1566 0.0000
0.4242 0.1616 0.0000
0.4242 0.1667 0.0000
0.4242 0.1717 0.0000
0.4242 0.1768 0.0000
0.4242 0.1818 0.0000
0.4242 0.1869 0.0000
0.4242 0.1919 0.0000
0.4242 0.1970 0.0000
0.4242 0.2020 0.0000
0.4242 0.2071 0.0000
0.4242 0.2121 0.0000
0.4242 0.2172 0.0000
0.4242 0.2222 0.0000
0.4242 0.2273 0.0000
0.4242 0.2323 0.0000
0.4242 0.2374 0.0000
0.4242 0.2424 0.0000
0.4242 0.2475 0.0000
0.4242 0.2525 0.0000
0.4242 0.2576 0.0000
0.4242 0.2626 0.0000
0.4242 0.2677 0.0000
0.4242 0.2727 0.0000
0.4242 0.2778 0.0000
0.4242 0.2828 0.0000
0.4242 0.2879 0.0000
0.4242 0.2929 0.0000
0.4242 0.2980 0.0000
0.4242 0.3030 0.0000
0.4242 0.3081 0.0000
0.4242 0.3131 0.0000
0.4242 0.3182 0.0000
0.4242 0.3232 0.0000
0.4242 0.3283 0.0000
0.4242 0.3333 0.0000
0.4242 0.3384 0.0000
0.4242 0.3434 0.0000
0.4242 0.3485 0.0000
0.4242 0.3535 0.0000
0.4242 0.3586 0.0000
0.4242 0.3636 0.0000
0.4242 0.3687 0.0000
0.4242 0.3737 0.0000
0.4242 0.3788 0.0000
0.4242 0.3838 0.0000
0.4242 0.3889 0.0000
0.4242 0.3939 0.0000
0.4242 0.3990 0.0000
0.4242 0.4040 0.0000
0.4242 0.4091 0.0000
0.4242 0.4141 0.0000
0.4242 0.4192 0.0000
0.4242 0.4242 0.0000
0.4242 0.4293 0.0000
0.4242 0.4343 0.0000
0.4242 0.4394 0.0000
0.4242 0.4444 0.0000
0.4242 0.4495 0.0000
0.4242 0.4545 0.0000
0.4242 0.4596 0.0000
0.4242 0.4646 0.0000
0.4242 0.4697 0.0000
0.4242 0.4747 0.0000
0.4242 0.4798 0.0000
0.4242 0.4848 0.0000
0.4242 0.4899 0.0000
0.4242 0.4949 0.0000
0.4242 0.5000 0.0000
0.4343 0.0000 0.0000
0.4343 0.0051 0.0000
0.4343 0.0101 0.0000
0.4343 0.0152 0.0000
0.4343 0.0202 0.0000
0.4343 0.0253 0.0000
0.4343 0.0303 0.0000
0.4343 0.0354 0.0000
0.4343 0.0404 0.0000
0.4343 0.0455 0.0000
0.4343 0.0505 0.0000
0.4343 0.0556 0.0000
0.4343 0.0606 0.0000
0.4343 0.0657 0.0000
0.4343 0.0707 0.0000
0.4343 0.0758 0.0000
0.4343 0.0808 0.0000
0.4343 0.0859 0.0000
0.4343 0.0909 0.0000
0.4343 0.0960 0.0000
0.4343 0.1010 0.0000
0.4343 0.1061 0.0000
0.4343 0.1111 0.0000
0.4343 0.1162 0.0000
0.4343 0.1212 0.0000
0.4343 0.1263 0.0000
0.4343 0.1313 0.0000
0.4343 0.1364 0.0000
0.4343 0.1414 0.0000
0.4343 0.1465 0.0000
0.4343 0.1515 0.0000
0.4343 0.1566 0.0000
0.4343 0.1616 0.0000
0.4343 0.1667 0.0000
0.4343 0.1717 0.0000
0.4343 0.1768 0.0000
0.4343 0.1818 0.0000
0.4343 0.1869 0.0000
0.4343 0.1919 0.0000
0.4343 0.1970 0.0000
0.4343 0.2020 0.0000
0.4343 0.2071 0.0000
0.4343 0.2121 0.0000
0.4343 0.2172 0.0000
0.4343 0.2222 0.0000
0.4343 0.2273 0.0000
0.4343 0.2323 0.0000
0.4343 0.2374 0.0000
0.4343 0.2424 0.0000
0.4343 0.2475 0.0000
0.4343 0.2525 0.0000
0.4343 0.2576 0.0000
0.4343 0.2626 0.0000
0.4343 0.2677 0.0000
0.4343 0.2727 0.0000
0.4343 0.2778 0.0000
0.4343 0.2828 0.0000
0.4343 0.2879 0.0000
0.4343 0.2929 0.0000
0.4343 0.2980 0.0000
0.4343 0.3030 0.0000
0.4343 0.3081 0.0000
0.4343 0.3131 0.0000
0.4343 0.3182 0.0000
0.4343 0.3232 0.0000
0.4343 0.3283 0.0000
0.4343 0.3333 0.0000
0.4343 0.3384 0.0000
0.4343 0.3434 0.0000
0.4343 0.3485 0.0000
0.4343 0.3535 0.0000
0.4343 0.3586 0.0000
0.4343 0.3636 0.0000
0.4343 0.3687 0.0000
0.4343 0.3737 0.0000
0.4343 0.3788 0.0000
0.4343 0.3838 0.0000
0.4343 0.3889 0.0000
0.4343 0.3939 0.0000
0.4343 0.3990 0.0000
0.4343 0.4040 0.0000
0.4343 0.4091 0.0000
0.4343 0.4141 0.0000
0.4343 0.4192 0.0000
0.4343 0.4242 0.0000
0.4343 0.4293 0.0000
0.4343 0.4343 0.0000
0.4343 0.4394 0.0000
0.4343 0.4444 0.0000
0.4343 0.4495 0.0000
0.4343 0.4545 0.0000
0.4343 0.4596 0.0000
0.4343 0.4646 0.0000
0.4343 0.4697 0.0000
0.4343 0.4747 0.0000
0.4343 0.4798 0.0000
0.4343 0.4848 0.0000
0.4343 0.4899 0.0000
0.4343 0.4949 0.0000
0.4343 0.5000 0.0000
0.4444 0.0000 0.0000
0.4444 0.0051 0.0000
0.4444 0.0101 0.0000
0.4444 0.0152 0.0000
0.4444 0.0202 0.0000
0.4444 0.0253 0.0000
0.4444 0.0303 0.0000
0.4444 0.0354 0.0000
0.4444 0.0404 0.0000
0.4444 0.0455 0.0000
0.4444 0.0505 0.0000
0.4444 0.0556 0.0000
0.4444 0.0606 0.0000
0.4444 0.0657 0.0000
0.4444 0.0707 0.0000
0.4444 0.0758 0.0000
0.4444 0.0808 0.0000
0.4444 0.0859 0.0000
0.4444 0.0909 0.0000
0.4444 0.0960 0.0000
0.4444 0.1010 0.0000
0.4444 0.1061 0.0000
0.4444 0.1111 0.0000
0.4444 0.1162 0.0000
0.4444 0.1212 0.0000
0.4444 0.1263 0.0000
0.4444 0.1313 0.0000
0.4444 0.1364 0.0000
0.4444 0.1414 0.0000
0.4444 0.1465 0.0000
0.4444 0.1515 0.0000
0.4444 0.1566 0.0000
0.4444 0.1616 0.0000
0.4444 0.1667 0.0000
0.4444 0.1717 0.0000
0.4444 0.1768 0.0000
0.4444 0.1818 0.0000
0.4444 0.1869 0.0000
0.4444 0.1919 0.0000
0.4444 0.1970 0.0000
0.4444 0.2020 0.0000
0.4444 0.2071 0.0000
0.4444 0.2121 0.0000
0.4444 0.2172 0.0000
0.4444 0.2222 0.0000
0.4444 0.2273 0.0000
0.4444 0.2323 0.0000
0.4444 0.2374 0.0000
0.4444 0.2424 0.0000
0.4444 0.2475 0.0000
0.4444 0.2525 0.0000
0.4444 0.2576 0.0000
0.4444 0.2626 0.0000
0.4444 0.2677 0.0000
0.4444 0.2727 0.0000
0.4444 0.2778 0.0000
0.4444 0.2828 0.0000
0.4444 0.2879 0.0000
0.4444 0.2929 0.0000
0.4444 0.2980 0.0000
0.4444 0.3030 0.0000
0.4444 0.3081 0.0000
0.4444 0.3131 0.0000
0.4444 0.3182 0.0000
0.4444 0.3232 0.0000
0.4444 0.3283 0.0000
0.4444 0.3333 0.0000
0.4444 0.3384 0.0000
0.4444 0.3434 0.0000
0.4444 0.3485 0.0000
0.4444 0.3535 0.0000
0.4444 0.3586 0.0000
0.4444 0.3636 0.0000
0.4444 0.3687 0.0000
0.4444 0.3737 0.0000
0.4444 0.3788 0.0000
0.4444 0.3838 0.0000
0.4444 0.3889 0.0000
0.4444 0.3939 0.0000
0.4444 0.3990 0.0000
0.4444 0.4040 0.0000
0.4444 0.4091 0.0000
0.4444 0.4141 0.0000
0.4444 0.4192 0.0000
0.4444 0.4242 0.0000
0.4444 0.4293 0.0000
0.4444 0.4343 0.0000
0.4444 0.4394 0.0000
0.4444 0.4444 0.0000
0.4444 0.4495 0.0000
0.4444 0.4545 0.0000
0.4444 0.4596 0.0000
0.4444 0.4646 0.0000
0.4444 0.4697 0.0000
0.4444 0.4747 0.0000
0.4444 0.4798 0.0000
0.4444 0.4848 0.0000
0.4444 0.4899 0.0000
0.4444 0.4949 0.0000
0.4444 0.5000 0.0000
0.4545 0.0000 0.0000
0.4545 0.0051 0.0000
0.4545 0.0101 0.0000
0.4545 0.0152 0.0000
0.4545 0.0202 0.0000
0.4545 0.0253 0.0000
0.4545 0.0303 0.0000
0.4545 0.0354 0.0000
0.4545 0.0404 0.0000
0.4545 0.0455 0.0000
0.4545 0.0505 0.0000
0.4545 0.0556 0.0000
0.4545 0.0606 0.0000
0.4545 0.0657 0.0000
0.4545 0.0707 0.0000
0.4545 0.0758 0.0000
0.4545 0.0808 0.0000
0.4545 0.0859 0.0000
0.4545 0.0909 0.0000
0.4545 0.0960 0.0000
0.4545 0.1010 0.0000
0.4545 0.1061 0.0000
0.4545 0.1111 0.0000
0.4545 0.1162 0.0000
0.4545 0.1212 0.0000
0.4545 0.1263 0.0000
0.4545 0.1313 0.0000
0.4545 0.1364 0.0000
0.4545 0.1414 0.0000
0.4545 0.1465 0.0000
0.4545 0.1515 0.0000
0.4545 0.1566 0.0000
0.4545 0.1616 0.0000
0.4545 0.1667 0.0000
0.4545 0.1717 0.0000
0.4545 0.1768 0.0000
0.4545 0.1818 0.0000
0.4545 0.1869 0.0000
0.4545 0.1919 0.0000
0.4545 0.1970 0.0000
0.4545 0.2020 0.0000
0.4545 0.2071 0.0000
0.4545 0.2121 0.0000
0.4545 0.2172 0.0000
0.4545 0.2222 0.0000
0.4545 0.2273 0.0000
0.4545 0.2323 0.0000
0.4545 0.2374 0.0000
0.4545 0.2424 0.0000
0.4545 0.2475 0.0000
0.4545 0.2525 0.0000
0.4545 0.2576 0.0000
0.4545 0.2626 0.0000
0.4545 0.2677 0.0000
0.4545 0.2727 0.0000
0.4545 0.2778 0.0000
0.4545 0.2828 0.0000
0.4545 0.2879 0.0000
0.4545 0.2929 0.0000
0.4545 0.2980 0.0000
0.4545 0.3030 0.0000
0.4545 0.3081 0.0000
0.4545 0.3131 0.0000
0.4545 0.3182 0.0000
0.4545 0.3232 0.0000
0.4545 0.3283 0.0000
0.4545 0.3333 0.0000
0.4545 0.3384 0.0000
0.4545 0.3434 0.0000
0.4545 0.3485 0.0000
0.4545 0.3535 0.0000
0.4545 0.3586 0.0000
0.4545 0.3636 0.0000
0.4545 0.3687 0.0000
0.4545 0.3737 0.0000
0.4545 0.3788 0.0000
0.4545 0.3838 0.0000
0.4545 0.3889 0.0000
0.4545 0.3939 0.0000
0.4545 0.3990 0.0000
0.4545 0.4040 0.0000
0.4545 0.4091 0.0000
0.4545 0.4141 0.0000
0.4545 0.4192 0.0000
0.4545 0.4242 0.0000
0.4545 0.4293 0.0000
0.4545 0.4343 0.0000
0.4545 0.4394 0.0000
0.4545 0.4444 0.0000
0.4545 0.4495 0.0000
0.4545 0.4545 0.0000
0.4545 0.4596 0.0000
0.4545 0.4646 0.0000
0.4545 0.4697 0.0000
0.4545 0.4747 0.0000
0.4545 0.4798 0.0000
0.4545 0.4848 0.0000
0.4545 0.4899 0.0000
0.4545 0.4949 0.0000
0.4545 0.5000 0.0000
0.4646 0.0000 0.0000
0.4646 0.0051 0.0000
0.4646 0.0101 0.0000
0.4646 0.0152 0.0000
0.4646 0.0202 0.0000
0.4646 0.0253 0.0000
0.4646 0.0303 0.0000
0.4646 0.0354 0.0000
0.4646 0.0404 0.0000
0.4646 0.0455 0.0000
0.4646 0.0505 0.0000
0.4646 0.0556 0.0000
0.4646 0.0606 0.0000
0.4646 0.0657 0.0000
0.4646 0.0707 0.0000
0.4646 0.0758 0.0000
0.4646 0.0808 0.0000
0.4646 0.0859 0.0000
0.4646 0.0909 0.0000
0.4646 0.0960 0.0000
0.4646 0.1010 0.0000
0.4646 0.1061 0.0000
0.4646 0.1111 0.0000
0.4646 0.1162 0.0000
0.4646 0.1212 0.0000
0.4646 0.1263 0.0000
0.4646 0.1313 0.0000
0.4646 0.1364 0.0000
0.4646 0.1414 0.0000
0.4646 0.1465 0.0000
0.4646 0.1515 0.0000
0.4646 0.1566 0.0000
0.4646 0.1616 0.0000
0.4646 0.1667 0.0000
0.4646 0.1717 0.0000
0.4646 0.1768 0.0000
0.4646 0.1818 0.0000
0.4646 0.1869 0.0000
0.4646 0.1919 0.0000
0.4646 0.1970 0.0000
0.4646 0.2020 0.0000
0.4646 0.2071 0.0000
0.4646 0.2121 0.0000
0.4646 0.2172 0.0000
0.4646 0.2222 0.0000
0.4646 0.2273 0.0000
0.4646 0.2323 0.0000
0.4646 0.2374 0.0000
0.4646 0.2424 0.0000
0.4646 0.2475 0.0000
0.4646 0.2525 0.0000
0.4646 0.2576 0.0000
0.4646 0.2626 0.0000
0.4646 0.2677 0.0000
0.4646 0.2727 0.0000
0.4646 0.2778 0.0000
0.4646 0.2828 0.0000
0.4646 0.2879 0.0000
0.4646 0.2929 0.0000
0.4646 0.2980 0.0000
0.4646 0.3030 0.0000
0.4646 0.3081 0.0000
0.4646 0.3131 0.0000
0.4646 0.3182 0.0000
0.4646 0.3232 0.0000
0.4646 0.3283 0.0000
0.4646 0.3333 0.0000
0.4646 0.3384 0.0000
0.4646 0.3434 0.0000
0.4646 0.3485 0.0000
0.4646 0.3535 0.0000
0.4646 0.3586 0.0000
0.4646 0.3636 0.0000
0.4646 0.3687 0.0000
0.4646 0.3737 0.0000
0.4646 0.3788 0.0000
0.4646 0.3838 0.0000
0.4646 0.3889 0.0000
0.4646 0.3939 0.0000
0.4646 0.3990 0.0000
0.4646 0.4040 0.0000
0.4646 0.4091 0.0000
0.4646 0.4141 0.0000
0.4646 0.4192 0.0000
0.4646 0.4242 0.0000
0.4646 0.4293 0.0000
0.4646 0.4343 0.0000
0.4646 0.4394 0.0000
0.4646 0.4444 0.0000
0.4646 0.4495 0.0000
0.4646 0.4545 0.0000
0.4646 0.4596 0.0000
0.4646 0.4646 0.0000
0.4646 0.4697 0.0000
0.4646 0.4747 0.0000
0.4646 0.4798 0.0000
0.4646 0.4848 0.0000
0.4646 0.4899 0.0000
0.4646 0.4949 0.0000
0.4646 0.5000 0.0000
0.4747 0.0000 0.0000
0.4747 0.0051 0.0000
0.4747 0.0101 0.0000
0.4747 0.0152 0.0000
0.4747 0.0202 0.0000
0.4747 0.0253 0.0000
0.4747 0.0303 0.0000
0.4747 0.0354 0.0000
0.4747 0.0404 0.0000
0.4747 0.0455 0.0000
0.4747 0.0505 0.0000
0.4747 0.0556 0.0000
0.4747 0.0606 0.0000
0.4747 0.0657 0.0000
0.4747 0.0707 0.0000
0.4747 0.0758 0.0000
0.4747 0.0808 0.0000
0.4747 0.0859 0.0000
0.4747 0.0909 0.0000
0.4747 0.0960 0.0000
0.4747 0.1010 0.0000
0.4747 0.1061 0.0000
0.4747 0.1111 0.0000
0.4747 0.1162 0.0000
0.4747 0.1212 0.0000
0.4747 0.1263 0.0000
0.4747 0.1313 0.0000
0.4747 0.1364 0.0000
0.4747 0.1414 0.0000
0.4747 0.1465 0.0000
0.4747 0.1515 0.0000
0.4747 0.1566 0.0000
0.4747 0.1616 0.0000
0.4747 0.1667 0.0000
0.4747 0.1717 0.0000
0.4747 0.1768 0.0000
0.4747 0.1818 0.0000
0.4747 0.1869 0.0000
0.4747 0.1919 0.0000
0.4747 0.1970 0.0000
0.4747 0.2020 0.0000
0.4747 0.2071 0.0000
0.4747 0.2121 0.0000
0.4747 0.2172 0.0000
0.4747 0.2222 0.0000
0.4747 0.2273 0.0000
0.4747 0.2323 0.0000
0.4747 0.2374 0.0000
0.4747 0.2424 0.0000
0.4747 0.2475 0.0000
0.4747 0.2525 0.0000
0.4747 0.2576 0.0000
0.4747 0.2626 0.0000
0.4747 0.2677 0.0000
0.4747 0.2727 0.0000
0.4747 0.2778 0.0000
0.4747 0.2828 0.0000
0.4747 0.2879 0.0000
0.4747 0.2929 0.0000
0.4747 0.2980 0.0000
0.4747 0.3030 0.0000
0.4747 0.3081 0.0000
0.4747 0.3131 0.0000
0.4747 0.3182 0.0000
0.4747 0.3232 0.0000
0.4747 0.3283 0.0000
0.4747 0.3333 0.0000
0.4747 0.3384 0.0000
0.4747 0.3434 0.0000
0.4747 0.3485 0.0000
0.4747 0.3535 0.0000
0.4747 0.3586 0.0000
0.4747 0.3636 0.0000
0.4747 0.3687 0.0000
0.4747 0.3737 0.0000
0.4747 0.3788 0.0000
0.4747 0.3838 0.0000
0.4747 0.3889 0.0000
0.4747 0.3939 0.0000
0.4747 0.3990 0.0000
0.4747 0.4040 0.0000
0.4747 0.4091 0.0000
0.4747 0.4141 0.0000
0.4747 0.4192 0.0000
0.4747 0.4242 0.0000
0.4747 0.4293 0.0000
0.4747 0.4343 0.0000
0.4747 0.4394 0.0000
0.4747 0.4444 0.0000
0.4747 0.4495 0.0000
0.4747 0.4545 0.0000
0.4747 0.4596 0.0000
0.4747 0.4646 0.0000
0.4747 0.4697 0.0000
0.4747 0.4747 0.0000
0.4747 0.4798 0.0000
0.4747 0.4848 0.0000
0.4747 0.4899 0.0000
0.4747 0.4949 0.0000
0.4747 0.5000 0.0000
0.4848 0.0000 0.0000
0.4848 0.0051 0.0000
0.4848 0.0101 0.0000
0.4848 0.0152 0.0000
0.4848 0.0202 0.0000
0.4848 0.0253 0.0000
0.4848 0.0303 0.0000
0.4848 0.0354 0.0000
0.4848 0.0404 0.0000
0.4848 0.0455 0.0000
0.4848 0.0505 0.0000
0.4848 0.0556 0.0000
0.4848 0.0606 0.0000
0.4848 0.0657 0.0000
0.4848 0.0707 0.0000
0.4848 0.0758 0.0000
0.4848 0.0808 0.0000
0.4848 0.0859 0.0000
0.4848 0.0909 0.0000
0.4848 0.0960 0.0000
0.4848 0.1010 0.0000
0.4848 0.1061 0.0000
0.4848 0.1111 0.0000
0.4848 0.1162 0.0000
0.4848 0.1212 0.0000
0.4848 0.1263 0.0000
0.4848 0.1313 0.0000
0.4848 0.1364 0.0000
0.4848 0.1414 0.0000
0.4848 0.1465 0.0000
0.4848 0.1515 0.0000
0.4848 0.1566 0.0000
0.4848 0.1616 0.0000
0.4848 0.1667 0.0000
0.4848 0.1717 0.0000
0.4848 0.1768 0.0000
0.4848 0.1818 0.0000
0.4848 0.1869 0.0000
0.4848 0.1919 0.0000
0.4848 0.1970 0.0000
0.4848 0.2020 0.0000
0.4848 0.2071 0.0000
0.4848 0.2121 0.0000
0.4848 0.2172 0.0000
0.4848 0.2222 0.0000
0.4848 0.2273 0.0000
0.4848 0.2323 0.0000
0.4848 0.2374 0.0000
0.4848 0.2424 0.0000
0.4848 0.2475 0.0000
0.4848 0.2525 0.0000
0.4848 0.2576 0.0000
0.4848 0.2626 0.0000
0.4848 0.2677 0.0000
0.4848 0.2727 0.0000
0.4848 0.2778 0.0000
0.4848 0.2828 0.0000
0.4848 0.2879 0.0000
0.4848 0.2929 0.0000
0.4848 0.2980 0.0000
0.4848 0.3030 0.0000
0.4848 0.3081 0.0000
0.4848 0.3131 0.0000
0.4848 0.3182 0.0000
0.4848 0.3232 0.0000
0.4848 0.3283 0.0000
0.4848 0.3333 0.0000
0.4848 0.3384 0.0000
0.4848 0.3434 0.0000
0.4848 0.3485 0.0000
0.4848 0.3535 0.0000
0.4848 0.3586 0.0000
0.4848 0.3636 0.0000
0.4848 0.3687 0.0000
0.4848 0.3737 0.0000
0.4848 0.3788 0.0000
0.4848 0.3838 0.0000
0.4848 0.3889 0.0000
0.4848 0.3939 0.0000
0.4848 0.3990 0.0000
0.4848 0.4040 0.0000
0.4848 0.4091 0.0000
0.4848 0.4141 0.0000
0.4848 0.4192 0.0000
0.4848 0.4242 0.0000
0.4848 0.4293 0.0000
0.4848 0.4343 0.0000
0.4848 0.4394 0.0000
0.4848 0.4444 0.0000
0.4848 0.4495 0.0000
0.4848 0.4545 0.0000
0.4848 0.4596 0.0000
0.4848 0.4646 0.0000
0.4848 0.4697 0.0000
0.4848 0.4747 0.0000
0.4848 0.4798 0.0000
0.4848 0.4848 0.0000
0.4848 0.4899 0.0000
0.4848 0.4949 0.0000
0.4848 0.5000 0.0000
0.4949 0.0000 0.0000
0.4949 0.0051 0.0000
0.4949 0.0101 0.0000
0.4949 0.0152 0.0000
0.4949 0.0202 0.0000
0.4949 0.0253 0.0000
0.4949 0.0303 0.0000
0.4949 0.0354 0.0000
0.4949 0.0404 0.0000
0.4949 0.0455 0.0000
0.4949 0.0505 0.0000
0.4949 0.0556 0.0000
0.4949 0.0606 0.0000
0.4949 0.0657 0.0000
0.4949 0.0707 0.0000
0.4949 0.0758 0.0000
0.4949 0.0808 0.0000
0.4949 0.0859 0.0000
0.4949 0.0909 0.0000
0.4949 0.0960 0.0000
0.4949 0.1010 0.0000
0.4949 0.1061 0.0000
0.4949 0.1111 0.0000
0.4949 0.1162 0.0000
0.4949 0.1212 0.0000
0.4949 0.1263 0.0000
0.4949 0.1313 0.0000
0.4949 0.1364 0.0000
0.4949 0.1414 0.0000
0.4949 0.1465 0.0000
0.4949 0.1515 0.0000
0.4949 0.1566 0.0000
0.4949 0.1616 0.0000
0.4949 0.1667 0.0000
0.4949 0.1717 0.0000
0.4949 0.1768 0.0000
0.4949 0.1818 0.0000
0.4949 0.1869 0.0000
0.4949 0.1919 0.0000
0.4949 0.1970 0.0000
0.4949 0.2020 0.0000
0.4949 0.2071 0.0000
0.4949 0.2121 0.0000
0.4949 0.2172 0.0000
0.4949 0.2222 0.0000
0.4949 0.2273 0.0000
0.4949 0.2323 0.0000
0.4949 0.2374 0.0000
0.4949 0.2424 0.0000
0.4949 0.2475 0.0000
0.4949 0.2525 0.0000
0.4949 0.2576 0.0000
0.4949 0.2626 0.0000
0.4949 0.2677 0.0000
0.4949 0.2727 0.0000
0.4949 0.2778 0.0000
0.4949 0.2828 0.0000
0.4949 0.2879 0.0000
0.4949 0.2929 0.0000
0.4949 0.2980 0.0000
0.4949 0.3030 0.0000
0.4949 0.3081 0.0000
0.4949 0.3131 0.0000
0.4949 0.3182 0.0000
0.4949 0.3232 0.0000
0.4949 0.3283 0.0000
0.4949 0.3333 0.0000
0.4949 0.3384 0.0000
0.4949 0.3434 0.0000
0.4949 0.3485 0.0000
0.4949 0.3535 0.0000
0.4949 0.3586 0.0000
0.4949 0.3636 0.0000
0.4949 0.3687 0.0000
0.4949 0.3737 0.0000
0.4949 0.3788 0.0000
0.4949 0.3838 0.0000
0.4949 0.3889 0.0000
0.4949 0.3939 0.0000
0.4949 0.3990 0.0000
0.4949 0.4040 0.0000
0.4949 0.4091 0.0000
0.4949 0.4141 0.0000
0.4949 0.4192 0.0000
0.4949 0.4242 0.0000
0.4949 0.4293 0.0000
0.4949 0.4343 0.0000
0.4949 0.4394 0.0000
0.4949 0.4444 0.0000
0.4949 0.4495 0.0000
0.4949 0.4545 0.0000
0.4949 0.4596 0.0000
0.4949 0.4646 0.0000
0.4949 0.4697 0.0000
0.4949 0.4747 0.0000
0.4949 0.4798 0.0000
0.4949 0.4848 0.0000
0.4949 0.4899 0.0000
0.4949 0.4949 0.0000
0.4949 0.5000 0.0000
0.5051 0.0000 0.0000
0.5051 0.0051 0.0000
0.5051 0.0101 0.0000
0.5051 0.0152 0.0000
0.5051 0.0202 0.0000
0.5051 0.0253 0.0000
0.5051 0.0303 0.0000
0.5051 0.0354 0.0000
0.5051 0.0404 0.0000
0.5051 0.0455 0.0000
0.5051 0.0505 0.0000
0.5051 0.0556 0.0000
0.5051 0.0606 0.0000
0.5051 0.0657 0.0000
0.5051 0.0707 0.0000
0.5051 0.0758 0.0000
0.5051 0.0808 0.0000
0.5051 0.0859 0.0000
0.5051 0.0909 0.0000
0.5051 0.0960 0.0000
0.5051 0.1010 0.0000
0.5051 0.1061 0.0000
0.5051 0.1111 0.0000
0.5051 0.1162 0.0000
0.5051 0.1212 0.0000
0.5051 0.1263 0.0000
0.5051 0.1313 0.0000
0.5051 0.1364 0.0000
0.5051 0.1414 0.0000
0.5051 0.1465 0.0000
0.5051 0.1515 0.0000
0.5051 0.1566 0.0000
0.5051 0.1616 0.0000
0.5051 0.1667 0.0000
0.5051 0.1717 0.0000
0.5051 0.1768 0.0000
0.5051 0.1818 0.0000
0.5051 0.1869 0.0000
0.5051 0.1919 0.0000
0.5051 0.1970 0.0000
0.5051 0.2020 0.0000
0.5051 0.2071 0.0000
0.5051 0.2121 0.0000
0.5051 0.2172 0.0000
0.5051 0.2222 0.0000
0.5051 0.2273 0.0000
0.5051 0.2323 0.0000
0.5051 0.2374 0.0000
0.5051 0.2424 0.0000
0.5051 0.2475 0.0000
0.5051 0.2525 0.0000
0.5051 0.2576 0.0000
0.5051 0.2626 0.0000
0.5051 0.2677 0.0000
0.5051 0.2727 0.0000
0.5051 0.2778 0.0000
0.5051 0.2828 0.0000
0.5051 0.2879 0.0000
0.5051 0.2929 0.0000
0.5051 0.2980 0.0000
0.5051 0.3030 0.0000
0.5051 0.3081 0.0000
0.5051 0.3131 0.0000
0.5051 0.3182 0.0000
0.5051 0.3232 0.0000
0.5051 0.3283 0.0000
0.5051 0.3333 0.0000
0.5051 0.3384 0.0000
0.5051 0.3434 0.0000
0.5051 0.3485 0.0000
0.5051 0.3535 0.0000
0.5051 0.3586 0.0000
0.5051 0.3636 0.0000
0.5051 0.3687 0.0000
0.5051 0.3737 0.0000
0.5051 0.3788 0.0000
0.5051 0.3838 0.0000
0.5051 0.3889 0.0000
0.5051 0.3939 0.0000
0.5051 0.3990 0.0000
0.5051 0.4040 0.0000
0.5051 0.4091 0.0000
0.5051 0.4141 0.0000
0.5051 0.4192 0.0000
0.5051 0.4242 0.0000
0.5051 0.4293 0.0000
0.5051 0.4343 0.0000
0.5051 0.4394 0.0000
0.5051 0.4444 0.0000
0.5051 0.4495 0.0000
0.5051 0.4545 0.0000
0.5051 0.4596 0.0000
0.5051 0.4646 0.0000
0.5051 0.4697 0.0000
0.5051 0.4747 0.0000
0.5051 0.4798 0.0000
0.5051 0.4848 0.0000
0.5051 0.4899 0.0000
0.5051 0.4949 0.0000
0.5051 0.5000 0.0000
0.5152 0.0000 0.0000
0.5152 0.0051 0.0000
0.5152 0.0101 0.0000
0.5152 0.0152 0.0000
0.5152 0.0202 0.0000
0.5152 0.0253 0.0000
0.5152 0.0303 0.0000
0.5152 0.0354 0.0000
0.5152 0.0404 0.0000
0.5152 0.0455 0.0000
0.5152 0.0505 0.0000
0.5152 0.0556 0.0000
0.5152 0.0606 0.0000
0.5152 0.0657 0.0000
0.5152 0.0707 0.0000
0.5152 0.0758 0.0000
0.5152 0.0808 0.0000
0.5152 0.0859 0.0000
0.5152 0.0909 0.0000
0.5152 0.0960 0.0000
0.5152 0.1010 0.0000
0.5152 0.1061 0.0000
0.5152 0.1111 0.0000
0.5152 0.1162 0.0000
0.5152 0.1212 0.0000
0.5152 0.1263 0.0000
0.5152 0.1313 0.0000
0.5152 0.1364 0.0000
0.5152 0.1414 0.0000
0.5152 0.1465 0.0000
0.5152 0.1515 0.0000
0.5152 0.1566 0.0000
0.5152 0.1616 0.0000
0.5152 0.1667 0.0000
0.5152 0.1717 0.0000
0.5152 0.1768 0.0000
0.5152 0.1818 0.0000
0.5152 0.1869 0.0000
0.5152 0.1919 0.0000
0.5152 0.1970 0.0000
0.5152 0.2020 0.0000
0.5152 0.2071 0.0000
0.5152 0.2121 0.0000
0.5152 0.2172 0.0000
0.5152 0.2222 0.0000
0.5152 0.2273 0.0000
0.5152 0.2323 0.0000
0.5152 0.2374 0.0000
0.5152 0.2424 0.0000
0.5152 0.2475 0.0000
0.5152 0.2525 0.0000
0.5152 0.2576 0.0000
0.5152 0.2626 0.0000
0.5152 0.2677 0.0000
0.5152 0.2727 0.0000
0.5152 0.2778 0.0000
0.5152 0.2828 0.0000
0.5152 0.2879 0.0000
0.5152 0.2929 0.0000
0.5152 0.2980 0.0000
0.5152 0.3030 0.0000
0.5152 0.3081 0.0000
0.5152 0.3131 0.0000
0.5152 0.3182 0.0000
0.5152 0.3232 0.0000
0.5152 0.3283 0.0000
0.5152 0.3333 0.0000
0.5152 0.3384 0.0000
0.5152 0.3434 0.0000
0.5152 0.3485 0.0000
0.5152 0.3535 0.0000
0.5152 0.3586 0.0000
0.5152 0.3636 0.0000
0.5152 0.3687 0.0000
0.5152 0.3737 0.0000
0.5152 0.3788 0.0000
0.5152 0.3838 0.0000
0.5152 0.3889 0.0000
0.5152 0.3939 0.0000
0.5152 0.3990 0.0000
0.5152 0.4040 0.0000
0.5152 0.4091 0.0000
0.5152 0.4141 0.0000
0.5152 0.4192 0.0000
0.5152 0.4242 0.0000
0.5152 0.4293 0.0000
0.5152 0.4343 0.0000
0.5152 0.4394 0.0000
0.5152 0.4444 0.0000
0.5152 0.4495 0.0000
0.5152 0.4545 0.0000
0.5152 0.4596 0.0000
0.5152 0.4646 0.0000
0.5152 0.4697 0.0000
0.5152 0.4747 0.0000
0.5152 0.4798 0.0000
0.5152 0.4848 0.0000
0.5152 0.4899 0.0000
0.5152 0.4949 0.0000
0.5152 0.5000 0.0000
0.5253 0.0000 0.0000
0.5253 0.0051 0.0000
0.5253 0.0101 0.0000
0.5253 0.0152 0.0000
0.5253 0.0202 0.0000
0.5253 0.0253 0.0000
0.5253 0.0303 0.0000
0.5253 0.0354 0.0000
0.5253 0.0404 0.0000
0.5253 0.0455 0.0000
0.5253 0.0505 0.0000
0.5253 0.0556 0.0000
0.5253 0.0606 0.0000
0.5253 0.0657 0.0000
0.5253 0.0707 0.0000
0.5253 0.0758 0.0000
0.5253 0.0808 0.0000
0.5253 0.0859 0.0000
0.5253 0.0909 0.0000
0.5253 0.0960 0.0000
0.5253 0.1010 0.0000
0.5253 0.1061 0.0000
0.5253 0.1111 0.0000
0.5253 0.1162 0.0000
0.5253 0.1212 0.0000
0.5253 0.1263 0.0000
0.5253 0.1313 0.0000
0.5253 0.1364 0.0000
0.5253 0.1414 0.0000
0.5253 0.1465 0.0000
0.5253 0.1515 0.0000
0.5253 0.1566 0.0000
0.5253 0.1616 0.0000
0.5253 0.1667 0.0000
0.5253 0.1717 0.0000
0.5253 0.1768 0.0000
0.5253 0.1818 0.0000
0.5253 0.1869 0.0000
0.5253 0.1919 0.0000
0.5253 0.1970 0.0000
0.5253 0.2020 0.0000
0.5253 0.2071 0.0000
0.5253 0.2121 0.0000
0.5253 0.2172 0.0000
0.5253 0.2222 0.0000
0.5253 0.2273 0.0000
0.5253 0.2323 0.0000
0.5253 0.2374 0.0000
0.5253 0.2424 0.0000
0.5253 0.2475 0.0000
0.5253 0.2525 0.0000
0.5253 0.2576 0.0000
0.5253 0.2626 0.0000
0.5253 0.2677 0.0000
0.5253 0.2727 0.0000
0.5253 0.2778 0.0000
0.5253 0.2828 0.0000
0.5253 0.2879 0.0000
0.5253 0.2929 0.0000
0.5253 0.2980 0.0000
0.5253 0.3030 0.0000
0.5253 0.3081 0.0000
0.5253 0.3131 0.0000
0.5253 0.3182 0.0000
0.5253 0.3232 0.0000
0.5253 0.3283 0.0000
0.5253 0.3333 0.0000
0.5253 0.3384 0.0000
0.5253 0.3434 0.0000
0.5253 0.3485 0.0000
0.5253 0.3535 0.0000
0.5253 0.3586 0.0000
0.5253 0.3636 0.0000
0.5253 0.3687 0.0000
0.5253 0.3737 0.0000
0.5253 0.3788 0.0000
0.5253 0.3838 0.0000
0.5253 0.3889 0.0000
0.5253 0.3939 0.0000
0.5253 0.3990 0.0000
0.5253 0.4040 0.0000
0.5253 0.4091 0.0000
0.5253 0.4141 0.0000
0.5253 0.4192 0.0000
0.5253 0.4242 0.0000
0.5253 0.4293 0.0000
0.5253 0.4343 0.0000
0.5253 0.4394 0.0000
0.5253 0.4444 0.0000
0.5253 0.4495 0.0000
0.5253 0.4545 0.0000
0.5253 0.4596 0.0000
0.5253 0.4646 0.0000
0.5253 0.4697 0.0000
0.5253 0.4747 0.0000
0.5253 0.4798 0.0000
0.5253 0.4848 0.0000
0.5253 0.4899 0.0000
0.5253 0.4949 0.0000
0.5253 0.5000 0.0000
0.5354 0.0000 0.0000
0.5354 0.0051 0.0000
0.5354 0.0101 0.0000
0.5354 0.0152 0.0000
0.5354 0.0202 0.0000
0.5354 0.0253 0.0000
0.5354 0.0303 0.0000
0.5354 0.0354 0.0000
0.5354 0.0404 0.0000
0.5354 0.0455 0.0000
0.5354 0.0505 0.0000
0.5354 0.0556 0.0000
0.5354 0.0606 0.0000
0.5354 0.0657 0.0000
0.5354 0.0707 0.0000
0.5354 0.0758 0.0000
0.5354 0.0808 0.0000
0.5354 0.0859 0.0000
0.5354 0.0909 0.0000
0.5354 0.0960 0.0000
0.5354 0.1010 0.0000
0.5354 0.1061 0.0000
0.5354 0.1111 0.0000
0.5354 0.1162 0.0000
0.5354 0.1212 0.0000
0.5354 0.1263 0.0000
0.5354 0.1313 0.0000
0.5354 0.1364 0.0000
0.5354 0.1414 0.0000
0.5354 0.1465 0.0000
0.5354 0.1515 0.0000
0.5354 0.1566 0.0000
0.5354 0.1616 0.0000
0.5354 0.1667 0.0000
0.5354 0.1717 0.0000
0.5354 0.1768 0.0000
0.5354 0.1818 0.0000
0.5354 0.1869 0.0000
0.5354 0.1919 0.0000
0.5354 0.1970 0.0000
0.5354 0.2020 0.0000
0.5354 0.2071 0.0000
0.5354 0.2121 0.0000
0.5354 0.2172 0.0000
0.5354 0.2222 0.0000
0.5354 0.2273 0.0000
0.5354 0.2323 0.0000
0.5354 0.2374 0.0000
0.5354 0.2424 0.0000
0.5354 0.2475 0.0000
0.5354 0.2525 0.0000
0.5354 0.2576 0.0000
0.5354 0.2626 0.0000
0.5354 0.2677 0.0000
0.5354 0.2727 0.0000
0.5354 0.2778 0.0000
0.5354 0.2828 0.0000
0.5354 0.2879 0.0000
0.5354 0.2929 0.0000
0.5354 0.2980 0.0000
0.5354 0.3030 0.0000
0.5354 0.3081 0.0000
0.5354 0.3131 0.0000
0.5354 0.3182 0.0000
0.5354 0.3232 0.0000
0.5354 0.3283 0.0000
0.5354 0.3333 0.0000
0.5354 0.3384 0.0000
0.5354 0.3434 0.0000
0.5354 0.3485 0.0000
0.5354 0.3535 0.0000
0.5354 0.3586 0.0000
0.5354 0.3636 0.0000
0.5354 0.3687 0.0000
0.5354 0.3737 0.0000
0.5354 0.3788 0.0000
0.5354 0.3838 0.0000
0.5354 0.3889 0.0000
0.5354 0.3939 0.0000
0.5354 0.3990 0.0000
0.5354 0.4040 0.0000
0.5354 0.4091 0.0000
0.5354 0.4141 0.0000
0.5354 0.4192 0.0000
0.5354 0.4242 0.0000
0.5354 0.4293 0.0000
0.5354 0.4343 0.0000
0.5354 0.4394 0.0000
0.5354 0.4444 0.0000
0.5354 0.4495 0.0000
0.5354 0.4545 0.0000
0.5354 0.4596 0.0000
0.5354 0.4646 0.0000
0.5354 0.4697 0.0000
0.5354 0.4747 0.0000
0.5354 0.4798 0.0000
0.5354 0.4848 0.0000
0.5354 0.4899 0.0000
0.5354 0.4949 0.0000
0.5354 0.5000 0.0000
0.5455 0.0000 0.0000
0.5455 0.0051 0.0000
0.5455 0.0101 0.0000
0.5455 0.0152 0.0000
0.5455 0.0202 0.0000
0.5455 0.0253 0.0000
0.5455 0.0303 0.0000
0.5455 0.0354 0.0000
0.5455 0.0404 0.0000
0.5455 0.0455 0.0000
0.5455 0.0505 0.0000
0.5455 0.0556 0.0000
0.5455 0.0606 0.0000
0.5455 0.0657 0.0000
0.5455 0.0707 0.0000
0.5455 0.0758 0.0000
0.5455 0.0808 0.0000
0.5455 0.0859 0.0000
0.5455 0.0909 0.0000
0.5455 0.0960 0.0000
0.5455 0.1010 0.0000
0.5455 0.1061 0.0000
0.5455 0.1111 0.0000
0.5455 0.1162 0.0000
0.5455 0.1212 0.0000
0.5455 0.1263 0.0000
0.5455 0.1313 0.0000
0.5455 0.1364 0.0000
0.5455 0.1414 0.0000
0.5455 0.1465 0.0000
0.5455 0.1515 0.0000
0.5455 0.1566 0.0000
0.5455 0.1616 0.0000
0.5455 0.1667 0.0000
0.5455 0.1717 0.0000
0.5455 0.1768 0.0000
0.5455 0.1818 0.0000
0.5455 0.1869 0.0000
0.5455 0.1919 0.0000
0.5455 0.1970 0.0000
0.5455 0.2020 0.0000
0.5455 0.2071 0.0000
0.5455 0.2121 0.0000
0.5455 0.2172 0.0000
0.5455 0.2222 0.0000
0.5455 0.2273 0.0000
0.5455 0.2323 0.0000
0.5455 0.2374 0.0000
0.5455 0.2424 0.0000
0.5455 0.2475 0.0000
0.5455 0.2525 0.0000
0.5455 0.2576 0.0000
0.5455 0.2626 0.0000
0.5455 0.2677 0.0000
0.5455 0.2727 0.0000
0.5455 0.2778 0.0000
0.5455 0.2828 0.0000
0.5455 0.2879 0.0000
0.5455 0.2929 0.0000
0.5455 0.2980 0.0000
0.5455 0.3030 0.0000
0.5455 0.3081 0.0000
0.5455 0.3131 0.0000
0.5455 0.3182 0.0000
0.5455 0.3232 0.0000
0.5455 0.3283 0.0000
0.5455 0.3333 0.0000
0.5455 0.3384 0.0000
0.5455 0.3434 0.0000
0.5455 0.3485 0.0000
0.5455 0.3535 0.0000
0.5455 0.3586 0.0000
0.5455 0.3636 0.0000
0.5455 0.3687 0.0000
0.5455 0.3737 0.0000
0.5455 0.3788 0.0000
0.5455 0.3838 0.0000
0.5455 0.3889 0.0000
0.5455 0.3939 0.0000
0.5455 0.3990 0.0000
0.5455 0.4040 0.0000
0.5455 0.4091 0.0000
0.5455 0.4141 0.0000
0.5455 0.4192 0.0000
0.5455 0.4242 0.0000
0.5455 0.4293 0.0000
0.5455 0.4343 0.0000
0.5455 0.4394 0.0000
0.5455 0.4444 0.0000
0.5455 0.4495 0.0000
0.5455 0.4545 0.0000
0.5455 0.4596 0.0000
0.5455 0.4646 0.0000
0.5455 0.4697 0.0000
0.5455 0.4747 0.0000
0.5455 0.4798 0.0000
0.5455 0.4848 0.0000
0.5455 0.4899 0.0000
0.5455 0.4949 0.0000
0.5455 0.5000 0.0000
0.5556 0.0000 0.0000
0.5556 0.0051 0.0000
0.5556 0.0101 0.0000
0.5556 0.0152 0.0000
0.5556 0.0202 0.0000
0.5556 0.0253 0.0000
0.5556 0.0303 0.0000
0.5556 0.0354 0.0000
0.5556 0.0404 0.0000
0.5556 0.0455 0.0000
0.5556 0.0505 0.0000
0.5556 0.0556 0.0000
0.5556 0.0606 0.0000
0.5556 0.0657 0.0000
0.5556 0.0707 0.0000
0.5556 0.0758 0.0000
0.5556 0.0808 0.0000
0.5556 0.0859 0.0000
0.5556 0.0909 0.0000
0.5556 0.0960 0.0000
0.5556 0.1010 0.0000
0.5556 0.1061 0.0000
0.5556 0.1111 0.0000
0.5556 0.1162 0.0000
0.5556 0.1212 0.0000
0.5556 0.1263 0.0000
0.5556 0.1313 0.0000
0.5556 0.1364 0.0000
0.5556 0.1414 0.0000
0.5556 0.1465 0.0000
0.5556 0.1515 0.0000
0.5556 0.1566 0.0000
0.5556 0.1616 0.0000
0.5556 0.1667 0.0000
0.5556 0.1717 0.0000
0.5556 0.1768 0.0000
0.5556 0.1818 0.0000
0.5556 0.1869 0.0000
0.5556 0.1919 0.0000
0.5556 0.1970 0.0000
0.5556 0.2020 0.0000
0.5556 0.2071 0.0000
0.5556 0.2121 0.0000
0.5556 0.2172 0.0000
0.5556 0.2222 0.0000
0.5556 0.2273 0.0000
0.5556 0.2323 0.0000
0.5556 0.2374 0.0000
0.5556 0.2424 0.0000
0.5556 0.2475 0.0000
0.5556 0.2525 0.0000
0.5556 0.2576 0.0000
0.5556 0.2626 0.0000
0.5556 0.2677 0.0000
0.5556 0.2727 0.0000
0.5556 0.2778 0.0000
0.5556 0.2828 0.0000
0.5556 0.2879 0.0000
0.5556 0.2929 0.0000
0.5556 0.2980 0.0000
0.5556 0.3030 0.0000
0.5556 0.3081 0.0000
0.5556 0.3131 0.0000
0.5556 0.3182 0.0000
0.5556 0.3232 0.0000
0.5556 0.3283 0.0000
0.5556 0.3333 0.0000
0.5556 0.3384 0.0000
0.5556 0.3434 0.0000
0.5556 0.3485 0.0000
0.5556 0.3535 0.0000
0.5556 0.3586 0.0000
0.5556 0.3636 0.0000
0.5556 0.3687 0.0000
0.5556 0.3737 0.0000
0.5556 0.3788 0.0000
0.5556 0.3838 0.0000
0.5556 0.3889 0.0000
0.5556 0.3939 0.0000
0.5556 0.3990 0.0000
0.5556 0.4040 0.0000
0.5556 0.4091 0.0000
0.5556 0.4141 0.0000
0.5556 0.4192 0.0000
0.5556 0.4242 0.0000
0.5556 0.4293 0.0000
0.5556 0.4343 0.0000
0.5556 0.4394 0.0000
0.5556 0.4444 0.0000
0.5556 0.4495 0.0000
0.5556 0.4545 0.0000
0.5556 0.4596 0.0000
0.5556 0.4646 0.0000
0.5556 0.4697 0.0000
0.5556 0.4747 0.0000
0.5556 0.4798 0.0000
0.5556 0.4848 0.0000
0.5556 0.4899 0.0000
0.5556 0.4949 0.0000
0.5556 0.5000 0.0000
0.5657 0.0000 0.0000
0.5657 0.0051 0.0000
0.5657 0.0101 0.0000
0.5657 0.0152 0.0000
0.5657 0.0202 0.0000
0.5657 0.0253 0.0000
0.5657 0.0303 0.0000
0.5657 0.0354 0.0000
0.5657 0.0404 0.0000
0.5657 0.0455 0.0000
0.5657 0.0505 0.0000
0.5657 0.0556 0.0000
0.5657 0.0606 0.0000
0.5657 0.0657 0.0000
0.5657 0.0707 0.0000
0.5657 0.0758 0.0000
0.5657 0.0808 0.0000
0.5657 0.0859 0.0000
0.5657 0.0909 0.0000
0.5657 0.0960 0.0000
0.5657 0.1010 0.0000
0.5657 0.1061 0.0000
0.5657 0.1111 0.0000
0.5657 0.1162 0.0000
0.5657 0.1212 0.0000
0.5657 0.1263 0.0000
0.5657 0.1313 0.0000
0.5657 0.1364 0.0000
0.5657 0.1414 0.0000
0.5657 0.1465 0.0000
0.5657 0.1515 0.0000
0.5657 0.1566 0.0000
0.5657 0.1616 0.0000
0.5657 0.1667 0.0000
0.5657 0.1717 0.0000
0.5657 0.1768 0.0000
0.5657 0.1818 0.0000
0.5657 0.1869 0.0000
0.5657 0.1919 0.0000
0.5657 0.1970 0.0000
0.5657 0.2020 0.0000
0.5657 0.2071 0.0000
0.5657 0.2121 0.0000
0.5657 0.2172 0.0000
0.5657 0.2222 0.0000
0.5657 0.2273 0.0000
0.5657 0.2323 0.0000
0.5657 0.2374 0.0000
0.5657 0.2424 0.0000
0.5657 0.2475 0.0000
0.5657 0.2525 0.0000
0.5657 0.2576 0.0000
0.5657 0.2626 0.0000
0.5657 0.2677 0.0000
0.5657 0.2727 0.0000
0.5657 0.2778 0.0000
0.5657 0.2828 0.0000
0.5657 0.2879 0.0000
0.5657 0.2929 0.0000
0.5657 0.2980 0.0000
0.5657 0.3030 0.0000
0.5657 0.3081 0.0000
0.5657 0.3131 0.0000
0.5657 0.3182 0.0000
0.5657 0.3232 0.0000
0.5657 0.3283 0.0000
0.5657 0.3333 0.0000
0.5657 0.3384 0.0000
0.5657 0.3434 0.0000
0.5657 0.3485 0.0000
0.5657 0.3535 0.0000
0.5657 0.3586 0.0000
0.5657 0.3636 0.0000
0.5657 0.3687 0.0000
0.5657 0.3737 0.0000
0.5657 0.3788 0.0000
0.5657 0.3838 0.0000
0.5657 0.3889 0.0000
0.5657 0.3939 0.0000
0.5657 0.3990 0.0000
0.5657 0.4040 0.0000
0.5657 0.4091 0.0000
0.5657 0.4141 0.0000
0.5657 0.4192 0.0000
0.5657 0.4242 0.0000
0.5657 0.4293 0.0000
0.5657 0.4343 0.0000
0.5657 0.4394 0.0000
0.5657 0.4444 0.0000
0.5657 0.4495 0.0000
0.5657 0.4545 0.0000
0.5657 0.4596 0.0000
0.5657 0.4646 0.0000
0.5657 0.4697 0.0000
0.5657 0.4747 0.0000
0.5657 0.4798 0.0000
0.5657 0.4848 0.0000
0.5657 0.4899 0.0000
0.5657 0.4949 0.0000
0.5657 0.5000 0.0000
0.5758 0.0000 0.0000
0.5758 0.0051 0.0000
0.5758 0.0101 0.0000
0.5758 0.0152 0.0000
0.5758 0.0202 0.0000
0.5758 0.0253 0.0000
0.5758 0.0303 0.0000
0.5758 0.0354 0.0000
0.5758 0.0404 0.0000
0.5758 0.0455 0.0000
0.5758 0.0505 0.0000
0.5758 0.0556 0.0000
0.5758 0.0606 0.0000
0.5758 0.0657 0.0000
0.5758 0.0707 0.0000
0.5758 0.0758 0.0000
0.5758 0.0808 0.0000
0.5758 0.0859 0.0000
0.5758 0.0909 0.0000
0.5758 0.0960 0.0000
0.5758 0.1010 0.0000
0.5758 0.1061 0.0000
0.5758 0.1111 0.0000
0.5758 0.1162 0.0000
0.5758 0.1212 0.0000
0.5758 0.1263 0.0000
0.5758 0.1313 0.0000
0.5758 0.1364 0.0000
0.5758 0.1414 0.0000
0.5758 0.1465 0.0000
0.5758 0.1515 0.0000
0.5758 0.1566 0.0000
0.5758 0.1616 0.0000
0.5758 0.1667 0.0000
0.5758 0.1717 0.0000
0.5758 0.1768 0.0000
0.5758 0.1818 0.0000
0.5758 0.1869 0.0000
0.5758 0.1919 0.0000
0.5758 0.1970 0.0000
0.5758 0.2020 0.0000
0.5758 0.2071 0.0000
0.5758 0.2121 0.0000
0.5758 0.2172 0.0000
0.5758 0.2222 0.0000
0.5758 0.2273 0.0000
0.5758 0.2323 0.0000
0.5758 0.2374 0.0000
0.5758 0.2424 0.0000
0.5758 0.2475 0.0000
0.5758 0.2525 0.0000
0.5758 0.2576 0.0000
0.5758 0.2626 0.0000
0.5758 0.2677 0.0000
0.5758 0.2727 0.0000
0.5758 0.2778 0.0000
0.5758 0.2828 0.0000
0.5758 0.2879 0.0000
0.5758 0.2929 0.0000
0.5758 0.2980 0.0000
0.5758 0.3030 0.0000
0.5758 0.3081 0.0000
0.5758 0.3131 0.0000
0.5758 0.3182 0.0000
0.5758 0.3232 0.0000
0.5758 0.3283 0.0000
0.5758 0.3333 0.0000
0.5758 0.3384 0.0000
0.5758 0.3434 0.0000
0.5758 0.3485 0.0000
0.5758 0.3535 0.0000
0.5758 0.3586 0.0000
0.5758 0.3636 0.0000
0.5758 0.3687 0.0000
0.5758 0.3737 0.0000
0.5758 0.3788 0.0000
0.5758 0.3838 0.0000
0.5758 0.3889 0.0000
0.5758 0.3939 0.0000
0.5758 0.3990 0.0000
0.5758 0.4040 0.0000
0.5758 0.4091 0.0000
0.5758 0.4141 0.0000
0.5758 0.4192 0.0000
0.5758 0.4242 0.0000
0.5758 0.4293 0.0000
0.5758 0.4343 0.0000
0.5758 0.4394 0.0000
0.5758 0.4444 0.0000
0.5758 0.4495 0.0000
0.5758 0.4545 0.0000
0.5758 0.4596 0.0000
0.5758 0.4646 0.0000
0.5758 0.4697 0.0000
0.5758 0.4747 0.0000
0.5758 0.4798 0.0000
0.5758 0.4848 0.0000
0.5758 0.4899 0.0000
0.5758 0.4949 0.0000
0.5758 0.5000 0.0000
0.5859 0.0000 0.0000
0.5859 0.0051 0.0000
0.5859 0.0101 0.0000
0.5859 0.0152 0.0000
0.5859 0.0202 0.0000
0.5859 0.0253 0.0000
0.5859 0.0303 0.0000
0.5859 0.0354 0.0000
0.5859 0.0404 0.0000
0.5859 0.0455 0.0000
0.5859 0.0505 0.0000
0.5859 0.0556 0.0000
0.5859 0.0606 0.0000
0.5859 0.0657 0.0000
0.5859 0.0707 0.0000
0.5859 0.0758 0.0000
0.5859 0.0808 0.0000
0.5859 0.0859 0.0000
0.5859 0.0909 0.0000
0.5859 0.0960 0.0000
0.5859 0.1010 0.0000
0.5859 0.1061 0.0000
0.5859 0.1111 0.0000
0.5859 0.1162 0.0000
0.5859 0.1212 0.0000
0.5859 0.1263 0.0000
0.5859 0.1313 0.0000
0.5859 0.1364 0.0000
0.5859 0.1414 0.0000
0.5859 0.1465 0.0000
0.5859 0.1515 0.0000
0.5859 0.1566 0.0000
0.5859 0.1616 0.0000
0.5859 0.1667 0.0000
0.5859 0.1717 0.0000
0.5859 0.1768 0.0000
0.5859 0.1818 0.0000
0.5859 0.1869 0.0000
0.5859 0.1919 0.0000
0.5859 0.1970 0.0000
0.5859 0.2020 0.0000
0.5859 0.2071 0.0000
0.5859 0.2121 0.0000
0.5859 0.2172 0.0000
0.5859 0.2222 0.0000
0.5859 0.2273 0.0000
0.5859 0.2323 0.0000
0.5859 0.2374 0.0000
0.5859 0.2424 0.0000
0.5859 0.2475 0.0000
0.5859 0.2525 0.0000
0.5859 0.2576 0.0000
0.5859 0.2626 0.0000
0.5859 0.2677 0.0000
0.5859 0.2727 0.0000
0.5859 0.2778 0.0000
0.5859 0.2828 0.0000
0.5859 0.2879 0.0000
0.5859 0.2929 0.0000
0.5859 0.2980 0.0000
0.5859 0.3030 0.0000
0.5859 0.3081 0.0000
0.5859 0.3131 0.0000
0.5859 0.3182 0.0000
0.5859 0.3232 0.0000
0.5859 0.3283 0.0000
0.5859 0.3333 0.0000
0.5859 0.3384 0.0000
0.5859 0.3434 0.0000
0.5859 0.3485 0.0000
0.5859 0.3535 0.0000
0.5859 0.3586 0.0000
0.5859 0.3636 0.0000
0.5859 0.3687 0.0000
0.5859 0.3737 0.0000
0.5859 0.3788 0.0000
0.5859 0.3838 0.0000
0.5859 0.3889 0.0000
0.5859 0.3939 0.0000
0.5859 0.3990 0.0000
0.5859 0.4040 0.0000
0.5859 0.4091 0.0000
0.5859 0.4141 0.0000
0.5859 0.4192 0.0000
0.5859 0.4242 0.0000
0.5859 0.4293 0.0000
0.5859 0.4343 0.0000
0.5859 0.4394 0.0000
0.5859 0.4444 0.0000
0.5859 0.4495 0.0000
0.5859 0.4545 0.0000
0.5859 0.4596 0.0000
0.5859 0.4646 0.0000
0.5859 0.4697 0.0000
0.5859 0.4747 0.0000
0.5859 0.4798 0.0000
0.5859 0.4848 0.0000
0.5859 0.4899 0.0000
0.5859 0.4949 0.0000
0.5859 0.5000 0.0000
0.5960 0.0000 0.0000
0.5960 0.0051 0.0000
0.5960 0.0101 0.0000
0.5960 0.0152 0.0000
0.5960 0.0202 0.0000
0.5960 0.0253 0.0000
0.5960 0.0303 0.0000
0.5960 0.0354 0.0000
0.5960 0.0404 0.0000
0.5960 0.0455 0.0000
0.5960 0.0505 0.0000
0.5960 0.0556 0.0000
0.5960 0.0606 0.0000
0.5960 0.0657 0.0000
0.5960 0.0707 0.0000
0.5960 0.0758 0.0000
0.5960 0.0808 0.0000
0.5960 0.0859 0.0000
0.5960 0.0909 0.0000
0.5960 0.0960 0.0000
0.5960 0.1010 0.0000
0.5960 0.1061 0.0000
0.5960 0.1111 0.0000
0.5960 0.1162 0.0000
0.5960 0.1212 0.0000
0.5960 0.1263 0.0000
0.5960 0.1313 0.0000
0.5960 0.1364 0.0000
0.5960 0.1414 0.0000
0.5960 0.1465 0.0000
0.5960 0.1515 0.0000
0.5960 0.1566 0.0000
0.5960 0.1616 0.0000
0.5960 0.1667 0.0000
0.5960 0.1717 0.0000
0.5960 0.1768 0.0000
0.5960 0.1818 0.0000
0.5960 0.1869 0.0000
0.5960 0.1919 0.0000
0.5960 0.1970 0.0000
0.5960 0.2020 0.0000
0.5960 0.2071 0.0000
0.5960 0.2121 0.0000
0.5960 0.2172 0.0000
0.5960 0.2222 0.0000
0.5960 0.2273 0.0000
0.5960 0.2323 0.0000
0.5960 0.2374 0.0000
0.5960 0.2424 0.0000
0.5960 0.2475 0.0000
0.5960 0.2525 0.0000
0.5960 0.2576 0.0000
0.5960 0.2626 0.0000
0.5960 0.2677 0.0000
0.5960 0.2727 0.0000
0.5960 0.2778 0.0000
0.5960 0.2828 0.0000
0.5960 0.2879 0.0000
0.5960 0.2929 0.0000
0.5960 0.2980 0.0000
0.5960 0.3030 0.0000
0.5960 0.3081 0.0000
0.5960 0.3131 0.0000
0.5960 0.3182 0.0000
0.5960 0.3232 0.0000
0.5960 0.3283 0.0000
0.5960 0.3333 0.0000
0.5960 0.3384 0.0000
0.5960 0.3434 0.0000
0.5960 0.3485 0.0000
0.5960 0.3535 0.0000
0.5960 0.3586 0.0000
0.5960 0.3636 0.0000
0.5960 0.3687 0.0000
0.5960 0.3737 0.0000
0.5960 0.3788 0.0000
0.5960 0.3838 0.0000
0.5960 0.3889 0.0000
0.5960 0.3939 0.0000
0.5960 0.3990 0.0000
0.5960 0.4040 0.0000
0.5960 0.4091 0.0000
0.5960 0.4141 0.0000
0.5960 0.4192 0.0000
0.5960 0.4242 0.0000
0.5960 0.4293 0.0000
0.5960 0.4343 0.0000
0.5960 0.4394 0.0000
0.5960 0.4444 0.0000
0.5960 0.4495 0.0000
0.5960 0.4545 0.0000
0.5960 0.4596 0.0000
0.5960 0.4646 0.0000
0.5960 0.4697 0.0000
0.5960 0.4747 0.0000
0.5960 0.4798 0.0000
0.5960 0.4848 0.0000
0.5960 0.4899 0.0000
0.5960 0.4949 0.0000
0.5960 0.5000 0.0000
0.6061 0.0000 0.0000
0.6061 0.0051 0.0000
0.6061 0.0101 0.0000
0.6061 0.0152 0.0000
0.6061 0.0202 0.0000
0.6061 0.0253 0.0000
0.6061 0.0303 0.0000
0.6061 0.0354 0.0000
0.6061 0.0404 0.0000
0.6061 0.0455 0.0000
0.6061 0.0505 0.0000
0.6061 0.0556 0.0000
0.6061 0.0606 0.0000
0.6061 0.0657 0.0000
0.6061 0.0707 0.0000
0.6061 0.0758 0.0000
0.6061 0.0808 0.0000
0.6061 0.0859 0.0000
0.6061 0.0909 0.0000
0.6061 0.0960 0.0000
0.6061 0.1010 0.0000
0.6061 0.1061 0.0000
0.6061 0.1111 0.0000
0.6061 0.1162 0.0000
0.6061 0.1212 0.0000
0.6061 0.1263 0.0000
0.6061 0.1313 0.0000
0.6061 0.1364 0.0000
0.6061 0.1414 0.0000
0.6061 0.1465 0.0000
0.6061 0.1515 0.0000
0.6061 0.1566 0.0000
0.6061 0.1616 0.0000
0.6061 0.1667 0.0000
0.6061 0.1717 0.0000
0.6061 0.1768 0.0000
0.6061 0.1818 0.0000
0.6061 0.1869 0.0000
0.6061 0.1919 0.0000
0.6061 0.1970 0.0000
0.6061 0.2020 0.0000
0.6061 0.2071 0.0000
0.6061 0.2121 0.0000
0.6061 0.2172 0.0000
0.6061 0.2222 0.0000
0.6061 0.2273 0.0000
0.6061 0.2323 0.0000
0.6061 0.2374 0.0000
0.6061 0.2424 0.0000
0.6061 0.2475 0.0000
0.6061 0.2525 0.0000
0.6061 0.2576 0.0000
0.6061 0.2626 0.0000
0.6061 0.2677 0.0000
0.6061 0.2727 0.0000
0.6061 0.2778 0.0000
0.6061 0.2828 0.0000
0.6061 0.2879 0.0000
0.6061 0.2929 0.0000
0.6061 0.2980 0.0000
0.6061 0.3030 0.0000
0.6061 0.3081 0.0000
0.6061 0.3131 0.0000
0.6061 0.3182 0.0000
0.6061 0.3232 0.0000
0.6061 0.3283 0.0000
0.6061 0.3333 0.0000
0.6061 0.3384 0.0000
0.6061 0.3434 0.0000
0.6061 0.3485 0.0000
0.6061 0.3535 0.0000
0.6061 0.3586 0.0000
0.6061 0.3636 0.0000
0.6061 0.3687 0.0000
0.6061 0.3737 0.0000
0.6061 0.3788 0.0000
0.6061 0.3838 0.0000
0.6061 0.3889 0.0000
0.6061 0.3939 0.0000
0.6061 0.3990 0.0000
0.6061 0.4040 0.0000
0.6061 0.4091 0.0000
0.6061 0.4141 0.0000
0.6061 0.4192 0.0000
0.6061 0.4242 0.0000
0.6061 0.4293 0.0000
0.6061 0.4343 0.0000
0.6061 0.4394 0.0000
0.6061 0.4444 0.0000
0.6061 0.4495 0.0000
0.6061 0.4545 0.0000
0.6061 0.4596 0.0000
0.6061 0.4646 0.0000
0.6061 0.4697 0.0000
0.6061 0.4747 0.0000
0.6061 0.4798 0.0000
0.6061 0.4848 0.0000
0.6061 0.4899 0.0000
0.6061 0.4949 0.0000
0.6061 0.5000 0.0000
0.6162 0.0000 0.0000
0.6162 0.0051 0.0000
0.6162 0.0101 0.0000
0.6162 0.0152 0.0000
0.6162 0.0202 0.0000
0.6162 0.0253 0.0000
0.6162 0.0303 0.0000
0.6162 0.0354 0.0000
0.6162 0.0404 0.0000
0.6162 0.0455 0.0000
0.6162 0.0505 0.0000
0.6162 0.0556 0.0000
0.6162 0.0606 0.0000
0.6162 0.0657 0.0000
0.6162 0.0707 0.0000
0.6162 0.0758 0.0000
0.6162 0.0808 0.0000
0.6162 0.0859 0.0000
0.6162 0.0909 0.0000
0.6162 0.0960 0.0000
0.6162 0.1010 0.0000
0.6162 0.1061 0.0000
0.6162 0.1111 0.0000
0.6162 0.1162 0.0000
0.6162 0.1212 0.0000
0.6162 0.1263 0.0000
0.6162 0.1313 0.0000
0.6162 0.1364 0.0000
0.6162 0.1414 0.0000
0.6162 0.1465 0.0000
0.6162 0.1515 0.0000
0.6162 0.1566 0.0000
0.6162 0.1616 0.0000
0.6162 0.1667 0.0000
0.6162 0.1717 0.0000
0.6162 0.1768 0.0000
0.6162 0.1818 0.0000
0.6162 0.1869 0.0000
0.6162 0.1919 0.0000
0.6162 0.1970 0.0000
0.6162 0.2020 0.0000
0.6162 0.2071 0.0000
0.6162 0.2121 0.0000
0.6162 0.2172 0.0000
0.6162 0.2222 0.0000
0.6162 0.2273 0.0000
0.6162 0.2323 0.0000
0.6162 0.2374 0.0000
0.6162 0.2424 0.0000
0.6162 0.2475 0.0000
0.6162 0.2525 0.0000
0.6162 0.2576 0.0000
0.6162 0.2626 0.0000
0.6162 0.2677 0.0000
0.6162 0.2727 0.0000
0.6162 0.2778 0.0000
0.6162 0.2828 0.0000
0.6162 0.2879 0.0000
0.6162 0.2929 0.0000
0.6162 0.2980 0.0000
0.6162 0.3030 0.0000
0.6162 0.3081 0.0000
0.6162 0.3131 0.0000
0.6162 0.3182 0.0000
0.6162 0.3232 0.0000
0.6162 0.3283 0.0000
0.6162 0.3333 0.0000
0.6162 0.3384 0.0000
0.6162 0.3434 0.0000
0.6162 0.3485 0.0000
0.6162 0.3535 0.0000
0.6162 0.3586 0.0000
0.6162 0.3636 0.0000
0.6162 0.3687 0.0000
0.6162 0.3737 0.0000
0.6162 0.3788 0.0000
0.6162 0.3838 0.0000
0.6162 0.3889 0.0000
0.6162 0.3939 0.0000
0.6162 0.3990 0.0000
0.6162 0.4040 0.0000
0.6162 0.4091 0.0000
0.6162 0.4141 0.0000
0.6162 0.4192 0.0000
0.6162 0.4242 0.0000
0.6162 0.4293 0.0000
0.6162 0.4343 0.0000
0.6162 0.4394 0.0000
0.6162 0.4444 0.0000
0.6162 0.4495 0.0000
0.6162 0.4545 0.0000
0.6162 0.4596 0.0000
0.6162 0.4646 0.0000
0.6162 0.4697 0.0000
0.6162 0.4747 0.0000
0.6162 0.4798 0.0000
0.6162 0.4848 0.0000
0.6162 0.4899 0.0000
0.6162 0.4949 0.0000
0.6162 0.5000 0.0000
0.6263 0.0000 0.0000
0.6263 0.0051 0.0000
0.6263 0.0101 0.0000
0.6263 0.0152 0.0000
0.6263 0.0202 0.0000
0.6263 0.0253 0.0000
0.6263 0.0303 0.0000
0.6263 0.0354 0.0000
0.6263 0.0404 0.0000
0.6263 0.0455 0.0000
0.6263 0.0505 0.0000
0.6263 0.0556 0.0000
0.6263 0.0606 0.0000
0.6263 0.0657 0.0000
0.6263 0.0707 0.0000
0.6263 0.0758 0.0000
0.6263 0.0808 0.0000
0.6263 0.0859 0.0000
0.6263 0.0909 0.0000
0.6263 0.0960 0.0000
0.6263 0.1010 0.0000
0.6263 0.1061 0.0000
0.6263 0.1111 0.0000
0.6263 0.1162 0.0000
0.6263 0.1212 0.0000
0.6263 0.1263 0.0000
0.6263 0.1313 0.0000
0.6263 0.1364 0.0000
0.6263 0.1414 0.0000
0.6263 0.1465 0.0000
0.6263 0.1515 0.0000
0.6263 0.1566 0.0000
0.6263 0.1616 0.0000
0.6263 0.1667 0.0000
0.6263 0.1717 0.0000
0.6263 0.1768 0.0000
0.6263 0.1818 0.0000
0.6263 0.1869 0.0000
0.6263 0.1919 0.0000
0.6263 0.1970 0.0000
0.6263 0.2020 0.0000
0.6263 0.2071 0.0000
0.6263 0.2121 0.0000
0.6263 0.2172 0.0000
0.6263 0.2222 0.0000
0.6263 0.2273 0.0000
0.6263 0.2323 0.0000
0.6263 0.2374 0.0000
0.6263 0.2424 0.0000
0.6263 0.2475 0.0000
0.6263 0.2525 0.0000
0.6263 0.2576 0.0000
0.6263 0.2626 0.0000
0.6263 0.2677 0.0000
0.6263 0.2727 0.0000
0.6263 0.2778 0.0000
0.6263 0.2828 0.0000
0.6263 0.2879 0.0000
0.6263 0.2929 0.0000
0.6263 0.2980 0.0000
0.6263 0.3030 0.0000
0.6263 0.3081 0.0000
0.6263 0.3131 0.0000
0.6263 0.3182 0.0000
0.6263 0.3232 0.0000
0.6263 0.3283 0.0000
0.6263 0.3333 0.0000
0.6263 0.3384 0.0000
0.6263 0.3434 0.0000
0.6263 0.3485 0.0000
0.6263 0.3535 0.0000
0.6263 0.3586 0.0000
0.6263 0.3636 0.0000
0.6263 0.3687 0.0000
0.6263 0.3737 0.0000
0.6263 0.3788 0.0000
0.6263 0.3838 0.0000
0.6263 0.3889 0.0000
0.6263 0.3939 0.0000
0.6263 0.3990 0.0000
0.6263 0.4040 0.0000
0.6263 0.4091 0.0000
0.6263 0.4141 0.0000
0.6263 0.4192 0.0000
0.6263 0.4242 0.0000
0.6263 0.4293 0.0000
0.6263 0.4343 0.0000
0.6263 0.4394 0.0000
0.6263 0.4444 0.0000
0.6263 0.4495 0.0000
0.6263 0.4545 0.0000
0.6263 0.4596 0.0000
0.6263 0.4646 0.0000
0.6263 0.4697 0.0000
0.6263 0.4747 0.0000
0.6263 0.4798 0.0000
0.6263 0.4848 0.0000
0.6263 0.4899 0.0000
0.6263 0.4949 0.0000
0.6263 0.5000 0.0000
0.6364 0.0000 0.0000
0.6364 0.0051 0.0000
0.6364 0.0101 0.0000
0.6364 0.0152 0.0000
0.6364 0.0202 0.0000
0.6364 0.0253 0.0000
0.6364 0.0303 0.0000
0.6364 0.0354 0.0000
0.6364 0.0404 0.0000
0.6364 0.0455 0.0000
0.6364 0.0505 0.0000
0.6364 0.0556 0.0000
0.6364 0.0606 0.0000
0.6364 0.0657 0.0000
0.6364 0.0707 0.0000
0.6364 0.0758 0.0000
0.6364 0.0808 0.0000
0.6364 0.0859 0.0000
0.6364 0.0909 0.0000
0.6364 0.0960 0.0000
0.6364 0.1010 0.0000
0.6364 0.1061 0.0000
0.6364 0.1111 0.0000
0.6364 0.1162 0.0000
0.6364 0.1212 0.0000
0.6364 0.1263 0.0000
0.6364 0.1313 0.0000
0.6364 0.1364 0.0000
0.6364 0.1414 0.0000
0.6364 0.1465 0.0000
0.6364 0.1515 0.0000
0.6364 0.1566 0.0000
0.6364 0.1616 0.0000
0.6364 0.1667 0.0000
0.6364 0.1717 0.0000
0.6364 0.1768 0.0000
0.6364 0.1818 0.0000
0.6364 0.1869 0.0000
0.6364 0.1919 0.0000
0.6364 0.1970 0.0000
0.6364 0.2020 0.0000
0.6364 0.2071 0.0000
0.6364 0.2121 0.0000
0.6364 0.2172 0.0000
0.6364 0.2222 0.0000
0.6364 0.2273 0.0000
0.6364 0.2323 0.0000
0.6364 0.2374 0.0000
0.6364 0.2424 0.0000
0.6364 0.2475 0.0000
0.6364 0.2525 0.0000
0.6364 0.2576 0.0000
0.6364 0.2626 0.0000
0.6364 0.2677 0.0000
0.6364 0.2727 0.0000
0.6364 0.2778 0.0000
0.6364 0.2828 0.0000
0.6364 0.2879 0.0000
0.6364 0.2929 0.0000
0.6364 0.2980 0.0000
0.6364 0.3030 0.0000
0.6364 0.3081 0.0000
0.6364 0.3131 0.0000
0.6364 0.3182 0.0000
0.6364 0.3232 0.0000
0.6364 0.3283 0.0000
0.6364 0.3333 0.0000
0.6364 0.3384 0.0000
0.6364 0.3434 0.0000
0.6364 0.3485 0.0000
0.6364 0.3535 0.0000
0.6364 0.3586 0.0000
0.6364 0.3636 0.0000
0.6364 0.3687 0.0000
0.6364 0.3737 0.0000
0.6364 0.3788 0.0000
0.6364 0.3838 0.0000
0.6364 0.3889 0.0000
0.6364 0.3939 0.0000
0.6364 0.3990 0.0000
0.6364 0.4040 0.0000
0.6364 0.4091 0.0000
0.6364 0.4141 0.0000
0.6364 0.4192 0.0000
0.6364 0.4242 0.0000
0.6364 0.4293 0.0000
0.6364 0.4343 0.0000
0.6364 0.4394 0.0000
0.6364 0.4444 0.0000
0.6364 0.4495 0.0000
0.6364 0.4545 0.0000
0.6364 0.4596 0.0000
0.6364 0.4646 0.0000
0.6364 0.4697 0.0000
0.6364 0.4747 0.0000
0.6364 0.4798 0.0000
0.6364 0.4848 0.0000
0.6364 0.4899 0.0000
0.6364 0.4949 0.0000
0.6364 0.5000 0.0000
0.6465 0.0000 0.0000
0.6465 0.0051 0.0000
0.6465 0.0101 0.0000
0.6465 0.0152 0.0000
0.6465 0.0202 0.0000
0.6465 0.0253 0.0000
0.6465 0.0303 0.0000
0.6465 0.0354 0.0000
0.6465 0.0404 0.0000
0.6465 0.0455 0.0000
0.6465 0.0505 0.0000
0.6465 0.0556 0.0000
0.6465 0.0606 0.0000
0.6465 0.0657 0.0000
0.6465 0.0707 0.0000
0.6465 0.0758 0.0000
0.6465 0.0808 0.0000
0.6465 0.0859 0.0000
0.6465 0.0909 0.0000
0.6465 0.0960 0.0000
0.6465 0.1010 0.0000
0.6465 0.1061 0.0000
0.6465 0.1111 0.0000
0.6465 0.1162 0.0000
0.6465 0.1212 0.0000
0.6465 0.1263 0.0000
0.6465 0.1313 0.0000
0.6465 0.1364 0.0000
0.6465 0.1414 0.0000
0.6465 0.1465 0.0000
0.6465 0.1515 0.0000
0.6465 0.1566 0.0000
0.6465 0.1616 0.0000
0.6465 0.1667 0.0000
0.6465 0.1717 0.0000
0.6465 0.1768 0.0000
0.6465 0.1818 0.0000
0.6465 0.1869 0.0000
0.6465 0.1919 0.0000
0.6465 0.1970 0.0000
0.6465 0.2020 0.0000
0.6465 0.2071 0.0000
0.6465 0.2121 0.0000
0.6465 0.2172 0.0000
0.6465 0.2222 0.0000
0.6465 0.2273 0.0000
0.6465 0.2323 0.0000
0.6465 0.2374 0.0000
0.6465 0.2424 0.0000
0.6465 0.2475 0.0000
0.6465 0.2525 0.0000
0.6465 0.2576 0.0000
0.6465 0.2626 0.0000
0.6465 0.2677 0.0000
0.6465 0.2727 0.0000
0.6465 0.2778 0.0000
0.6465 0.2828 0.0000
0.6465 0.2879 0.0000
0.6465 0.2929 0.0000
0.6465 0.2980 0.0000
0.6465 0.3030 0.0000
0.6465 0.3081 0.0000
0.6465 0.3131 0.0000
0.6465 0.3182 0.0000
0.6465 0.3232 0.0000
0.6465 0.3283 0.0000
0.6465 0.3333 0.0000
0.6465 0.3384 0.0000
0.6465 0.3434 0.0000
0.6465 0.3485 0.0000
0.6465 0.3535 0.0000
0.6465 0.3586 0.0000
0.6465 0.3636 0.0000
0.6465 0.3687 0.0000
0.6465 0.3737 0.0000
0.6465 0.3788 0.0000
0.6465 0.3838 0.0000
0.6465 0.3889 0.0000
0.6465 0.3939 0.0000
0.6465 0.3990 0.0000
0.6465 0.4040 0.0000
0.6465 0.4091 0.0000
0.6465 0.4141 0.0000
0.6465 0.4192 0.0000
0.6465 0.4242 0.0000
0.6465 0.4293 0.0000
0.6465 0.4343 0.0000
0.6465 0.4394 0.0000
0.6465 0.4444 0.0000
0.6465 0.4495 0.0000
0.6465 0.4545 0.0000
0.6465 0.4596 0.0000
0.6465 0.4646 0.0000
0.6465 0.4697 0.0000
0.6465 0.4747 0.0000
0.6465 0.4798 0.0000
0.6465 0.4848 0.0000
0.6465 0.4899 0.0000
0.6465 0.4949 0.0000
0.6465 0.5000 0.0000
0.6566 0.0000 0.0000
0.6566 0.0051 0.0000
0.6566 0.0101 0.0000
0.6566 0.0152 0.0000
0.6566 0.0202 0.0000
0.6566 0.0253 0.0000
0.6566 0.0303 0.0000
0.6566 0.0354 0.0000
0.6566 0.0404 0.0000
0.6566 0.0455 0.0000
0.6566 0.0505 0.0000
0.6566 0.0556 0.0000
0.6566 0.0606 0.0000
0.6566 0.0657 0.0000
0.6566 0.0707 0.0000
0.6566 0.0758 0.0000
0.6566 0.0808 0.0000
0.6566 0.0859 0.0000
0.6566 0.0909 0.0000
0.6566 0.0960 0.0000
0.6566 0.1010 0.0000
0.6566 0.1061 0.0000
0.6566 0.1111 0.0000
0.6566 0.1162 0.0000
0.6566 0.1212 0.0000
0.6566 0.1263 0.0000
0.6566 0.1313 0.0000
0.6566 0.1364 0.0000
0.6566 0.1414 0.0000
0.6566 0.1465 0.0000
0.6566 0.1515 0.0000
0.6566 0.1566 0.0000
0.6566 0.1616 0.0000
0.6566 0.1667 0.0000
0.6566 0.1717 0.0000
0.6566 0.1768 0.0000
0.6566 0.1818 0.0000
0.6566 0.1869 0.0000
0.6566 0.1919 0.0000
0.6566 0.1970 0.0000
0.6566 0.2020 0.0000
0.6566 0.2071 0.0000
0.6566 0.2121 0.0000
0.6566 0.2172 0.0000
0.6566 0.2222 0.0000
0.6566 0.2273 0.0000
0.6566 0.2323 0.0000
0.6566 0.2374 0.0000
0.6566 0.2424 0.0000
0.6566 0.2475 0.0000
0.6566 0.2525 0.0000
0.6566 0.2576 0.0000
0.6566 0.2626 0.0000
0.6566 0.2677 0.0000
0.6566 0.2727 0.0000
0.6566 0.2778 0.0000
0.6566 0.2828 0.0000
0.6566 0.2879 0.0000
0.6566 0.2929 0.0000
0.6566 0.2980 0.0000
0.6566 0.3030 0.0000
0.6566 0.3081 0.0000
0.6566 0.3131 0.0000
0.6566 0.3182 0.0000
0.6566 0.3232 0.0000
0.6566 0.3283 0.0000
0.6566 0.3333 0.0000
0.6566 0.3384 0.0000
0.6566 0.3434 0.0000
0.6566 0.3485 0.0000
0.6566 0.3535 0.0000
0.6566 0.3586 0.0000
0.6566 0.3636 0.0000
0.6566 0.3687 0.0000
0.6566 0.3737 0.0000
0.6566 0.3788 0.0000
0.6566 0.3838 0.0000
0.6566 0.3889 0.0000
0.6566 0.3939 0.0000
0.6566 0.3990 0.0000
0.6566 0.4040 0.0000
0.6566 0.4091 0.0000
0.6566 0.4141 0.0000
0.6566 0.4192 0.0000
0.6566 0.4242 0.0000
0.6566 0.4293 0.0000
0.6566 0.4343 0.0000
0.6566 0.4394 0.0000
0.6566 0.4444 0.0000
0.6566 0.4495 0.0000
0.6566 0.4545 0.0000
0.6566 0.4596 0.0000
0.6566 0.4646 0.0000
0.6566 0.4697 0.0000
0.6566 0.4747 0.0000
0.6566 0.4798 0.0000
0.6566 0.4848 0.0000
0.6566 0.4899 0.0000
0.6566 0.4949 0.0000
0.6566 0.5000 0.0000
0.6667 0.0000 0.0000
0.6667 0.0051 0.0000
0.6667 0.0101 0.0000
0.6667 0.0152 0.0000
0.6667 0.0202 0.0000
0.6667 0.0253 0.0000
0.6667 0.0303 0.0000
0.6667 0.0354 0.0000
0.6667 0.0404 0.0000
0.6667 0.0455 0.0000
0.6667 0.0505 0.0000
0.6667 0.0556 0.0000
0.6667 0.0606 0.0000
0.6667 0.0657 0.0000
0.6667 0.0707 0.0000
0.6667 0.0758 0.0000
0.6667 0.0808 0.0000
0.6667 0.0859 0.0000
0.6667 0.0909 0.0000
0.6667 0.0960 0.0000
0.6667 0.1010 0.0000
0.6667 0.1061 0.0000
0.6667 0.1111 0.0000
0.6667 0.1162 0.0000
0.6667 0.1212 0.0000
0.6667 0.1263 0.0000
0.6667 0.1313 0.0000
0.6667 0.1364 0.0000
0.6667 0.1414 0.0000
0.6667 0.1465 0.0000
0.6667 0.1515 0.0000
0.6667 0.1566 0.0000
0.6667 0.1616 0.0000
0.6667 0.1667 0.0000
0.6667 0.1717 0.0000
0.6667 0.1768 0.0000
0.6667 0.1818 0.0000
0.6667 0.1869 0.0000
0.6667 0.1919 0.0000
0.6667 0.1970 0.0000
0.6667 0.2020 0.0000
0.6667 0.2071 0.0000
0.6667 0.2121 0.0000
0.6667 0.2172 0.0000
0.6667 0.2222 0.0000
0.6667 0.2273 0.0000
0.6667 0.2323 0.0000
0.6667 0.2374 0.0000
0.6667 0.2424 0.0000
0.6667 0.2475 0.0000
0.6667 0.2525 0.0000
0.6667 0.2576 0.0000
0.6667 0.2626 0.0000
0.6667 0.2677 0.0000
0.6667 0.2727 0.0000
0.6667 0.2778 0.0000
0.6667 0.2828 0.0000
0.6667 0.2879 0.0000
0.6667 0.2929 0.0000
0.6667 0.2980 0.0000
0.6667 0.3030 0.0000
0.6667 0.3081 0.0000
0.6667 0.3131 0.0000
0.6667 0.3182 0.0000
0.6667 0.3232 0.0000
0.6667 0.3283 0.0000
0.6667 0.3333 0.0000
0.6667 0.3384 0.0000
0.6667 0.3434 0.0000
0.6667 0.3485 0.0000
0.6667 0.3535 0.0000
0.6667 0.3586 0.0000
0.6667 0.3636 0.0000
0.6667 0.3687 0.0000
0.6667 0.3737 0.0000
0.6667 0.3788 0.0000
0.6667 0.3838 0.0000
0.6667 0.3889 0.0000
0.6667 0.3939 0.0000
0.6667 0.3990 0.0000
0.6667 0.4040 0.0000
0.6667 0.4091 0.0000
0.6667 0.4141 0.0000
0.6667 0.4192 0.0000
0.6667 0.4242 0.0000
0.6667 0.4293 0.0000
0.6667 0.4343 0.0000
0.6667 0.4394 0.0000
0.6667 0.4444 0.0000
0.6667 0.4495 0.0000
0.6667 0.4545 0.0000
0.6667 0.4596 0.0000
0.6667 0.4646 0.0000
0.6667 0.4697 0.0000
0.6667 0.4747 0.0000
0.6667 0.4798 0.0000
0.6667 0.4848 0.0000
0.6667 0.4899 0.0000
0.6667 0.4949 0.0000
0.6667 0.5000 0.0000
0.6768 0.0000 0.0000
0.6768 0.0051 0.0000
0.6768 0.0101 0.0000
0.6768 0.0152 0.0000
0.6768 0.0202 0.0000
0.6768 0.0253 0.0000
0.6768 0.0303 0.0000
0.6768 0.0354 0.0000
0.6768 0.0404 0.0000
0.6768 0.0455 0.0000
0.6768 0.0505 0.0000
0.6768 0.0556 0.0000
0.6768 0.0606 0.0000
0.6768 0.0657 0.0000
0.6768 0.0707 0.0000
0.6768 0.0758 0.0000
0.6768 0.0808 0.0000
0.6768 0.0859 0.0000
0.6768 0.0909 0.0000
0.6768 0.0960 0.0000
0.6768 0.1010 0.0000
0.6768 0.1061 0.0000
0.6768 0.1111 0.0000
0.6768 0.1162 0.0000
0.6768 0.1212 0.0000
0.6768 0.1263 0.0000
0.6768 0.1313 0.0000
0.6768 0.1364 0.0000
0.6768 0.1414 0.0000
0.6768 0.1465 0.0000
0.6768 0.1515 0.0000
0.6768 0.1566 0.0000
0.6768 0.1616 0.0000
0.6768 0.1667 0.0000
0.6768 0.1717 0.0000
0.6768 0.1768 0.0000
0.6768 0.1818 0.0000
0.6768 0.1869 0.0000
0.6768 0.1919 0.0000
0.6768 0.1970 0.0000
0.6768 0.2020 0.0000
0.6768 0.2071 0.0000
0.6768 0.2121 0.0000
0.6768 0.2172 0.0000
0.6768 0.2222 0.0000
0.6768 0.2273 0.0000
0.6768 0.2323 0.0000
0.6768 0.2374 0.0000
0.6768 0.2424 0.0000
0.6768 0.2475 0.0000
0.6768 0.2525 0.0000
0.6768 0.2576 0.0000
0.6768 0.2626 0.0000
0.6768 0.2677 0.0000
0.6768 0.2727 0.0000
0.6768 0.2778 0.0000
0.6768 0.2828 0.0000
0.6768 0.2879 0.0000
0.6768 0.2929 0.0000
0.6768 0.2980 0.0000
0.6768 0.3030 0.0000
0.6768 0.3081 0.0000
0.6768 0.3131 0.0000
0.6768 0.3182 0.0000
0.6768 0.3232 0.0000
0.6768 0.3283 0.0000
0.6768 0.3333 0.0000
0.6768 0.3384 0.0000
0.6768 0.3434 0.0000
0.6768 0.3485 0.0000
0.6768 0.3535 0.0000
0.6768 0.3586 0.0000
0.6768 0.3636 0.0000
0.6768 0.3687 0.0000
0.6768 0.3737 0.0000
0.6768 0.3788 0.0000
0.6768 0.3838 0.0000
0.6768 0.3889 0.0000
0.6768 0.3939 0.0000
0.6768 0.3990 0.0000
0.6768 0.4040 0.0000
0.6768 0.4091 0.0000
0.6768 0.4141 0.0000
0.6768 0.4192 0.0000
0.6768 0.4242 0.0000
0.6768 0.4293 0.0000
0.6768 0.4343 0.0000
0.6768 0.4394 0.0000
0.6768 0.4444 0.0000
0.6768 0.4495 0.0000
0.6768 0.4545 0.0000
0.6768 0.4596 0.0000
0.6768 0.4646 0.0000
0.6768 0.4697 0.0000
0.6768 0.4747 0.0000
0.6768 0.4798 0.0000
0.6768 0.4848 0.0000
0.6768 0.4899 0.0000
0.6768 0.4949 0.0000
0.6768 0.5000 0.0000
0.6869 0.0000 0.0000
0.6869 0.0051 0.0000
0.6869 0.0101 0.0000
0.6869 0.0152 0.0000
0.6869 0.0202 0.0000
0.6869 0.0253 0.0000
0.6869 0.0303 0.0000
0.6869 0.0354 0.0000
0.6869 0.0404 0.0000
0.6869 0.0455 0.0000
0.6869 0.0505 0.0000
0.6869 0.0556 0.0000
0.6869 0.0606 0.0000
0.6869 0.0657 0.0000
0.6869 0.0707 0.0000
0.6869 0.0758 0.0000
0.6869 0.0808 0.0000
0.6869 0.0859 0.0000
0.6869 0.0909 0.0000
0.6869 0.0960 0.0000
0.6869 0.1010 0.0000
0.6869 0.1061 0.0000
0.6869 0.1111 0.0000
0.6869 0.1162 0.0000
0.6869 0.1212 0.0000
0.6869 0.1263 0.0000
0.6869 0.1313 0.0000
0.6869 0.1364 0.0000
0.6869 0.1414 0.0000
0.6869 0.1465 0.0000
0.6869 0.1515 0.0000
0.6869 0.1566 0.0000
0.6869 0.1616 0.0000
0.6869 0.1667 0.0000
0.6869 0.1717 0.0000
0.6869 0.1768 0.0000
0.6869 0.1818 0.0000
0.6869 0.1869 0.0000
0.6869 0.1919 0.0000
0.6869 0.1970 0.0000
0.6869 0.2020 0.0000
0.6869 0.2071 0.0000
0.6869 0.2121 0.0000
0.6869 0.2172 0.0000
0.6869 0.2222 0.0000
0.6869 0.2273 0.0000
0.6869 0.2323 0.0000
0.6869 0.2374 0.0000
0.6869 0.2424 0.0000
0.6869 0.2475 0.0000
0.6869 0.2525 0.0000
0.6869 0.2576 0.0000
0.6869 0.2626 0.0000
0.6869 0.2677 0.0000
0.6869 0.2727 0.0000
0.6869 0.2778 0.0000
0.6869 0.2828 0.0000
0.6869 0.2879 0.0000
0.6869 0.2929 0.0000
0.6869 0.2980 0.0000
0.6869 0.3030 0.0000
0.6869 0.3081 0.0000
0.6869 0.3131 0.0000
0.6869 0.3182 0.0000
0.6869 0.3232 0.0000
0.6869 0.3283 0.0000
0.6869 0.3333 0.0000
0.6869 0.3384 0.0000
0.6869 0.3434 0.0000
0.6869 0.3485 0.0000
0.6869 0.3535 0.0000
0.6869 0.3586 0.0000
0.6869 0.3636 0.0000
0.6869 0.3687 0.0000
0.6869 0.3737 0.0000
0.6869 0.3788 0.0000
0.6869 0.3838 0.0000
0.6869 0.3889 0.0000
0.6869 0.3939 0.0000
0.6869 0.3990 0.0000
0.6869 0.4040 0.0000
0.6869 0.4091 0.0000
0.6869 0.4141 0.0000
0.6869 0.4192 0.0000
0.6869 0.4242 0.0000
0.6869 0.4293 0.0000
0.6869 0.4343 0.0000
0.6869 0.4394 0.0000
0.6869 0.4444 0.0000
0.6869 0.4495 0.0000
0.6869 0.4545 0.0000
0.6869 0.4596 0.0000
0.6869 0.4646 0.0000
0.6869 0.4697 0.0000
0.6869 0.4747 0.0000
0.6869 0.4798 0.0000
0.6869 0.4848 0.0000
0.6869 0.4899 0.0000
0.6869 0.4949 0.0000
0.6869 0.5000 0.0000
0.6970 0.0000 0.0000
0.6970 0.0051 0.0000
0.6970 0.0101 0.0000
0.6970 0.0152 0.0000
0.6970 0.0202 0.0000
0.6970 0.0253 0.0000
0.6970 0.0303 0.0000
0.6970 0.0354 0.0000
0.6970 0.0404 0.0000
0.6970 0.0455 0.0000
0.6970 0.0505 0.0000
0.6970 0.0556 0.0000
0.6970 0.0606 0.0000
0.6970 0.0657 0.0000
0.6970 0.0707 0.0000
0.6970 0.0758 0.0000
0.6970 0.0808 0.0000
0.6970 0.0859 0.0000
0.6970 0.0909 0.0000
0.6970 0.0960 0.0000
0.6970 0.1010 0.0000
0.6970 0.1061 0.0000
0.6970 0.1111 0.0000
0.6970 0.1162 0.0000
0.6970 0.1212 0.0000
0.6970 0.1263 0.0000
0.6970 0.1313 0.0000
0.6970 0.1364 0.0000
0.6970 0.1414 0.0000
0.6970 0.1465 0.0000
0.6970 0.1515 0.0000
0.6970 0.1566 0.0000
0.6970 0.1616 0.0000
0.6970 0.1667 0.0000
0.6970 0.1717 0.0000
0.6970 0.1768 0.0000
0.6970 0.1818 0.0000
0.6970 0.1869 0.0000
0.6970 0.1919 0.0000
0.6970 0.1970 0.0000
0.6970 0.2020 0.0000
0.6970 0.2071 0.0000
0.6970 0.2121 0.0000
0.6970 0.2172 0.0000
0.6970 0.2222 0.0000
0.6970 0.2273 0.0000
0.6970 0.2323 0.0000
0.6970 0.2374 0.0000
0.6970 0.2424 0.0000
0.6970 0.2475 0.0000
0.6970 0.2525 0.0000
0.6970 0.2576 0.0000
0.6970 0.2626 0.0000
0.6970 0.2677 0.0000
0.6970 0.2727 0.0000
0.6970 0.2778 0.0000
0.6970 0.2828 0.0000
0.6970 0.2879 0.0000
0.6970 0.2929 0.0000
0.6970 0.2980 0.0000
0.6970 0.3030 0.0000
0.6970 0.3081 0.0000
0.6970 0.3131 0.0000
0.6970 0.3182 0.0000
0.6970 0.3232 0.0000
0.6970 0.3283 0.0000
0.6970 0.3333 0.0000
0.6970 0.3384 0.0000
0.6970 0.3434 0.0000
0.6970 0.3485 0.0000
0.6970 0.3535 0.0000
0.6970 0.3586 0.0000
0.6970 0.3636 0.0000
0.6970 0.3687 0.0000
0.6970 0.3737 0.0000
0.6970 0.3788 0.0000
0.6970 0.3838 0.0000
0.6970 0.3889 0.0000
0.6970 0.3939 0.0000
0.6970 0.3990 0.0000
0.6970 0.4040 0.0000
0.6970 0.4091 0.0000
0.6970 0.4141 0.0000
0.6970 0.4192 0.0000
0.6970 0.4242 0.0000
0.6970 0.4293 0.0000
0.6970 0.4343 0.0000
0.6970 0.4394 0.0000
0.6970 0.4444 0.0000
0.6970 0.4495 0.0000
0.6970 0.4545 0.0000
0.6970 0.4596 0.0000
0.6970 0.4646 0.0000
0.6970 0.4697 0.0000
0.6970 0.4747 0.0000
0.6970 0.4798 0.0000
0.6970 0.4848 0.0000
0.6970 0.4899 0.0000
0.6970 0.4949 0.0000
0.6970 0.5000 0.0000
0.7071 0.0000 0.0000
0.7071 0.0051 0.0000
0.7071 0.0101 0.0000
0.7071 0.0152 0.0000
0.7071 0.0202 0.0000
0.7071 0.0253 0.0000
0.7071 0.0303 0.0000
0.7071 0.0354 0.0000
0.7071 0.0404 0.0000
0.7071 0.0455 0.0000
0.7071 0.0505 0.0000
0.7071 0.0556 0.0000
0.7071 0.0606 0.0000
0.7071 0.0657 0.0000
0.7071 0.0707 0.0000
0.7071 0.0758 0.0000
0.7071 0.0808 0.0000
0.7071 0.0859 0.0000
0.7071 0.0909 0.0000
0.7071 0.0960 0.0000
0.7071 0.1010 0.0000
0.7071 0.1061 0.0000
0.7071 0.1111 0.0000
0.7071 0.1162 0.0000
0.7071 0.1212 0.0000
0.7071 0.1263 0.0000
0.7071 0.1313 0.0000
0.7071 0.1364 0.0000
0.7071 0.1414 0.0000
0.7071 0.1465 0.0000
0.7071 0.1515 0.0000
0.7071 0.1566 0.0000
0.7071 0.1616 0.0000
0.7071 0.1667 0.0000
0.7071 0.1717 0.0000
0.7071 0.1768 0.0000
0.7071 0.1818 0.0000
0.7071 0.1869 0.0000
0.7071 0.1919 0.0000
0.7071 0.1970 0.0000
0.7071 0.2020 0.0000
0.7071 0.2071 0.0000
0.7071 0.2121 0.0000
0.7071 0.2172 0.0000
0.7071 0.2222 0.0000
0.7071 0.2273 0.0000
0.7071 0.2323 0.0000
0.7071 0.2374 0.0000
0.7071 0.2424 0.0000
0.7071 0.2475 0.0000
0.7071 0.2525 0.0000
0.7071 0.2576 0.0000
0.7071 0.2626 0.0000
0.7071 0.2677 0.0000
0.7071 0.2727 0.0000
0.7071 0.2778 0.0000
0.7071 0.2828 0.0000
0.7071 0.2879 0.0000
0.7071 0.2929 0.0000
0.7071 0.2980 0.0000
0.7071 0.3030 0.0000
0.7071 0.3081 0.0000
0.7071 0.3131 0.0000
0.7071 0.3182 0.0000
0.7071 0.3232 0.0000
0.7071 0.3283 0.0000
0.7071 0.3333 0.0000
0.7071 0.3384 0.0000
0.7071 0.3434 0.0000
0.7071 0.3485 0.0000
0.7071 0.3535 0.0000
0.7071 0.3586 0.0000
0.7071 0.3636 0.0000
0.7071 0.3687 0.0000
0.7071 0.3737 0.0000
0.7071 0.3788 0.0000
0.7071 0.3838 0.0000
0.7071 0.3889 0.0000
0.7071 0.3939 0.0000
0.7071 0.3990 0.0000
0.7071 0.4040 0.0000
0.7071 0.4091 0.0000
0.7071 0.4141 0.0000
0.7071 0.4192 0.0000
0.7071 0.4242 0.0000
0.7071 0.4293 0.0000
0.7071 0.4343 0.0000
0.7071 0.4394 0.0000
0.7071 0.4444 0.0000
0.7071 0.4495 0.0000
0.7071 0.4545 0.0000
0.7071 0.4596 0.0000
0.7071 0.4646 0.0000
0.7071 0.4697 0.0000
0.7071 0.4747 0.0000
0.7071 0.4798 0.0000
0.7071 0.4848 0.0000
0.7071 0.4899 0.0000
0.7071 0.4949 0.0000
0.7071 0.5000 0.0000
0.7172 0.0000 0.0000
0.7172 0.0051 0.0000
0.7172 0.0101 0.0000
0.7172 0.0152 0.0000
0.7172 0.0202 0.0000
0.7172 0.0253 0.0000
0.7172 0.0303 0.0000
0.7172 0.0354 0.0000
0.7172 0.0404 0.0000
0.7172 0.0455 0.0000
0.7172 0.0505 0.0000
0.7172 0.0556 0.0000
0.7172 0.0606 0.0000
0.7172 0.0657 0.0000
0.7172 0.0707 0.0000
0.7172 0.0758 0.0000
0.7172 0.0808 0.0000
0.7172 0.0859 0.0000
0.7172 0.0909 0.0000
0.7172 0.0960 0.0000
0.7172 0.1010 0.0000
0.7172 0.1061 0.0000
0.7172 0.1111 0.0000
0.7172 0.1162 0.0000
0.7172 0.1212 0.0000
0.7172 0.1263 0.0000
0.7172 0.1313 0.0000
0.7172 0.1364 0.0000
0.7172 0.1414 0.0000
0.7172 0.1465 0.0000
0.7172 0.1515 0.0000
0.7172 0.1566 0.0000
0.7172 0.1616 0.0000
0.7172 0.1667 0.0000
0.7172 0.1717 0.0000
0.7172 0.1768 0.0000
0.7172 0.1818 0.0000
0.7172 0.1869 0.0000
0.7172 0.1919 0.0000
0.7172 0.1970 0.0000
0.7172 0.2020 0.0000
0.7172 0.2071 0.0000
0.7172 0.2121 0.0000
0.7172 0.2172 0.0000
0.7172 0.2222 0.0000
0.7172 0.2273 0.0000
0.7172 0.2323 0.0000
0.7172 0.2374 0.0000
0.7172 0.2424 0.0000
0.7172 0.2475 0.0000
0.7172 0.2525 0.0000
0.7172 0.2576 0.0000
0.7172 0.2626 0.0000
0.7172 0.2677 0.0000
0.7172 0.2727 0.0000
0.7172 0.2778 0.0000
0.7172 0.2828 0.0000
0.7172 0.2879 0.0000
0.7172 0.2929 0.0000
0.7172 0.2980 0.0000
0.7172 0.3030 0.0000
0.7172 0.3081 0.0000
0.7172 0.3131 0.0000
0.7172 0.3182 0.0000
0.7172 0.3232 0.0000
0.7172 0.3283 0.0000
0.7172 0.3333 0.0000
0.7172 0.3384 0.0000
0.7172 0.3434 0.0000
0.7172 0.3485 0.0000
0.7172 0.3535 0.0000
0.7172 0.3586 0.0000
0.7172 0.3636 0.0000
0.7172 0.3687 0.0000
0.7172 0.3737 0.0000
0.7172 0.3788 0.0000
0.7172 0.3838 0.0000
0.7172 0.3889 0.0000
0.7172 0.3939 0.0000
0.7172 0.3990 0.0000
0.7172 0.4040 0.0000
0.7172 0.4091 0.0000
0.7172 0.4141 0.0000
0.7172 0.4192 0.0000
0.7172 0.4242 0.0000
0.7172 0.4293 0.0000
0.7172 0.4343 0.0000
0.7172 0.4394 0.0000
0.7172 0.4444 0.0000
0.7172 0.4495 0.0000
0.7172 0.4545 0.0000
0.7172 0.4596 0.0000
0.7172 0.4646 0.0000
0.7172 0.4697 0.0000
0.7172 0.4747 0.0000
0.7172 0.4798 0.0000
0.7172 0.4848 0.0000
0.7172 0.4899 0.0000
0.7172 0.4949 0.0000
0.7172 0.5000 0.0000
0.7273 0.0000 0.0000
0.7273 0.0051 0.0000
0.7273 0.0101 0.0000
0.7273 0.0152 0.0000
0.7273 0.0202 0.0000
0.7273 0.0253 0.0000
0.7273 0.0303 0.0000
0.7273 0.0354 0.0000
0.7273 0.0404 0.0000
0.7273 0.0455 0.0000
0.7273 0.0505 0.0000
0.7273 0.0556 0.0000
0.7273 0.0606 0.0000
0.7273 0.0657 0.0000
0.7273 0.0707 0.0000
0.7273 0.0758 0.0000
0.7273 0.0808 0.0000
0.7273 0.0859 0.0000
0.7273 0.0909 0.0000
0.7273 0.0960 0.0000
0.7273 0.1010 0.0000
0.7273 0.1061 0.0000
0.7273 0.1111 0.0000
0.7273 0.1162 0.0000
0.7273 0.1212 0.0000
0.7273 0.1263 0.0000
0.7273 0.1313 0.0000
0.7273 0.1364 0.0000
0.7273 0.1414 0.0000
0.7273 0.1465 0.0000
0.7273 0.1515 0.0000
0.7273 0.1566 0.0000
0.7273 0.1616 0.0000
0.7273 0.1667 0.0000
0.7273 0.1717 0.0000
0.7273 0.1768 0.0000
0.7273 0.1818 0.0000
0.7273 0.1869 0.0000
0.7273 0.1919 0.0000
0.7273 0.1970 0.0000
0.7273 0.2020 0.0000
0.7273 0.2071 0.0000
0.7273 0.2121 0.0000
0.7273 0.2172 0.0000
0.7273 0.2222 0.0000
0.7273 0.2273 0.0000
0.7273 0.2323 0.0000
0.7273 0.2374 0.0000
0.7273 0.2424 0.0000
0.7273 0.2475 0.0000
0.7273 0.2525 0.0000
0.7273 0.2576 0.0000
0.7273 0.2626 0.0000
0.7273 0.2677 0.0000
0.7273 0.2727 0.0000
0.7273 0.2778 0.0000
0.7273 0.2828 0.0000
0.7273 0.2879 0.0000
0.7273 0.2929 0.0000
0.7273 0.2980 0.0000
0.7273 0.3030 0.0000
0.7273 0.3081 0.0000
0.7273 0.3131 0.0000
0.7273 0.3182 0.0000
0.7273 0.3232 0.0000
0.7273 0.3283 0.0000
0.7273 0.3333 0.0000
0.7273 0.3384 0.0000
0.7273 0.3434 0.0000
0.7273 0.3485 0.0000
0.7273 0.3535 0.0000
0.7273 0.3586 0.0000
0.7273 0.3636 0.0000
0.7273 0.3687 0.0000
0.7273 0.3737 0.0000
0.7273 0.3788 0.0000
0.7273 0.3838 0.0000
0.7273 0.3889 0.0000
0.7273 0.3939 0.0000
0.7273 0.3990 0.0000
0.7273 0.4040 0.0000
0.7273 0.4091 0.0000
0.7273 0.4141 0.0000
0.7273 0.4192 0.0000
0.7273 0.4242 0.0000
0.7273 0.4293 0.0000
0.7273 0.4343 0.0000
0.7273 0.4394 0.0000
0.7273 0.4444 0.0000
0.7273 0.4495 0.0000
0.7273 0.4545 0.0000
0.7273 0.4596 0.0000
0.7273 0.4646 0.0000
0.7273 0.4697 0.0000
0.7273 0.4747 0.0000
0.7273 0.4798 0.0000
0.7273 0.4848 0.0000
0.7273 0.4899 0.0000
0.7273 0.4949 0.0000
0.7273 0.5000 0.0000
0.7374 0.0000 0.0000
0.7374 0.0051 0.0000
0.7374 0.0101 0.0000
0.7374 0.0152 0.0000
0.7374 0.0202 0.0000
0.7374 0.0253 0.0000
0.7374 0.0303 0.0000
0.7374 0.0354 0.0000
0.7374 0.0404 0.0000
0.7374 0.0455 0.0000
0.7374 0.0505 0.0000
0.7374 0.0556 0.0000
0.7374 0.0606 0.0000
0.7374 0.0657 0.0000
0.7374 0.0707 0.0000
0.7374 0.0758 0.0000
0.7374 0.0808 0.0000
0.7374 0.0859 0.0000
0.7374 0.0909 0.0000
0.7374 0.0960 0.0000
0.7374 0.1010 0.0000
0.7374 0.1061 0.0000
0.7374 0.1111 0.0000
0.7374 0.1162 0.0000
0.7374 0.1212 0.0000
0.7374 0.1263 0.0000
0.7374 0.1313 0.0000
0.7374 0.1364 0.0000
0.7374 0.1414 0.0000
0.7374 0.1465 0.0000
0.7374 0.1515 0.0000
0.7374 0.1566 0.0000
0.7374 0.1616 0.0000
0.7374 0.1667 0.0000
0.7374 0.1717 0.0000
0.7374 0.1768 0.0000
0.7374 0.1818 0.0000
0.7374 0.1869 0.0000
0.7374 0.1919 0.0000
0.7374 0.1970 0.0000
0.7374 0.2020 0.0000
0.7374 0.2071 0.0000
0.7374 0.2121 0.0000
0.7374 0.2172 0.0000
0.7374 0.2222 0.0000
0.7374 0.2273 0.0000
0.7374 0.2323 0.0000
0.7374 0.2374 0.0000
0.7374 0.2424 0.0000
0.7374 0.2475 0.0000
0.7374 0.2525 0.0000
0.7374 0.2576 0.0000
0.7374 0.2626 0.0000
0.7374 0.2677 0.0000
0.7374 0.2727 0.0000
0.7374 0.2778 0.0000
0.7374 0.2828 0.0000
0.7374 0.2879 0.0000
0.7374 0.2929 0.0000
0.7374 0.2980 0.0000
0.7374 0.3030 0.0000
0.7374 0.3081 0.0000
0.7374 0.3131 0.0000
0.7374 0.3182 0.0000
0.7374 0.3232 0.0000
0.7374 0.3283 0.0000
0.7374 0.3333 0.0000
0.7374 0.3384 0.0000
0.7374 0.3434 0.0000
0.7374 0.3485 0.0000
0.7374 0.3535 0.0000
0.7374 0.3586 0.0000
0.7374 0.3636 0.0000
0.7374 0.3687 0.0000
0.7374 0.3737 0.0000
0.7374 0.3788 0.0000
0.7374 0.3838 0.0000
0.7374 0.3889 0.0000
0.7374 0.3939 0.0000
0.7374 0.3990 0.0000
0.7374 0.4040 0.0000
0.7374 0.4091 0.0000
0.7374 0.4141 0.0000
0.7374 0.4192 0.0000
0.7374 0.4242 0.0000
0.7374 0.4293 0.0000
0.7374 0.4343 0.0000
0.7374 0.4394 0.0000
0.7374 0.4444 0.0000
0.7374 0.4495 0.0000
0.7374 0.4545 0.0000
0.7374 0.4596 0.0000
0.7374 0.4646 0.0000
0.7374 0.4697 0.0000
0.7374 0.4747 0.0000
0.7374 0.4798 0.0000
0.7374 0.4848 0.0000
0.7374 0.4899 0.0000
0.7374 0.4949 0.0000
0.7374 0.5000 0.0000
0.7475 0.0000 0.0000
0.7475 0.0051 0.0000
0.7475 0.0101 0.0000
0.7475 0.0152 0.0000
0.7475 0.0202 0.0000
0.7475 0.0253 0.0000
0.7475 0.0303 0.0000
0.7475 0.0354 0.0000
0.7475 0.0404 0.0000
0.7475 0.0455 0.0000
0.7475 0.0505 0.0000
0.7475 0.0556 0.0000
0.7475 0.0606 0.0000
0.7475 0.0657 0.0000
0.7475 0.0707 0.0000
0.7475 0.0758 0.0000
0.7475 0.0808 0.0000
0.7475 0.0859 0.0000
0.7475 0.0909 0.0000
0.7475 0.0960 0.0000
0.7475 0.1010 0.0000
0.7475 0.1061 0.0000
0.7475 0.1111 0.0000
0.7475 0.1162 0.0000
0.7475 0.1212 0.0000
0.7475 0.1263 0.0000
0.7475 0.1313 0.0000
0.7475 0.1364 0.0000
0.7475 0.1414 0.0000
0.7475 0.1465 0.0000
0.7475 0.1515 0.0000
0.7475 0.1566 0.0000
0.7475 0.1616 0.0000
0.7475 0.1667 0.0000
0.7475 0.1717 0.0000
0.7475 0.1768 0.0000
0.7475 0.1818 0.0000
0.7475 0.1869 0.0000
0.7475 0.1919 0.0000
0.7475 0.1970 0.0000
0.7475 0.2020 0.0000
0.7475 0.2071 0.0000
0.7475 0.2121 0.0000
0.7475 0.2172 0.0000
0.7475 0.2222 0.0000
0.7475 0.2273 0.0000
0.7475 0.2323 0.0000
0.7475 0.2374 0.0000
0.7475 0.2424 0.0000
0.7475 0.2475 0.0000
0.7475 0.2525 0.0000
0.7475 0.2576 0.0000
0.7475 0.2626 0.0000
0.7475 0.2677 0.0000
0.7475 0.2727 0.0000
0.7475 0.2778 0.0000
0.7475 0.2828 0.0000
0.7475 0.2879 0.0000
0.7475 0.2929 0.0000
0.7475 0.2980 0.0000
0.7475 0.3030 0.0000
0.7475 0.3081 0.0000
0.7475 0.3131 0.0000
0.7475 0.3182 0.0000
0.7475 0.3232 0.0000
0.7475 0.3283 0.0000
0.7475 0.3333 0.0000
0.7475 0.3384 0.0000
0.7475 0.3434 0.0000
0.7475 0.3485 0.0000
0.7475 0.3535 0.0000
0.7475 0.3586 0.0000
0.7475 0.3636 0.0000
0.7475 0.3687 0.0000
0.7475 0.3737 0.0000
0.7475 0.3788 0.0000
0.7475 0.3838 0.0000
0.7475 0.3889 0.0000
0.7475 0.3939 0.0000
0.7475 0.3990 0.0000
0.7475 0.4040 0.0000
0.7475 0.4091 0.0000
0.7475 0.4141 0.0000
0.7475 0.4192 0.0000
0.7475 0.4242 0.0000
0.7475 0.4293 0.0000
0.7475 0.4343 0.0000
0.7475 0.4394 0.0000
0.7475 0.4444 0.0000
0.7475 0.4495 0.0000
0.7475 0.4545 0.0000
0.7475 0.4596 0.0000
0.7475 0.4646 0.0000
0.7475 0.4697 0.0000
0.7475 0.4747 0.0000
0.7475 0.4798 0.0000
0.7475 0.4848 0.0000
0.7475 0.4899 0.0000
0.7475 0.4949 0.0000
0.7475 0.5000 0.0000
0.7576 0.0000 0.0000
0.7576 0.0051 0.0000
0.7576 0.0101 0.0000
0.7576 0.0152 0.0000
0.7576 0.0202 0.0000
0.7576 0.0253 0.0000
0.7576 0.0303 0.0000
0.7576 0.0354 0.0000
0.7576 0.0404 0.0000
0.7576 0.0455 0.0000
0.7576 0.0505 0.0000
0.7576 0.0556 0.0000
0.7576 0.0606 0.0000
0.7576 0.0657 0.0000
0.7576 0.0707 0.0000
0.7576 0.0758 0.0000
0.7576 0.0808 0.0000
0.7576 0.0859 0.0000
0.7576 0.0909 0.0000
0.7576 0.0960 0.0000
0.7576 0.1010 0.0000
0.7576 0.1061 0.0000
0.7576 0.1111 0.0000
0.7576 0.1162 0.0000
0.7576 0.1212 0.0000
0.7576 0.1263 0.0000
0.7576 0.1313 0.0000
0.7576 0.1364 0.0000
0.7576 0.1414 0.0000
0.7576 0.1465 0.0000
0.7576 0.1515 0.0000
0.7576 0.1566 0.0000
0.7576 0.1616 0.0000
0.7576 0.1667 0.0000
0.7576 0.1717 0.0000
0.7576 0.1768 0.0000
0.7576 0.1818 0.0000
0.7576 0.1869 0.0000
0.7576 0.1919 0.0000
0.7576 0.1970 0.0000
0.7576 0.2020 0.0000
0.7576 0.2071 0.0000
0.7576 0.2121 0.0000
0.7576 0.2172 0.0000
0.7576 0.2222 0.0000
0.7576 0.2273 0.0000
0.7576 0.2323 0.0000
0.7576 0.2374 0.0000
0.7576 0.2424 0.0000
0.7576 0.2475 0.0000
0.7576 0.2525 0.0000
0.7576 0.2576 0.0000
0.7576 0.2626 0.0000
0.7576 0.2677 0.0000
0.7576 0.2727 0.0000
0.7576 0.2778 0.0000
0.7576 0.2828 0.0000
0.7576 0.2879 0.0000
0.7576 0.2929 0.0000
0.7576 0.2980 0.0000
0.7576 0.3030 0.0000
0.7576 0.3081 0.0000
0.7576 0.3131 0.0000
0.7576 0.3182 0.0000
0.7576 0.3232 0.0000
0.7576 0.3283 0.0000
0.7576 0.3333 0.0000
0.7576 0.3384 0.0000
0.7576 0.3434 0.0000
0.7576 0.3485 0.0000
0.7576 0.3535 0.0000
0.7576 0.3586 0.0000
0.7576 0.3636 0.0000
0.7576 0.3687 0.0000
0.7576 0.3737 0.0000
0.7576 0.3788 0.0000
0.7576 0.3838 0.0000
0.7576 0.3889 0.0000
0.7576 0.3939 0.0000
0.7576 0.3990 0.0000
0.7576 0.4040 0.0000
0.7576 0.4091 0.0000
0.7576 0.4141 0.0000
0.7576 0.4192 0.0000
0.7576 0.4242 0.0000
0.7576 0.4293 0.0000
0.7576 0.4343 0.0000
0.7576 0.4394 0.0000
0.7576 0.4444 0.0000
0.7576 0.4495 0.0000
0.7576 0.4545 0.0000
0.7576 0.4596 0.0000
0.7576 0.4646 0.0000
0.7576 0.4697 0.0000
0.7576 0.4747 0.0000
0.7576 0.4798 0.0000
0.7576 0.4848 0.0000
0.7576 0.4899 0.0000
0.7576 0.4949 0.0000
0.7576 0.5000 0.0000
0.7677 0.0000 0.0000
0.7677 0.0051 0.0000
0.7677 0.0101 0.0000
0.7677 0.0152 0.0000
0.7677 0.0202 0.0000
0.7677 0.0253 0.0000
0.7677 0.0303 0.0000
0.7677 0.0354 0.0000
0.7677 0.0404 0.0000
0.7677 0.0455 0.0000
0.7677 0.0505 0.0000
0.7677 0.0556 0.0000
0.7677 0.0606 0.0000
0.7677 0.0657 0.0000
0.7677 0.0707 0.0000
0.7677 0.0758 0.0000
0.7677 0.0808 0.0000
0.7677 0.0859 0.0000
0.7677 0.0909 0.0000
0.7677 0.0960 0.0000
0.7677 0.1010 0.0000
0.7677 0.1061 0.0000
0.7677 0.1111 0.0000
0.7677 0.1162 0.0000
0.7677 0.1212 0.0000
0.7677 0.1263 0.0000
0.7677 0.1313 0.0000
0.7677 0.1364 0.0000
0.7677 0.1414 0.0000
0.7677 0.1465 0.0000
0.7677 0.1515 0.0000
0.7677 0.1566 0.0000
0.7677 0.1616 0.0000
0.7677 0.1667 0.0000
0.7677 0.1717 0.0000
0.7677 0.1768 0.0000
0.7677 0.1818 0.0000
0.7677 0.1869 0.0000
0.7677 0.1919 0.0000
0.7677 0.1970 0.0000
0.7677 0.2020 0.0000
0.7677 0.2071 0.0000
0.7677 0.2121 0.0000
0.7677 0.2172 0.0000
0.7677 0.2222 0.0000
0.7677 0.2273 0.0000
0.7677 0.2323 0.0000
0.7677 0.2374 0.0000
0.7677 0.2424 0.0000
0.7677 0.2475 0.0000
0.7677 0.2525 0.0000
0.7677 0.2576 0.0000
0.7677 0.2626 0.0000
0.7677 0.2677 0.0000
0.7677 0.2727 0.0000
0.7677 0.2778 0.0000
0.7677 0.2828 0.0000
0.7677 0.2879 0.0000
0.7677 0.2929 0.0000
0.7677 0.2980 0.0000
0.7677 0.3030 0.0000
0.7677 0.3081 0.0000
0.7677 0.3131 0.0000
0.7677 0.3182 0.0000
0.7677 0.3232 0.0000
0.7677 0.3283 0.0000
0.7677 0.3333 0.0000
0.7677 0.3384 0.0000
0.7677 0.3434 0.0000
0.7677 0.3485 0.0000
0.7677 0.3535 0.0000
0.7677 0.3586 0.0000
0.7677 0.3636 0.0000
0.7677 0.3687 0.0000
0.7677 0.3737 0.0000
0.7677 0.3788 0.0000
0.7677 0.3838 0.0000
0.7677 0.3889 0.0000
0.7677 0.3939 0.0000
0.7677 0.3990 0.0000
0.7677 0.4040 0.0000
0.7677 0.4091 0.0000
0.7677 0.4141 0.0000
0.7677 0.4192 0.0000
0.7677 0.4242 0.0000
0.7677 0.4293 0.0000
0.7677 0.4343 0.0000
0.7677 0.4394 0.0000
0.7677 0.4444 0.0000
0.7677 0.4495 0.0000
0.7677 0.4545 0.0000
0.7677 0.4596 0.0000
0.7677 0.4646 0.0000
0.7677 0.4697 0.0000
0.7677 0.4747 0.0000
0.7677 0.4798 0.0000
0.7677 0.4848 0.0000
0.7677 0.4899 0.0000
0.7677 0.4949 0.0000
0.7677 0.5000 0.0000
0.7778 0.0000 0.0000
0.7778 0.0051 0.0000
0.7778 0.0101 0.0000
0.7778 0.0152 0.0000
0.7778 0.0202 0.0000
0.7778 0.0253 0.0000
0.7778 0.0303 0.0000
0.7778 0.0354 0.0000
0.7778 0.0404 0.0000
0.7778 0.0455 0.0000
0.7778 0.0505 0.0000
0.7778 0.0556 0.0000
0.7778 0.0606 0.0000
0.7778 0.0657 0.0000
0.7778 0.0707 0.0000
0.7778 0.0758 0.0000
0.7778 0.0808 0.0000
0.7778 0.0859 0.0000
0.7778 0.0909 0.0000
0.7778 0.0960 0.0000
0.7778 0.1010 0.0000
0.7778 0.1061 0.0000
0.7778 0.1111 0.0000
0.7778 0.1162 0.0000
0.7778 0.1212 0.0000
0.7778 0.1263 0.0000
0.7778 0.1313 0.0000
0.7778 0.1364 0.0000
0.7778 0.1414 0.0000
0.7778 0.1465 0.0000
0.7778 0.1515 0.0000
0.7778 0.1566 0.0000
0.7778 0.1616 0.0000
0.7778 0.1667 0.0000
0.7778 0.1717 0.0000
0.7778 0.1768 0.0000
0.7778 0.1818 0.0000
0.7778 0.1869 0.0000
0.7778 0.1919 0.0000
0.7778 0.1970 0.0000
0.7778 0.2020 0.0000
0.7778 0.2071 0.0000
0.7778 0.2121 0.0000
0.7778 0.2172 0.0000
0.7778 0.2222 0.0000
0.7778 0.2273 0.0000
0.7778 0.2323 0.0000
0.7778 0.2374 0.0000
0.7778 0.2424 0.0000
0.7778 0.2475 0.0000
0.7778 0.2525 0.0000
0.7778 0.2576 0.0000
0.7778 0.2626 0.0000
0.7778 0.2677 0.0000
0.7778 0.2727 0.0000
0.7778 0.2778 0.0000
0.7778 0.2828 0.0000
0.7778 0.2879 0.0000
0.7778 0.2929 0.0000
0.7778 0.2980 0.0000
0.7778 0.3030 0.0000
0.7778 0.3081 0.0000
0.7778 0.3131 0.0000
0.7778 0.3182 0.0000
0.7778 0.3232 0.0000
0.7778 0.3283 0.0000
0.7778 0.3333 0.0000
0.7778 0.3384 0.0000
0.7778 0.3434 0.0000
0.7778 0.3485 0.0000
0.7778 0.3535 0.0000
0.7778 0.3586 0.0000
0.7778 0.3636 0.0000
0.7778 0.3687 0.0000
0.7778 0.3737 0.0000
0.7778 0.3788 0.0000
0.7778 0.3838 0.0000
0.7778 0.3889 0.0000
0.7778 0.3939 0.0000
0.7778 0.3990 0.0000
0.7778 0.4040 0.0000
0.7778 0.4091 0.0000
0.7778 0.4141 0.0000
0.7778 0.4192 0.0000
0.7778 0.4242 0.0000
0.7778 0.4293 0.0000
0.7778 0.4343 0.0000
0.7778 0.4394 0.0000
0.7778 0.4444 0.0000
0.7778 0.4495 0.0000
0.7778 0.4545 0.0000
0.7778 0.4596 0.0000
0.7778 0.4646 0.0000
0.7778 0.4697 0.0000
0.7778 0.4747 0.0000
0.7778 0.4798 0.0000
0.7778 0.4848 0.0000
0.7778 0.4899 0.0000
0.7778 0.4949 0.0000
0.7778 0.5000 0.0000
0.7879 0.0000 0.0000
0.7879 0.0051 0.0000
0.7879 0.0101 0.0000
0.7879 0.0152 0.0000
0.7879 0.0202 0.0000
0.7879 0.0253 0.0000
0.7879 0.0303 0.0000
0.7879 0.0354 0.0000
0.7879 0.0404 0.0000
0.7879 0.0455 0.0000
0.7879 0.0505 0.0000
0.7879 0.0556 0.0000
0.7879 0.0606 0.0000
0.7879 0.0657 0.0000
0.7879 0.0707 0.0000
0.7879 0.0758 0.0000
0.7879 0.0808 0.0000
0.7879 0.0859 0.0000
0.7879 0.0909 0.0000
0.7879 0.0960 0.0000
0.7879 0.1010 0.0000
0.7879 0.1061 0.0000
0.7879 0.1111 0.0000
0.7879 0.1162 0.0000
0.7879 0.1212 0.0000
0.7879 0.1263 0.0000
0.7879 0.1313 0.0000
0.7879 0.1364 0.0000
0.7879 0.1414 0.0000
0.7879 0.1465 0.0000
0.7879 0.1515 0.0000
0.7879 0.1566 0.0000
0.7879 0.1616 0.0000
0.7879 0.1667 0.0000
0.7879 0.1717 0.0000
0.7879 0.1768 0.0000
0.7879 0.1818 0.0000
0.7879 0.1869 0.0000
0.7879 0.1919 0.0000
0.7879 0.1970 0.0000
0.7879 0.2020 0.0000
0.7879 0.2071 0.0000
0.7879 0.2121 0.0000
0.7879 0.2172 0.0000
0.7879 0.2222 0.0000
0.7879 0.2273 0.0000
0.7879 0.2323 0.0000
0.7879 0.2374 0.0000
0.7879 0.2424 0.0000
0.7879 0.2475 0.0000
0.7879 0.2525 0.0000
0.7879 0.2576 0.0000
0.7879 0.2626 0.0000
0.7879 0.2677 0.0000
0.7879 0.2727 0.0000
0.7879 0.2778 0.0000
0.7879 0.2828 0.0000
0.7879 0.2879 0.0000
0.7879 0.2929 0.0000
0.7879 0.2980 0.0000
0.7879 0.3030 0.0000
0.7879 0.3081 0.0000
0.7879 0.3131 0.0000
0.7879 0.3182 0.0000
0.7879 0.3232 0.0000
0.7879 0.3283 0.0000
0.7879 0.3333 0.0000
0.7879 0.3384 0.0000
0.7879 0.3434 0.0000
0.7879 0.3485 0.0000
0.7879 0.3535 0.0000
0.7879 0.3586 0.0000
0.7879 0.3636 0.0000
0.7879 0.3687 0.0000
0.7879 0.3737 0.0000
0.7879 0.3788 0.0000
0.7879 0.3838 0.0000
0.7879 0.3889 0.0000
0.7879 0.3939 0.0000
0.7879 0.3990 0.0000
0.7879 0.4040 0.0000
0.7879 0.4091 0.0000
0.7879 0.4141 0.0000
0.7879 0.4192 0.0000
0.7879 0.4242 0.0000
0.7879 0.4293 0.0000
0.7879 0.4343 0.0000
0.7879 0.4394 0.0000
0.7879 0.4444 0.0000
0.7879 0.4495 0.0000
0.7879 0.4545 0.0000
0.7879 0.4596 0.0000
0.7879 0.4646 0.0000
0.7879 0.4697 0.0000
0.7879 0.4747 0.0000
0.7879 0.4798 0.0000
0.7879 0.4848 0.0000
0.7879 0.4899 0.0000
0.7879 0.4949 0.0000
0.7879 0.5000 0.0000
0.7980 0.0000 0.0000
0.7980 0.0051 0.0000
0.7980 0.0101 0.0000
0.7980 0.0152 0.0000
0.7980 0.0202 0.0000
0.7980 0.0253 0.0000
0.7980 0.0303 0.0000
0.7980 0.0354 0.0000
0.7980 0.0404 0.0000
0.7980 0.0455 0.0000
0.7980 0.0505 0.0000
0.7980 0.0556 0.0000
0.7980 0.0606 0.0000
0.7980 0.0657 0.0000
0.7980 0.0707 0.0000
0.7980 0.0758 0.0000
0.7980 0.0808 0.0000
0.7980 0.0859 0.0000
0.7980 0.0909 0.0000
0.7980 0.0960 0.0000
0.7980 0.1010 0.0000
0.7980 0.1061 0.0000
0.7980 0.1111 0.0000
0.7980 0.1162 0.0000
0.7980 0.1212 0.0000
0.7980 0.1263 0.0000
0.7980 0.1313 0.0000
0.7980 0.1364 0.0000
0.7980 0.1414 0.0000
0.7980 0.1465 0.0000
0.7980 0.1515 0.0000
0.7980 0.1566 0.0000
0.7980 0.1616 0.0000
0.7980 0.1667 0.0000
0.7980 0.1717 0.0000
0.7980 0.1768 0.0000
0.7980 0.1818 0.0000
0.7980 0.1869 0.0000
0.7980 0.1919 0.0000
0.7980 0.1970 0.0000
0.7980 0.2020 0.0000
0.7980 0.2071 0.0000
0.7980 0.2121 0.0000
0.7980 0.2172 0.0000
0.7980 0.2222 0.0000
0.7980 0.2273 0.0000
0.7980 0.2323 0.0000
0.7980 0.2374 0.0000
0.7980 0.2424 0.0000
0.7980 0.2475 0.0000
0.7980 0.2525 0.0000
0.7980 0.2576 0.0000
0.7980 0.2626 0.0000
0.7980 0.2677 0.0000
0.7980 0.2727 0.0000
0.7980 0.2778 0.0000
0.7980 0.2828 0.0000
0.7980 0.2879 0.0000
0.7980 0.2929 0.0000
0.7980 0.2980 0.0000
0.7980 0.3030 0.0000
0.7980 0.3081 0.0000
0.7980 0.3131 0.0000
0.7980 0.3182 0.0000
0.7980 0.3232 0.0000
0.7980 0.3283 0.0000
0.7980 0.3333 0.0000
0.7980 0.3384 0.0000
0.7980 0.3434 0.0000
0.7980 0.3485 0.0000
0.7980 0.3535 0.0000
0.7980 0.3586 0.0000
0.7980 0.3636 0.0000
0.7980 0.3687 0.0000
0.7980 0.3737 0.0000
0.7980 0.3788 0.0000
0.7980 0.3838 0.0000
0.7980 0.3889 0.0000
0.7980 0.3939 0.0000
0.7980 0.3990 0.0000
0.7980 0.4040 0.0000
0.7980 0.4091 0.0000
0.7980 0.4141 0.0000
0.7980 0.4192 0.0000
0.7980 0.4242 0.0000
0.7980 0.4293 0.0000
0.7980 0.4343 0.0000
0.7980 0.4394 0.0000
0.7980 0.4444 0.0000
0.7980 0.4495 0.0000
0.7980 0.4545 0.0000
0.7980 0.4596 0.0000
0.7980 0.4646 0.0000
0.7980 0.4697 0.0000
0.7980 0.4747 0.0000
0.7980 0.4798 0.0000
0.7980 0.4848 0.0000
0.7980 0.4899 0.0000
0.7980 0.4949 0.0000
0.7980 0.5000 0.0000
0.8081 0.0000 0.0000
0.8081 0.0051 0.0000
0.8081 0.0101 0.0000
0.8081 0.0152 0.0000
0.8081 0.0202 0.0000
0.8081 0.0253 0.0000
0.8081 0.0303 0.0000
0.8081 0.0354 0.0000
0.8081 0.0404 0.0000
0.8081 0.0455 0.0000
0.8081 0.0505 0.0000
0.8081 0.0556 0.0000
0.8081 0.0606 0.0000
0.8081 0.0657 0.0000
0.8081 0.0707 0.0000
0.8081 0.0758 0.0000
0.8081 0.0808 0.0000
0.8081 0.0859 0.0000
0.8081 0.0909 0.0000
0.8081 0.0960 0.0000
0.8081 0.1010 0.0000
0.8081 0.1061 0.0000
0.8081 0.1111 0.0000
0.8081 0.1162 0.0000
0.8081 0.1212 0.0000
0.8081 0.1263 0.0000
0.8081 0.1313 0.0000
0.8081 0.1364 0.0000
0.8081 0.1414 0.0000
0.8081 0.1465 0.0000
0.8081 0.1515 0.0000
0.8081 0.1566 0.0000
0.8081 0.1616 0.0000
0.8081 0.1667 0.0000
0.8081 0.1717 0.0000
0.8081 0.1768 0.0000
0.8081 0.1818 0.0000
0.8081 0.1869 0.0000
0.8081 0.1919 0.0000
0.8081 0.1970 0.0000
0.8081 0.2020 0.0000
0.8081 0.2071 0.0000
0.8081 0.2121 0.0000
0.8081 0.2172 0.0000
0.8081 0.2222 0.0000
0.8081 0.2273 0.0000
0.8081 0.2323 0.0000
0.8081 0.2374 0.0000
0.8081 0.2424 0.0000
0.8081 0.2475 0.0000
0.8081 0.2525 0.0000
0.8081 0.2576 0.0000
0.8081 0.2626 0.0000
0.8081 0.2677 0.0000
0.8081 0.2727 0.0000
0.8081 0.2778 0.0000
0.8081 0.2828 0.0000
0.8081 0.2879 0.0000
0.8081 0.2929 0.0000
0.8081 0.2980 0.0000
0.8081 0.3030 0.0000
0.8081 0.3081 0.0000
0.8081 0.3131 0.0000
0.8081 0.3182 0.0000
0.8081 0.3232 0.0000
0.8081 0.3283 0.0000
0.8081 0.3333 0.0000
0.8081 0.3384 0.0000
0.8081 0.3434 0.0000
0.8081 0.3485 0.0000
0.8081 0.3535 0.0000
0.8081 0.3586 0.0000
0.8081 0.3636 0.0000
0.8081 0.3687 0.0000
0.8081 0.3737 0.0000
0.8081 0.3788 0.0000
0.8081 0.3838 0.0000
0.8081 0.3889 0.0000
0.8081 0.3939 0.0000
0.8081 0.3990 0.0000
0.8081 0.4040 0.0000
0.8081 0.4091 0.0000
0.8081 0.4141 0.0000
0.8081 0.4192 0.0000
0.8081 0.4242 0.0000
0.8081 0.4293 0.0000
0.8081 0.4343 0.0000
0.8081 0.4394 0.0000
0.8081 0.4444 0.0000
0.8081 0.4495 0.0000
0.8081 0.4545 0.0000
0.8081 0.4596 0.0000
0.8081 0.4646 0.0000
0.8081 0.4697 0.0000
0.8081 0.4747 0.0000
0.8081 0.4798 0.0000
0.8081 0.4848 0.0000
0.8081 0.4899 0.0000
0.8081 0.4949 0.0000
0.8081 0.5000 0.0000
0.8182 0.0000 0.0000
0.8182 0.0051 0.0000
0.8182 0.0101 0.0000
0.8182 0.0152 0.0000
0.8182 0.0202 0.0000
0.8182 0.0253 0.0000
0.8182 0.0303 0.0000
0.8182 0.0354 0.0000
0.8182 0.0404 0.0000
0.8182 0.0455 0.0000
0.8182 0.0505 0.0000
0.8182 0.0556 0.0000
0.8182 0.0606 0.0000
0.8182 0.0657 0.0000
0.8182 0.0707 0.0000
0.8182 0.0758 0.0000
0.8182 0.0808 0.0000
0.8182 0.0859 0.0000
0.8182 0.0909 0.0000
0.8182 0.0960 0.0000
0.8182 0.1010 0.0000
0.8182 0.1061 0.0000
0.8182 0.1111 0.0000
0.8182 0.1162 0.0000
0.8182 0.1212 0.0000
0.8182 0.1263 0.0000
0.8182 0.1313 0.0000
0.8182 0.1364 0.0000
0.8182 0.1414 0.0000
0.8182 0.1465 0.0000
0.8182 0.1515 0.0000
0.8182 0.1566 0.0000
0.8182 0.1616 0.0000
0.8182 0.1667 0.0000
0.8182 0.1717 0.0000
0.8182 0.1768 0.0000
0.8182 0.1818 0.0000
0.8182 0.1869 0.0000
0.8182 0.1919 0.0000
0.8182 0.1970 0.0000
0.8182 0.2020 0.0000
0.8182 0.2071 0.0000
0.8182 0.2121 0.0000
0.8182 0.2172 0.0000
0.8182 0.2222 0.0000
0.8182 0.2273 0.0000
0.8182 0.2323 0.0000
0.8182 0.2374 0.0000
0.8182 0.2424 0.0000
0.8182 0.2475 0.0000
0.8182 0.2525 0.0000
0.8182 0.2576 0.0000
0.8182 0.2626 0.0000
0.8182 0.2677 0.0000
0.8182 0.2727 0.0000
0.8182 0.2778 0.0000
0.8182 0.2828 0.0000
0.8182 0.2879 0.0000
0.8182 0.2929 0.0000
0.8182 0.2980 0.0000
0.8182 0.3030 0.0000
0.8182 0.3081 0.0000
0.8182 0.3131 0.0000
0.8182 0.3182 0.0000
0.8182 0.3232 0.0000
0.8182 0.3283 0.0000
0.8182 0.3333 0.0000
0.8182 0.3384 0.0000
0.8182 0.3434 0.0000
0.8182 0.3485 0.0000
0.8182 0.3535 0.0000
0.8182 0.3586 0.0000
0.8182 0.3636 0.0000
0.8182 0.3687 0.0000
0.8182 0.3737 0.0000
0.8182 0.3788 0.0000
0.8182 0.3838 0.0000
0.8182 0.3889 0.0000
0.8182 0.3939 0.0000
0.8182 0.3990 0.0000
0.8182 0.4040 0.0000
0.8182 0.4091 0.0000
0.8182 0.4141 0.0000
0.8182 0.4192 0.0000
0.8182 0.4242 0.0000
0.8182 0.4293 0.0000
0.8182 0.4343 0.0000
0.8182 0.4394 0.0000
0.8182 0.4444 0.0000
0.8182 0.4495 0.0000
0.8182 0.4545 0.0000
0.8182 0.4596 0.0000
0.8182 0.4646 0.0000
0.8182 0.4697 0.0000
0.8182 0.4747 0.0000
0.8182 0.4798 0.0000
0.8182 0.4848 0.0000
0.8182 0.4899 0.0000
0.8182 0.4949 0.0000
0.8182 0.5000 0.0000
0.8283 0.0000 0.0000
0.8283 0.0051 0.0000
0.8283 0.0101 0.0000
0.8283 0.0152 0.0000
0.8283 0.0202 0.0000
0.8283 0.0253 0.0000
0.8283 0.0303 0.0000
0.8283 0.0354 0.0000
0.8283 0.0404 0.0000
0.8283 0.0455 0.0000
0.8283 0.0505 0.0000
0.8283 0.0556 0.0000
0.8283 0.0606 0.0000
0.8283 0.0657 0.0000
0.8283 0.0707 0.0000
0.8283 0.0758 0.0000
0.8283 0.0808 0.0000
0.8283 0.0859 0.0000
0.8283 0.0909 0.0000
0.8283 0.0960 0.0000
0.8283 0.1010 0.0000
0.8283 0.1061 0.0000
0.8283 0.1111 0.0000
0.8283 0.1162 0.0000
0.8283 0.1212 0.0000
0.8283 0.1263 0.0000
0.8283 0.1313 0.0000
0.8283 0.1364 0.0000
0.8283 0.1414 0.0000
0.8283 0.1465 0.0000
0.8283 0.1515 0.0000
0.8283 0.1566 0.0000
0.8283 0.1616 0.0000
0.8283 0.1667 0.0000
0.8283 0.1717 0.0000
0.8283 0.1768 0.0000
0.8283 0.1818 0.0000
0.8283 0.1869 0.0000
0.8283 0.1919 0.0000
0.8283 0.1970 0.0000
0.8283 0.2020 0.0000
0.8283 0.2071 0.0000
0.8283 0.2121 0.0000
0.8283 0.2172 0.0000
0.8283 0.2222 0.0000
0.8283 0.2273 0.0000
0.8283 0.2323 0.0000
0.8283 0.2374 0.0000
0.8283 0.2424 0.0000
0.8283 0.2475 0.0000
0.8283 0.2525 0.0000
0.8283 0.2576 0.0000
0.8283 0.2626 0.0000
0.8283 0.2677 0.0000
0.8283 0.2727 0.0000
0.8283 0.2778 0.0000
0.8283 0.2828 0.0000
0.8283 0.2879 0.0000
0.8283 0.2929 0.0000
0.8283 0.2980 0.0000
0.8283 0.3030 0.0000
0.8283 0.3081 0.0000
0.8283 0.3131 0.0000
0.8283 0.3182 0.0000
0.8283 0.3232 0.0000
0.8283 0.3283 0.0000
0.8283 0.3333 0.0000
0.8283 0.3384 0.0000
0.8283 0.3434 0.0000
0.8283 0.3485 0.0000
0.8283 0.3535 0.0000
0.8283 0.3586 0.0000
0.8283 0.3636 0.0000
0.8283 0.3687 0.0000
0.8283 0.3737 0.0000
0.8283 0.3788 0.0000
0.8283 0.3838 0.0000
0.8283 0.3889 0.0000
0.8283 0.3939 0.0000
0.8283 0.3990 0.0000
0.8283 0.4040 0.0000
0.8283 0.4091 0.0000
0.8283 0.4141 0.0000
0.8283 0.4192 0.0000
0.8283 0.4242 0.0000
0.8283 0.4293 0.0000
0.8283 0.4343 0.0000
0.8283 0.4394 0.0000
0.8283 0.4444 0.0000
0.8283 0.4495 0.0000
0.8283 0.4545 0.0000
0.8283 0.4596 0.0000
0.8283 0.4646 0.0000
0.8283 0.4697 0.0000
0.8283 0.4747 0.0000
0.8283 0.4798 0.0000
0.8283 0.4848 0.0000
0.8283 0.4899 0.0000
0.8283 0.4949 0.0000
0.8283 0.5000 0.0000
0.8384 0.0000 0.0000
0.8384 0.0051 0.0000
0.8384 0.0101 0.0000
0.8384 0.0152 0.0000
0.8384 0.0202 0.0000
0.8384 0.0253 0.0000
0.8384 0.0303 0.0000
0.8384 0.0354 0.0000
0.8384 0.0404 0.0000
0.8384 0.0455 0.0000
0.8384 0.0505 0.0000
0.8384 0.0556 0.0000
0.8384 0.0606 0.0000
0.8384 0.0657 0.0000
0.8384 0.0707 0.0000
0.8384 0.0758 0.0000
0.8384 0.0808 0.0000
0.8384 0.0859 0.0000
0.8384 0.0909 0.0000
0.8384 0.0960 0.0000
0.8384 0.1010 0.0000
0.8384 0.1061 0.0000
0.8384 0.1111 0.0000
0.8384 0.1162 0.0000
0.8384 0.1212 0.0000
0.8384 0.1263 0.0000
0.8384 0.1313 0.0000
0.8384 0.1364 0.0000
0.8384 0.1414 0.0000
0.8384 0.1465 0.0000
0.8384 0.1515 0.0000
0.8384 0.1566 0.0000
0.8384 0.1616 0.0000
0.8384 0.1667 0.0000
0.8384 0.1717 0.0000
0.8384 0.1768 0.0000
0.8384 0.1818 0.0000
0.8384 0.1869 0.0000
0.8384 0.1919 0.0000
0.8384 0.1970 0.0000
0.8384 0.2020 0.0000
0.8384 0.2071 0.0000
0.8384 0.2121 0.0000
0.8384 0.2172 0.0000
0.8384 0.2222 0.0000
0.8384 0.2273 0.0000
0.8384 0.2323 0.0000
0.8384 0.2374 0.0000
0.8384 0.2424 0.0000
0.8384 0.2475 0.0000
0.8384 0.2525 0.0000
0.8384 0.2576 0.0000
0.8384 0.2626 0.0000
0.8384 0.2677 0.0000
0.8384 0.2727 0.0000
0.8384 0.2778 0.0000
0.8384 0.2828 0.0000
0.8384 0.2879 0.0000
0.8384 0.2929 0.0000
0.8384 0.2980 0.0000
0.8384 0.3030 0.0000
0.8384 0.3081 0.0000
0.8384 0.3131 0.0000
0.8384 0.3182 0.0000
0.8384 0.3232 0.0000
0.8384 0.3283 0.0000
0.8384 0.3333 0.0000
0.8384 0.3384 0.0000
0.8384 0.3434 0.0000
0.8384 0.3485 0.0000
0.8384 0.3535 0.0000
0.8384 0.3586 0.0000
0.8384 0.3636 0.0000
0.8384 0.3687 0.0000
0.8384 0.3737 0.0000
0.8384 0.3788 0.0000
0.8384 0.3838 0.0000
0.8384 0.3889 0.0000
0.8384 0.3939 0.0000
0.8384 0.3990 0.0000
0.8384 0.4040 0.0000
0.8384 0.4091 0.0000
0.8384 0.4141 0.0000
0.8384 0.4192 0.0000
0.8384 0.4242 0.0000
0.8384 0.4293 0.0000
0.8384 0.4343 0.0000
0.8384 0.4394 0.0000
0.8384 0.4444 0.0000
0.8384 0.4495 0.0000
0.8384 0.4545 0.0000
0.8384 0.4596 0.0000
0.8384 0.4646 0.0000
0.8384 0.4697 0.0000
0.8384 0.4747 0.0000
0.8384 0.4798 0.0000
0.8384 0.4848 0.0000
0.8384 0.4899 0.0000
0.8384 0.4949 0.0000
0.8384 0.5000 0.0000
0.8485 0.0000 0.0000
0.8485 0.0051 0.0000
0.8485 0.0101 0.0000
0.8485 0.0152 0.0000
0.8485 0.0202 0.0000
0.8485 0.0253 0.0000
0.8485 0.0303 0.0000
0.8485 0.0354 0.0000
0.8485 0.0404 0.0000
0.8485 0.0455 0.0000
0.8485 0.0505 0.0000
0.8485 0.0556 0.0000
0.8485 0.0606 0.0000
0.8485 0.0657 0.0000
0.8485 0.0707 0.0000
0.8485 0.0758 0.0000
0.8485 0.0808 0.0000
0.8485 0.0859 0.0000
0.8485 0.0909 0.0000
0.8485 0.0960 0.0000
0.8485 0.1010 0.0000
0.8485 0.1061 0.0000
0.8485 0.1111 0.0000
0.8485 0.1162 0.0000
0.8485 0.1212 0.0000
0.8485 0.1263 0.0000
0.8485 0.1313 0.0000
0.8485 0.1364 0.0000
0.8485 0.1414 0.0000
0.8485 0.1465 0.0000
0.8485 0.1515 0.0000
0.8485 0.1566 0.0000
0.8485 0.1616 0.0000
0.8485 0.1667 0.0000
0.8485 0.1717 0.0000
0.8485 0.1768 0.0000
0.8485 0.1818 0.0000
0.8485 0.1869 0.0000
0.8485 0.1919 0.0000
0.8485 0.1970 0.0000
0.8485 0.2020 0.0000
0.8485 0.2071 0.0000
0.8485 0.2121 0.0000
0.8485 0.2172 0.0000
0.8485 0.2222 0.0000
0.8485 0.2273 0.0000
0.8485 0.2323 0.0000
0.8485 0.2374 0.0000
0.8485 0.2424 0.0000
0.8485 0.2475 0.0000
0.8485 0.2525 0.0000
0.8485 0.2576 0.0000
0.8485 0.2626 0.0000
0.8485 0.2677 0.0000
0.8485 0.2727 0.0000
0.8485 0.2778 0.0000
0.8485 0.2828 0.0000
0.8485 0.2879 0.0000
0.8485 0.2929 0.0000
0.8485 0.2980 0.0000
0.8485 0.3030 0.0000
0.8485 0.3081 0.0000
0.8485 0.3131 0.0000
0.8485 0.3182 0.0000
0.8485 0.3232 0.0000
0.8485 0.3283 0.0000
0.8485 0.3333 0.0000
0.8485 0.3384 0.0000
0.8485 0.3434 0.0000
0.8485 0.3485 0.0000
0.8485 0.3535 0.0000
0.8485 0.3586 0.0000
0.8485 0.3636 0.0000
0.8485 0.3687 0.0000
0.8485 0.3737 0.0000
0.8485 0.3788 0.0000
0.8485 0.3838 0.0000
0.8485 0.3889 0.0000
0.8485 0.3939 0.0000
0.8485 0.3990 0.0000
0.8485 0.4040 0.0000
0.8485 0.4091 0.0000
0.8485 0.4141 0.0000
0.8485 0.4192 0.0000
0.8485 0.4242 0.0000
0.8485 0.4293 0.0000
0.8485 0.4343 0.0000
0.8485 0.4394 0.0000
0.8485 0.4444 0.0000
0.8485 0.4495 0.0000
0.8485 0.4545 0.0000
0.8485 0.4596 0.0000
0.8485 0.4646 0.0000
0.8485 0.4697 0.0000
0.8485 0.4747 0.0000
0.8485 0.4798 0.0000
0.8485 0.4848 0.0000
0.8485 0.4899 0.0000
0.8485 0.4949 0.0000
0.8485 0.5000 0.0000
0.8586 0.0000 0.0000
0.8586 0.0051 0.0000
0.8586 0.0101 0.0000
0.8586 0.0152 0.0000
0.8586 0.0202 0.0000
0.8586 0.0253 0.0000
0.8586 0.0303 0.0000
0.8586 0.0354 0.0000
0.8586 0.0404 0.0000
0.8586 0.0455 0.0000
0.8586 0.0505 0.0000
0.8586 0.0556 0.0000
0.8586 0.0606 0.0000
0.8586 0.0657 0.0000
0.8586 0.0707 0.0000
0.8586 0.0758 0.0000
0.8586 0.0808 0.0000
0.8586 0.0859 0.0000
0.8586 0.0909 0.0000
0.8586 0.0960 0.0000
0.8586 0.1010 0.0000
0.8586 0.1061 0.0000
0.8586 0.1111 0.0000
0.8586 0.1162 0.0000
0.8586 0.1212 0.0000
0.8586 0.1263 0.0000
0.8586 0.1313 0.0000
0.8586 0.1364 0.0000
0.8586 0.1414 0.0000
0.8586 0.1465 0.0000
0.8586 0.1515 0.0000
0.8586 0.1566 0.0000
0.8586 0.1616 0.0000
0.8586 0.1667 0.0000
0.8586 0.1717 0.0000
0.8586 0.1768 0.0000
0.8586 0.1818 0.0000
0.8586 0.1869 0.0000
0.8586 0.1919 0.0000
0.8586 0.1970 0.0000
0.8586 0.2020 0.0000
0.8586 0.2071 0.0000
0.8586 0.2121 0.0000
0.8586 0.2172 0.0000
0.8586 0.2222 0.0000
0.8586 0.2273 0.0000
0.8586 0.2323 0.0000
0.8586 0.2374 0.0000
0.8586 0.2424 0.0000
0.8586 0.2475 0.0000
0.8586 0.2525 0.0000
0.8586 0.2576 0.0000
0.8586 0.2626 0.0000
0.8586 0.2677 0.0000
0.8586 0.2727 0.0000
0.8586 0.2778 0.0000
0.8586 0.2828 0.0000
0.8586 0.2879 0.0000
0.8586 0.2929 0.0000
0.8586 0.2980 0.0000
0.8586 0.3030 0.0000
0.8586 0.3081 0.0000
0.8586 0.3131 0.0000
0.8586 0.3182 0.0000
0.8586 0.3232 0.0000
0.8586 0.3283 0.0000
0.8586 0.3333 0.0000
0.8586 0.3384 0.0000
0.8586 0.3434 0.0000
0.8586 0.3485 0.0000
0.8586 0.3535 0.0000
0.8586 0.3586 0.0000
0.8586 0.3636 0.0000
0.8586 0.3687 0.0000
0.8586 0.3737 0.0000
0.8586 0.3788 0.0000
0.8586 0.3838 0.0000
0.8586 0.3889 0.0000
0.8586 0.3939 0.0000
0.8586 0.3990 0.0000
0.8586 0.4040 0.0000
0.8586 0.4091 0.0000
0.8586 0.4141 0.0000
0.8586 0.4192 0.0000
0.8586 0.4242 0.0000
0.8586 0.4293 0.0000
0.8586 0.4343 0.0000
0.8586 0.4394 0.0000
0.8586 0.4444 0.0000
0.8586 0.4495 0.0000
0.8586 0.4545 0.0000
0.8586 0.4596 0.0000
0.8586 0.4646 0.0000
0.8586 0.4697 0.0000
0.8586 0.4747 0.0000
0.8586 0.4798 0.0000
0.8586 0.4848 0.0000
0.8586 0.4899 0.0000
0.8586 0.4949 0.0000
0.8586 0.5000 0.0000
0.8687 0.0000 0.0000
0.8687 0.0051 0.0000
0.8687 0.0101 0.0000
0.8687 0.0152 0.0000
0.8687 0.0202 0.0000
0.8687 0.0253 0.0000
0.8687 0.0303 0.0000
0.8687 0.0354 0.0000
0.8687 0.0404 0.0000
0.8687 0.0455 0.0000
0.8687 0.0505 0.0000
0.8687 0.0556 0.0000
0.8687 0.0606 0.0000
0.8687 0.0657 0.0000
0.8687 0.0707 0.0000
0.8687 0.0758 0.0000
0.8687 0.0808 0.0000
0.8687 0.0859 0.0000
0.8687 0.0909 0.0000
0.8687 0.0960 0.0000
0.8687 0.1010 0.0000
0.8687 0.1061 0.0000
0.8687 0.1111 0.0000
0.8687 0.1162 0.0000
0.8687 0.1212 0.0000
0.8687 0.1263 0.0000
0.8687 0.1313 0.0000
0.8687 0.1364 0.0000
0.8687 0.1414 0.0000
0.8687 0.1465 0.0000
0.8687 0.1515 0.0000
0.8687 0.1566 0.0000
0.8687 0.1616 0.0000
0.8687 0.1667 0.0000
0.8687 0.1717 0.0000
0.8687 0.1768 0.0000
0.8687 0.1818 0.0000
0.8687 0.1869 0.0000
0.8687 0.1919 0.0000
0.8687 0.1970 0.0000
0.8687 0.2020 0.0000
0.8687 0.2071 0.0000
0.8687 0.2121 0.0000
0.8687 0.2172 0.0000
0.8687 0.2222 0.0000
0.8687 0.2273 0.0000
0.8687 0.2323 0.0000
0.8687 0.2374 0.0000
0.8687 0.2424 0.0000
0.8687 0.2475 0.0000
0.8687 0.2525 0.0000
0.8687 0.2576 0.0000
0.8687 0.2626 0.0000
0.8687 0.2677 0.0000
0.8687 0.2727 0.0000
0.8687 0.2778 0.0000
0.8687 0.2828 0.0000
0.8687 0.2879 0.0000
0.8687 0.2929 0.0000
0.8687 0.2980 0.0000
0.8687 0.3030 0.0000
0.8687 0.3081 0.0000
0.8687 0.3131 0.0000
0.8687 0.3182 0.0000
0.8687 0.3232 0.0000
0.8687 0.3283 0.0000
0.8687 0.3333 0.0000
0.8687 0.3384 0.0000
0.8687 0.3434 0.0000
0.8687 0.3485 0.0000
0.8687 0.3535 0.0000
0.8687 0.3586 0.0000
0.8687 0.3636 0.0000
0.8687 0.3687 0.0000
0.8687 0.3737 0.0000
0.8687 0.3788 0.0000
0.8687 0.3838 0.0000
0.8687 0.3889 0.0000
0.8687 0.3939 0.0000
0.8687 0.3990 0.0000
0.8687 0.4040 0.0000
0.8687 0.4091 0.0000
0.8687 0.4141 0.0000
0.8687 0.4192 0.0000
0.8687 0.4242 0.0000
0.8687 0.4293 0.0000
0.8687 0.4343 0.0000
0.8687 0.4394 0.0000
0.8687 0.4444 0.0000
0.8687 0.4495 0.0000
0.8687 0.4545 0.0000
0.8687 0.4596 0.0000
0.8687 0.4646 0.0000
0.8687 0.4697 0.0000
0.8687 0.4747 0.0000
0.8687 0.4798 0.0000
0.8687 0.4848 0.0000
0.8687 0.4899 0.0000
0.8687 0.4949 0.0000
0.8687 0.5000 0.0000
0.8788 0.0000 0.0000
0.8788 0.0051 0.0000
0.8788 0.0101 0.0000
0.8788 0.0152 0.0000
0.8788 0.0202 0.0000
0.8788 0.0253 0.0000
0.8788 0.0303 0.0000
0.8788 0.0354 0.0000
0.8788 0.0404 0.0000
0.8788 0.0455 0.0000
0.8788 0.0505 0.0000
0.8788 0.0556 0.0000
0.8788 0.0606 0.0000
0.8788 0.0657 0.0000
0.8788 0.0707 0.0000
0.8788 0.0758 0.0000
0.8788 0.0808 0.0000
0.8788 0.0859 0.0000
0.8788 0.0909 0.0000
0.8788 0.0960 0.0000
0.8788 0.1010 0.0000
0.8788 0.1061 0.0000
0.8788 0.1111 0.0000
0.8788 0.1162 0.0000
0.8788 0.1212 0.0000
0.8788 0.1263 0.0000
0.8788 0.1313 0.0000
0.8788 0.1364 0.0000
0.8788 0.1414 0.0000
0.8788 0.1465 0.0000
0.8788 0.1515 0.0000
0.8788 0.1566 0.0000
0.8788 0.1616 0.0000
0.8788 0.1667 0.0000
0.8788 0.1717 0.0000
0.8788 0.1768 0.0000
0.8788 0.1818 0.0000
0.8788 0.1869 0.0000
0.8788 0.1919 0.0000
0.8788 0.1970 0.0000
0.8788 0.2020 0.0000
0.8788 0.2071 0.0000
0.8788 0.2121 0.0000
0.8788 0.2172 0.0000
0.8788 0.2222 0.0000
0.8788 0.2273 0.0000
0.8788 0.2323 0.0000
0.8788 0.2374 0.0000
0.8788 0.2424 0.0000
0.8788 0.2475 0.0000
0.8788 0.2525 0.0000
0.8788 0.2576 0.0000
0.8788 0.2626 0.0000
0.8788 0.2677 0.0000
0.8788 0.2727 0.0000
0.8788 0.2778 0.0000
0.8788 0.2828 0.0000
0.8788 0.2879 0.0000
0.8788 0.2929 0.0000
0.8788 0.2980 0.0000
0.8788 0.3030 0.0000
0.8788 0.3081 0.0000
0.8788 0.3131 0.0000
0.8788 0.3182 0.0000
0.8788 0.3232 0.0000
0.8788 0.3283 0.0000
0.8788 0.3333 0.0000
0.8788 0.3384 0.0000
0.8788 0.3434 0.0000
0.8788 0.3485 0.0000
0.8788 0.3535 0.0000
0.8788 0.3586 0.0000
0.8788 0.3636 0.0000
0.8788 0.3687 0.0000
0.8788 0.3737 0.0000
0.8788 0.3788 0.0000
0.8788 0.3838 0.0000
0.8788 0.3889 0.0000
0.8788 0.3939 0.0000
0.8788 0.3990 0.0000
0.8788 0.4040 0.0000
0.8788 0.4091 0.0000
0.8788 0.4141 0.0000
0.8788 0.4192 0.0000
0.8788 0.4242 0.0000
0.8788 0.4293 0.0000
0.8788 0.4343 0.0000
0.8788 0.4394 0.0000
0.8788 0.4444 0.0000
0.8788 0.4495 0.0000
0.8788 0.4545 0.0000
0.8788 0.4596 0.0000
0.8788 0.4646 0.0000
0.8788 0.4697 0.0000
0.8788 0.4747 0.0000
0.8788 0.4798 0.0000
0.8788 0.4848 0.0000
0.8788 0.4899 0.0000
0.8788 0.4949 0.0000
0.8788 0.5000 0.0000
0.8889 0.0000 0.0000
0.8889 0.0051 0.0000
0.8889 0.0101 0.0000
0.8889 0.0152 0.0000
0.8889 0.0202 0.0000
0.8889 0.0253 0.0000
0.8889 0.0303 0.0000
0.8889 0.0354 0.0000
0.8889 0.0404 0.0000
0.8889 0.0455 0.0000
0.8889 0.0505 0.0000
0.8889 0.0556 0.0000
0.8889 0.0606 0.0000
0.8889 0.0657 0.0000
0.8889 0.0707 0.0000
0.8889 0.0758 0.0000
0.8889 0.0808 0.0000
0.8889 0.0859 0.0000
0.8889 0.0909 0.0000
0.8889 0.0960 0.0000
0.8889 0.1010 0.0000
0.8889 0.1061 0.0000
0.8889 0.1111 0.0000
0.8889 0.1162 0.0000
0.8889 0.1212 0.0000
0.8889 0.1263 0.0000
0.8889 0.1313 0.0000
0.8889 0.1364 0.0000
0.8889 0.1414 0.0000
0.8889 0.1465 0.0000
0.8889 0.1515 0.0000
0.8889 0.1566 0.0000
0.8889 0.1616 0.0000
0.8889 0.1667 0.0000
0.8889 0.1717 0.0000
0.8889 0.1768 0.0000
0.8889 0.1818 0.0000
0.8889 0.1869 0.0000
0.8889 0.1919 0.0000
0.8889 0.1970 0.0000
0.8889 0.2020 0.0000
0.8889 0.2071 0.0000
0.8889 0.2121 0.0000
0.8889 0.2172 0.0000
0.8889 0.2222 0.0000
0.8889 0.2273 0.0000
0.8889 0.2323 0.0000
0.8889 0.2374 0.0000
0.8889 0.2424 0.0000
0.8889 0.2475 0.0000
0.8889 0.2525 0.0000
0.8889 0.2576 0.0000
0.8889 0.2626 0.0000
0.8889 0.2677 0.0000
0.8889 0.2727 0.0000
0.8889 0.2778 0.0000
0.8889 0.2828 0.0000
0.8889 0.2879 0.0000
0.8889 0.2929 0.0000
0.8889 0.2980 0.0000
0.8889 0.3030 0.0000
0.8889 0.3081 0.0000
0.8889 0.3131 0.0000
0.8889 0.3182 0.0000
0.8889 0.3232 0.0000
0.8889 0.3283 0.0000
0.8889 0.3333 0.0000
0.8889 0.3384 0.0000
0.8889 0.3434 0.0000
0.8889 0.3485 0.0000
0.8889 0.3535 0.0000
0.8889 0.3586 0.0000
0.8889 0.3636 0.0000
0.8889 0.3687 0.0000
0.8889 0.3737 0.0000
0.8889 0.3788 0.0000
0.8889 0.3838 0.0000
0.8889 0.3889 0.0000
0.8889 0.3939 0.0000
0.8889 0.3990 0.0000
0.8889 0.4040 0.0000
0.8889 0.4091 0.0000
0.8889 0.4141 0.0000
0.8889 0.4192 0.0000
0.8889 0.4242 0.0000
0.8889 0.4293 0.0000
0.8889 0.4343 0.0000
0.8889 0.4394 0.0000
0.8889 0.4444 0.0000
0.8889 0.4495 0.0000
0.8889 0.4545 0.0000
0.8889 0.4596 0.0000
0.8889 0.4646 0.0000
0.8889 0.4697 0.0000
0.8889 0.4747 0.0000
0.8889 0.4798 0.0000
0.8889 0.4848 0.0000
0.8889 0.4899 0.0000
0.8889 0.4949 0.0000
0.8889 0.5000 0.0000
0.8990 0.0000 0.0000
0.8990 0.0051 0.0000
0.8990 0.0101 0.0000
0.8990 0.0152 0.0000
0.8990 0.0202 0.0000
0.8990 0.0253 0.0000
0.8990 0.0303 0.0000
0.8990 0.0354 0.0000
0.8990 0.0404 0.0000
0.8990 0.0455 0.0000
0.8990 0.0505 0.0000
0.8990 0.0556 0.0000
0.8990 0.0606 0.0000
0.8990 0.0657 0.0000
0.8990 0.0707 0.0000
0.8990 0.0758 0.0000
0.8990 0.0808 0.0000
0.8990 0.0859 0.0000
0.8990 0.0909 0.0000
0.8990 0.0960 0.0000
0.8990 0.1010 0.0000
0.8990 0.1061 0.0000
0.8990 0.1111 0.0000
0.8990 0.1162 0.0000
0.8990 0.1212 0.0000
0.8990 0.1263 0.0000
0.8990 0.1313 0.0000
0.8990 0.1364 0.0000
0.8990 0.1414 0.0000
0.8990 0.1465 0.0000
0.8990 0.1515 0.0000
0.8990 0.1566 0.0000
0.8990 0.1616 0.0000
0.8990 0.1667 0.0000
0.8990 0.1717 0.0000
0.8990 0.1768 0.0000
0.8990 0.1818 0.0000
0.8990 0.1869 0.0000
0.8990 0.1919 0.0000
0.8990 0.1970 0.0000
0.8990 0.2020 0.0000
0.8990 0.2071 0.0000
0.8990 0.2121 0.0000
0.8990 0.2172 0.0000
0.8990 0.2222 0.0000
0.8990 0.2273 0.0000
0.8990 0.2323 0.0000
0.8990 0.2374 0.0000
0.8990 0.2424 0.0000
0.8990 0.2475 0.0000
0.8990 0.2525 0.0000
0.8990 0.2576 0.0000
0.8990 0.2626 0.0000
0.8990 0.2677 0.0000
0.8990 0.2727 0.0000
0.8990 0.2778 0.0000
0.8990 0.2828 0.0000
0.8990 0.2879 0.0000
0.8990 0.2929 0.0000
0.8990 0.2980 0.0000
0.8990 0.3030 0.0000
0.8990 0.3081 0.0000
0.8990 0.3131 0.0000
0.8990 0.3182 0.0000
0.8990 0.3232 0.0000
0.8990 0.3283 0.0000
0.8990 0.3333 0.0000
0.8990 0.3384 0.0000
0.8990 0.3434 0.0000
0.8990 0.3485 0.0000
0.8990 0.3535 0.0000
0.8990 0.3586 0.0000
0.8990 0.3636 0.0000
0.8990 0.3687 0.0000
0.8990 0.3737 0.0000
0.8990 0.3788 0.0000
0.8990 0.3838 0.0000
0.8990 0.3889 0.0000
0.8990 0.3939 0.0000
0.8990 0.3990 0.0000
0.8990 0.4040 0.0000
0.8990 0.4091 0.0000
0.8990 0.4141 0.0000
0.8990 0.4192 0.0000
0.8990 0.4242 0.0000
0.8990 0.4293 0.0000
0.8990 0.4343 0.0000
0.8990 0.4394 0.0000
0.8990 0.4444 0.0000
0.8990 0.4495 0.0000
0.8990 0.4545 0.0000
0.8990 0.4596 0.0000
0.8990 0.4646 0.0000
0.8990 0.4697 0.0000
0.8990 0.4747 0.0000
0.8990 0.4798 0.0000
0.8990 0.4848 0.0000
0.8990 0.4899 0.0000
0.8990 0.4949 0.0000
0.8990 0.5000 0.0000
0.9091 0.0000 0.0000
0.9091 0.0051 0.0000
0.9091 0.0101 0.0000
0.9091 0.0152 0.0000
0.9091 0.0202 0.0000
0.9091 0.0253 0.0000
0.9091 0.0303 0.0000
0.9091 0.0354 0.0000
0.9091 0.0404 0.0000
0.9091 0.0455 0.0000
0.9091 0.0505 0.0000
0.9091 0.0556 0.0000
0.9091 0.0606 0.0000
0.9091 0.0657 0.0000
0.9091 0.0707 0.0000
0.9091 0.0758 0.0000
0.9091 0.0808 0.0000
0.9091 0.0859 0.0000
0.9091 0.0909 0.0000
0.9091 0.0960 0.0000
0.9091 0.1010 0.0000
0.9091 0.1061 0.0000
0.9091 0.1111 0.0000
0.9091 0.1162 0.0000
0.9091 0.1212 0.0000
0.9091 0.1263 0.0000
0.9091 0.1313 0.0000
0.9091 0.1364 0.0000
0.9091 0.1414 0.0000
0.9091 0.1465 0.0000
0.9091 0.1515 0.0000
0.9091 0.1566 0.0000
0.9091 0.1616 0.0000
0.9091 0.1667 0.0000
0.9091 0.1717 0.0000
0.9091 0.1768 0.0000
0.9091 0.1818 0.0000
0.9091 0.1869 0.0000
0.9091 0.1919 0.0000
0.9091 0.1970 0.0000
0.9091 0.2020 0.0000
0.9091 0.2071 0.0000
0.9091 0.2121 0.0000
0.9091 0.2172 0.0000
0.9091 0.2222 0.0000
0.9091 0.2273 0.0000
0.9091 0.2323 0.0000
0.9091 0.2374 0.0000
0.9091 0.2424 0.0000
0.9091 0.2475 0.0000
0.9091 0.2525 0.0000
0.9091 0.2576 0.0000
0.9091 0.2626 0.0000
0.9091 0.2677 0.0000
0.9091 0.2727 0.0000
0.9091 0.2778 0.0000
0.9091 0.2828 0.0000
0.9091 0.2879 0.0000
0.9091 0.2929 0.0000
0.9091 0.2980 0.0000
0.9091 0.3030 0.0000
0.9091 0.3081 0.0000
0.9091 0.3131 0.0000
0.9091 0.3182 0.0000
0.9091 0.3232 0.0000
0.9091 0.3283 0.0000
0.9091 0.3333 0.0000
0.9091 0.3384 0.0000
0.9091 0.3434 0.0000
0.9091 0.3485 0.0000
0.9091 0.3535 0.0000
0.9091 0.3586 0.0000
0.9091 0.3636 0.0000
0.9091 0.3687 0.0000
0.9091 0.3737 0.0000
0.9091 0.3788 0.0000
0.9091 0.3838 0.0000
0.9091 0.3889 0.0000
0.9091 0.3939 0.0000
0.9091 0.3990 0.0000
0.9091 0.4040 0.0000
0.9091 0.4091 0.0000
0.9091 0.4141 0.0000
0.9091 0.4192 0.0000
0.9091 0.4242 0.0000
0.9091 0.4293 0.0000
0.9091 0.4343 0.0000
0.9091 0.4394 0.0000
0.9091 0.4444 0.0000
0.9091 0.4495 0.0000
0.9091 0.4545 0.0000
0.9091 0.4596 0.0000
0.9091 0.4646 0.0000
0.9091 0.4697 0.0000
0.9091 0.4747 0.0000
0.9091 0.4798 0.0000
0.9091 0.4848 0.0000
0.9091 0.4899 0.0000
0.9091 0.4949 0.0000
0.9091 0.5000 0.0000
0.9192 0.0000 0.0000
0.9192 0.0051 0.0000
0.9192 0.0101 0.0000
0.9192 0.0152 0.0000
0.9192 0.0202 0.0000
0.9192 0.0253 0.0000
0.9192 0.0303 0.0000
0.9192 0.0354 0.0000
0.9192 0.0404 0.0000
0.9192 0.0455 0.0000
0.9192 0.0505 0.0000
0.9192 0.0556 0.0000
0.9192 0.0606 0.0000
0.9192 0.0657 0.0000
0.9192 0.0707 0.0000
0.9192 0.0758 0.0000
0.9192 0.0808 0.0000
0.9192 0.0859 0.0000
0.9192 0.0909 0.0000
0.9192 0.0960 0.0000
0.9192 0.1010 0.0000
0.9192 0.1061 0.0000
0.9192 0.1111 0.0000
0.9192 0.1162 0.0000
0.9192 0.1212 0.0000
0.9192 0.1263 0.0000
0.9192 0.1313 0.0000
0.9192 0.1364 0.0000
0.9192 0.1414 0.0000
0.9192 0.1465 0.0000
0.9192 0.1515 0.0000
0.9192 0.1566 0.0000
0.9192 0.1616 0.0000
0.9192 0.1667 0.0000
0.9192 0.1717 0.0000
0.9192 0.1768 0.0000
0.9192 0.1818 0.0000
0.9192 0.1869 0.0000
0.9192 0.1919 0.0000
0.9192 0.1970 0.0000
0.9192 0.2020 0.0000
0.9192 0.2071 0.0000
0.9192 0.2121 0.0000
0.9192 0.2172 0.0000
0.9192 0.2222 0.0000
0.9192 0.2273 0.0000
0.9192 0.2323 0.0000
0.9192 0.2374 0.0000
0.9192 0.2424 0.0000
0.9192 0.2475 0.0000
0.9192 0.2525 0.0000
0.9192 0.2576 0.0000
0.9192 0.2626 0.0000
0.9192 0.2677 0.0000
0.9192 0.2727 0.0000
0.9192 0.2778 0.0000
0.9192 0.2828 0.0000
0.9192 0.2879 0.0000
0.9192 0.2929 0.0000
0.9192 0.2980 0.0000
0.9192 0.3030 0.0000
0.9192 0.3081 0.0000
0.9192 0.3131 0.0000
0.9192 0.3182 0.0000
0.9192 0.3232 0.0000
0.9192 0.3283 0.0000
0.9192 0.3333 0.0000
0.9192 0.3384 0.0000
0.9192 0.3434 0.0000
0.9192 0.3485 0.0000
0.9192 0.3535 0.0000
0.9192 0.3586 0.0000
0.9192 0.3636 0.0000
0.9192 0.3687 0.0000
0.9192 0.3737 0.0000
0.9192 0.3788 0.0000
0.9192 0.3838 0.0000
0.9192 0.3889 0.0000
0.9192 0.3939 0.0000
0.9192 0.3990 0.0000
0.9192 0.4040 0.0000
0.9192 0.4091 0.0000
0.9192 0.4141 0.0000
0.9192 0.4192 0.0000
0.9192 0.4242 0.0000
0.9192 0.4293 0.0000
0.9192 0.4343 0.0000
0.9192 0.4394 0.0000
0.9192 0.4444 0.0000
0.9192 0.4495 0.0000
0.9192 0.4545 0.0000
0.9192 0.4596 0.0000
0.9192 0.4646 0.0000
0.9192 0.4697 0.0000
0.9192 0.4747 0.0000
0.9192 0.4798 0.0000
0.9192 0.4848 0.0000
0.9192 0.4899 0.0000
0.9192 0.4949 0.0000
0.9192 0.5000 0.0000
0.9293 0.0000 0.0000
0.9293 0.0051 0.0000
0.9293 0.0101 0.0000
0.9293 0.0152 0.0000
0.9293 0.0202 0.0000
0.9293 0.0253 0.0000
0.9293 0.0303 0.0000
0.9293 0.0354 0.0000
0.9293 0.0404 0.0000
0.9293 0.0455 0.0000
0.9293 0.0505 0.0000
0.9293 0.0556 0.0000
0.9293 0.0606 0.0000
0.9293 0.0657 0.0000
0.9293 0.0707 0.0000
0.9293 0.0758 0.0000
0.9293 0.0808 0.0000
0.9293 0.0859 0.0000
0.9293 0.0909 0.0000
0.9293 0.0960 0.0000
0.9293 0.1010 0.0000
0.9293 0.1061 0.0000
0.9293 0.1111 0.0000
0.9293 0.1162 0.0000
0.9293 0.1212 0.0000
0.9293 0.1263 0.0000
0.9293 0.1313 0.0000
0.9293 0.1364 0.0000
0.9293 0.1414 0.0000
0.9293 0.1465 0.0000
0.9293 0.1515 0.0000
0.9293 0.1566 0.0000
0.9293 0.1616 0.0000
0.9293 0.1667 0.0000
0.9293 0.1717 0.0000
0.9293 0.1768 0.0000
0.9293 0.1818 0.0000
0.9293 0.1869 0.0000
0.9293 0.1919 0.0000
0.9293 0.1970 0.0000
0.9293 0.2020 0.0000
0.9293 0.2071 0.0000
0.9293 0.2121 0.0000
0.9293 0.2172 0.0000
0.9293 0.2222 0.0000
0.9293 0.2273 0.0000
0.9293 0.2323 0.0000
0.9293 0.2374 0.0000
0.9293 0.2424 0.0000
0.9293 0.2475 0.0000
0.9293 0.2525 0.0000
0.9293 0.2576 0.0000
0.9293 0.2626 0.0000
0.9293 0.2677 0.0000
0.9293 0.2727 0.0000
0.9293 0.2778 0.0000
0.9293 0.2828 0.0000
0.9293 0.2879 0.0000
0.9293 0.2929 0.0000
0.9293 0.2980 0.0000
0.9293 0.3030 0.0000
0.9293 0.3081 0.0000
0.9293 0.3131 0.0000
0.9293 0.3182 0.0000
0.9293 0.3232 0.0000
0.9293 0.3283 0.0000
0.9293 0.3333 0.0000
0.9293 0.3384 0.0000
0.9293 0.3434 0.0000
0.9293 0.3485 0.0000
0.9293 0.3535 0.0000
0.9293 0.3586 0.0000
0.9293 0.3636 0.0000
0.9293 0.3687 0.0000
0.9293 0.3737 0.0000
0.9293 0.3788 0.0000
0.9293 0.3838 0.0000
0.9293 0.3889 0.0000
0.9293 0.3939 0.0000
0.9293 0.3990 0.0000
0.9293 0.4040 0.0000
0.9293 0.4091 0.0000
0.9293 0.4141 0.0000
0.9293 0.4192 0.0000
0.9293 0.4242 0.0000
0.9293 0.4293 0.0000
0.9293 0.4343 0.0000
0.9293 0.4394 0.0000
0.9293 0.4444 0.0000
0.9293 0.4495 0.0000
0.9293 0.4545 0.0000
0.9293 0.4596 0.0000
0.9293 0.4646 0.0000
0.9293 0.4697 0.0000
0.9293 0.4747 0.0000
0.9293 0.4798 0.0000
0.9293 0.4848 0.0000
0.9293 0.4899 0.0000
0.9293 0.4949 0.0000
0.9293 0.5000 0.0000
0.9394 0.0000 0.0000
0.9394 0.0051 0.0000
0.9394 0.0101 0.0000
0.9394 0.0152 0.0000
0.9394 0.0202 0.0000
0.9394 0.0253 0.0000
0.9394 0.0303 0.0000
0.9394 0.0354 0.0000
0.9394 0.0404 0.0000
0.9394 0.0455 0.0000
0.9394 0.0505 0.0000
0.9394 0.0556 0.0000
0.9394 0.0606 0.0000
0.9394 0.0657 0.0000
0.9394 0.0707 0.0000
0.9394 0.0758 0.0000
0.9394 0.0808 0.0000
0.9394 0.0859 0.0000
0.9394 0.0909 0.0000
0.9394 0.0960 0.0000
0.9394 0.1010 0.0000
0.9394 0.1061 0.0000
0.9394 0.1111 0.0000
0.9394 0.1162 0.0000
0.9394 0.1212 0.0000
0.9394 0.1263 0.0000
0.9394 0.1313 0.0000
0.9394 0.1364 0.0000
0.9394 0.1414 0.0000
0.9394 0.1465 0.0000
0.9394 0.1515 0.0000
0.9394 0.1566 0.0000
0.9394 0.1616 0.0000
0.9394 0.1667 0.0000
0.9394 0.1717 0.0000
0.9394 0.1768 0.0000
0.9394 0.1818 0.0000
0.9394 0.1869 0.0000
0.9394 0.1919 0.0000
0.9394 0.1970 0.0000
0.9394 0.2020 0.0000
0.9394 0.2071 0.0000
0.9394 0.2121 0.0000
0.9394 0.2172 0.0000
0.9394 0.2222 0.0000
0.9394 0.2273 0.0000
0.9394 0.2323 0.0000
0.9394 0.2374 0.0000
0.9394 0.2424 0.0000
0.9394 0.2475 0.0000
0.9394 0.2525 0.0000
0.9394 0.2576 0.0000
0.9394 0.2626 0.0000
0.9394 0.2677 0.0000
0.9394 0.2727 0.0000
0.9394 0.2778 0.0000
0.9394 0.2828 0.0000
0.9394 0.2879 0.0000
0.9394 0.2929 0.0000
0.9394 0.2980 0.0000
0.9394 0.3030 0.0000
0.9394 0.3081 0.0000
0.9394 0.3131 0.0000
0.9394 0.3182 0.0000
0.9394 0.3232 0.0000
0.9394 0.3283 0.0000
0.9394 0.3333 0.0000
0.9394 0.3384 0.0000
0.9394 0.3434 0.0000
0.9394 0.3485 0.0000
0.9394 0.3535 0.0000
0.9394 0.3586 0.0000
0.9394 0.3636 0.0000
0.9394 0.3687 0.0000
0.9394 0.3737 0.0000
0.9394 0.3788 0.0000
0.9394 0.3838 0.0000
0.9394 0.3889 0.0000
0.9394 0.3939 0.0000
0.9394 0.3990 0.0000
0.9394 0.4040 0.0000
0.9394 0.4091 0.0000
0.9394 0.4141 0.0000
0.9394 0.4192 0.0000
0.9394 0.4242 0.0000
0.9394 0.4293 0.0000
0.9394 0.4343 0.0000
0.9394 0.4394 0.0000
0.9394 0.4444 0.0000
0.9394 0.4495 0.0000
0.9394 0.4545 0.0000
0.9394 0.4596 0.0000
0.9394 0.4646 0.0000
0.9394 0.4697 0.0000
0.9394 0.4747 0.0000
0.9394 0.4798 0.0000
0.9394 0.4848 0.0000
0.9394 0.4899 0.0000
0.9394 0.4949 0.0000
0.9394 0.5000 0.0000
0.9495 0.0000 0.0000
0.9495 0.0051 0.0000
0.9495 0.0101 0.0000
0.9495 0.0152 0.0000
0.9495 0.0202 0.0000
0.9495 0.0253 0.0000
0.9495 0.0303 0.0000
0.9495 0.0354 0.0000
0.9495 0.0404 0.0000
0.9495 0.0455 0.0000
0.9495 0.0505 0.0000
0.9495 0.0556 0.0000
0.9495 0.0606 0.0000
0.9495 0.0657 0.0000
0.9495 0.0707 0.0000
0.9495 0.0758 0.0000
0.9495 0.0808 0.0000
0.9495 0.0859 0.0000
0.9495 0.0909 0.0000
0.9495 0.0960 0.0000
0.9495 0.1010 0.0000
0.9495 0.1061 0.0000
0.9495 0.1111 0.0000
0.9495 0.1162 0.0000
0.9495 0.1212 0.0000
0.9495 0.1263 0.0000
0.9495 0.1313 0.0000
0.9495 0.1364 0.0000
0.9495 0.1414 0.0000
0.9495 0.1465 0.0000
0.9495 0.1515 0.0000
0.9495 0.1566 0.0000
0.9495 0.1616 0.0000
0.9495 0.1667 0.0000
0.9495 0.1717 0.0000
0.9495 0.1768 0.0000
0.9495 0.1818 0.0000
0.9495 0.1869 0.0000
0.9495 0.1919 0.0000
0.9495 0.1970 0.0000
0.9495 0.2020 0.0000
0.9495 0.2071 0.0000
0.9495 0.2121 0.0000
0.9495 0.2172 0.0000
0.9495 0.2222 0.0000
0.9495 0.2273 0.0000
0.9495 0.2323 0.0000
0.9495 0.2374 0.0000
0.9495 0.2424 0.0000
0.9495 0.2475 0.0000
0.9495 0.2525 0.0000
0.9495 0.2576 0.0000
0.9495 0.2626 0.0000
0.9495 0.2677 0.0000
0.9495 0.2727 0.0000
0.9495 0.2778 0.0000
0.9495 0.2828 0.0000
0.9495 0.2879 0.0000
0.9495 0.2929 0.0000
0.9495 0.2980 0.0000
0.9495 0.3030 0.0000
0.9495 0.3081 0.0000
0.9495 0.3131 0.0000
0.9495 0.3182 0.0000
0.9495 0.3232 0.0000
0.9495 0.3283 0.0000
0.9495 0.3333 0.0000
0.9495 0.3384 0.0000
0.9495 0.3434 0.0000
0.9495 0.3485 0.0000
0.9495 0.3535 0.0000
0.9495 0.3586 0.0000
0.9495 0.3636 0.0000
0.9495 0.3687 0.0000
0.9495 0.3737 0.0000
0.9495 0.3788 0.0000
0.9495 0.3838 0.0000
0.9495 0.3889 0.0000
0.9495 0.3939 0.0000
0.9495 0.3990 0.0000
0.9495 0.4040 0.0000
0.9495 0.4091 0.0000
0.9495 0.4141 0.0000
0.9495 0.4192 0.0000
0.9495 0.4242 0.0000
0.9495 0.4293 0.0000
0.9495 0.4343 0.0000
0.9495 0.4394 0.0000
0.9495 0.4444 0.0000
0.9495 0.4495 0.0000
0.9495 0.4545 0.0000
0.9495 0.4596 0.0000
0.9495 0.4646 0.0000
0.9495 0.4697 0.0000
0.9495 0.4747 0.0000
0.9495 0.4798 0.0000
0.9495 0.4848 0.0000
0.9495 0.4899 0.0000
0.9495 0.4949 0.0000
0.9495 0.5000 0.0000
0.9596 0.0000 0.0000
0.9596 0.0051 0.0000
0.9596 0.0101 0.0000
0.9596 0.0152 0.0000
0.9596 0.0202 0.0000
0.9596 0.0253 0.0000
0.9596 0.0303 0.0000
0.9596 0.0354 0.0000
0.9596 0.0404 0.0000
0.9596 0.0455 0.0000
0.9596 0.0505 0.0000
0.9596 0.0556 0.0000
0.9596 0.0606 0.0000
0.9596 0.0657 0.0000
0.9596 0.0707 0.0000
0.9596 0.0758 0.0000
0.9596 0.0808 0.0000
0.9596 0.0859 0.0000
0.9596 0.0909 0.0000
0.9596 0.0960 0.0000
0.9596 0.1010 0.0000
0.9596 0.1061 0.0000
0.9596 0.1111 0.0000
0.9596 0.1162 0.0000
0.9596 0.1212 0.0000
0.9596 0.1263 0.0000
0.9596 0.1313 0.0000
0.9596 0.1364 0.0000
0.9596 0.1414 0.0000
0.9596 0.1465 0.0000
0.9596 0.1515 0.0000
0.9596 0.1566 0.0000
0.9596 0.1616 0.0000
0.9596 0.1667 0.0000
0.9596 0.1717 0.0000
0.9596 0.1768 0.0000
0.9596 0.1818 0.0000
0.9596 0.1869 0.0000
0.9596 0.1919 0.0000
0.9596 0.1970 0.0000
0.9596 0.2020 0.0000
0.9596 0.2071 0.0000
0.9596 0.2121 0.0000
0.9596 0.2172 0.0000
0.9596 0.2222 0.0000
0.9596 0.2273 0.0000
0.9596 0.2323 0.0000
0.9596 0.2374 0.0000
0.9596 0.2424 0.0000
0.9596 0.2475 0.0000
0.9596 0.2525 0.0000
0.9596 0.2576 0.0000
0.9596 0.2626 0.0000
0.9596 0.2677 0.0000
0.9596 0.2727 0.0000
0.9596 0.2778 0.0000
0.9596 0.2828 0.0000
0.9596 0.2879 0.0000
0.9596 0.2929 0.0000
0.9596 0.2980 0.0000
0.9596 0.3030 0.0000
0.9596 0.3081 0.0000
0.9596 0.3131 0.0000
0.9596 0.3182 0.0000
0.9596 0.3232 0.0000
0.9596 0.3283 0.0000
0.9596 0.3333 0.0000
0.9596 0.3384 0.0000
0.9596 0.3434 0.0000
0.9596 0.3485 0.0000
0.9596 0.3535 0.0000
0.9596 0.3586 0.0000
0.9596 0.3636 0.0000
0.9596 0.3687 0.0000
0.9596 0.3737 0.0000
0.9596 0.3788 0.0000
0.9596 0.3838 0.0000
0.9596 0.3889 0.0000
0.9596 0.3939 0.0000
0.9596 0.3990 0.0000
0.9596 0.4040 0.0000
0.9596 0.4091 0.0000
0.9596 0.4141 0.0000
0.9596 0.4192 0.0000
0.9596 0.4242 0.0000
0.9596 0.4293 0.0000
0.9596 0.4343 0.0000
0.9596 0.4394 0.0000
0.9596 0.4444 0.0000
0.9596 0.4495 0.0000
0.9596 0.4545 0.0000
0.9596 0.4596 0.0000
0.9596 0.4646 0.0000
0.9596 0.4697 0.0000
0.9596 0.4747 0.0000
0.9596 0.4798 0.0000
0.9596 0.4848 0.0000
0.9596 0.4899 0.0000
0.9596 0.4949 0.0000
0.9596 0.5000 0.0000
0.9697 0.0000 0.0000
0.9697 0.0051 0.0000
0.9697 0.0101 0.0000
0.9697 0.0152 0.0000
0.9697 0.0202 0.0000
0.9697 0.0253 0.0000
0.9697 0.0303 0.0000
0.9697 0.0354 0.0000
0.9697 0.0404 0.0000
0.9697 0.0455 0.0000
0.9697 0.0505 0.0000
0.9697 0.0556 0.0000
0.9697 0.0606 0.0000
0.9697 0.0657 0.0000
0.9697 0.0707 0.0000
0.9697 0.0758 0.0000
0.9697 0.0808 0.0000
0.9697 0.0859 0.0000
0.9697 0.0909 0.0000
0.9697 0.0960 0.0000
0.9697 0.1010 0.0000
0.9697 0.1061 0.0000
0.9697 0.1111 0.0000
0.9697 0.1162 0.0000
0.9697 0.1212 0.0000
0.9697 0.1263 0.0000
0.9697 0.1313 0.0000
0.9697 0.1364 0.0000
0.9697 0.1414 0.0000
0.9697 0.1465 0.0000
0.9697 0.1515 0.0000
0.9697 0.1566 0.0000
0.9697 0.1616 0.0000
0.9697 0.1667 0.0000
0.9697 0.1717 0.0000
0.9697 0.1768 0.0000
0.9697 0.1818 0.0000
0.9697 0.1869 0.0000
0.9697 0.1919 0.0000
0.9697 0.1970 0.0000
0.9697 0.2020 0.0000
0.9697 0.2071 0.0000
0.9697 0.2121 0.0000
0.9697 0.2172 0.0000
0.9697 0.2222 0.0000
0.9697 0.2273 0.0000
0.9697 0.2323 0.0000
0.9697 0.2374 0.0000
0.9697 0.2424 0.0000
0.9697 0.2475 0.0000
0.9697 0.2525 0.0000
0.9697 0.2576 0.0000
0.9697 0.2626 0.0000
0.9697 0.2677 0.0000
0.9697 0.2727 0.0000
0.9697 0.2778 0.0000
0.9697 0.2828 0.0000
0.9697 0.2879 0.0000
0.9697 0.2929 0.0000
0.9697 0.2980 0.0000
0.9697 0.3030 0.0000
0.9697 0.3081 0.0000
0.9697 0.3131 0.0000
0.9697 0.3182 0.0000
0.9697 0.3232 0.0000
0.9697 0.3283 0.0000
0.9697 0.3333 0.0000
0.9697 0.3384 0.0000
0.9697 0.3434 0.0000
0.9697 0.3485 0.0000
0.9697 0.3535 0.0000
0.9697 0.3586 0.0000
0.9697 0.3636 0.0000
0.9697 0.3687 0.0000
0.9697 0.3737 0.0000
0.9697 0.3788 0.0000
0.9697 0.3838 0.0000
0.9697 0.3889 0.0000
0.9697 0.3939 0.0000
0.9697 0.3990 0.0000
0.9697 0.4040 0.0000
0.9697 0.4091 0.0000
0.9697 0.4141 0.0000
0.9697 0.4192 0.0000
0.9697 0.4242 0.0000
0.9697 0.4293 0.0000
0.9697 0.4343 0.0000
0.9697 0.4394 0.0000
0.9697 0.4444 0.0000
0.9697 0.4495 0.0000
0.9697 0.4545 0.0000
0.9697 0.4596 0.0000
0.9697 0.4646 0.0000
0.9697 0.4697 0.0000
0.9697 0.4747 0.0000
0.9697 0.4798 0.0000
0.9697 0.4848 0.0000
0.9697 0.4899 0.0000
0.9697 0.4949 0.0000
0.9697 0.5000 0.0000
0.9798 0.0000 0.0000
0.9798 0.0051 0.0000
0.9798 0.0101 0.0000
0.9798 0.0152 0.0000
0.9798 0.0202 0.0000
0.9798 0.0253 0.0000
0.9798 0.0303 0.0000
0.9798 0.0354 0.0000
0.9798 0.0404 0.0000
0.9798 0.0455 0.0000
0.9798 0.0505 0.0000
0.9798 0.0556 0.0000
0.9798 0.0606 0.0000
0.9798 0.0657 0.0000
0.9798 0.0707 0.0000
0.9798 0.0758 0.0000
0.9798 0.0808 0.0000
0.9798 0.0859 0.0000
0.9798 0.0909 0.0000
0.9798 0.0960 0.0000
0.9798 0.1010 0.0000
0.9798 0.1061 0.0000
0.9798 0.1111 0.0000
0.9798 0.1162 0.0000
0.9798 0.1212 0.0000
0.9798 0.1263 0.0000
0.9798 0.1313 0.0000
0.9798 0.1364 0.0000
0.9798 0.1414 0.0000
0.9798 0.1465 0.0000
0.9798 0.1515 0.0000
0.9798 0.1566 0.0000
0.9798 0.1616 0.0000
0.9798 0.1667 0.0000
0.9798 0.1717 0.0000
0.9798 0.1768 0.0000
0.9798 0.1818 0.0000
0.9798 0.1869 0.0000
0.9798 0.1919 0.0000
0.9798 0.1970 0.0000
0.9798 0.2020 0.0000
0.9798 0.2071 0.0000
0.9798 0.2121 0.0000
0.9798 0.2172 0.0000
0.9798 0.2222 0.0000
0.9798 0.2273 0.0000
0.9798 0.2323 0.0000
0.9798 0.2374 0.0000
0.9798 0.2424 0.0000
0.9798 0.2475 0.0000
0.9798 0.2525 0.0000
0.9798 0.2576 0.0000
0.9798 0.2626 0.0000
0.9798 0.2677 0.0000
0.9798 0.2727 0.0000
0.9798 0.2778 0.0000
0.9798 0.2828 0.0000
0.9798 0.2879 0.0000
0.9798 0.2929 0.0000
0.9798 0.2980 0.0000
0.9798 0.3030 0.0000
0.9798 0.3081 0.0000
0.9798 0.3131 0.0000
0.9798 0.3182 0.0000
0.9798 0.3232 0.0000
0.9798 0.3283 0.0000
0.9798 0.3333 0.0000
0.9798 0.3384 0.0000
0.9798 0.3434 0.0000
0.9798 0.3485 0.0000
0.9798 0.3535 0.0000
0.9798 0.3586 0.0000
0.9798 0.3636 0.0000
0.9798 0.3687 0.0000
0.9798 0.3737 0.0000
0.9798 0.3788 0.0000
0.9798 0.3838 0.0000
0.9798 0.3889 0.0000
0.9798 0.3939 0.0000
0.9798 0.3990 0.0000
0.9798 0.4040 0.0000
0.9798 0.4091 0.0000
0.9798 0.4141 0.0000
0.9798 0.4192 0.0000
0.9798 0.4242 0.0000
0.9798 0.4293 0.0000
0.9798 0.4343 0.0000
0.9798 0.4394 0.0000
0.9798 0.4444 0.0000
0.9798 0.4495 0.0000
0.9798 0.4545 0.0000
0.9798 0.4596 0.0000
0.9798 0.4646 0.0000
0.9798 0.4697 0.0000
0.9798 0.4747 0.0000
0.9798 0.4798 0.0000
0.9798 0.4848 0.0000
0.9798 0.4899 0.0000
0.9798 0.4949 0.0000
0.9798 0.5000 0.0000
0.9899 0.0000 0.0000
0.9899 0.0051 0.0000
0.9899 0.0101 0.0000
0.9899 0.0152 0.0000
0.9899 0.0202 0.0000
0.9899 0.0253 0.0000
0.9899 0.0303 0.0000
0.9899 0.0354 0.0000
0.9899 0.0404 0.0000
0.9899 0.0455 0.0000
0.9899 0.0505 0.0000
0.9899 0.0556 0.0000
0.9899 0.0606 0.0000
0.9899 0.0657 0.0000
0.9899 0.0707 0.0000
0.9899 0.0758 0.0000
0.9899 0.0808 0.0000
0.9899 0.0859 0.0000
0.9899 0.0909 0.0000
0.9899 0.0960 0.0000
0.9899 0.1010 0.0000
0.9899 0.1061 0.0000
0.9899 0.1111 0.0000
0.9899 0.1162 0.0000
0.9899 0.1212 0.0000
0.9899 0.1263 0.0000
0.9899 0.1313 0.0000
0.9899 0.1364 0.0000
0.9899 0.1414 0.0000
0.9899 0.1465 0.0000
0.9899 0.1515 0.0000
0.9899 0.1566 0.0000
0.9899 0.1616 0.0000
0.9899 0.1667 0.0000
0.9899 0.1717 0.0000
0.9899 0.1768 0.0000
0.9899 0.1818 0.0000
0.9899 0.1869 0.0000
0.9899 0.1919 0.0000
0.9899 0.1970 0.0000
0.9899 0.2020 0.0000
0.9899 0.2071 0.0000
0.9899 0.2121 0.0000
0.9899 0.2172 0.0000
0.9899 0.2222 0.0000
0.9899 0.2273 0.0000
0.9899 0.2323 0.0000
0.9899 0.2374 0.0000
0.9899 0.2424 0.0000
0.9899 0.2475 0.0000
0.9899 0.2525 0.0000
0.9899 0.2576 0.0000
0.9899 0.2626 0.0000
0.9899 0.2677 0.0000
0.9899 0.2727 0.0000
0.9899 0.2778 0.0000
0.9899 0.2828 0.0000
0.9899 0.2879 0.0000
0.9899 0.2929 0.0000
0.9899 0.2980 0.0000
0.9899 0.3030 0.0000
0.9899 0.3081 0.0000
0.9899 0.3131 0.0000
0.9899 0.3182 0.0000
0.9899 0.3232 0.0000
0.9899 0.3283 0.0000
0.9899 0.3333 0.0000
0.9899 0.3384 0.0000
0.9899 0.3434 0.0000
0.9899 0.3485 0.0000
0.9899 0.3535 0.0000
0.9899 0.3586 0.0000
0.9899 0.3636 0.0000
0.9899 0.3687 0.0000
0.9899 0.3737 0.0000
0.9899 0.3788 0.0000
0.9899 0.3838 0.0000
0.9899 0.3889 0.0000
0.9899 0.3939 0.0000
0.9899 0.3990 0.0000
0.9899 0.4040 0.0000
0.9899 0.4091 0.0000
0.9899 0.4141 0.0000
0.9899 0.4192 0.0000
0.9899 0.4242 0.0000
0.9899 0.4293 0.0000
0.9899 0.4343 0.0000
0.9899 0.4394 0.0000
0.9899 0.4444 0.0000
0.9899 0.4495 0.0000
0.9899 0.4545 0.0000
0.9899 0.4596 0.0000
0.9899 0.4646 0.0000
0.9899 0.4697 0.0000
0.9899 0.4747 0.0000
0.9899 0.4798 0.0000
0.9899 0.4848 0.0000
0.9899 0.4899 0.0000
0.9899 0.4949 0.0000
0.9899 0.5000 0.0000
1.0000 0.0000 0.0000
1.0000 0.0051 0.0000
1.0000 0.0101 0.0000
1.0000 0.0152 0.0000
1.0000 0.0202 0.0000
1.0000 0.0253 0.0000
1.0000 0.0303 0.0000
1.0000 0.0354 0.0000
1.0000 0.0404 0.0000
1.0000 0.0455 0.0000
1.0000 0.0505 0.0000
1.0000 0.0556 0.0000
1.0000 0.0606 0.0000
1.0000 0.0657 0.0000
1.0000 0.0707 0.0000
1.0000 0.0758 0.0000
1.0000 0.0808 0.0000
1.0000 0.0859 0.0000
1.0000 0.0909 0.0000
1.0000 0.0960 0.0000
1.0000 0.1010 0.0000
1.0000 0.1061 0.0000
1.0000 0.1111 0.0000
1.0000 0.1162 0.0000
1.0000 0.1212 0.0000
1.0000 0.1263 0.0000
1.0000 0.1313 0.0000
1.0000 0.1364 0.0000
1.0000 0.1414 0.0000
1.0000 0.1465 0.0000
1.0000 0.1515 0.0000
1.0000 0.1566 0.0000
1.0000 0.1616 0.0000
1.0000 0.1667 0.0000
1.0000 0.1717 0.0000
1.0000 0.1768 0.0000
1.0000 0.1818 0.0000
1.0000 0.1869 0.0000
1.0000 0.1919 0.0000
1.0000 0.1970 0.0000
1.0000 0.2020 0.0000
1.0000 0.2071 0.0000
1.0000 0.2121 0.0000
1.0000 0.2172 0.0000
1.0000 0.2222 0.0000
1.0000 0.2273 0.0000
1.0000 0.2323 0.0000
1.0000 0.2374 0.0000
1.0000 0.2424 0.0000
1.0000 0.2475 0.0000
1.0000 0.2525 0.0000
1.0000 0.2576 0.0000
1.0000 0.2626 0.0000
1.0000 0.2677 0.0000
1.0000 0.2727 0.0000
1.0000 0.2778 0.0000
1.0000 0.2828 0.0000
1.0000 0.2879 0.0000
1.0000 0.2929 0.0000
1.0000 0.2980 0.0000
1.0000 0.3030 0.0000
1.0000 0.3081 0.0000
1.0000 0.3131 0.0000
1.0000 0.3182 0.0000
1.0000 0.3232 0.0000
1.0000 0.3283 0.0000
1.0000 0.3333 0.0000
1.0000 0.3384 0.0000
1.0000 0.3434 0.0000
1.0000 0.3485 0.0000
1.0000 0.3535 0.0000
1.0000 0.3586 0.0000
1.0000 0.3636 0.0000
1.0000 0.3687 0.0000
1.0000 0.3737 0.0000
1.0000 0.3788 0.0000
1.0000 0.3838 0.0000
1.0000 0.3889 0.0000
1.0000 0.3939 0.0000
1.0000 0.3990 0.0000
1.0000 0.4040 0.0000
1.0000 0.4091 0.0000
1.0000 0.4141 0.0000
1.0000 0.4192 0.0000
1.0000 0.4242 0.0000
1.0000 0.4293 0.0000
1.0000 0.4343 0.0000
1.0000 0.4394 0.0000
1.0000 0.4444 0.0000
1.0000 0.4495 0.0000
1.0000 0.4545 0.0000
1.0000 0.4596 0.0000
1.0000 0.4646 0.0000
1.0000 0.4697 0.0000
1.0000 0.4747 0.0000
1.0000 0.4798 0.0000
1.0000 0.4848 0.0000
1.0000 0.4899 0.0000
1.0000 0.4949 0.0000
1.0000 0.5000 0.0000
0.0051 0.0025 0.0000
0.0051 0.0076 0.0000
0.0051 0.0126 0.0000
0.0051 0.0177 0.0000
0.0051 0.0227 0.0000
0.0051 0.0278 0.0000
0.0051 0.0328 0.0000
0.0051 0.0379 0.0000
0.0051 0.0429 0.0000
0.0051 0.0480 0.0000
0.0051 0.0530 0.0000
0.0051 0.0581 0.0000
0.0051 0.0631 0.0000
0.0051 0.0682 0.0000
0.0051 0.0732 0.0000
0.0051 0.0783 0.0000
0.0051 0.0833 0.0000
0.0051 0.0884 0.0000
0.0051 0.0934 0.0000
0.0051 0.0985 0.0000
0.0051 0.1035 0.0000
0.0051 0.1086 0.0000
0.0051 0.1136 0.0000
0.0051 0.1187 0.0000
0.0051 0.1237 0.0000
0.0051 0.1288 0.0000
0.0051 0.1338 0.0000
0.0051 0.1389 0.0000
0.0051 0.1439 0.0000
0.0051 0.1490 0.0000
0.0051 0.1540 0.0000
0.0051 0.1591 0.0000
0.0051 0.1641 0.0000
0.0051 0.1692 0.0000
0.0051 0.1742 0.0000
0.0051 0.1793 0.0000
0.0051 0.1843 0.0000
0.0051 0.1894 0.0000
0.0051 0.1944 0.0000
0.0051 0.1995 0.0000
0.0051 0.2045 0.0000
0.0051 0.2096 0.0000
0.0051 0.2146 0.0000
0.0051 0.2197 0.0000
0.0051 0.2247 0.0000
0.0051 0.2298 0.0000
0.0051 0.2348 0.0000
0.0051 0.2399 0.0000
0.0051 0.2449 0.0000
0.0051 0.2500 0.0000
0.0051 0.2551 0.0000
0.0051 0.2601 0.0000
0.0051 0.2652 0.0000
0.0051 0.2702 0.0000
0.0051 0.2753 0.0000
0.0051 0.2803 0.0000
0.0051 0.2854 0.0000
0.0051 0.2904 0.0000
0.0051 0.2955 0.0000
0.0051 0.3005 0.0000
0.0051 0.3056 0.0000
0.0051 0.3106 0.0000
0.0051 0.3157 0.0000
0.0051 0.3207 0.0000
0.0051 0.3258 0.0000
0.0051 0.3308 0.0000
0.0051 0.3359 0.0000
0.0051 0.3409 0.0000
0.0051 0.3460 0.0000
0.0051 0.3510 0.0000
0.0051 0.3561 0.0000
0.0051 0.3611 0.0000
0.0051 0.3662 0.0000
0.0051 0.3712 0.0000
0.0051 0.3763 0.0000
0.0051 0.3813 0.0000
0.0051 0.3864 0.0000
0.0051 0.3914 0.0000
0.0051 0.3965 0.0000
0.0051 0.4015 0.0000
0.0051 0.4066 0.0000
0.0051 0.4116 0.0000
0.0051 0.4167 0.0000
0.0051 0.4217 0.0000
0.0051 0.4268 0.0000
0.0051 0.4318 0.0000
0.0051 0.4369 0.0000
0.0051 0.4419 0.0000
0.0051 0.4470 0.0000
0.0051 0.4520 0.0000
0.0051 0.4571 0.0000
0.0051 0.4621 0.0000
0.0051 0.4672 0.0000
0.0051 0.4722 0.0000
0.0051 0.4773 0.0000
0.0051 0.4823 0.0000
0.0051 0.4874 0.0000
0.0051 0.4924 0.0000
0.0051 0.4975 0.0000
0.0152 0.0025 0.0000
0.0152 0.0076 0.0000
0.0152 0.0126 0.0000
0.0152 0.0177 0.0000
0.0152 0.0227 0.0000
0.0152 0.0278 0.0000
0.0152 0.0328 0.0000
0.0152 0.0379 0.0000
0.0152 0.0429 0.0000
0.0152 0.0480 0.0000
0.0152 0.0530 0.0000
0.0152 0.0581 0.0000
0.0152 0.0631 0.0000
0.0152 0.0682 0.0000
0.0152 0.0732 0.0000
0.0152 0.0783 0.0000
0.0152 0.0833 0.0000
0.0152 0.0884 0.0000
0.0152 0.0934 0.0000
0.0152 0.0985 0.0000
0.0152 0.1035 0.0000
0.0152 0.1086 0.0000
0.0152 0.1136 0.0000
0.0152 0.1187 0.0000
0.0152 0.1237 0.0000
0.0152 0.1288 0.0000
0.0152 0.1338 0.0000
0.0152 0.1389 0.0000
0.0152 0.1439 0.0000
0.0152 0.1490 0.0000
0.0152 0.1540 0.0000
0.0152 0.1591 0.0000
0.0152 0.1641 0.0000
0.0152 0.1692 0.0000
0.0152 0.1742 0.0000
0.0152 0.1793 0.0000
0.0152 0.1843 0.0000
0.0152 0.1894 0.0000
0.0152 0.1944 0.0000
0.0152 0.1995 0.0000
0.0152 0.2045 0.0000
0.0152 0.2096 0.0000
0.0152 0.2146 0.0000
0.0152 0.2197 0.0000
0.0152 0.2247 0.0000
0.0152 0.2298 0.0000
0.0152 0.2348 0.0000
0.0152 0.2399 0.0000
0.0152 0.2449 0.0000
0.0152 0.2500 0.0000
0.0152 0.2551 0.0000
0.0152 0.2601 0.0000
0.0152 0.2652 0.0000
0.0152 0.2702 0.0000
0.0152 0.2753 0.0000
0.0152 0.2803 0.0000
0.0152 0.2854 0.0000
0.0152 0.2904 0.0000
0.0152 0.2955 0.0000
0.0152 0.3005 0.0000
0.0152 0.3056 0.0000
0.0152 0.3106 0.0000
0.0152 0.3157 0.0000
0.0152 0.3207 0.0000
0.0152 0.3258 0.0000
0.0152 0.3308 0.0000
0.0152 0.3359 0.0000
0.0152 0.3409 0.0000
0.0152 0.3460 0.0000
0.0152 0.3510 0.0000
0.0152 0.3561 0.0000
0.0152 0.3611 0.0000
0.0152 0.3662 0.0000
0.0152 0.3712 0.0000
0.0152 0.3763 0.0000
0.0152 0.3813 0.0000
0.0152 0.3864 0.0000
0.0152 0.3914 0.0000
0.0152 0.3965 0.0000
0.0152 0.4015 0.0000
0.0152 0.4066 0.0000
0.0152 0.4116 0.0000
0.0152 0.4167 0.0000
0.0152 0.4217 0.0000
0.0152 0.4268 0.0000
0.0152 0.4318 0.0000
0.0152 0.4369 0.0000
0.0152 0.4419 0.0000
0.0152 0.4470 0.0000
0.0152 0.4520 0.0000
0.0152 0.4571 0.0000
0.0152 0.4621 0.0000
0.0152 0.4672 0.0000
0.0152 0.4722 0.0000
0.0152 0.4773 0.0000
0.0152 0.4823 0.0000
0.0152 0.4874 0.0000
0.0152 0.4924 0.0000
0.0152 0.4975 0.0000
0.0253 0.0025 0.0000
0.0253 0.0076 0.0000
0.0253 0.0126 0.0000
0.0253 0.0177 0.0000
0.0253 0.0227 0.0000
0.0253 0.0278 0.0000
0.0253 0.0328 0.0000
0.0253 0.0379 0.0000
0.0253 0.0429 0.0000
0.0253 0.0480 0.0000
0.0253 0.0530 0.0000
0.0253 0.0581 0.0000
0.0253 0.0631 0.0000
0.0253 0.0682 0.0000
0.0253 0.0732 0.0000
0.0253 0.0783 0.0000
0.0253 0.0833 0.0000
0.0253 0.0884 0.0000
0.0253 0.0934 0.0000
0.0253 0.0985 0.0000
0.0253 0.1035 0.0000
0.0253 0.1086 0.0000
0.0253 0.1136 0.0000
0.0253 0.1187 0.0000
0.0253 0.1237 0.0000
0.0253 0.1288 0.0000
0.0253 0.1338 0.0000
0.0253 0.1389 0.0000
0.0253 0.1439 0.0000
0.0253 0.1490 0.0000
0.0253 0.1540 0.0000
0.0253 0.1591 0.0000
0.0253 0.1641 0.0000
0.0253 0.1692 0.0000
0.0253 0.1742 0.0000
0.0253 0.1793 0.0000
0.0253 0.1843 0.0000
0.0253 0.1894 0.0000
0.0253 0.1944 0.0000
0.0253 0.1995 0.0000
0.0253 0.2045 0.0000
0.0253 0.2096 0.0000
0.0253 0.2146 0.0000
0.0253 0.2197 0.0000
0.0253 0.2247 0.0000
0.0253 0.2298 0.0000
0.0253 0.2348 0.0000
0.0253 0.2399 0.0000
0.0253 0.2449 0.0000
0.0253 0.2500 0.0000
0.0253 0.2551 0.0000
0.0253 0.2601 0.0000
0.0253 0.2652 0.0000
0.0253 0.2702 0.0000
0.0253 0.2753 0.0000
0.0253 0.2803 0.0000
0.0253 0.2854 0.0000
0.0253 0.2904 0.0000
0.0253 0.2955 0.0000
0.0253 0.3005 0.0000
0.0253 0.3056 0.0000
0.0253 0.3106 0.0000
0.0253 0.3157 0.0000
0.0253 0.3207 0.0000
0.0253 0.3258 0.0000
0.0253 0.3308 0.0000
0.0253 0.3359 0.0000
0.0253 0.3409 0.0000
0.0253 0.3460 0.0000
0.0253 0.3510 0.0000
0.0253 0.3561 0.0000
0.0253 0.3611 0.0000
0.0253 0.3662 0.0000
0.0253 0.3712 0.0000
0.0253 0.3763 0.0000
0.0253 0.3813 0.0000
0.0253 0.3864 0.0000
0.0253 0.3914 0.0000
0.0253 0.3965 0.0000
0.0253 0.4015 0.0000
0.0253 0.4066 0.0000
0.0253 0.4116 0.0000
0.0253 0.4167 0.0000
0.0253 0.4217 0.0000
0.0253 0.4268 0.0000
0.0253 0.4318 0.0000
0.0253 0.4369 0.0000
0.0253 0.4419 0.0000
0.0253 0.4470 0.0000
0.0253 0.4520 0.0000
0.0253 0.4571 0.0000
0.0253 0.4621 0.0000
0.0253 0.4672 0.0000
0.0253 0.4722 0.0000
0.0253 0.4773 0.0000
0.0253 0.4823 0.0000
0.0253 0.4874 0.0000
0.0253 0.4924 0.0000
0.0253 0.4975 0.0000
0.0354 0.0025 0.0000
0.0354 0.0076 0.0000
0.0354 0.0126 0.0000
0.0354 0.0177 0.0000
0.0354 0.0227 0.0000
0.0354 0.0278 0.0000
0.0354 0.0328 0.0000
0.0354 0.0379 0.0000
0.0354 0.0429 0.0000
0.0354 0.0480 0.0000
0.0354 0.0530 0.0000
0.0354 0.0581 0.0000
0.0354 0.0631 0.0000
0.0354 0.0682 0.0000
0.0354 0.0732 0.0000
0.0354 0.0783 0.0000
0.0354 0.0833 0.0000
0.0354 0.0884 0.0000
0.0354 0.0934 0.0000
0.0354 0.0985 0.0000
0.0354 0.1035 0.0000
0.0354 0.1086 0.0000
0.0354 0.1136 0.0000
0.0354 0.1187 0.0000
0.0354 0.1237 0.0000
0.0354 0.1288 0.0000
0.0354 0.1338 0.0000
0.0354 0.1389 0.0000
0.0354 0.1439 0.0000
0.0354 0.1490 0.0000
0.0354 0.1540 0.0000
0.0354 0.1591 0.0000
0.0354 0.1641 0.0000
0.0354 0.1692 0.0000
0.0354 0.1742 0.0000
0.0354 0.1793 0.0000
0.0354 0.1843 0.0000
0.0354 0.1894 0.0000
0.0354 0.1944 0.0000
0.0354 0.1995 0.0000
0.0354 0.2045 0.0000
0.0354 0.2096 0.0000
0.0354 0.2146 0.0000
0.0354 0.2197 0.0000
0.0354 0.2247 0.0000
0.0354 0.2298 0.0000
0.0354 0.2348 0.0000
0.0354 0.2399 0.0000
0.0354 0.2449 0.0000
0.0354 0.2500 0.0000
0.0354 0.2551 0.0000
0.0354 0.2601 0.0000
0.0354 0.2652 0.0000
0.0354 0.2702 0.0000
0.0354 0.2753 0.0000
0.0354 0.2803 0.0000
0.0354 0.2854 0.0000
0.0354 0.2904 0.0000
0.0354 0.2955 0.0000
0.0354 0.3005 0.0000
0.0354 0.3056 0.0000
0.0354 0.3106 0.0000
0.0354 0.3157 0.0000
0.0354 0.3207 0.0000
0.0354 0.3258 0.0000
0.0354 0.3308 0.0000
0.0354 0.3359 0.0000
0.0354 0.3409 0.0000
0.0354 0.3460 0.0000
0.0354 0.3510 0.0000
0.0354 0.3561 0.0000
0.0354 0.3611 0.0000
0.0354 0.3662 0.0000
0.0354 0.3712 0.0000
0.0354 0.3763 0.0000
0.0354 0.3813 0.0000
0.0354 0.3864 0.0000
0.0354 0.3914 0.0000
0.0354 0.3965 0.0000
0.0354 0.4015 0.0000
0.0354 0.4066 0.0000
0.0354 0.4116 0.0000
0.0354 0.4167 0.0000
0.0354 0.4217 0.0000
0.0354 0.4268 0.0000
0.0354 0.4318 0.0000
0.0354 0.4369 0.0000
0.0354 0.4419 0.0000
0.0354 0.4470 0.0000
0.0354 0.4520 0.0000
0.0354 0.4571 0.0000
0.0354 0.4621 0.0000
0.0354 0.4672 0.0000
0.0354 0.4722 0.0000
0.0354 0.4773 0.0000
0.0354 0.4823 0.0000
0.0354 0.4874 0.0000
0.0354 0.4924 0.0000
0.0354 0.4975 0.0000
0.0455 0.0025 0.0000
0.0455 0.0076 0.0000
0.0455 0.0126 0.0000
0.0455 0.0177 0.0000
0.0455 0.0227 0.0000
0.0455 0.0278 0.0000
0.0455 0.0328 0.0000
0.0455 0.0379 0.0000
0.0455 0.0429 0.0000
0.0455 0.0480 0.0000
0.0455 0.0530 0.0000
0.0455 0.0581 0.0000
0.0455 0.0631 0.0000
0.0455 0.0682 0.0000
0.0455 0.0732 0.0000
0.0455 0.0783 0.0000
0.0455 0.0833 0.0000
0.0455 0.0884 0.0000
0.0455 0.0934 0.0000
0.0455 0.0985 0.0000
0.0455 0.1035 0.0000
0.0455 0.1086 0.0000
0.0455 0.1136 0.0000
0.0455 0.1187 0.0000
0.0455 0.1237 0.0000
0.0455 0.1288 0.0000
0.0455 0.1338 0.0000
0.0455 0.1389 0.0000
0.0455 0.1439 0.0000
0.0455 0.1490 0.0000
0.0455 0.1540 0.0000
0.0455 0.1591 0.0000
0.0455 0.1641 0.0000
0.0455 0.1692 0.0000
0.0455 0.1742 0.0000
0.0455 0.1793 0.0000
0.0455 0.1843 0.0000
0.0455 0.1894 0.0000
0.0455 0.1944 0.0000
0.0455 0.1995 0.0000
0.0455 0.2045 0.0000
0.0455 0.2096 0.0000
0.0455 0.2146 0.0000
0.0455 0.2197 0.0000
0.0455 0.2247 0.0000
0.0455 0.2298 0.0000
0.0455 0.2348 0.0000
0.0455 0.2399 0.0000
0.0455 0.2449 0.0000
0.0455 0.2500 0.0000
0.0455 0.2551 0.0000
0.0455 0.2601 0.0000
0.0455 0.2652 0.0000
0.0455 0.2702 0.0000
0.0455 0.2753 0.0000
0.0455 0.2803 0.0000
0.0455 0.2854 0.0000
0.0455 0.2904 0.0000
0.0455 0.2955 0.0000
0.0455 0.3005 0.0000
0.0455 0.3056 0.0000
0.0455 0.3106 0.0000
0.0455 0.3157 0.0000
0.0455 0.3207 0.0000
0.0455 0.3258 0.0000
0.0455 0.3308 0.0000
0.0455 0.3359 0.0000
0.0455 0.3409 0.0000
0.0455 0.3460 0.0000
0.0455 0.3510 0.0000
0.0455 0.3561 0.0000
0.0455 0.3611 0.0000
0.0455 0.3662 0.0000
0.0455 0.3712 0.0000
0.0455 0.3763 0.0000
0.0455 0.3813 0.0000
0.0455 0.3864 0.0000
0.0455 0.3914 0.0000
0.0455 0.3965 0.0000
0.0455 0.4015 0.0000
0.0455 0.4066 0.0000
0.0455 0.4116 0.0000
0.0455 0.4167 0.0000
0.0455 0.4217 0.0000
0.0455 0.4268 0.0000
0.0455 0.4318 0.0000
0.0455 0.4369 0.0000
0.0455 0.4419 0.0000
0.0455 0.4470 0.0000
0.0455 0.4520 0.0000
0.0455 0.4571 0.0000
0.0455 0.4621 0.0000
0.0455 0.4672 0.0000
0.0455 0.4722 0.0000
0.0455 0.4773 0.0000
0.0455 0.4823 0.0000
0.0455 0.4874 0.0000
0.0455 0.4924 0.0000
0.0455 0.4975 0.0000
0.0556 0.0025 0.0000
0.0556 0.0076 0.0000
0.0556 0.0126 0.0000
0.0556 0.0177 0.0000
0.0556 0.0227 0.0000
0.0556 0.0278 0.0000
0.0556 0.0328 0.0000
0.0556 0.0379 0.0000
0.0556 0.0429 0.0000
0.0556 0.0480 0.0000
0.0556 0.0530 0.0000
0.0556 0.0581 0.0000
0.0556 0.0631 0.0000
0.0556 0.0682 0.0000
0.0556 0.0732 0.0000
0.0556 0.0783 0.0000
0.0556 0.0833 0.0000
0.0556 0.0884 0.0000
0.0556 0.0934 0.0000
0.0556 0.0985 0.0000
0.0556 0.1035 0.0000
0.0556 0.1086 0.0000
0.0556 0.1136 0.0000
0.0556 0.1187 0.0000
0.0556 0.1237 0.0000
0.0556 0.1288 0.0000
0.0556 0.1338 0.0000
0.0556 0.1389 0.0000
0.0556 0.1439 0.0000
0.0556 0.1490 0.0000
0.0556 0.1540 0.0000
0.0556 0.1591 0.0000
0.0556 0.1641 0.0000
0.0556 0.1692 0.0000
0.0556 0.1742 0.0000
0.0556 0.1793 0.0000
0.0556 0.1843 0.0000
0.0556 0.1894 0.0000
0.0556 0.1944 0.0000
0.0556 0.1995 0.0000
0.0556 0.2045 0.0000
0.0556 0.2096 0.0000
0.0556 0.2146 0.0000
0.0556 0.2197 0.0000
0.0556 0.2247 0.0000
0.0556 0.2298 0.0000
0.0556 0.2348 0.0000
0.0556 0.2399 0.0000
0.0556 0.2449 0.0000
0.0556 0.2500 0.0000
0.0556 0.2551 0.0000
0.0556 0.2601 0.0000
0.0556 0.2652 0.0000
0.0556 0.2702 0.0000
0.0556 0.2753 0.0000
0.0556 0.2803 0.0000
0.0556 0.2854 0.0000
0.0556 0.2904 0.0000
0.0556 0.2955 0.0000
0.0556 0.3005 0.0000
0.0556 0.3056 0.0000
0.0556 0.3106 0.0000
0.0556 0.3157 0.0000
0.0556 0.3207 0.0000
0.0556 0.3258 0.0000
0.0556 0.3308 0.0000
0.0556 0.3359 0.0000
0.0556 0.3409 0.0000
0.0556 0.3460 0.0000
0.0556 0.3510 0.0000
0.0556 0.3561 0.0000
0.0556 0.3611 0.0000
0.0556 0.3662 0.0000
0.0556 0.3712 0.0000
0.0556 0.3763 0.0000
0.0556 0.3813 0.0000
0.0556 0.3864 0.0000
0.0556 0.3914 0.0000
0.0556 0.3965 0.0000
0.0556 0.4015 0.0000
0.0556 0.4066 0.0000
0.0556 0.4116 0.0000
0.0556 0.4167 0.0000
0.0556 0.4217 0.0000
0.0556 0.4268 0.0000
0.0556 0.4318 0.0000
0.0556 0.4369 0.0000
0.0556 0.4419 0.0000
0.0556 0.4470 0.0000
0.0556 0.4520 0.0000
0.0556 0.4571 0.0000
0.0556 0.4621 0.0000
0.0556 0.4672 0.0000
0.0556 0.4722 0.0000
0.0556 0.4773 0.0000
0.0556 0.4823 0.0000
0.0556 0.4874 0.0000
0.0556 0.4924 0.0000
0.0556 0.4975 0.0000
0.0657 0.0025 0.0000
0.0657 0.0076 0.0000
0.0657 0.0126 0.0000
0.0657 0.0177 0.0000
0.0657 0.0227 0.0000
0.0657 0.0278 0.0000
0.0657 0.0328 0.0000
0.0657 0.0379 0.0000
0.0657 0.0429 0.0000
0.0657 0.0480 0.0000
0.0657 0.0530 0.0000
0.0657 0.0581 0.0000
0.0657 0.0631 0.0000
0.0657 0.0682 0.0000
0.0657 0.0732 0.0000
0.0657 0.0783 0.0000
0.0657 0.0833 0.0000
0.0657 0.0884 0.0000
0.0657 0.0934 0.0000
0.0657 0.0985 0.0000
0.0657 0.1035 0.0000
0.0657 0.1086 0.0000
0.0657 0.1136 0.0000
0.0657 0.1187 0.0000
0.0657 0.1237 0.0000
0.0657 0.1288 0.0000
0.0657 0.1338 0.0000
0.0657 0.1389 0.0000
0.0657 0.1439 0.0000
0.0657 0.1490 0.0000
0.0657 0.1540 0.0000
0.0657 0.1591 0.0000
0.0657 0.1641 0.0000
0.0657 0.1692 0.0000
0.0657 0.1742 0.0000
0.0657 0.1793 0.0000
0.0657 0.1843 0.0000
0.0657 0.1894 0.0000
0.0657 0.1944 0.0000
0.0657 0.1995 0.0000
0.0657 0.2045 0.0000
0.0657 0.2096 0.0000
0.0657 0.2146 0.0000
0.0657 0.2197 0.0000
0.0657 0.2247 0.0000
0.0657 0.2298 0.0000
0.0657 0.2348 0.0000
0.0657 0.2399 0.0000
0.0657 0.2449 0.0000
0.0657 0.2500 0.0000
0.0657 0.2551 0.0000
0.0657 0.2601 0.0000
0.0657 0.2652 0.0000
0.0657 0.2702 0.0000
0.0657 0.2753 0.0000
0.0657 0.2803 0.0000
0.0657 0.2854 0.0000
0.0657 0.2904 0.0000
0.0657 0.2955 0.0000
0.0657 0.3005 0.0000
0.0657 0.3056 0.0000
0.0657 0.3106 0.0000
0.0657 0.3157 0.0000
0.0657 0.3207 0.0000
0.0657 0.3258 0.0000
0.0657 0.3308 0.0000
0.0657 0.3359 0.0000
0.0657 0.3409 0.0000
0.0657 0.3460 0.0000
0.0657 0.3510 0.0000
0.0657 0.3561 0.0000
0.0657 0.3611 0.0000
0.0657 0.3662 0.0000
0.0657 0.3712 0.0000
0.0657 0.3763 0.0000
0.0657 0.3813 0.0000
0.0657 0.3864 0.0000
0.0657 0.3914 0.0000
0.0657 0.3965 0.0000
0.0657 0.4015 0.0000
0.0657 0.4066 0.0000
0.0657 0.4116 0.0000
0.0657 0.4167 0.0000
0.0657 0.4217 0.0000
0.0657 0.4268 0.0000
0.0657 0.4318 0.0000
0.0657 0.4369 0.0000
0.0657 0.4419 0.0000
0.0657 0.4470 0.0000
0.0657 0.4520 0.0000
0.0657 0.4571 0.0000
0.0657 0.4621 0.0000
0.0657 0.4672 0.0000
0.0657 0.4722 0.0000
0.0657 0.4773 0.0000
0.0657 0.4823 0.0000
0.0657 0.4874 0.0000
0.0657 0.4924 0.0000
0.0657 0.4975 0.0000
0.0758 0.0025 0.0000
0.0758 0.0076 0.0000
0.0758 0.0126 0.0000
0.0758 0.0177 0.0000
0.0758 0.0227 0.0000
0.0758 0.0278 0.0000
0.0758 0.0328 0.0000
0.0758 0.0379 0.0000
0.0758 0.0429 0.0000
0.0758 0.0480 0.0000
0.0758 0.0530 0.0000
0.0758 0.0581 0.0000
0.0758 0.0631 0.0000
0.0758 0.0682 0.0000
0.0758 0.0732 0.0000
0.0758 0.0783 0.0000
0.0758 0.0833 0.0000
0.0758 0.0884 0.0000
0.0758 0.0934 0.0000
0.0758 0.0985 0.0000
0.0758 0.1035 0.0000
0.0758 0.1086 0.0000
0.0758 0.1136 0.0000
0.0758 0.1187 0.0000
0.0758 0.1237 0.0000
0.0758 0.1288 0.0000
0.0758 0.1338 0.0000
0.0758 0.1389 0.0000
0.0758 0.1439 0.0000
0.0758 0.1490 0.0000
0.0758 0.1540 0.0000
0.0758 0.1591 0.0000
0.0758 0.1641 0.0000
0.0758 0.1692 0.0000
0.0758 0.1742 0.0000
0.0758 0.1793 0.0000
0.0758 0.1843 0.0000
0.0758 0.1894 0.0000
0.0758 0.1944 0.0000
0.0758 0.1995 0.0000
0.0758 0.2045 0.0000
0.0758 0.2096 0.0000
0.0758 0.2146 0.0000
0.0758 0.2197 0.0000
0.0758 0.2247 0.0000
0.0758 0.2298 0.0000
0.0758 0.2348 0.0000
0.0758 0.2399 0.0000
0.0758 0.2449 0.0000
0.0758 0.2500 0.0000
0.0758 0.2551 0.0000
0.0758 0.2601 0.0000
0.0758 0.2652 0.0000
0.0758 0.2702 0.0000
0.0758 0.2753 0.0000
0.0758 0.2803 0.0000
0.0758 0.2854 0.0000
0.0758 0.2904 0.0000
0.0758 0.2955 0.0000
0.0758 0.3005 0.0000
0.0758 0.3056 0.0000
0.0758 0.3106 0.0000
0.0758 0.3157 0.0000
0.0758 0.3207 0.0000
0.0758 0.3258 0.0000
0.0758 0.3308 0.0000
0.0758 0.3359 0.0000
0.0758 0.3409 0.0000
0.0758 0.3460 0.0000
0.0758 0.3510 0.0000
0.0758 0.3561 0.0000
0.0758 0.3611 0.0000
0.0758 0.3662 0.0000
0.0758 0.3712 0.0000
0.0758 0.3763 0.0000
0.0758 0.3813 0.0000
0.0758 0.3864 0.0000
0.0758 0.3914 0.0000
0.0758 0.3965 0.0000
0.0758 0.4015 0.0000
0.0758 0.4066 0.0000
0.0758 0.4116 0.0000
0.0758 0.4167 0.0000
0.0758 0.4217 0.0000
0.0758 0.4268 0.0000
0.0758 0.4318 0.0000
0.0758 0.4369 0.0000
0.0758 0.4419 0.0000
0.0758 0.4470 0.0000
0.0758 0.4520 0.0000
0.0758 0.4571 0.0000
0.0758 0.4621 0.0000
0.0758 0.4672 0.0000
0.0758 0.4722 0.0000
0.0758 0.4773 0.0000
0.0758 0.4823 0.0000
0.0758 0.4874 0.0000
0.0758 0.4924 0.0000
0.0758 0.4975 0.0000
0.0859 0.0025 0.0000
0.0859 0.0076 0.0000
0.0859 0.0126 0.0000
0.0859 0.0177 0.0000
0.0859 0.0227 0.0000
0.0859 0.0278 0.0000
0.0859 0.0328 0.0000
0.0859 0.0379 0.0000
0.0859 0.0429 0.0000
0.0859 0.0480 0.0000
0.0859 0.0530 0.0000
0.0859 0.0581 0.0000
0.0859 0.0631 0.0000
0.0859 0.0682 0.0000
0.0859 0.0732 0.0000
0.0859 0.0783 0.0000
0.0859 0.0833 0.0000
0.0859 0.0884 0.0000
0.0859 0.0934 0.0000
0.0859 0.0985 0.0000
0.0859 0.1035 0.0000
0.0859 0.1086 0.0000
0.0859 0.1136 0.0000
0.0859 0.1187 0.0000
0.0859 0.1237 0.0000
0.0859 0.1288 0.0000
0.0859 0.1338 0.0000
0.0859 0.1389 0.0000
0.0859 0.1439 0.0000
0.0859 0.1490 0.0000
0.0859 0.1540 0.0000
0.0859 0.1591 0.0000
0.0859 0.1641 0.0000
0.0859 0.1692 0.0000
0.0859 0.1742 0.0000
0.0859 0.1793 0.0000
0.0859 0.1843 0.0000
0.0859 0.1894 0.0000
0.0859 0.1944 0.0000
0.0859 0.1995 0.0000
0.0859 0.2045 0.0000
0.0859 0.2096 0.0000
0.0859 0.2146 0.0000
0.0859 0.2197 0.0000
0.0859 0.2247 0.0000
0.0859 0.2298 0.0000
0.0859 0.2348 0.0000
0.0859 0.2399 0.0000
0.0859 0.2449 0.0000
0.0859 0.2500 0.0000
0.0859 0.2551 0.0000
0.0859 0.2601 0.0000
0.0859 0.2652 0.0000
0.0859 0.2702 0.0000
0.0859 0.2753 0.0000
0.0859 0.2803 0.0000
0.0859 0.2854 0.0000
0.0859 0.2904 0.0000
0.0859 0.2955 0.0000
0.0859 0.3005 0.0000
0.0859 0.3056 0.0000
0.0859 0.3106 0.0000
0.0859 0.3157 0.0000
0.0859 0.3207 0.0000
0.0859 0.3258 0.0000
0.0859 0.3308 0.0000
0.0859 0.3359 0.0000
0.0859 0.3409 0.0000
0.0859 0.3460 0.0000
0.0859 0.3510 0.0000
0.0859 0.3561 0.0000
0.0859 0.3611 0.0000
0.0859 0.3662 0.0000
0.0859 0.3712 0.0000
0.0859 0.3763 0.0000
0.0859 0.3813 0.0000
0.0859 0.3864 0.0000
0.0859 0.3914 0.0000
0.0859 0.3965 0.0000
0.0859 0.4015 0.0000
0.0859 0.4066 0.0000
0.0859 0.4116 0.0000
0.0859 0.4167 0.0000
0.0859 0.4217 0.0000
0.0859 0.4268 0.0000
0.0859 0.4318 0.0000
0.0859 0.4369 0.0000
0.0859 0.4419 0.0000
0.0859 0.4470 0.0000
0.0859 0.4520 0.0000
0.0859 0.4571 0.0000
0.0859 0.4621 0.0000
0.0859 0.4672 0.0000
0.0859 0.4722 0.0000
0.0859 0.4773 0.0000
0.0859 0.4823 0.0000
0.0859 0.4874 0.0000
0.0859 0.4924 0.0000
0.0859 0.4975 0.0000
0.0960 0.0025 0.0000
0.0960 0.0076 0.0000
0.0960 0.0126 0.0000
0.0960 0.0177 0.0000
0.0960 0.0227 0.0000
0.0960 0.0278 0.0000
0.0960 0.0328 0.0000
0.0960 0.0379 0.0000
0.0960 0.0429 0.0000
0.0960 0.0480 0.0000
0.0960 0.0530 0.0000
0.0960 0.0581 0.0000
0.0960 0.0631 0.0000
0.0960 0.0682 0.0000
0.0960 0.0732 0.0000
0.0960 0.0783 0.0000
0.0960 0.0833 0.0000
0.0960 0.0884 0.0000
0.0960 0.0934 0.0000
0.0960 0.0985 0.0000
0.0960 0.1035 0.0000
0.0960 0.1086 0.0000
0.0960 0.1136 0.0000
0.0960 0.1187 0.0000
0.0960 0.1237 0.0000
0.0960 0.1288 0.0000
0.0960 0.1338 0.0000
0.0960 0.1389 0.0000
0.0960 0.1439 0.0000
0.0960 0.1490 0.0000
0.0960 0.1540 0.0000
0.0960 0.1591 0.0000
0.0960 0.1641 0.0000
0.0960 0.1692 0.0000
0.0960 0.1742 0.0000
0.0960 0.1793 0.0000
0.0960 0.1843 0.0000
0.0960 0.1894 0.0000
0.0960 0.1944 0.0000
0.0960 0.1995 0.0000
0.0960 0.2045 0.0000
0.0960 0.2096 0.0000
0.0960 0.2146 0.0000
0.0960 0.2197 0.0000
0.0960 0.2247 0.0000
0.0960 0.2298 0.0000
0.0960 0.2348 0.0000
0.0960 0.2399 0.0000
0.0960 0.2449 0.0000
0.0960 0.2500 0.0000
0.0960 0.2551 0.0000
0.0960 0.2601 0.0000
0.0960 0.2652 0.0000
0.0960 0.2702 0.0000
0.0960 0.2753 0.0000
0.0960 0.2803 0.0000
0.0960 0.2854 0.0000
0.0960 0.2904 0.0000
0.0960 0.2955 0.0000
0.0960 0.3005 0.0000
0.0960 0.3056 0.0000
0.0960 0.3106 0.0000
0.0960 0.3157 0.0000
0.0960 0.3207 0.0000
0.0960 0.3258 0.0000
0.0960 0.3308 0.0000
0.0960 0.3359 0.0000
0.0960 0.3409 0.0000
0.0960 0.3460 0.0000
0.0960 0.3510 0.0000
0.0960 0.3561 0.0000
0.0960 0.3611 0.0000
0.0960 0.3662 0.0000
0.0960 0.3712 0.0000
0.0960 0.3763 0.0000
0.0960 0.3813 0.0000
0.0960 0.3864 0.0000
0.0960 0.3914 0.0000
0.0960 0.3965 0.0000
0.0960 0.4015 0.0000
0.0960 0.4066 0.0000
0.0960 0.4116 0.0000
0.0960 0.4167 0.0000
0.0960 0.4217 0.0000
0.0960 0.4268 0.0000
0.0960 0.4318 0.0000
0.0960 0.4369 0.0000
0.0960 0.4419 0.0000
0.0960 0.4470 0.0000
0.0960 0.4520 0.0000
0.0960 0.4571 0.0000
0.0960 0.4621 0.0000
0.0960 0.4672 0.0000
0.0960 0.4722 0.0000
0.0960 0.4773 0.0000
0.0960 0.4823 0.0000
0.0960 0.4874 0.0000
0.0960 0.4924 0.0000
0.0960 0.4975 0.0000
0.1061 0.0025 0.0000
0.1061 0.0076 0.0000
0.1061 0.0126 0.0000
0.1061 0.0177 0.0000
0.1061 0.0227 0.0000
0.1061 0.0278 0.0000
0.1061 0.0328 0.0000
0.1061 0.0379 0.0000
0.1061 0.0429 0.0000
0.1061 0.0480 0.0000
0.1061 0.0530 0.0000
0.1061 0.0581 0.0000
0.1061 0.0631 0.0000
0.1061 0.0682 0.0000
0.1061 0.0732 0.0000
0.1061 0.0783 0.0000
0.1061 0.0833 0.0000
0.1061 0.0884 0.0000
0.1061 0.0934 0.0000
0.1061 0.0985 0.0000
0.1061 0.1035 0.0000
0.1061 0.1086 0.0000
0.1061 0.1136 0.0000
0.1061 0.1187 0.0000
0.1061 0.1237 0.0000
0.1061 0.1288 0.0000
0.1061 0.1338 0.0000
0.1061 0.1389 0.0000
0.1061 0.1439 0.0000
0.1061 0.1490 0.0000
0.1061 0.1540 0.0000
0.1061 0.1591 0.0000
0.1061 0.1641 0.0000
0.1061 0.1692 0.0000
0.1061 0.1742 0.0000
0.1061 0.1793 0.0000
0.1061 0.1843 0.0000
0.1061 0.1894 0.0000
0.1061 0.1944 0.0000
0.1061 0.1995 0.0000
0.1061 0.2045 0.0000
0.1061 0.2096 0.0000
0.1061 0.2146 0.0000
0.1061 0.2197 0.0000
0.1061 0.2247 0.0000
0.1061 0.2298 0.0000
0.1061 0.2348 0.0000
0.1061 0.2399 0.0000
0.1061 0.2449 0.0000
0.1061 0.2500 0.0000
0.1061 0.2551 0.0000
0.1061 0.2601 0.0000
0.1061 0.2652 0.0000
0.1061 0.2702 0.0000
0.1061 0.2753 0.0000
0.1061 0.2803 0.0000
0.1061 0.2854 0.0000
0.1061 0.2904 0.0000
0.1061 0.2955 0.0000
0.1061 0.3005 0.0000
0.1061 0.3056 0.0000
0.1061 0.3106 0.0000
0.1061 0.3157 0.0000
0.1061 0.3207 0.0000
0.1061 0.3258 0.0000
0.1061 0.3308 0.0000
0.1061 0.3359 0.0000
0.1061 0.3409 0.0000
0.1061 0.3460 0.0000
0.1061 0.3510 0.0000
0.1061 0.3561 0.0000
0.1061 0.3611 0.0000
0.1061 0.3662 0.0000
0.1061 0.3712 0.0000
0.1061 0.3763 0.0000
0.1061 0.3813 0.0000
0.1061 0.3864 0.0000
0.1061 0.3914 0.0000
0.1061 0.3965 0.0000
0.1061 0.4015 0.0000
0.1061 0.4066 0.0000
0.1061 0.4116 0.0000
0.1061 0.4167 0.0000
0.1061 0.4217 0.0000
0.1061 0.4268 0.0000
0.1061 0.4318 0.0000
0.1061 0.4369 0.0000
0.1061 0.4419 0.0000
0.1061 0.4470 0.0000
0.1061 0.4520 0.0000
0.1061 0.4571 0.0000
0.1061 0.4621 0.0000
0.1061 0.4672 0.0000
0.1061 0.4722 0.0000
0.1061 0.4773 0.0000
0.1061 0.4823 0.0000
0.1061 0.4874 0.0000
0.1061 0.4924 0.0000
0.1061 0.4975 0.0000
0.1162 0.0025 0.0000
0.1162 0.0076 0.0000
0.1162 0.0126 0.0000
0.1162 0.0177 0.0000
0.1162 0.0227 0.0000
0.1162 0.0278 0.0000
0.1162 0.0328 0.0000
0.1162 0.0379 0.0000
0.1162 0.0429 0.0000
0.1162 0.0480 0.0000
0.1162 0.0530 0.0000
0.1162 0.0581 0.0000
0.1162 0.0631 0.0000
0.1162 0.0682 0.0000
0.1162 0.0732 0.0000
0.1162 0.0783 0.0000
0.1162 0.0833 0.0000
0.1162 0.0884 0.0000
0.1162 0.0934 0.0000
0.1162 0.0985 0.0000
0.1162 0.1035 0.0000
0.1162 0.1086 0.0000
0.1162 0.1136 0.0000
0.1162 0.1187 0.0000
0.1162 0.1237 0.0000
0.1162 0.1288 0.0000
0.1162 0.1338 0.0000
0.1162 0.1389 0.0000
0.1162 0.1439 0.0000
0.1162 0.1490 0.0000
0.1162 0.1540 0.0000
0.1162 0.1591 0.0000
0.1162 0.1641 0.0000
0.1162 0.1692 0.0000
0.1162 0.1742 0.0000
0.1162 0.1793 0.0000
0.1162 0.1843 0.0000
0.1162 0.1894 0.0000
0.1162 0.1944 0.0000
0.1162 0.1995 0.0000
0.1162 0.2045 0.0000
0.1162 0.2096 0.0000
0.1162 0.2146 0.0000
0.1162 0.2197 0.0000
0.1162 0.2247 0.0000
0.1162 0.2298 0.0000
0.1162 0.2348 0.0000
0.1162 0.2399 0.0000
0.1162 0.2449 0.0000
0.1162 0.2500 0.0000
0.1162 0.2551 0.0000
0.1162 0.2601 0.0000
0.1162 0.2652 0.0000
0.1162 0.2702 0.0000
0.1162 0.2753 0.0000
0.1162 0.2803 0.0000
0.1162 0.2854 0.0000
0.1162 0.2904 0.0000
0.1162 0.2955 0.0000
0.1162 0.3005 0.0000
0.1162 0.3056 0.0000
0.1162 0.3106 0.0000
0.1162 0.3157 0.0000
0.1162 0.3207 0.0000
0.1162 0.3258 0.0000
0.1162 0.3308 0.0000
0.1162 0.3359 0.0000
0.1162 0.3409 0.0000
0.1162 0.3460 0.0000
0.1162 0.3510 0.0000
0.1162 0.3561 0.0000
0.1162 0.3611 0.0000
0.1162 0.3662 0.0000
0.1162 0.3712 0.0000
0.1162 0.3763 0.0000
0.1162 0.3813 0.0000
0.1162 0.3864 0.0000
0.1162 0.3914 0.0000
0.1162 0.3965 0.0000
0.1162 0.4015 0.0000
0.1162 0.4066 0.0000
0.1162 0.4116 0.0000
0.1162 0.4167 0.0000
0.1162 0.4217 0.0000
0.1162 0.4268 0.0000
0.1162 0.4318 0.0000
0.1162 0.4369 0.0000
0.1162 0.4419 0.0000
0.1162 0.4470 0.0000
0.1162 0.4520 0.0000
0.1162 0.4571 0.0000
0.1162 0.4621 0.0000
0.1162 0.4672 0.0000
0.1162 0.4722 0.0000
0.1162 0.4773 0.0000
0.1162 0.4823 0.0000
0.1162 0.4874 0.0000
0.1162 0.4924 0.0000
0.1162 0.4975 0.0000
0.1263 0.0025 0.0000
0.1263 0.0076 0.0000
0.1263 0.0126 0.0000
0.1263 0.0177 0.0000
0.1263 0.0227 0.0000
0.1263 0.0278 0.0000
0.1263 0.0328 0.0000
0.1263 0.0379 0.0000
0.1263 0.0429 0.0000
0.1263 0.0480 0.0000
0.1263 0.0530 0.0000
0.1263 0.0581 0.0000
0.1263 0.0631 0.0000
0.1263 0.0682 0.0000
0.1263 0.0732 0.0000
0.1263 0.0783 0.0000
0.1263 0.0833 0.0000
0.1263 0.0884 0.0000
0.1263 0.0934 0.0000
0.1263 0.0985 0.0000
0.1263 0.1035 0.0000
0.1263 0.1086 0.0000
0.1263 0.1136 0.0000
0.1263 0.1187 0.0000
0.1263 0.1237 0.0000
0.1263 0.1288 0.0000
0.1263 0.1338 0.0000
0.1263 0.1389 0.0000
0.1263 0.1439 0.0000
0.1263 0.1490 0.0000
0.1263 0.1540 0.0000
0.1263 0.1591 0.0000
0.1263 0.1641 0.0000
0.1263 0.1692 0.0000
0.1263 0.1742 0.0000
0.1263 0.1793 0.0000
0.1263 0.1843 0.0000
0.1263 0.1894 0.0000
0.1263 0.1944 0.0000
0.1263 0.1995 0.0000
0.1263 0.2045 0.0000
0.1263 0.2096 0.0000
0.1263 0.2146 0.0000
0.1263 0.2197 0.0000
0.1263 0.2247 0.0000
0.1263 0.2298 0.0000
0.1263 0.2348 0.0000
0.1263 0.2399 0.0000
0.1263 0.2449 0.0000
0.1263 0.2500 0.0000
0.1263 0.2551 0.0000
0.1263 0.2601 0.0000
0.1263 0.2652 0.0000
0.1263 0.2702 0.0000
0.1263 0.2753 0.0000
0.1263 0.2803 0.0000
0.1263 0.2854 0.0000
0.1263 0.2904 0.0000
0.1263 0.2955 0.0000
0.1263 0.3005 0.0000
0.1263 0.3056 0.0000
0.1263 0.3106 0.0000
0.1263 0.3157 0.0000
0.1263 0.3207 0.0000
0.1263 0.3258 0.0000
0.1263 0.3308 0.0000
0.1263 0.3359 0.0000
0.1263 0.3409 0.0000
0.1263 0.3460 0.0000
0.1263 0.3510 0.0000
0.1263 0.3561 0.0000
0.1263 0.3611 0.0000
0.1263 0.3662 0.0000
0.1263 0.3712 0.0000
0.1263 0.3763 0.0000
0.1263 0.3813 0.0000
0.1263 0.3864 0.0000
0.1263 0.3914 0.0000
0.1263 0.3965 0.0000
0.1263 0.4015 0.0000
0.1263 0.4066 0.0000
0.1263 0.4116 0.0000
0.1263 0.4167 0.0000
0.1263 0.4217 0.0000
0.1263 0.4268 0.0000
0.1263 0.4318 0.0000
0.1263 0.4369 0.0000
0.1263 0.4419 0.0000
0.1263 0.4470 0.0000
0.1263 0.4520 0.0000
0.1263 0.4571 0.0000
0.1263 0.4621 0.0000
0.1263 0.4672 0.0000
0.1263 0.4722 0.0000
0.1263 0.4773 0.0000
0.1263 0.4823 0.0000
0.1263 0.4874 0.0000
0.1263 0.4924 0.0000
0.1263 0.4975 0.0000
0.1364 0.0025 0.0000
0.1364 0.0076 0.0000
0.1364 0.0126 0.0000
0.1364 0.0177 0.0000
0.1364 0.0227 0.0000
0.1364 0.0278 0.0000
0.1364 0.0328 0.0000
0.1364 0.0379 0.0000
0.1364 0.0429 0.0000
0.1364 0.0480 0.0000
0.1364 0.0530 0.0000
0.1364 0.0581 0.0000
0.1364 0.0631 0.0000
0.1364 0.0682 0.0000
0.1364 0.0732 0.0000
0.1364 0.0783 0.0000
0.1364 0.0833 0.0000
0.1364 0.0884 0.0000
0.1364 0.0934 0.0000
0.1364 0.0985 0.0000
0.1364 0.1035 0.0000
0.1364 0.1086 0.0000
0.1364 0.1136 0.0000
0.1364 0.1187 0.0000
0.1364 0.1237 0.0000
0.1364 0.1288 0.0000
0.1364 0.1338 0.0000
0.1364 0.1389 0.0000
0.1364 0.1439 0.0000
0.1364 0.1490 0.0000
0.1364 0.1540 0.0000
0.1364 0.1591 0.0000
0.1364 0.1641 0.0000
0.1364 0.1692 0.0000
0.1364 0.1742 0.0000
0.1364 0.1793 0.0000
0.1364 0.1843 0.0000
0.1364 0.1894 0.0000
0.1364 0.1944 0.0000
0.1364 0.1995 0.0000
0.1364 0.2045 0.0000
0.1364 0.2096 0.0000
0.1364 0.2146 0.0000
0.1364 0.2197 0.0000
0.1364 0.2247 0.0000
0.1364 0.2298 0.0000
0.1364 0.2348 0.0000
0.1364 0.2399 0.0000
0.1364 0.2449 0.0000
0.1364 0.2500 0.0000
0.1364 0.2551 0.0000
0.1364 0.2601 0.0000
0.1364 0.2652 0.0000
0.1364 0.2702 0.0000
0.1364 0.2753 0.0000
0.1364 0.2803 0.0000
0.1364 0.2854 0.0000
0.1364 0.2904 0.0000
0.1364 0.2955 0.0000
0.1364 0.3005 0.0000
0.1364 0.3056 0.0000
0.1364 0.3106 0.0000
0.1364 0.3157 0.0000
0.1364 0.3207 0.0000
0.1364 0.3258 0.0000
0.1364 0.3308 0.0000
0.1364 0.3359 0.0000
0.1364 0.3409 0.0000
0.1364 0.3460 0.0000
0.1364 0.3510 0.0000
0.1364 0.3561 0.0000
0.1364 0.3611 0.0000
0.1364 0.3662 0.0000
0.1364 0.3712 0.0000
0.1364 0.3763 0.0000
0.1364 0.3813 0.0000
0.1364 0.3864 0.0000
0.1364 0.3914 0.0000
0.1364 0.3965 0.0000
0.1364 0.4015 0.0000
0.1364 0.4066 0.0000
0.1364 0.4116 0.0000
0.1364 0.4167 0.0000
0.1364 0.4217 0.0000
0.1364 0.4268 0.0000
0.1364 0.4318 0.0000
0.1364 0.4369 0.0000
0.1364 0.4419 0.0000
0.1364 0.4470 0.0000
0.1364 0.4520 0.0000
0.1364 0.4571 0.0000
0.1364 0.4621 0.0000
0.1364 0.4672 0.0000
0.1364 0.4722 0.0000
0.1364 0.4773 0.0000
0.1364 0.4823 0.0000
0.1364 0.4874 0.0000
0.1364 0.4924 0.0000
0.1364 0.4975 0.0000
0.1465 0.0025 0.0000
0.1465 0.0076 0.0000
0.1465 0.0126 0.0000
0.1465 0.0177 0.0000
0.1465 0.0227 0.0000
0.1465 0.0278 0.0000
0.1465 0.0328 0.0000
0.1465 0.0379 0.0000
0.1465 0.0429 0.0000
0.1465 0.0480 0.0000
0.1465 0.0530 0.0000
0.1465 0.0581 0.0000
0.1465 0.0631 0.0000
0.1465 0.0682 0.0000
0.1465 0.0732 0.0000
0.1465 0.0783 0.0000
0.1465 0.0833 0.0000
0.1465 0.0884 0.0000
0.1465 0.0934 0.0000
0.1465 0.0985 0.0000
0.1465 0.1035 0.0000
0.1465 0.1086 0.0000
0.1465 0.1136 0.0000
0.1465 0.1187 0.0000
0.1465 0.1237 0.0000
0.1465 0.1288 0.0000
0.1465 0.1338 0.0000
0.1465 0.1389 0.0000
0.1465 0.1439 0.0000
0.1465 0.1490 0.0000
0.1465 0.1540 0.0000
0.1465 0.1591 0.0000
0.1465 0.1641 0.0000
0.1465 0.1692 0.0000
0.1465 0.1742 0.0000
0.1465 0.1793 0.0000
0.1465 0.1843 0.0000
0.1465 0.1894 0.0000
0.1465 0.1944 0.0000
0.1465 0.1995 0.0000
0.1465 0.2045 0.0000
0.1465 0.2096 0.0000
0.1465 0.2146 0.0000
0.1465 0.2197 0.0000
0.1465 0.2247 0.0000
0.1465 0.2298 0.0000
0.1465 0.2348 0.0000
0.1465 0.2399 0.0000
0.1465 0.2449 0.0000
0.1465 0.2500 0.0000
0.1465 0.2551 0.0000
0.1465 0.2601 0.0000
0.1465 0.2652 0.0000
0.1465 0.2702 0.0000
0.1465 0.2753 0.0000
0.1465 0.2803 0.0000
0.1465 0.2854 0.0000
0.1465 0.2904 0.0000
0.1465 0.2955 0.0000
0.1465 0.3005 0.0000
0.1465 0.3056 0.0000
0.1465 0.3106 0.0000
0.1465 0.3157 0.0000
0.1465 0.3207 0.0000
0.1465 0.3258 0.0000
0.1465 0.3308 0.0000
0.1465 0.3359 0.0000
0.1465 0.3409 0.0000
0.1465 0.3460 0.0000
0.1465 0.3510 0.0000
0.1465 0.3561 0.0000
0.1465 0.3611 0.0000
0.1465 0.3662 0.0000
0.1465 0.3712 0.0000
0.1465 0.3763 0.0000
0.1465 0.3813 0.0000
0.1465 0.3864 0.0000
0.1465 0.3914 0.0000
0.1465 0.3965 0.0000
0.1465 0.4015 0.0000
0.1465 0.4066 0.0000
0.1465 0.4116 0.0000
0.1465 0.4167 0.0000
0.1465 0.4217 0.0000
0.1465 0.4268 0.0000
0.1465 0.4318 0.0000
0.1465 0.4369 0.0000
0.1465 0.4419 0.0000
0.1465 0.4470 0.0000
0.1465 0.4520 0.0000
0.1465 0.4571 0.0000
0.1465 0.4621 0.0000
0.1465 0.4672 0.0000
0.1465 0.4722 0.0000
0.1465 0.4773 0.0000
0.1465 0.4823 0.0000
0.1465 0.4874 0.0000
0.1465 0.4924 0.0000
0.1465 0.4975 0.0000
0.1566 0.0025 0.0000
0.1566 0.0076 0.0000
0.1566 0.0126 0.0000
0.1566 0.0177 0.0000
0.1566 0.0227 0.0000
0.1566 0.0278 0.0000
0.1566 0.0328 0.0000
0.1566 0.0379 0.0000
0.1566 0.0429 0.0000
0.1566 0.0480 0.0000
0.1566 0.0530 0.0000
0.1566 0.0581 0.0000
0.1566 0.0631 0.0000
0.1566 0.0682 0.0000
0.1566 0.0732 0.0000
0.1566 0.0783 0.0000
0.1566 0.0833 0.0000
0.1566 0.0884 0.0000
0.1566 0.0934 0.0000
0.1566 0.0985 0.0000
0.1566 0.1035 0.0000
0.1566 0.1086 0.0000
0.1566 0.1136 0.0000
0.1566 0.1187 0.0000
0.1566 0.1237 0.0000
0.1566 0.1288 0.0000
0.1566 0.1338 0.0000
0.1566 0.1389 0.0000
0.1566 0.1439 0.0000
0.1566 0.1490 0.0000
0.1566 0.1540 0.0000
0.1566 0.1591 0.0000
0.1566 0.1641 0.0000
0.1566 0.1692 0.0000
0.1566 0.1742 0.0000
0.1566 0.1793 0.0000
0.1566 0.1843 0.0000
0.1566 0.1894 0.0000
0.1566 0.1944 0.0000
0.1566 0.1995 0.0000
0.1566 0.2045 0.0000
0.1566 0.2096 0.0000
0.1566 0.2146 0.0000
0.1566 0.2197 0.0000
0.1566 0.2247 0.0000
0.1566 0.2298 0.0000
0.1566 0.2348 0.0000
0.1566 0.2399 0.0000
0.1566 0.2449 0.0000
0.1566 0.2500 0.0000
0.1566 0.2551 0.0000
0.1566 0.2601 0.0000
0.1566 0.2652 0.0000
0.1566 0.2702 0.0000
0.1566 0.2753 0.0000
0.1566 0.2803 0.0000
0.1566 0.2854 0.0000
0.1566 0.2904 0.0000
0.1566 0.2955 0.0000
0.1566 0.3005 0.0000
0.1566 0.3056 0.0000
0.1566 0.3106 0.0000
0.1566 0.3157 0.0000
0.1566 0.3207 0.0000
0.1566 0.3258 0.0000
0.1566 0.3308 0.0000
0.1566 0.3359 0.0000
0.1566 0.3409 0.0000
0.1566 0.3460 0.0000
0.1566 0.3510 0.0000
0.1566 0.3561 0.0000
0.1566 0.3611 0.0000
0.1566 0.3662 0.0000
0.1566 0.3712 0.0000
0.1566 0.3763 0.0000
0.1566 0.3813 0.0000
0.1566 0.3864 0.0000
0.1566 0.3914 0.0000
0.1566 0.3965 0.0000
0.1566 0.4015 0.0000
0.1566 0.4066 0.0000
0.1566 0.4116 0.0000
0.1566 0.4167 0.0000
0.1566 0.4217 0.0000
0.1566 0.4268 0.0000
0.1566 0.4318 0.0000
0.1566 0.4369 0.0000
0.1566 0.4419 0.0000
0.1566 0.4470 0.0000
0.1566 0.4520 0.0000
0.1566 0.4571 0.0000
0.1566 0.4621 0.0000
0.1566 0.4672 0.0000
0.1566 0.4722 0.0000
0.1566 0.4773 0.0000
0.1566 0.4823 0.0000
0.1566 0.4874 0.0000
0.1566 0.4924 0.0000
0.1566 0.4975 0.0000
0.1667 0.0025 0.0000
0.1667 0.0076 0.0000
0.1667 0.0126 0.0000
0.1667 0.0177 0.0000
0.1667 0.0227 0.0000
0.1667 0.0278 0.0000
0.1667 0.0328 0.0000
0.1667 0.0379 0.0000
0.1667 0.0429 0.0000
0.1667 0.0480 0.0000
0.1667 0.0530 0.0000
0.1667 0.0581 0.0000
0.1667 0.0631 0.0000
0.1667 0.0682 0.0000
0.1667 0.0732 0.0000
0.1667 0.0783 0.0000
0.1667 0.0833 0.0000
0.1667 0.0884 0.0000
0.1667 0.0934 0.0000
0.1667 0.0985 0.0000
0.1667 0.1035 0.0000
0.1667 0.1086 0.0000
0.1667 0.1136 0.0000
0.1667 0.1187 0.0000
0.1667 0.1237 0.0000
0.1667 0.1288 0.0000
0.1667 0.1338 0.0000
0.1667 0.1389 0.0000
0.1667 0.1439 0.0000
0.1667 0.1490 0.0000
0.1667 0.1540 0.0000
0.1667 0.1591 0.0000
0.1667 0.1641 0.0000
0.1667 0.1692 0.0000
0.1667 0.1742 0.0000
0.1667 0.1793 0.0000
0.1667 0.1843 0.0000
0.1667 0.1894 0.0000
0.1667 0.1944 0.0000
0.1667 0.1995 0.0000
0.1667 0.2045 0.0000
0.1667 0.2096 0.0000
0.1667 0.2146 0.0000
0.1667 0.2197 0.0000
0.1667 0.2247 0.0000
0.1667 0.2298 0.0000
0.1667 0.2348 0.0000
0.1667 0.2399 0.0000
0.1667 0.2449 0.0000
0.1667 0.2500 0.0000
0.1667 0.2551 0.0000
0.1667 0.2601 0.0000
0.1667 0.2652 0.0000
0.1667 0.2702 0.0000
0.1667 0.2753 0.0000
0.1667 0.2803 0.0000
0.1667 0.2854 0.0000
0.1667 0.2904 0.0000
0.1667 0.2955 0.0000
0.1667 0.3005 0.0000
0.1667 0.3056 0.0000
0.1667 0.3106 0.0000
0.1667 0.3157 0.0000
0.1667 0.3207 0.0000
0.1667 0.3258 0.0000
0.1667 0.3308 0.0000
0.1667 0.3359 0.0000
0.1667 0.3409 0.0000
0.1667 0.3460 0.0000
0.1667 0.3510 0.0000
0.1667 0.3561 0.0000
0.1667 0.3611 0.0000
0.1667 0.3662 0.0000
0.1667 0.3712 0.0000
0.1667 0.3763 0.0000
0.1667 0.3813 0.0000
0.1667 0.3864 0.0000
0.1667 0.3914 0.0000
0.1667 0.3965 0.0000
0.1667 0.4015 0.0000
0.1667 0.4066 0.0000
0.1667 0.4116 0.0000
0.1667 0.4167 0.0000
0.1667 0.4217 0.0000
0.1667 0.4268 0.0000
0.1667 0.4318 0.0000
0.1667 0.4369 0.0000
0.1667 0.4419 0.0000
0.1667 0.4470 0.0000
0.1667 0.4520 0.0000
0.1667 0.4571 0.0000
0.1667 0.4621 0.0000
0.1667 0.4672 0.0000
0.1667 0.4722 0.0000
0.1667 0.4773 0.0000
0.1667 0.4823 0.0000
0.1667 0.4874 0.0000
0.1667 0.4924 0.0000
0.1667 0.4975 0.0000
0.1768 0.0025 0.0000
0.1768 0.0076 0.0000
0.1768 0.0126 0.0000
0.1768 0.0177 0.0000
0.1768 0.0227 0.0000
0.1768 0.0278 0.0000
0.1768 0.0328 0.0000
0.1768 0.0379 0.0000
0.1768 0.0429 0.0000
0.1768 0.0480 0.0000
0.1768 0.0530 0.0000
0.1768 0.0581 0.0000
0.1768 0.0631 0.0000
0.1768 0.0682 0.0000
0.1768 0.0732 0.0000
0.1768 0.0783 0.0000
0.1768 0.0833 0.0000
0.1768 0.0884 0.0000
0.1768 0.0934 0.0000
0.1768 0.0985 0.0000
0.1768 0.1035 0.0000
0.1768 0.1086 0.0000
0.1768 0.1136 0.0000
0.1768 0.1187 0.0000
0.1768 0.1237 0.0000
0.1768 0.1288 0.0000
0.1768 0.1338 0.0000
0.1768 0.1389 0.0000
0.1768 0.1439 0.0000
0.1768 0.1490 0.0000
0.1768 0.1540 0.0000
0.1768 0.1591 0.0000
0.1768 0.1641 0.0000
0.1768 0.1692 0.0000
0.1768 0.1742 0.0000
0.1768 0.1793 0.0000
0.1768 0.1843 0.0000
0.1768 0.1894 0.0000
0.1768 0.1944 0.0000
0.1768 0.1995 0.0000
0.1768 0.2045 0.0000
0.1768 0.2096 0.0000
0.1768 0.2146 0.0000
0.1768 0.2197 0.0000
0.1768 0.2247 0.0000
0.1768 0.2298 0.0000
0.1768 0.2348 0.0000
0.1768 0.2399 0.0000
0.1768 0.2449 0.0000
0.1768 0.2500 0.0000
0.1768 0.2551 0.0000
0.1768 0.2601 0.0000
0.1768 0.2652 0.0000
0.1768 0.2702 0.0000
0.1768 0.2753 0.0000
0.1768 0.2803 0.0000
0.1768 0.2854 0.0000
0.1768 0.2904 0.0000
0.1768 0.2955 0.0000
0.1768 0.3005 0.0000
0.1768 0.3056 0.0000
0.1768 0.3106 0.0000
0.1768 0.3157 0.0000
0.1768 0.3207 0.0000
0.1768 0.3258 0.0000
0.1768 0.3308 0.0000
0.1768 0.3359 0.0000
0.1768 0.3409 0.0000
0.1768 0.3460 0.0000
0.1768 0.3510 0.0000
0.1768 0.3561 0.0000
0.1768 0.3611 0.0000
0.1768 0.3662 0.0000
0.1768 0.3712 0.0000
0.1768 0.3763 0.0000
0.1768 0.3813 0.0000
0.1768 0.3864 0.0000
0.1768 0.3914 0.0000
0.1768 0.3965 0.0000
0.1768 0.4015 0.0000
0.1768 0.4066 0.0000
0.1768 0.4116 0.0000
0.1768 0.4167 0.0000
0.1768 0.4217 0.0000
0.1768 0.4268 0.0000
0.1768 0.4318 0.0000
0.1768 0.4369 0.0000
0.1768 0.4419 0.0000
0.1768 0.4470 0.0000
0.1768 0.4520 0.0000
0.1768 0.4571 0.0000
0.1768 0.4621 0.0000
0.1768 0.4672 0.0000
0.1768 0.4722 0.0000
0.1768 0.4773 0.0000
0.1768 0.4823 0.0000
0.1768 0.4874 0.0000
0.1768 0.4924 0.0000
0.1768 0.4975 0.0000
0.1869 0.0025 0.0000
0.1869 0.0076 0.0000
0.1869 0.0126 0.0000
0.1869 0.0177 0.0000
0.1869 0.0227 0.0000
0.1869 0.0278 0.0000
0.1869 0.0328 0.0000
0.1869 0.0379 0.0000
0.1869 0.0429 0.0000
0.1869 0.0480 0.0000
0.1869 0.0530 0.0000
0.1869 0.0581 0.0000
0.1869 0.0631 0.0000
0.1869 0.0682 0.0000
0.1869 0.0732 0.0000
0.1869 0.0783 0.0000
0.1869 0.0833 0.0000
0.1869 0.0884 0.0000
0.1869 0.0934 0.0000
0.1869 0.0985 0.0000
0.1869 0.1035 0.0000
0.1869 0.1086 0.0000
0.1869 0.1136 0.0000
0.1869 0.1187 0.0000
0.1869 0.1237 0.0000
0.1869 0.1288 0.0000
0.1869 0.1338 0.0000
0.1869 0.1389 0.0000
0.1869 0.1439 0.0000
0.1869 0.1490 0.0000
0.1869 0.1540 0.0000
0.1869 0.1591 0.0000
0.1869 0.1641 0.0000
0.1869 0.1692 0.0000
0.1869 0.1742 0.0000
0.1869 0.1793 0.0000
0.1869 0.1843 0.0000
0.1869 0.1894 0.0000
0.1869 0.1944 0.0000
0.1869 0.1995 0.0000
0.1869 0.2045 0.0000
0.1869 0.2096 0.0000
0.1869 0.2146 0.0000
0.1869 0.2197 0.0000
0.1869 0.2247 0.0000
0.1869 0.2298 0.0000
0.1869 0.2348 0.0000
0.1869 0.2399 0.0000
0.1869 0.2449 0.0000
0.1869 0.2500 0.0000
0.1869 0.2551 0.0000
0.1869 0.2601 0.0000
0.1869 0.2652 0.0000
0.1869 0.2702 0.0000
0.1869 0.2753 0.0000
0.1869 0.2803 0.0000
0.1869 0.2854 0.0000
0.1869 0.2904 0.0000
0.1869 0.2955 0.0000
0.1869 0.3005 0.0000
0.1869 0.3056 0.0000
0.1869 0.3106 0.0000
0.1869 0.3157 0.0000
0.1869 0.3207 0.0000
0.1869 0.3258 0.0000
0.1869 0.3308 0.0000
0.1869 0.3359 0.0000
0.1869 0.3409 0.0000
0.1869 0.3460 0.0000
0.1869 0.3510 0.0000
0.1869 0.3561 0.0000
0.1869 0.3611 0.0000
0.1869 0.3662 0.0000
0.1869 0.3712 0.0000
0.1869 0.3763 0.0000
0.1869 0.3813 0.0000
0.1869 0.3864 0.0000
0.1869 0.3914 0.0000
0.1869 0.3965 0.0000
0.1869 0.4015 0.0000
0.1869 0.4066 0.0000
0.1869 0.4116 0.0000
0.1869 0.4167 0.0000
0.1869 0.4217 0.0000
0.1869 0.4268 0.0000
0.1869 0.4318 0.0000
0.1869 0.4369 0.0000
0.1869 0.4419 0.0000
0.1869 0.4470 0.0000
0.1869 0.4520 0.0000
0.1869 0.4571 0.0000
0.1869 0.4621 0.0000
0.1869 0.4672 0.0000
0.1869 0.4722 0.0000
0.1869 0.4773 0.0000
0.1869 0.4823 0.0000
0.1869 0.4874 0.0000
0.1869 0.4924 0.0000
0.1869 0.4975 0.0000
0.1970 0.0025 0.0000
0.1970 0.0076 0.0000
0.1970 0.0126 0.0000
0.1970 0.0177 0.0000
0.1970 0.0227 0.0000
0.1970 0.0278 0.0000
0.1970 0.0328 0.0000
0.1970 0.0379 0.0000
0.1970 0.0429 0.0000
0.1970 0.0480 0.0000
0.1970 0.0530 0.0000
0.1970 0.0581 0.0000
0.1970 0.0631 0.0000
0.1970 0.0682 0.0000
0.1970 0.0732 0.0000
0.1970 0.0783 0.0000
0.1970 0.0833 0.0000
0.1970 0.0884 0.0000
0.1970 0.0934 0.0000
0.1970 0.0985 0.0000
0.1970 0.1035 0.0000
0.1970 0.1086 0.0000
0.1970 0.1136 0.0000
0.1970 0.1187 0.0000
0.1970 0.1237 0.0000
0.1970 0.1288 0.0000
0.1970 0.1338 0.0000
0.1970 0.1389 0.0000
0.1970 0.1439 0.0000
0.1970 0.1490 0.0000
0.1970 0.1540 0.0000
0.1970 0.1591 0.0000
0.1970 0.1641 0.0000
0.1970 0.1692 0.0000
0.1970 0.1742 0.0000
0.1970 0.1793 0.0000
0.1970 0.1843 0.0000
0.1970 0.1894 0.0000
0.1970 0.1944 0.0000
0.1970 0.1995 0.0000
0.1970 0.2045 0.0000
0.1970 0.2096 0.0000
0.1970 0.2146 0.0000
0.1970 0.2197 0.0000
0.1970 0.2247 0.0000
0.1970 0.2298 0.0000
0.1970 0.2348 0.0000
0.1970 0.2399 0.0000
0.1970 0.2449 0.0000
0.1970 0.2500 0.0000
0.1970 0.2551 0.0000
0.1970 0.2601 0.0000
0.1970 0.2652 0.0000
0.1970 0.2702 0.0000
0.1970 0.2753 0.0000
0.1970 0.2803 0.0000
0.1970 0.2854 0.0000
0.1970 0.2904 0.0000
0.1970 0.2955 0.0000
0.1970 0.3005 0.0000
0.1970 0.3056 0.0000
0.1970 0.3106 0.0000
0.1970 0.3157 0.0000
0.1970 0.3207 0.0000
0.1970 0.3258 0.0000
0.1970 0.3308 0.0000
0.1970 0.3359 0.0000
0.1970 0.3409 0.0000
0.1970 0.3460 0.0000
0.1970 0.3510 0.0000
0.1970 0.3561 0.0000
0.1970 0.3611 0.0000
0.1970 0.3662 0.0000
0.1970 0.3712 0.0000
0.1970 0.3763 0.0000
0.1970 0.3813 0.0000
0.1970 0.3864 0.0000
0.1970 0.3914 0.0000
0.1970 0.3965 0.0000
0.1970 0.4015 0.0000
0.1970 0.4066 0.0000
0.1970 0.4116 0.0000
0.1970 0.4167 0.0000
0.1970 0.4217 0.0000
0.1970 0.4268 0.0000
0.1970 0.4318 0.0000
0.1970 0.4369 0.0000
0.1970 0.4419 0.0000
0.1970 0.4470 0.0000
0.1970 0.4520 0.0000
0.1970 0.4571 0.0000
0.1970 0.4621 0.0000
0.1970 0.4672 0.0000
0.1970 0.4722 0.0000
0.1970 0.4773 0.0000
0.1970 0.4823 0.0000
0.1970 0.4874 0.0000
0.1970 0.4924 0.0000
0.1970 0.4975 0.0000
0.2071 0.0025 0.0000
0.2071 0.0076 0.0000
0.2071 0.0126 0.0000
0.2071 0.0177 0.0000
0.2071 0.0227 0.0000
0.2071 0.0278 0.0000
0.2071 0.0328 0.0000
0.2071 0.0379 0.0000
0.2071 0.0429 0.0000
0.2071 0.0480 0.0000
0.2071 0.0530 0.0000
0.2071 0.0581 0.0000
0.2071 0.0631 0.0000
0.2071 0.0682 0.0000
0.2071 0.0732 0.0000
0.2071 0.0783 0.0000
0.2071 0.0833 0.0000
0.2071 0.0884 0.0000
0.2071 0.0934 0.0000
0.2071 0.0985 0.0000
0.2071 0.1035 0.0000
0.2071 0.1086 0.0000
0.2071 0.1136 0.0000
0.2071 0.1187 0.0000
0.2071 0.1237 0.0000
0.2071 0.1288 0.0000
0.2071 0.1338 0.0000
0.2071 0.1389 0.0000
0.2071 0.1439 0.0000
0.2071 0.1490 0.0000
0.2071 0.1540 0.0000
0.2071 0.1591 0.0000
0.2071 0.1641 0.0000
0.2071 0.1692 0.0000
0.2071 0.1742 0.0000
0.2071 0.1793 0.0000
0.2071 0.1843 0.0000
0.2071 0.1894 0.0000
0.2071 0.1944 0.0000
0.2071 0.1995 0.0000
0.2071 0.2045 0.0000
0.2071 0.2096 0.0000
0.2071 0.2146 0.0000
0.2071 0.2197 0.0000
0.2071 0.2247 0.0000
0.2071 0.2298 0.0000
0.2071 0.2348 0.0000
0.2071 0.2399 0.0000
0.2071 0.2449 0.0000
0.2071 0.2500 0.0000
0.2071 0.2551 0.0000
0.2071 0.2601 0.0000
0.2071 0.2652 0.0000
0.2071 0.2702 0.0000
0.2071 0.2753 0.0000
0.2071 0.2803 0.0000
0.2071 0.2854 0.0000
0.2071 0.2904 0.0000
0.2071 0.2955 0.0000
0.2071 0.3005 0.0000
0.2071 0.3056 0.0000
0.2071 0.3106 0.0000
0.2071 0.3157 0.0000
0.2071 0.3207 0.0000
0.2071 0.3258 0.0000
0.2071 0.3308 0.0000
0.2071 0.3359 0.0000
0.2071 0.3409 0.0000
0.2071 0.3460 0.0000
0.2071 0.3510 0.0000
0.2071 0.3561 0.0000
0.2071 0.3611 0.0000
0.2071 0.3662 0.0000
0.2071 0.3712 0.0000
0.2071 0.3763 0.0000
0.2071 0.3813 0.0000
0.2071 0.3864 0.0000
0.2071 0.3914 0.0000
0.2071 0.3965 0.0000
0.2071 0.4015 0.0000
0.2071 0.4066 0.0000
0.2071 0.4116 0.0000
0.2071 0.4167 0.0000
0.2071 0.4217 0.0000
0.2071 0.4268 0.0000
0.2071 0.4318 0.0000
0.2071 0.4369 0.0000
0.2071 0.4419 0.0000
0.2071 0.4470 0.0000
0.2071 0.4520 0.0000
0.2071 0.4571 0.0000
0.2071 0.4621 0.0000
0.2071 0.4672 0.0000
0.2071 0.4722 0.0000
0.2071 0.4773 0.0000
0.2071 0.4823 0.0000
0.2071 0.4874 0.0000
0.2071 0.4924 0.0000
0.2071 0.4975 0.0000
0.2172 0.0025 0.0000
0.2172 0.0076 0.0000
0.2172 0.0126 0.0000
0.2172 0.0177 0.0000
0.2172 0.0227 0.0000
0.2172 0.0278 0.0000
0.2172 0.0328 0.0000
0.2172 0.0379 0.0000
0.2172 0.0429 0.0000
0.2172 0.0480 0.0000
0.2172 0.0530 0.0000
0.2172 0.0581 0.0000
0.2172 0.0631 0.0000
0.2172 0.0682 0.0000
0.2172 0.0732 0.0000
0.2172 0.0783 0.0000
0.2172 0.0833 0.0000
0.2172 0.0884 0.0000
0.2172 0.0934 0.0000
0.2172 0.0985 0.0000
0.2172 0.1035 0.0000
0.2172 0.1086 0.0000
0.2172 0.1136 0.0000
0.2172 0.1187 0.0000
0.2172 0.1237 0.0000
0.2172 0.1288 0.0000
0.2172 0.1338 0.0000
0.2172 0.1389 0.0000
0.2172 0.1439 0.0000
0.2172 0.1490 0.0000
0.2172 0.1540 0.0000
0.2172 0.1591 0.0000
0.2172 0.1641 0.0000
0.2172 0.1692 0.0000
0.2172 0.1742 0.0000
0.2172 0.1793 0.0000
0.2172 0.1843 0.0000
0.2172 0.1894 0.0000
0.2172 0.1944 0.0000
0.2172 0.1995 0.0000
0.2172 0.2045 0.0000
0.2172 0.2096 0.0000
0.2172 0.2146 0.0000
0.2172 0.2197 0.0000
0.2172 0.2247 0.0000
0.2172 0.2298 0.0000
0.2172 0.2348 0.0000
0.2172 0.2399 0.0000
0.2172 0.2449 0.0000
0.2172 0.2500 0.0000
0.2172 0.2551 0.0000
0.2172 0.2601 0.0000
0.2172 0.2652 0.0000
0.2172 0.2702 0.0000
0.2172 0.2753 0.0000
0.2172 0.2803 0.0000
0.2172 0.2854 0.0000
0.2172 0.2904 0.0000
0.2172 0.2955 0.0000
0.2172 0.3005 0.0000
0.2172 0.3056 0.0000
0.2172 0.3106 0.0000
0.2172 0.3157 0.0000
0.2172 0.3207 0.0000
0.2172 0.3258 0.0000
0.2172 0.3308 0.0000
0.2172 0.3359 0.0000
0.2172 0.3409 0.0000
0.2172 0.3460 0.0000
0.2172 0.3510 0.0000
0.2172 0.3561 0.0000
0.2172 0.3611 0.0000
0.2172 0.3662 0.0000
0.2172 0.3712 0.0000
0.2172 0.3763 0.0000
0.2172 0.3813 0.0000
0.2172 0.3864 0.0000
0.2172 0.3914 0.0000
0.2172 0.3965 0.0000
0.2172 0.4015 0.0000
0.2172 0.4066 0.0000
0.2172 0.4116 0.0000
0.2172 0.4167 0.0000
0.2172 0.4217 0.0000
0.2172 0.4268 0.0000
0.2172 0.4318 0.0000
0.2172 0.4369 0.0000
0.2172 0.4419 0.0000
0.2172 0.4470 0.0000
0.2172 0.4520 0.0000
0.2172 0.4571 0.0000
0.2172 0.4621 0.0000
0.2172 0.4672 0.0000
0.2172 0.4722 0.0000
0.2172 0.4773 0.0000
0.2172 0.4823 0.0000
0.2172 0.4874 0.0000
0.2172 0.4924 0.0000
0.2172 0.4975 0.0000
0.2273 0.0025 0.0000
0.2273 0.0076 0.0000
0.2273 0.0126 0.0000
0.2273 0.0177 0.0000
0.2273 0.0227 0.0000
0.2273 0.0278 0.0000
0.2273 0.0328 0.0000
0.2273 0.0379 0.0000
0.2273 0.0429 0.0000
0.2273 0.0480 0.0000
0.2273 0.0530 0.0000
0.2273 0.0581 0.0000
0.2273 0.0631 0.0000
0.2273 0.0682 0.0000
0.2273 0.0732 0.0000
0.2273 0.0783 0.0000
0.2273 0.0833 0.0000
0.2273 0.0884 0.0000
0.2273 0.0934 0.0000
0.2273 0.0985 0.0000
0.2273 0.1035 0.0000
0.2273 0.1086 0.0000
0.2273 0.1136 0.0000
0.2273 0.1187 0.0000
0.2273 0.1237 0.0000
0.2273 0.1288 0.0000
0.2273 0.1338 0.0000
0.2273 0.1389 0.0000
0.2273 0.1439 0.0000
0.2273 0.1490 0.0000
0.2273 0.1540 0.0000
0.2273 0.1591 0.0000
0.2273 0.1641 0.0000
0.2273 0.1692 0.0000
0.2273 0.1742 0.0000
0.2273 0.1793 0.0000
0.2273 0.1843 0.0000
0.2273 0.1894 0.0000
0.2273 0.1944 0.0000
0.2273 0.1995 0.0000
0.2273 0.2045 0.0000
0.2273 0.2096 0.0000
0.2273 0.2146 0.0000
0.2273 0.2197 0.0000
0.2273 0.2247 0.0000
0.2273 0.2298 0.0000
0.2273 0.2348 0.0000
0.2273 0.2399 0.0000
0.2273 0.2449 0.0000
0.2273 0.2500 0.0000
0.2273 0.2551 0.0000
0.2273 0.2601 0.0000
0.2273 0.2652 0.0000
0.2273 0.2702 0.0000
0.2273 0.2753 0.0000
0.2273 0.2803 0.0000
0.2273 0.2854 0.0000
0.2273 0.2904 0.0000
0.2273 0.2955 0.0000
0.2273 0.3005 0.0000
0.2273 0.3056 0.0000
0.2273 0.3106 0.0000
0.2273 0.3157 0.0000
0.2273 0.3207 0.0000
0.2273 0.3258 0.0000
0.2273 0.3308 0.0000
0.2273 0.3359 0.0000
0.2273 0.3409 0.0000
0.2273 0.3460 0.0000
0.2273 0.3510 0.0000
0.2273 0.3561 0.0000
0.2273 0.3611 0.0000
0.2273 0.3662 0.0000
0.2273 0.3712 0.0000
0.2273 0.3763 0.0000
0.2273 0.3813 0.0000
0.2273 0.3864 0.0000
0.2273 0.3914 0.0000
0.2273 0.3965 0.0000
0.2273 0.4015 0.0000
0.2273 0.4066 0.0000
0.2273 0.4116 0.0000
0.2273 0.4167 0.0000
0.2273 0.4217 0.0000
0.2273 0.4268 0.0000
0.2273 0.4318 0.0000
0.2273 0.4369 0.0000
0.2273 0.4419 0.0000
0.2273 0.4470 0.0000
0.2273 0.4520 0.0000
0.2273 0.4571 0.0000
0.2273 0.4621 0.0000
0.2273 0.4672 0.0000
0.2273 0.4722 0.0000
0.2273 0.4773 0.0000
0.2273 0.4823 0.0000
0.2273 0.4874 0.0000
0.2273 0.4924 0.0000
0.2273 0.4975 0.0000
0.2374 0.0025 0.0000
0.2374 0.0076 0.0000
0.2374 0.0126 0.0000
0.2374 0.0177 0.0000
0.2374 0.0227 0.0000
0.2374 0.0278 0.0000
0.2374 0.0328 0.0000
0.2374 0.0379 0.0000
0.2374 0.0429 0.0000
0.2374 0.0480 0.0000
0.2374 0.0530 0.0000
0.2374 0.0581 0.0000
0.2374 0.0631 0.0000
0.2374 0.0682 0.0000
0.2374 0.0732 0.0000
0.2374 0.0783 0.0000
0.2374 0.0833 0.0000
0.2374 0.0884 0.0000
0.2374 0.0934 0.0000
0.2374 0.0985 0.0000
0.2374 0.1035 0.0000
0.2374 0.1086 0.0000
0.2374 0.1136 0.0000
0.2374 0.1187 0.0000
0.2374 0.1237 0.0000
0.2374 0.1288 0.0000
0.2374 0.1338 0.0000
0.2374 0.1389 0.0000
0.2374 0.1439 0.0000
0.2374 0.1490 0.0000
0.2374 0.1540 0.0000
0.2374 0.1591 0.0000
0.2374 0.1641 0.0000
0.2374 0.1692 0.0000
0.2374 0.1742 0.0000
0.2374 0.1793 0.0000
0.2374 0.1843 0.0000
0.2374 0.1894 0.0000
0.2374 0.1944 0.0000
0.2374 0.1995 0.0000
0.2374 0.2045 0.0000
0.2374 0.2096 0.0000
0.2374 0.2146 0.0000
0.2374 0.2197 0.0000
0.2374 0.2247 0.0000
0.2374 0.2298 0.0000
0.2374 0.2348 0.0000
0.2374 0.2399 0.0000
0.2374 0.2449 0.0000
0.2374 0.2500 0.0000
0.2374 0.2551 0.0000
0.2374 0.2601 0.0000
0.2374 0.2652 0.0000
0.2374 0.2702 0.0000
0.2374 0.2753 0.0000
0.2374 0.2803 0.0000
0.2374 0.2854 0.0000
0.2374 0.2904 0.0000
0.2374 0.2955 0.0000
0.2374 0.3005 0.0000
0.2374 0.3056 0.0000
0.2374 0.3106 0.0000
0.2374 0.3157 0.0000
0.2374 0.3207 0.0000
0.2374 0.3258 0.0000
0.2374 0.3308 0.0000
0.2374 0.3359 0.0000
0.2374 0.3409 0.0000
0.2374 0.3460 0.0000
0.2374 0.3510 0.0000
0.2374 0.3561 0.0000
0.2374 0.3611 0.0000
0.2374 0.3662 0.0000
0.2374 0.3712 0.0000
0.2374 0.3763 0.0000
0.2374 0.3813 0.0000
0.2374 0.3864 0.0000
0.2374 0.3914 0.0000
0.2374 0.3965 0.0000
0.2374 0.4015 0.0000
0.2374 0.4066 0.0000
0.2374 0.4116 0.0000
0.2374 0.4167 0.0000
0.2374 0.4217 0.0000
0.2374 0.4268 0.0000
0.2374 0.4318 0.0000
0.2374 0.4369 0.0000
0.2374 0.4419 0.0000
0.2374 0.4470 0.0000
0.2374 0.4520 0.0000
0.2374 0.4571 0.0000
0.2374 0.4621 0.0000
0.2374 0.4672 0.0000
0.2374 0.4722 0.0000
0.2374 0.4773 0.0000
0.2374 0.4823 0.0000
0.2374 0.4874 0.0000
0.2374 0.4924 0.0000
0.2374 0.4975 0.0000
0.2475 0.0025 0.0000
0.2475 0.0076 0.0000
0.2475 0.0126 0.0000
0.2475 0.0177 0.0000
0.2475 0.0227 0.0000
0.2475 0.0278 0.0000
0.2475 0.0328 0.0000
0.2475 0.0379 0.0000
0.2475 0.0429 0.0000
0.2475 0.0480 0.0000
0.2475 0.0530 0.0000
0.2475 0.0581 0.0000
0.2475 0.0631 0.0000
0.2475 0.0682 0.0000
0.2475 0.0732 0.0000
0.2475 0.0783 0.0000
0.2475 0.0833 0.0000
0.2475 0.0884 0.0000
0.2475 0.0934 0.0000
0.2475 0.0985 0.0000
0.2475 0.1035 0.0000
0.2475 0.1086 0.0000
0.2475 0.1136 0.0000
0.2475 0.1187 0.0000
0.2475 0.1237 0.0000
0.2475 0.1288 0.0000
0.2475 0.1338 0.0000
0.2475 0.1389 0.0000
0.2475 0.1439 0.0000
0.2475 0.1490 0.0000
0.2475 0.1540 0.0000
0.2475 0.1591 0.0000
0.2475 0.1641 0.0000
0.2475 0.1692 0.0000
0.2475 0.1742 0.0000
0.2475 0.1793 0.0000
0.2475 0.1843 0.0000
0.2475 0.1894 0.0000
0.2475 0.1944 0.0000
0.2475 0.1995 0.0000
0.2475 0.2045 0.0000
0.2475 0.2096 0.0000
0.2475 0.2146 0.0000
0.2475 0.2197 0.0000
0.2475 0.2247 0.0000
0.2475 0.2298 0.0000
0.2475 0.2348 0.0000
0.2475 0.2399 0.0000
0.2475 0.2449 0.0000
0.2475 0.2500 0.0000
0.2475 0.2551 0.0000
0.2475 0.2601 0.0000
0.2475 0.2652 0.0000
0.2475 0.2702 0.0000
0.2475 0.2753 0.0000
0.2475 0.2803 0.0000
0.2475 0.2854 0.0000
0.2475 0.2904 0.0000
0.2475 0.2955 0.0000
0.2475 0.3005 0.0000
0.2475 0.3056 0.0000
0.2475 0.3106 0.0000
0.2475 0.3157 0.0000
0.2475 0.3207 0.0000
0.2475 0.3258 0.0000
0.2475 0.3308 0.0000
0.2475 0.3359 0.0000
0.2475 0.3409 0.0000
0.2475 0.3460 0.0000
0.2475 0.3510 0.0000
0.2475 0.3561 0.0000
0.2475 0.3611 0.0000
0.2475 0.3662 0.0000
0.2475 0.3712 0.0000
0.2475 0.3763 0.0000
0.2475 0.3813 0.0000
0.2475 0.3864 0.0000
0.2475 0.3914 0.0000
0.2475 0.3965 0.0000
0.2475 0.4015 0.0000
0.2475 0.4066 0.0000
0.2475 0.4116 0.0000
0.2475 0.4167 0.0000
0.2475 0.4217 0.0000
0.2475 0.4268 0.0000
0.2475 0.4318 0.0000
0.2475 0.4369 0.0000
0.2475 0.4419 0.0000
0.2475 0.4470 0.0000
0.2475 0.4520 0.0000
0.2475 0.4571 0.0000
0.2475 0.4621 0.0000
0.2475 0.4672 0.0000
0.2475 0.4722 0.0000
0.2475 0.4773 0.0000
0.2475 0.4823 0.0000
0.2475 0.4874 0.0000
0.2475 0.4924 0.0000
0.2475 0.4975 0.0000
0.2576 0.0025 0.0000
0.2576 0.0076 0.0000
0.2576 0.0126 0.0000
0.2576 0.0177 0.0000
0.2576 0.0227 0.0000
0.2576 0.0278 0.0000
0.2576 0.0328 0.0000
0.2576 0.0379 0.0000
0.2576 0.0429 0.0000
0.2576 0.0480 0.0000
0.2576 0.0530 0.0000
0.2576 0.0581 0.0000
0.2576 0.0631 0.0000
0.2576 0.0682 0.0000
0.2576 0.0732 0.0000
0.2576 0.0783 0.0000
0.2576 0.0833 0.0000
0.2576 0.0884 0.0000
0.2576 0.0934 0.0000
0.2576 0.0985 0.0000
0.2576 0.1035 0.0000
0.2576 0.1086 0.0000
0.2576 0.1136 0.0000
0.2576 0.1187 0.0000
0.2576 0.1237 0.0000
0.2576 0.1288 0.0000
0.2576 0.1338 0.0000
0.2576 0.1389 0.0000
0.2576 0.1439 0.0000
0.2576 0.1490 0.0000
0.2576 0.1540 0.0000
0.2576 0.1591 0.0000
0.2576 0.1641 0.0000
0.2576 0.1692 0.0000
0.2576 0.1742 0.0000
0.2576 0.1793 0.0000
0.2576 0.1843 0.0000
0.2576 0.1894 0.0000
0.2576 0.1944 0.0000
0.2576 0.1995 0.0000
0.2576 0.2045 0.0000
0.2576 0.2096 0.0000
0.2576 0.2146 0.0000
0.2576 0.2197 0.0000
0.2576 0.2247 0.0000
0.2576 0.2298 0.0000
0.2576 0.2348 0.0000
0.2576 0.2399 0.0000
0.2576 0.2449 0.0000
0.2576 0.2500 0.0000
0.2576 0.2551 0.0000
0.2576 0.2601 0.0000
0.2576 0.2652 0.0000
0.2576 0.2702 0.0000
0.2576 0.2753 0.0000
0.2576 0.2803 0.0000
0.2576 0.2854 0.0000
0.2576 0.2904 0.0000
0.2576 0.2955 0.0000
0.2576 0.3005 0.0000
0.2576 0.3056 0.0000
0.2576 0.3106 0.0000
0.2576 0.3157 0.0000
0.2576 0.3207 0.0000
0.2576 0.3258 0.0000
0.2576 0.3308 0.0000
0.2576 0.3359 0.0000
0.2576 0.3409 0.0000
0.2576 0.3460 0.0000
0.2576 0.3510 0.0000
0.2576 0.3561 0.0000
0.2576 0.3611 0.0000
0.2576 0.3662 0.0000
0.2576 0.3712 0.0000
0.2576 0.3763 0.0000
0.2576 0.3813 0.0000
0.2576 0.3864 0.0000
0.2576 0.3914 0.0000
0.2576 0.3965 0.0000
0.2576 0.4015 0.0000
0.2576 0.4066 0.0000
0.2576 0.4116 0.0000
0.2576 0.4167 0.0000
0.2576 0.4217 0.0000
0.2576 0.4268 0.0000
0.2576 0.4318 0.0000
0.2576 0.4369 0.0000
0.2576 0.4419 0.0000
0.2576 0.4470 0.0000
0.2576 0.4520 0.0000
0.2576 0.4571 0.0000
0.2576 0.4621 0.0000
0.2576 0.4672 0.0000
0.2576 0.4722 0.0000
0.2576 0.4773 0.0000
0.2576 0.4823 0.0000
0.2576 0.4874 0.0000
0.2576 0.4924 0.0000
0.2576 0.4975 0.0000
0.2677 0.0025 0.0000
0.2677 0.0076 0.0000
0.2677 0.0126 0.0000
0.2677 0.0177 0.0000
0.2677 0.0227 0.0000
0.2677 0.0278 0.0000
0.2677 0.0328 0.0000
0.2677 0.0379 0.0000
0.2677 0.0429 0.0000
0.2677 0.0480 0.0000
0.2677 0.0530 0.0000
0.2677 0.0581 0.0000
0.2677 0.0631 0.0000
0.2677 0.0682 0.0000
0.2677 0.0732 0.0000
0.2677 0.0783 0.0000
0.2677 0.0833 0.0000
0.2677 0.0884 0.0000
0.2677 0.0934 0.0000
0.2677 0.0985 0.0000
0.2677 0.1035 0.0000
0.2677 0.1086 0.0000
0.2677 0.1136 0.0000
0.2677 0.1187 0.0000
0.2677 0.1237 0.0000
0.2677 0.1288 0.0000
0.2677 0.1338 0.0000
0.2677 0.1389 0.0000
0.2677 0.1439 0.0000
0.2677 0.1490 0.0000
0.2677 0.1540 0.0000
0.2677 0.1591 0.0000
0.2677 0.1641 0.0000
0.2677 0.1692 0.0000
0.2677 0.1742 0.0000
0.2677 0.1793 0.0000
0.2677 0.1843 0.0000
0.2677 0.1894 0.0000
0.2677 0.1944 0.0000
0.2677 0.1995 0.0000
0.2677 0.2045 0.0000
0.2677 0.2096 0.0000
0.2677 0.2146 0.0000
0.2677 0.2197 0.0000
0.2677 0.2247 0.0000
0.2677 0.2298 0.0000
0.2677 0.2348 0.0000
0.2677 0.2399 0.0000
0.2677 0.2449 0.0000
0.2677 0.2500 0.0000
0.2677 0.2551 0.0000
0.2677 0.2601 0.0000
0.2677 0.2652 0.0000
0.2677 0.2702 0.0000
0.2677 0.2753 0.0000
0.2677 0.2803 0.0000
0.2677 0.2854 0.0000
0.2677 0.2904 0.0000
0.2677 0.2955 0.0000
0.2677 0.3005 0.0000
0.2677 0.3056 0.0000
0.2677 0.3106 0.0000
0.2677 0.3157 0.0000
0.2677 0.3207 0.0000
0.2677 0.3258 0.0000
0.2677 0.3308 0.0000
0.2677 0.3359 0.0000
0.2677 0.3409 0.0000
0.2677 0.3460 0.0000
0.2677 0.3510 0.0000
0.2677 0.3561 0.0000
0.2677 0.3611 0.0000
0.2677 0.3662 0.0000
0.2677 0.3712 0.0000
0.2677 0.3763 0.0000
0.2677 0.3813 0.0000
0.2677 0.3864 0.0000
0.2677 0.3914 0.0000
0.2677 0.3965 0.0000
0.2677 0.4015 0.0000
0.2677 0.4066 0.0000
0.2677 0.4116 0.0000
0.2677 0.4167 0.0000
0.2677 0.4217 0.0000
0.2677 0.4268 0.0000
0.2677 0.4318 0.0000
0.2677 0.4369 0.0000
0.2677 0.4419 0.0000
0.2677 0.4470 0.0000
0.2677 0.4520 0.0000
0.2677 0.4571 0.0000
0.2677 0.4621 0.0000
0.2677 0.4672 0.0000
0.2677 0.4722 0.0000
0.2677 0.4773 0.0000
0.2677 0.4823 0.0000
0.2677 0.4874 0.0000
0.2677 0.4924 0.0000
0.2677 0.4975 0.0000
0.2778 0.0025 0.0000
0.2778 0.0076 0.0000
0.2778 0.0126 0.0000
0.2778 0.0177 0.0000
0.2778 0.0227 0.0000
0.2778 0.0278 0.0000
0.2778 0.0328 0.0000
0.2778 0.0379 0.0000
0.2778 0.0429 0.0000
0.2778 0.0480 0.0000
0.2778 0.0530 0.0000
0.2778 0.0581 0.0000
0.2778 0.0631 0.0000
0.2778 0.0682 0.0000
0.2778 0.0732 0.0000
0.2778 0.0783 0.0000
0.2778 0.0833 0.0000
0.2778 0.0884 0.0000
0.2778 0.0934 0.0000
0.2778 0.0985 0.0000
0.2778 0.1035 0.0000
0.2778 0.1086 0.0000
0.2778 0.1136 0.0000
0.2778 0.1187 0.0000
0.2778 0.1237 0.0000
0.2778 0.1288 0.0000
0.2778 0.1338 0.0000
0.2778 0.1389 0.0000
0.2778 0.1439 0.0000
0.2778 0.1490 0.0000
0.2778 0.1540 0.0000
0.2778 0.1591 0.0000
0.2778 0.1641 0.0000
0.2778 0.1692 0.0000
0.2778 0.1742 0.0000
0.2778 0.1793 0.0000
0.2778 0.1843 0.0000
0.2778 0.1894 0.0000
0.2778 0.1944 0.0000
0.2778 0.1995 0.0000
0.2778 0.2045 0.0000
0.2778 0.2096 0.0000
0.2778 0.2146 0.0000
0.2778 0.2197 0.0000
0.2778 0.2247 0.0000
0.2778 0.2298 0.0000
0.2778 0.2348 0.0000
0.2778 0.2399 0.0000
0.2778 0.2449 0.0000
0.2778 0.2500 0.0000
0.2778 0.2551 0.0000
0.2778 0.2601 0.0000
0.2778 0.2652 0.0000
0.2778 0.2702 0.0000
0.2778 0.2753 0.0000
0.2778 0.2803 0.0000
0.2778 0.2854 0.0000
0.2778 0.2904 0.0000
0.2778 0.2955 0.0000
0.2778 0.3005 0.0000
0.2778 0.3056 0.0000
0.2778 0.3106 0.0000
0.2778 0.3157 0.0000
0.2778 0.3207 0.0000
0.2778 0.3258 0.0000
0.2778 0.3308 0.0000
0.2778 0.3359 0.0000
0.2778 0.3409 0.0000
0.2778 0.3460 0.0000
0.2778 0.3510 0.0000
0.2778 0.3561 0.0000
0.2778 0.3611 0.0000
0.2778 0.3662 0.0000
0.2778 0.3712 0.0000
0.2778 0.3763 0.0000
0.2778 0.3813 0.0000
0.2778 0.3864 0.0000
0.2778 0.3914 0.0000
0.2778 0.3965 0.0000
0.2778 0.4015 0.0000
0.2778 0.4066 0.0000
0.2778 0.4116 0.0000
0.2778 0.4167 0.0000
0.2778 0.4217 0.0000
0.2778 0.4268 0.0000
0.2778 0.4318 0.0000
0.2778 0.4369 0.0000
0.2778 0.4419 0.0000
0.2778 0.4470 0.0000
0.2778 0.4520 0.0000
0.2778 0.4571 0.0000
0.2778 0.4621 0.0000
0.2778 0.4672 0.0000
0.2778 0.4722 0.0000
0.2778 0.4773 0.0000
0.2778 0.4823 0.0000
0.2778 0.4874 0.0000
0.2778 0.4924 0.0000
0.2778 0.4975 0.0000
0.2879 0.0025 0.0000
0.2879 0.0076 0.0000
0.2879 0.0126 0.0000
0.2879 0.0177 0.0000
0.2879 0.0227 0.0000
0.2879 0.0278 0.0000
0.2879 0.0328 0.0000
0.2879 0.0379 0.0000
0.2879 0.0429 0.0000
0.2879 0.0480 0.0000
0.2879 0.0530 0.0000
0.2879 0.0581 0.0000
0.2879 0.0631 0.0000
0.2879 0.0682 0.0000
0.2879 0.0732 0.0000
0.2879 0.0783 0.0000
0.2879 0.0833 0.0000
0.2879 0.0884 0.0000
0.2879 0.0934 0.0000
0.2879 0.0985 0.0000
0.2879 0.1035 0.0000
0.2879 0.1086 0.0000
0.2879 0.1136 0.0000
0.2879 0.1187 0.0000
0.2879 0.1237 0.0000
0.2879 0.1288 0.0000
0.2879 0.1338 0.0000
0.2879 0.1389 0.0000
0.2879 0.1439 0.0000
0.2879 0.1490 0.0000
0.2879 0.1540 0.0000
0.2879 0.1591 0.0000
0.2879 0.1641 0.0000
0.2879 0.1692 0.0000
0.2879 0.1742 0.0000
0.2879 0.1793 0.0000
0.2879 0.1843 0.0000
0.2879 0.1894 0.0000
0.2879 0.1944 0.0000
0.2879 0.1995 0.0000
0.2879 0.2045 0.0000
0.2879 0.2096 0.0000
0.2879 0.2146 0.0000
0.2879 0.2197 0.0000
0.2879 0.2247 0.0000
0.2879 0.2298 0.0000
0.2879 0.2348 0.0000
0.2879 0.2399 0.0000
0.2879 0.2449 0.0000
0.2879 0.2500 0.0000
0.2879 0.2551 0.0000
0.2879 0.2601 0.0000
0.2879 0.2652 0.0000
0.2879 0.2702 0.0000
0.2879 0.2753 0.0000
0.2879 0.2803 0.0000
0.2879 0.2854 0.0000
0.2879 0.2904 0.0000
0.2879 0.2955 0.0000
0.2879 0.3005 0.0000
0.2879 0.3056 0.0000
0.2879 0.3106 0.0000
0.2879 0.3157 0.0000
0.2879 0.3207 0.0000
0.2879 0.3258 0.0000
0.2879 0.3308 0.0000
0.2879 0.3359 0.0000
0.2879 0.3409 0.0000
0.2879 0.3460 0.0000
0.2879 0.3510 0.0000
0.2879 0.3561 0.0000
0.2879 0.3611 0.0000
0.2879 0.3662 0.0000
0.2879 0.3712 0.0000
0.2879 0.3763 0.0000
0.2879 0.3813 0.0000
0.2879 0.3864 0.0000
0.2879 0.3914 0.0000
0.2879 0.3965 0.0000
0.2879 0.4015 0.0000
0.2879 0.4066 0.0000
0.2879 0.4116 0.0000
0.2879 0.4167 0.0000
0.2879 0.4217 0.0000
0.2879 0.4268 0.0000
0.2879 0.4318 0.0000
0.2879 0.4369 0.0000
0.2879 0.4419 0.0000
0.2879 0.4470 0.0000
0.2879 0.4520 0.0000
0.2879 0.4571 0.0000
0.2879 0.4621 0.0000
0.2879 0.4672 0.0000
0.2879 0.4722 0.0000
0.2879 0.4773 0.0000
0.2879 0.4823 0.0000
0.2879 0.4874 0.0000
0.2879 0.4924 0.0000
0.2879 0.4975 0.0000
0.2980 0.0025 0.0000
0.2980 0.0076 0.0000
0.2980 0.0126 0.0000
0.2980 0.0177 0.0000
0.2980 0.0227 0.0000
0.2980 0.0278 0.0000
0.2980 0.0328 0.0000
0.2980 0.0379 0.0000
0.2980 0.0429 0.0000
0.2980 0.0480 0.0000
0.2980 0.0530 0.0000
0.2980 0.0581 0.0000
0.2980 0.0631 0.0000
0.2980 0.0682 0.0000
0.2980 0.0732 0.0000
0.2980 0.0783 0.0000
0.2980 0.0833 0.0000
0.2980 0.0884 0.0000
0.2980 0.0934 0.0000
0.2980 0.0985 0.0000
0.2980 0.1035 0.0000
0.2980 0.1086 0.0000
0.2980 0.1136 0.0000
0.2980 0.1187 0.0000
0.2980 0.1237 0.0000
0.2980 0.1288 0.0000
0.2980 0.1338 0.0000
0.2980 0.1389 0.0000
0.2980 0.1439 0.0000
0.2980 0.1490 0.0000
0.2980 0.1540 0.0000
0.2980 0.1591 0.0000
0.2980 0.1641 0.0000
0.2980 0.1692 0.0000
0.2980 0.1742 0.0000
0.2980 0.1793 0.0000
0.2980 0.1843 0.0000
0.2980 0.1894 0.0000
0.2980 0.1944 0.0000
0.2980 0.1995 0.0000
0.2980 0.2045 0.0000
0.2980 0.2096 0.0000
0.2980 0.2146 0.0000
0.2980 0.2197 0.0000
0.2980 0.2247 0.0000
0.2980 0.2298 0.0000
0.2980 0.2348 0.0000
0.2980 0.2399 0.0000
0.2980 0.2449 0.0000
0.2980 0.2500 0.0000
0.2980 0.2551 0.0000
0.2980 0.2601 0.0000
0.2980 0.2652 0.0000
0.2980 0.2702 0.0000
0.2980 0.2753 0.0000
0.2980 0.2803 0.0000
0.2980 0.2854 0.0000
0.2980 0.2904 0.0000
0.2980 0.2955 0.0000
0.2980 0.3005 0.0000
0.2980 0.3056 0.0000
0.2980 0.3106 0.0000
0.2980 0.3157 0.0000
0.2980 0.3207 0.0000
0.2980 0.3258 0.0000
0.2980 0.3308 0.0000
0.2980 0.3359 0.0000
0.2980 0.3409 0.0000
0.2980 0.3460 0.0000
0.2980 0.3510 0.0000
0.2980 0.3561 0.0000
0.2980 0.3611 0.0000
0.2980 0.3662 0.0000
0.2980 0.3712 0.0000
0.2980 0.3763 0.0000
0.2980 0.3813 0.0000
0.2980 0.3864 0.0000
0.2980 0.3914 0.0000
0.2980 0.3965 0.0000
0.2980 0.4015 0.0000
0.2980 0.4066 0.0000
0.2980 0.4116 0.0000
0.2980 0.4167 0.0000
0.2980 0.4217 0.0000
0.2980 0.4268 0.0000
0.2980 0.4318 0.0000
0.2980 0.4369 0.0000
0.2980 0.4419 0.0000
0.2980 0.4470 0.0000
0.2980 0.4520 0.0000
0.2980 0.4571 0.0000
0.2980 0.4621 0.0000
0.2980 0.4672 0.0000
0.2980 0.4722 0.0000
0.2980 0.4773 0.0000
0.2980 0.4823 0.0000
0.2980 0.4874 0.0000
0.2980 0.4924 0.0000
0.2980 0.4975 0.0000
0.3081 0.0025 0.0000
0.3081 0.0076 0.0000
0.3081 0.0126 0.0000
0.3081 0.0177 0.0000
0.3081 0.0227 0.0000
0.3081 0.0278 0.0000
0.3081 0.0328 0.0000
0.3081 0.0379 0.0000
0.3081 0.0429 0.0000
0.3081 0.0480 0.0000
0.3081 0.0530 0.0000
0.3081 0.0581 0.0000
0.3081 0.0631 0.0000
0.3081 0.0682 0.0000
0.3081 0.0732 0.0000
0.3081 0.0783 0.0000
0.3081 0.0833 0.0000
0.3081 0.0884 0.0000
0.3081 0.0934 0.0000
0.3081 0.0985 0.0000
0.3081 0.1035 0.0000
0.3081 0.1086 0.0000
0.3081 0.1136 0.0000
0.3081 0.1187 0.0000
0.3081 0.1237 0.0000
0.3081 0.1288 0.0000
0.3081 0.1338 0.0000
0.3081 0.1389 0.0000
0.3081 0.1439 0.0000
0.3081 0.1490 0.0000
0.3081 0.1540 0.0000
0.3081 0.1591 0.0000
0.3081 0.1641 0.0000
0.3081 0.1692 0.0000
0.3081 0.1742 0.0000
0.3081 0.1793 0.0000
0.3081 0.1843 0.0000
0.3081 0.1894 0.0000
0.3081 0.1944 0.0000
0.3081 0.1995 0.0000
0.3081 0.2045 0.0000
0.3081 0.2096 0.0000
0.3081 0.2146 0.0000
0.3081 0.2197 0.0000
0.3081 0.2247 0.0000
0.3081 0.2298 0.0000
0.3081 0.2348 0.0000
0.3081 0.2399 0.0000
0.3081 0.2449 0.0000
0.3081 0.2500 0.0000
0.3081 0.2551 0.0000
0.3081 0.2601 0.0000
0.3081 0.2652 0.0000
0.3081 0.2702 0.0000
0.3081 0.2753 0.0000
0.3081 0.2803 0.0000
0.3081 0.2854 0.0000
0.3081 0.2904 0.0000
0.3081 0.2955 0.0000
0.3081 0.3005 0.0000
0.3081 0.3056 0.0000
0.3081 0.3106 0.0000
0.3081 0.3157 0.0000
0.3081 0.3207 0.0000
0.3081 0.3258 0.0000
0.3081 0.3308 0.0000
0.3081 0.3359 0.0000
0.3081 0.3409 0.0000
0.3081 0.3460 0.0000
0.3081 0.3510 0.0000
0.3081 0.3561 0.0000
0.3081 0.3611 0.0000
0.3081 0.3662 0.0000
0.3081 0.3712 0.0000
0.3081 0.3763 0.0000
0.3081 0.3813 0.0000
0.3081 0.3864 0.0000
0.3081 0.3914 0.0000
0.3081 0.3965 0.0000
0.3081 0.4015 0.0000
0.3081 0.4066 0.0000
0.3081 0.4116 0.0000
0.3081 0.4167 0.0000
0.3081 0.4217 0.0000
0.3081 0.4268 0.0000
0.3081 0.4318 0.0000
0.3081 0.4369 0.0000
0.3081 0.4419 0.0000
0.3081 0.4470 0.0000
0.3081 0.4520 0.0000
0.3081 0.4571 0.0000
0.3081 0.4621 0.0000
0.3081 0.4672 0.0000
0.3081 0.4722 0.0000
0.3081 0.4773 0.0000
0.3081 0.4823 0.0000
0.3081 0.4874 0.0000
0.3081 0.4924 0.0000
0.3081 0.4975 0.0000
0.3182 0.0025 0.0000
0.3182 0.0076 0.0000
0.3182 0.0126 0.0000
0.3182 0.0177 0.0000
0.3182 0.0227 0.0000
0.3182 0.0278 0.0000
0.3182 0.0328 0.0000
0.3182 0.0379 0.0000
0.3182 0.0429 0.0000
0.3182 0.0480 0.0000
0.3182 0.0530 0.0000
0.3182 0.0581 0.0000
0.3182 0.0631 0.0000
0.3182 0.0682 0.0000
0.3182 0.0732 0.0000
0.3182 0.0783 0.0000
0.3182 0.0833 0.0000
0.3182 0.0884 0.0000
0.3182 0.0934 0.0000
0.3182 0.0985 0.0000
0.3182 0.1035 0.0000
0.3182 0.1086 0.0000
0.3182 0.1136 0.0000
0.3182 0.1187 0.0000
0.3182 0.1237 0.0000
0.3182 0.1288 0.0000
0.3182 0.1338 0.0000
0.3182 0.1389 0.0000
0.3182 0.1439 0.0000
0.3182 0.1490 0.0000
0.3182 0.1540 0.0000
0.3182 0.1591 0.0000
0.3182 0.1641 0.0000
0.3182 0.1692 0.0000
0.3182 0.1742 0.0000
0.3182 0.1793 0.0000
0.3182 0.1843 0.0000
0.3182 0.1894 0.0000
0.3182 0.1944 0.0000
0.3182 0.1995 0.0000
0.3182 0.2045 0.0000
0.3182 0.2096 0.0000
0.3182 0.2146 0.0000
0.3182 0.2197 0.0000
0.3182 0.2247 0.0000
0.3182 0.2298 0.0000
0.3182 0.2348 0.0000
0.3182 0.2399 0.0000
0.3182 0.2449 0.0000
0.3182 0.2500 0.0000
0.3182 0.2551 0.0000
0.3182 0.2601 0.0000
0.3182 0.2652 0.0000
0.3182 0.2702 0.0000
0.3182 0.2753 0.0000
0.3182 0.2803 0.0000
0.3182 0.2854 0.0000
0.3182 0.2904 0.0000
0.3182 0.2955 0.0000
0.3182 0.3005 0.0000
0.3182 0.3056 0.0000
0.3182 0.3106 0.0000
0.3182 0.3157 0.0000
0.3182 0.3207 0.0000
0.3182 0.3258 0.0000
0.3182 0.3308 0.0000
0.3182 0.3359 0.0000
0.3182 0.3409 0.0000
0.3182 0.3460 0.0000
0.3182 0.3510 0.0000
0.3182 0.3561 0.0000
0.3182 0.3611 0.0000
0.3182 0.3662 0.0000
0.3182 0.3712 0.0000
0.3182 0.3763 0.0000
0.3182 0.3813 0.0000
0.3182 0.3864 0.0000
0.3182 0.3914 0.0000
0.3182 0.3965 0.0000
0.3182 0.4015 0.0000
0.3182 0.4066 0.0000
0.3182 0.4116 0.0000
0.3182 0.4167 0.0000
0.3182 0.4217 0.0000
0.3182 0.4268 0.0000
0.3182 0.4318 0.0000
0.3182 0.4369 0.0000
0.3182 0.4419 0.0000
0.3182 0.4470 0.0000
0.3182 0.4520 0.0000
0.3182 0.4571 0.0000
0.3182 0.4621 0.0000
0.3182 0.4672 0.0000
0.3182 0.4722 0.0000
0.3182 0.4773 0.0000
0.3182 0.4823 0.0000
0.3182 0.4874 0.0000
0.3182 0.4924 0.0000
0.3182 0.4975 0.0000
0.3283 0.0025 0.0000
0.3283 0.0076 0.0000
0.3283 0.0126 0.0000
0.3283 0.0177 0.0000
0.3283 0.0227 0.0000
0.3283 0.0278 0.0000
0.3283 0.0328 0.0000
0.3283 0.0379 0.0000
0.3283 0.0429 0.0000
0.3283 0.0480 0.0000
0.3283 0.0530 0.0000
0.3283 0.0581 0.0000
0.3283 0.0631 0.0000
0.3283 0.0682 0.0000
0.3283 0.0732 0.0000
0.3283 0.0783 0.0000
0.3283 0.0833 0.0000
0.3283 0.0884 0.0000
0.3283 0.0934 0.0000
0.3283 0.0985 0.0000
0.3283 0.1035 0.0000
0.3283 0.1086 0.0000
0.3283 0.1136 0.0000
0.3283 0.1187 0.0000
0.3283 0.1237 0.0000
0.3283 0.1288 0.0000
0.3283 0.1338 0.0000
0.3283 0.1389 0.0000
0.3283 0.1439 0.0000
0.3283 0.1490 0.0000
0.3283 0.1540 0.0000
0.3283 0.1591 0.0000
0.3283 0.1641 0.0000
0.3283 0.1692 0.0000
0.3283 0.1742 0.0000
0.3283 0.1793 0.0000
0.3283 0.1843 0.0000
0.3283 0.1894 0.0000
0.3283 0.1944 0.0000
0.3283 0.1995 0.0000
0.3283 0.2045 0.0000
0.3283 0.2096 0.0000
0.3283 0.2146 0.0000
0.3283 0.2197 0.0000
0.3283 0.2247 0.0000
0.3283 0.2298 0.0000
0.3283 0.2348 0.0000
0.3283 0.2399 0.0000
0.3283 0.2449 0.0000
0.3283 0.2500 0.0000
0.3283 0.2551 0.0000
0.3283 0.2601 0.0000
0.3283 0.2652 0.0000
0.3283 0.2702 0.0000
0.3283 0.2753 0.0000
0.3283 0.2803 0.0000
0.3283 0.2854 0.0000
0.3283 0.2904 0.0000
0.3283 0.2955 0.0000
0.3283 0.3005 0.0000
0.3283 0.3056 0.0000
0.3283 0.3106 0.0000
0.3283 0.3157 0.0000
0.3283 0.3207 0.0000
0.3283 0.3258 0.0000
0.3283 0.3308 0.0000
0.3283 0.3359 0.0000
0.3283 0.3409 0.0000
0.3283 0.3460 0.0000
0.3283 0.3510 0.0000
0.3283 0.3561 0.0000
0.3283 0.3611 0.0000
0.3283 0.3662 0.0000
0.3283 0.3712 0.0000
0.3283 0.3763 0.0000
0.3283 0.3813 0.0000
0.3283 0.3864 0.0000
0.3283 0.3914 0.0000
0.3283 0.3965 0.0000
0.3283 0.4015 0.0000
0.3283 0.4066 0.0000
0.3283 0.4116 0.0000
0.3283 0.4167 0.0000
0.3283 0.4217 0.0000
0.3283 0.4268 0.0000
0.3283 0.4318 0.0000
0.3283 0.4369 0.0000
0.3283 0.4419 0.0000
0.3283 0.4470 0.0000
0.3283 0.4520 0.0000
0.3283 0.4571 0.0000
0.3283 0.4621 0.0000
0.3283 0.4672 0.0000
0.3283 0.4722 0.0000
0.3283 0.4773 0.0000
0.3283 0.4823 0.0000
0.3283 0.4874 0.0000
0.3283 0.4924 0.0000
0.3283 0.4975 0.0000
0.3384 0.0025 0.0000
0.3384 0.0076 0.0000
0.3384 0.0126 0.0000
0.3384 0.0177 0.0000
0.3384 0.0227 0.0000
0.3384 0.0278 0.0000
0.3384 0.0328 0.0000
0.3384 0.0379 0.0000
0.3384 0.0429 0.0000
0.3384 0.0480 0.0000
0.3384 0.0530 0.0000
0.3384 0.0581 0.0000
0.3384 0.0631 0.0000
0.3384 0.0682 0.0000
0.3384 0.0732 0.0000
0.3384 0.0783 0.0000
0.3384 0.0833 0.0000
0.3384 0.0884 0.0000
0.3384 0.0934 0.0000
0.3384 0.0985 0.0000
0.3384 0.1035 0.0000
0.3384 0.1086 0.0000
0.3384 0.1136 0.0000
0.3384 0.1187 0.0000
0.3384 0.1237 0.0000
0.3384 0.1288 0.0000
0.3384 0.1338 0.0000
0.3384 0.1389 0.0000
0.3384 0.1439 0.0000
0.3384 0.1490 0.0000
0.3384 0.1540 0.0000
0.3384 0.1591 0.0000
0.3384 0.1641 0.0000
0.3384 0.1692 0.0000
0.3384 0.1742 0.0000
0.3384 0.1793 0.0000
0.3384 0.1843 0.0000
0.3384 0.1894 0.0000
0.3384 0.1944 0.0000
0.3384 0.1995 0.0000
0.3384 0.2045 0.0000
0.3384 0.2096 0.0000
0.3384 0.2146 0.0000
0.3384 0.2197 0.0000
0.3384 0.2247 0.0000
0.3384 0.2298 0.0000
0.3384 0.2348 0.0000
0.3384 0.2399 0.0000
0.3384 0.2449 0.0000
0.3384 0.2500 0.0000
0.3384 0.2551 0.0000
0.3384 0.2601 0.0000
0.3384 0.2652 0.0000
0.3384 0.2702 0.0000
0.3384 0.2753 0.0000
0.3384 0.2803 0.0000
0.3384 0.2854 0.0000
0.3384 0.2904 0.0000
0.3384 0.2955 0.0000
0.3384 0.3005 0.0000
0.3384 0.3056 0.0000
0.3384 0.3106 0.0000
0.3384 0.3157 0.0000
0.3384 0.3207 0.0000
0.3384 0.3258 0.0000
0.3384 0.3308 0.0000
0.3384 0.3359 0.0000
0.3384 0.3409 0.0000
0.3384 0.3460 0.0000
0.3384 0.3510 0.0000
0.3384 0.3561 0.0000
0.3384 0.3611 0.0000
0.3384 0.3662 0.0000
0.3384 0.3712 0.0000
0.3384 0.3763 0.0000
0.3384 0.3813 0.0000
0.3384 0.3864 0.0000
0.3384 0.3914 0.0000
0.3384 0.3965 0.0000
0.3384 0.4015 0.0000
0.3384 0.4066 0.0000
0.3384 0.4116 0.0000
0.3384 0.4167 0.0000
0.3384 0.4217 0.0000
0.3384 0.4268 0.0000
0.3384 0.4318 0.0000
0.3384 0.4369 0.0000
0.3384 0.4419 0.0000
0.3384 0.4470 0.0000
0.3384 0.4520 0.0000
0.3384 0.4571 0.0000
0.3384 0.4621 0.0000
0.3384 0.4672 0.0000
0.3384 0.4722 0.0000
0.3384 0.4773 0.0000
0.3384 0.4823 0.0000
0.3384 0.4874 0.0000
0.3384 0.4924 0.0000
0.3384 0.4975 0.0000
0.3485 0.0025 0.0000
0.3485 0.0076 0.0000
0.3485 0.0126 0.0000
0.3485 0.0177 0.0000
0.3485 0.0227 0.0000
0.3485 0.0278 0.0000
0.3485 0.0328 0.0000
0.3485 0.0379 0.0000
0.3485 0.0429 0.0000
0.3485 0.0480 0.0000
0.3485 0.0530 0.0000
0.3485 0.0581 0.0000
0.3485 0.0631 0.0000
0.3485 0.0682 0.0000
0.3485 0.0732 0.0000
0.3485 0.0783 0.0000
0.3485 0.0833 0.0000
0.3485 0.0884 0.0000
0.3485 0.0934 0.0000
0.3485 0.0985 0.0000
0.3485 0.1035 0.0000
0.3485 0.1086 0.0000
0.3485 0.1136 0.0000
0.3485 0.1187 0.0000
0.3485 0.1237 0.0000
0.3485 0.1288 0.0000
0.3485 0.1338 0.0000
0.3485 0.1389 0.0000
0.3485 0.1439 0.0000
0.3485 0.1490 0.0000
0.3485 0.1540 0.0000
0.3485 0.1591 0.0000
0.3485 0.1641 0.0000
0.3485 0.1692 0.0000
0.3485 0.1742 0.0000
0.3485 0.1793 0.0000
0.3485 0.1843 0.0000
0.3485 0.1894 0.0000
0.3485 0.1944 0.0000
0.3485 0.1995 0.0000
0.3485 0.2045 0.0000
0.3485 0.2096 0.0000
0.3485 0.2146 0.0000
0.3485 0.2197 0.0000
0.3485 0.2247 0.0000
0.3485 0.2298 0.0000
0.3485 0.2348 0.0000
0.3485 0.2399 0.0000
0.3485 0.2449 0.0000
0.3485 0.2500 0.0000
0.3485 0.2551 0.0000
0.3485 0.2601 0.0000
0.3485 0.2652 0.0000
0.3485 0.2702 0.0000
0.3485 0.2753 0.0000
0.3485 0.2803 0.0000
0.3485 0.2854 0.0000
0.3485 0.2904 0.0000
0.3485 0.2955 0.0000
0.3485 0.3005 0.0000
0.3485 0.3056 0.0000
0.3485 0.3106 0.0000
0.3485 0.3157 0.0000
0.3485 0.3207 0.0000
0.3485 0.3258 0.0000
0.3485 0.3308 0.0000
0.3485 0.3359 0.0000
0.3485 0.3409 0.0000
0.3485 0.3460 0.0000
0.3485 0.3510 0.0000
0.3485 0.3561 0.0000
0.3485 0.3611 0.0000
0.3485 0.3662 0.0000
0.3485 0.3712 0.0000
0.3485 0.3763 0.0000
0.3485 0.3813 0.0000
0.3485 0.3864 0.0000
0.3485 0.3914 0.0000
0.3485 0.3965 0.0000
0.3485 0.4015 0.0000
0.3485 0.4066 0.0000
0.3485 0.4116 0.0000
0.3485 0.4167 0.0000
0.3485 0.4217 0.0000
0.3485 0.4268 0.0000
0.3485 0.4318 0.0000
0.3485 0.4369 0.0000
0.3485 0.4419 0.0000
0.3485 0.4470 0.0000
0.3485 0.4520 0.0000
0.3485 0.4571 0.0000
0.3485 0.4621 0.0000
0.3485 0.4672 0.0000
0.3485 0.4722 0.0000
0.3485 0.4773 0.0000
0.3485 0.4823 0.0000
0.3485 0.4874 0.0000
0.3485 0.4924 0.0000
0.3485 0.4975 0.0000
0.3586 0.0025 0.0000
0.3586 0.0076 0.0000
0.3586 0.0126 0.0000
0.3586 0.0177 0.0000
0.3586 0.0227 0.0000
0.3586 0.0278 0.0000
0.3586 0.0328 0.0000
0.3586 0.0379 0.0000
0.3586 0.0429 0.0000
0.3586 0.0480 0.0000
0.3586 0.0530 0.0000
0.3586 0.0581 0.0000
0.3586 0.0631 0.0000
0.3586 0.0682 0.0000
0.3586 0.0732 0.0000
0.3586 0.0783 0.0000
0.3586 0.0833 0.0000
0.3586 0.0884 0.0000
0.3586 0.0934 0.0000
0.3586 0.0985 0.0000
0.3586 0.1035 0.0000
0.3586 0.1086 0.0000
0.3586 0.1136 0.0000
0.3586 0.1187 0.0000
0.3586 0.1237 0.0000
0.3586 0.1288 0.0000
0.3586 0.1338 0.0000
0.3586 0.1389 0.0000
0.3586 0.1439 0.0000
0.3586 0.1490 0.0000
0.3586 0.1540 0.0000
0.3586 0.1591 0.0000
0.3586 0.1641 0.0000
0.3586 0.1692 0.0000
0.3586 0.1742 0.0000
0.3586 0.1793 0.0000
0.3586 0.1843 0.0000
0.3586 0.1894 0.0000
0.3586 0.1944 0.0000
0.3586 0.1995 0.0000
0.3586 0.2045 0.0000
0.3586 0.2096 0.0000
0.3586 0.2146 0.0000
0.3586 0.2197 0.0000
0.3586 0.2247 0.0000
0.3586 0.2298 0.0000
0.3586 0.2348 0.0000
0.3586 0.2399 0.0000
0.3586 0.2449 0.0000
0.3586 0.2500 0.0000
0.3586 0.2551 0.0000
0.3586 0.2601 0.0000
0.3586 0.2652 0.0000
0.3586 0.2702 0.0000
0.3586 0.2753 0.0000
0.3586 0.2803 0.0000
0.3586 0.2854 0.0000
0.3586 0.2904 0.0000
0.3586 0.2955 0.0000
0.3586 0.3005 0.0000
0.3586 0.3056 0.0000
0.3586 0.3106 0.0000
0.3586 0.3157 0.0000
0.3586 0.3207 0.0000
0.3586 0.3258 0.0000
0.3586 0.3308 0.0000
0.3586 0.3359 0.0000
0.3586 0.3409 0.0000
0.3586 0.3460 0.0000
0.3586 0.3510 0.0000
0.3586 0.3561 0.0000
0.3586 0.3611 0.0000
0.3586 0.3662 0.0000
0.3586 0.3712 0.0000
0.3586 0.3763 0.0000
0.3586 0.3813 0.0000
0.3586 0.3864 0.0000
0.3586 0.3914 0.0000
0.3586 0.3965 0.0000
0.3586 0.4015 0.0000
0.3586 0.4066 0.0000
0.3586 0.4116 0.0000
0.3586 0.4167 0.0000
0.3586 0.4217 0.0000
0.3586 0.4268 0.0000
0.3586 0.4318 0.0000
0.3586 0.4369 0.0000
0.3586 0.4419 0.0000
0.3586 0.4470 0.0000
0.3586 0.4520 0.0000
0.3586 0.4571 0.0000
0.3586 0.4621 0.0000
0.3586 0.4672 0.0000
0.3586 0.4722 0.0000
0.3586 0.4773 0.0000
0.3586 0.4823 0.0000
0.3586 0.4874 0.0000
0.3586 0.4924 0.0000
0.3586 0.4975 0.0000
0.3687 0.0025 0.0000
0.3687 0.0076 0.0000
0.3687 0.0126 0.0000
0.3687 0.0177 0.0000
0.3687 0.0227 0.0000
0.3687 0.0278 0.0000
0.3687 0.0328 0.0000
0.3687 0.0379 0.0000
0.3687 0.0429 0.0000
0.3687 0.0480 0.0000
0.3687 0.0530 0.0000
0.3687 0.0581 0.0000
0.3687 0.0631 0.0000
0.3687 0.0682 0.0000
0.3687 0.0732 0.0000
0.3687 0.0783 0.0000
0.3687 0.0833 0.0000
0.3687 0.0884 0.0000
0.3687 0.0934 0.0000
0.3687 0.0985 0.0000
0.3687 0.1035 0.0000
0.3687 0.1086 0.0000
0.3687 0.1136 0.0000
0.3687 0.1187 0.0000
0.3687 0.1237 0.0000
0.3687 0.1288 0.0000
0.3687 0.1338 0.0000
0.3687 0.1389 0.0000
0.3687 0.1439 0.0000
0.3687 0.1490 0.0000
0.3687 0.1540 0.0000
0.3687 0.1591 0.0000
0.3687 0.1641 0.0000
0.3687 0.1692 0.0000
0.3687 0.1742 0.0000
0.3687 0.1793 0.0000
0.3687 0.1843 0.0000
0.3687 0.1894 0.0000
0.3687 0.1944 0.0000
0.3687 0.1995 0.0000
0.3687 0.2045 0.0000
0.3687 0.2096 0.0000
0.3687 0.2146 0.0000
0.3687 0.2197 0.0000
0.3687 0.2247 0.0000
0.3687 0.2298 0.0000
0.3687 0.2348 0.0000
0.3687 0.2399 0.0000
0.3687 0.2449 0.0000
0.3687 0.2500 0.0000
0.3687 0.2551 0.0000
0.3687 0.2601 0.0000
0.3687 0.2652 0.0000
0.3687 0.2702 0.0000
0.3687 0.2753 0.0000
0.3687 0.2803 0.0000
0.3687 0.2854 0.0000
0.3687 0.2904 0.0000
0.3687 0.2955 0.0000
0.3687 0.3005 0.0000
0.3687 0.3056 0.0000
0.3687 0.3106 0.0000
0.3687 0.3157 0.0000
0.3687 0.3207 0.0000
0.3687 0.3258 0.0000
0.3687 0.3308 0.0000
0.3687 0.3359 0.0000
0.3687 0.3409 0.0000
0.3687 0.3460 0.0000
0.3687 0.3510 0.0000
0.3687 0.3561 0.0000
0.3687 0.3611 0.0000
0.3687 0.3662 0.0000
0.3687 0.3712 0.0000
0.3687 0.3763 0.0000
0.3687 0.3813 0.0000
0.3687 0.3864 0.0000
0.3687 0.3914 0.0000
0.3687 0.3965 0.0000
0.3687 0.4015 0.0000
0.3687 0.4066 0.0000
0.3687 0.4116 0.0000
0.3687 0.4167 0.0000
0.3687 0.4217 0.0000
0.3687 0.4268 0.0000
0.3687 0.4318 0.0000
0.3687 0.4369 0.0000
0.3687 0.4419 0.0000
0.3687 0.4470 0.0000
0.3687 0.4520 0.0000
0.3687 0.4571 0.0000
0.3687 0.4621 0.0000
0.3687 0.4672 0.0000
0.3687 0.4722 0.0000
0.3687 0.4773 0.0000
0.3687 0.4823 0.0000
0.3687 0.4874 0.0000
0.3687 0.4924 0.0000
0.3687 0.4975 0.0000
0.3788 0.0025 0.0000
0.3788 0.0076 0.0000
0.3788 0.0126 0.0000
0.3788 0.0177 0.0000
0.3788 0.0227 0.0000
0.3788 0.0278 0.0000
0.3788 0.0328 0.0000
0.3788 0.0379 0.0000
0.3788 0.0429 0.0000
0.3788 0.0480 0.0000
0.3788 0.0530 0.0000
0.3788 0.0581 0.0000
0.3788 0.0631 0.0000
0.3788 0.0682 0.0000
0.3788 0.0732 0.0000
0.3788 0.0783 0.0000
0.3788 0.0833 0.0000
0.3788 0.0884 0.0000
0.3788 0.0934 0.0000
0.3788 0.0985 0.0000
0.3788 0.1035 0.0000
0.3788 0.1086 0.0000
0.3788 0.1136 0.0000
0.3788 0.1187 0.0000
0.3788 0.1237 0.0000
0.3788 0.1288 0.0000
0.3788 0.1338 0.0000
0.3788 0.1389 0.0000
0.3788 0.1439 0.0000
0.3788 0.1490 0.0000
0.3788 0.1540 0.0000
0.3788 0.1591 0.0000
0.3788 0.1641 0.0000
0.3788 0.1692 0.0000
0.3788 0.1742 0.0000
0.3788 0.1793 0.0000
0.3788 0.1843 0.0000
0.3788 0.1894 0.0000
0.3788 0.1944 0.0000
0.3788 0.1995 0.0000
0.3788 0.2045 0.0000
0.3788 0.2096 0.0000
0.3788 0.2146 0.0000
0.3788 0.2197 0.0000
0.3788 0.2247 0.0000
0.3788 0.2298 0.0000
0.3788 0.2348 0.0000
0.3788 0.2399 0.0000
0.3788 0.2449 0.0000
0.3788 0.2500 0.0000
0.3788 0.2551 0.0000
0.3788 0.2601 0.0000
0.3788 0.2652 0.0000
0.3788 0.2702 0.0000
0.3788 0.2753 0.0000
0.3788 0.2803 0.0000
0.3788 0.2854 0.0000
0.3788 0.2904 0.0000
0.3788 0.2955 0.0000
0.3788 0.3005 0.0000
0.3788 0.3056 0.0000
0.3788 0.3106 0.0000
0.3788 0.3157 0.0000
0.3788 0.3207 0.0000
0.3788 0.3258 0.0000
0.3788 0.3308 0.0000
0.3788 0.3359 0.0000
0.3788 0.3409 0.0000
0.3788 0.3460 0.0000
0.3788 0.3510 0.0000
0.3788 0.3561 0.0000
0.3788 0.3611 0.0000
0.3788 0.3662 0.0000
0.3788 0.3712 0.0000
0.3788 0.3763 0.0000
0.3788 0.3813 0.0000
0.3788 0.3864 0.0000
0.3788 0.3914 0.0000
0.3788 0.3965 0.0000
0.3788 0.4015 0.0000
0.3788 0.4066 0.0000
0.3788 0.4116 0.0000
0.3788 0.4167 0.0000
0.3788 0.4217 0.0000
0.3788 0.4268 0.0000
0.3788 0.4318 0.0000
0.3788 0.4369 0.0000
0.3788 0.4419 0.0000
0.3788 0.4470 0.0000
0.3788 0.4520 0.0000
0.3788 0.4571 0.0000
0.3788 0.4621 0.0000
0.3788 0.4672 0.0000
0.3788 0.4722 0.0000
0.3788 0.4773 0.0000
0.3788 0.4823 0.0000
0.3788 0.4874 0.0000
0.3788 0.4924 0.0000
0.3788 0.4975 0.0000
0.3889 0.0025 0.0000
0.3889 0.0076 0.0000
0.3889 0.0126 0.0000
0.3889 0.0177 0.0000
0.3889 0.0227 0.0000
0.3889 0.0278 0.0000
0.3889 0.0328 0.0000
0.3889 0.0379 0.0000
0.3889 0.0429 0.0000
0.3889 0.0480 0.0000
0.3889 0.0530 0.0000
0.3889 0.0581 0.0000
0.3889 0.0631 0.0000
0.3889 0.0682 0.0000
0.3889 0.0732 0.0000
0.3889 0.0783 0.0000
0.3889 0.0833 0.0000
0.3889 0.0884 0.0000
0.3889 0.0934 0.0000
0.3889 0.0985 0.0000
0.3889 0.1035 0.0000
0.3889 0.1086 0.0000
0.3889 0.1136 0.0000
0.3889 0.1187 0.0000
0.3889 0.1237 0.0000
0.3889 0.1288 0.0000
0.3889 0.1338 0.0000
0.3889 0.1389 0.0000
0.3889 0.1439 0.0000
0.3889 0.1490 0.0000
0.3889 0.1540 0.0000
0.3889 0.1591 0.0000
0.3889 0.1641 0.0000
0.3889 0.1692 0.0000
0.3889 0.1742 0.0000
0.3889 0.1793 0.0000
0.3889 0.1843 0.0000
0.3889 0.1894 0.0000
0.3889 0.1944 0.0000
0.3889 0.1995 0.0000
0.3889 0.2045 0.0000
0.3889 0.2096 0.0000
0.3889 0.2146 0.0000
0.3889 0.2197 0.0000
0.3889 0.2247 0.0000
0.3889 0.2298 0.0000
0.3889 0.2348 0.0000
0.3889 0.2399 0.0000
0.3889 0.2449 0.0000
0.3889 0.2500 0.0000
0.3889 0.2551 0.0000
0.3889 0.2601 0.0000
0.3889 0.2652 0.0000
0.3889 0.2702 0.0000
0.3889 0.2753 0.0000
0.3889 0.2803 0.0000
0.3889 0.2854 0.0000
0.3889 0.2904 0.0000
0.3889 0.2955 0.0000
0.3889 0.3005 0.0000
0.3889 0.3056 0.0000
0.3889 0.3106 0.0000
0.3889 0.3157 0.0000
0.3889 0.3207 0.0000
0.3889 0.3258 0.0000
0.3889 0.3308 0.0000
0.3889 0.3359 0.0000
0.3889 0.3409 0.0000
0.3889 0.3460 0.0000
0.3889 0.3510 0.0000
0.3889 0.3561 0.0000
0.3889 0.3611 0.0000
0.3889 0.3662 0.0000
0.3889 0.3712 0.0000
0.3889 0.3763 0.0000
0.3889 0.3813 0.0000
0.3889 0.3864 0.0000
0.3889 0.3914 0.0000
0.3889 0.3965 0.0000
0.3889 0.4015 0.0000
0.3889 0.4066 0.0000
0.3889 0.4116 0.0000
0.3889 0.4167 0.0000
0.3889 0.4217 0.0000
0.3889 0.4268 0.0000
0.3889 0.4318 0.0000
0.3889 0.4369 0.0000
0.3889 0.4419 0.0000
0.3889 0.4470 0.0000
0.3889 0.4520 0.0000
0.3889 0.4571 0.0000
0.3889 0.4621 0.0000
0.3889 0.4672 0.0000
0.3889 0.4722 0.0000
0.3889 0.4773 0.0000
0.3889 0.4823 0.0000
0.3889 0.4874 0.0000
0.3889 0.4924 0.0000
0.3889 0.4975 0.0000
0.3990 0.0025 0.0000
0.3990 0.0076 0.0000
0.3990 0.0126 0.0000
0.3990 0.0177 0.0000
0.3990 0.0227 0.0000
0.3990 0.0278 0.0000
0.3990 0.0328 0.0000
0.3990 0.0379 0.0000
0.3990 0.0429 0.0000
0.3990 0.0480 0.0000
0.3990 0.0530 0.0000
0.3990 0.0581 0.0000
0.3990 0.0631 0.0000
0.3990 0.0682 0.0000
0.3990 0.0732 0.0000
0.3990 0.0783 0.0000
0.3990 0.0833 0.0000
0.3990 0.0884 0.0000
0.3990 0.0934 0.0000
0.3990 0.0985 0.0000
0.3990 0.1035 0.0000
0.3990 0.1086 0.0000
0.3990 0.1136 0.0000
0.3990 0.1187 0.0000
0.3990 0.1237 0.0000
0.3990 0.1288 0.0000
0.3990 0.1338 0.0000
0.3990 0.1389 0.0000
0.3990 0.1439 0.0000
0.3990 0.1490 0.0000
0.3990 0.1540 0.0000
0.3990 0.1591 0.0000
0.3990 0.1641 0.0000
0.3990 0.1692 0.0000
0.3990 0.1742 0.0000
0.3990 0.1793 0.0000
0.3990 0.1843 0.0000
0.3990 0.1894 0.0000
0.3990 0.1944 0.0000
0.3990 0.1995 0.0000
0.3990 0.2045 0.0000
0.3990 0.2096 0.0000
0.3990 0.2146 0.0000
0.3990 0.2197 0.0000
0.3990 0.2247 0.0000
0.3990 0.2298 0.0000
0.3990 0.2348 0.0000
0.3990 0.2399 0.0000
0.3990 0.2449 0.0000
0.3990 0.2500 0.0000
0.3990 0.2551 0.0000
0.3990 0.2601 0.0000
0.3990 0.2652 0.0000
0.3990 0.2702 0.0000
0.3990 0.2753 0.0000
0.3990 0.2803 0.0000
0.3990 0.2854 0.0000
0.3990 0.2904 0.0000
0.3990 0.2955 0.0000
0.3990 0.3005 0.0000
0.3990 0.3056 0.0000
0.3990 0.3106 0.0000
0.3990 0.3157 0.0000
0.3990 0.3207 0.0000
0.3990 0.3258 0.0000
0.3990 0.3308 0.0000
0.3990 0.3359 0.0000
0.3990 0.3409 0.0000
0.3990 0.3460 0.0000
0.3990 0.3510 0.0000
0.3990 0.3561 0.0000
0.3990 0.3611 0.0000
0.3990 0.3662 0.0000
0.3990 0.3712 0.0000
0.3990 0.3763 0.0000
0.3990 0.3813 0.0000
0.3990 0.3864 0.0000
0.3990 0.3914 0.0000
0.3990 0.3965 0.0000
0.3990 0.4015 0.0000
0.3990 0.4066 0.0000
0.3990 0.4116 0.0000
0.3990 0.4167 0.0000
0.3990 0.4217 0.0000
0.3990 0.4268 0.0000
0.3990 0.4318 0.0000
0.3990 0.4369 0.0000
0.3990 0.4419 0.0000
0.3990 0.4470 0.0000
0.3990 0.4520 0.0000
0.3990 0.4571 0.0000
0.3990 0.4621 0.0000
0.3990 0.4672 0.0000
0.3990 0.4722 0.0000
0.3990 0.4773 0.0000
0.3990 0.4823 0.0000
0.3990 0.4874 0.0000
0.3990 0.4924 0.0000
0.3990 0.4975 0.0000
0.4091 0.0025 0.0000
0.4091 0.0076 0.0000
0.4091 0.0126 0.0000
0.4091 0.0177 0.0000
0.4091 0.0227 0.0000
0.4091 0.0278 0.0000
0.4091 0.0328 0.0000
0.4091 0.0379 0.0000
0.4091 0.0429 0.0000
0.4091 0.0480 0.0000
0.4091 0.0530 0.0000
0.4091 0.0581 0.0000
0.4091 0.0631 0.0000
0.4091 0.0682 0.0000
0.4091 0.0732 0.0000
0.4091 0.0783 0.0000
0.4091 0.0833 0.0000
0.4091 0.0884 0.0000
0.4091 0.0934 0.0000
0.4091 0.0985 0.0000
0.4091 0.1035 0.0000
0.4091 0.1086 0.0000
0.4091 0.1136 0.0000
0.4091 0.1187 0.0000
0.4091 0.1237 0.0000
0.4091 0.1288 0.0000
0.4091 0.1338 0.0000
0.4091 0.1389 0.0000
0.4091 0.1439 0.0000
0.4091 0.1490 0.0000
0.4091 0.1540 0.0000
0.4091 0.1591 0.0000
0.4091 0.1641 0.0000
0.4091 0.1692 0.0000
0.4091 0.1742 0.0000
0.4091 0.1793 0.0000
0.4091 0.1843 0.0000
0.4091 0.1894 0.0000
0.4091 0.1944 0.0000
0.4091 0.1995 0.0000
0.4091 0.2045 0.0000
0.4091 0.2096 0.0000
0.4091 0.2146 0.0000
0.4091 0.2197 0.0000
0.4091 0.2247 0.0000
0.4091 0.2298 0.0000
0.4091 0.2348 0.0000
0.4091 0.2399 0.0000
0.4091 0.2449 0.0000
0.4091 0.2500 0.0000
0.4091 0.2551 0.0000
0.4091 0.2601 0.0000
0.4091 0.2652 0.0000
0.4091 0.2702 0.0000
0.4091 0.2753 0.0000
0.4091 0.2803 0.0000
0.4091 0.2854 0.0000
0.4091 0.2904 0.0000
0.4091 0.2955 0.0000
0.4091 0.3005 0.0000
0.4091 0.3056 0.0000
0.4091 0.3106 0.0000
0.4091 0.3157 0.0000
0.4091 0.3207 0.0000
0.4091 0.3258 0.0000
0.4091 0.3308 0.0000
0.4091 0.3359 0.0000
0.4091 0.3409 0.0000
0.4091 0.3460 0.0000
0.4091 0.3510 0.0000
0.4091 0.3561 0.0000
0.4091 0.3611 0.0000
0.4091 0.3662 0.0000
0.4091 0.3712 0.0000
0.4091 0.3763 0.0000
0.4091 0.3813 0.0000
0.4091 0.3864 0.0000
0.4091 0.3914 0.0000
0.4091 0.3965 0.0000
0.4091 0.4015 0.0000
0.4091 0.4066 0.0000
0.4091 0.4116 0.0000
0.4091 0.4167 0.0000
0.4091 0.4217 0.0000
0.4091 0.4268 0.0000
0.4091 0.4318 0.0000
0.4091 0.4369 0.0000
0.4091 0.4419 0.0000
0.4091 0.4470 0.0000
0.4091 0.4520 0.0000
0.4091 0.4571 0.0000
0.4091 0.4621 0.0000
0.4091 0.4672 0.0000
0.4091 0.4722 0.0000
0.4091 0.4773 0.0000
0.4091 0.4823 0.0000
0.4091 0.4874 0.0000
0.4091 0.4924 0.0000
0.4091 0.4975 0.0000
0.4192 0.0025 0.0000
0.4192 0.0076 0.0000
0.4192 0.0126 0.0000
0.4192 0.0177 0.0000
0.4192 0.0227 0.0000
0.4192 0.0278 0.0000
0.4192 0.0328 0.0000
0.4192 0.0379 0.0000
0.4192 0.0429 0.0000
0.4192 0.0480 0.0000
0.4192 0.0530 0.0000
0.4192 0.0581 0.0000
0.4192 0.0631 0.0000
0.4192 0.0682 0.0000
0.4192 0.0732 0.0000
0.4192 0.0783 0.0000
0.4192 0.0833 0.0000
0.4192 0.0884 0.0000
0.4192 0.0934 0.0000
0.4192 0.0985 0.0000
0.4192 0.1035 0.0000
0.4192 0.1086 0.0000
0.4192 0.1136 0.0000
0.4192 0.1187 0.0000
0.4192 0.1237 0.0000
0.4192 0.1288 0.0000
0.4192 0.1338 0.0000
0.4192 0.1389 0.0000
0.4192 0.1439 0.0000
0.4192 0.1490 0.0000
0.4192 0.1540 0.0000
0.4192 0.1591 0.0000
0.4192 0.1641 0.0000
0.4192 0.1692 0.0000
0.4192 0.1742 0.0000
0.4192 0.1793 0.0000
0.4192 0.1843 0.0000
0.4192 0.1894 0.0000
0.4192 0.1944 0.0000
0.4192 0.1995 0.0000
0.4192 0.2045 0.0000
0.4192 0.2096 0.0000
0.4192 0.2146 0.0000
0.4192 0.2197 0.0000
0.4192 0.2247 0.0000
0.4192 0.2298 0.0000
0.4192 0.2348 0.0000
0.4192 0.2399 0.0000
0.4192 0.2449 0.0000
0.4192 0.2500 0.0000
0.4192 0.2551 0.0000
0.4192 0.2601 0.0000
0.4192 0.2652 0.0000
0.4192 0.2702 0.0000
0.4192 0.2753 0.0000
0.4192 0.2803 0.0000
0.4192 0.2854 0.0000
0.4192 0.2904 0.0000
0.4192 0.2955 0.0000
0.4192 0.3005 0.0000
0.4192 0.3056 0.0000
0.4192 0.3106 0.0000
0.4192 0.3157 0.0000
0.4192 0.3207 0.0000
0.4192 0.3258 0.0000
0.4192 0.3308 0.0000
0.4192 0.3359 0.0000
0.4192 0.3409 0.0000
0.4192 0.3460 0.0000
0.4192 0.3510 0.0000
0.4192 0.3561 0.0000
0.4192 0.3611 0.0000
0.4192 0.3662 0.0000
0.4192 0.3712 0.0000
0.4192 0.3763 0.0000
0.4192 0.3813 0.0000
0.4192 0.3864 0.0000
0.4192 0.3914 0.0000
0.4192 0.3965 0.0000
0.4192 0.4015 0.0000
0.4192 0.4066 0.0000
0.4192 0.4116 0.0000
0.4192 0.4167 0.0000
0.4192 0.4217 0.0000
0.4192 0.4268 0.0000
0.4192 0.4318 0.0000
0.4192 0.4369 0.0000
0.4192 0.4419 0.0000
0.4192 0.4470 0.0000
0.4192 0.4520 0.0000
0.4192 0.4571 0.0000
0.4192 0.4621 0.0000
0.4192 0.4672 0.0000
0.4192 0.4722 0.0000
0.4192 0.4773 0.0000
0.4192 0.4823 0.0000
0.4192 0.4874 0.0000
0.4192 0.4924 0.0000
0.4192 0.4975 0.0000
0.4293 0.0025 0.0000
0.4293 0.0076 0.0000
0.4293 0.0126 0.0000
0.4293 0.0177 0.0000
0.4293 0.0227 0.0000
0.4293 0.0278 0.0000
0.4293 0.0328 0.0000
0.4293 0.0379 0.0000
0.4293 0.0429 0.0000
0.4293 0.0480 0.0000
0.4293 0.0530 0.0000
0.4293 0.0581 0.0000
0.4293 0.0631 0.0000
0.4293 0.0682 0.0000
0.4293 0.0732 0.0000
0.4293 0.0783 0.0000
0.4293 0.0833 0.0000
0.4293 0.0884 0.0000
0.4293 0.0934 0.0000
0.4293 0.0985 0.0000
0.4293 0.1035 0.0000
0.4293 0.1086 0.0000
0.4293 0.1136 0.0000
0.4293 0.1187 0.0000
0.4293 0.1237 0.0000
0.4293 0.1288 0.0000
0.4293 0.1338 0.0000
0.4293 0.1389 0.0000
0.4293 0.1439 0.0000
0.4293 0.1490 0.0000
0.4293 0.1540 0.0000
0.4293 0.1591 0.0000
0.4293 0.1641 0.0000
0.4293 0.1692 0.0000
0.4293 0.1742 0.0000
0.4293 0.1793 0.0000
0.4293 0.1843 0.0000
0.4293 0.1894 0.0000
0.4293 0.1944 0.0000
0.4293 0.1995 0.0000
0.4293 0.2045 0.0000
0.4293 0.2096 0.0000
0.4293 0.2146 0.0000
0.4293 0.2197 0.0000
0.4293 0.2247 0.0000
0.4293 0.2298 0.0000
0.4293 0.2348 0.0000
0.4293 0.2399 0.0000
0.4293 0.2449 0.0000
0.4293 0.2500 0.0000
0.4293 0.2551 0.0000
0.4293 0.2601 0.0000
0.4293 0.2652 0.0000
0.4293 0.2702 0.0000
0.4293 0.2753 0.0000
0.4293 0.2803 0.0000
0.4293 0.2854 0.0000
0.4293 0.2904 0.0000
0.4293 0.2955 0.0000
0.4293 0.3005 0.0000
0.4293 0.3056 0.0000
0.4293 0.3106 0.0000
0.4293 0.3157 0.0000
0.4293 0.3207 0.0000
0.4293 0.3258 0.0000
0.4293 0.3308 0.0000
0.4293 0.3359 0.0000
0.4293 0.3409 0.0000
0.4293 0.3460 0.0000
0.4293 0.3510 0.0000
0.4293 0.3561 0.0000
0.4293 0.3611 0.0000
0.4293 0.3662 0.0000
0.4293 0.3712 0.0000
0.4293 0.3763 0.0000
0.4293 0.3813 0.0000
0.4293 0.3864 0.0000
0.4293 0.3914 0.0000
0.4293 0.3965 0.0000
0.4293 0.4015 0.0000
0.4293 0.4066 0.0000
0.4293 0.4116 0.0000
0.4293 0.4167 0.0000
0.4293 0.4217 0.0000
0.4293 0.4268 0.0000
0.4293 0.4318 0.0000
0.4293 0.4369 0.0000
0.4293 0.4419 0.0000
0.4293 0.4470 0.0000
0.4293 0.4520 0.0000
0.4293 0.4571 0.0000
0.4293 0.4621 0.0000
0.4293 0.4672 0.0000
0.4293 0.4722 0.0000
0.4293 0.4773 0.0000
0.4293 0.4823 0.0000
0.4293 0.4874 0.0000
0.4293 0.4924 0.0000
0.4293 0.4975 0.0000
0.4394 0.0025 0.0000
0.4394 0.0076 0.0000
0.4394 0.0126 0.0000
0.4394 0.0177 0.0000
0.4394 0.0227 0.0000
0.4394 0.0278 0.0000
0.4394 0.0328 0.0000
0.4394 0.0379 0.0000
0.4394 0.0429 0.0000
0.4394 0.0480 0.0000
0.4394 0.0530 0.0000
0.4394 0.0581 0.0000
0.4394 0.0631 0.0000
0.4394 0.0682 0.0000
0.4394 0.0732 0.0000
0.4394 0.0783 0.0000
0.4394 0.0833 0.0000
0.4394 0.0884 0.0000
0.4394 0.0934 0.0000
0.4394 0.0985 0.0000
0.4394 0.1035 0.0000
0.4394 0.1086 0.0000
0.4394 0.1136 0.0000
0.4394 0.1187 0.0000
0.4394 0.1237 0.0000
0.4394 0.1288 0.0000
0.4394 0.1338 0.0000
0.4394 0.1389 0.0000
0.4394 0.1439 0.0000
0.4394 0.1490 0.0000
0.4394 0.1540 0.0000
0.4394 0.1591 0.0000
0.4394 0.1641 0.0000
0.4394 0.1692 0.0000
0.4394 0.1742 0.0000
0.4394 0.1793 0.0000
0.4394 0.1843 0.0000
0.4394 0.1894 0.0000
0.4394 0.1944 0.0000
0.4394 0.1995 0.0000
0.4394 0.2045 0.0000
0.4394 0.2096 0.0000
0.4394 0.2146 0.0000
0.4394 0.2197 0.0000
0.4394 0.2247 0.0000
0.4394 0.2298 0.0000
0.4394 0.2348 0.0000
0.4394 0.2399 0.0000
0.4394 0.2449 0.0000
0.4394 0.2500 0.0000
0.4394 0.2551 0.0000
0.4394 0.2601 0.0000
0.4394 0.2652 0.0000
0.4394 0.2702 0.0000
0.4394 0.2753 0.0000
0.4394 0.2803 0.0000
0.4394 0.2854 0.0000
0.4394 0.2904 0.0000
0.4394 0.2955 0.0000
0.4394 0.3005 0.0000
0.4394 0.3056 0.0000
0.4394 0.3106 0.0000
0.4394 0.3157 0.0000
0.4394 0.3207 0.0000
0.4394 0.3258 0.0000
0.4394 0.3308 0.0000
0.4394 0.3359 0.0000
0.4394 0.3409 0.0000
0.4394 0.3460 0.0000
0.4394 0.3510 0.0000
0.4394 0.3561 0.0000
0.4394 0.3611 0.0000
0.4394 0.3662 0.0000
0.4394 0.3712 0.0000
0.4394 0.3763 0.0000
0.4394 0.3813 0.0000
0.4394 0.3864 0.0000
0.4394 0.3914 0.0000
0.4394 0.3965 0.0000
0.4394 0.4015 0.0000
0.4394 0.4066 0.0000
0.4394 0.4116 0.0000
0.4394 0.4167 0.0000
0.4394 0.4217 0.0000
0.4394 0.4268 0.0000
0.4394 0.4318 0.0000
0.4394 0.4369 0.0000
0.4394 0.4419 0.0000
0.4394 0.4470 0.0000
0.4394 0.4520 0.0000
0.4394 0.4571 0.0000
0.4394 0.4621 0.0000
0.4394 0.4672 0.0000
0.4394 0.4722 0.0000
0.4394 0.4773 0.0000
0.4394 0.4823 0.0000
0.4394 0.4874 0.0000
0.4394 0.4924 0.0000
0.4394 0.4975 0.0000
0.4495 0.0025 0.0000
0.4495 0.0076 0.0000
0.4495 0.0126 0.0000
0.4495 0.0177 0.0000
0.4495 0.0227 0.0000
0.4495 0.0278 0.0000
0.4495 0.0328 0.0000
0.4495 0.0379 0.0000
0.4495 0.0429 0.0000
0.4495 0.0480 0.0000
0.4495 0.0530 0.0000
0.4495 0.0581 0.0000
0.4495 0.0631 0.0000
0.4495 0.0682 0.0000
0.4495 0.0732 0.0000
0.4495 0.0783 0.0000
0.4495 0.0833 0.0000
0.4495 0.0884 0.0000
0.4495 0.0934 0.0000
0.4495 0.0985 0.0000
0.4495 0.1035 0.0000
0.4495 0.1086 0.0000
0.4495 0.1136 0.0000
0.4495 0.1187 0.0000
0.4495 0.1237 0.0000
0.4495 0.1288 0.0000
0.4495 0.1338 0.0000
0.4495 0.1389 0.0000
0.4495 0.1439 0.0000
0.4495 0.1490 0.0000
0.4495 0.1540 0.0000
0.4495 0.1591 0.0000
0.4495 0.1641 0.0000
0.4495 0.1692 0.0000
0.4495 0.1742 0.0000
0.4495 0.1793 0.0000
0.4495 0.1843 0.0000
0.4495 0.1894 0.0000
0.4495 0.1944 0.0000
0.4495 0.1995 0.0000
0.4495 0.2045 0.0000
0.4495 0.2096 0.0000
0.4495 0.2146 0.0000
0.4495 0.2197 0.0000
0.4495 0.2247 0.0000
0.4495 0.2298 0.0000
0.4495 0.2348 0.0000
0.4495 0.2399 0.0000
0.4495 0.2449 0.0000
0.4495 0.2500 0.0000
0.4495 0.2551 0.0000
0.4495 0.2601 0.0000
0.4495 0.2652 0.0000
0.4495 0.2702 0.0000
0.4495 0.2753 0.0000
0.4495 0.2803 0.0000
0.4495 0.2854 0.0000
0.4495 0.2904 0.0000
0.4495 0.2955 0.0000
0.4495 0.3005 0.0000
0.4495 0.3056 0.0000
0.4495 0.3106 0.0000
0.4495 0.3157 0.0000
0.4495 0.3207 0.0000
0.4495 0.3258 0.0000
0.4495 0.3308 0.0000
0.4495 0.3359 0.0000
0.4495 0.3409 0.0000
0.4495 0.3460 0.0000
0.4495 0.3510 0.0000
0.4495 0.3561 0.0000
0.4495 0.3611 0.0000
0.4495 0.3662 0.0000
0.4495 0.3712 0.0000
0.4495 0.3763 0.0000
0.4495 0.3813 0.0000
0.4495 0.3864 0.0000
0.4495 0.3914 0.0000
0.4495 0.3965 0.0000
0.4495 0.4015 0.0000
0.4495 0.4066 0.0000
0.4495 0.4116 0.0000
0.4495 0.4167 0.0000
0.4495 0.4217 0.0000
0.4495 0.4268 0.0000
0.4495 0.4318 0.0000
0.4495 0.4369 0.0000
0.4495 0.4419 0.0000
0.4495 0.4470 0.0000
0.4495 0.4520 0.0000
0.4495 0.4571 0.0000
0.4495 0.4621 0.0000
0.4495 0.4672 0.0000
0.4495 0.4722 0.0000
0.4495 0.4773 0.0000
0.4495 0.4823 0.0000
0.4495 0.4874 0.0000
0.4495 0.4924 0.0000
0.4495 0.4975 0.0000
0.4596 0.0025 0.0000
0.4596 0.0076 0.0000
0.4596 0.0126 0.0000
0.4596 0.0177 0.0000
0.4596 0.0227 0.0000
0.4596 0.0278 0.0000
0.4596 0.0328 0.0000
0.4596 0.0379 0.0000
0.4596 0.0429 0.0000
0.4596 0.0480 0.0000
0.4596 0.0530 0.0000
0.4596 0.0581 0.0000
0.4596 0.0631 0.0000
0.4596 0.0682 0.0000
0.4596 0.0732 0.0000
0.4596 0.0783 0.0000
0.4596 0.0833 0.0000
0.4596 0.0884 0.0000
0.4596 0.0934 0.0000
0.4596 0.0985 0.0000
0.4596 0.1035 0.0000
0.4596 0.1086 0.0000
0.4596 0.1136 0.0000
0.4596 0.1187 0.0000
0.4596 0.1237 0.0000
0.4596 0.1288 0.0000
0.4596 0.1338 0.0000
0.4596 0.1389 0.0000
0.4596 0.1439 0.0000
0.4596 0.1490 0.0000
0.4596 0.1540 0.0000
0.4596 0.1591 0.0000
0.4596 0.1641 0.0000
0.4596 0.1692 0.0000
0.4596 0.1742 0.0000
0.4596 0.1793 0.0000
0.4596 0.1843 0.0000
0.4596 0.1894 0.0000
0.4596 0.1944 0.0000
0.4596 0.1995 0.0000
0.4596 0.2045 0.0000
0.4596 0.2096 0.0000
0.4596 0.2146 0.0000
0.4596 0.2197 0.0000
0.4596 0.2247 0.0000
0.4596 0.2298 0.0000
0.4596 0.2348 0.0000
0.4596 0.2399 0.0000
0.4596 0.2449 0.0000
0.4596 0.2500 0.0000
0.4596 0.2551 0.0000
0.4596 0.2601 0.0000
0.4596 0.2652 0.0000
0.4596 0.2702 0.0000
0.4596 0.2753 0.0000
0.4596 0.2803 0.0000
0.4596 0.2854 0.0000
0.4596 0.2904 0.0000
0.4596 0.2955 0.0000
0.4596 0.3005 0.0000
0.4596 0.3056 0.0000
0.4596 0.3106 0.0000
0.4596 0.3157 0.0000
0.4596 0.3207 0.0000
0.4596 0.3258 0.0000
0.4596 0.3308 0.0000
0.4596 0.3359 0.0000
0.4596 0.3409 0.0000
0.4596 0.3460 0.0000
0.4596 0.3510 0.0000
0.4596 0.3561 0.0000
0.4596 0.3611 0.0000
0.4596 0.3662 0.0000
0.4596 0.3712 0.0000
0.4596 0.3763 0.0000
0.4596 0.3813 0.0000
0.4596 0.3864 0.0000
0.4596 0.3914 0.0000
0.4596 0.3965 0.0000
0.4596 0.4015 0.0000
0.4596 0.4066 0.0000
0.4596 0.4116 0.0000
0.4596 0.4167 0.0000
0.4596 0.4217 0.0000
0.4596 0.4268 0.0000
0.4596 0.4318 0.0000
0.4596 0.4369 0.0000
0.4596 0.4419 0.0000
0.4596 0.4470 0.0000
0.4596 0.4520 0.0000
0.4596 0.4571 0.0000
0.4596 0.4621 0.0000
0.4596 0.4672 0.0000
0.4596 0.4722 0.0000
0.4596 0.4773 0.0000
0.4596 0.4823 0.0000
0.4596 0.4874 0.0000
0.4596 0.4924 0.0000
0.4596 0.4975 0.0000
0.4697 0.0025 0.0000
0.4697 0.0076 0.0000
0.4697 0.0126 0.0000
0.4697 0.0177 0.0000
0.4697 0.0227 0.0000
0.4697 0.0278 0.0000
0.4697 0.0328 0.0000
0.4697 0.0379 0.0000
0.4697 0.0429 0.0000
0.4697 0.0480 0.0000
0.4697 0.0530 0.0000
0.4697 0.0581 0.0000
0.4697 0.0631 0.0000
0.4697 0.0682 0.0000
0.4697 0.0732 0.0000
0.4697 0.0783 0.0000
0.4697 0.0833 0.0000
0.4697 0.0884 0.0000
0.4697 0.0934 0.0000
0.4697 0.0985 0.0000
0.4697 0.1035 0.0000
0.4697 0.1086 0.0000
0.4697 0.1136 0.0000
0.4697 0.1187 0.0000
0.4697 0.1237 0.0000
0.4697 0.1288 0.0000
0.4697 0.1338 0.0000
0.4697 0.1389 0.0000
0.4697 0.1439 0.0000
0.4697 0.1490 0.0000
0.4697 0.1540 0.0000
0.4697 0.1591 0.0000
0.4697 0.1641 0.0000
0.4697 0.1692 0.0000
0.4697 0.1742 0.0000
0.4697 0.1793 0.0000
0.4697 0.1843 0.0000
0.4697 0.1894 0.0000
0.4697 0.1944 0.0000
0.4697 0.1995 0.0000
0.4697 0.2045 0.0000
0.4697 0.2096 0.0000
0.4697 0.2146 0.0000
0.4697 0.2197 0.0000
0.4697 0.2247 0.0000
0.4697 0.2298 0.0000
0.4697 0.2348 0.0000
0.4697 0.2399 0.0000
0.4697 0.2449 0.0000
0.4697 0.2500 0.0000
0.4697 0.2551 0.0000
0.4697 0.2601 0.0000
0.4697 0.2652 0.0000
0.4697 0.2702 0.0000
0.4697 0.2753 0.0000
0.4697 0.2803 0.0000
0.4697 0.2854 0.0000
0.4697 0.2904 0.0000
0.4697 0.2955 0.0000
0.4697 0.3005 0.0000
0.4697 0.3056 0.0000
0.4697 0.3106 0.0000
0.4697 0.3157 0.0000
0.4697 0.3207 0.0000
0.4697 0.3258 0.0000
0.4697 0.3308 0.0000
0.4697 0.3359 0.0000
0.4697 0.3409 0.0000
0.4697 0.3460 0.0000
0.4697 0.3510 0.0000
0.4697 0.3561 0.0000
0.4697 0.3611 0.0000
0.4697 0.3662 0.0000
0.4697 0.3712 0.0000
0.4697 0.3763 0.0000
0.4697 0.3813 0.0000
0.4697 0.3864 0.0000
0.4697 0.3914 0.0000
0.4697 0.3965 0.0000
0.4697 0.4015 0.0000
0.4697 0.4066 0.0000
0.4697 0.4116 0.0000
0.4697 0.4167 0.0000
0.4697 0.4217 0.0000
0.4697 0.4268 0.0000
0.4697 0.4318 0.0000
0.4697 0.4369 0.0000
0.4697 0.4419 0.0000
0.4697 0.4470 0.0000
0.4697 0.4520 0.0000
0.4697 0.4571 0.0000
0.4697 0.4621 0.0000
0.4697 0.4672 0.0000
0.4697 0.4722 0.0000
0.4697 0.4773 0.0000
0.4697 0.4823 0.0000
0.4697 0.4874 0.0000
0.4697 0.4924 0.0000
0.4697 0.4975 0.0000
0.4798 0.0025 0.0000
0.4798 0.0076 0.0000
0.4798 0.0126 0.0000
0.4798 0.0177 0.0000
0.4798 0.0227 0.0000
0.4798 0.0278 0.0000
0.4798 0.0328 0.0000
0.4798 0.0379 0.0000
0.4798 0.0429 0.0000
0.4798 0.0480 0.0000
0.4798 0.0530 0.0000
0.4798 0.0581 0.0000
0.4798 0.0631 0.0000
0.4798 0.0682 0.0000
0.4798 0.0732 0.0000
0.4798 0.0783 0.0000
0.4798 0.0833 0.0000
0.4798 0.0884 0.0000
0.4798 0.0934 0.0000
0.4798 0.0985 0.0000
0.4798 0.1035 0.0000
0.4798 0.1086 0.0000
0.4798 0.1136 0.0000
0.4798 0.1187 0.0000
0.4798 0.1237 0.0000
0.4798 0.1288 0.0000
0.4798 0.1338 0.0000
0.4798 0.1389 0.0000
0.4798 0.1439 0.0000
0.4798 0.1490 0.0000
0.4798 0.1540 0.0000
0.4798 0.1591 0.0000
0.4798 0.1641 0.0000
0.4798 0.1692 0.0000
0.4798 0.1742 0.0000
0.4798 0.1793 0.0000
0.4798 0.1843 0.0000
0.4798 0.1894 0.0000
0.4798 0.1944 0.0000
0.4798 0.1995 0.0000
0.4798 0.2045 0.0000
0.4798 0.2096 0.0000
0.4798 0.2146 0.0000
0.4798 0.2197 0.0000
0.4798 0.2247 0.0000
0.4798 0.2298 0.0000
0.4798 0.2348 0.0000
0.4798 0.2399 0.0000
0.4798 0.2449 0.0000
0.4798 0.2500 0.0000
0.4798 0.2551 0.0000
0.4798 0.2601 0.0000
0.4798 0.2652 0.0000
0.4798 0.2702 0.0000
0.4798 0.2753 0.0000
0.4798 0.2803 0.0000
0.4798 0.2854 0.0000
0.4798 0.2904 0.0000
0.4798 0.2955 0.0000
0.4798 0.3005 0.0000
0.4798 0.3056 0.0000
0.4798 0.3106 0.0000
0.4798 0.3157 0.0000
0.4798 0.3207 0.0000
0.4798 0.3258 0.0000
0.4798 0.3308 0.0000
0.4798 0.3359 0.0000
0.4798 0.3409 0.0000
0.4798 0.3460 0.0000
0.4798 0.3510 0.0000
0.4798 0.3561 0.0000
0.4798 0.3611 0.0000
0.4798 0.3662 0.0000
0.4798 0.3712 0.0000
0.4798 0.3763 0.0000
0.4798 0.3813 0.0000
0.4798 0.3864 0.0000
0.4798 0.3914 0.0000
0.4798 0.3965 0.0000
0.4798 0.4015 0.0000
0.4798 0.4066 0.0000
0.4798 0.4116 0.0000
0.4798 0.4167 0.0000
0.4798 0.4217 0.0000
0.4798 0.4268 0.0000
0.4798 0.4318 0.0000
0.4798 0.4369 0.0000
0.4798 0.4419 0.0000
0.4798 0.4470 0.0000
0.4798 0.4520 0.0000
0.4798 0.4571 0.0000
0.4798 0.4621 0.0000
0.4798 0.4672 0.0000
0.4798 0.4722 0.0000
0.4798 0.4773 0.0000
0.4798 0.4823 0.0000
0.4798 0.4874 0.0000
0.4798 0.4924 0.0000
0.4798 0.4975 0.0000
0.4899 0.0025 0.0000
0.4899 0.0076 0.0000
0.4899 0.0126 0.0000
0.4899 0.0177 0.0000
0.4899 0.0227 0.0000
0.4899 0.0278 0.0000
0.4899 0.0328 0.0000
0.4899 0.0379 0.0000
0.4899 0.0429 0.0000
0.4899 0.0480 0.0000
0.4899 0.0530 0.0000
0.4899 0.0581 0.0000
0.4899 0.0631 0.0000
0.4899 0.0682 0.0000
0.4899 0.0732 0.0000
0.4899 0.0783 0.0000
0.4899 0.0833 0.0000
0.4899 0.0884 0.0000
0.4899 0.0934 0.0000
0.4899 0.0985 0.0000
0.4899 0.1035 0.0000
0.4899 0.1086 0.0000
0.4899 0.1136 0.0000
0.4899 0.1187 0.0000
0.4899 0.1237 0.0000
0.4899 0.1288 0.0000
0.4899 0.1338 0.0000
0.4899 0.1389 0.0000
0.4899 0.1439 0.0000
0.4899 0.1490 0.0000
0.4899 0.1540 0.0000
0.4899 0.1591 0.0000
0.4899 0.1641 0.0000
0.4899 0.1692 0.0000
0.4899 0.1742 0.0000
0.4899 0.1793 0.0000
0.4899 0.1843 0.0000
0.4899 0.1894 0.0000
0.4899 0.1944 0.0000
0.4899 0.1995 0.0000
0.4899 0.2045 0.0000
0.4899 0.2096 0.0000
0.4899 0.2146 0.0000
0.4899 0.2197 0.0000
0.4899 0.2247 0.0000
0.4899 0.2298 0.0000
0.4899 0.2348 0.0000
0.4899 0.2399 0.0000
0.4899 0.2449 0.0000
0.4899 0.2500 0.0000
0.4899 0.2551 0.0000
0.4899 0.2601 0.0000
0.4899 0.2652 0.0000
0.4899 0.2702 0.0000
0.4899 0.2753 0.0000
0.4899 0.2803 0.0000
0.4899 0.2854 0.0000
0.4899 0.2904 0.0000
0.4899 0.2955 0.0000
0.4899 0.3005 0.0000
0.4899 0.3056 0.0000
0.4899 0.3106 0.0000
0.4899 0.3157 0.0000
0.4899 0.3207 0.0000
0.4899 0.3258 0.0000
0.4899 0.3308 0.0000
0.4899 0.3359 0.0000
0.4899 0.3409 0.0000
0.4899 0.3460 0.0000
0.4899 0.3510 0.0000
0.4899 0.3561 0.0000
0.4899 0.3611 0.0000
0.4899 0.3662 0.0000
0.4899 0.3712 0.0000
0.4899 0.3763 0.0000
0.4899 0.3813 0.0000
0.4899 0.3864 0.0000
0.4899 0.3914 0.0000
0.4899 0.3965 0.0000
0.4899 0.4015 0.0000
0.4899 0.4066 0.0000
0.4899 0.4116 0.0000
0.4899 0.4167 0.0000
0.4899 0.4217 0.0000
0.4899 0.4268 0.0000
0.4899 0.4318 0.0000
0.4899 0.4369 0.0000
0.4899 0.4419 0.0000
0.4899 0.4470 0.0000
0.4899 0.4520 0.0000
0.4899 0.4571 0.0000
0.4899 0.4621 0.0000
0.4899 0.4672 0.0000
0.4899 0.4722 0.0000
0.4899 0.4773 0.0000
0.4899 0.4823 0.0000
0.4899 0.4874 0.0000
0.4899 0.4924 0.0000
0.4899 0.4975 0.0000
0.5000 0.0025 0.0000
0.5000 0.0076 0.0000
0.5000 0.0126 0.0000
0.5000 0.0177 0.0000
0.5000 0.0227 0.0000
0.5000 0.0278 0.0000
0.5000 0.0328 0.0000
0.5000 0.0379 0.0000
0.5000 0.0429 0.0000
0.5000 0.0480 0.0000
0.5000 0.0530 0.0000
0.5000 0.0581 0.0000
0.5000 0.0631 0.0000
0.5000 0.0682 0.0000
0.5000 0.0732 0.0000
0.5000 0.0783 0.0000
0.5000 0.0833 0.0000
0.5000 0.0884 0.0000
0.5000 0.0934 0.0000
0.5000 0.0985 0.0000
0.5000 0.1035 0.0000
0.5000 0.1086 0.0000
0.5000 0.1136 0.0000
0.5000 0.1187 0.0000
0.5000 0.1237 0.0000
0.5000 0.1288 0.0000
0.5000 0.1338 0.0000
0.5000 0.1389 0.0000
0.5000 0.1439 0.0000
0.5000 0.1490 0.0000
0.5000 0.1540 0.0000
0.5000 0.1591 0.0000
0.5000 0.1641 0.0000
0.5000 0.1692 0.0000
0.5000 0.1742 0.0000
0.5000 0.1793 0.0000
0.5000 0.1843 0.0000
0.5000 0.1894 0.0000
0.5000 0.1944 0.0000
0.5000 0.1995 0.0000
0.5000 0.2045 0.0000
0.5000 0.2096 0.0000
0.5000 0.2146 0.0000
0.5000 0.2197 0.0000
0.5000 0.2247 0.0000
0.5000 0.2298 0.0000
0.5000 0.2348 0.0000
0.5000 0.2399 0.0000
0.5000 0.2449 0.0000
0.5000 0.2500 0.0000
0.5000 0.2551 0.0000
0.5000 0.2601 0.0000
0.5000 0.2652 0.0000
0.5000 0.2702 0.0000
0.5000 0.2753 0.0000
0.5000 0.2803 0.0000
0.5000 0.2854 0.0000
0.5000 0.2904 0.0000
0.5000 0.2955 0.0000
0.5000 0.3005 0.0000
0.5000 0.3056 0.0000
0.5000 0.3106 0.0000
0.5000 0.3157 0.0000
0.5000 0.3207 0.0000
0.5000 0.3258 0.0000
0.5000 0.3308 0.0000
0.5000 0.3359 0.0000
0.5000 0.3409 0.0000
0.5000 0.3460 0.0000
0.5000 0.3510 0.0000
0.5000 0.3561 0.0000
0.5000 0.3611 0.0000
0.5000 0.3662 0.0000
0.5000 0.3712 0.0000
0.5000 0.3763 0.0000
0.5000 0.3813 0.0000
0.5000 0.3864 0.0000
0.5000 0.3914 0.0000
0.5000 0.3965 0.0000
0.5000 0.4015 0.0000
0.5000 0.4066 0.0000
0.5000 0.4116 0.0000
0.5000 0.4167 0.0000
0.5000 0.4217 0.0000
0.5000 0.4268 0.0000
0.5000 0.4318 0.0000
0.5000 0.4369 0.0000
0.5000 0.4419 0.0000
0.5000 0.4470 0.0000
0.5000 0.4520 0.0000
0.5000 0.4571 0.0000
0.5000 0.4621 0.0000
0.5000 0.4672 0.0000
0.5000 0.4722 0.0000
0.5000 0.4773 0.0000
0.5000 0.4823 0.0000
0.5000 0.4874 0.0000
0.5000 0.4924 0.0000
0.5000 0.4975 0.0000
0.5101 0.0025 0.0000
0.5101 0.0076 0.0000
0.5101 0.0126 0.0000
0.5101 0.0177 0.0000
0.5101 0.0227 0.0000
0.5101 0.0278 0.0000
0.5101 0.0328 0.0000
0.5101 0.0379 0.0000
0.5101 0.0429 0.0000
0.5101 0.0480 0.0000
0.5101 0.0530 0.0000
0.5101 0.0581 0.0000
0.5101 0.0631 0.0000
0.5101 0.0682 0.0000
0.5101 0.0732 0.0000
0.5101 0.0783 0.0000
0.5101 0.0833 0.0000
0.5101 0.0884 0.0000
0.5101 0.0934 0.0000
0.5101 0.0985 0.0000
0.5101 0.1035 0.0000
0.5101 0.1086 0.0000
0.5101 0.1136 0.0000
0.5101 0.1187 0.0000
0.5101 0.1237 0.0000
0.5101 0.1288 0.0000
0.5101 0.1338 0.0000
0.5101 0.1389 0.0000
0.5101 0.1439 0.0000
0.5101 0.1490 0.0000
0.5101 0.1540 0.0000
0.5101 0.1591 0.0000
0.5101 0.1641 0.0000
0.5101 0.1692 0.0000
0.5101 0.1742 0.0000
0.5101 0.1793 0.0000
0.5101 0.1843 0.0000
0.5101 0.1894 0.0000
0.5101 0.1944 0.0000
0.5101 0.1995 0.0000
0.5101 0.2045 0.0000
0.5101 0.2096 0.0000
0.5101 0.2146 0.0000
0.5101 0.2197 0.0000
0.5101 0.2247 0.0000
0.5101 0.2298 0.0000
0.5101 0.2348 0.0000
0.5101 0.2399 0.0000
0.5101 0.2449 0.0000
0.5101 0.2500 0.0000
0.5101 0.2551 0.0000
0.5101 0.2601 0.0000
0.5101 0.2652 0.0000
0.5101 0.2702 0.0000
0.5101 0.2753 0.0000
0.5101 0.2803 0.0000
0.5101 0.2854 0.0000
0.5101 0.2904 0.0000
0.5101 0.2955 0.0000
0.5101 0.3005 0.0000
0.5101 0.3056 0.0000
0.5101 0.3106 0.0000
0.5101 0.3157 0.0000
0.5101 0.3207 0.0000
0.5101 0.3258 0.0000
0.5101 0.3308 0.0000
0.5101 0.3359 0.0000
0.5101 0.3409 0.0000
0.5101 0.3460 0.0000
0.5101 0.3510 0.0000
0.5101 0.3561 0.0000
0.5101 0.3611 0.0000
0.5101 0.3662 0.0000
0.5101 0.3712 0.0000
0.5101 0.3763 0.0000
0.5101 0.3813 0.0000
0.5101 0.3864 0.0000
0.5101 0.3914 0.0000
0.5101 0.3965 0.0000
0.5101 0.4015 0.0000
0.5101 0.4066 0.0000
0.5101 0.4116 0.0000
0.5101 0.4167 0.0000
0.5101 0.4217 0.0000
0.5101 0.4268 0.0000
0.5101 0.4318 0.0000
0.5101 0.4369 0.0000
0.5101 0.4419 0.0000
0.5101 0.4470 0.0000
0.5101 0.4520 0.0000
0.5101 0.4571 0.0000
0.5101 0.4621 0.0000
0.5101 0.4672 0.0000
0.5101 0.4722 0.0000
0.5101 0.4773 0.0000
0.5101 0.4823 0.0000
0.5101 0.4874 0.0000
0.5101 0.4924 0.0000
0.5101 0.4975 0.0000
0.5202 0.0025 0.0000
0.5202 0.0076 0.0000
0.5202 0.0126 0.0000
0.5202 0.0177 0.0000
0.5202 0.0227 0.0000
0.5202 0.0278 0.0000
0.5202 0.0328 0.0000
0.5202 0.0379 0.0000
0.5202 0.0429 0.0000
0.5202 0.0480 0.0000
0.5202 0.0530 0.0000
0.5202 0.0581 0.0000
0.5202 0.0631 0.0000
0.5202 0.0682 0.0000
0.5202 0.0732 0.0000
0.5202 0.0783 0.0000
0.5202 0.0833 0.0000
0.5202 0.0884 0.0000
0.5202 0.0934 0.0000
0.5202 0.0985 0.0000
0.5202 0.1035 0.0000
0.5202 0.1086 0.0000
0.5202 0.1136 0.0000
0.5202 0.1187 0.0000
0.5202 0.1237 0.0000
0.5202 0.1288 0.0000
0.5202 0.1338 0.0000
0.5202 0.1389 0.0000
0.5202 0.1439 0.0000
0.5202 0.1490 0.0000
0.5202 0.1540 0.0000
0.5202 0.1591 0.0000
0.5202 0.1641 0.0000
0.5202 0.1692 0.0000
0.5202 0.1742 0.0000
0.5202 0.1793 0.0000
0.5202 0.1843 0.0000
0.5202 0.1894 0.0000
0.5202 0.1944 0.0000
0.5202 0.1995 0.0000
0.5202 0.2045 0.0000
0.5202 0.2096 0.0000
0.5202 0.2146 0.0000
0.5202 0.2197 0.0000
0.5202 0.2247 0.0000
0.5202 0.2298 0.0000
0.5202 0.2348 0.0000
0.5202 0.2399 0.0000
0.5202 0.2449 0.0000
0.5202 0.2500 0.0000
0.5202 0.2551 0.0000
0.5202 0.2601 0.0000
0.5202 0.2652 0.0000
0.5202 0.2702 0.0000
0.5202 0.2753 0.0000
0.5202 0.2803 0.0000
0.5202 0.2854 0.0000
0.5202 0.2904 0.0000
0.5202 0.2955 0.0000
0.5202 0.3005 0.0000
0.5202 0.3056 0.0000
0.5202 0.3106 0.0000
0.5202 0.3157 0.0000
0.5202 0.3207 0.0000
0.5202 0.3258 0.0000
0.5202 0.3308 0.0000
0.5202 0.3359 0.0000
0.5202 0.3409 0.0000
0.5202 0.3460 0.0000
0.5202 0.3510 0.0000
0.5202 0.3561 0.0000
0.5202 0.3611 0.0000
0.5202 0.3662 0.0000
0.5202 0.3712 0.0000
0.5202 0.3763 0.0000
0.5202 0.3813 0.0000
0.5202 0.3864 0.0000
0.5202 0.3914 0.0000
0.5202 0.3965 0.0000
0.5202 0.4015 0.0000
0.5202 0.4066 0.0000
0.5202 0.4116 0.0000
0.5202 0.4167 0.0000
0.5202 0.4217 0.0000
0.5202 0.4268 0.0000
0.5202 0.4318 0.0000
0.5202 0.4369 0.0000
0.5202 0.4419 0.0000
0.5202 0.4470 0.0000
0.5202 0.4520 0.0000
0.5202 0.4571 0.0000
0.5202 0.4621 0.0000
0.5202 0.4672 0.0000
0.5202 0.4722 0.0000
0.5202 0.4773 0.0000
0.5202 0.4823 0.0000
0.5202 0.4874 0.0000
0.5202 0.4924 0.0000
0.5202 0.4975 0.0000
0.5303 0.0025 0.0000
0.5303 0.0076 0.0000
0.5303 0.0126 0.0000
0.5303 0.0177 0.0000
0.5303 0.0227 0.0000
0.5303 0.0278 0.0000
0.5303 0.0328 0.0000
0.5303 0.0379 0.0000
0.5303 0.0429 0.0000
0.5303 0.0480 0.0000
0.5303 0.0530 0.0000
0.5303 0.0581 0.0000
0.5303 0.0631 0.0000
0.5303 0.0682 0.0000
0.5303 0.0732 0.0000
0.5303 0.0783 0.0000
0.5303 0.0833 0.0000
0.5303 0.0884 0.0000
0.5303 0.0934 0.0000
0.5303 0.0985 0.0000
0.5303 0.1035 0.0000
0.5303 0.1086 0.0000
0.5303 0.1136 0.0000
0.5303 0.1187 0.0000
0.5303 0.1237 0.0000
0.5303 0.1288 0.0000
0.5303 0.1338 0.0000
0.5303 0.1389 0.0000
0.5303 0.1439 0.0000
0.5303 0.1490 0.0000
0.5303 0.1540 0.0000
0.5303 0.1591 0.0000
0.5303 0.1641 0.0000
0.5303 0.1692 0.0000
0.5303 0.1742 0.0000
0.5303 0.1793 0.0000
0.5303 0.1843 0.0000
0.5303 0.1894 0.0000
0.5303 0.1944 0.0000
0.5303 0.1995 0.0000
0.5303 0.2045 0.0000
0.5303 0.2096 0.0000
0.5303 0.2146 0.0000
0.5303 0.2197 0.0000
0.5303 0.2247 0.0000
0.5303 0.2298 0.0000
0.5303 0.2348 0.0000
0.5303 0.2399 0.0000
0.5303 0.2449 0.0000
0.5303 0.2500 0.0000
0.5303 0.2551 0.0000
0.5303 0.2601 0.0000
0.5303 0.2652 0.0000
0.5303 0.2702 0.0000
0.5303 0.2753 0.0000
0.5303 0.2803 0.0000
0.5303 0.2854 0.0000
0.5303 0.2904 0.0000
0.5303 0.2955 0.0000
0.5303 0.3005 0.0000
0.5303 0.3056 0.0000
0.5303 0.3106 0.0000
0.5303 0.3157 0.0000
0.5303 0.3207 0.0000
0.5303 0.3258 0.0000
0.5303 0.3308 0.0000
0.5303 0.3359 0.0000
0.5303 0.3409 0.0000
0.5303 0.3460 0.0000
0.5303 0.3510 0.0000
0.5303 0.3561 0.0000
0.5303 0.3611 0.0000
0.5303 0.3662 0.0000
0.5303 0.3712 0.0000
0.5303 0.3763 0.0000
0.5303 0.3813 0.0000
0.5303 0.3864 0.0000
0.5303 0.3914 0.0000
0.5303 0.3965 0.0000
0.5303 0.4015 0.0000
0.5303 0.4066 0.0000
0.5303 0.4116 0.0000
0.5303 0.4167 0.0000
0.5303 0.4217 0.0000
0.5303 0.4268 0.0000
0.5303 0.4318 0.0000
0.5303 0.4369 0.0000
0.5303 0.4419 0.0000
0.5303 0.4470 0.0000
0.5303 0.4520 0.0000
0.5303 0.4571 0.0000
0.5303 0.4621 0.0000
0.5303 0.4672 0.0000
0.5303 0.4722 0.0000
0.5303 0.4773 0.0000
0.5303 0.4823 0.0000
0.5303 0.4874 0.0000
0.5303 0.4924 0.0000
0.5303 0.4975 0.0000
0.5404 0.0025 0.0000
0.5404 0.0076 0.0000
0.5404 0.0126 0.0000
0.5404 0.0177 0.0000
0.5404 0.0227 0.0000
0.5404 0.0278 0.0000
0.5404 0.0328 0.0000
0.5404 0.0379 0.0000
0.5404 0.0429 0.0000
0.5404 0.0480 0.0000
0.5404 0.0530 0.0000
0.5404 0.0581 0.0000
0.5404 0.0631 0.0000
0.5404 0.0682 0.0000
0.5404 0.0732 0.0000
0.5404 0.0783 0.0000
0.5404 0.0833 0.0000
0.5404 0.0884 0.0000
0.5404 0.0934 0.0000
0.5404 0.0985 0.0000
0.5404 0.1035 0.0000
0.5404 0.1086 0.0000
0.5404 0.1136 0.0000
0.5404 0.1187 0.0000
0.5404 0.1237 0.0000
0.5404 0.1288 0.0000
0.5404 0.1338 0.0000
0.5404 0.1389 0.0000
0.5404 0.1439 0.0000
0.5404 0.1490 0.0000
0.5404 0.1540 0.0000
0.5404 0.1591 0.0000
0.5404 0.1641 0.0000
0.5404 0.1692 0.0000
0.5404 0.1742 0.0000
0.5404 0.1793 0.0000
0.5404 0.1843 0.0000
0.5404 0.1894 0.0000
0.5404 0.1944 0.0000
0.5404 0.1995 0.0000
0.5404 0.2045 0.0000
0.5404 0.2096 0.0000
0.5404 0.2146 0.0000
0.5404 0.2197 0.0000
0.5404 0.2247 0.0000
0.5404 0.2298 0.0000
0.5404 0.2348 0.0000
0.5404 0.2399 0.0000
0.5404 0.2449 0.0000
0.5404 0.2500 0.0000
0.5404 0.2551 0.0000
0.5404 0.2601 0.0000
0.5404 0.2652 0.0000
0.5404 0.2702 0.0000
0.5404 0.2753 0.0000
0.5404 0.2803 0.0000
0.5404 0.2854 0.0000
0.5404 0.2904 0.0000
0.5404 0.2955 0.0000
0.5404 0.3005 0.0000
0.5404 0.3056 0.0000
0.5404 0.3106 0.0000
0.5404 0.3157 0.0000
0.5404 0.3207 0.0000
0.5404 0.3258 0.0000
0.5404 0.3308 0.0000
0.5404 0.3359 0.0000
0.5404 0.3409 0.0000
0.5404 0.3460 0.0000
0.5404 0.3510 0.0000
0.5404 0.3561 0.0000
0.5404 0.3611 0.0000
0.5404 0.3662 0.0000
0.5404 0.3712 0.0000
0.5404 0.3763 0.0000
0.5404 0.3813 0.0000
0.5404 0.3864 0.0000
0.5404 0.3914 0.0000
0.5404 0.3965 0.0000
0.5404 0.4015 0.0000
0.5404 0.4066 0.0000
0.5404 0.4116 0.0000
0.5404 0.4167 0.0000
0.5404 0.4217 0.0000
0.5404 0.4268 0.0000
0.5404 0.4318 0.0000
0.5404 0.4369 0.0000
0.5404 0.4419 0.0000
0.5404 0.4470 0.0000
0.5404 0.4520 0.0000
0.5404 0.4571 0.0000
0.5404 0.4621 0.0000
0.5404 0.4672 0.0000
0.5404 0.4722 0.0000
0.5404 0.4773 0.0000
0.5404 0.4823 0.0000
0.5404 0.4874 0.0000
0.5404 0.4924 0.0000
0.5404 0.4975 0.0000
0.5505 0.0025 0.0000
0.5505 0.0076 0.0000
0.5505 0.0126 0.0000
0.5505 0.0177 0.0000
0.5505 0.0227 0.0000
0.5505 0.0278 0.0000
0.5505 0.0328 0.0000
0.5505 0.0379 0.0000
0.5505 0.0429 0.0000
0.5505 0.0480 0.0000
0.5505 0.0530 0.0000
0.5505 0.0581 0.0000
0.5505 0.0631 0.0000
0.5505 0.0682 0.0000
0.5505 0.0732 0.0000
0.5505 0.0783 0.0000
0.5505 0.0833 0.0000
0.5505 0.0884 0.0000
0.5505 0.0934 0.0000
0.5505 0.0985 0.0000
0.5505 0.1035 0.0000
0.5505 0.1086 0.0000
0.5505 0.1136 0.0000
0.5505 0.1187 0.0000
0.5505 0.1237 0.0000
0.5505 0.1288 0.0000
0.5505 0.1338 0.0000
0.5505 0.1389 0.0000
0.5505 0.1439 0.0000
0.5505 0.1490 0.0000
0.5505 0.1540 0.0000
0.5505 0.1591 0.0000
0.5505 0.1641 0.0000
0.5505 0.1692 0.0000
0.5505 0.1742 0.0000
0.5505 0.1793 0.0000
0.5505 0.1843 0.0000
0.5505 0.1894 0.0000
0.5505 0.1944 0.0000
0.5505 0.1995 0.0000
0.5505 0.2045 0.0000
0.5505 0.2096 0.0000
0.5505 0.2146 0.0000
0.5505 0.2197 0.0000
0.5505 0.2247 0.0000
0.5505 0.2298 0.0000
0.5505 0.2348 0.0000
0.5505 0.2399 0.0000
0.5505 0.2449 0.0000
0.5505 0.2500 0.0000
0.5505 0.2551 0.0000
0.5505 0.2601 0.0000
0.5505 0.2652 0.0000
0.5505 0.2702 0.0000
0.5505 0.2753 0.0000
0.5505 0.2803 0.0000
0.5505 0.2854 0.0000
0.5505 0.2904 0.0000
0.5505 0.2955 0.0000
0.5505 0.3005 0.0000
0.5505 0.3056 0.0000
0.5505 0.3106 0.0000
0.5505 0.3157 0.0000
0.5505 0.3207 0.0000
0.5505 0.3258 0.0000
0.5505 0.3308 0.0000
0.5505 0.3359 0.0000
0.5505 0.3409 0.0000
0.5505 0.3460 0.0000
0.5505 0.3510 0.0000
0.5505 0.3561 0.0000
0.5505 0.3611 0.0000
0.5505 0.3662 0.0000
0.5505 0.3712 0.0000
0.5505 0.3763 0.0000
0.5505 0.3813 0.0000
0.5505 0.3864 0.0000
0.5505 0.3914 0.0000
0.5505 0.3965 0.0000
0.5505 0.4015 0.0000
0.5505 0.4066 0.0000
0.5505 0.4116 0.0000
0.5505 0.4167 0.0000
0.5505 0.4217 0.0000
0.5505 0.4268 0.0000
0.5505 0.4318 0.0000
0.5505 0.4369 0.0000
0.5505 0.4419 0.0000
0.5505 0.4470 0.0000
0.5505 0.4520 0.0000
0.5505 0.4571 0.0000
0.5505 0.4621 0.0000
0.5505 0.4672 0.0000
0.5505 0.4722 0.0000
0.5505 0.4773 0.0000
0.5505 0.4823 0.0000
0.5505 0.4874 0.0000
0.5505 0.4924 0.0000
0.5505 0.4975 0.0000
0.5606 0.0025 0.0000
0.5606 0.0076 0.0000
0.5606 0.0126 0.0000
0.5606 0.0177 0.0000
0.5606 0.0227 0.0000
0.5606 0.0278 0.0000
0.5606 0.0328 0.0000
0.5606 0.0379 0.0000
0.5606 0.0429 0.0000
0.5606 0.0480 0.0000
0.5606 0.0530 0.0000
0.5606 0.0581 0.0000
0.5606 0.0631 0.0000
0.5606 0.0682 0.0000
0.5606 0.0732 0.0000
0.5606 0.0783 0.0000
0.5606 0.0833 0.0000
0.5606 0.0884 0.0000
0.5606 0.0934 0.0000
0.5606 0.0985 0.0000
0.5606 0.1035 0.0000
0.5606 0.1086 0.0000
0.5606 0.1136 0.0000
0.5606 0.1187 0.0000
0.5606 0.1237 0.0000
0.5606 0.1288 0.0000
0.5606 0.1338 0.0000
0.5606 0.1389 0.0000
0.5606 0.1439 0.0000
0.5606 0.1490 0.0000
0.5606 0.1540 0.0000
0.5606 0.1591 0.0000
0.5606 0.1641 0.0000
0.5606 0.1692 0.0000
0.5606 0.1742 0.0000
0.5606 0.1793 0.0000
0.5606 0.1843 0.0000
0.5606 0.1894 0.0000
0.5606 0.1944 0.0000
0.5606 0.1995 0.0000
0.5606 0.2045 0.0000
0.5606 0.2096 0.0000
0.5606 0.2146 0.0000
0.5606 0.2197 0.0000
0.5606 0.2247 0.0000
0.5606 0.2298 0.0000
0.5606 0.2348 0.0000
0.5606 0.2399 0.0000
0.5606 0.2449 0.0000
0.5606 0.2500 0.0000
0.5606 0.2551 0.0000
0.5606 0.2601 0.0000
0.5606 0.2652 0.0000
0.5606 0.2702 0.0000
0.5606 0.2753 0.0000
0.5606 0.2803 0.0000
0.5606 0.2854 0.0000
0.5606 0.2904 0.0000
0.5606 0.2955 0.0000
0.5606 0.3005 0.0000
0.5606 0.3056 0.0000
0.5606 0.3106 0.0000
0.5606 0.3157 0.0000
0.5606 0.3207 0.0000
0.5606 0.3258 0.0000
0.5606 0.3308 0.0000
0.5606 0.3359 0.0000
0.5606 0.3409 0.0000
0.5606 0.3460 0.0000
0.5606 0.3510 0.0000
0.5606 0.3561 0.0000
0.5606 0.3611 0.0000
0.5606 0.3662 0.0000
0.5606 0.3712 0.0000
0.5606 0.3763 0.0000
0.5606 0.3813 0.0000
0.5606 0.3864 0.0000
0.5606 0.3914 0.0000
0.5606 0.3965 0.0000
0.5606 0.4015 0.0000
0.5606 0.4066 0.0000
0.5606 0.4116 0.0000
0.5606 0.4167 0.0000
0.5606 0.4217 0.0000
0.5606 0.4268 0.0000
0.5606 0.4318 0.0000
0.5606 0.4369 0.0000
0.5606 0.4419 0.0000
0.5606 0.4470 0.0000
0.5606 0.4520 0.0000
0.5606 0.4571 0.0000
0.5606 0.4621 0.0000
0.5606 0.4672 0.0000
0.5606 0.4722 0.0000
0.5606 0.4773 0.0000
0.5606 0.4823 0.0000
0.5606 0.4874 0.0000
0.5606 0.4924 0.0000
0.5606 0.4975 0.0000
0.5707 0.0025 0.0000
0.5707 0.0076 0.0000
0.5707 0.0126 0.0000
0.5707 0.0177 0.0000
0.5707 0.0227 0.0000
0.5707 0.0278 0.0000
0.5707 0.0328 0.0000
0.5707 0.0379 0.0000
0.5707 0.0429 0.0000
0.5707 0.0480 0.0000
0.5707 0.0530 0.0000
0.5707 0.0581 0.0000
0.5707 0.0631 0.0000
0.5707 0.0682 0.0000
0.5707 0.0732 0.0000
0.5707 0.0783 0.0000
0.5707 0.0833 0.0000
0.5707 0.0884 0.0000
0.5707 0.0934 0.0000
0.5707 0.0985 0.0000
0.5707 0.1035 0.0000
0.5707 0.1086 0.0000
0.5707 0.1136 0.0000
0.5707 0.1187 0.0000
0.5707 0.1237 0.0000
0.5707 0.1288 0.0000
0.5707 0.1338 0.0000
0.5707 0.1389 0.0000
0.5707 0.1439 0.0000
0.5707 0.1490 0.0000
0.5707 0.1540 0.0000
0.5707 0.1591 0.0000
0.5707 0.1641 0.0000
0.5707 0.1692 0.0000
0.5707 0.1742 0.0000
0.5707 0.1793 0.0000
0.5707 0.1843 0.0000
0.5707 0.1894 0.0000
0.5707 0.1944 0.0000
0.5707 0.1995 0.0000
0.5707 0.2045 0.0000
0.5707 0.2096 0.0000
0.5707 0.2146 0.0000
0.5707 0.2197 0.0000
0.5707 0.2247 0.0000
0.5707 0.2298 0.0000
0.5707 0.2348 0.0000
0.5707 0.2399 0.0000
0.5707 0.2449 0.0000
0.5707 0.2500 0.0000
0.5707 0.2551 0.0000
0.5707 0.2601 0.0000
0.5707 0.2652 0.0000
0.5707 0.2702 0.0000
0.5707 0.2753 0.0000
0.5707 0.2803 0.0000
0.5707 0.2854 0.0000
0.5707 0.2904 0.0000
0.5707 0.2955 0.0000
0.5707 0.3005 0.0000
0.5707 0.3056 0.0000
0.5707 0.3106 0.0000
0.5707 0.3157 0.0000
0.5707 0.3207 0.0000
0.5707 0.3258 0.0000
0.5707 0.3308 0.0000
0.5707 0.3359 0.0000
0.5707 0.3409 0.0000
0.5707 0.3460 0.0000
0.5707 0.3510 0.0000
0.5707 0.3561 0.0000
0.5707 0.3611 0.0000
0.5707 0.3662 0.0000
0.5707 0.3712 0.0000
0.5707 0.3763 0.0000
0.5707 0.3813 0.0000
0.5707 0.3864 0.0000
0.5707 0.3914 0.0000
0.5707 0.3965 0.0000
0.5707 0.4015 0.0000
0.5707 0.4066 0.0000
0.5707 0.4116 0.0000
0.5707 0.4167 0.0000
0.5707 0.4217 0.0000
0.5707 0.4268 0.0000
0.5707 0.4318 0.0000
0.5707 0.4369 0.0000
0.5707 0.4419 0.0000
0.5707 0.4470 0.0000
0.5707 0.4520 0.0000
0.5707 0.4571 0.0000
0.5707 0.4621 0.0000
0.5707 0.4672 0.0000
0.5707 0.4722 0.0000
0.5707 0.4773 0.0000
0.5707 0.4823 0.0000
0.5707 0.4874 0.0000
0.5707 0.4924 0.0000
0.5707 0.4975 0.0000
0.5808 0.0025 0.0000
0.5808 0.0076 0.0000
0.5808 0.0126 0.0000
0.5808 0.0177 0.0000
0.5808 0.0227 0.0000
0.5808 0.0278 0.0000
0.5808 0.0328 0.0000
0.5808 0.0379 0.0000
0.5808 0.0429 0.0000
0.5808 0.0480 0.0000
0.5808 0.0530 0.0000
0.5808 0.0581 0.0000
0.5808 0.0631 0.0000
0.5808 0.0682 0.0000
0.5808 0.0732 0.0000
0.5808 0.0783 0.0000
0.5808 0.0833 0.0000
0.5808 0.0884 0.0000
0.5808 0.0934 0.0000
0.5808 0.0985 0.0000
0.5808 0.1035 0.0000
0.5808 0.1086 0.0000
0.5808 0.1136 0.0000
0.5808 0.1187 0.0000
0.5808 0.1237 0.0000
0.5808 0.1288 0.0000
0.5808 0.1338 0.0000
0.5808 0.1389 0.0000
0.5808 0.1439 0.0000
0.5808 0.1490 0.0000
0.5808 0.1540 0.0000
0.5808 0.1591 0.0000
0.5808 0.1641 0.0000
0.5808 0.1692 0.0000
0.5808 0.1742 0.0000
0.5808 0.1793 0.0000
0.5808 0.1843 0.0000
0.5808 0.1894 0.0000
0.5808 0.1944 0.0000
0.5808 0.1995 0.0000
0.5808 0.2045 0.0000
0.5808 0.2096 0.0000
0.5808 0.2146 0.0000
0.5808 0.2197 0.0000
0.5808 0.2247 0.0000
0.5808 0.2298 0.0000
0.5808 0.2348 0.0000
0.5808 0.2399 0.0000
0.5808 0.2449 0.0000
0.5808 0.2500 0.0000
0.5808 0.2551 0.0000
0.5808 0.2601 0.0000
0.5808 0.2652 0.0000
0.5808 0.2702 0.0000
0.5808 0.2753 0.0000
0.5808 0.2803 0.0000
0.5808 0.2854 0.0000
0.5808 0.2904 0.0000
0.5808 0.2955 0.0000
0.5808 0.3005 0.0000
0.5808 0.3056 0.0000
0.5808 0.3106 0.0000
0.5808 0.3157 0.0000
0.5808 0.3207 0.0000
0.5808 0.3258 0.0000
0.5808 0.3308 0.0000
0.5808 0.3359 0.0000
0.5808 0.3409 0.0000
0.5808 0.3460 0.0000
0.5808 0.3510 0.0000
0.5808 0.3561 0.0000
0.5808 0.3611 0.0000
0.5808 0.3662 0.0000
0.5808 0.3712 0.0000
0.5808 0.3763 0.0000
0.5808 0.3813 0.0000
0.5808 0.3864 0.0000
0.5808 0.3914 0.0000
0.5808 0.3965 0.0000
0.5808 0.4015 0.0000
0.5808 0.4066 0.0000
0.5808 0.4116 0.0000
0.5808 0.4167 0.0000
0.5808 0.4217 0.0000
0.5808 0.4268 0.0000
0.5808 0.4318 0.0000
0.5808 0.4369 0.0000
0.5808 0.4419 0.0000
0.5808 0.4470 0.0000
0.5808 0.4520 0.0000
0.5808 0.4571 0.0000
0.5808 0.4621 0.0000
0.5808 0.4672 0.0000
0.5808 0.4722 0.0000
0.5808 0.4773 0.0000
0.5808 0.4823 0.0000
0.5808 0.4874 0.0000
0.5808 0.4924 0.0000
0.5808 0.4975 0.0000
0.5909 0.0025 0.0000
0.5909 0.0076 0.0000
0.5909 0.0126 0.0000
0.5909 0.0177 0.0000
0.5909 0.0227 0.0000
0.5909 0.0278 0.0000
0.5909 0.0328 0.0000
0.5909 0.0379 0.0000
0.5909 0.0429 0.0000
0.5909 0.0480 0.0000
0.5909 0.0530 0.0000
0.5909 0.0581 0.0000
0.5909 0.0631 0.0000
0.5909 0.0682 0.0000
0.5909 0.0732 0.0000
0.5909 0.0783 0.0000
0.5909 0.0833 0.0000
0.5909 0.0884 0.0000
0.5909 0.0934 0.0000
0.5909 0.0985 0.0000
0.5909 0.1035 0.0000
0.5909 0.1086 0.0000
0.5909 0.1136 0.0000
0.5909 0.1187 0.0000
0.5909 0.1237 0.0000
0.5909 0.1288 0.0000
0.5909 0.1338 0.0000
0.5909 0.1389 0.0000
0.5909 0.1439 0.0000
0.5909 0.1490 0.0000
0.5909 0.1540 0.0000
0.5909 0.1591 0.0000
0.5909 0.1641 0.0000
0.5909 0.1692 0.0000
0.5909 0.1742 0.0000
0.5909 0.1793 0.0000
0.5909 0.1843 0.0000
0.5909 0.1894 0.0000
0.5909 0.1944 0.0000
0.5909 0.1995 0.0000
0.5909 0.2045 0.0000
0.5909 0.2096 0.0000
0.5909 0.2146 0.0000
0.5909 0.2197 0.0000
0.5909 0.2247 0.0000
0.5909 0.2298 0.0000
0.5909 0.2348 0.0000
0.5909 0.2399 0.0000
0.5909 0.2449 0.0000
0.5909 0.2500 0.0000
0.5909 0.2551 0.0000
0.5909 0.2601 0.0000
0.5909 0.2652 0.0000
0.5909 0.2702 0.0000
0.5909 0.2753 0.0000
0.5909 0.2803 0.0000
0.5909 0.2854 0.0000
0.5909 0.2904 0.0000
0.5909 0.2955 0.0000
0.5909 0.3005 0.0000
0.5909 0.3056 0.0000
0.5909 0.3106 0.0000
0.5909 0.3157 0.0000
0.5909 0.3207 0.0000
0.5909 0.3258 0.0000
0.5909 0.3308 0.0000
0.5909 0.3359 0.0000
0.5909 0.3409 0.0000
0.5909 0.3460 0.0000
0.5909 0.3510 0.0000
0.5909 0.3561 0.0000
0.5909 0.3611 0.0000
0.5909 0.3662 0.0000
0.5909 0.3712 0.0000
0.5909 0.3763 0.0000
0.5909 0.3813 0.0000
0.5909 0.3864 0.0000
0.5909 0.3914 0.0000
0.5909 0.3965 0.0000
0.5909 0.4015 0.0000
0.5909 0.4066 0.0000
0.5909 0.4116 0.0000
0.5909 0.4167 0.0000
0.5909 0.4217 0.0000
0.5909 0.4268 0.0000
0.5909 0.4318 0.0000
0.5909 0.4369 0.0000
0.5909 0.4419 0.0000
0.5909 0.4470 0.0000
0.5909 0.4520 0.0000
0.5909 0.4571 0.0000
0.5909 0.4621 0.0000
0.5909 0.4672 0.0000
0.5909 0.4722 0.0000
0.5909 0.4773 0.0000
0.5909 0.4823 0.0000
0.5909 0.4874 0.0000
0.5909 0.4924 0.0000
0.5909 0.4975 0.0000
0.6010 0.0025 0.0000
0.6010 0.0076 0.0000
0.6010 0.0126 0.0000
0.6010 0.0177 0.0000
0.6010 0.0227 0.0000
0.6010 0.0278 0.0000
0.6010 0.0328 0.0000
0.6010 0.0379 0.0000
0.6010 0.0429 0.0000
0.6010 0.0480 0.0000
0.6010 0.0530 0.0000
0.6010 0.0581 0.0000
0.6010 0.0631 0.0000
0.6010 0.0682 0.0000
0.6010 0.0732 0.0000
0.6010 0.0783 0.0000
0.6010 0.0833 0.0000
0.6010 0.0884 0.0000
0.6010 0.0934 0.0000
0.6010 0.0985 0.0000
0.6010 0.1035 0.0000
0.6010 0.1086 0.0000
0.6010 0.1136 0.0000
0.6010 0.1187 0.0000
0.6010 0.1237 0.0000
0.6010 0.1288 0.0000
0.6010 0.1338 0.0000
0.6010 0.1389 0.0000
0.6010 0.1439 0.0000
0.6010 0.1490 0.0000
0.6010 0.1540 0.0000
0.6010 0.1591 0.0000
0.6010 0.1641 0.0000
0.6010 0.1692 0.0000
0.6010 0.1742 0.0000
0.6010 0.1793 0.0000
0.6010 0.1843 0.0000
0.6010 0.1894 0.0000
0.6010 0.1944 0.0000
0.6010 0.1995 0.0000
0.6010 0.2045 0.0000
0.6010 0.2096 0.0000
0.6010 0.2146 0.0000
0.6010 0.2197 0.0000
0.6010 0.2247 0.0000
0.6010 0.2298 0.0000
0.6010 0.2348 0.0000
0.6010 0.2399 0.0000
0.6010 0.2449 0.0000
0.6010 0.2500 0.0000
0.6010 0.2551 0.0000
0.6010 0.2601 0.0000
0.6010 0.2652 0.0000
0.6010 0.2702 0.0000
0.6010 0.2753 0.0000
0.6010 0.2803 0.0000
0.6010 0.2854 0.0000
0.6010 0.2904 0.0000
0.6010 0.2955 0.0000
0.6010 0.3005 0.0000
0.6010 0.3056 0.0000
0.6010 0.3106 0.0000
0.6010 0.3157 0.0000
0.6010 0.3207 0.0000
0.6010 0.3258 0.0000
0.6010 0.3308 0.0000
0.6010 0.3359 0.0000
0.6010 0.3409 0.0000
0.6010 0.3460 0.0000
0.6010 0.3510 0.0000
0.6010 0.3561 0.0000
0.6010 0.3611 0.0000
0.6010 0.3662 0.0000
0.6010 0.3712 0.0000
0.6010 0.3763 0.0000
0.6010 0.3813 0.0000
0.6010 0.3864 0.0000
0.6010 0.3914 0.0000
0.6010 0.3965 0.0000
0.6010 0.4015 0.0000
0.6010 0.4066 0.0000
0.6010 0.4116 0.0000
0.6010 0.4167 0.0000
0.6010 0.4217 0.0000
0.6010 0.4268 0.0000
0.6010 0.4318 0.0000
0.6010 0.4369 0.0000
0.6010 0.4419 0.0000
0.6010 0.4470 0.0000
0.6010 0.4520 0.0000
0.6010 0.4571 0.0000
0.6010 0.4621 0.0000
0.6010 0.4672 0.0000
0.6010 0.4722 0.0000
0.6010 0.4773 0.0000
0.6010 0.4823 0.0000
0.6010 0.4874 0.0000
0.6010 0.4924 0.0000
0.6010 0.4975 0.0000
0.6111 0.0025 0.0000
0.6111 0.0076 0.0000
0.6111 0.0126 0.0000
0.6111 0.0177 0.0000
0.6111 0.0227 0.0000
0.6111 0.0278 0.0000
0.6111 0.0328 0.0000
0.6111 0.0379 0.0000
0.6111 0.0429 0.0000
0.6111 0.0480 0.0000
0.6111 0.0530 0.0000
0.6111 0.0581 0.0000
0.6111 0.0631 0.0000
0.6111 0.0682 0.0000
0.6111 0.0732 0.0000
0.6111 0.0783 0.0000
0.6111 0.0833 0.0000
0.6111 0.0884 0.0000
0.6111 0.0934 0.0000
0.6111 0.0985 0.0000
0.6111 0.1035 0.0000
0.6111 0.1086 0.0000
0.6111 0.1136 0.0000
0.6111 0.1187 0.0000
0.6111 0.1237 0.0000
0.6111 0.1288 0.0000
0.6111 0.1338 0.0000
0.6111 0.1389 0.0000
0.6111 0.1439 0.0000
0.6111 0.1490 0.0000
0.6111 0.1540 0.0000
0.6111 0.1591 0.0000
0.6111 0.1641 0.0000
0.6111 0.1692 0.0000
0.6111 0.1742 0.0000
0.6111 0.1793 0.0000
0.6111 0.1843 0.0000
0.6111 0.1894 0.0000
0.6111 0.1944 0.0000
0.6111 0.1995 0.0000
0.6111 0.2045 0.0000
0.6111 0.2096 0.0000
0.6111 0.2146 0.0000
0.6111 0.2197 0.0000
0.6111 0.2247 0.0000
0.6111 0.2298 0.0000
0.6111 0.2348 0.0000
0.6111 0.2399 0.0000
0.6111 0.2449 0.0000
0.6111 0.2500 0.0000
0.6111 0.2551 0.0000
0.6111 0.2601 0.0000
0.6111 0.2652 0.0000
0.6111 0.2702 0.0000
0.6111 0.2753 0.0000
0.6111 0.2803 0.0000
0.6111 0.2854 0.0000
0.6111 0.2904 0.0000
0.6111 0.2955 0.0000
0.6111 0.3005 0.0000
0.6111 0.3056 0.0000
0.6111 0.3106 0.0000
0.6111 0.3157 0.0000
0.6111 0.3207 0.0000
0.6111 0.3258 0.0000
0.6111 0.3308 0.0000
0.6111 0.3359 0.0000
0.6111 0.3409 0.0000
0.6111 0.3460 0.0000
0.6111 0.3510 0.0000
0.6111 0.3561 0.0000
0.6111 0.3611 0.0000
0.6111 0.3662 0.0000
0.6111 0.3712 0.0000
0.6111 0.3763 0.0000
0.6111 0.3813 0.0000
0.6111 0.3864 0.0000
0.6111 0.3914 0.0000
0.6111 0.3965 0.0000
0.6111 0.4015 0.0000
0.6111 0.4066 0.0000
0.6111 0.4116 0.0000
0.6111 0.4167 0.0000
0.6111 0.4217 0.0000
0.6111 0.4268 0.0000
0.6111 0.4318 0.0000
0.6111 0.4369 0.0000
0.6111 0.4419 0.0000
0.6111 0.4470 0.0000
0.6111 0.4520 0.0000
0.6111 0.4571 0.0000
0.6111 0.4621 0.0000
0.6111 0.4672 0.0000
0.6111 0.4722 0.0000
0.6111 0.4773 0.0000
0.6111 0.4823 0.0000
0.6111 0.4874 0.0000
0.6111 0.4924 0.0000
0.6111 0.4975 0.0000
0.6212 0.0025 0.0000
0.6212 0.0076 0.0000
0.6212 0.0126 0.0000
0.6212 0.0177 0.0000
0.6212 0.0227 0.0000
0.6212 0.0278 0.0000
0.6212 0.0328 0.0000
0.6212 0.0379 0.0000
0.6212 0.0429 0.0000
0.6212 0.0480 0.0000
0.6212 0.0530 0.0000
0.6212 0.0581 0.0000
0.6212 0.0631 0.0000
0.6212 0.0682 0.0000
0.6212 0.0732 0.0000
0.6212 0.0783 0.0000
0.6212 0.0833 0.0000
0.6212 0.0884 0.0000
0.6212 0.0934 0.0000
0.6212 0.0985 0.0000
0.6212 0.1035 0.0000
0.6212 0.1086 0.0000
0.6212 0.1136 0.0000
0.6212 0.1187 0.0000
0.6212 0.1237 0.0000
0.6212 0.1288 0.0000
0.6212 0.1338 0.0000
0.6212 0.1389 0.0000
0.6212 0.1439 0.0000
0.6212 0.1490 0.0000
0.6212 0.1540 0.0000
0.6212 0.1591 0.0000
0.6212 0.1641 0.0000
0.6212 0.1692 0.0000
0.6212 0.1742 0.0000
0.6212 0.1793 0.0000
0.6212 0.1843 0.0000
0.6212 0.1894 0.0000
0.6212 0.1944 0.0000
0.6212 0.1995 0.0000
0.6212 0.2045 0.0000
0.6212 0.2096 0.0000
0.6212 0.2146 0.0000
0.6212 0.2197 0.0000
0.6212 0.2247 0.0000
0.6212 0.2298 0.0000
0.6212 0.2348 0.0000
0.6212 0.2399 0.0000
0.6212 0.2449 0.0000
0.6212 0.2500 0.0000
0.6212 0.2551 0.0000
0.6212 0.2601 0.0000
0.6212 0.2652 0.0000
0.6212 0.2702 0.0000
0.6212 0.2753 0.0000
0.6212 0.2803 0.0000
0.6212 0.2854 0.0000
0.6212 0.2904 0.0000
0.6212 0.2955 0.0000
0.6212 0.3005 0.0000
0.6212 0.3056 0.0000
0.6212 0.3106 0.0000
0.6212 0.3157 0.0000
0.6212 0.3207 0.0000
0.6212 0.3258 0.0000
0.6212 0.3308 0.0000
0.6212 0.3359 0.0000
0.6212 0.3409 0.0000
0.6212 0.3460 0.0000
0.6212 0.3510 0.0000
0.6212 0.3561 0.0000
0.6212 0.3611 0.0000
0.6212 0.3662 0.0000
0.6212 0.3712 0.0000
0.6212 0.3763 0.0000
0.6212 0.3813 0.0000
0.6212 0.3864 0.0000
0.6212 0.3914 0.0000
0.6212 0.3965 0.0000
0.6212 0.4015 0.0000
0.6212 0.4066 0.0000
0.6212 0.4116 0.0000
0.6212 0.4167 0.0000
0.6212 0.4217 0.0000
0.6212 0.4268 0.0000
0.6212 0.4318 0.0000
0.6212 0.4369 0.0000
0.6212 0.4419 0.0000
0.6212 0.4470 0.0000
0.6212 0.4520 0.0000
0.6212 0.4571 0.0000
0.6212 0.4621 0.0000
0.6212 0.4672 0.0000
0.6212 0.4722 0.0000
0.6212 0.4773 0.0000
0.6212 0.4823 0.0000
0.6212 0.4874 0.0000
0.6212 0.4924 0.0000
0.6212 0.4975 0.0000
0.6313 0.0025 0.0000
0.6313 0.0076 0.0000
0.6313 0.0126 0.0000
0.6313 0.0177 0.0000
0.6313 0.0227 0.0000
0.6313 0.0278 0.0000
0.6313 0.0328 0.0000
0.6313 0.0379 0.0000
0.6313 0.0429 0.0000
0.6313 0.0480 0.0000
0.6313 0.0530 0.0000
0.6313 0.0581 0.0000
0.6313 0.0631 0.0000
0.6313 0.0682 0.0000
0.6313 0.0732 0.0000
0.6313 0.0783 0.0000
0.6313 0.0833 0.0000
0.6313 0.0884 0.0000
0.6313 0.0934 0.0000
0.6313 0.0985 0.0000
0.6313 0.1035 0.0000
0.6313 0.1086 0.0000
0.6313 0.1136 0.0000
0.6313 0.1187 0.0000
0.6313 0.1237 0.0000
0.6313 0.1288 0.0000
0.6313 0.1338 0.0000
0.6313 0.1389 0.0000
0.6313 0.1439 0.0000
0.6313 0.1490 0.0000
0.6313 0.1540 0.0000
0.6313 0.1591 0.0000
0.6313 0.1641 0.0000
0.6313 0.1692 0.0000
0.6313 0.1742 0.0000
0.6313 0.1793 0.0000
0.6313 0.1843 0.0000
0.6313 0.1894 0.0000
0.6313 0.1944 0.0000
0.6313 0.1995 0.0000
0.6313 0.2045 0.0000
0.6313 0.2096 0.0000
0.6313 0.2146 0.0000
0.6313 0.2197 0.0000
0.6313 0.2247 0.0000
0.6313 0.2298 0.0000
0.6313 0.2348 0.0000
0.6313 0.2399 0.0000
0.6313 0.2449 0.0000
0.6313 0.2500 0.0000
0.6313 0.2551 0.0000
0.6313 0.2601 0.0000
0.6313 0.2652 0.0000
0.6313 0.2702 0.0000
0.6313 0.2753 0.0000
0.6313 0.2803 0.0000
0.6313 0.2854 0.0000
0.6313 0.2904 0.0000
0.6313 0.2955 0.0000
0.6313 0.3005 0.0000
0.6313 0.3056 0.0000
0.6313 0.3106 0.0000
0.6313 0.3157 0.0000
0.6313 0.3207 0.0000
0.6313 0.3258 0.0000
0.6313 0.3308 0.0000
0.6313 0.3359 0.0000
0.6313 0.3409 0.0000
0.6313 0.3460 0.0000
0.6313 0.3510 0.0000
0.6313 0.3561 0.0000
0.6313 0.3611 0.0000
0.6313 0.3662 0.0000
0.6313 0.3712 0.0000
0.6313 0.3763 0.0000
0.6313 0.3813 0.0000
0.6313 0.3864 0.0000
0.6313 0.3914 0.0000
0.6313 0.3965 0.0000
0.6313 0.4015 0.0000
0.6313 0.4066 0.0000
0.6313 0.4116 0.0000
0.6313 0.4167 0.0000
0.6313 0.4217 0.0000
0.6313 0.4268 0.0000
0.6313 0.4318 0.0000
0.6313 0.4369 0.0000
0.6313 0.4419 0.0000
0.6313 0.4470 0.0000
0.6313 0.4520 0.0000
0.6313 0.4571 0.0000
0.6313 0.4621 0.0000
0.6313 0.4672 0.0000
0.6313 0.4722 0.0000
0.6313 0.4773 0.0000
0.6313 0.4823 0.0000
0.6313 0.4874 0.0000
0.6313 0.4924 0.0000
0.6313 0.4975 0.0000
0.6414 0.0025 0.0000
0.6414 0.0076 0.0000
0.6414 0.0126 0.0000
0.6414 0.0177 0.0000
0.6414 0.0227 0.0000
0.6414 0.0278 0.0000
0.6414 0.0328 0.0000
0.6414 0.0379 0.0000
0.6414 0.0429 0.0000
0.6414 0.0480 0.0000
0.6414 0.0530 0.0000
0.6414 0.0581 0.0000
0.6414 0.0631 0.0000
0.6414 0.0682 0.0000
0.6414 0.0732 0.0000
0.6414 0.0783 0.0000
0.6414 0.0833 0.0000
0.6414 0.0884 0.0000
0.6414 0.0934 0.0000
0.6414 0.0985 0.0000
0.6414 0.1035 0.0000
0.6414 0.1086 0.0000
0.6414 0.1136 0.0000
0.6414 0.1187 0.0000
0.6414 0.1237 0.0000
0.6414 0.1288 0.0000
0.6414 0.1338 0.0000
0.6414 0.1389 0.0000
0.6414 0.1439 0.0000
0.6414 0.1490 0.0000
0.6414 0.1540 0.0000
0.6414 0.1591 0.0000
0.6414 0.1641 0.0000
0.6414 0.1692 0.0000
0.6414 0.1742 0.0000
0.6414 0.1793 0.0000
0.6414 0.1843 0.0000
0.6414 0.1894 0.0000
0.6414 0.1944 0.0000
0.6414 0.1995 0.0000
0.6414 0.2045 0.0000
0.6414 0.2096 0.0000
0.6414 0.2146 0.0000
0.6414 0.2197 0.0000
0.6414 0.2247 0.0000
0.6414 0.2298 0.0000
0.6414 0.2348 0.0000
0.6414 0.2399 0.0000
0.6414 0.2449 0.0000
0.6414 0.2500 0.0000
0.6414 0.2551 0.0000
0.6414 0.2601 0.0000
0.6414 0.2652 0.0000
0.6414 0.2702 0.0000
0.6414 0.2753 0.0000
0.6414 0.2803 0.0000
0.6414 0.2854 0.0000
0.6414 0.2904 0.0000
0.6414 0.2955 0.0000
0.6414 0.3005 0.0000
0.6414 0.3056 0.0000
0.6414 0.3106 0.0000
0.6414 0.3157 0.0000
0.6414 0.3207 0.0000
0.6414 0.3258 0.0000
0.6414 0.3308 0.0000
0.6414 0.3359 0.0000
0.6414 0.3409 0.0000
0.6414 0.3460 0.0000
0.6414 0.3510 0.0000
0.6414 0.3561 0.0000
0.6414 0.3611 0.0000
0.6414 0.3662 0.0000
0.6414 0.3712 0.0000
0.6414 0.3763 0.0000
0.6414 0.3813 0.0000
0.6414 0.3864 0.0000
0.6414 0.3914 0.0000
0.6414 0.3965 0.0000
0.6414 0.4015 0.0000
0.6414 0.4066 0.0000
0.6414 0.4116 0.0000
0.6414 0.4167 0.0000
0.6414 0.4217 0.0000
0.6414 0.4268 0.0000
0.6414 0.4318 0.0000
0.6414 0.4369 0.0000
0.6414 0.4419 0.0000
0.6414 0.4470 0.0000
0.6414 0.4520 0.0000
0.6414 0.4571 0.0000
0.6414 0.4621 0.0000
0.6414 0.4672 0.0000
0.6414 0.4722 0.0000
0.6414 0.4773 0.0000
0.6414 0.4823 0.0000
0.6414 0.4874 0.0000
0.6414 0.4924 0.0000
0.6414 0.4975 0.0000
0.6515 0.0025 0.0000
0.6515 0.0076 0.0000
0.6515 0.0126 0.0000
0.6515 0.0177 0.0000
0.6515 0.0227 0.0000
0.6515 0.0278 0.0000
0.6515 0.0328 0.0000
0.6515 0.0379 0.0000
0.6515 0.0429 0.0000
0.6515 0.0480 0.0000
0.6515 0.0530 0.0000
0.6515 0.0581 0.0000
0.6515 0.0631 0.0000
0.6515 0.0682 0.0000
0.6515 0.0732 0.0000
0.6515 0.0783 0.0000
0.6515 0.0833 0.0000
0.6515 0.0884 0.0000
0.6515 0.0934 0.0000
0.6515 0.0985 0.0000
0.6515 0.1035 0.0000
0.6515 0.1086 0.0000
0.6515 0.1136 0.0000
0.6515 0.1187 0.0000
0.6515 0.1237 0.0000
0.6515 0.1288 0.0000
0.6515 0.1338 0.0000
0.6515 0.1389 0.0000
0.6515 0.1439 0.0000
0.6515 0.1490 0.0000
0.6515 0.1540 0.0000
0.6515 0.1591 0.0000
0.6515 0.1641 0.0000
0.6515 0.1692 0.0000
0.6515 0.1742 0.0000
0.6515 0.1793 0.0000
0.6515 0.1843 0.0000
0.6515 0.1894 0.0000
0.6515 0.1944 0.0000
0.6515 0.1995 0.0000
0.6515 0.2045 0.0000
0.6515 0.2096 0.0000
0.6515 0.2146 0.0000
0.6515 0.2197 0.0000
0.6515 0.2247 0.0000
0.6515 0.2298 0.0000
0.6515 0.2348 0.0000
0.6515 0.2399 0.0000
0.6515 0.2449 0.0000
0.6515 0.2500 0.0000
0.6515 0.2551 0.0000
0.6515 0.2601 0.0000
0.6515 0.2652 0.0000
0.6515 0.2702 0.0000
0.6515 0.2753 0.0000
0.6515 0.2803 0.0000
0.6515 0.2854 0.0000
0.6515 0.2904 0.0000
0.6515 0.2955 0.0000
0.6515 0.3005 0.0000
0.6515 0.3056 0.0000
0.6515 0.3106 0.0000
0.6515 0.3157 0.0000
0.6515 0.3207 0.0000
0.6515 0.3258 0.0000
0.6515 0.3308 0.0000
0.6515 0.3359 0.0000
0.6515 0.3409 0.0000
0.6515 0.3460 0.0000
0.6515 0.3510 0.0000
0.6515 0.3561 0.0000
0.6515 0.3611 0.0000
0.6515 0.3662 0.0000
0.6515 0.3712 0.0000
0.6515 0.3763 0.0000
0.6515 0.3813 0.0000
0.6515 0.3864 0.0000
0.6515 0.3914 0.0000
0.6515 0.3965 0.0000
0.6515 0.4015 0.0000
0.6515 0.4066 0.0000
0.6515 0.4116 0.0000
0.6515 0.4167 0.0000
0.6515 0.4217 0.0000
0.6515 0.4268 0.0000
0.6515 0.4318 0.0000
0.6515 0.4369 0.0000
0.6515 0.4419 0.0000
0.6515 0.4470 0.0000
0.6515 0.4520 0.0000
0.6515 0.4571 0.0000
0.6515 0.4621 0.0000
0.6515 0.4672 0.0000
0.6515 0.4722 0.0000
0.6515 0.4773 0.0000
0.6515 0.4823 0.0000
0.6515 0.4874 0.0000
0.6515 0.4924 0.0000
0.6515 0.4975 0.0000
0.6616 0.0025 0.0000
0.6616 0.0076 0.0000
0.6616 0.0126 0.0000
0.6616 0.0177 0.0000
0.6616 0.0227 0.0000
0.6616 0.0278 0.0000
0.6616 0.0328 0.0000
0.6616 0.0379 0.0000
0.6616 0.0429 0.0000
0.6616 0.0480 0.0000
0.6616 0.0530 0.0000
0.6616 0.0581 0.0000
0.6616 0.0631 0.0000
0.6616 0.0682 0.0000
0.6616 0.0732 0.0000
0.6616 0.0783 0.0000
0.6616 0.0833 0.0000
0.6616 0.0884 0.0000
0.6616 0.0934 0.0000
0.6616 0.0985 0.0000
0.6616 0.1035 0.0000
0.6616 0.1086 0.0000
0.6616 0.1136 0.0000
0.6616 0.1187 0.0000
0.6616 0.1237 0.0000
0.6616 0.1288 0.0000
0.6616 0.1338 0.0000
0.6616 0.1389 0.0000
0.6616 0.1439 0.0000
0.6616 0.1490 0.0000
0.6616 0.1540 0.0000
0.6616 0.1591 0.0000
0.6616 0.1641 0.0000
0.6616 0.1692 0.0000
0.6616 0.1742 0.0000
0.6616 0.1793 0.0000
0.6616 0.1843 0.0000
0.6616 0.1894 0.0000
0.6616 0.1944 0.0000
0.6616 0.1995 0.0000
0.6616 0.2045 0.0000
0.6616 0.2096 0.0000
0.6616 0.2146 0.0000
0.6616 0.2197 0.0000
0.6616 0.2247 0.0000
0.6616 0.2298 0.0000
0.6616 0.2348 0.0000
0.6616 0.2399 0.0000
0.6616 0.2449 0.0000
0.6616 0.2500 0.0000
0.6616 0.2551 0.0000
0.6616 0.2601 0.0000
0.6616 0.2652 0.0000
0.6616 0.2702 0.0000
0.6616 0.2753 0.0000
0.6616 0.2803 0.0000
0.6616 0.2854 0.0000
0.6616 0.2904 0.0000
0.6616 0.2955 0.0000
0.6616 0.3005 0.0000
0.6616 0.3056 0.0000
0.6616 0.3106 0.0000
0.6616 0.3157 0.0000
0.6616 0.3207 0.0000
0.6616 0.3258 0.0000
0.6616 0.3308 0.0000
0.6616 0.3359 0.0000
0.6616 0.3409 0.0000
0.6616 0.3460 0.0000
0.6616 0.3510 0.0000
0.6616 0.3561 0.0000
0.6616 0.3611 0.0000
0.6616 0.3662 0.0000
0.6616 0.3712 0.0000
0.6616 0.3763 0.0000
0.6616 0.3813 0.0000
0.6616 0.3864 0.0000
0.6616 0.3914 0.0000
0.6616 0.3965 0.0000
0.6616 0.4015 0.0000
0.6616 0.4066 0.0000
0.6616 0.4116 0.0000
0.6616 0.4167 0.0000
0.6616 0.4217 0.0000
0.6616 0.4268 0.0000
0.6616 0.4318 0.0000
0.6616 0.4369 0.0000
0.6616 0.4419 0.0000
0.6616 0.4470 0.0000
0.6616 0.4520 0.0000
0.6616 0.4571 0.0000
0.6616 0.4621 0.0000
0.6616 0.4672 0.0000
0.6616 0.4722 0.0000
0.6616 0.4773 0.0000
0.6616 0.4823 0.0000
0.6616 0.4874 0.0000
0.6616 0.4924 0.0000
0.6616 0.4975 0.0000
0.6717 0.0025 0.0000
0.6717 0.0076 0.0000
0.6717 0.0126 0.0000
0.6717 0.0177 0.0000
0.6717 0.0227 0.0000
0.6717 0.0278 0.0000
0.6717 0.0328 0.0000
0.6717 0.0379 0.0000
0.6717 0.0429 0.0000
0.6717 0.0480 0.0000
0.6717 0.0530 0.0000
0.6717 0.0581 0.0000
0.6717 0.0631 0.0000
0.6717 0.0682 0.0000
0.6717 0.0732 0.0000
0.6717 0.0783 0.0000
0.6717 0.0833 0.0000
0.6717 0.0884 0.0000
0.6717 0.0934 0.0000
0.6717 0.0985 0.0000
0.6717 0.1035 0.0000
0.6717 0.1086 0.0000
0.6717 0.1136 0.0000
0.6717 0.1187 0.0000
0.6717 0.1237 0.0000
0.6717 0.1288 0.0000
0.6717 0.1338 0.0000
0.6717 0.1389 0.0000
0.6717 0.1439 0.0000
0.6717 0.1490 0.0000
0.6717 0.1540 0.0000
0.6717 0.1591 0.0000
0.6717 0.1641 0.0000
0.6717 0.1692 0.0000
0.6717 0.1742 0.0000
0.6717 0.1793 0.0000
0.6717 0.1843 0.0000
0.6717 0.1894 0.0000
0.6717 0.1944 0.0000
0.6717 0.1995 0.0000
0.6717 0.2045 0.0000
0.6717 0.2096 0.0000
0.6717 0.2146 0.0000
0.6717 0.2197 0.0000
0.6717 0.2247 0.0000
0.6717 0.2298 0.0000
0.6717 0.2348 0.0000
0.6717 0.2399 0.0000
0.6717 0.2449 0.0000
0.6717 0.2500 0.0000
0.6717 0.2551 0.0000
0.6717 0.2601 0.0000
0.6717 0.2652 0.0000
0.6717 0.2702 0.0000
0.6717 0.2753 0.0000
0.6717 0.2803 0.0000
0.6717 0.2854 0.0000
0.6717 0.2904 0.0000
0.6717 0.2955 0.0000
0.6717 0.3005 0.0000
0.6717 0.3056 0.0000
0.6717 0.3106 0.0000
0.6717 0.3157 0.0000
0.6717 0.3207 0.0000
0.6717 0.3258 0.0000
0.6717 0.3308 0.0000
0.6717 0.3359 0.0000
0.6717 0.3409 0.0000
0.6717 0.3460 0.0000
0.6717 0.3510 0.0000
0.6717 0.3561 0.0000
0.6717 0.3611 0.0000
0.6717 0.3662 0.0000
0.6717 0.3712 0.0000
0.6717 0.3763 0.0000
0.6717 0.3813 0.0000
0.6717 0.3864 0.0000
0.6717 0.3914 0.0000
0.6717 0.3965 0.0000
0.6717 0.4015 0.0000
0.6717 0.4066 0.0000
0.6717 0.4116 0.0000
0.6717 0.4167 0.0000
0.6717 0.4217 0.0000
0.6717 0.4268 0.0000
0.6717 0.4318 0.0000
0.6717 0.4369 0.0000
0.6717 0.4419 0.0000
0.6717 0.4470 0.0000
0.6717 0.4520 0.0000
0.6717 0.4571 0.0000
0.6717 0.4621 0.0000
0.6717 0.4672 0.0000
0.6717 0.4722 0.0000
0.6717 0.4773 0.0000
0.6717 0.4823 0.0000
0.6717 0.4874 0.0000
0.6717 0.4924 0.0000
0.6717 0.4975 0.0000
0.6818 0.0025 0.0000
0.6818 0.0076 0.0000
0.6818 0.0126 0.0000
0.6818 0.0177 0.0000
0.6818 0.0227 0.0000
0.6818 0.0278 0.0000
0.6818 0.0328 0.0000
0.6818 0.0379 0.0000
0.6818 0.0429 0.0000
0.6818 0.0480 0.0000
0.6818 0.0530 0.0000
0.6818 0.0581 0.0000
0.6818 0.0631 0.0000
0.6818 0.0682 0.0000
0.6818 0.0732 0.0000
0.6818 0.0783 0.0000
0.6818 0.0833 0.0000
0.6818 0.0884 0.0000
0.6818 0.0934 0.0000
0.6818 0.0985 0.0000
0.6818 0.1035 0.0000
0.6818 0.1086 0.0000
0.6818 0.1136 0.0000
0.6818 0.1187 0.0000
0.6818 0.1237 0.0000
0.6818 0.1288 0.0000
0.6818 0.1338 0.0000
0.6818 0.1389 0.0000
0.6818 0.1439 0.0000
0.6818 0.1490 0.0000
0.6818 0.1540 0.0000
0.6818 0.1591 0.0000
0.6818 0.1641 0.0000
0.6818 0.1692 0.0000
0.6818 0.1742 0.0000
0.6818 0.1793 0.0000
0.6818 0.1843 0.0000
0.6818 0.1894 0.0000
0.6818 0.1944 0.0000
0.6818 0.1995 0.0000
0.6818 0.2045 0.0000
0.6818 0.2096 0.0000
0.6818 0.2146 0.0000
0.6818 0.2197 0.0000
0.6818 0.2247 0.0000
0.6818 0.2298 0.0000
0.6818 0.2348 0.0000
0.6818 0.2399 0.0000
0.6818 0.2449 0.0000
0.6818 0.2500 0.0000
0.6818 0.2551 0.0000
0.6818 0.2601 0.0000
0.6818 0.2652 0.0000
0.6818 0.2702 0.0000
0.6818 0.2753 0.0000
0.6818 0.2803 0.0000
0.6818 0.2854 0.0000
0.6818 0.2904 0.0000
0.6818 0.2955 0.0000
0.6818 0.3005 0.0000
0.6818 0.3056 0.0000
0.6818 0.3106 0.0000
0.6818 0.3157 0.0000
0.6818 0.3207 0.0000
0.6818 0.3258 0.0000
0.6818 0.3308 0.0000
0.6818 0.3359 0.0000
0.6818 0.3409 0.0000
0.6818 0.3460 0.0000
0.6818 0.3510 0.0000
0.6818 0.3561 0.0000
0.6818 0.3611 0.0000
0.6818 0.3662 0.0000
0.6818 0.3712 0.0000
0.6818 0.3763 0.0000
0.6818 0.3813 0.0000
0.6818 0.3864 0.0000
0.6818 0.3914 0.0000
0.6818 0.3965 0.0000
0.6818 0.4015 0.0000
0.6818 0.4066 0.0000
0.6818 0.4116 0.0000
0.6818 0.4167 0.0000
0.6818 0.4217 0.0000
0.6818 0.4268 0.0000
0.6818 0.4318 0.0000
0.6818 0.4369 0.0000
0.6818 0.4419 0.0000
0.6818 0.4470 0.0000
0.6818 0.4520 0.0000
0.6818 0.4571 0.0000
0.6818 0.4621 0.0000
0.6818 0.4672 0.0000
0.6818 0.4722 0.0000
0.6818 0.4773 0.0000
0.6818 0.4823 0.0000
0.6818 0.4874 0.0000
0.6818 0.4924 0.0000
0.6818 0.4975 0.0000
0.6919 0.0025 0.0000
0.6919 0.0076 0.0000
0.6919 0.0126 0.0000
0.6919 0.0177 0.0000
0.6919 0.0227 0.0000
0.6919 0.0278 0.0000
0.6919 0.0328 0.0000
0.6919 0.0379 0.0000
0.6919 0.0429 0.0000
0.6919 0.0480 0.0000
0.6919 0.0530 0.0000
0.6919 0.0581 0.0000
0.6919 0.0631 0.0000
0.6919 0.0682 0.0000
0.6919 0.0732 0.0000
0.6919 0.0783 0.0000
0.6919 0.0833 0.0000
0.6919 0.0884 0.0000
0.6919 0.0934 0.0000
0.6919 0.0985 0.0000
0.6919 0.1035 0.0000
0.6919 0.1086 0.0000
0.6919 0.1136 0.0000
0.6919 0.1187 0.0000
0.6919 0.1237 0.0000
0.6919 0.1288 0.0000
0.6919 0.1338 0.0000
0.6919 0.1389 0.0000
0.6919 0.1439 0.0000
0.6919 0.1490 0.0000
0.6919 0.1540 0.0000
0.6919 0.1591 0.0000
0.6919 0.1641 0.0000
0.6919 0.1692 0.0000
0.6919 0.1742 0.0000
0.6919 0.1793 0.0000
0.6919 0.1843 0.0000
0.6919 0.1894 0.0000
0.6919 0.1944 0.0000
0.6919 0.1995 0.0000
0.6919 0.2045 0.0000
0.6919 0.2096 0.0000
0.6919 0.2146 0.0000
0.6919 0.2197 0.0000
0.6919 0.2247 0.0000
0.6919 0.2298 0.0000
0.6919 0.2348 0.0000
0.6919 0.2399 0.0000
0.6919 0.2449 0.0000
0.6919 0.2500 0.0000
0.6919 0.2551 0.0000
0.6919 0.2601 0.0000
0.6919 0.2652 0.0000
0.6919 0.2702 0.0000
0.6919 0.2753 0.0000
0.6919 0.2803 0.0000
0.6919 0.2854 0.0000
0.6919 0.2904 0.0000
0.6919 0.2955 0.0000
0.6919 0.3005 0.0000
0.6919 0.3056 0.0000
0.6919 0.3106 0.0000
0.6919 0.3157 0.0000
0.6919 0.3207 0.0000
0.6919 0.3258 0.0000
0.6919 0.3308 0.0000
0.6919 0.3359 0.0000
0.6919 0.3409 0.0000
0.6919 0.3460 0.0000
0.6919 0.3510 0.0000
0.6919 0.3561 0.0000
0.6919 0.3611 0.0000
0.6919 0.3662 0.0000
0.6919 0.3712 0.0000
0.6919 0.3763 0.0000
0.6919 0.3813 0.0000
0.6919 0.3864 0.0000
0.6919 0.3914 0.0000
0.6919 0.3965 0.0000
0.6919 0.4015 0.0000
0.6919 0.4066 0.0000
0.6919 0.4116 0.0000
0.6919 0.4167 0.0000
0.6919 0.4217 0.0000
0.6919 0.4268 0.0000
0.6919 0.4318 0.0000
0.6919 0.4369 0.0000
0.6919 0.4419 0.0000
0.6919 0.4470 0.0000
0.6919 0.4520 0.0000
0.6919 0.4571 0.0000
0.6919 0.4621 0.0000
0.6919 0.4672 0.0000
0.6919 0.4722 0.0000
0.6919 0.4773 0.0000
0.6919 0.4823 0.0000
0.6919 0.4874 0.0000
0.6919 0.4924 0.0000
0.6919 0.4975 0.0000
0.7020 0.0025 0.0000
0.7020 0.0076 0.0000
0.7020 0.0126 0.0000
0.7020 0.0177 0.0000
0.7020 0.0227 0.0000
0.7020 0.0278 0.0000
0.7020 0.0328 0.0000
0.7020 0.0379 0.0000
0.7020 0.0429 0.0000
0.7020 0.0480 0.0000
0.7020 0.0530 0.0000
0.7020 0.0581 0.0000
0.7020 0.0631 0.0000
0.7020 0.0682 0.0000
0.7020 0.0732 0.0000
0.7020 0.0783 0.0000
0.7020 0.0833 0.0000
0.7020 0.0884 0.0000
0.7020 0.0934 0.0000
0.7020 0.0985 0.0000
0.7020 0.1035 0.0000
0.7020 0.1086 0.0000
0.7020 0.1136 0.0000
0.7020 0.1187 0.0000
0.7020 0.1237 0.0000
0.7020 0.1288 0.0000
0.7020 0.1338 0.0000
0.7020 0.1389 0.0000
0.7020 0.1439 0.0000
0.7020 0.1490 0.0000
0.7020 0.1540 0.0000
0.7020 0.1591 0.0000
0.7020 0.1641 0.0000
0.7020 0.1692 0.0000
0.7020 0.1742 0.0000
0.7020 0.1793 0.0000
0.7020 0.1843 0.0000
0.7020 0.1894 0.0000
0.7020 0.1944 0.0000
0.7020 0.1995 0.0000
0.7020 0.2045 0.0000
0.7020 0.2096 0.0000
0.7020 0.2146 0.0000
0.7020 0.2197 0.0000
0.7020 0.2247 0.0000
0.7020 0.2298 0.0000
0.7020 0.2348 0.0000
0.7020 0.2399 0.0000
0.7020 0.2449 0.0000
0.7020 0.2500 0.0000
0.7020 0.2551 0.0000
0.7020 0.2601 0.0000
0.7020 0.2652 0.0000
0.7020 0.2702 0.0000
0.7020 0.2753 0.0000
0.7020 0.2803 0.0000
0.7020 0.2854 0.0000
0.7020 0.2904 0.0000
0.7020 0.2955 0.0000
0.7020 0.3005 0.0000
0.7020 0.3056 0.0000
0.7020 0.3106 0.0000
0.7020 0.3157 0.0000
0.7020 0.3207 0.0000
0.7020 0.3258 0.0000
0.7020 0.3308 0.0000
0.7020 0.3359 0.0000
0.7020 0.3409 0.0000
0.7020 0.3460 0.0000
0.7020 0.3510 0.0000
0.7020 0.3561 0.0000
0.7020 0.3611 0.0000
0.7020 0.3662 0.0000
0.7020 0.3712 0.0000
0.7020 0.3763 0.0000
0.7020 0.3813 0.0000
0.7020 0.3864 0.0000
0.7020 0.3914 0.0000
0.7020 0.3965 0.0000
0.7020 0.4015 0.0000
0.7020 0.4066 0.0000
0.7020 0.4116 0.0000
0.7020 0.4167 0.0000
0.7020 0.4217 0.0000
0.7020 0.4268 0.0000
0.7020 0.4318 0.0000
0.7020 0.4369 0.0000
0.7020 0.4419 0.0000
0.7020 0.4470 0.0000
0.7020 0.4520 0.0000
0.7020 0.4571 0.0000
0.7020 0.4621 0.0000
0.7020 0.4672 0.0000
0.7020 0.4722 0.0000
0.7020 0.4773 0.0000
0.7020 0.4823 0.0000
0.7020 0.4874 0.0000
0.7020 0.4924 0.0000
0.7020 0.4975 0.0000
0.7121 0.0025 0.0000
0.7121 0.0076 0.0000
0.7121 0.0126 0.0000
0.7121 0.0177 0.0000
0.7121 0.0227 0.0000
0.7121 0.0278 0.0000
0.7121 0.0328 0.0000
0.7121 0.0379 0.0000
0.7121 0.0429 0.0000
0.7121 0.0480 0.0000
0.7121 0.0530 0.0000
0.7121 0.0581 0.0000
0.7121 0.0631 0.0000
0.7121 0.0682 0.0000
0.7121 0.0732 0.0000
0.7121 0.0783 0.0000
0.7121 0.0833 0.0000
0.7121 0.0884 0.0000
0.7121 0.0934 0.0000
0.7121 0.0985 0.0000
0.7121 0.1035 0.0000
0.7121 0.1086 0.0000
0.7121 0.1136 0.0000
0.7121 0.1187 0.0000
0.7121 0.1237 0.0000
0.7121 0.1288 0.0000
0.7121 0.1338 0.0000
0.7121 0.1389 0.0000
0.7121 0.1439 0.0000
0.7121 0.1490 0.0000
0.7121 0.1540 0.0000
0.7121 0.1591 0.0000
0.7121 0.1641 0.0000
0.7121 0.1692 0.0000
0.7121 0.1742 0.0000
0.7121 0.1793 0.0000
0.7121 0.1843 0.0000
0.7121 0.1894 0.0000
0.7121 0.1944 0.0000
0.7121 0.1995 0.0000
0.7121 0.2045 0.0000
0.7121 0.2096 0.0000
0.7121 0.2146 0.0000
0.7121 0.2197 0.0000
0.7121 0.2247 0.0000
0.7121 0.2298 0.0000
0.7121 0.2348 0.0000
0.7121 0.2399 0.0000
0.7121 0.2449 0.0000
0.7121 0.2500 0.0000
0.7121 0.2551 0.0000
0.7121 0.2601 0.0000
0.7121 0.2652 0.0000
0.7121 0.2702 0.0000
0.7121 0.2753 0.0000
0.7121 0.2803 0.0000
0.7121 0.2854 0.0000
0.7121 0.2904 0.0000
0.7121 0.2955 0.0000
0.7121 0.3005 0.0000
0.7121 0.3056 0.0000
0.7121 0.3106 0.0000
0.7121 0.3157 0.0000
0.7121 0.3207 0.0000
0.7121 0.3258 0.0000
0.7121 0.3308 0.0000
0.7121 0.3359 0.0000
0.7121 0.3409 0.0000
0.7121 0.3460 0.0000
0.7121 0.3510 0.0000
0.7121 0.3561 0.0000
0.7121 0.3611 0.0000
0.7121 0.3662 0.0000
0.7121 0.3712 0.0000
0.7121 0.3763 0.0000
0.7121 0.3813 0.0000
0.7121 0.3864 0.0000
0.7121 0.3914 0.0000
0.7121 0.3965 0.0000
0.7121 0.4015 0.0000
0.7121 0.4066 0.0000
0.7121 0.4116 0.0000
0.7121 0.4167 0.0000
0.7121 0.4217 0.0000
0.7121 0.4268 0.0000
0.7121 0.4318 0.0000
0.7121 0.4369 0.0000
0.7121 0.4419 0.0000
0.7121 0.4470 0.0000
0.7121 0.4520 0.0000
0.7121 0.4571 0.0000
0.7121 0.4621 0.0000
0.7121 0.4672 0.0000
0.7121 0.4722 0.0000
0.7121 0.4773 0.0000
0.7121 0.4823 0.0000
0.7121 0.4874 0.0000
0.7121 0.4924 0.0000
0.7121 0.4975 0.0000
0.7222 0.0025 0.0000
0.7222 0.0076 0.0000
0.7222 0.0126 0.0000
0.7222 0.0177 0.0000
0.7222 0.0227 0.0000
0.7222 0.0278 0.0000
0.7222 0.0328 0.0000
0.7222 0.0379 0.0000
0.7222 0.0429 0.0000
0.7222 0.0480 0.0000
0.7222 0.0530 0.0000
0.7222 0.0581 0.0000
0.7222 0.0631 0.0000
0.7222 0.0682 0.0000
0.7222 0.0732 0.0000
0.7222 0.0783 0.0000
0.7222 0.0833 0.0000
0.7222 0.0884 0.0000
0.7222 0.0934 0.0000
0.7222 0.0985 0.0000
0.7222 0.1035 0.0000
0.7222 0.1086 0.0000
0.7222 0.1136 0.0000
0.7222 0.1187 0.0000
0.7222 0.1237 0.0000
0.7222 0.1288 0.0000
0.7222 0.1338 0.0000
0.7222 0.1389 0.0000
0.7222 0.1439 0.0000
0.7222 0.1490 0.0000
0.7222 0.1540 0.0000
0.7222 0.1591 0.0000
0.7222 0.1641 0.0000
0.7222 0.1692 0.0000
0.7222 0.1742 0.0000
0.7222 0.1793 0.0000
0.7222 0.1843 0.0000
0.7222 0.1894 0.0000
0.7222 0.1944 0.0000
0.7222 0.1995 0.0000
0.7222 0.2045 0.0000
0.7222 0.2096 0.0000
0.7222 0.2146 0.0000
0.7222 0.2197 0.0000
0.7222 0.2247 0.0000
0.7222 0.2298 0.0000
0.7222 0.2348 0.0000
0.7222 0.2399 0.0000
0.7222 0.2449 0.0000
0.7222 0.2500 0.0000
0.7222 0.2551 0.0000
0.7222 0.2601 0.0000
0.7222 0.2652 0.0000
0.7222 0.2702 0.0000
0.7222 0.2753 0.0000
0.7222 0.2803 0.0000
0.7222 0.2854 0.0000
0.7222 0.2904 0.0000
0.7222 0.2955 0.0000
0.7222 0.3005 0.0000
0.7222 0.3056 0.0000
0.7222 0.3106 0.0000
0.7222 0.3157 0.0000
0.7222 0.3207 0.0000
0.7222 0.3258 0.0000
0.7222 0.3308 0.0000
0.7222 0.3359 0.0000
0.7222 0.3409 0.0000
0.7222 0.3460 0.0000
0.7222 0.3510 0.0000
0.7222 0.3561 0.0000
0.7222 0.3611 0.0000
0.7222 0.3662 0.0000
0.7222 0.3712 0.0000
0.7222 0.3763 0.0000
0.7222 0.3813 0.0000
0.7222 0.3864 0.0000
0.7222 0.3914 0.0000
0.7222 0.3965 0.0000
0.7222 0.4015 0.0000
0.7222 0.4066 0.0000
0.7222 0.4116 0.0000
0.7222 0.4167 0.0000
0.7222 0.4217 0.0000
0.7222 0.4268 0.0000
0.7222 0.4318 0.0000
0.7222 0.4369 0.0000
0.7222 0.4419 0.0000
0.7222 0.4470 0.0000
0.7222 0.4520 0.0000
0.7222 0.4571 0.0000
0.7222 0.4621 0.0000
0.7222 0.4672 0.0000
0.7222 0.4722 0.0000
0.7222 0.4773 0.0000
0.7222 0.4823 0.0000
0.7222 0.4874 0.0000
0.7222 0.4924 0.0000
0.7222 0.4975 0.0000
0.7323 0.0025 0.0000
0.7323 0.0076 0.0000
0.7323 0.0126 0.0000
0.7323 0.0177 0.0000
0.7323 0.0227 0.0000
0.7323 0.0278 0.0000
0.7323 0.0328 0.0000
0.7323 0.0379 0.0000
0.7323 0.0429 0.0000
0.7323 0.0480 0.0000
0.7323 0.0530 0.0000
0.7323 0.0581 0.0000
0.7323 0.0631 0.0000
0.7323 0.0682 0.0000
0.7323 0.0732 0.0000
0.7323 0.0783 0.0000
0.7323 0.0833 0.0000
0.7323 0.0884 0.0000
0.7323 0.0934 0.0000
0.7323 0.0985 0.0000
0.7323 0.1035 0.0000
0.7323 0.1086 0.0000
0.7323 0.1136 0.0000
0.7323 0.1187 0.0000
0.7323 0.1237 0.0000
0.7323 0.1288 0.0000
0.7323 0.1338 0.0000
0.7323 0.1389 0.0000
0.7323 0.1439 0.0000
0.7323 0.1490 0.0000
0.7323 0.1540 0.0000
0.7323 0.1591 0.0000
0.7323 0.1641 0.0000
0.7323 0.1692 0.0000
0.7323 0.1742 0.0000
0.7323 0.1793 0.0000
0.7323 0.1843 0.0000
0.7323 0.1894 0.0000
0.7323 0.1944 0.0000
0.7323 0.1995 0.0000
0.7323 0.2045 0.0000
0.7323 0.2096 0.0000
0.7323 0.2146 0.0000
0.7323 0.2197 0.0000
0.7323 0.2247 0.0000
0.7323 0.2298 0.0000
0.7323 0.2348 0.0000
0.7323 0.2399 0.0000
0.7323 0.2449 0.0000
0.7323 0.2500 0.0000
0.7323 0.2551 0.0000
0.7323 0.2601 0.0000
0.7323 0.2652 0.0000
0.7323 0.2702 0.0000
0.7323 0.2753 0.0000
0.7323 0.2803 0.0000
0.7323 0.2854 0.0000
0.7323 0.2904 0.0000
0.7323 0.2955 0.0000
0.7323 0.3005 0.0000
0.7323 0.3056 0.0000
0.7323 0.3106 0.0000
0.7323 0.3157 0.0000
0.7323 0.3207 0.0000
0.7323 0.3258 0.0000
0.7323 0.3308 0.0000
0.7323 0.3359 0.0000
0.7323 0.3409 0.0000
0.7323 0.3460 0.0000
0.7323 0.3510 0.0000
0.7323 0.3561 0.0000
0.7323 0.3611 0.0000
0.7323 0.3662 0.0000
0.7323 0.3712 0.0000
0.7323 0.3763 0.0000
0.7323 0.3813 0.0000
0.7323 0.3864 0.0000
0.7323 0.3914 0.0000
0.7323 0.3965 0.0000
0.7323 0.4015 0.0000
0.7323 0.4066 0.0000
0.7323 0.4116 0.0000
0.7323 0.4167 0.0000
0.7323 0.4217 0.0000
0.7323 0.4268 0.0000
0.7323 0.4318 0.0000
0.7323 0.4369 0.0000
0.7323 0.4419 0.0000
0.7323 0.4470 0.0000
0.7323 0.4520 0.0000
0.7323 0.4571 0.0000
0.7323 0.4621 0.0000
0.7323 0.4672 0.0000
0.7323 0.4722 0.0000
0.7323 0.4773 0.0000
0.7323 0.4823 0.0000
0.7323 0.4874 0.0000
0.7323 0.4924 0.0000
0.7323 0.4975 0.0000
0.7424 0.0025 0.0000
0.7424 0.0076 0.0000
0.7424 0.0126 0.0000
0.7424 0.0177 0.0000
0.7424 0.0227 0.0000
0.7424 0.0278 0.0000
0.7424 0.0328 0.0000
0.7424 0.0379 0.0000
0.7424 0.0429 0.0000
0.7424 0.0480 0.0000
0.7424 0.0530 0.0000
0.7424 0.0581 0.0000
0.7424 0.0631 0.0000
0.7424 0.0682 0.0000
0.7424 0.0732 0.0000
0.7424 0.0783 0.0000
0.7424 0.0833 0.0000
0.7424 0.0884 0.0000
0.7424 0.0934 0.0000
0.7424 0.0985 0.0000
0.7424 0.1035 0.0000
0.7424 0.1086 0.0000
0.7424 0.1136 0.0000
0.7424 0.1187 0.0000
0.7424 0.1237 0.0000
0.7424 0.1288 0.0000
0.7424 0.1338 0.0000
0.7424 0.1389 0.0000
0.7424 0.1439 0.0000
0.7424 0.1490 0.0000
0.7424 0.1540 0.0000
0.7424 0.1591 0.0000
0.7424 0.1641 0.0000
0.7424 0.1692 0.0000
0.7424 0.1742 0.0000
0.7424 0.1793 0.0000
0.7424 0.1843 0.0000
0.7424 0.1894 0.0000
0.7424 0.1944 0.0000
0.7424 0.1995 0.0000
0.7424 0.2045 0.0000
0.7424 0.2096 0.0000
0.7424 0.2146 0.0000
0.7424 0.2197 0.0000
0.7424 0.2247 0.0000
0.7424 0.2298 0.0000
0.7424 0.2348 0.0000
0.7424 0.2399 0.0000
0.7424 0.2449 0.0000
0.7424 0.2500 0.0000
0.7424 0.2551 0.0000
0.7424 0.2601 0.0000
0.7424 0.2652 0.0000
0.7424 0.2702 0.0000
0.7424 0.2753 0.0000
0.7424 0.2803 0.0000
0.7424 0.2854 0.0000
0.7424 0.2904 0.0000
0.7424 0.2955 0.0000
0.7424 0.3005 0.0000
0.7424 0.3056 0.0000
0.7424 0.3106 0.0000
0.7424 0.3157 0.0000
0.7424 0.3207 0.0000
0.7424 0.3258 0.0000
0.7424 0.3308 0.0000
0.7424 0.3359 0.0000
0.7424 0.3409 0.0000
0.7424 0.3460 0.0000
0.7424 0.3510 0.0000
0.7424 0.3561 0.0000
0.7424 0.3611 0.0000
0.7424 0.3662 0.0000
0.7424 0.3712 0.0000
0.7424 0.3763 0.0000
0.7424 0.3813 0.0000
0.7424 0.3864 0.0000
0.7424 0.3914 0.0000
0.7424 0.3965 0.0000
0.7424 0.4015 0.0000
0.7424 0.4066 0.0000
0.7424 0.4116 0.0000
0.7424 0.4167 0.0000
0.7424 0.4217 0.0000
0.7424 0.4268 0.0000
0.7424 0.4318 0.0000
0.7424 0.4369 0.0000
0.7424 0.4419 0.0000
0.7424 0.4470 0.0000
0.7424 0.4520 0.0000
0.7424 0.4571 0.0000
0.7424 0.4621 0.0000
0.7424 0.4672 0.0000
0.7424 0.4722 0.0000
0.7424 0.4773 0.0000
0.7424 0.4823 0.0000
0.7424 0.4874 0.0000
0.7424 0.4924 0.0000
0.7424 0.4975 0.0000
0.7525 0.0025 0.0000
0.7525 0.0076 0.0000
0.7525 0.0126 0.0000
0.7525 0.0177 0.0000
0.7525 0.0227 0.0000
0.7525 0.0278 0.0000
0.7525 0.0328 0.0000
0.7525 0.0379 0.0000
0.7525 0.0429 0.0000
0.7525 0.0480 0.0000
0.7525 0.0530 0.0000
0.7525 0.0581 0.0000
0.7525 0.0631 0.0000
0.7525 0.0682 0.0000
0.7525 0.0732 0.0000
0.7525 0.0783 0.0000
0.7525 0.0833 0.0000
0.7525 0.0884 0.0000
0.7525 0.0934 0.0000
0.7525 0.0985 0.0000
0.7525 0.1035 0.0000
0.7525 0.1086 0.0000
0.7525 0.1136 0.0000
0.7525 0.1187 0.0000
0.7525 0.1237 0.0000
0.7525 0.1288 0.0000
0.7525 0.1338 0.0000
0.7525 0.1389 0.0000
0.7525 0.1439 0.0000
0.7525 0.1490 0.0000
0.7525 0.1540 0.0000
0.7525 0.1591 0.0000
0.7525 0.1641 0.0000
0.7525 0.1692 0.0000
0.7525 0.1742 0.0000
0.7525 0.1793 0.0000
0.7525 0.1843 0.0000
0.7525 0.1894 0.0000
0.7525 0.1944 0.0000
0.7525 0.1995 0.0000
0.7525 0.2045 0.0000
0.7525 0.2096 0.0000
0.7525 0.2146 0.0000
0.7525 0.2197 0.0000
0.7525 0.2247 0.0000
0.7525 0.2298 0.0000
0.7525 0.2348 0.0000
0.7525 0.2399 0.0000
0.7525 0.2449 0.0000
0.7525 0.2500 0.0000
0.7525 0.2551 0.0000
0.7525 0.2601 0.0000
0.7525 0.2652 0.0000
0.7525 0.2702 0.0000
0.7525 0.2753 0.0000
0.7525 0.2803 0.0000
0.7525 0.2854 0.0000
0.7525 0.2904 0.0000
0.7525 0.2955 0.0000
0.7525 0.3005 0.0000
0.7525 0.3056 0.0000
0.7525 0.3106 0.0000
0.7525 0.3157 0.0000
0.7525 0.3207 0.0000
0.7525 0.3258 0.0000
0.7525 0.3308 0.0000
0.7525 0.3359 0.0000
0.7525 0.3409 0.0000
0.7525 0.3460 0.0000
0.7525 0.3510 0.0000
0.7525 0.3561 0.0000
0.7525 0.3611 0.0000
0.7525 0.3662 0.0000
0.7525 0.3712 0.0000
0.7525 0.3763 0.0000
0.7525 0.3813 0.0000
0.7525 0.3864 0.0000
0.7525 0.3914 0.0000
0.7525 0.3965 0.0000
0.7525 0.4015 0.0000
0.7525 0.4066 0.0000
0.7525 0.4116 0.0000
0.7525 0.4167 0.0000
0.7525 0.4217 0.0000
0.7525 0.4268 0.0000
0.7525 0.4318 0.0000
0.7525 0.4369 0.0000
0.7525 0.4419 0.0000
0.7525 0.4470 0.0000
0.7525 0.4520 0.0000
0.7525 0.4571 0.0000
0.7525 0.4621 0.0000
0.7525 0.4672 0.0000
0.7525 0.4722 0.0000
0.7525 0.4773 0.0000
0.7525 0.4823 0.0000
0.7525 0.4874 0.0000
0.7525 0.4924 0.0000
0.7525 0.4975 0.0000
0.7626 0.0025 0.0000
0.7626 0.0076 0.0000
0.7626 0.0126 0.0000
0.7626 0.0177 0.0000
0.7626 0.0227 0.0000
0.7626 0.0278 0.0000
0.7626 0.0328 0.0000
0.7626 0.0379 0.0000
0.7626 0.0429 0.0000
0.7626 0.0480 0.0000
0.7626 0.0530 0.0000
0.7626 0.0581 0.0000
0.7626 0.0631 0.0000
0.7626 0.0682 0.0000
0.7626 0.0732 0.0000
0.7626 0.0783 0.0000
0.7626 0.0833 0.0000
0.7626 0.0884 0.0000
0.7626 0.0934 0.0000
0.7626 0.0985 0.0000
0.7626 0.1035 0.0000
0.7626 0.1086 0.0000
0.7626 0.1136 0.0000
0.7626 0.1187 0.0000
0.7626 0.1237 0.0000
0.7626 0.1288 0.0000
0.7626 0.1338 0.0000
0.7626 0.1389 0.0000
0.7626 0.1439 0.0000
0.7626 0.1490 0.0000
0.7626 0.1540 0.0000
0.7626 0.1591 0.0000
0.7626 0.1641 0.0000
0.7626 0.1692 0.0000
0.7626 0.1742 0.0000
0.7626 0.1793 0.0000
0.7626 0.1843 0.0000
0.7626 0.1894 0.0000
0.7626 0.1944 0.0000
0.7626 0.1995 0.0000
0.7626 0.2045 0.0000
0.7626 0.2096 0.0000
0.7626 0.2146 0.0000
0.7626 0.2197 0.0000
0.7626 0.2247 0.0000
0.7626 0.2298 0.0000
0.7626 0.2348 0.0000
0.7626 0.2399 0.0000
0.7626 0.2449 0.0000
0.7626 0.2500 0.0000
0.7626 0.2551 0.0000
0.7626 0.2601 0.0000
0.7626 0.2652 0.0000
0.7626 0.2702 0.0000
0.7626 0.2753 0.0000
0.7626 0.2803 0.0000
0.7626 0.2854 0.0000
0.7626 0.2904 0.0000
0.7626 0.2955 0.0000
0.7626 0.3005 0.0000
0.7626 0.3056 0.0000
0.7626 0.3106 0.0000
0.7626 0.3157 0.0000
0.7626 0.3207 0.0000
0.7626 0.3258 0.0000
0.7626 0.3308 0.0000
0.7626 0.3359 0.0000
0.7626 0.3409 0.0000
0.7626 0.3460 0.0000
0.7626 0.3510 0.0000
0.7626 0.3561 0.0000
0.7626 0.3611 0.0000
0.7626 0.3662 0.0000
0.7626 0.3712 0.0000
0.7626 0.3763 0.0000
0.7626 0.3813 0.0000
0.7626 0.3864 0.0000
0.7626 0.3914 0.0000
0.7626 0.3965 0.0000
0.7626 0.4015 0.0000
0.7626 0.4066 0.0000
0.7626 0.4116 0.0000
0.7626 0.4167 0.0000
0.7626 0.4217 0.0000
0.7626 0.4268 0.0000
0.7626 0.4318 0.0000
0.7626 0.4369 0.0000
0.7626 0.4419 0.0000
0.7626 0.4470 0.0000
0.7626 0.4520 0.0000
0.7626 0.4571 0.0000
0.7626 0.4621 0.0000
0.7626 0.4672 0.0000
0.7626 0.4722 0.0000
0.7626 0.4773 0.0000
0.7626 0.4823 0.0000
0.7626 0.4874 0.0000
0.7626 0.4924 0.0000
0.7626 0.4975 0.0000
0.7727 0.0025 0.0000
0.7727 0.0076 0.0000
0.7727 0.0126 0.0000
0.7727 0.0177 0.0000
0.7727 0.0227 0.0000
0.7727 0.0278 0.0000
0.7727 0.0328 0.0000
0.7727 0.0379 0.0000
0.7727 0.0429 0.0000
0.7727 0.0480 0.0000
0.7727 0.0530 0.0000
0.7727 0.0581 0.0000
0.7727 0.0631 0.0000
0.7727 0.0682 0.0000
0.7727 0.0732 0.0000
0.7727 0.0783 0.0000
0.7727 0.0833 0.0000
0.7727 0.0884 0.0000
0.7727 0.0934 0.0000
0.7727 0.0985 0.0000
0.7727 0.1035 0.0000
0.7727 0.1086 0.0000
0.7727 0.1136 0.0000
0.7727 0.1187 0.0000
0.7727 0.1237 0.0000
0.7727 0.1288 0.0000
0.7727 0.1338 0.0000
0.7727 0.1389 0.0000
0.7727 0.1439 0.0000
0.7727 0.1490 0.0000
0.7727 0.1540 0.0000
0.7727 0.1591 0.0000
0.7727 0.1641 0.0000
0.7727 0.1692 0.0000
0.7727 0.1742 0.0000
0.7727 0.1793 0.0000
0.7727 0.1843 0.0000
0.7727 0.1894 0.0000
0.7727 0.1944 0.0000
0.7727 0.1995 0.0000
0.7727 0.2045 0.0000
0.7727 0.2096 0.0000
0.7727 0.2146 0.0000
0.7727 0.2197 0.0000
0.7727 0.2247 0.0000
0.7727 0.2298 0.0000
0.7727 0.2348 0.0000
0.7727 0.2399 0.0000
0.7727 0.2449 0.0000
0.7727 0.2500 0.0000
0.7727 0.2551 0.0000
0.7727 0.2601 0.0000
0.7727 0.2652 0.0000
0.7727 0.2702 0.0000
0.7727 0.2753 0.0000
0.7727 0.2803 0.0000
0.7727 0.2854 0.0000
0.7727 0.2904 0.0000
0.7727 0.2955 0.0000
0.7727 0.3005 0.0000
0.7727 0.3056 0.0000
0.7727 0.3106 0.0000
0.7727 0.3157 0.0000
0.7727 0.3207 0.0000
0.7727 0.3258 0.0000
0.7727 0.3308 0.0000
0.7727 0.3359 0.0000
0.7727 0.3409 0.0000
0.7727 0.3460 0.0000
0.7727 0.3510 0.0000
0.7727 0.3561 0.0000
0.7727 0.3611 0.0000
0.7727 0.3662 0.0000
0.7727 0.3712 0.0000
0.7727 0.3763 0.0000
0.7727 0.3813 0.0000
0.7727 0.3864 0.0000
0.7727 0.3914 0.0000
0.7727 0.3965 0.0000
0.7727 0.4015 0.0000
0.7727 0.4066 0.0000
0.7727 0.4116 0.0000
0.7727 0.4167 0.0000
0.7727 0.4217 0.0000
0.7727 0.4268 0.0000
0.7727 0.4318 0.0000
0.7727 0.4369 0.0000
0.7727 0.4419 0.0000
0.7727 0.4470 0.0000
0.7727 0.4520 0.0000
0.7727 0.4571 0.0000
0.7727 0.4621 0.0000
0.7727 0.4672 0.0000
0.7727 0.4722 0.0000
0.7727 0.4773 0.0000
0.7727 0.4823 0.0000
0.7727 0.4874 0.0000
0.7727 0.4924 0.0000
0.7727 0.4975 0.0000
0.7828 0.0025 0.0000
0.7828 0.0076 0.0000
0.7828 0.0126 0.0000
0.7828 0.0177 0.0000
0.7828 0.0227 0.0000
0.7828 0.0278 0.0000
0.7828 0.0328 0.0000
0.7828 0.0379 0.0000
0.7828 0.0429 0.0000
0.7828 0.0480 0.0000
0.7828 0.0530 0.0000
0.7828 0.0581 0.0000
0.7828 0.0631 0.0000
0.7828 0.0682 0.0000
0.7828 0.0732 0.0000
0.7828 0.0783 0.0000
0.7828 0.0833 0.0000
0.7828 0.0884 0.0000
0.7828 0.0934 0.0000
0.7828 0.0985 0.0000
0.7828 0.1035 0.0000
0.7828 0.1086 0.0000
0.7828 0.1136 0.0000
0.7828 0.1187 0.0000
0.7828 0.1237 0.0000
0.7828 0.1288 0.0000
0.7828 0.1338 0.0000
0.7828 0.1389 0.0000
0.7828 0.1439 0.0000
0.7828 0.1490 0.0000
0.7828 0.1540 0.0000
0.7828 0.1591 0.0000
0.7828 0.1641 0.0000
0.7828 0.1692 0.0000
0.7828 0.1742 0.0000
0.7828 0.1793 0.0000
0.7828 0.1843 0.0000
0.7828 0.1894 0.0000
0.7828 0.1944 0.0000
0.7828 0.1995 0.0000
0.7828 0.2045 0.0000
0.7828 0.2096 0.0000
0.7828 0.2146 0.0000
0.7828 0.2197 0.0000
0.7828 0.2247 0.0000
0.7828 0.2298 0.0000
0.7828 0.2348 0.0000
0.7828 0.2399 0.0000
0.7828 0.2449 0.0000
0.7828 0.2500 0.0000
0.7828 0.2551 0.0000
0.7828 0.2601 0.0000
0.7828 0.2652 0.0000
0.7828 0.2702 0.0000
0.7828 0.2753 0.0000
0.7828 0.2803 0.0000
0.7828 0.2854 0.0000
0.7828 0.2904 0.0000
0.7828 0.2955 0.0000
0.7828 0.3005 0.0000
0.7828 0.3056 0.0000
0.7828 0.3106 0.0000
0.7828 0.3157 0.0000
0.7828 0.3207 0.0000
0.7828 0.3258 0.0000
0.7828 0.3308 0.0000
0.7828 0.3359 0.0000
0.7828 0.3409 0.0000
0.7828 0.3460 0.0000
0.7828 0.3510 0.0000
0.7828 0.3561 0.0000
0.7828 0.3611 0.0000
0.7828 0.3662 0.0000
0.7828 0.3712 0.0000
0.7828 0.3763 0.0000
0.7828 0.3813 0.0000
0.7828 0.3864 0.0000
0.7828 0.3914 0.0000
0.7828 0.3965 0.0000
0.7828 0.4015 0.0000
0.7828 0.4066 0.0000
0.7828 0.4116 0.0000
0.7828 0.4167 0.0000
0.7828 0.4217 0.0000
0.7828 0.4268 0.0000
0.7828 0.4318 0.0000
0.7828 0.4369 0.0000
0.7828 0.4419 0.0000
0.7828 0.4470 0.0000
0.7828 0.4520 0.0000
0.7828 0.4571 0.0000
0.7828 0.4621 0.0000
0.7828 0.4672 0.0000
0.7828 0.4722 0.0000
0.7828 0.4773 0.0000
0.7828 0.4823 0.0000
0.7828 0.4874 0.0000
0.7828 0.4924 0.0000
0.7828 0.4975 0.0000
0.7929 0.0025 0.0000
0.7929 0.0076 0.0000
0.7929 0.0126 0.0000
0.7929 0.0177 0.0000
0.7929 0.0227 0.0000
0.7929 0.0278 0.0000
0.7929 0.0328 0.0000
0.7929 0.0379 0.0000
0.7929 0.0429 0.0000
0.7929 0.0480 0.0000
0.7929 0.0530 0.0000
0.7929 0.0581 0.0000
0.7929 0.0631 0.0000
0.7929 0.0682 0.0000
0.7929 0.0732 0.0000
0.7929 0.0783 0.0000
0.7929 0.0833 0.0000
0.7929 0.0884 0.0000
0.7929 0.0934 0.0000
0.7929 0.0985 0.0000
0.7929 0.1035 0.0000
0.7929 0.1086 0.0000
0.7929 0.1136 0.0000
0.7929 0.1187 0.0000
0.7929 0.1237 0.0000
0.7929 0.1288 0.0000
0.7929 0.1338 0.0000
0.7929 0.1389 0.0000
0.7929 0.1439 0.0000
0.7929 0.1490 0.0000
0.7929 0.1540 0.0000
0.7929 0.1591 0.0000
0.7929 0.1641 0.0000
0.7929 0.1692 0.0000
0.7929 0.1742 0.0000
0.7929 0.1793 0.0000
0.7929 0.1843 0.0000
0.7929 0.1894 0.0000
0.7929 0.1944 0.0000
0.7929 0.1995 0.0000
0.7929 0.2045 0.0000
0.7929 0.2096 0.0000
0.7929 0.2146 0.0000
0.7929 0.2197 0.0000
0.7929 0.2247 0.0000
0.7929 0.2298 0.0000
0.7929 0.2348 0.0000
0.7929 0.2399 0.0000
0.7929 0.2449 0.0000
0.7929 0.2500 0.0000
0.7929 0.2551 0.0000
0.7929 0.2601 0.0000
0.7929 0.2652 0.0000
0.7929 0.2702 0.0000
0.7929 0.2753 0.0000
0.7929 0.2803 0.0000
0.7929 0.2854 0.0000
0.7929 0.2904 0.0000
0.7929 0.2955 0.0000
0.7929 0.3005 0.0000
0.7929 0.3056 0.0000
0.7929 0.3106 0.0000
0.7929 0.3157 0.0000
0.7929 0.3207 0.0000
0.7929 0.3258 0.0000
0.7929 0.3308 0.0000
0.7929 0.3359 0.0000
0.7929 0.3409 0.0000
0.7929 0.3460 0.0000
0.7929 0.3510 0.0000
0.7929 0.3561 0.0000
0.7929 0.3611 0.0000
0.7929 0.3662 0.0000
0.7929 0.3712 0.0000
0.7929 0.3763 0.0000
0.7929 0.3813 0.0000
0.7929 0.3864 0.0000
0.7929 0.3914 0.0000
0.7929 0.3965 0.0000
0.7929 0.4015 0.0000
0.7929 0.4066 0.0000
0.7929 0.4116 0.0000
0.7929 0.4167 0.0000
0.7929 0.4217 0.0000
0.7929 0.4268 0.0000
0.7929 0.4318 0.0000
0.7929 0.4369 0.0000
0.7929 0.4419 0.0000
0.7929 0.4470 0.0000
0.7929 0.4520 0.0000
0.7929 0.4571 0.0000
0.7929 0.4621 0.0000
0.7929 0.4672 0.0000
0.7929 0.4722 0.0000
0.7929 0.4773 0.0000
0.7929 0.4823 0.0000
0.7929 0.4874 0.0000
0.7929 0.4924 0.0000
0.7929 0.4975 0.0000
0.8030 0.0025 0.0000
0.8030 0.0076 0.0000
0.8030 0.0126 0.0000
0.8030 0.0177 0.0000
0.8030 0.0227 0.0000
0.8030 0.0278 0.0000
0.8030 0.0328 0.0000
0.8030 0.0379 0.0000
0.8030 0.0429 0.0000
0.8030 0.0480 0.0000
0.8030 0.0530 0.0000
0.8030 0.0581 0.0000
0.8030 0.0631 0.0000
0.8030 0.0682 0.0000
0.8030 0.0732 0.0000
0.8030 0.0783 0.0000
0.8030 0.0833 0.0000
0.8030 0.0884 0.0000
0.8030 0.0934 0.0000
0.8030 0.0985 0.0000
0.8030 0.1035 0.0000
0.8030 0.1086 0.0000
0.8030 0.1136 0.0000
0.8030 0.1187 0.0000
0.8030 0.1237 0.0000
0.8030 0.1288 0.0000
0.8030 0.1338 0.0000
0.8030 0.1389 0.0000
0.8030 0.1439 0.0000
0.8030 0.1490 0.0000
0.8030 0.1540 0.0000
0.8030 0.1591 0.0000
0.8030 0.1641 0.0000
0.8030 0.1692 0.0000
0.8030 0.1742 0.0000
0.8030 0.1793 0.0000
0.8030 0.1843 0.0000
0.8030 0.1894 0.0000
0.8030 0.1944 0.0000
0.8030 0.1995 0.0000
0.8030 0.2045 0.0000
0.8030 0.2096 0.0000
0.8030 0.2146 0.0000
0.8030 0.2197 0.0000
0.8030 0.2247 0.0000
0.8030 0.2298 0.0000
0.8030 0.2348 0.0000
0.8030 0.2399 0.0000
0.8030 0.2449 0.0000
0.8030 0.2500 0.0000
0.8030 0.2551 0.0000
0.8030 0.2601 0.0000
0.8030 0.2652 0.0000
0.8030 0.2702 0.0000
0.8030 0.2753 0.0000
0.8030 0.2803 0.0000
0.8030 0.2854 0.0000
0.8030 0.2904 0.0000
0.8030 0.2955 0.0000
0.8030 0.3005 0.0000
0.8030 0.3056 0.0000
0.8030 0.3106 0.0000
0.8030 0.3157 0.0000
0.8030 0.3207 0.0000
0.8030 0.3258 0.0000
0.8030 0.3308 0.0000
0.8030 0.3359 0.0000
0.8030 0.3409 0.0000
0.8030 0.3460 0.0000
0.8030 0.3510 0.0000
0.8030 0.3561 0.0000
0.8030 0.3611 0.0000
0.8030 0.3662 0.0000
0.8030 0.3712 0.0000
0.8030 0.3763 0.0000
0.8030 0.3813 0.0000
0.8030 0.3864 0.0000
0.8030 0.3914 0.0000
0.8030 0.3965 0.0000
0.8030 0.4015 0.0000
0.8030 0.4066 0.0000
0.8030 0.4116 0.0000
0.8030 0.4167 0.0000
0.8030 0.4217 0.0000
0.8030 0.4268 0.0000
0.8030 0.4318 0.0000
0.8030 0.4369 0.0000
0.8030 0.4419 0.0000
0.8030 0.4470 0.0000
0.8030 0.4520 0.0000
0.8030 0.4571 0.0000
0.8030 0.4621 0.0000
0.8030 0.4672 0.0000
0.8030 0.4722 0.0000
0.8030 0.4773 0.0000
0.8030 0.4823 0.0000
0.8030 0.4874 0.0000
0.8030 0.4924 0.0000
0.8030 0.4975 0.0000
0.8131 0.0025 0.0000
0.8131 0.0076 0.0000
0.8131 0.0126 0.0000
0.8131 0.0177 0.0000
0.8131 0.0227 0.0000
0.8131 0.0278 0.0000
0.8131 0.0328 0.0000
0.8131 0.0379 0.0000
0.8131 0.0429 0.0000
0.8131 0.0480 0.0000
0.8131 0.0530 0.0000
0.8131 0.0581 0.0000
0.8131 0.0631 0.0000
0.8131 0.0682 0.0000
0.8131 0.0732 0.0000
0.8131 0.0783 0.0000
0.8131 0.0833 0.0000
0.8131 0.0884 0.0000
0.8131 0.0934 0.0000
0.8131 0.0985 0.0000
0.8131 0.1035 0.0000
0.8131 0.1086 0.0000
0.8131 0.1136 0.0000
0.8131 0.1187 0.0000
0.8131 0.1237 0.0000
0.8131 0.1288 0.0000
0.8131 0.1338 0.0000
0.8131 0.1389 0.0000
0.8131 0.1439 0.0000
0.8131 0.1490 0.0000
0.8131 0.1540 0.0000
0.8131 0.1591 0.0000
0.8131 0.1641 0.0000
0.8131 0.1692 0.0000
0.8131 0.1742 0.0000
0.8131 0.1793 0.0000
0.8131 0.1843 0.0000
0.8131 0.1894 0.0000
0.8131 0.1944 0.0000
0.8131 0.1995 0.0000
0.8131 0.2045 0.0000
0.8131 0.2096 0.0000
0.8131 0.2146 0.0000
0.8131 0.2197 0.0000
0.8131 0.2247 0.0000
0.8131 0.2298 0.0000
0.8131 0.2348 0.0000
0.8131 0.2399 0.0000
0.8131 0.2449 0.0000
0.8131 0.2500 0.0000
0.8131 0.2551 0.0000
0.8131 0.2601 0.0000
0.8131 0.2652 0.0000
0.8131 0.2702 0.0000
0.8131 0.2753 0.0000
0.8131 0.2803 0.0000
0.8131 0.2854 0.0000
0.8131 0.2904 0.0000
0.8131 0.2955 0.0000
0.8131 0.3005 0.0000
0.8131 0.3056 0.0000
0.8131 0.3106 0.0000
0.8131 0.3157 0.0000
0.8131 0.3207 0.0000
0.8131 0.3258 0.0000
0.8131 0.3308 0.0000
0.8131 0.3359 0.0000
0.8131 0.3409 0.0000
0.8131 0.3460 0.0000
0.8131 0.3510 0.0000
0.8131 0.3561 0.0000
0.8131 0.3611 0.0000
0.8131 0.3662 0.0000
0.8131 0.3712 0.0000
0.8131 0.3763 0.0000
0.8131 0.3813 0.0000
0.8131 0.3864 0.0000
0.8131 0.3914 0.0000
0.8131 0.3965 0.0000
0.8131 0.4015 0.0000
0.8131 0.4066 0.0000
0.8131 0.4116 0.0000
0.8131 0.4167 0.0000
0.8131 0.4217 0.0000
0.8131 0.4268 0.0000
0.8131 0.4318 0.0000
0.8131 0.4369 0.0000
0.8131 0.4419 0.0000
0.8131 0.4470 0.0000
0.8131 0.4520 0.0000
0.8131 0.4571 0.0000
0.8131 0.4621 0.0000
0.8131 0.4672 0.0000
0.8131 0.4722 0.0000
0.8131 0.4773 0.0000
0.8131 0.4823 0.0000
0.8131 0.4874 0.0000
0.8131 0.4924 0.0000
0.8131 0.4975 0.0000
0.8232 0.0025 0.0000
0.8232 0.0076 0.0000
0.8232 0.0126 0.0000
0.8232 0.0177 0.0000
0.8232 0.0227 0.0000
0.8232 0.0278 0.0000
0.8232 0.0328 0.0000
0.8232 0.0379 0.0000
0.8232 0.0429 0.0000
0.8232 0.0480 0.0000
0.8232 0.0530 0.0000
0.8232 0.0581 0.0000
0.8232 0.0631 0.0000
0.8232 0.0682 0.0000
0.8232 0.0732 0.0000
0.8232 0.0783 0.0000
0.8232 0.0833 0.0000
0.8232 0.0884 0.0000
0.8232 0.0934 0.0000
0.8232 0.0985 0.0000
0.8232 0.1035 0.0000
0.8232 0.1086 0.0000
0.8232 0.1136 0.0000
0.8232 0.1187 0.0000
0.8232 0.1237 0.0000
0.8232 0.1288 0.0000
0.8232 0.1338 0.0000
0.8232 0.1389 0.0000
0.8232 0.1439 0.0000
0.8232 0.1490 0.0000
0.8232 0.1540 0.0000
0.8232 0.1591 0.0000
0.8232 0.1641 0.0000
0.8232 0.1692 0.0000
0.8232 0.1742 0.0000
0.8232 0.1793 0.0000
0.8232 0.1843 0.0000
0.8232 0.1894 0.0000
0.8232 0.1944 0.0000
0.8232 0.1995 0.0000
0.8232 0.2045 0.0000
0.8232 0.2096 0.0000
0.8232 0.2146 0.0000
0.8232 0.2197 0.0000
0.8232 0.2247 0.0000
0.8232 0.2298 0.0000
0.8232 0.2348 0.0000
0.8232 0.2399 0.0000
0.8232 0.2449 0.0000
0.8232 0.2500 0.0000
0.8232 0.2551 0.0000
0.8232 0.2601 0.0000
0.8232 0.2652 0.0000
0.8232 0.2702 0.0000
0.8232 0.2753 0.0000
0.8232 0.2803 0.0000
0.8232 0.2854 0.0000
0.8232 0.2904 0.0000
0.8232 0.2955 0.0000
0.8232 0.3005 0.0000
0.8232 0.3056 0.0000
0.8232 0.3106 0.0000
0.8232 0.3157 0.0000
0.8232 0.3207 0.0000
0.8232 0.3258 0.0000
0.8232 0.3308 0.0000
0.8232 0.3359 0.0000
0.8232 0.3409 0.0000
0.8232 0.3460 0.0000
0.8232 0.3510 0.0000
0.8232 0.3561 0.0000
0.8232 0.3611 0.0000
0.8232 0.3662 0.0000
0.8232 0.3712 0.0000
0.8232 0.3763 0.0000
0.8232 0.3813 0.0000
0.8232 0.3864 0.0000
0.8232 0.3914 0.0000
0.8232 0.3965 0.0000
0.8232 0.4015 0.0000
0.8232 0.4066 0.0000
0.8232 0.4116 0.0000
0.8232 0.4167 0.0000
0.8232 0.4217 0.0000
0.8232 0.4268 0.0000
0.8232 0.4318 0.0000
0.8232 0.4369 0.0000
0.8232 0.4419 0.0000
0.8232 0.4470 0.0000
0.8232 0.4520 0.0000
0.8232 0.4571 0.0000
0.8232 0.4621 0.0000
0.8232 0.4672 0.0000
0.8232 0.4722 0.0000
0.8232 0.4773 0.0000
0.8232 0.4823 0.0000
0.8232 0.4874 0.0000
0.8232 0.4924 0.0000
0.8232 0.4975 0.0000
0.8333 0.0025 0.0000
0.8333 0.0076 0.0000
0.8333 0.0126 0.0000
0.8333 0.0177 0.0000
0.8333 0.0227 0.0000
0.8333 0.0278 0.0000
0.8333 0.0328 0.0000
0.8333 0.0379 0.0000
0.8333 0.0429 0.0000
0.8333 0.0480 0.0000
0.8333 0.0530 0.0000
0.8333 0.0581 0.0000
0.8333 0.0631 0.0000
0.8333 0.0682 0.0000
0.8333 0.0732 0.0000
0.8333 0.0783 0.0000
0.8333 0.0833 0.0000
0.8333 0.0884 0.0000
0.8333 0.0934 0.0000
0.8333 0.0985 0.0000
0.8333 0.1035 0.0000
0.8333 0.1086 0.0000
0.8333 0.1136 0.0000
0.8333 0.1187 0.0000
0.8333 0.1237 0.0000
0.8333 0.1288 0.0000
0.8333 0.1338 0.0000
0.8333 0.1389 0.0000
0.8333 0.1439 0.0000
0.8333 0.1490 0.0000
0.8333 0.1540 0.0000
0.8333 0.1591 0.0000
0.8333 0.1641 0.0000
0.8333 0.1692 0.0000
0.8333 0.1742 0.0000
0.8333 0.1793 0.0000
0.8333 0.1843 0.0000
0.8333 0.1894 0.0000
0.8333 0.1944 0.0000
0.8333 0.1995 0.0000
0.8333 0.2045 0.0000
0.8333 0.2096 0.0000
0.8333 0.2146 0.0000
0.8333 0.2197 0.0000
0.8333 0.2247 0.0000
0.8333 0.2298 0.0000
0.8333 0.2348 0.0000
0.8333 0.2399 0.0000
0.8333 0.2449 0.0000
0.8333 0.2500 0.0000
0.8333 0.2551 0.0000
0.8333 0.2601 0.0000
0.8333 0.2652 0.0000
0.8333 0.2702 0.0000
0.8333 0.2753 0.0000
0.8333 0.2803 0.0000
0.8333 0.2854 0.0000
0.8333 0.2904 0.0000
0.8333 0.2955 0.0000
0.8333 0.3005 0.0000
0.8333 0.3056 0.0000
0.8333 0.3106 0.0000
0.8333 0.3157 0.0000
0.8333 0.3207 0.0000
0.8333 0.3258 0.0000
0.8333 0.3308 0.0000
0.8333 0.3359 0.0000
0.8333 0.3409 0.0000
0.8333 0.3460 0.0000
0.8333 0.3510 0.0000
0.8333 0.3561 0.0000
0.8333 0.3611 0.0000
0.8333 0.3662 0.0000
0.8333 0.3712 0.0000
0.8333 0.3763 0.0000
0.8333 0.3813 0.0000
0.8333 0.3864 0.0000
0.8333 0.3914 0.0000
0.8333 0.3965 0.0000
0.8333 0.4015 0.0000
0.8333 0.4066 0.0000
0.8333 0.4116 0.0000
0.8333 0.4167 0.0000
0.8333 0.4217 0.0000
0.8333 0.4268 0.0000
0.8333 0.4318 0.0000
0.8333 0.4369 0.0000
0.8333 0.4419 0.0000
0.8333 0.4470 0.0000
0.8333 0.4520 0.0000
0.8333 0.4571 0.0000
0.8333 0.4621 0.0000
0.8333 0.4672 0.0000
0.8333 0.4722 0.0000
0.8333 0.4773 0.0000
0.8333 0.4823 0.0000
0.8333 0.4874 0.0000
0.8333 0.4924 0.0000
0.8333 0.4975 0.0000
0.8434 0.0025 0.0000
0.8434 0.0076 0.0000
0.8434 0.0126 0.0000
0.8434 0.0177 0.0000
0.8434 0.0227 0.0000
0.8434 0.0278 0.0000
0.8434 0.0328 0.0000
0.8434 0.0379 0.0000
0.8434 0.0429 0.0000
0.8434 0.0480 0.0000
0.8434 0.0530 0.0000
0.8434 0.0581 0.0000
0.8434 0.0631 0.0000
0.8434 0.0682 0.0000
0.8434 0.0732 0.0000
0.8434 0.0783 0.0000
0.8434 0.0833 0.0000
0.8434 0.0884 0.0000
0.8434 0.0934 0.0000
0.8434 0.0985 0.0000
0.8434 0.1035 0.0000
0.8434 0.1086 0.0000
0.8434 0.1136 0.0000
0.8434 0.1187 0.0000
0.8434 0.1237 0.0000
0.8434 0.1288 0.0000
0.8434 0.1338 0.0000
0.8434 0.1389 0.0000
0.8434 0.1439 0.0000
0.8434 0.1490 0.0000
0.8434 0.1540 0.0000
0.8434 0.1591 0.0000
0.8434 0.1641 0.0000
0.8434 0.1692 0.0000
0.8434 0.1742 0.0000
0.8434 0.1793 0.0000
0.8434 0.1843 0.0000
0.8434 0.1894 0.0000
0.8434 0.1944 0.0000
0.8434 0.1995 0.0000
0.8434 0.2045 0.0000
0.8434 0.2096 0.0000
0.8434 0.2146 0.0000
0.8434 0.2197 0.0000
0.8434 0.2247 0.0000
0.8434 0.2298 0.0000
0.8434 0.2348 0.0000
0.8434 0.2399 0.0000
0.8434 0.2449 0.0000
0.8434 0.2500 0.0000
0.8434 0.2551 0.0000
0.8434 0.2601 0.0000
0.8434 0.2652 0.0000
0.8434 0.2702 0.0000
0.8434 0.2753 0.0000
0.8434 0.2803 0.0000
0.8434 0.2854 0.0000
0.8434 0.2904 0.0000
0.8434 0.2955 0.0000
0.8434 0.3005 0.0000
0.8434 0.3056 0.0000
0.8434 0.3106 0.0000
0.8434 0.3157 0.0000
0.8434 0.3207 0.0000
0.8434 0.3258 0.0000
0.8434 0.3308 0.0000
0.8434 0.3359 0.0000
0.8434 0.3409 0.0000
0.8434 0.3460 0.0000
0.8434 0.3510 0.0000
0.8434 0.3561 0.0000
0.8434 0.3611 0.0000
0.8434 0.3662 0.0000
0.8434 0.3712 0.0000
0.8434 0.3763 0.0000
0.8434 0.3813 0.0000
0.8434 0.3864 0.0000
0.8434 0.3914 0.0000
0.8434 0.3965 0.0000
0.8434 0.4015 0.0000
0.8434 0.4066 0.0000
0.8434 0.4116 0.0000
0.8434 0.4167 0.0000
0.8434 0.4217 0.0000
0.8434 0.4268 0.0000
0.8434 0.4318 0.0000
0.8434 0.4369 0.0000
0.8434 0.4419 0.0000
0.8434 0.4470 0.0000
0.8434 0.4520 0.0000
0.8434 0.4571 0.0000
0.8434 0.4621 0.0000
0.8434 0.4672 0.0000
0.8434 0.4722 0.0000
0.8434 0.4773 0.0000
0.8434 0.4823 0.0000
0.8434 0.4874 0.0000
0.8434 0.4924 0.0000
0.8434 0.4975 0.0000
0.8535 0.0025 0.0000
0.8535 0.0076 0.0000
0.8535 0.0126 0.0000
0.8535 0.0177 0.0000
0.8535 0.0227 0.0000
0.8535 0.0278 0.0000
0.8535 0.0328 0.0000
0.8535 0.0379 0.0000
0.8535 0.0429 0.0000
0.8535 0.0480 0.0000
0.8535 0.0530 0.0000
0.8535 0.0581 0.0000
0.8535 0.0631 0.0000
0.8535 0.0682 0.0000
0.8535 0.0732 0.0000
0.8535 0.0783 0.0000
0.8535 0.0833 0.0000
0.8535 0.0884 0.0000
0.8535 0.0934 0.0000
0.8535 0.0985 0.0000
0.8535 0.1035 0.0000
0.8535 0.1086 0.0000
0.8535 0.1136 0.0000
0.8535 0.1187 0.0000
0.8535 0.1237 0.0000
0.8535 0.1288 0.0000
0.8535 0.1338 0.0000
0.8535 0.1389 0.0000
0.8535 0.1439 0.0000
0.8535 0.1490 0.0000
0.8535 0.1540 0.0000
0.8535 0.1591 0.0000
0.8535 0.1641 0.0000
0.8535 0.1692 0.0000
0.8535 0.1742 0.0000
0.8535 0.1793 0.0000
0.8535 0.1843 0.0000
0.8535 0.1894 0.0000
0.8535 0.1944 0.0000
0.8535 0.1995 0.0000
0.8535 0.2045 0.0000
0.8535 0.2096 0.0000
0.8535 0.2146 0.0000
0.8535 0.2197 0.0000
0.8535 0.2247 0.0000
0.8535 0.2298 0.0000
0.8535 0.2348 0.0000
0.8535 0.2399 0.0000
0.8535 0.2449 0.0000
0.8535 0.2500 0.0000
0.8535 0.2551 0.0000
0.8535 0.2601 0.0000
0.8535 0.2652 0.0000
0.8535 0.2702 0.0000
0.8535 0.2753 0.0000
0.8535 0.2803 0.0000
0.8535 0.2854 0.0000
0.8535 0.2904 0.0000
0.8535 0.2955 0.0000
0.8535 0.3005 0.0000
0.8535 0.3056 0.0000
0.8535 0.3106 0.0000
0.8535 0.3157 0.0000
0.8535 0.3207 0.0000
0.8535 0.3258 0.0000
0.8535 0.3308 0.0000
0.8535 0.3359 0.0000
0.8535 0.3409 0.0000
0.8535 0.3460 0.0000
0.8535 0.3510 0.0000
0.8535 0.3561 0.0000
0.8535 0.3611 0.0000
0.8535 0.3662 0.0000
0.8535 0.3712 0.0000
0.8535 0.3763 0.0000
0.8535 0.3813 0.0000
0.8535 0.3864 0.0000
0.8535 0.3914 0.0000
0.8535 0.3965 0.0000
0.8535 0.4015 0.0000
0.8535 0.4066 0.0000
0.8535 0.4116 0.0000
0.8535 0.4167 0.0000
0.8535 0.4217 0.0000
0.8535 0.4268 0.0000
0.8535 0.4318 0.0000
0.8535 0.4369 0.0000
0.8535 0.4419 0.0000
0.8535 0.4470 0.0000
0.8535 0.4520 0.0000
0.8535 0.4571 0.0000
0.8535 0.4621 0.0000
0.8535 0.4672 0.0000
0.8535 0.4722 0.0000
0.8535 0.4773 0.0000
0.8535 0.4823 0.0000
0.8535 0.4874 0.0000
0.8535 0.4924 0.0000
0.8535 0.4975 0.0000
0.8636 0.0025 0.0000
0.8636 0.0076 0.0000
0.8636 0.0126 0.0000
0.8636 0.0177 0.0000
0.8636 0.0227 0.0000
0.8636 0.0278 0.0000
0.8636 0.0328 0.0000
0.8636 0.0379 0.0000
0.8636 0.0429 0.0000
0.8636 0.0480 0.0000
0.8636 0.0530 0.0000
0.8636 0.0581 0.0000
0.8636 0.0631 0.0000
0.8636 0.0682 0.0000
0.8636 0.0732 0.0000
0.8636 0.0783 0.0000
0.8636 0.0833 0.0000
0.8636 0.0884 0.0000
0.8636 0.0934 0.0000
0.8636 0.0985 0.0000
0.8636 0.1035 0.0000
0.8636 0.1086 0.0000
0.8636 0.1136 0.0000
0.8636 0.1187 0.0000
0.8636 0.1237 0.0000
0.8636 0.1288 0.0000
0.8636 0.1338 0.0000
0.8636 0.1389 0.0000
0.8636 0.1439 0.0000
0.8636 0.1490 0.0000
0.8636 0.1540 0.0000
0.8636 0.1591 0.0000
0.8636 0.1641 0.0000
0.8636 0.1692 0.0000
0.8636 0.1742 0.0000
0.8636 0.1793 0.0000
0.8636 0.1843 0.0000
0.8636 0.1894 0.0000
0.8636 0.1944 0.0000
0.8636 0.1995 0.0000
0.8636 0.2045 0.0000
0.8636 0.2096 0.0000
0.8636 0.2146 0.0000
0.8636 0.2197 0.0000
0.8636 0.2247 0.0000
0.8636 0.2298 0.0000
0.8636 0.2348 0.0000
0.8636 0.2399 0.0000
0.8636 0.2449 0.0000
0.8636 0.2500 0.0000
0.8636 0.2551 0.0000
0.8636 0.2601 0.0000
0.8636 0.2652 0.0000
0.8636 0.2702 0.0000
0.8636 0.2753 0.0000
0.8636 0.2803 0.0000
0.8636 0.2854 0.0000
0.8636 0.2904 0.0000
0.8636 0.2955 0.0000
0.8636 0.3005 0.0000
0.8636 0.3056 0.0000
0.8636 0.3106 0.0000
0.8636 0.3157 0.0000
0.8636 0.3207 0.0000
0.8636 0.3258 0.0000
0.8636 0.3308 0.0000
0.8636 0.3359 0.0000
0.8636 0.3409 0.0000
0.8636 0.3460 0.0000
0.8636 0.3510 0.0000
0.8636 0.3561 0.0000
0.8636 0.3611 0.0000
0.8636 0.3662 0.0000
0.8636 0.3712 0.0000
0.8636 0.3763 0.0000
0.8636 0.3813 0.0000
0.8636 0.3864 0.0000
0.8636 0.3914 0.0000
0.8636 0.3965 0.0000
0.8636 0.4015 0.0000
0.8636 0.4066 0.0000
0.8636 0.4116 0.0000
0.8636 0.4167 0.0000
0.8636 0.4217 0.0000
0.8636 0.4268 0.0000
0.8636 0.4318 0.0000
0.8636 0.4369 0.0000
0.8636 0.4419 0.0000
0.8636 0.4470 0.0000
0.8636 0.4520 0.0000
0.8636 0.4571 0.0000
0.8636 0.4621 0.0000
0.8636 0.4672 0.0000
0.8636 0.4722 0.0000
0.8636 0.4773 0.0000
0.8636 0.4823 0.0000
0.8636 0.4874 0.0000
0.8636 0.4924 0.0000
0.8636 0.4975 0.0000
0.8737 0.0025 0.0000
0.8737 0.0076 0.0000
0.8737 0.0126 0.0000
0.8737 0.0177 0.0000
0.8737 0.0227 0.0000
0.8737 0.0278 0.0000
0.8737 0.0328 0.0000
0.8737 0.0379 0.0000
0.8737 0.0429 0.0000
0.8737 0.0480 0.0000
0.8737 0.0530 0.0000
0.8737 0.0581 0.0000
0.8737 0.0631 0.0000
0.8737 0.0682 0.0000
0.8737 0.0732 0.0000
0.8737 0.0783 0.0000
0.8737 0.0833 0.0000
0.8737 0.0884 0.0000
0.8737 0.0934 0.0000
0.8737 0.0985 0.0000
0.8737 0.1035 0.0000
0.8737 0.1086 0.0000
0.8737 0.1136 0.0000
0.8737 0.1187 0.0000
0.8737 0.1237 0.0000
0.8737 0.1288 0.0000
0.8737 0.1338 0.0000
0.8737 0.1389 0.0000
0.8737 0.1439 0.0000
0.8737 0.1490 0.0000
0.8737 0.1540 0.0000
0.8737 0.1591 0.0000
0.8737 0.1641 0.0000
0.8737 0.1692 0.0000
0.8737 0.1742 0.0000
0.8737 0.1793 0.0000
0.8737 0.1843 0.0000
0.8737 0.1894 0.0000
0.8737 0.1944 0.0000
0.8737 0.1995 0.0000
0.8737 0.2045 0.0000
0.8737 0.2096 0.0000
0.8737 0.2146 0.0000
0.8737 0.2197 0.0000
0.8737 0.2247 0.0000
0.8737 0.2298 0.0000
0.8737 0.2348 0.0000
0.8737 0.2399 0.0000
0.8737 0.2449 0.0000
0.8737 0.2500 0.0000
0.8737 0.2551 0.0000
0.8737 0.2601 0.0000
0.8737 0.2652 0.0000
0.8737 0.2702 0.0000
0.8737 0.2753 0.0000
0.8737 0.2803 0.0000
0.8737 0.2854 0.0000
0.8737 0.2904 0.0000
0.8737 0.2955 0.0000
0.8737 0.3005 0.0000
0.8737 0.3056 0.0000
0.8737 0.3106 0.0000
0.8737 0.3157 0.0000
0.8737 0.3207 0.0000
0.8737 0.3258 0.0000
0.8737 0.3308 0.0000
0.8737 0.3359 0.0000
0.8737 0.3409 0.0000
0.8737 0.3460 0.0000
0.8737 0.3510 0.0000
0.8737 0.3561 0.0000
0.8737 0.3611 0.0000
0.8737 0.3662 0.0000
0.8737 0.3712 0.0000
0.8737 0.3763 0.0000
0.8737 0.3813 0.0000
0.8737 0.3864 0.0000
0.8737 0.3914 0.0000
0.8737 0.3965 0.0000
0.8737 0.4015 0.0000
0.8737 0.4066 0.0000
0.8737 0.4116 0.0000
0.8737 0.4167 0.0000
0.8737 0.4217 0.0000
0.8737 0.4268 0.0000
0.8737 0.4318 0.0000
0.8737 0.4369 0.0000
0.8737 0.4419 0.0000
0.8737 0.4470 0.0000
0.8737 0.4520 0.0000
0.8737 0.4571 0.0000
0.8737 0.4621 0.0000
0.8737 0.4672 0.0000
0.8737 0.4722 0.0000
0.8737 0.4773 0.0000
0.8737 0.4823 0.0000
0.8737 0.4874 0.0000
0.8737 0.4924 0.0000
0.8737 0.4975 0.0000
0.8838 0.0025 0.0000
0.8838 0.0076 0.0000
0.8838 0.0126 0.0000
0.8838 0.0177 0.0000
0.8838 0.0227 0.0000
0.8838 0.0278 0.0000
0.8838 0.0328 0.0000
0.8838 0.0379 0.0000
0.8838 0.0429 0.0000
0.8838 0.0480 0.0000
0.8838 0.0530 0.0000
0.8838 0.0581 0.0000
0.8838 0.0631 0.0000
0.8838 0.0682 0.0000
0.8838 0.0732 0.0000
0.8838 0.0783 0.0000
0.8838 0.0833 0.0000
0.8838 0.0884 0.0000
0.8838 0.0934 0.0000
0.8838 0.0985 0.0000
0.8838 0.1035 0.0000
0.8838 0.1086 0.0000
0.8838 0.1136 0.0000
0.8838 0.1187 0.0000
0.8838 0.1237 0.0000
0.8838 0.1288 0.0000
0.8838 0.1338 0.0000
0.8838 0.1389 0.0000
0.8838 0.1439 0.0000
0.8838 0.1490 0.0000
0.8838 0.1540 0.0000
0.8838 0.1591 0.0000
0.8838 0.1641 0.0000
0.8838 0.1692 0.0000
0.8838 0.1742 0.0000
0.8838 0.1793 0.0000
0.8838 0.1843 0.0000
0.8838 0.1894 0.0000
0.8838 0.1944 0.0000
0.8838 0.1995 0.0000
0.8838 0.2045 0.0000
0.8838 0.2096 0.0000
0.8838 0.2146 0.0000
0.8838 0.2197 0.0000
0.8838 0.2247 0.0000
0.8838 0.2298 0.0000
0.8838 0.2348 0.0000
0.8838 0.2399 0.0000
0.8838 0.2449 0.0000
0.8838 0.2500 0.0000
0.8838 0.2551 0.0000
0.8838 0.2601 0.0000
0.8838 0.2652 0.0000
0.8838 0.2702 0.0000
0.8838 0.2753 0.0000
0.8838 0.2803 0.0000
0.8838 0.2854 0.0000
0.8838 0.2904 0.0000
0.8838 0.2955 0.0000
0.8838 0.3005 0.0000
0.8838 0.3056 0.0000
0.8838 0.3106 0.0000
0.8838 0.3157 0.0000
0.8838 0.3207 0.0000
0.8838 0.3258 0.0000
0.8838 0.3308 0.0000
0.8838 0.3359 0.0000
0.8838 0.3409 0.0000
0.8838 0.3460 0.0000
0.8838 0.3510 0.0000
0.8838 0.3561 0.0000
0.8838 0.3611 0.0000
0.8838 0.3662 0.0000
0.8838 0.3712 0.0000
0.8838 0.3763 0.0000
0.8838 0.3813 0.0000
0.8838 0.3864 0.0000
0.8838 0.3914 0.0000
0.8838 0.3965 0.0000
0.8838 0.4015 0.0000
0.8838 0.4066 0.0000
0.8838 0.4116 0.0000
0.8838 0.4167 0.0000
0.8838 0.4217 0.0000
0.8838 0.4268 0.0000
0.8838 0.4318 0.0000
0.8838 0.4369 0.0000
0.8838 0.4419 0.0000
0.8838 0.4470 0.0000
0.8838 0.4520 0.0000
0.8838 0.4571 0.0000
0.8838 0.4621 0.0000
0.8838 0.4672 0.0000
0.8838 0.4722 0.0000
0.8838 0.4773 0.0000
0.8838 0.4823 0.0000
0.8838 0.4874 0.0000
0.8838 0.4924 0.0000
0.8838 0.4975 0.0000
0.8939 0.0025 0.0000
0.8939 0.0076 0.0000
0.8939 0.0126 0.0000
0.8939 0.0177 0.0000
0.8939 0.0227 0.0000
0.8939 0.0278 0.0000
0.8939 0.0328 0.0000
0.8939 0.0379 0.0000
0.8939 0.0429 0.0000
0.8939 0.0480 0.0000
0.8939 0.0530 0.0000
0.8939 0.0581 0.0000
0.8939 0.0631 0.0000
0.8939 0.0682 0.0000
0.8939 0.0732 0.0000
0.8939 0.0783 0.0000
0.8939 0.0833 0.0000
0.8939 0.0884 0.0000
0.8939 0.0934 0.0000
0.8939 0.0985 0.0000
0.8939 0.1035 0.0000
0.8939 0.1086 0.0000
0.8939 0.1136 0.0000
0.8939 0.1187 0.0000
0.8939 0.1237 0.0000
0.8939 0.1288 0.0000
0.8939 0.1338 0.0000
0.8939 0.1389 0.0000
0.8939 0.1439 0.0000
0.8939 0.1490 0.0000
0.8939 0.1540 0.0000
0.8939 0.1591 0.0000
0.8939 0.1641 0.0000
0.8939 0.1692 0.0000
0.8939 0.1742 0.0000
0.8939 0.1793 0.0000
0.8939 0.1843 0.0000
0.8939 0.1894 0.0000
0.8939 0.1944 0.0000
0.8939 0.1995 0.0000
0.8939 0.2045 0.0000
0.8939 0.2096 0.0000
0.8939 0.2146 0.0000
0.8939 0.2197 0.0000
0.8939 0.2247 0.0000
0.8939 0.2298 0.0000
0.8939 0.2348 0.0000
0.8939 0.2399 0.0000
0.8939 0.2449 0.0000
0.8939 0.2500 0.0000
0.8939 0.2551 0.0000
0.8939 0.2601 0.0000
0.8939 0.2652 0.0000
0.8939 0.2702 0.0000
0.8939 0.2753 0.0000
0.8939 0.2803 0.0000
0.8939 0.2854 0.0000
0.8939 0.2904 0.0000
0.8939 0.2955 0.0000
0.8939 0.3005 0.0000
0.8939 0.3056 0.0000
0.8939 0.3106 0.0000
0.8939 0.3157 0.0000
0.8939 0.3207 0.0000
0.8939 0.3258 0.0000
0.8939 0.3308 0.0000
0.8939 0.3359 0.0000
0.8939 0.3409 0.0000
0.8939 0.3460 0.0000
0.8939 0.3510 0.0000
0.8939 0.3561 0.0000
0.8939 0.3611 0.0000
0.8939 0.3662 0.0000
0.8939 0.3712 0.0000
0.8939 0.3763 0.0000
0.8939 0.3813 0.0000
0.8939 0.3864 0.0000
0.8939 0.3914 0.0000
0.8939 0.3965 0.0000
0.8939 0.4015 0.0000
0.8939 0.4066 0.0000
0.8939 0.4116 0.0000
0.8939 0.4167 0.0000
0.8939 0.4217 0.0000
0.8939 0.4268 0.0000
0.8939 0.4318 0.0000
0.8939 0.4369 0.0000
0.8939 0.4419 0.0000
0.8939 0.4470 0.0000
0.8939 0.4520 0.0000
0.8939 0.4571 0.0000
0.8939 0.4621 0.0000
0.8939 0.4672 0.0000
0.8939 0.4722 0.0000
0.8939 0.4773 0.0000
0.8939 0.4823 0.0000
0.8939 0.4874 0.0000
0.8939 0.4924 0.0000
0.8939 0.4975 0.0000
0.9040 0.0025 0.0000
0.9040 0.0076 0.0000
0.9040 0.0126 0.0000
0.9040 0.0177 0.0000
0.9040 0.0227 0.0000
0.9040 0.0278 0.0000
0.9040 0.0328 0.0000
0.9040 0.0379 0.0000
0.9040 0.0429 0.0000
0.9040 0.0480 0.0000
0.9040 0.0530 0.0000
0.9040 0.0581 0.0000
0.9040 0.0631 0.0000
0.9040 0.0682 0.0000
0.9040 0.0732 0.0000
0.9040 0.0783 0.0000
0.9040 0.0833 0.0000
0.9040 0.0884 0.0000
0.9040 0.0934 0.0000
0.9040 0.0985 0.0000
0.9040 0.1035 0.0000
0.9040 0.1086 0.0000
0.9040 0.1136 0.0000
0.9040 0.1187 0.0000
0.9040 0.1237 0.0000
0.9040 0.1288 0.0000
0.9040 0.1338 0.0000
0.9040 0.1389 0.0000
0.9040 0.1439 0.0000
0.9040 0.1490 0.0000
0.9040 0.1540 0.0000
0.9040 0.1591 0.0000
0.9040 0.1641 0.0000
0.9040 0.1692 0.0000
0.9040 0.1742 0.0000
0.9040 0.1793 0.0000
0.9040 0.1843 0.0000
0.9040 0.1894 0.0000
0.9040 0.1944 0.0000
0.9040 0.1995 0.0000
0.9040 0.2045 0.0000
0.9040 0.2096 0.0000
0.9040 0.2146 0.0000
0.9040 0.2197 0.0000
0.9040 0.2247 0.0000
0.9040 0.2298 0.0000
0.9040 0.2348 0.0000
0.9040 0.2399 0.0000
0.9040 0.2449 0.0000
0.9040 0.2500 0.0000
0.9040 0.2551 0.0000
0.9040 0.2601 0.0000
0.9040 0.2652 0.0000
0.9040 0.2702 0.0000
0.9040 0.2753 0.0000
0.9040 0.2803 0.0000
0.9040 0.2854 0.0000
0.9040 0.2904 0.0000
0.9040 0.2955 0.0000
0.9040 0.3005 0.0000
0.9040 0.3056 0.0000
0.9040 0.3106 0.0000
0.9040 0.3157 0.0000
0.9040 0.3207 0.0000
0.9040 0.3258 0.0000
0.9040 0.3308 0.0000
0.9040 0.3359 0.0000
0.9040 0.3409 0.0000
0.9040 0.3460 0.0000
0.9040 0.3510 0.0000
0.9040 0.3561 0.0000
0.9040 0.3611 0.0000
0.9040 0.3662 0.0000
0.9040 0.3712 0.0000
0.9040 0.3763 0.0000
0.9040 0.3813 0.0000
0.9040 0.3864 0.0000
0.9040 0.3914 0.0000
0.9040 0.3965 0.0000
0.9040 0.4015 0.0000
0.9040 0.4066 0.0000
0.9040 0.4116 0.0000
0.9040 0.4167 0.0000
0.9040 0.4217 0.0000
0.9040 0.4268 0.0000
0.9040 0.4318 0.0000
0.9040 0.4369 0.0000
0.9040 0.4419 0.0000
0.9040 0.4470 0.0000
0.9040 0.4520 0.0000
0.9040 0.4571 0.0000
0.9040 0.4621 0.0000
0.9040 0.4672 0.0000
0.9040 0.4722 0.0000
0.9040 0.4773 0.0000
0.9040 0.4823 0.0000
0.9040 0.4874 0.0000
0.9040 0.4924 0.0000
0.9040 0.4975 0.0000
0.9141 0.0025 0.0000
0.9141 0.0076 0.0000
0.9141 0.0126 0.0000
0.9141 0.0177 0.0000
0.9141 0.0227 0.0000
0.9141 0.0278 0.0000
0.9141 0.0328 0.0000
0.9141 0.0379 0.0000
0.9141 0.0429 0.0000
0.9141 0.0480 0.0000
0.9141 0.0530 0.0000
0.9141 0.0581 0.0000
0.9141 0.0631 0.0000
0.9141 0.0682 0.0000
0.9141 0.0732 0.0000
0.9141 0.0783 0.0000
0.9141 0.0833 0.0000
0.9141 0.0884 0.0000
0.9141 0.0934 0.0000
0.9141 0.0985 0.0000
0.9141 0.1035 0.0000
0.9141 0.1086 0.0000
0.9141 0.1136 0.0000
0.9141 0.1187 0.0000
0.9141 0.1237 0.0000
0.9141 0.1288 0.0000
0.9141 0.1338 0.0000
0.9141 0.1389 0.0000
0.9141 0.1439 0.0000
0.9141 0.1490 0.0000
0.9141 0.1540 0.0000
0.9141 0.1591 0.0000
0.9141 0.1641 0.0000
0.9141 0.1692 0.0000
0.9141 0.1742 0.0000
0.9141 0.1793 0.0000
0.9141 0.1843 0.0000
0.9141 0.1894 0.0000
0.9141 0.1944 0.0000
0.9141 0.1995 0.0000
0.9141 0.2045 0.0000
0.9141 0.2096 0.0000
0.9141 0.2146 0.0000
0.9141 0.2197 0.0000
0.9141 0.2247 0.0000
0.9141 0.2298 0.0000
0.9141 0.2348 0.0000
0.9141 0.2399 0.0000
0.9141 0.2449 0.0000
0.9141 0.2500 0.0000
0.9141 0.2551 0.0000
0.9141 0.2601 0.0000
0.9141 0.2652 0.0000
0.9141 0.2702 0.0000
0.9141 0.2753 0.0000
0.9141 0.2803 0.0000
0.9141 0.2854 0.0000
0.9141 0.2904 0.0000
0.9141 0.2955 0.0000
0.9141 0.3005 0.0000
0.9141 0.3056 0.0000
0.9141 0.3106 0.0000
0.9141 0.3157 0.0000
0.9141 0.3207 0.0000
0.9141 0.3258 0.0000
0.9141 0.3308 0.0000
0.9141 0.3359 0.0000
0.9141 0.3409 0.0000
0.9141 0.3460 0.0000
0.9141 0.3510 0.0000
0.9141 0.3561 0.0000
0.9141 0.3611 0.0000
0.9141 0.3662 0.0000
0.9141 0.3712 0.0000
0.9141 0.3763 0.0000
0.9141 0.3813 0.0000
0.9141 0.3864 0.0000
0.9141 0.3914 0.0000
0.9141 0.3965 0.0000
0.9141 0.4015 0.0000
0.9141 0.4066 0.0000
0.9141 0.4116 0.0000
0.9141 0.4167 0.0000
0.9141 0.4217 0.0000
0.9141 0.4268 0.0000
0.9141 0.4318 0.0000
0.9141 0.4369 0.0000
0.9141 0.4419 0.0000
0.9141 0.4470 0.0000
0.9141 0.4520 0.0000
0.9141 0.4571 0.0000
0.9141 0.4621 0.0000
0.9141 0.4672 0.0000
0.9141 0.4722 0.0000
0.9141 0.4773 0.0000
0.9141 0.4823 0.0000
0.9141 0.4874 0.0000
0.9141 0.4924 0.0000
0.9141 0.4975 0.0000
0.9242 0.0025 0.0000
0.9242 0.0076 0.0000
0.9242 0.0126 0.0000
0.9242 0.0177 0.0000
0.9242 0.0227 0.0000
0.9242 0.0278 0.0000
0.9242 0.0328 0.0000
0.9242 0.0379 0.0000
0.9242 0.0429 0.0000
0.9242 0.0480 0.0000
0.9242 0.0530 0.0000
0.9242 0.0581 0.0000
0.9242 0.0631 0.0000
0.9242 0.0682 0.0000
0.9242 0.0732 0.0000
0.9242 0.0783 0.0000
0.9242 0.0833 0.0000
0.9242 0.0884 0.0000
0.9242 0.0934 0.0000
0.9242 0.0985 0.0000
0.9242 0.1035 0.0000
0.9242 0.1086 0.0000
0.9242 0.1136 0.0000
0.9242 0.1187 0.0000
0.9242 0.1237 0.0000
0.9242 0.1288 0.0000
0.9242 0.1338 0.0000
0.9242 0.1389 0.0000
0.9242 0.1439 0.0000
0.9242 0.1490 0.0000
0.9242 0.1540 0.0000
0.9242 0.1591 0.0000
0.9242 0.1641 0.0000
0.9242 0.1692 0.0000
0.9242 0.1742 0.0000
0.9242 0.1793 0.0000
0.9242 0.1843 0.0000
0.9242 0.1894 0.0000
0.9242 0.1944 0.0000
0.9242 0.1995 0.0000
0.9242 0.2045 0.0000
0.9242 0.2096 0.0000
0.9242 0.2146 0.0000
0.9242 0.2197 0.0000
0.9242 0.2247 0.0000
0.9242 0.2298 0.0000
0.9242 0.2348 0.0000
0.9242 0.2399 0.0000
0.9242 0.2449 0.0000
0.9242 0.2500 0.0000
0.9242 0.2551 0.0000
0.9242 0.2601 0.0000
0.9242 0.2652 0.0000
0.9242 0.2702 0.0000
0.9242 0.2753 0.0000
0.9242 0.2803 0.0000
0.9242 0.2854 0.0000
0.9242 0.2904 0.0000
0.9242 0.2955 0.0000
0.9242 0.3005 0.0000
0.9242 0.3056 0.0000
0.9242 0.3106 0.0000
0.9242 0.3157 0.0000
0.9242 0.3207 0.0000
0.9242 0.3258 0.0000
0.9242 0.3308 0.0000
0.9242 0.3359 0.0000
0.9242 0.3409 0.0000
0.9242 0.3460 0.0000
0.9242 0.3510 0.0000
0.9242 0.3561 0.0000
0.9242 0.3611 0.0000
0.9242 0.3662 0.0000
0.9242 0.3712 0.0000
0.9242 0.3763 0.0000
0.9242 0.3813 0.0000
0.9242 0.3864 0.0000
0.9242 0.3914 0.0000
0.9242 0.3965 0.0000
0.9242 0.4015 0.0000
0.9242 0.4066 0.0000
0.9242 0.4116 0.0000
0.9242 0.4167 0.0000
0.9242 0.4217 0.0000
0.9242 0.4268 0.0000
0.9242 0.4318 0.0000
0.9242 0.4369 0.0000
0.9242 0.4419 0.0000
0.9242 0.4470 0.0000
0.9242 0.4520 0.0000
0.9242 0.4571 0.0000
0.9242 0.4621 0.0000
0.9242 0.4672 0.0000
0.9242 0.4722 0.0000
0.9242 0.4773 0.0000
0.9242 0.4823 0.0000
0.9242 0.4874 0.0000
0.9242 0.4924 0.0000
0.9242 0.4975 0.0000
0.9343 0.0025 0.0000
0.9343 0.0076 0.0000
0.9343 0.0126 0.0000
0.9343 0.0177 0.0000
0.9343 0.0227 0.0000
0.9343 0.0278 0.0000
0.9343 0.0328 0.0000
0.9343 0.0379 0.0000
0.9343 0.0429 0.0000
0.9343 0.0480 0.0000
0.9343 0.0530 0.0000
0.9343 0.0581 0.0000
0.9343 0.0631 0.0000
0.9343 0.0682 0.0000
0.9343 0.0732 0.0000
0.9343 0.0783 0.0000
0.9343 0.0833 0.0000
0.9343 0.0884 0.0000
0.9343 0.0934 0.0000
0.9343 0.0985 0.0000
0.9343 0.1035 0.0000
0.9343 0.1086 0.0000
0.9343 0.1136 0.0000
0.9343 0.1187 0.0000
0.9343 0.1237 0.0000
0.9343 0.1288 0.0000
0.9343 0.1338 0.0000
0.9343 0.1389 0.0000
0.9343 0.1439 0.0000
0.9343 0.1490 0.0000
0.9343 0.1540 0.0000
0.9343 0.1591 0.0000
0.9343 0.1641 0.0000
0.9343 0.1692 0.0000
0.9343 0.1742 0.0000
0.9343 0.1793 0.0000
0.9343 0.1843 0.0000
0.9343 0.1894 0.0000
0.9343 0.1944 0.0000
0.9343 0.1995 0.0000
0.9343 0.2045 0.0000
0.9343 0.2096 0.0000
0.9343 0.2146 0.0000
0.9343 0.2197 0.0000
0.9343 0.2247 0.0000
0.9343 0.2298 0.0000
0.9343 0.2348 0.0000
0.9343 0.2399 0.0000
0.9343 0.2449 0.0000
0.9343 0.2500 0.0000
0.9343 0.2551 0.0000
0.9343 0.2601 0.0000
0.9343 0.2652 0.0000
0.9343 0.2702 0.0000
0.9343 0.2753 0.0000
0.9343 0.2803 0.0000
0.9343 0.2854 0.0000
0.9343 0.2904 0.0000
0.9343 0.2955 0.0000
0.9343 0.3005 0.0000
0.9343 0.3056 0.0000
0.9343 0.3106 0.0000
0.9343 0.3157 0.0000
0.9343 0.3207 0.0000
0.9343 0.3258 0.0000
0.9343 0.3308 0.0000
0.9343 0.3359 0.0000
0.9343 0.3409 0.0000
0.9343 0.3460 0.0000
0.9343 0.3510 0.0000
0.9343 0.3561 0.0000
0.9343 0.3611 0.0000
0.9343 0.3662 0.0000
0.9343 0.3712 0.0000
0.9343 0.3763 0.0000
0.9343 0.3813 0.0000
0.9343 0.3864 0.0000
0.9343 0.3914 0.0000
0.9343 0.3965 0.0000
0.9343 0.4015 0.0000
0.9343 0.4066 0.0000
0.9343 0.4116 0.0000
0.9343 0.4167 0.0000
0.9343 0.4217 0.0000
0.9343 0.4268 0.0000
0.9343 0.4318 0.0000
0.9343 0.4369 0.0000
0.9343 0.4419 0.0000
0.9343 0.4470 0.0000
0.9343 0.4520 0.0000
0.9343 0.4571 0.0000
0.9343 0.4621 0.0000
0.9343 0.4672 0.0000
0.9343 0.4722 0.0000
0.9343 0.4773 0.0000
0.9343 0.4823 0.0000
0.9343 0.4874 0.0000
0.9343 0.4924 0.0000
0.9343 0.4975 0.0000
0.9444 0.0025 0.0000
0.9444 0.0076 0.0000
0.9444 0.0126 0.0000
0.9444 0.0177 0.0000
0.9444 0.0227 0.0000
0.9444 0.0278 0.0000
0.9444 0.0328 0.0000
0.9444 0.0379 0.0000
0.9444 0.0429 0.0000
0.9444 0.0480 0.0000
0.9444 0.0530 0.0000
0.9444 0.0581 0.0000
0.9444 0.0631 0.0000
0.9444 0.0682 0.0000
0.9444 0.0732 0.0000
0.9444 0.0783 0.0000
0.9444 0.0833 0.0000
0.9444 0.0884 0.0000
0.9444 0.0934 0.0000
0.9444 0.0985 0.0000
0.9444 0.1035 0.0000
0.9444 0.1086 0.0000
0.9444 0.1136 0.0000
0.9444 0.1187 0.0000
0.9444 0.1237 0.0000
0.9444 0.1288 0.0000
0.9444 0.1338 0.0000
0.9444 0.1389 0.0000
0.9444 0.1439 0.0000
0.9444 0.1490 0.0000
0.9444 0.1540 0.0000
0.9444 0.1591 0.0000
0.9444 0.1641 0.0000
0.9444 0.1692 0.0000
0.9444 0.1742 0.0000
0.9444 0.1793 0.0000
0.9444 0.1843 0.0000
0.9444 0.1894 0.0000
0.9444 0.1944 0.0000
0.9444 0.1995 0.0000
0.9444 0.2045 0.0000
0.9444 0.2096 0.0000
0.9444 0.2146 0.0000
0.9444 0.2197 0.0000
0.9444 0.2247 0.0000
0.9444 0.2298 0.0000
0.9444 0.2348 0.0000
0.9444 0.2399 0.0000
0.9444 0.2449 0.0000
0.9444 0.2500 0.0000
0.9444 0.2551 0.0000
0.9444 0.2601 0.0000
0.9444 0.2652 0.0000
0.9444 0.2702 0.0000
0.9444 0.2753 0.0000
0.9444 0.2803 0.0000
0.9444 0.2854 0.0000
0.9444 0.2904 0.0000
0.9444 0.2955 0.0000
0.9444 0.3005 0.0000
0.9444 0.3056 0.0000
0.9444 0.3106 0.0000
0.9444 0.3157 0.0000
0.9444 0.3207 0.0000
0.9444 0.3258 0.0000
0.9444 0.3308 0.0000
0.9444 0.3359 0.0000
0.9444 0.3409 0.0000
0.9444 0.3460 0.0000
0.9444 0.3510 0.0000
0.9444 0.3561 0.0000
0.9444 0.3611 0.0000
0.9444 0.3662 0.0000
0.9444 0.3712 0.0000
0.9444 0.3763 0.0000
0.9444 0.3813 0.0000
0.9444 0.3864 0.0000
0.9444 0.3914 0.0000
0.9444 0.3965 0.0000
0.9444 0.4015 0.0000
0.9444 0.4066 0.0000
0.9444 0.4116 0.0000
0.9444 0.4167 0.0000
0.9444 0.4217 0.0000
0.9444 0.4268 0.0000
0.9444 0.4318 0.0000
0.9444 0.4369 0.0000
0.9444 0.4419 0.0000
0.9444 0.4470 0.0000
0.9444 0.4520 0.0000
0.9444 0.4571 0.0000
0.9444 0.4621 0.0000
0.9444 0.4672 0.0000
0.9444 0.4722 0.0000
0.9444 0.4773 0.0000
0.9444 0.4823 0.0000
0.9444 0.4874 0.0000
0.9444 0.4924 0.0000
0.9444 0.4975 0.0000
0.9545 0.0025 0.0000
0.9545 0.0076 0.0000
0.9545 0.0126 0.0000
0.9545 0.0177 0.0000
0.9545 0.0227 0.0000
0.9545 0.0278 0.0000
0.9545 0.0328 0.0000
0.9545 0.0379 0.0000
0.9545 0.0429 0.0000
0.9545 0.0480 0.0000
0.9545 0.0530 0.0000
0.9545 0.0581 0.0000
0.9545 0.0631 0.0000
0.9545 0.0682 0.0000
0.9545 0.0732 0.0000
0.9545 0.0783 0.0000
0.9545 0.0833 0.0000
0.9545 0.0884 0.0000
0.9545 0.0934 0.0000
0.9545 0.0985 0.0000
0.9545 0.1035 0.0000
0.9545 0.1086 0.0000
0.9545 0.1136 0.0000
0.9545 0.1187 0.0000
0.9545 0.1237 0.0000
0.9545 0.1288 0.0000
0.9545 0.1338 0.0000
0.9545 0.1389 0.0000
0.9545 0.1439 0.0000
0.9545 0.1490 0.0000
0.9545 0.1540 0.0000
0.9545 0.1591 0.0000
0.9545 0.1641 0.0000
0.9545 0.1692 0.0000
0.9545 0.1742 0.0000
0.9545 0.1793 0.0000
0.9545 0.1843 0.0000
0.9545 0.1894 0.0000
0.9545 0.1944 0.0000
0.9545 0.1995 0.0000
0.9545 0.2045 0.0000
0.9545 0.2096 0.0000
0.9545 0.2146 0.0000
0.9545 0.2197 0.0000
0.9545 0.2247 0.0000
0.9545 0.2298 0.0000
0.9545 0.2348 0.0000
0.9545 0.2399 0.0000
0.9545 0.2449 0.0000
0.9545 0.2500 0.0000
0.9545 0.2551 0.0000
0.9545 0.2601 0.0000
0.9545 0.2652 0.0000
0.9545 0.2702 0.0000
0.9545 0.2753 0.0000
0.9545 0.2803 0.0000
0.9545 0.2854 0.0000
0.9545 0.2904 0.0000
0.9545 0.2955 0.0000
0.9545 0.3005 0.0000
0.9545 0.3056 0.0000
0.9545 0.3106 0.0000
0.9545 0.3157 0.0000
0.9545 0.3207 0.0000
0.9545 0.3258 0.0000
0.9545 0.3308 0.0000
0.9545 0.3359 0.0000
0.9545 0.3409 0.0000
0.9545 0.3460 0.0000
0.9545 0.3510 0.0000
0.9545 0.3561 0.0000
0.9545 0.3611 0.0000
0.9545 0.3662 0.0000
0.9545 0.3712 0.0000
0.9545 0.3763 0.0000
0.9545 0.3813 0.0000
0.9545 0.3864 0.0000
0.9545 0.3914 0.0000
0.9545 0.3965 0.0000
0.9545 0.4015 0.0000
0.9545 0.4066 0.0000
0.9545 0.4116 0.0000
0.9545 0.4167 0.0000
0.9545 0.4217 0.0000
0.9545 0.4268 0.0000
0.9545 0.4318 0.0000
0.9545 0.4369 0.0000
0.9545 0.4419 0.0000
0.9545 0.4470 0.0000
0.9545 0.4520 0.0000
0.9545 0.4571 0.0000
0.9545 0.4621 0.0000
0.9545 0.4672 0.0000
0.9545 0.4722 0.0000
0.9545 0.4773 0.0000
0.9545 0.4823 0.0000
0.9545 0.4874 0.0000
0.9545 0.4924 0.0000
0.9545 0.4975 0.0000
0.9646 0.0025 0.0000
0.9646 0.0076 0.0000
0.9646 0.0126 0.0000
0.9646 0.0177 0.0000
0.9646 0.0227 0.0000
0.9646 0.0278 0.0000
0.9646 0.0328 0.0000
0.9646 0.0379 0.0000
0.9646 0.0429 0.0000
0.9646 0.0480 0.0000
0.9646 0.0530 0.0000
0.9646 0.0581 0.0000
0.9646 0.0631 0.0000
0.9646 0.0682 0.0000
0.9646 0.0732 0.0000
0.9646 0.0783 0.0000
0.9646 0.0833 0.0000
0.9646 0.0884 0.0000
0.9646 0.0934 0.0000
0.9646 0.0985 0.0000
0.9646 0.1035 0.0000
0.9646 0.1086 0.0000
0.9646 0.1136 0.0000
0.9646 0.1187 0.0000
0.9646 0.1237 0.0000
0.9646 0.1288 0.0000
0.9646 0.1338 0.0000
0.9646 0.1389 0.0000
0.9646 0.1439 0.0000
0.9646 0.1490 0.0000
0.9646 0.1540 0.0000
0.9646 0.1591 0.0000
0.9646 0.1641 0.0000
0.9646 0.1692 0.0000
0.9646 0.1742 0.0000
0.9646 0.1793 0.0000
0.9646 0.1843 0.0000
0.9646 0.1894 0.0000
0.9646 0.1944 0.0000
0.9646 0.1995 0.0000
0.9646 0.2045 0.0000
0.9646 0.2096 0.0000
0.9646 0.2146 0.0000
0.9646 0.2197 0.0000
0.9646 0.2247 0.0000
0.9646 0.2298 0.0000
0.9646 0.2348 0.0000
0.9646 0.2399 0.0000
0.9646 0.2449 0.0000
0.9646 0.2500 0.0000
0.9646 0.2551 0.0000
0.9646 0.2601 0.0000
0.9646 0.2652 0.0000
0.9646 0.2702 0.0000
0.9646 0.2753 0.0000
0.9646 0.2803 0.0000
0.9646 0.2854 0.0000
0.9646 0.2904 0.0000
0.9646 0.2955 0.0000
0.9646 0.3005 0.0000
0.9646 0.3056 0.0000
0.9646 0.3106 0.0000
0.9646 0.3157 0.0000
0.9646 0.3207 0.0000
0.9646 0.3258 0.0000
0.9646 0.3308 0.0000
0.9646 0.3359 0.0000
0.9646 0.3409 0.0000
0.9646 0.3460 0.0000
0.9646 0.3510 0.0000
0.9646 0.3561 0.0000
0.9646 0.3611 0.0000
0.9646 0.3662 0.0000
0.9646 0.3712 0.0000
0.9646 0.3763 0.0000
0.9646 0.3813 0.0000
0.9646 0.3864 0.0000
0.9646 0.3914 0.0000
0.9646 0.3965 0.0000
0.9646 0.4015 0.0000
0.9646 0.4066 0.0000
0.9646 0.4116 0.0000
0.9646 0.4167 0.0000
0.9646 0.4217 0.0000
0.9646 0.4268 0.0000
0.9646 0.4318 0.0000
0.9646 0.4369 0.0000
0.9646 0.4419 0.0000
0.9646 0.4470 0.0000
0.9646 0.4520 0.0000
0.9646 0.4571 0.0000
0.9646 0.4621 0.0000
0.9646 0.4672 0.0000
0.9646 0.4722 0.0000
0.9646 0.4773 0.0000
0.9646 0.4823 0.0000
0.9646 0.4874 0.0000
0.9646 0.4924 0.0000
0.9646 0.4975 0.0000
0.9747 0.0025 0.0000
0.9747 0.0076 0.0000
0.9747 0.0126 0.0000
0.9747 0.0177 0.0000
0.9747 0.0227 0.0000
0.9747 0.0278 0.0000
0.9747 0.0328 0.0000
0.9747 0.0379 0.0000
0.9747 0.0429 0.0000
0.9747 0.0480 0.0000
0.9747 0.0530 0.0000
0.9747 0.0581 0.0000
0.9747 0.0631 0.0000
0.9747 0.0682 0.0000
0.9747 0.0732 0.0000
0.9747 0.0783 0.0000
0.9747 0.0833 0.0000
0.9747 0.0884 0.0000
0.9747 0.0934 0.0000
0.9747 0.0985 0.0000
0.9747 0.1035 0.0000
0.9747 0.1086 0.0000
0.9747 0.1136 0.0000
0.9747 0.1187 0.0000
0.9747 0.1237 0.0000
0.9747 0.1288 0.0000
0.9747 0.1338 0.0000
0.9747 0.1389 0.0000
0.9747 0.1439 0.0000
0.9747 0.1490 0.0000
0.9747 0.1540 0.0000
0.9747 0.1591 0.0000
0.9747 0.1641 0.0000
0.9747 0.1692 0.0000
0.9747 0.1742 0.0000
0.9747 0.1793 0.0000
0.9747 0.1843 0.0000
0.9747 0.1894 0.0000
0.9747 0.1944 0.0000
0.9747 0.1995 0.0000
0.9747 0.2045 0.0000
0.9747 0.2096 0.0000
0.9747 0.2146 0.0000
0.9747 0.2197 0.0000
0.9747 0.2247 0.0000
0.9747 0.2298 0.0000
0.9747 0.2348 0.0000
0.9747 0.2399 0.0000
0.9747 0.2449 0.0000
0.9747 0.2500 0.0000
0.9747 0.2551 0.0000
0.9747 0.2601 0.0000
0.9747 0.2652 0.0000
0.9747 0.2702 0.0000
0.9747 0.2753 0.0000
0.9747 0.2803 0.0000
0.9747 0.2854 0.0000
0.9747 0.2904 0.0000
0.9747 0.2955 0.0000
0.9747 0.3005 0.0000
0.9747 0.3056 0.0000
0.9747 0.3106 0.0000
0.9747 0.3157 0.0000
0.9747 0.3207 0.0000
0.9747 0.3258 0.0000
0.9747 0.3308 0.0000
0.9747 0.3359 0.0000
0.9747 0.3409 0.0000
0.9747 0.3460 0.0000
0.9747 0.3510 0.0000
0.9747 0.3561 0.0000
0.9747 0.3611 0.0000
0.9747 0.3662 0.0000
0.9747 0.3712 0.0000
0.9747 0.3763 0.0000
0.9747 0.3813 0.0000
0.9747 0.3864 0.0000
0.9747 0.3914 0.0000
0.9747 0.3965 0.0000
0.9747 0.4015 0.0000
0.9747 0.4066 0.0000
0.9747 0.4116 0.0000
0.9747 0.4167 0.0000
0.9747 0.4217 0.0000
0.9747 0.4268 0.0000
0.9747 0.4318 0.0000
0.9747 0.4369 0.0000
0.9747 0.4419 0.0000
0.9747 0.4470 0.0000
0.9747 0.4520 0.0000
0.9747 0.4571 0.0000
0.9747 0.4621 0.0000
0.9747 0.4672 0.0000
0.9747 0.4722 0.0000
0.9747 0.4773 0.0000
0.9747 0.4823 0.0000
0.9747 0.4874 0.0000
0.9747 0.4924 0.0000
0.9747 0.4975 0.0000
0.9848 0.0025 0.0000
0.9848 0.0076 0.0000
0.9848 0.0126 0.0000
0.9848 0.0177 0.0000
0.9848 0.0227 0.0000
0.9848 0.0278 0.0000
0.9848 0.0328 0.0000
0.9848 0.0379 0.0000
0.9848 0.0429 0.0000
0.9848 0.0480 0.0000
0.9848 0.0530 0.0000
0.9848 0.0581 0.0000
0.9848 0.0631 0.0000
0.9848 0.0682 0.0000
0.9848 0.0732 0.0000
0.9848 0.0783 0.0000
0.9848 0.0833 0.0000
0.9848 0.0884 0.0000
0.9848 0.0934 0.0000
0.9848 0.0985 0.0000
0.9848 0.1035 0.0000
0.9848 0.1086 0.0000
0.9848 0.1136 0.0000
0.9848 0.1187 0.0000
0.9848 0.1237 0.0000
0.9848 0.1288 0.0000
0.9848 0.1338 0.0000
0.9848 0.1389 0.0000
0.9848 0.1439 0.0000
0.9848 0.1490 0.0000
0.9848 0.1540 0.0000
0.9848 0.1591 0.0000
0.9848 0.1641 0.0000
0.9848 0.1692 0.0000
0.9848 0.1742 0.0000
0.9848 0.1793 0.0000
0.9848 0.1843 0.0000
0.9848 0.1894 0.0000
0.9848 0.1944 0.0000
0.9848 0.1995 0.0000
0.9848 0.2045 0.0000
0.9848 0.2096 0.0000
0.9848 0.2146 0.0000
0.9848 0.2197 0.0000
0.9848 0.2247 0.0000
0.9848 0.2298 0.0000
0.9848 0.2348 0.0000
0.9848 0.2399 0.0000
0.9848 0.2449 0.0000
0.9848 0.2500 0.0000
0.9848 0.2551 0.0000
0.9848 0.2601 0.0000
0.9848 0.2652 0.0000
0.9848 0.2702 0.0000
0.9848 0.2753 0.0000
0.9848 0.2803 0.0000
0.9848 0.2854 0.0000
0.9848 0.2904 0.0000
0.9848 0.2955 0.0000
0.9848 0.3005 0.0000
0.9848 0.3056 0.0000
0.9848 0.3106 0.0000
0.9848 0.3157 0.0000
0.9848 0.3207 0.0000
0.9848 0.3258 0.0000
0.9848 0.3308 0.0000
0.9848 0.3359 0.0000
0.9848 0.3409 0.0000
0.9848 0.3460 0.0000
0.9848 0.3510 0.0000
0.9848 0.3561 0.0000
0.9848 0.3611 0.0000
0.9848 0.3662 0.0000
0.9848 0.3712 0.0000
0.9848 0.3763 0.0000
0.9848 0.3813 0.0000
0.9848 0.3864 0.0000
0.9848 0.3914 0.0000
0.9848 0.3965 0.0000
0.9848 0.4015 0.0000
0.9848 0.4066 0.0000
0.9848 0.4116 0.0000
0.9848 0.4167 0.0000
0.9848 0.4217 0.0000
0.9848 0.4268 0.0000
0.9848 0.4318 0.0000
0.9848 0.4369 0.0000
0.9848 0.4419 0.0000
0.9848 0.4470 0.0000
0.9848 0.4520 0.0000
0.9848 0.4571 0.0000
0.9848 0.4621 0.0000
0.9848 0.4672 0.0000
0.9848 0.4722 0.0000
0.9848 0.4773 0.0000
0.9848 0.4823 0.0000
0.9848 0.4874 0.0000
0.9848 0.4924 0.0000
0.9848 0.4975 0.0000
0.9949 0.0025 0.0000
0.9949 0.0076 0.0000
0.9949 0.0126 0.0000
0.9949 0.0177 0.0000
0.9949 0.0227 0.0000
0.9949 0.0278 0.0000
0.9949 0.0328 0.0000
0.9949 0.0379 0.0000
0.9949 0.0429 0.0000
0.9949 0.0480 0.0000
0.9949 0.0530 0.0000
0.9949 0.0581 0.0000
0.9949 0.0631 0.0000
0.9949 0.0682 0.0000
0.9949 0.0732 0.0000
0.9949 0.0783 0.0000
0.9949 0.0833 0.0000
0.9949 0.0884 0.0000
0.9949 0.0934 0.0000
0.9949 0.0985 0.0000
0.9949 0.1035 0.0000
0.9949 0.1086 0.0000
0.9949 0.1136 0.0000
0.9949 0.1187 0.0000
0.9949 0.1237 0.0000
0.9949 0.1288 0.0000
0.9949 0.1338 0.0000
0.9949 0.1389 0.0000
0.9949 0.1439 0.0000
0.9949 0.1490 0.0000
0.9949 0.1540 0.0000
0.9949 0.1591 0.0000
0.9949 0.1641 0.0000
0.9949 0.1692 0.0000
0.9949 0.1742 0.0000
0.9949 0.1793 0.0000
0.9949 0.1843 0.0000
0.9949 0.1894 0.0000
0.9949 0.1944 0.0000
0.9949 0.1995 0.0000
0.9949 0.2045 0.0000
0.9949 0.2096 0.0000
0.9949 0.2146 0.0000
0.9949 0.2197 0.0000
0.9949 0.2247 0.0000
0.9949 0.2298 0.0000
0.9949 0.2348 0.0000
0.9949 0.2399 0.0000
0.9949 0.2449 0.0000
0.9949 0.2500 0.0000
0.9949 0.2551 0.0000
0.9949 0.2601 0.0000
0.9949 0.2652 0.0000
0.9949 0.2702 0.0000
0.9949 0.2753 0.0000
0.9949 0.2803 0.0000
0.9949 0.2854 0.0000
0.9949 0.2904 0.0000
0.9949 0.2955 0.0000
0.9949 0.3005 0.0000
0.9949 0.3056 0.0000
0.9949 0.3106 0.0000
0.9949 0.3157 0.0000
0.9949 0.3207 0.0000
0.9949 0.3258 0.0000
0.9949 0.3308 0.0000
0.9949 0.3359 0.0000
0.9949 0.3409 0.0000
0.9949 0.3460 0.0000
0.9949 0.3510 0.0000
0.9949 0.3561 0.0000
0.9949 0.3611 0.0000
0.9949 0.3662 0.0000
0.9949 0.3712 0.0000
0.9949 0.3763 0.0000
0.9949 0.3813 0.0000
0.9949 0.3864 0.0000
0.9949 0.3914 0.0000
0.9949 0.3965 0.0000
0.9949 0.4015 0.0000
0.9949 0.4066 0.0000
0.9949 0.4116 0.0000
0.9949 0.4167 0.0000
0.9949 0.4217 0.0000
0.9949 0.4268 0.0000
0.9949 0.4318 0.0000
0.9949 0.4369 0.0000
0.9949 0.4419 0.0000
0.9949 0.4470 0.0000
0.9949 0.4520 0.0000
0.9949 0.4571 0.0000
0.9949 0.4621 0.0000
0.9949 0.4672 0.0000
0.9949 0.4722 0.0000
0.9949 0.4773 0.0000
0.9949 0.4823 0.0000
0.9949 0.4874 0.0000
0.9949 0.4924 0.0000
0.9949 0.4975 0.0000</DataArray>
         </Points>
         <Cells>
            <DataArray Name="connectivity" format="ascii" type="Int32">
 1 0 10000
 2 1 10001
 3 2 10002
 4 3 10003
 5 4 10004
 6 5 10005
 7 6 10006
 8 7 10007
 9 8 10008
 10 9 10009
 11 10 10010
 12 11 10011
 13 12 10012
 14 13 10013
 15 14 10014
 16 15 10015
 17 16 10016
 18 17 10017
 19 18 10018
 20 19 10019
 21 20 10020
 22 21 10021
 23 22 10022
 24 23 10023
 25 24 10024
 26 25 10025
 27 26 10026
 28 27 10027
 29 28 10028
 30 29 10029
 31 30 10030
 32 31 10031
 33 32 10032
 34 33 10033
 35 34 10034
 36 35 10035
 37 36 10036
 38 37 10037
 39 38 10038
 40 39 10039
 41 40 10040
 42 41 10041
 43 42 10042
 44 43 10043
 45 44 10044
 46 45 10045
 47 46 10046
 48 47 10047
 49 48 10048
 50 49 10049
 51 50 10050
 52 51 10051
 53 52 10052
 54 53 10053
 55 54 10054
 56 55 10055
 57 56 10056
 58 57 10057
 59 58 10058
 60 59 10059
 61 60 10060
 62 61 10061
 63 62 10062
 64 63 10063
 65 64 10064
 66 65 10065
 67 66 10066
 68 67 10067
 69 68 10068
 70 69 10069
 71 70 10070
 72 71 10071
 73 72 10072
 74 73 10073
 75 74 10074
 76 75 10075
 77 76 10076
 78 77 10077
 79 78 10078
 80 79 10079
 81 80 10080
 82 81 10081
 83 82 10082
 84 83 10083
 85 84 10084
 86 85 10085
 87 86 10086
 88 87 10087
 89 88 10088
 90 89 10089
 91 90 10090
 92 91 10091
 93 92 10092
 94 93 10093
 95 94 10094
 96 95 10095
 97 96 10096
 98 97 10097
 99 98 10098
 101 100 10099
 102 101 10100
 103 102 10101
 104 103 10102
 105 104 10103
 106 105 10104
 107 106 10105
 108 107 10106
 109 108 10107
 110 109 10108
 111 110 10109
 112 111 10110
 113 112 10111
 114 113 10112
 115 114 10113
 116 115 10114
 117 116 10115
 118 117 10116
 119 118 10117
 120 119 10118
 121 120 10119
 122 121 10120
 123 122 10121
 124 123 10122
 125 124 10123
 126 125 10124
 127 126 10125
 128 127 10126
 129 128 10127
 130 129 10128
 131 130 10129
 132 131 10130
 133 132 10131
 134 133 10132
 135 134 10133
 136 135 10134
 137 136 10135
 138 137 10136
 139 138 10137
 140 139 10138
 141 140 10139
 142 141 10140
 143 142 10141
 144 143 10142
 145 144 10143
 146 145 10144
 147 146 10145
 148 147 10146
 149 148 10147
 150 149 10148
 151 150 10149
 152 151 10150
 153 152 10151
 154 153 10152
 155 154 10153
 156 155 10154
 157 156 10155
 158 157 10156
 159 158 10157
 160 159 10158
 161 160 10159
 162 161 10160
 163 162 10161
 164 163 10162
 165 164 10163
 166 165 10164
 167 166 10165
 168 167 10166
 169 168 10167
 170 169 10168
 171 170 10169
 172 171 10170
 173 172 10171
 174 173 10172
 175 174 10173
 176 175 10174
 177 176 10175
 178 177 10176
 179 178 10177
 180 179 10178
 181 180 10179
 182 181 10180
 183 182 10181
 184 183 10182
 185 184 10183
 186 185 10184
 187 186 10185
 188 187 10186
 189 188 10187
 190 189 10188
 191 190 10189
 192 191 10190
 193 192 10191
 194 193 10192
 195 194 10193
 196 195 10194
 197 196 10195
 198 197 10196
 199 198 10197
 201 200 10198
 202 201 10199
 203 202 10200
 204 203 10201
 205 204 10202
 206 205 10203
 207 206 10204
 208 207 10205
 209 208 10206
 210 209 10207
 211 210 10208
 212 211 10209
 213 212 10210
 214 213 10211
 215 214 10212
 216 215 10213
 217 216 10214
 218 217 10215
 219 218 10216
 220 219 10217
 221 220 10218
 222 221 10219
 223 222 10220
 224 223 10221
 225 224 10222
 226 225 10223
 227 226 10224
 228 227 10225
 229 228 10226
 230 229 10227
 231 230 10228
 232 231 10229
 233 232 10230
 234 233 10231
 235 234 10232
 236 235 10233
 237 236 10234
 238 237 10235
 239 238 10236
 240 239 10237
 241 240 10238
 242 241 10239
 243 242 10240
 244 243 10241
 245 244 10242
 246 245 10243
 247 246 10244
 248 247 10245
 249 248 10246
 250 249 10247
 251 250 10248
 252 251 10249
 253 252 10250
 254 253 10251
 255 254 10252
 256 255 10253
 257 256 10254
 258 257 10255
 259 258 10256
 260 259 10257
 261 260 10258
 262 261 10259
 263 262 10260
 264 263 10261
 265 264 10262
 266 265 10263
 267 266 10264
 268 267 10265
 269 268 10266
 270 269 10267
 271 270 10268
 272 271 10269
 273 272 10270
 274 273 10271
 275 274 10272
 276 275 10273
 277 276 10274
 278 277 10275
 279 278 10276
 280 279 10277
 281 280 10278
 282 281 10279
 283 282 10280
 284 283 10281
 285 284 10282
 286 285 10283
 287 286 10284
 288 287 10285
 289 288 10286
 290 289 10287
 291 290 10288
 292 291 10289
 293 292 10290
 294 293 10291
 295 294 10292
 296 295 10293
 297 296 10294
 298 297 10295
 299 298 10296
 301 300 10297
 302 301 10298
 303 302 10299
 304 303 10300
 305 304 10301
 306 305 10302
 307 306 10303
 308 307 10304
 309 308 10305
 310 309 10306
 311 310 10307
 312 311 10308
 313 312 10309
 314 313 10310
 315 314 10311
 316 315 10312
 317 316 10313
 318 317 10314
 319 318 10315
 320 319 10316
 321 320 10317
 322 321 10318
 323 322 10319
 324 323 10320
 325 324 10321
 326 325 10322
 327 326 10323
 328 327 10324
 329 328 10325
 330 329 10326
 331 330 10327
 332 331 10328
 333 332 10329
 334 333 10330
 335 334 10331
 336 335 10332
 337 336 10333
 338 337 10334
 339 338 10335
 340 339 10336
 341 340 10337
 342 341 10338
 343 342 10339
 344 343 10340
 345 344 10341
 346 345 10342
 347 346 10343
 348 347 10344
 349 348 10345
 350 349 10346
 351 350 10347
 352 351 10348
 353 352 10349
 354 353 10350
 355 354 10351
 356 355 10352
 357 356 10353
 358 357 10354
 359 358 10355
 360 359 10356
 361 360 10357
 362 361 10358
 363 362 10359
 364 363 10360
 365 364 10361
 366 365 10362
 367 366 10363
 368 367 10364
 369 368 10365
 370 369 10366
 371 370 10367
 372 371 10368
 373 372 10369
 374 373 10370
 375 374 10371
 376 375 10372
 377 376 10373
 378 377 10374
 379 378 10375
 380 379 10376
 381 380 10377
 382 381 10378
 383 382 10379
 384 383 10380
 385 384 10381
 386 385 10382
 387 386 10383
 388 387 10384
 389 388 10385
 390 389 10386
 391 390 10387
 392 391 10388
 393 392 10389
 394 393 10390
 395 394 10391
 396 395 10392
 397 396 10393
 398 397 10394
 399 398 10395
 401 400 10396
 402 401 10397
 403 402 10398
 404 403 10399
 405 404 10400
 406 405 10401
 407 406 10402
 408 407 10403
 409 408 10404
 410 409 10405
 411 410 10406
 412 411 10407
 413 412 10408
 414 413 10409
 415 414 10410
 416 415 10411
 417 416 10412
 418 417 10413
 419 418 10414
 420 419 10415
 421 420 10416
 422 421 10417
 423 422 10418
 424 423 10419
 425 424 10420
 426 425 10421
 427 426 10422
 428 427 10423
 429 428 10424
 430 429 10425
 431 430 10426
 432 431 10427
 433 432 10428
 434 433 10429
 435 434 10430
 436 435 10431
 437 436 10432
 438 437 10433
 439 438 10434
 440 439 10435
 441 440 10436
 442 441 10437
 443 442 10438
 444 443 10439
 445 444 10440
 446 445 10441
 447 446 10442
 448 447 10443
 449 448 10444
 450 449 10445
 451 450 10446
 452 451 10447
 453 452 10448
 454 453 10449
 455 454 10450
 456 455 10451
 457 456 10452
 458 457 10453
 459 458 10454
 460 459 10455
 461 460 10456
 462 461 10457
 463 462 10458
 464 463 10459
 465 464 10460
 466 465 10461
 467 466 10462
 468 467 10463
 469 468 10464
 470 469 10465
 471 470 10466
 472 471 10467
 473 472 10468
 474 473 10469
 475 474 10470
 476 475 10471
 477 476 10472
 478 477 10473
 479 478 10474
 480 479 10475
 481 480 10476
 482 481 10477
 483 482 10478
 484 483 10479
 485 484 10480
 486 485 10481
 487 486 10482
 488 487 10483
 489 488 10484
 490 489 10485
 491 490 10486
 492 491 10487
 493 492 10488
 494 493 10489
 495 494 10490
 496 495 10491
 497 496 10492
 498 497 10493
 499 498 10494
 501 500 10495
 502 501 10496
 503 502 10497
 504 503 10498
 505 504 10499
 506 505 10500
 507 506 10501
 508 507 10502
 509 508 10503
 510 509 10504
 511 510 10505
 512 511 10506
 513 512 10507
 514 513 10508
 515 514 10509
 516 515 10510
 517 516 10511
 518 517 10512
 519 518 10513
 520 519 10514
 521 520 10515
 522 521 10516
 523 522 10517
 524 523 10518
 525 524 10519
 526 525 10520
 527 526 10521
 528 527 10522
 529 528 10523
 530 529 10524
 531 530 10525
 532 531 10526
 533 532 10527
 534 533 10528
 535 534 10529
 536 535 10530
 537 536 10531
 538 537 10532
 539 538 10533
 540 539 10534
 541 540 10535
 542 541 10536
 543 542 10537
 544 543 10538
 545 544 10539
 546 545 10540
 547 546 10541
 548 547 10542
 549 548 10543
 550 549 10544
 551 550 10545
 552 551 10546
 553 552 10547
 554 553 10548
 555 554 10549
 556 555 10550
 557 556 10551
 558 557 10552
 559 558 10553
 560 559 10554
 561 560 10555
 562 561 10556
 563 562 10557
 564 563 10558
 565 564 10559
 566 565 10560
 567 566 10561
 568 567 10562
 569 568 10563
 570 569 10564
 571 570 10565
 572 571 10566
 573 572 10567
 574 573 10568
 575 574 10569
 576 575 10570
 577 576 10571
 578 577 10572
 579 578 10573
 580 579 10574
 581 580 10575
 582 581 10576
 583 582 10577
 584 583 10578
 585 584 10579
 586 585 10580
 587 586 10581
 588 587 10582
 589 588 10583
 590 589 10584
 591 590 10585
 592 591 10586
 593 592 10587
 594 593 10588
 595 594 10589
 596 595 10590
 597 596 10591
 598 597 10592
 599 598 10593
 601 600 10594
 602 601 10595
 603 602 10596
 604 603 10597
 605 604 10598
 606 605 10599
 607 606 10600
 608 607 10601
 609 608 10602
 610 609 10603
 611 610 10604
 612 611 10605
 613 612 10606
 614 613 10607
 615 614 10608
 616 615 10609
 617 616 10610
 618 617 10611
 619 618 10612
 620 619 10613
 621 620 10614
 622 621 10615
 623 622 10616
 624 623 10617
 625 624 10618
 626 625 10619
 627 626 10620
 628 627 10621
 629 628 10622
 630 629 10623
 631 630 10624
 632 631 10625
 633 632 10626
 634 633 10627
 635 634 10628
 636 635 10629
 637 636 10630
 638 637 10631
 639 638 10632
 640 639 10633
 641 640 10634
 642 641 10635
 643 642 10636
 644 643 10637
 645 644 10638
 646 645 10639
 647 646 10640
 648 647 10641
 649 648 10642
 650 649 10643
 651 650 10644
 652 651 10645
 653 652 10646
 654 653 10647
 655 654 10648
 656 655 10649
 657 656 10650
 658 657 10651
 659 658 10652
 660 659 10653
 661 660 10654
 662 661 10655
 663 662 10656
 664 663 10657
 665 664 10658
 666 665 10659
 667 666 10660
 668 667 10661
 669 668 10662
 670 669 10663
 671 670 10664
 672 671 10665
 673 672 10666
 674 673 10667
 675 674 10668
 676 675 10669
 677 676 10670
 678 677 10671
 679 678 10672
 680 679 10673
 681 680 10674
 682 681 10675
 683 682 10676
 684 683 10677
 685 684 10678
 686 685 10679
 687 686 10680
 688 687 10681
 689 688 10682
 690 689 10683
 691 690 10684
 692 691 10685
 693 692 10686
 694 693 10687
 695 694 10688
 696 695 10689
 697 696 10690
 698 697 10691
 699 698 10692
 701 700 10693
 702 701 10694
 703 702 10695
 704 703 10696
 705 704 10697
 706 705 10698
 707 706 10699
 708 707 10700
 709 708 10701
 710 709 10702
 711 710 10703
 712 711 10704
 713 712 10705
 714 713 10706
 715 714 10707
 716 715 10708
 717 716 10709
 718 717 10710
 719 718 10711
 720 719 10712
 721 720 10713
 722 721 10714
 723 722 10715
 724 723 10716
 725 724 10717
 726 725 10718
 727 726 10719
 728 727 10720
 729 728 10721
 730 729 10722
 731 730 10723
 732 731 10724
 733 732 10725
 734 733 10726
 735 734 10727
 736 735 10728
 737 736 10729
 738 737 10730
 739 738 10731
 740 739 10732
 741 740 10733
 742 741 10734
 743 742 10735
 744 743 10736
 745 744 10737
 746 745 10738
 747 746 10739
 748 747 10740
 749 748 10741
 750 749 10742
 751 750 10743
 752 751 10744
 753 752 10745
 754 753 10746
 755 754 10747
 756 755 10748
 757 756 10749
 758 757 10750
 759 758 10751
 760 759 10752
 761 760 10753
 762 761 10754
 763 762 10755
 764 763 10756
 765 764 10757
 766 765 10758
 767 766 10759
 768 767 10760
 769 768 10761
 770 769 10762
 771 770 10763
 772 771 10764
 773 772 10765
 774 773 10766
 775 774 10767
 776 775 10768
 777 776 10769
 778 777 10770
 779 778 10771
 780 779 10772
 781 780 10773
 782 781 10774
 783 782 10775
 784 783 10776
 785 784 10777
 786 785 10778
 787 786 10779
 788 787 10780
 789 788 10781
 790 789 10782
 791 790 10783
 792 791 10784
 793 792 10785
 794 793 10786
 795 794 10787
 796 795 10788
 797 796 10789
 798 797 10790
 799 798 10791
 801 800 10792
 802 801 10793
 803 802 10794
 804 803 10795
 805 804 10796
 806 805 10797
 807 806 10798
 808 807 10799
 809 808 10800
 810 809 10801
 811 810 10802
 812 811 10803
 813 812 10804
 814 813 10805
 815 814 10806
 816 815 10807
 817 816 10808
 818 817 10809
 819 818 10810
 820 819 10811
 821 820 10812
 822 821 10813
 823 822 10814
 824 823 10815
 825 824 10816
 826 825 10817
 827 826 10818
 828 827 10819
 829 828 10820
 830 829 10821
 831 830 10822
 832 831 10823
 833 832 10824
 834 833 10825
 835 834 10826
 836 835 10827
 837 836 10828
 838 837 10829
 839 838 10830
 840 839 10831
 841 840 10832
 842 841 10833
 843 842 10834
 844 843 10835
 845 844 10836
 846 845 10837
 847 846 10838
 848 847 10839
 849 848 10840
 850 849 10841
 851 850 10842
 852 851 10843
 853 852 10844
 854 853 10845
 855 854 10846
 856 855 10847
 857 856 10848
 858 857 10849
 859 858 10850
 860 859 10851
 861 860 10852
 862 861 10853
 863 862 10854
 864 863 10855
 865 864 10856
 866 865 10857
 867 866 10858
 868 867 10859
 869 868 10860
 870 869 10861
 871 870 10862
 872 871 10863
 873 872 10864
 874 873 10865
 875 874 10866
 876 875 10867
 877 876 10868
 878 877 10869
 879 878 10870
 880 879 10871
 881 880 10872
 882 881 10873
 883 882 10874
 884 883 10875
 885 884 10876
 886 885 10877
 887 886 10878
 888 887 10879
 889 888 10880
 890 889 10881
 891 890 10882
 892 891 10883
 893 892 10884
 894 893 10885
 895 894 10886
 896 895 10887
 897 896 10888
 898 897 10889
 899 898 10890
 901 900 10891
 902 901 10892
 903 902 10893
 904 903 10894
 905 904 10895
 906 905 10896
 907 906 10897
 908 907 10898
 909 908 10899
 910 909 10900
 911 910 10901
 912 911 10902
 913 912 10903
 914 913 10904
 915 914 10905
 916 915 10906
 917 916 10907
 918 917 10908
 919 918 10909
 920 919 10910
 921 920 10911
 922 921 10912
 923 922 10913
 924 923 10914
 925 924 10915
 926 925 10916
 927 926 10917
 928 927 10918
 929 928 10919
 930 929 10920
 931 930 10921
 932 931 10922
 933 932 10923
 934 933 10924
 935 934 10925
 936 935 10926
 937 936 10927
 938 937 10928
 939 938 10929
 940 939 10930
 941 940 10931
 942 941 10932
 943 942 10933
 944 943 10934
 945 944 10935
 946 945 10936
 947 946 10937
 948 947 10938
 949 948 10939
 950 949 10940
 951 950 10941
 952 951 10942
 953 952 10943
 954 953 10944
 955 954 10945
 956 955 10946
 957 956 10947
 958 957 10948
 959 958 10949
 960 959 10950
 961 960 10951
 962 961 10952
 963 962 10953
 964 963 10954
 965 964 10955
 966 965 10956
 967 966 10957
 968 967 10958
 969 968 10959
 970 969 10960
 971 970 10961
 972 971 10962
 973 972 10963
 974 973 10964
 975 974 10965
 976 975 10966
 977 976 10967
 978 977 10968
 979 978 10969
 980 979 10970
 981 980 10971
 982 981 10972
 983 982 10973
 984 983 10974
 985 984 10975
 986 985 10976
 987 986 10977
 988 987 10978
 989 988 10979
 990 989 10980
 991 990 10981
 992 991 10982
 993 992 10983
 994 993 10984
 995 994 10985
 996 995 10986
 997 996 10987
 998 997 10988
 999 998 10989
 1001 1000 10990
 1002 1001 10991
 1003 1002 10992
 1004 1003 10993
 1005 1004 10994
 1006 1005 10995
 1007 1006 10996
 1008 1007 10997
 1009 1008 10998
 1010 1009 10999
 1011 1010 11000
 1012 1011 11001
 1013 1012 11002
 1014 1013 11003
 1015 1014 11004
 1016 1015 11005
 1017 1016 11006
 1018 1017 11007
 1019 1018 11008
 1020 1019 11009
 1021 1020 11010
 1022 1021 11011
 1023 1022 11012
 1024 1023 11013
 1025 1024 11014
 1026 1025 11015
 1027 1026 11016
 1028 1027 11017
 1029 1028 11018
 1030 1029 11019
 1031 1030 11020
 1032 1031 11021
 1033 1032 11022
 1034 1033 11023
 1035 1034 11024
 1036 1035 11025
 1037 1036 11026
 1038 1037 11027
 1039 1038 11028
 1040 1039 11029
 1041 1040 11030
 1042 1041 11031
 1043 1042 11032
 1044 1043 11033
 1045 1044 11034
 1046 1045 11035
 1047 1046 11036
 1048 1047 11037
 1049 1048 11038
 1050 1049 11039
 1051 1050 11040
 1052 1051 11041
 1053 1052 11042
 1054 1053 11043
 1055 1054 11044
 1056 1055 11045
 1057 1056 11046
 1058 1057 11047
 1059 1058 11048
 1060 1059 11049
 1061 1060 11050
 1062 1061 11051
 1063 1062 11052
 1064 1063 11053
 1065 1064 11054
 1066 1065 11055
 1067 1066 11056
 1068 1067 11057
 1069 1068 11058
 1070 1069 11059
 1071 1070 11060
 1072 1071 11061
 1073 1072 11062
 1074 1073 11063
 1075 1074 11064
 1076 1075 11065
 1077 1076 11066
 1078 1077 11067
 1079 1078 11068
 1080 1079 11069
 1081 1080 11070
 1082 1081 11071
 1083 1082 11072
 1084 1083 11073
 1085 1084 11074
 1086 1085 11075
 1087 1086 11076
 1088 1087 11077
 1089 1088 11078
 1090 1089 11079
 1091 1090 11080
 1092 1091 11081
 1093 1092 11082
 1094 1093 11083
 1095 1094 11084
 1096 1095 11085
 1097 1096 11086
 1098 1097 11087
 1099 1098 11088
 1101 1100 11089
 1102 1101 11090
 1103 1102 11091
 1104 1103 11092
 1105 1104 11093
 1106 1105 11094
 1107 1106 11095
 1108 1107 11096
 1109 1108 11097
 1110 1109 11098
 1111 1110 11099
 1112 1111 11100
 1113 1112 11101
 1114 1113 11102
 1115 1114 11103
 1116 1115 11104
 1117 1116 11105
 1118 1117 11106
 1119 1118 11107
 1120 1119 11108
 1121 1120 11109
 1122 1121 11110
 1123 1122 11111
 1124 1123 11112
 1125 1124 11113
 1126 1125 11114
 1127 1126 11115
 1128 1127 11116
 1129 1128 11117
 1130 1129 11118
 1131 1130 11119
 1132 1131 11120
 1133 1132 11121
 1134 1133 11122
 1135 1134 11123
 1136 1135 11124
 1137 1136 11125
 1138 1137 11126
 1139 1138 11127
 1140 1139 11128
 1141 1140 11129
 1142 1141 11130
 1143 1142 11131
 1144 1143 11132
 1145 1144 11133
 1146 1145 11134
 1147 1146 11135
 1148 1147 11136
 1149 1148 11137
 1150 1149 11138
 1151 1150 11139
 1152 1151 11140
 1153 1152 11141
 1154 1153 11142
 1155 1154 11143
 1156 1155 11144
 1157 1156 11145
 1158 1157 11146
 1159 1158 11147
 1160 1159 11148
 1161 1160 11149
 1162 1161 11150
 1163 1162 11151
 1164 1163 11152
 1165 1164 11153
 1166 1165 11154
 1167 1166 11155
 1168 1167 11156
 1169 1168 11157
 1170 1169 11158
 1171 1170 11159
 1172 1171 11160
 1173 1172 11161
 1174 1173 11162
 1175 1174 11163
 1176 1175 11164
 1177 1176 11165
 1178 1177 11166
 1179 1178 11167
 1180 1179 11168
 1181 1180 11169
 1182 1181 11170
 1183 1182 11171
 1184 1183 11172
 1185 1184 11173
 1186 1185 11174
 1187 1186 11175
 1188 1187 11176
 1189 1188 11177
 1190 1189 11178
 1191 1190 11179
 1192 1191 11180
 1193 1192 11181
 1194 1193 11182
 1195 1194 11183
 1196 1195 11184
 1197 1196 11185
 1198 1197 11186
 1199 1198 11187
 1201 1200 11188
 1202 1201 11189
 1203 1202 11190
 1204 1203 11191
 1205 1204 11192
 1206 1205 11193
 1207 1206 11194
 1208 1207 11195
 1209 1208 11196
 1210 1209 11197
 1211 1210 11198
 1212 1211 11199
 1213 1212 11200
 1214 1213 11201
 1215 1214 11202
 1216 1215 11203
 1217 1216 11204
 1218 1217 11205
 1219 1218 11206
 1220 1219 11207
 1221 1220 11208
 1222 1221 11209
 1223 1222 11210
 1224 1223 11211
 1225 1224 11212
 1226 1225 11213
 1227 1226 11214
 1228 1227 11215
 1229 1228 11216
 1230 1229 11217
 1231 1230 11218
 1232 1231 11219
 1233 1232 11220
 1234 1233 11221
 1235 1234 11222
 1236 1235 11223
 1237 1236 11224
 1238 1237 11225
 1239 1238 11226
 1240 1239 11227
 1241 1240 11228
 1242 1241 11229
 1243 1242 11230
 1244 1243 11231
 1245 1244 11232
 1246 1245 11233
 1247 1246 11234
 1248 1247 11235
 1249 1248 11236
 1250 1249 11237
 1251 1250 11238
 1252 1251 11239
 1253 1252 11240
 1254 1253 11241
 1255 1254 11242
 1256 1255 11243
 1257 1256 11244
 1258 1257 11245
 1259 1258 11246
 1260 1259 11247
 1261 1260 11248
 1262 1261 11249
 1263 1262 11250
 1264 1263 11251
 1265 1264 11252
 1266 1265 11253
 1267 1266 11254
 1268 1267 11255
 1269 1268 11256
 1270 1269 11257
 1271 1270 11258
 1272 1271 11259
 1273 1272 11260
 1274 1273 11261
 1275 1274 11262
 1276 1275 11263
 1277 1276 11264
 1278 1277 11265
 1279 1278 11266
 1280 1279 11267
 1281 1280 11268
 1282 1281 11269
 1283 1282 11270
 1284 1283 11271
 1285 1284 11272
 1286 1285 11273
 1287 1286 11274
 1288 1287 11275
 1289 1288 11276
 1290 1289 11277
 1291 1290 11278
 1292 1291 11279
 1293 1292 11280
 1294 1293 11281
 1295 1294 11282
 1296 1295 11283
 1297 1296 11284
 1298 1297 11285
 1299 1298 11286
 1301 1300 11287
 1302 1301 11288
 1303 1302 11289
 1304 1303 11290
 1305 1304 11291
 1306 1305 11292
 1307 1306 11293
 1308 1307 11294
 1309 1308 11295
 1310 1309 11296
 1311 1310 11297
 1312 1311 11298
 1313 1312 11299
 1314 1313 11300
 1315 1314 11301
 1316 1315 11302
 1317 1316 11303
 1318 1317 11304
 1319 1318 11305
 1320 1319 11306
 1321 1320 11307
 1322 1321 11308
 1323 1322 11309
 1324 1323 11310
 1325 1324 11311
 1326 1325 11312
 1327 1326 11313
 1328 1327 11314
 1329 1328 11315
 1330 1329 11316
 1331 1330 11317
 1332 1331 11318
 1333 1332 11319
 1334 1333 11320
 1335 1334 11321
 1336 1335 11322
 1337 1336 11323
 1338 1337 11324
 1339 1338 11325
 1340 1339 11326
 1341 1340 11327
 1342 1341 11328
 1343 1342 11329
 1344 1343 11330
 1345 1344 11331
 1346 1345 11332
 1347 1346 11333
 1348 1347 11334
 1349 1348 11335
 1350 1349 11336
 1351 1350 11337
 1352 1351 11338
 1353 1352 11339
 1354 1353 11340
 1355 1354 11341
 1356 1355 11342
 1357 1356 11343
 1358 1357 11344
 1359 1358 11345
 1360 1359 11346
 1361 1360 11347
 1362 1361 11348
 1363 1362 11349
 1364 1363 11350
 1365 1364 11351
 1366 1365 11352
 1367 1366 11353
 1368 1367 11354
 1369 1368 11355
 1370 1369 11356
 1371 1370 11357
 1372 1371 11358
 1373 1372 11359
 1374 1373 11360
 1375 1374 11361
 1376 1375 11362
 1377 1376 11363
 1378 1377 11364
 1379 1378 11365
 1380 1379 11366
 1381 1380 11367
 1382 1381 11368
 1383 1382 11369
 1384 1383 11370
 1385 1384 11371
 1386 1385 11372
 1387 1386 11373
 1388 1387 11374
 1389 1388 11375
 1390 1389 11376
 1391 1390 11377
 1392 1391 11378
 1393 1392 11379
 1394 1393 11380
 1395 1394 11381
 1396 1395 11382
 1397 1396 11383
 1398 1397 11384
 1399 1398 11385
 1401 1400 11386
 1402 1401 11387
 1403 1402 11388
 1404 1403 11389
 1405 1404 11390
 1406 1405 11391
 1407 1406 11392
 1408 1407 11393
 1409 1408 11394
 1410 1409 11395
 1411 1410 11396
 1412 1411 11397
 1413 1412 11398
 1414 1413 11399
 1415 1414 11400
 1416 1415 11401
 1417 1416 11402
 1418 1417 11403
 1419 1418 11404
 1420 1419 11405
 1421 1420 11406
 1422 1421 11407
 1423 1422 11408
 1424 1423 11409
 1425 1424 11410
 1426 1425 11411
 1427 1426 11412
 1428 1427 11413
 1429 1428 11414
 1430 1429 11415
 1431 1430 11416
 1432 1431 11417
 1433 1432 11418
 1434 1433 11419
 1435 1434 11420
 1436 1435 11421
 1437 1436 11422
 1438 1437 11423
 1439 1438 11424
 1440 1439 11425
 1441 1440 11426
 1442 1441 11427
 1443 1442 11428
 1444 1443 11429
 1445 1444 11430
 1446 1445 11431
 1447 1446 11432
 1448 1447 11433
 1449 1448 11434
 1450 1449 11435
 1451 1450 11436
 1452 1451 11437
 1453 1452 11438
 1454 1453 11439
 1455 1454 11440
 1456 1455 11441
 1457 1456 11442
 1458 1457 11443
 1459 1458 11444
 1460 1459 11445
 1461 1460 11446
 1462 1461 11447
 1463 1462 11448
 1464 1463 11449
 1465 1464 11450
 1466 1465 11451
 1467 1466 11452
 1468 1467 11453
 1469 1468 11454
 1470 1469 11455
 1471 1470 11456
 1472 1471 11457
 1473 1472 11458
 1474 1473 11459
 1475 1474 11460
 1476 1475 11461
 1477 1476 11462
 1478 1477 11463
 1479 1478 11464
 1480 1479 11465
 1481 1480 11466
 1482 1481 11467
 1483 1482 11468
 1484 1483 11469
 1485 1484 11470
 1486 1485 11471
 1487 1486 11472
 1488 1487 11473
 1489 1488 11474
 1490 1489 11475
 1491 1490 11476
 1492 1491 11477
 1493 1492 11478
 1494 1493 11479
 1495 1494 11480
 1496 1495 11481
 1497 1496 11482
 1498 1497 11483
 1499 1498 11484
 1501 1500 11485
 1502 1501 11486
 1503 1502 11487
 1504 1503 11488
 1505 1504 11489
 1506 1505 11490
 1507 1506 11491
 1508 1507 11492
 1509 1508 11493
 1510 1509 11494
 1511 1510 11495
 1512 1511 11496
 1513 1512 11497
 1514 1513 11498
 1515 1514 11499
 1516 1515 11500
 1517 1516 11501
 1518 1517 11502
 1519 1518 11503
 1520 1519 11504
 1521 1520 11505
 1522 1521 11506
 1523 1522 11507
 1524 1523 11508
 1525 1524 11509
 1526 1525 11510
 1527 1526 11511
 1528 1527 11512
 1529 1528 11513
 1530 1529 11514
 1531 1530 11515
 1532 1531 11516
 1533 1532 11517
 1534 1533 11518
 1535 1534 11519
 1536 1535 11520
 1537 1536 11521
 1538 1537 11522
 1539 1538 11523
 1540 1539 11524
 1541 1540 11525
 1542 1541 11526
 1543 1542 11527
 1544 1543 11528
 1545 1544 11529
 1546 1545 11530
 1547 1546 11531
 1548 1547 11532
 1549 1548 11533
 1550 1549 11534
 1551 1550 11535
 1552 1551 11536
 1553 1552 11537
 1554 1553 11538
 1555 1554 11539
 1556 1555 11540
 1557 1556 11541
 1558 1557 11542
 1559 1558 11543
 1560 1559 11544
 1561 1560 11545
 1562 1561 11546
 1563 1562 11547
 1564 1563 11548
 1565 1564 11549
 1566 1565 11550
 1567 1566 11551
 1568 1567 11552
 1569 1568 11553
 1570 1569 11554
 1571 1570 11555
 1572 1571 11556
 1573 1572 11557
 1574 1573 11558
 1575 1574 11559
 1576 1575 11560
 1577 1576 11561
 1578 1577 11562
 1579 1578 11563
 1580 1579 11564
 1581 1580 11565
 1582 1581 11566
 1583 1582 11567
 1584 1583 11568
 1585 1584 11569
 1586 1585 11570
 1587 1586 11571
 1588 1587 11572
 1589 1588 11573
 1590 1589 11574
 1591 1590 11575
 1592 1591 11576
 1593 1592 11577
 1594 1593 11578
 1595 1594 11579
 1596 1595 11580
 1597 1596 11581
 1598 1597 11582
 1599 1598 11583
 1601 1600 11584
 1602 1601 11585
 1603 1602 11586
 1604 1603 11587
 1605 1604 11588
 1606 1605 11589
 1607 1606 11590
 1608 1607 11591
 1609 1608 11592
 1610 1609 11593
 1611 1610 11594
 1612 1611 11595
 1613 1612 11596
 1614 1613 11597
 1615 1614 11598
 1616 1615 11599
 1617 1616 11600
 1618 1617 11601
 1619 1618 11602
 1620 1619 11603
 1621 1620 11604
 1622 1621 11605
 1623 1622 11606
 1624 1623 11607
 1625 1624 11608
 1626 1625 11609
 1627 1626 11610
 1628 1627 11611
 1629 1628 11612
 1630 1629 11613
 1631 1630 11614
 1632 1631 11615
 1633 1632 11616
 1634 1633 11617
 1635 1634 11618
 1636 1635 11619
 1637 1636 11620
 1638 1637 11621
 1639 1638 11622
 1640 1639 11623
 1641 1640 11624
 1642 1641 11625
 1643 1642 11626
 1644 1643 11627
 1645 1644 11628
 1646 1645 11629
 1647 1646 11630
 1648 1647 11631
 1649 1648 11632
 1650 1649 11633
 1651 1650 11634
 1652 1651 11635
 1653 1652 11636
 1654 1653 11637
 1655 1654 11638
 1656 1655 11639
 1657 1656 11640
 1658 1657 11641
 1659 1658 11642
 1660 1659 11643
 1661 1660 11644
 1662 1661 11645
 1663 1662 11646
 1664 1663 11647
 1665 1664 11648
 1666 1665 11649
 1667 1666 11650
 1668 1667 11651
 1669 1668 11652
 1670 1669 11653
 1671 1670 11654
 1672 1671 11655
 1673 1672 11656
 1674 1673 11657
 1675 1674 11658
 1676 1675 11659
 1677 1676 11660
 1678 1677 11661
 1679 1678 11662
 1680 1679 11663
 1681 1680 11664
 1682 1681 11665
 1683 1682 11666
 1684 1683 11667
 1685 1684 11668
 1686 1685 11669
 1687 1686 11670
 1688 1687 11671
 1689 1688 11672
 1690 1689 11673
 1691 1690 11674
 1692 1691 11675
 1693 1692 11676
 1694 1693 11677
 1695 1694 11678
 1696 1695 11679
 1697 1696 11680
 1698 1697 11681
 1699 1698 11682
 1701 1700 11683
 1702 1701 11684
 1703 1702 11685
 1704 1703 11686
 1705 1704 11687
 1706 1705 11688
 1707 1706 11689
 1708 1707 11690
 1709 1708 11691
 1710 1709 11692
 1711 1710 11693
 1712 1711 11694
 1713 1712 11695
 1714 1713 11696
 1715 1714 11697
 1716 1715 11698
 1717 1716 11699
 1718 1717 11700
 1719 1718 11701
 1720 1719 11702
 1721 1720 11703
 1722 1721 11704
 1723 1722 11705
 1724 1723 11706
 1725 1724 11707
 1726 1725 11708
 1727 1726 11709
 1728 1727 11710
 1729 1728 11711
 1730 1729 11712
 1731 1730 11713
 1732 1731 11714
 1733 1732 11715
 1734 1733 11716
 1735 1734 11717
 1736 1735 11718
 1737 1736 11719
 1738 1737 11720
 1739 1738 11721
 1740 1739 11722
 1741 1740 11723
 1742 1741 11724
 1743 1742 11725
 1744 1743 11726
 1745 1744 11727
 1746 1745 11728
 1747 1746 11729
 1748 1747 11730
 1749 1748 11731
 1750 1749 11732
 1751 1750 11733
 1752 1751 11734
 1753 1752 11735
 1754 1753 11736
 1755 1754 11737
 1756 1755 11738
 1757 1756 11739
 1758 1757 11740
 1759 1758 11741
 1760 1759 11742
 1761 1760 11743
 1762 1761 11744
 1763 1762 11745
 1764 1763 11746
 1765 1764 11747
 1766 1765 11748
 1767 1766 11749
 1768 1767 11750
 1769 1768 11751
 1770 1769 11752
 1771 1770 11753
 1772 1771 11754
 1773 1772 11755
 1774 1773 11756
 1775 1774 11757
 1776 1775 11758
 1777 1776 11759
 1778 1777 11760
 1779 1778 11761
 1780 1779 11762
 1781 1780 11763
 1782 1781 11764
 1783 1782 11765
 1784 1783 11766
 1785 1784 11767
 1786 1785 11768
 1787 1786 11769
 1788 1787 11770
 1789 1788 11771
 1790 1789 11772
 1791 1790 11773
 1792 1791 11774
 1793 1792 11775
 1794 1793 11776
 1795 1794 11777
 1796 1795 11778
 1797 1796 11779
 1798 1797 11780
 1799 1798 11781
 1801 1800 11782
 1802 1801 11783
 1803 1802 11784
 1804 1803 11785
 1805 1804 11786
 1806 1805 11787
 1807 1806 11788
 1808 1807 11789
 1809 1808 11790
 1810 1809 11791
 1811 1810 11792
 1812 1811 11793
 1813 1812 11794
 1814 1813 11795
 1815 1814 11796
 1816 1815 11797
 1817 1816 11798
 1818 1817 11799
 1819 1818 11800
 1820 1819 11801
 1821 1820 11802
 1822 1821 11803
 1823 1822 11804
 1824 1823 11805
 1825 1824 11806
 1826 1825 11807
 1827 1826 11808
 1828 1827 11809
 1829 1828 11810
 1830 1829 11811
 1831 1830 11812
 1832 1831 11813
 1833 1832 11814
 1834 1833 11815
 1835 1834 11816
 1836 1835 11817
 1837 1836 11818
 1838 1837 11819
 1839 1838 11820
 1840 1839 11821
 1841 1840 11822
 1842 1841 11823
 1843 1842 11824
 1844 1843 11825
 1845 1844 11826
 1846 1845 11827
 1847 1846 11828
 1848 1847 11829
 1849 1848 11830
 1850 1849 11831
 1851 1850 11832
 1852 1851 11833
 1853 1852 11834
 1854 1853 11835
 1855 1854 11836
 1856 1855 11837
 1857 1856 11838
 1858 1857 11839
 1859 1858 11840
 1860 1859 11841
 1861 1860 11842
 1862 1861 11843
 1863 1862 11844
 1864 1863 11845
 1865 1864 11846
 1866 1865 11847
 1867 1866 11848
 1868 1867 11849
 1869 1868 11850
 1870 1869 11851
 1871 1870 11852
 1872 1871 11853
 1873 1872 11854
 1874 1873 11855
 1875 1874 11856
 1876 1875 11857
 1877 1876 11858
 1878 1877 11859
 1879 1878 11860
 1880 1879 11861
 1881 1880 11862
 1882 1881 11863
 1883 1882 11864
 1884 1883 11865
 1885 1884 11866
 1886 1885 11867
 1887 1886 11868
 1888 1887 11869
 1889 1888 11870
 1890 1889 11871
 1891 1890 11872
 1892 1891 11873
 1893 1892 11874
 1894 1893 11875
 1895 1894 11876
 1896 1895 11877
 1897 1896 11878
 1898 1897 11879
 1899 1898 11880
 1901 1900 11881
 1902 1901 11882
 1903 1902 11883
 1904 1903 11884
 1905 1904 11885
 1906 1905 11886
 1907 1906 11887
 1908 1907 11888
 1909 1908 11889
 1910 1909 11890
 1911 1910 11891
 1912 1911 11892
 1913 1912 11893
 1914 1913 11894
 1915 1914 11895
 1916 1915 11896
 1917 1916 11897
 1918 1917 11898
 1919 1918 11899
 1920 1919 11900
 1921 1920 11901
 1922 1921 11902
 1923 1922 11903
 1924 1923 11904
 1925 1924 11905
 1926 1925 11906
 1927 1926 11907
 1928 1927 11908
 1929 1928 11909
 1930 1929 11910
 1931 1930 11911
 1932 1931 11912
 1933 1932 11913
 1934 1933 11914
 1935 1934 11915
 1936 1935 11916
 1937 1936 11917
 1938 1937 11918
 1939 1938 11919
 1940 1939 11920
 1941 1940 11921
 1942 1941 11922
 1943 1942 11923
 1944 1943 11924
 1945 1944 11925
 1946 1945 11926
 1947 1946 11927
 1948 1947 11928
 1949 1948 11929
 1950 1949 11930
 1951 1950 11931
 1952 1951 11932
 1953 1952 11933
 1954 1953 11934
 1955 1954 11935
 1956 1955 11936
 1957 1956 11937
 1958 1957 11938
 1959 1958 11939
 1960 1959 11940
 1961 1960 11941
 1962 1961 11942
 1963 1962 11943
 1964 1963 11944
 1965 1964 11945
 1966 1965 11946
 1967 1966 11947
 1968 1967 11948
 1969 1968 11949
 1970 1969 11950
 1971 1970 11951
 1972 1971 11952
 1973 1972 11953
 1974 1973 11954
 1975 1974 11955
 1976 1975 11956
 1977 1976 11957
 1978 1977 11958
 1979 1978 11959
 1980 1979 11960
 1981 1980 11961
 1982 1981 11962
 1983 1982 11963
 1984 1983 11964
 1985 1984 11965
 1986 1985 11966
 1987 1986 11967
 1988 1987 11968
 1989 1988 11969
 1990 1989 11970
 1991 1990 11971
 1992 1991 11972
 1993 1992 11973
 1994 1993 11974
 1995 1994 11975
 1996 1995 11976
 1997 1996 11977
 1998 1997 11978
 1999 1998 11979
 2001 2000 11980
 2002 2001 11981
 2003 2002 11982
 2004 2003 11983
 2005 2004 11984
 2006 2005 11985
 2007 2006 11986
 2008 2007 11987
 2009 2008 11988
 2010 2009 11989
 2011 2010 11990
 2012 2011 11991
 2013 2012 11992
 2014 2013 11993
 2015 2014 11994
 2016 2015 11995
 2017 2016 11996
 2018 2017 11997
 2019 2018 11998
 2020 2019 11999
 2021 2020 12000
 2022 2021 12001
 2023 2022 12002
 2024 2023 12003
 2025 2024 12004
 2026 2025 12005
 2027 2026 12006
 2028 2027 12007
 2029 2028 12008
 2030 2029 12009
 2031 2030 12010
 2032 2031 12011
 2033 2032 12012
 2034 2033 12013
 2035 2034 12014
 2036 2035 12015
 2037 2036 12016
 2038 2037 12017
 2039 2038 12018
 2040 2039 12019
 2041 2040 12020
 2042 2041 12021
 2043 2042 12022
 2044 2043 12023
 2045 2044 12024
 2046 2045 12025
 2047 2046 12026
 2048 2047 12027
 2049 2048 12028
 2050 2049 12029
 2051 2050 12030
 2052 2051 12031
 2053 2052 12032
 2054 2053 12033
 2055 2054 12034
 2056 2055 12035
 2057 2056 12036
 2058 2057 12037
 2059 2058 12038
 2060 2059 12039
 2061 2060 12040
 2062 2061 12041
 2063 2062 12042
 2064 2063 12043
 2065 2064 12044
 2066 2065 12045
 2067 2066 12046
 2068 2067 12047
 2069 2068 12048
 2070 2069 12049
 2071 2070 12050
 2072 2071 12051
 2073 2072 12052
 2074 2073 12053
 2075 2074 12054
 2076 2075 12055
 2077 2076 12056
 2078 2077 12057
 2079 2078 12058
 2080 2079 12059
 2081 2080 12060
 2082 2081 12061
 2083 2082 12062
 2084 2083 12063
 2085 2084 12064
 2086 2085 12065
 2087 2086 12066
 2088 2087 12067
 2089 2088 12068
 2090 2089 12069
 2091 2090 12070
 2092 2091 12071
 2093 2092 12072
 2094 2093 12073
 2095 2094 12074
 2096 2095 12075
 2097 2096 12076
 2098 2097 12077
 2099 2098 12078
 2101 2100 12079
 2102 2101 12080
 2103 2102 12081
 2104 2103 12082
 2105 2104 12083
 2106 2105 12084
 2107 2106 12085
 2108 2107 12086
 2109 2108 12087
 2110 2109 12088
 2111 2110 12089
 2112 2111 12090
 2113 2112 12091
 2114 2113 12092
 2115 2114 12093
 2116 2115 12094
 2117 2116 12095
 2118 2117 12096
 2119 2118 12097
 2120 2119 12098
 2121 2120 12099
 2122 2121 12100
 2123 2122 12101
 2124 2123 12102
 2125 2124 12103
 2126 2125 12104
 2127 2126 12105
 2128 2127 12106
 2129 2128 12107
 2130 2129 12108
 2131 2130 12109
 2132 2131 12110
 2133 2132 12111
 2134 2133 12112
 2135 2134 12113
 2136 2135 12114
 2137 2136 12115
 2138 2137 12116
 2139 2138 12117
 2140 2139 12118
 2141 2140 12119
 2142 2141 12120
 2143 2142 12121
 2144 2143 12122
 2145 2144 12123
 2146 2145 12124
 2147 2146 12125
 2148 2147 12126
 2149 2148 12127
 2150 2149 12128
 2151 2150 12129
 2152 2151 12130
 2153 2152 12131
 2154 2153 12132
 2155 2154 12133
 2156 2155 12134
 2157 2156 12135
 2158 2157 12136
 2159 2158 12137
 2160 2159 12138
 2161 2160 12139
 2162 2161 12140
 2163 2162 12141
 2164 2163 12142
 2165 2164 12143
 2166 2165 12144
 2167 2166 12145
 2168 2167 12146
 2169 2168 12147
 2170 2169 12148
 2171 2170 12149
 2172 2171 12150
 2173 2172 12151
 2174 2173 12152
 2175 2174 12153
 2176 2175 12154
 2177 2176 12155
 2178 2177 12156
 2179 2178 12157
 2180 2179 12158
 2181 2180 12159
 2182 2181 12160
 2183 2182 12161
 2184 2183 12162
 2185 2184 12163
 2186 2185 12164
 2187 2186 12165
 2188 2187 12166
 2189 2188 12167
 2190 2189 12168
 2191 2190 12169
 2192 2191 12170
 2193 2192 12171
 2194 2193 12172
 2195 2194 12173
 2196 2195 12174
 2197 2196 12175
 2198 2197 12176
 2199 2198 12177
 2201 2200 12178
 2202 2201 12179
 2203 2202 12180
 2204 2203 12181
 2205 2204 12182
 2206 2205 12183
 2207 2206 12184
 2208 2207 12185
 2209 2208 12186
 2210 2209 12187
 2211 2210 12188
 2212 2211 12189
 2213 2212 12190
 2214 2213 12191
 2215 2214 12192
 2216 2215 12193
 2217 2216 12194
 2218 2217 12195
 2219 2218 12196
 2220 2219 12197
 2221 2220 12198
 2222 2221 12199
 2223 2222 12200
 2224 2223 12201
 2225 2224 12202
 2226 2225 12203
 2227 2226 12204
 2228 2227 12205
 2229 2228 12206
 2230 2229 12207
 2231 2230 12208
 2232 2231 12209
 2233 2232 12210
 2234 2233 12211
 2235 2234 12212
 2236 2235 12213
 2237 2236 12214
 2238 2237 12215
 2239 2238 12216
 2240 2239 12217
 2241 2240 12218
 2242 2241 12219
 2243 2242 12220
 2244 2243 12221
 2245 2244 12222
 2246 2245 12223
 2247 2246 12224
 2248 2247 12225
 2249 2248 12226
 2250 2249 12227
 2251 2250 12228
 2252 2251 12229
 2253 2252 12230
 2254 2253 12231
 2255 2254 12232
 2256 2255 12233
 2257 2256 12234
 2258 2257 12235
 2259 2258 12236
 2260 2259 12237
 2261 2260 12238
 2262 2261 12239
 2263 2262 12240
 2264 2263 12241
 2265 2264 12242
 2266 2265 12243
 2267 2266 12244
 2268 2267 12245
 2269 2268 12246
 2270 2269 12247
 2271 2270 12248
 2272 2271 12249
 2273 2272 12250
 2274 2273 12251
 2275 2274 12252
 2276 2275 12253
 2277 2276 12254
 2278 2277 12255
 2279 2278 12256
 2280 2279 12257
 2281 2280 12258
 2282 2281 12259
 2283 2282 12260
 2284 2283 12261
 2285 2284 12262
 2286 2285 12263
 2287 2286 12264
 2288 2287 12265
 2289 2288 12266
 2290 2289 12267
 2291 2290 12268
 2292 2291 12269
 2293 2292 12270
 2294 2293 12271
 2295 2294 12272
 2296 2295 12273
 2297 2296 12274
 2298 2297 12275
 2299 2298 12276
 2301 2300 12277
 2302 2301 12278
 2303 2302 12279
 2304 2303 12280
 2305 2304 12281
 2306 2305 12282
 2307 2306 12283
 2308 2307 12284
 2309 2308 12285
 2310 2309 12286
 2311 2310 12287
 2312 2311 12288
 2313 2312 12289
 2314 2313 12290
 2315 2314 12291
 2316 2315 12292
 2317 2316 12293
 2318 2317 12294
 2319 2318 12295
 2320 2319 12296
 2321 2320 12297
 2322 2321 12298
 2323 2322 12299
 2324 2323 12300
 2325 2324 12301
 2326 2325 12302
 2327 2326 12303
 2328 2327 12304
 2329 2328 12305
 2330 2329 12306
 2331 2330 12307
 2332 2331 12308
 2333 2332 12309
 2334 2333 12310
 2335 2334 12311
 2336 2335 12312
 2337 2336 12313
 2338 2337 12314
 2339 2338 12315
 2340 2339 12316
 2341 2340 12317
 2342 2341 12318
 2343 2342 12319
 2344 2343 12320
 2345 2344 12321
 2346 2345 12322
 2347 2346 12323
 2348 2347 12324
 2349 2348 12325
 2350 2349 12326
 2351 2350 12327
 2352 2351 12328
 2353 2352 12329
 2354 2353 12330
 2355 2354 12331
 2356 2355 12332
 2357 2356 12333
 2358 2357 12334
 2359 2358 12335
 2360 2359 12336
 2361 2360 12337
 2362 2361 12338
 2363 2362 12339
 2364 2363 12340
 2365 2364 12341
 2366 2365 12342
 2367 2366 12343
 2368 2367 12344
 2369 2368 12345
 2370 2369 12346
 2371 2370 12347
 2372 2371 12348
 2373 2372 12349
 2374 2373 12350
 2375 2374 12351
 2376 2375 12352
 2377 2376 12353
 2378 2377 12354
 2379 2378 12355
 2380 2379 12356
 2381 2380 12357
 2382 2381 12358
 2383 2382 12359
 2384 2383 12360
 2385 2384 12361
 2386 2385 12362
 2387 2386 12363
 2388 2387 12364
 2389 2388 12365
 2390 2389 12366
 2391 2390 12367
 2392 2391 12368
 2393 2392 12369
 2394 2393 12370
 2395 2394 12371
 2396 2395 12372
 2397 2396 12373
 2398 2397 12374
 2399 2398 12375
 2401 2400 12376
 2402 2401 12377
 2403 2402 12378
 2404 2403 12379
 2405 2404 12380
 2406 2405 12381
 2407 2406 12382
 2408 2407 12383
 2409 2408 12384
 2410 2409 12385
 2411 2410 12386
 2412 2411 12387
 2413 2412 12388
 2414 2413 12389
 2415 2414 12390
 2416 2415 12391
 2417 2416 12392
 2418 2417 12393
 2419 2418 12394
 2420 2419 12395
 2421 2420 12396
 2422 2421 12397
 2423 2422 12398
 2424 2423 12399
 2425 2424 12400
 2426 2425 12401
 2427 2426 12402
 2428 2427 12403
 2429 2428 12404
 2430 2429 12405
 2431 2430 12406
 2432 2431 12407
 2433 2432 12408
 2434 2433 12409
 2435 2434 12410
 2436 2435 12411
 2437 2436 12412
 2438 2437 12413
 2439 2438 12414
 2440 2439 12415
 2441 2440 12416
 2442 2441 12417
 2443 2442 12418
 2444 2443 12419
 2445 2444 12420
 2446 2445 12421
 2447 2446 12422
 2448 2447 12423
 2449 2448 12424
 2450 2449 12425
 2451 2450 12426
 2452 2451 12427
 2453 2452 12428
 2454 2453 12429
 2455 2454 12430
 2456 2455 12431
 2457 2456 12432
 2458 2457 12433
 2459 2458 12434
 2460 2459 12435
 2461 2460 12436
 2462 2461 12437
 2463 2462 12438
 2464 2463 12439
 2465 2464 12440
 2466 2465 12441
 2467 2466 12442
 2468 2467 12443
 2469 2468 12444
 2470 2469 12445
 2471 2470 12446
 2472 2471 12447
 2473 2472 12448
 2474 2473 12449
 2475 2474 12450
 2476 2475 12451
 2477 2476 12452
 2478 2477 12453
 2479 2478 12454
 2480 2479 12455
 2481 2480 12456
 2482 2481 12457
 2483 2482 12458
 2484 2483 12459
 2485 2484 12460
 2486 2485 12461
 2487 2486 12462
 2488 2487 12463
 2489 2488 12464
 2490 2489 12465
 2491 2490 12466
 2492 2491 12467
 2493 2492 12468
 2494 2493 12469
 2495 2494 12470
 2496 2495 12471
 2497 2496 12472
 2498 2497 12473
 2499 2498 12474
 2501 2500 12475
 2502 2501 12476
 2503 2502 12477
 2504 2503 12478
 2505 2504 12479
 2506 2505 12480
 2507 2506 12481
 2508 2507 12482
 2509 2508 12483
 2510 2509 12484
 2511 2510 12485
 2512 2511 12486
 2513 2512 12487
 2514 2513 12488
 2515 2514 12489
 2516 2515 12490
 2517 2516 12491
 2518 2517 12492
 2519 2518 12493
 2520 2519 12494
 2521 2520 12495
 2522 2521 12496
 2523 2522 12497
 2524 2523 12498
 2525 2524 12499
 2526 2525 12500
 2527 2526 12501
 2528 2527 12502
 2529 2528 12503
 2530 2529 12504
 2531 2530 12505
 2532 2531 12506
 2533 2532 12507
 2534 2533 12508
 2535 2534 12509
 2536 2535 12510
 2537 2536 12511
 2538 2537 12512
 2539 2538 12513
 2540 2539 12514
 2541 2540 12515
 2542 2541 12516
 2543 2542 12517
 2544 2543 12518
 2545 2544 12519
 2546 2545 12520
 2547 2546 12521
 2548 2547 12522
 2549 2548 12523
 2550 2549 12524
 2551 2550 12525
 2552 2551 12526
 2553 2552 12527
 2554 2553 12528
 2555 2554 12529
 2556 2555 12530
 2557 2556 12531
 2558 2557 12532
 2559 2558 12533
 2560 2559 12534
 2561 2560 12535
 2562 2561 12536
 2563 2562 12537
 2564 2563 12538
 2565 2564 12539
 2566 2565 12540
 2567 2566 12541
 2568 2567 12542
 2569 2568 12543
 2570 2569 12544
 2571 2570 12545
 2572 2571 12546
 2573 2572 12547
 2574 2573 12548
 2575 2574 12549
 2576 2575 12550
 2577 2576 12551
 2578 2577 12552
 2579 2578 12553
 2580 2579 12554
 2581 2580 12555
 2582 2581 12556
 2583 2582 12557
 2584 2583 12558
 2585 2584 12559
 2586 2585 12560
 2587 2586 12561
 2588 2587 12562
 2589 2588 12563
 2590 2589 12564
 2591 2590 12565
 2592 2591 12566
 2593 2592 12567
 2594 2593 12568
 2595 2594 12569
 2596 2595 12570
 2597 2596 12571
 2598 2597 12572
 2599 2598 12573
 2601 2600 12574
 2602 2601 12575
 2603 2602 12576
 2604 2603 12577
 2605 2604 12578
 2606 2605 12579
 2607 2606 12580
 2608 2607 12581
 2609 2608 12582
 2610 2609 12583
 2611 2610 12584
 2612 2611 12585
 2613 2612 12586
 2614 2613 12587
 2615 2614 12588
 2616 2615 12589
 2617 2616 12590
 2618 2617 12591
 2619 2618 12592
 2620 2619 12593
 2621 2620 12594
 2622 2621 12595
 2623 2622 12596
 2624 2623 12597
 2625 2624 12598
 2626 2625 12599
 2627 2626 12600
 2628 2627 12601
 2629 2628 12602
 2630 2629 12603
 2631 2630 12604
 2632 2631 12605
 2633 2632 12606
 2634 2633 12607
 2635 2634 12608
 2636 2635 12609
 2637 2636 12610
 2638 2637 12611
 2639 2638 12612
 2640 2639 12613
 2641 2640 12614
 2642 2641 12615
 2643 2642 12616
 2644 2643 12617
 2645 2644 12618
 2646 2645 12619
 2647 2646 12620
 2648 2647 12621
 2649 2648 12622
 2650 2649 12623
 2651 2650 12624
 2652 2651 12625
 2653 2652 12626
 2654 2653 12627
 2655 2654 12628
 2656 2655 12629
 2657 2656 12630
 2658 2657 12631
 2659 2658 12632
 2660 2659 12633
 2661 2660 12634
 2662 2661 12635
 2663 2662 12636
 2664 2663 12637
 2665 2664 12638
 2666 2665 12639
 2667 2666 12640
 2668 2667 12641
 2669 2668 12642
 2670 2669 12643
 2671 2670 12644
 2672 2671 12645
 2673 2672 12646
 2674 2673 12647
 2675 2674 12648
 2676 2675 12649
 2677 2676 12650
 2678 2677 12651
 2679 2678 12652
 2680 2679 12653
 2681 2680 12654
 2682 2681 12655
 2683 2682 12656
 2684 2683 12657
 2685 2684 12658
 2686 2685 12659
 2687 2686 12660
 2688 2687 12661
 2689 2688 12662
 2690 2689 12663
 2691 2690 12664
 2692 2691 12665
 2693 2692 12666
 2694 2693 12667
 2695 2694 12668
 2696 2695 12669
 2697 2696 12670
 2698 2697 12671
 2699 2698 12672
 2701 2700 12673
 2702 2701 12674
 2703 2702 12675
 2704 2703 12676
 2705 2704 12677
 2706 2705 12678
 2707 2706 12679
 2708 2707 12680
 2709 2708 12681
 2710 2709 12682
 2711 2710 12683
 2712 2711 12684
 2713 2712 12685
 2714 2713 12686
 2715 2714 12687
 2716 2715 12688
 2717 2716 12689
 2718 2717 12690
 2719 2718 12691
 2720 2719 12692
 2721 2720 12693
 2722 2721 12694
 2723 2722 12695
 2724 2723 12696
 2725 2724 12697
 2726 2725 12698
 2727 2726 12699
 2728 2727 12700
 2729 2728 12701
 2730 2729 12702
 2731 2730 12703
 2732 2731 12704
 2733 2732 12705
 2734 2733 12706
 2735 2734 12707
 2736 2735 12708
 2737 2736 12709
 2738 2737 12710
 2739 2738 12711
 2740 2739 12712
 2741 2740 12713
 2742 2741 12714
 2743 2742 12715
 2744 2743 12716
 2745 2744 12717
 2746 2745 12718
 2747 2746 12719
 2748 2747 12720
 2749 2748 12721
 2750 2749 12722
 2751 2750 12723
 2752 2751 12724
 2753 2752 12725
 2754 2753 12726
 2755 2754 12727
 2756 2755 12728
 2757 2756 12729
 2758 2757 12730
 2759 2758 12731
 2760 2759 12732
 2761 2760 12733
 2762 2761 12734
 2763 2762 12735
 2764 2763 12736
 2765 2764 12737
 2766 2765 12738
 2767 2766 12739
 2768 2767 12740
 2769 2768 12741
 2770 2769 12742
 2771 2770 12743
 2772 2771 12744
 2773 2772 12745
 2774 2773 12746
 2775 2774 12747
 2776 2775 12748
 2777 2776 12749
 2778 2777 12750
 2779 2778 12751
 2780 2779 12752
 2781 2780 12753
 2782 2781 12754
 2783 2782 12755
 2784 2783 12756
 2785 2784 12757
 2786 2785 12758
 2787 2786 12759
 2788 2787 12760
 2789 2788 12761
 2790 2789 12762
 2791 2790 12763
 2792 2791 12764
 2793 2792 12765
 2794 2793 12766
 2795 2794 12767
 2796 2795 12768
 2797 2796 12769
 2798 2797 12770
 2799 2798 12771
 2801 2800 12772
 2802 2801 12773
 2803 2802 12774
 2804 2803 12775
 2805 2804 12776
 2806 2805 12777
 2807 2806 12778
 2808 2807 12779
 2809 2808 12780
 2810 2809 12781
 2811 2810 12782
 2812 2811 12783
 2813 2812 12784
 2814 2813 12785
 2815 2814 12786
 2816 2815 12787
 2817 2816 12788
 2818 2817 12789
 2819 2818 12790
 2820 2819 12791
 2821 2820 12792
 2822 2821 12793
 2823 2822 12794
 2824 2823 12795
 2825 2824 12796
 2826 2825 12797
 2827 2826 12798
 2828 2827 12799
 2829 2828 12800
 2830 2829 12801
 2831 2830 12802
 2832 2831 12803
 2833 2832 12804
 2834 2833 12805
 2835 2834 12806
 2836 2835 12807
 2837 2836 12808
 2838 2837 12809
 2839 2838 12810
 2840 2839 12811
 2841 2840 12812
 2842 2841 12813
 2843 2842 12814
 2844 2843 12815
 2845 2844 12816
 2846 2845 12817
 2847 2846 12818
 2848 2847 12819
 2849 2848 12820
 2850 2849 12821
 2851 2850 12822
 2852 2851 12823
 2853 2852 12824
 2854 2853 12825
 2855 2854 12826
 2856 2855 12827
 2857 2856 12828
 2858 2857 12829
 2859 2858 12830
 2860 2859 12831
 2861 2860 12832
 2862 2861 12833
 2863 2862 12834
 2864 2863 12835
 2865 2864 12836
 2866 2865 12837
 2867 2866 12838
 2868 2867 12839
 2869 2868 12840
 2870 2869 12841
 2871 2870 12842
 2872 2871 12843
 2873 2872 12844
 2874 2873 12845
 2875 2874 12846
 2876 2875 12847
 2877 2876 12848
 2878 2877 12849
 2879 2878 12850
 2880 2879 12851
 2881 2880 12852
 2882 2881 12853
 2883 2882 12854
 2884 2883 12855
 2885 2884 12856
 2886 2885 12857
 2887 2886 12858
 2888 2887 12859
 2889 2888 12860
 2890 2889 12861
 2891 2890 12862
 2892 2891 12863
 2893 2892 12864
 2894 2893 12865
 2895 2894 12866
 2896 2895 12867
 2897 2896 12868
 2898 2897 12869
 2899 2898 12870
 2901 2900 12871
 2902 2901 12872
 2903 2902 12873
 2904 2903 12874
 2905 2904 12875
 2906 2905 12876
 2907 2906 12877
 2908 2907 12878
 2909 2908 12879
 2910 2909 12880
 2911 2910 12881
 2912 2911 12882
 2913 2912 12883
 2914 2913 12884
 2915 2914 12885
 2916 2915 12886
 2917 2916 12887
 2918 2917 12888
 2919 2918 12889
 2920 2919 12890
 2921 2920 12891
 2922 2921 12892
 2923 2922 12893
 2924 2923 12894
 2925 2924 12895
 2926 2925 12896
 2927 2926 12897
 2928 2927 12898
 2929 2928 12899
 2930 2929 12900
 2931 2930 12901
 2932 2931 12902
 2933 2932 12903
 2934 2933 12904
 2935 2934 12905
 2936 2935 12906
 2937 2936 12907
 2938 2937 12908
 2939 2938 12909
 2940 2939 12910
 2941 2940 12911
 2942 2941 12912
 2943 2942 12913
 2944 2943 12914
 2945 2944 12915
 2946 2945 12916
 2947 2946 12917
 2948 2947 12918
 2949 2948 12919
 2950 2949 12920
 2951 2950 12921
 2952 2951 12922
 2953 2952 12923
 2954 2953 12924
 2955 2954 12925
 2956 2955 12926
 2957 2956 12927
 2958 2957 12928
 2959 2958 12929
 2960 2959 12930
 2961 2960 12931
 2962 2961 12932
 2963 2962 12933
 2964 2963 12934
 2965 2964 12935
 2966 2965 12936
 2967 2966 12937
 2968 2967 12938
 2969 2968 12939
 2970 2969 12940
 2971 2970 12941
 2972 2971 12942
 2973 2972 12943
 2974 2973 12944
 2975 2974 12945
 2976 2975 12946
 2977 2976 12947
 2978 2977 12948
 2979 2978 12949
 2980 2979 12950
 2981 2980 12951
 2982 2981 12952
 2983 2982 12953
 2984 2983 12954
 2985 2984 12955
 2986 2985 12956
 2987 2986 12957
 2988 2987 12958
 2989 2988 12959
 2990 2989 12960
 2991 2990 12961
 2992 2991 12962
 2993 2992 12963
 2994 2993 12964
 2995 2994 12965
 2996 2995 12966
 2997 2996 12967
 2998 2997 12968
 2999 2998 12969
 3001 3000 12970
 3002 3001 12971
 3003 3002 12972
 3004 3003 12973
 3005 3004 12974
 3006 3005 12975
 3007 3006 12976
 3008 3007 12977
 3009 3008 12978
 3010 3009 12979
 3011 3010 12980
 3012 3011 12981
 3013 3012 12982
 3014 3013 12983
 3015 3014 12984
 3016 3015 12985
 3017 3016 12986
 3018 3017 12987
 3019 3018 12988
 3020 3019 12989
 3021 3020 12990
 3022 3021 12991
 3023 3022 12992
 3024 3023 12993
 3025 3024 12994
 3026 3025 12995
 3027 3026 12996
 3028 3027 12997
 3029 3028 12998
 3030 3029 12999
 3031 3030 13000
 3032 3031 13001
 3033 3032 13002
 3034 3033 13003
 3035 3034 13004
 3036 3035 13005
 3037 3036 13006
 3038 3037 13007
 3039 3038 13008
 3040 3039 13009
 3041 3040 13010
 3042 3041 13011
 3043 3042 13012
 3044 3043 13013
 3045 3044 13014
 3046 3045 13015
 3047 3046 13016
 3048 3047 13017
 3049 3048 13018
 3050 3049 13019
 3051 3050 13020
 3052 3051 13021
 3053 3052 13022
 3054 3053 13023
 3055 3054 13024
 3056 3055 13025
 3057 3056 13026
 3058 3057 13027
 3059 3058 13028
 3060 3059 13029
 3061 3060 13030
 3062 3061 13031
 3063 3062 13032
 3064 3063 13033
 3065 3064 13034
 3066 3065 13035
 3067 3066 13036
 3068 3067 13037
 3069 3068 13038
 3070 3069 13039
 3071 3070 13040
 3072 3071 13041
 3073 3072 13042
 3074 3073 13043
 3075 3074 13044
 3076 3075 13045
 3077 3076 13046
 3078 3077 13047
 3079 3078 13048
 3080 3079 13049
 3081 3080 13050
 3082 3081 13051
 3083 3082 13052
 3084 3083 13053
 3085 3084 13054
 3086 3085 13055
 3087 3086 13056
 3088 3087 13057
 3089 3088 13058
 3090 3089 13059
 3091 3090 13060
 3092 3091 13061
 3093 3092 13062
 3094 3093 13063
 3095 3094 13064
 3096 3095 13065
 3097 3096 13066
 3098 3097 13067
 3099 3098 13068
 3101 3100 13069
 3102 3101 13070
 3103 3102 13071
 3104 3103 13072
 3105 3104 13073
 3106 3105 13074
 3107 3106 13075
 3108 3107 13076
 3109 3108 13077
 3110 3109 13078
 3111 3110 13079
 3112 3111 13080
 3113 3112 13081
 3114 3113 13082
 3115 3114 13083
 3116 3115 13084
 3117 3116 13085
 3118 3117 13086
 3119 3118 13087
 3120 3119 13088
 3121 3120 13089
 3122 3121 13090
 3123 3122 13091
 3124 3123 13092
 3125 3124 13093
 3126 3125 13094
 3127 3126 13095
 3128 3127 13096
 3129 3128 13097
 3130 3129 13098
 3131 3130 13099
 3132 3131 13100
 3133 3132 13101
 3134 3133 13102
 3135 3134 13103
 3136 3135 13104
 3137 3136 13105
 3138 3137 13106
 3139 3138 13107
 3140 3139 13108
 3141 3140 13109
 3142 3141 13110
 3143 3142 13111
 3144 3143 13112
 3145 3144 13113
 3146 3145 13114
 3147 3146 13115
 3148 3147 13116
 3149 3148 13117
 3150 3149 13118
 3151 3150 13119
 3152 3151 13120
 3153 3152 13121
 3154 3153 13122
 3155 3154 13123
 3156 3155 13124
 3157 3156 13125
 3158 3157 13126
 3159 3158 13127
 3160 3159 13128
 3161 3160 13129
 3162 3161 13130
 3163 3162 13131
 3164 3163 13132
 3165 3164 13133
 3166 3165 13134
 3167 3166 13135
 3168 3167 13136
 3169 3168 13137
 3170 3169 13138
 3171 3170 13139
 3172 3171 13140
 3173 3172 13141
 3174 3173 13142
 3175 3174 13143
 3176 3175 13144
 3177 3176 13145
 3178 3177 13146
 3179 3178 13147
 3180 3179 13148
 3181 3180 13149
 3182 3181 13150
 3183 3182 13151
 3184 3183 13152
 3185 3184 13153
 3186 3185 13154
 3187 3186 13155
 3188 3187 13156
 3189 3188 13157
 3190 3189 13158
 3191 3190 13159
 3192 3191 13160
 3193 3192 13161
 3194 3193 13162
 3195 3194 13163
 3196 3195 13164
 3197 3196 13165
 3198 3197 13166
 3199 3198 13167
 3201 3200 13168
 3202 3201 13169
 3203 3202 13170
 3204 3203 13171
 3205 3204 13172
 3206 3205 13173
 3207 3206 13174
 3208 3207 13175
 3209 3208 13176
 3210 3209 13177
 3211 3210 13178
 3212 3211 13179
 3213 3212 13180
 3214 3213 13181
 3215 3214 13182
 3216 3215 13183
 3217 3216 13184
 3218 3217 13185
 3219 3218 13186
 3220 3219 13187
 3221 3220 13188
 3222 3221 13189
 3223 3222 13190
 3224 3223 13191
 3225 3224 13192
 3226 3225 13193
 3227 3226 13194
 3228 3227 13195
 3229 3228 13196
 3230 3229 13197
 3231 3230 13198
 3232 3231 13199
 3233 3232 13200
 3234 3233 13201
 3235 3234 13202
 3236 3235 13203
 3237 3236 13204
 3238 3237 13205
 3239 3238 13206
 3240 3239 13207
 3241 3240 13208
 3242 3241 13209
 3243 3242 13210
 3244 3243 13211
 3245 3244 13212
 3246 3245 13213
 3247 3246 13214
 3248 3247 13215
 3249 3248 13216
 3250 3249 13217
 3251 3250 13218
 3252 3251 13219
 3253 3252 13220
 3254 3253 13221
 3255 3254 13222
 3256 3255 13223
 3257 3256 13224
 3258 3257 13225
 3259 3258 13226
 3260 3259 13227
 3261 3260 13228
 3262 3261 13229
 3263 3262 13230
 3264 3263 13231
 3265 3264 13232
 3266 3265 13233
 3267 3266 13234
 3268 3267 13235
 3269 3268 13236
 3270 3269 13237
 3271 3270 13238
 3272 3271 13239
 3273 3272 13240
 3274 3273 13241
 3275 3274 13242
 3276 3275 13243
 3277 3276 13244
 3278 3277 13245
 3279 3278 13246
 3280 3279 13247
 3281 3280 13248
 3282 3281 13249
 3283 3282 13250
 3284 3283 13251
 3285 3284 13252
 3286 3285 13253
 3287 3286 13254
 3288 3287 13255
 3289 3288 13256
 3290 3289 13257
 3291 3290 13258
 3292 3291 13259
 3293 3292 13260
 3294 3293 13261
 3295 3294 13262
 3296 3295 13263
 3297 3296 13264
 3298 3297 13265
 3299 3298 13266
 3301 3300 13267
 3302 3301 13268
 3303 3302 13269
 3304 3303 13270
 3305 3304 13271
 3306 3305 13272
 3307 3306 13273
 3308 3307 13274
 3309 3308 13275
 3310 3309 13276
 3311 3310 13277
 3312 3311 13278
 3313 3312 13279
 3314 3313 13280
 3315 3314 13281
 3316 3315 13282
 3317 3316 13283
 3318 3317 13284
 3319 3318 13285
 3320 3319 13286
 3321 3320 13287
 3322 3321 13288
 3323 3322 13289
 3324 3323 13290
 3325 3324 13291
 3326 3325 13292
 3327 3326 13293
 3328 3327 13294
 3329 3328 13295
 3330 3329 13296
 3331 3330 13297
 3332 3331 13298
 3333 3332 13299
 3334 3333 13300
 3335 3334 13301
 3336 3335 13302
 3337 3336 13303
 3338 3337 13304
 3339 3338 13305
 3340 3339 13306
 3341 3340 13307
 3342 3341 13308
 3343 3342 13309
 3344 3343 13310
 3345 3344 13311
 3346 3345 13312
 3347 3346 13313
 3348 3347 13314
 3349 3348 13315
 3350 3349 13316
 3351 3350 13317
 3352 3351 13318
 3353 3352 13319
 3354 3353 13320
 3355 3354 13321
 3356 3355 13322
 3357 3356 13323
 3358 3357 13324
 3359 3358 13325
 3360 3359 13326
 3361 3360 13327
 3362 3361 13328
 3363 3362 13329
 3364 3363 13330
 3365 3364 13331
 3366 3365 13332
 3367 3366 13333
 3368 3367 13334
 3369 3368 13335
 3370 3369 13336
 3371 3370 13337
 3372 3371 13338
 3373 3372 13339
 3374 3373 13340
 3375 3374 13341
 3376 3375 13342
 3377 3376 13343
 3378 3377 13344
 3379 3378 13345
 3380 3379 13346
 3381 3380 13347
 3382 3381 13348
 3383 3382 13349
 3384 3383 13350
 3385 3384 13351
 3386 3385 13352
 3387 3386 13353
 3388 3387 13354
 3389 3388 13355
 3390 3389 13356
 3391 3390 13357
 3392 3391 13358
 3393 3392 13359
 3394 3393 13360
 3395 3394 13361
 3396 3395 13362
 3397 3396 13363
 3398 3397 13364
 3399 3398 13365
 3401 3400 13366
 3402 3401 13367
 3403 3402 13368
 3404 3403 13369
 3405 3404 13370
 3406 3405 13371
 3407 3406 13372
 3408 3407 13373
 3409 3408 13374
 3410 3409 13375
 3411 3410 13376
 3412 3411 13377
 3413 3412 13378
 3414 3413 13379
 3415 3414 13380
 3416 3415 13381
 3417 3416 13382
 3418 3417 13383
 3419 3418 13384
 3420 3419 13385
 3421 3420 13386
 3422 3421 13387
 3423 3422 13388
 3424 3423 13389
 3425 3424 13390
 3426 3425 13391
 3427 3426 13392
 3428 3427 13393
 3429 3428 13394
 3430 3429 13395
 3431 3430 13396
 3432 3431 13397
 3433 3432 13398
 3434 3433 13399
 3435 3434 13400
 3436 3435 13401
 3437 3436 13402
 3438 3437 13403
 3439 3438 13404
 3440 3439 13405
 3441 3440 13406
 3442 3441 13407
 3443 3442 13408
 3444 3443 13409
 3445 3444 13410
 3446 3445 13411
 3447 3446 13412
 3448 3447 13413
 3449 3448 13414
 3450 3449 13415
 3451 3450 13416
 3452 3451 13417
 3453 3452 13418
 3454 3453 13419
 3455 3454 13420
 3456 3455 13421
 3457 3456 13422
 3458 3457 13423
 3459 3458 13424
 3460 3459 13425
 3461 3460 13426
 3462 3461 13427
 3463 3462 13428
 3464 3463 13429
 3465 3464 13430
 3466 3465 13431
 3467 3466 13432
 3468 3467 13433
 3469 3468 13434
 3470 3469 13435
 3471 3470 13436
 3472 3471 13437
 3473 3472 13438
 3474 3473 13439
 3475 3474 13440
 3476 3475 13441
 3477 3476 13442
 3478 3477 13443
 3479 3478 13444
 3480 3479 13445
 3481 3480 13446
 3482 3481 13447
 3483 3482 13448
 3484 3483 13449
 3485 3484 13450
 3486 3485 13451
 3487 3486 13452
 3488 3487 13453
 3489 3488 13454
 3490 3489 13455
 3491 3490 13456
 3492 3491 13457
 3493 3492 13458
 3494 3493 13459
 3495 3494 13460
 3496 3495 13461
 3497 3496 13462
 3498 3497 13463
 3499 3498 13464
 3501 3500 13465
 3502 3501 13466
 3503 3502 13467
 3504 3503 13468
 3505 3504 13469
 3506 3505 13470
 3507 3506 13471
 3508 3507 13472
 3509 3508 13473
 3510 3509 13474
 3511 3510 13475
 3512 3511 13476
 3513 3512 13477
 3514 3513 13478
 3515 3514 13479
 3516 3515 13480
 3517 3516 13481
 3518 3517 13482
 3519 3518 13483
 3520 3519 13484
 3521 3520 13485
 3522 3521 13486
 3523 3522 13487
 3524 3523 13488
 3525 3524 13489
 3526 3525 13490
 3527 3526 13491
 3528 3527 13492
 3529 3528 13493
 3530 3529 13494
 3531 3530 13495
 3532 3531 13496
 3533 3532 13497
 3534 3533 13498
 3535 3534 13499
 3536 3535 13500
 3537 3536 13501
 3538 3537 13502
 3539 3538 13503
 3540 3539 13504
 3541 3540 13505
 3542 3541 13506
 3543 3542 13507
 3544 3543 13508
 3545 3544 13509
 3546 3545 13510
 3547 3546 13511
 3548 3547 13512
 3549 3548 13513
 3550 3549 13514
 3551 3550 13515
 3552 3551 13516
 3553 3552 13517
 3554 3553 13518
 3555 3554 13519
 3556 3555 13520
 3557 3556 13521
 3558 3557 13522
 3559 3558 13523
 3560 3559 13524
 3561 3560 13525
 3562 3561 13526
 3563 3562 13527
 3564 3563 13528
 3565 3564 13529
 3566 3565 13530
 3567 3566 13531
 3568 3567 13532
 3569 3568 13533
 3570 3569 13534
 3571 3570 13535
 3572 3571 13536
 3573 3572 13537
 3574 3573 13538
 3575 3574 13539
 3576 3575 13540
 3577 3576 13541
 3578 3577 13542
 3579 3578 13543
 3580 3579 13544
 3581 3580 13545
 3582 3581 13546
 3583 3582 13547
 3584 3583 13548
 3585 3584 13549
 3586 3585 13550
 3587 3586 13551
 3588 3587 13552
 3589 3588 13553
 3590 3589 13554
 3591 3590 13555
 3592 3591 13556
 3593 3592 13557
 3594 3593 13558
 3595 3594 13559
 3596 3595 13560
 3597 3596 13561
 3598 3597 13562
 3599 3598 13563
 3601 3600 13564
 3602 3601 13565
 3603 3602 13566
 3604 3603 13567
 3605 3604 13568
 3606 3605 13569
 3607 3606 13570
 3608 3607 13571
 3609 3608 13572
 3610 3609 13573
 3611 3610 13574
 3612 3611 13575
 3613 3612 13576
 3614 3613 13577
 3615 3614 13578
 3616 3615 13579
 3617 3616 13580
 3618 3617 13581
 3619 3618 13582
 3620 3619 13583
 3621 3620 13584
 3622 3621 13585
 3623 3622 13586
 3624 3623 13587
 3625 3624 13588
 3626 3625 13589
 3627 3626 13590
 3628 3627 13591
 3629 3628 13592
 3630 3629 13593
 3631 3630 13594
 3632 3631 13595
 3633 3632 13596
 3634 3633 13597
 3635 3634 13598
 3636 3635 13599
 3637 3636 13600
 3638 3637 13601
 3639 3638 13602
 3640 3639 13603
 3641 3640 13604
 3642 3641 13605
 3643 3642 13606
 3644 3643 13607
 3645 3644 13608
 3646 3645 13609
 3647 3646 13610
 3648 3647 13611
 3649 3648 13612
 3650 3649 13613
 3651 3650 13614
 3652 3651 13615
 3653 3652 13616
 3654 3653 13617
 3655 3654 13618
 3656 3655 13619
 3657 3656 13620
 3658 3657 13621
 3659 3658 13622
 3660 3659 13623
 3661 3660 13624
 3662 3661 13625
 3663 3662 13626
 3664 3663 13627
 3665 3664 13628
 3666 3665 13629
 3667 3666 13630
 3668 3667 13631
 3669 3668 13632
 3670 3669 13633
 3671 3670 13634
 3672 3671 13635
 3673 3672 13636
 3674 3673 13637
 3675 3674 13638
 3676 3675 13639
 3677 3676 13640
 3678 3677 13641
 3679 3678 13642
 3680 3679 13643
 3681 3680 13644
 3682 3681 13645
 3683 3682 13646
 3684 3683 13647
 3685 3684 13648
 3686 3685 13649
 3687 3686 13650
 3688 3687 13651
 3689 3688 13652
 3690 3689 13653
 3691 3690 13654
 3692 3691 13655
 3693 3692 13656
 3694 3693 13657
 3695 3694 13658
 3696 3695 13659
 3697 3696 13660
 3698 3697 13661
 3699 3698 13662
 3701 3700 13663
 3702 3701 13664
 3703 3702 13665
 3704 3703 13666
 3705 3704 13667
 3706 3705 13668
 3707 3706 13669
 3708 3707 13670
 3709 3708 13671
 3710 3709 13672
 3711 3710 13673
 3712 3711 13674
 3713 3712 13675
 3714 3713 13676
 3715 3714 13677
 3716 3715 13678
 3717 3716 13679
 3718 3717 13680
 3719 3718 13681
 3720 3719 13682
 3721 3720 13683
 3722 3721 13684
 3723 3722 13685
 3724 3723 13686
 3725 3724 13687
 3726 3725 13688
 3727 3726 13689
 3728 3727 13690
 3729 3728 13691
 3730 3729 13692
 3731 3730 13693
 3732 3731 13694
 3733 3732 13695
 3734 3733 13696
 3735 3734 13697
 3736 3735 13698
 3737 3736 13699
 3738 3737 13700
 3739 3738 13701
 3740 3739 13702
 3741 3740 13703
 3742 3741 13704
 3743 3742 13705
 3744 3743 13706
 3745 3744 13707
 3746 3745 13708
 3747 3746 13709
 3748 3747 13710
 3749 3748 13711
 3750 3749 13712
 3751 3750 13713
 3752 3751 13714
 3753 3752 13715
 3754 3753 13716
 3755 3754 13717
 3756 3755 13718
 3757 3756 13719
 3758 3757 13720
 3759 3758 13721
 3760 3759 13722
 3761 3760 13723
 3762 3761 13724
 3763 3762 13725
 3764 3763 13726
 3765 3764 13727
 3766 3765 13728
 3767 3766 13729
 3768 3767 13730
 3769 3768 13731
 3770 3769 13732
 3771 3770 13733
 3772 3771 13734
 3773 3772 13735
 3774 3773 13736
 3775 3774 13737
 3776 3775 13738
 3777 3776 13739
 3778 3777 13740
 3779 3778 13741
 3780 3779 13742
 3781 3780 13743
 3782 3781 13744
 3783 3782 13745
 3784 3783 13746
 3785 3784 13747
 3786 3785 13748
 3787 3786 13749
 3788 3787 13750
 3789 3788 13751
 3790 3789 13752
 3791 3790 13753
 3792 3791 13754
 3793 3792 13755
 3794 3793 13756
 3795 3794 13757
 3796 3795 13758
 3797 3796 13759
 3798 3797 13760
 3799 3798 13761
 3801 3800 13762
 3802 3801 13763
 3803 3802 13764
 3804 3803 13765
 3805 3804 13766
 3806 3805 13767
 3807 3806 13768
 3808 3807 13769
 3809 3808 13770
 3810 3809 13771
 3811 3810 13772
 3812 3811 13773
 3813 3812 13774
 3814 3813 13775
 3815 3814 13776
 3816 3815 13777
 3817 3816 13778
 3818 3817 13779
 3819 3818 13780
 3820 3819 13781
 3821 3820 13782
 3822 3821 13783
 3823 3822 13784
 3824 3823 13785
 3825 3824 13786
 3826 3825 13787
 3827 3826 13788
 3828 3827 13789
 3829 3828 13790
 3830 3829 13791
 3831 3830 13792
 3832 3831 13793
 3833 3832 13794
 3834 3833 13795
 3835 3834 13796
 3836 3835 13797
 3837 3836 13798
 3838 3837 13799
 3839 3838 13800
 3840 3839 13801
 3841 3840 13802
 3842 3841 13803
 3843 3842 13804
 3844 3843 13805
 3845 3844 13806
 3846 3845 13807
 3847 3846 13808
 3848 3847 13809
 3849 3848 13810
 3850 3849 13811
 3851 3850 13812
 3852 3851 13813
 3853 3852 13814
 3854 3853 13815
 3855 3854 13816
 3856 3855 13817
 3857 3856 13818
 3858 3857 13819
 3859 3858 13820
 3860 3859 13821
 3861 3860 13822
 3862 3861 13823
 3863 3862 13824
 3864 3863 13825
 3865 3864 13826
 3866 3865 13827
 3867 3866 13828
 3868 3867 13829
 3869 3868 13830
 3870 3869 13831
 3871 3870 13832
 3872 3871 13833
 3873 3872 13834
 3874 3873 13835
 3875 3874 13836
 3876 3875 13837
 3877 3876 13838
 3878 3877 13839
 3879 3878 13840
 3880 3879 13841
 3881 3880 13842
 3882 3881 13843
 3883 3882 13844
 3884 3883 13845
 3885 3884 13846
 3886 3885 13847
 3887 3886 13848
 3888 3887 13849
 3889 3888 13850
 3890 3889 13851
 3891 3890 13852
 3892 3891 13853
 3893 3892 13854
 3894 3893 13855
 3895 3894 13856
 3896 3895 13857
 3897 3896 13858
 3898 3897 13859
 3899 3898 13860
 3901 3900 13861
 3902 3901 13862
 3903 3902 13863
 3904 3903 13864
 3905 3904 13865
 3906 3905 13866
 3907 3906 13867
 3908 3907 13868
 3909 3908 13869
 3910 3909 13870
 3911 3910 13871
 3912 3911 13872
 3913 3912 13873
 3914 3913 13874
 3915 3914 13875
 3916 3915 13876
 3917 3916 13877
 3918 3917 13878
 3919 3918 13879
 3920 3919 13880
 3921 3920 13881
 3922 3921 13882
 3923 3922 13883
 3924 3923 13884
 3925 3924 13885
 3926 3925 13886
 3927 3926 13887
 3928 3927 13888
 3929 3928 13889
 3930 3929 13890
 3931 3930 13891
 3932 3931 13892
 3933 3932 13893
 3934 3933 13894
 3935 3934 13895
 3936 3935 13896
 3937 3936 13897
 3938 3937 13898
 3939 3938 13899
 3940 3939 13900
 3941 3940 13901
 3942 3941 13902
 3943 3942 13903
 3944 3943 13904
 3945 3944 13905
 3946 3945 13906
 3947 3946 13907
 3948 3947 13908
 3949 3948 13909
 3950 3949 13910
 3951 3950 13911
 3952 3951 13912
 3953 3952 13913
 3954 3953 13914
 3955 3954 13915
 3956 3955 13916
 3957 3956 13917
 3958 3957 13918
 3959 3958 13919
 3960 3959 13920
 3961 3960 13921
 3962 3961 13922
 3963 3962 13923
 3964 3963 13924
 3965 3964 13925
 3966 3965 13926
 3967 3966 13927
 3968 3967 13928
 3969 3968 13929
 3970 3969 13930
 3971 3970 13931
 3972 3971 13932
 3973 3972 13933
 3974 3973 13934
 3975 3974 13935
 3976 3975 13936
 3977 3976 13937
 3978 3977 13938
 3979 3978 13939
 3980 3979 13940
 3981 3980 13941
 3982 3981 13942
 3983 3982 13943
 3984 3983 13944
 3985 3984 13945
 3986 3985 13946
 3987 3986 13947
 3988 3987 13948
 3989 3988 13949
 3990 3989 13950
 3991 3990 13951
 3992 3991 13952
 3993 3992 13953
 3994 3993 13954
 3995 3994 13955
 3996 3995 13956
 3997 3996 13957
 3998 3997 13958
 3999 3998 13959
 4001 4000 13960
 4002 4001 13961
 4003 4002 13962
 4004 4003 13963
 4005 4004 13964
 4006 4005 13965
 4007 4006 13966
 4008 4007 13967
 4009 4008 13968
 4010 4009 13969
 4011 4010 13970
 4012 4011 13971
 4013 4012 13972
 4014 4013 13973
 4015 4014 13974
 4016 4015 13975
 4017 4016 13976
 4018 4017 13977
 4019 4018 13978
 4020 4019 13979
 4021 4020 13980
 4022 4021 13981
 4023 4022 13982
 4024 4023 13983
 4025 4024 13984
 4026 4025 13985
 4027 4026 13986
 4028 4027 13987
 4029 4028 13988
 4030 4029 13989
 4031 4030 13990
 4032 4031 13991
 4033 4032 13992
 4034 4033 13993
 4035 4034 13994
 4036 4035 13995
 4037 4036 13996
 4038 4037 13997
 4039 4038 13998
 4040 4039 13999
 4041 4040 14000
 4042 4041 14001
 4043 4042 14002
 4044 4043 14003
 4045 4044 14004
 4046 4045 14005
 4047 4046 14006
 4048 4047 14007
 4049 4048 14008
 4050 4049 14009
 4051 4050 14010
 4052 4051 14011
 4053 4052 14012
 4054 4053 14013
 4055 4054 14014
 4056 4055 14015
 4057 4056 14016
 4058 4057 14017
 4059 4058 14018
 4060 4059 14019
 4061 4060 14020
 4062 4061 14021
 4063 4062 14022
 4064 4063 14023
 4065 4064 14024
 4066 4065 14025
 4067 4066 14026
 4068 4067 14027
 4069 4068 14028
 4070 4069 14029
 4071 4070 14030
 4072 4071 14031
 4073 4072 14032
 4074 4073 14033
 4075 4074 14034
 4076 4075 14035
 4077 4076 14036
 4078 4077 14037
 4079 4078 14038
 4080 4079 14039
 4081 4080 14040
 4082 4081 14041
 4083 4082 14042
 4084 4083 14043
 4085 4084 14044
 4086 4085 14045
 4087 4086 14046
 4088 4087 14047
 4089 4088 14048
 4090 4089 14049
 4091 4090 14050
 4092 4091 14051
 4093 4092 14052
 4094 4093 14053
 4095 4094 14054
 4096 4095 14055
 4097 4096 14056
 4098 4097 14057
 4099 4098 14058
 4101 4100 14059
 4102 4101 14060
 4103 4102 14061
 4104 4103 14062
 4105 4104 14063
 4106 4105 14064
 4107 4106 14065
 4108 4107 14066
 4109 4108 14067
 4110 4109 14068
 4111 4110 14069
 4112 4111 14070
 4113 4112 14071
 4114 4113 14072
 4115 4114 14073
 4116 4115 14074
 4117 4116 14075
 4118 4117 14076
 4119 4118 14077
 4120 4119 14078
 4121 4120 14079
 4122 4121 14080
 4123 4122 14081
 4124 4123 14082
 4125 4124 14083
 4126 4125 14084
 4127 4126 14085
 4128 4127 14086
 4129 4128 14087
 4130 4129 14088
 4131 4130 14089
 4132 4131 14090
 4133 4132 14091
 4134 4133 14092
 4135 4134 14093
 4136 4135 14094
 4137 4136 14095
 4138 4137 14096
 4139 4138 14097
 4140 4139 14098
 4141 4140 14099
 4142 4141 14100
 4143 4142 14101
 4144 4143 14102
 4145 4144 14103
 4146 4145 14104
 4147 4146 14105
 4148 4147 14106
 4149 4148 14107
 4150 4149 14108
 4151 4150 14109
 4152 4151 14110
 4153 4152 14111
 4154 4153 14112
 4155 4154 14113
 4156 4155 14114
 4157 4156 14115
 4158 4157 14116
 4159 4158 14117
 4160 4159 14118
 4161 4160 14119
 4162 4161 14120
 4163 4162 14121
 4164 4163 14122
 4165 4164 14123
 4166 4165 14124
 4167 4166 14125
 4168 4167 14126
 4169 4168 14127
 4170 4169 14128
 4171 4170 14129
 4172 4171 14130
 4173 4172 14131
 4174 4173 14132
 4175 4174 14133
 4176 4175 14134
 4177 4176 14135
 4178 4177 14136
 4179 4178 14137
 4180 4179 14138
 4181 4180 14139
 4182 4181 14140
 4183 4182 14141
 4184 4183 14142
 4185 4184 14143
 4186 4185 14144
 4187 4186 14145
 4188 4187 14146
 4189 4188 14147
 4190 4189 14148
 4191 4190 14149
 4192 4191 14150
 4193 4192 14151
 4194 4193 14152
 4195 4194 14153
 4196 4195 14154
 4197 4196 14155
 4198 4197 14156
 4199 4198 14157
 4201 4200 14158
 4202 4201 14159
 4203 4202 14160
 4204 4203 14161
 4205 4204 14162
 4206 4205 14163
 4207 4206 14164
 4208 4207 14165
 4209 4208 14166
 4210 4209 14167
 4211 4210 14168
 4212 4211 14169
 4213 4212 14170
 4214 4213 14171
 4215 4214 14172
 4216 4215 14173
 4217 4216 14174
 4218 4217 14175
 4219 4218 14176
 4220 4219 14177
 4221 4220 14178
 4222 4221 14179
 4223 4222 14180
 4224 4223 14181
 4225 4224 14182
 4226 4225 14183
 4227 4226 14184
 4228 4227 14185
 4229 4228 14186
 4230 4229 14187
 4231 4230 14188
 4232 4231 14189
 4233 4232 14190
 4234 4233 14191
 4235 4234 14192
 4236 4235 14193
 4237 4236 14194
 4238 4237 14195
 4239 4238 14196
 4240 4239 14197
 4241 4240 14198
 4242 4241 14199
 4243 4242 14200
 4244 4243 14201
 4245 4244 14202
 4246 4245 14203
 4247 4246 14204
 4248 4247 14205
 4249 4248 14206
 4250 4249 14207
 4251 4250 14208
 4252 4251 14209
 4253 4252 14210
 4254 4253 14211
 4255 4254 14212
 4256 4255 14213
 4257 4256 14214
 4258 4257 14215
 4259 4258 14216
 4260 4259 14217
 4261 4260 14218
 4262 4261 14219
 4263 4262 14220
 4264 4263 14221
 4265 4264 14222
 4266 4265 14223
 4267 4266 14224
 4268 4267 14225
 4269 4268 14226
 4270 4269 14227
 4271 4270 14228
 4272 4271 14229
 4273 4272 14230
 4274 4273 14231
 4275 4274 14232
 4276 4275 14233
 4277 4276 14234
 4278 4277 14235
 4279 4278 14236
 4280 4279 14237
 4281 4280 14238
 4282 4281 14239
 4283 4282 14240
 4284 4283 14241
 4285 4284 14242
 4286 4285 14243
 4287 4286 14244
 4288 4287 14245
 4289 4288 14246
 4290 4289 14247
 4291 4290 14248
 4292 4291 14249
 4293 4292 14250
 4294 4293 14251
 4295 4294 14252
 4296 4295 14253
 4297 4296 14254
 4298 4297 14255
 4299 4298 14256
 4301 4300 14257
 4302 4301 14258
 4303 4302 14259
 4304 4303 14260
 4305 4304 14261
 4306 4305 14262
 4307 4306 14263
 4308 4307 14264
 4309 4308 14265
 4310 4309 14266
 4311 4310 14267
 4312 4311 14268
 4313 4312 14269
 4314 4313 14270
 4315 4314 14271
 4316 4315 14272
 4317 4316 14273
 4318 4317 14274
 4319 4318 14275
 4320 4319 14276
 4321 4320 14277
 4322 4321 14278
 4323 4322 14279
 4324 4323 14280
 4325 4324 14281
 4326 4325 14282
 4327 4326 14283
 4328 4327 14284
 4329 4328 14285
 4330 4329 14286
 4331 4330 14287
 4332 4331 14288
 4333 4332 14289
 4334 4333 14290
 4335 4334 14291
 4336 4335 14292
 4337 4336 14293
 4338 4337 14294
 4339 4338 14295
 4340 4339 14296
 4341 4340 14297
 4342 4341 14298
 4343 4342 14299
 4344 4343 14300
 4345 4344 14301
 4346 4345 14302
 4347 4346 14303
 4348 4347 14304
 4349 4348 14305
 4350 4349 14306
 4351 4350 14307
 4352 4351 14308
 4353 4352 14309
 4354 4353 14310
 4355 4354 14311
 4356 4355 14312
 4357 4356 14313
 4358 4357 14314
 4359 4358 14315
 4360 4359 14316
 4361 4360 14317
 4362 4361 14318
 4363 4362 14319
 4364 4363 14320
 4365 4364 14321
 4366 4365 14322
 4367 4366 14323
 4368 4367 14324
 4369 4368 14325
 4370 4369 14326
 4371 4370 14327
 4372 4371 14328
 4373 4372 14329
 4374 4373 14330
 4375 4374 14331
 4376 4375 14332
 4377 4376 14333
 4378 4377 14334
 4379 4378 14335
 4380 4379 14336
 4381 4380 14337
 4382 4381 14338
 4383 4382 14339
 4384 4383 14340
 4385 4384 14341
 4386 4385 14342
 4387 4386 14343
 4388 4387 14344
 4389 4388 14345
 4390 4389 14346
 4391 4390 14347
 4392 4391 14348
 4393 4392 14349
 4394 4393 14350
 4395 4394 14351
 4396 4395 14352
 4397 4396 14353
 4398 4397 14354
 4399 4398 14355
 4401 4400 14356
 4402 4401 14357
 4403 4402 14358
 4404 4403 14359
 4405 4404 14360
 4406 4405 14361
 4407 4406 14362
 4408 4407 14363
 4409 4408 14364
 4410 4409 14365
 4411 4410 14366
 4412 4411 14367
 4413 4412 14368
 4414 4413 14369
 4415 4414 14370
 4416 4415 14371
 4417 4416 14372
 4418 4417 14373
 4419 4418 14374
 4420 4419 14375
 4421 4420 14376
 4422 4421 14377
 4423 4422 14378
 4424 4423 14379
 4425 4424 14380
 4426 4425 14381
 4427 4426 14382
 4428 4427 14383
 4429 4428 14384
 4430 4429 14385
 4431 4430 14386
 4432 4431 14387
 4433 4432 14388
 4434 4433 14389
 4435 4434 14390
 4436 4435 14391
 4437 4436 14392
 4438 4437 14393
 4439 4438 14394
 4440 4439 14395
 4441 4440 14396
 4442 4441 14397
 4443 4442 14398
 4444 4443 14399
 4445 4444 14400
 4446 4445 14401
 4447 4446 14402
 4448 4447 14403
 4449 4448 14404
 4450 4449 14405
 4451 4450 14406
 4452 4451 14407
 4453 4452 14408
 4454 4453 14409
 4455 4454 14410
 4456 4455 14411
 4457 4456 14412
 4458 4457 14413
 4459 4458 14414
 4460 4459 14415
 4461 4460 14416
 4462 4461 14417
 4463 4462 14418
 4464 4463 14419
 4465 4464 14420
 4466 4465 14421
 4467 4466 14422
 4468 4467 14423
 4469 4468 14424
 4470 4469 14425
 4471 4470 14426
 4472 4471 14427
 4473 4472 14428
 4474 4473 14429
 4475 4474 14430
 4476 4475 14431
 4477 4476 14432
 4478 4477 14433
 4479 4478 14434
 4480 4479 14435
 4481 4480 14436
 4482 4481 14437
 4483 4482 14438
 4484 4483 14439
 4485 4484 14440
 4486 4485 14441
 4487 4486 14442
 4488 4487 14443
 4489 4488 14444
 4490 4489 14445
 4491 4490 14446
 4492 4491 14447
 4493 4492 14448
 4494 4493 14449
 4495 4494 14450
 4496 4495 14451
 4497 4496 14452
 4498 4497 14453
 4499 4498 14454
 4501 4500 14455
 4502 4501 14456
 4503 4502 14457
 4504 4503 14458
 4505 4504 14459
 4506 4505 14460
 4507 4506 14461
 4508 4507 14462
 4509 4508 14463
 4510 4509 14464
 4511 4510 14465
 4512 4511 14466
 4513 4512 14467
 4514 4513 14468
 4515 4514 14469
 4516 4515 14470
 4517 4516 14471
 4518 4517 14472
 4519 4518 14473
 4520 4519 14474
 4521 4520 14475
 4522 4521 14476
 4523 4522 14477
 4524 4523 14478
 4525 4524 14479
 4526 4525 14480
 4527 4526 14481
 4528 4527 14482
 4529 4528 14483
 4530 4529 14484
 4531 4530 14485
 4532 4531 14486
 4533 4532 14487
 4534 4533 14488
 4535 4534 14489
 4536 4535 14490
 4537 4536 14491
 4538 4537 14492
 4539 4538 14493
 4540 4539 14494
 4541 4540 14495
 4542 4541 14496
 4543 4542 14497
 4544 4543 14498
 4545 4544 14499
 4546 4545 14500
 4547 4546 14501
 4548 4547 14502
 4549 4548 14503
 4550 4549 14504
 4551 4550 14505
 4552 4551 14506
 4553 4552 14507
 4554 4553 14508
 4555 4554 14509
 4556 4555 14510
 4557 4556 14511
 4558 4557 14512
 4559 4558 14513
 4560 4559 14514
 4561 4560 14515
 4562 4561 14516
 4563 4562 14517
 4564 4563 14518
 4565 4564 14519
 4566 4565 14520
 4567 4566 14521
 4568 4567 14522
 4569 4568 14523
 4570 4569 14524
 4571 4570 14525
 4572 4571 14526
 4573 4572 14527
 4574 4573 14528
 4575 4574 14529
 4576 4575 14530
 4577 4576 14531
 4578 4577 14532
 4579 4578 14533
 4580 4579 14534
 4581 4580 14535
 4582 4581 14536
 4583 4582 14537
 4584 4583 14538
 4585 4584 14539
 4586 4585 14540
 4587 4586 14541
 4588 4587 14542
 4589 4588 14543
 4590 4589 14544
 4591 4590 14545
 4592 4591 14546
 4593 4592 14547
 4594 4593 14548
 4595 4594 14549
 4596 4595 14550
 4597 4596 14551
 4598 4597 14552
 4599 4598 14553
 4601 4600 14554
 4602 4601 14555
 4603 4602 14556
 4604 4603 14557
 4605 4604 14558
 4606 4605 14559
 4607 4606 14560
 4608 4607 14561
 4609 4608 14562
 4610 4609 14563
 4611 4610 14564
 4612 4611 14565
 4613 4612 14566
 4614 4613 14567
 4615 4614 14568
 4616 4615 14569
 4617 4616 14570
 4618 4617 14571
 4619 4618 14572
 4620 4619 14573
 4621 4620 14574
 4622 4621 14575
 4623 4622 14576
 4624 4623 14577
 4625 4624 14578
 4626 4625 14579
 4627 4626 14580
 4628 4627 14581
 4629 4628 14582
 4630 4629 14583
 4631 4630 14584
 4632 4631 14585
 4633 4632 14586
 4634 4633 14587
 4635 4634 14588
 4636 4635 14589
 4637 4636 14590
 4638 4637 14591
 4639 4638 14592
 4640 4639 14593
 4641 4640 14594
 4642 4641 14595
 4643 4642 14596
 4644 4643 14597
 4645 4644 14598
 4646 4645 14599
 4647 4646 14600
 4648 4647 14601
 4649 4648 14602
 4650 4649 14603
 4651 4650 14604
 4652 4651 14605
 4653 4652 14606
 4654 4653 14607
 4655 4654 14608
 4656 4655 14609
 4657 4656 14610
 4658 4657 14611
 4659 4658 14612
 4660 4659 14613
 4661 4660 14614
 4662 4661 14615
 4663 4662 14616
 4664 4663 14617
 4665 4664 14618
 4666 4665 14619
 4667 4666 14620
 4668 4667 14621
 4669 4668 14622
 4670 4669 14623
 4671 4670 14624
 4672 4671 14625
 4673 4672 14626
 4674 4673 14627
 4675 4674 14628
 4676 4675 14629
 4677 4676 14630
 4678 4677 14631
 4679 4678 14632
 4680 4679 14633
 4681 4680 14634
 4682 4681 14635
 4683 4682 14636
 4684 4683 14637
 4685 4684 14638
 4686 4685 14639
 4687 4686 14640
 4688 4687 14641
 4689 4688 14642
 4690 4689 14643
 4691 4690 14644
 4692 4691 14645
 4693 4692 14646
 4694 4693 14647
 4695 4694 14648
 4696 4695 14649
 4697 4696 14650
 4698 4697 14651
 4699 4698 14652
 4701 4700 14653
 4702 4701 14654
 4703 4702 14655
 4704 4703 14656
 4705 4704 14657
 4706 4705 14658
 4707 4706 14659
 4708 4707 14660
 4709 4708 14661
 4710 4709 14662
 4711 4710 14663
 4712 4711 14664
 4713 4712 14665
 4714 4713 14666
 4715 4714 14667
 4716 4715 14668
 4717 4716 14669
 4718 4717 14670
 4719 4718 14671
 4720 4719 14672
 4721 4720 14673
 4722 4721 14674
 4723 4722 14675
 4724 4723 14676
 4725 4724 14677
 4726 4725 14678
 4727 4726 14679
 4728 4727 14680
 4729 4728 14681
 4730 4729 14682
 4731 4730 14683
 4732 4731 14684
 4733 4732 14685
 4734 4733 14686
 4735 4734 14687
 4736 4735 14688
 4737 4736 14689
 4738 4737 14690
 4739 4738 14691
 4740 4739 14692
 4741 4740 14693
 4742 4741 14694
 4743 4742 14695
 4744 4743 14696
 4745 4744 14697
 4746 4745 14698
 4747 4746 14699
 4748 4747 14700
 4749 4748 14701
 4750 4749 14702
 4751 4750 14703
 4752 4751 14704
 4753 4752 14705
 4754 4753 14706
 4755 4754 14707
 4756 4755 14708
 4757 4756 14709
 4758 4757 14710
 4759 4758 14711
 4760 4759 14712
 4761 4760 14713
 4762 4761 14714
 4763 4762 14715
 4764 4763 14716
 4765 4764 14717
 4766 4765 14718
 4767 4766 14719
 4768 4767 14720
 4769 4768 14721
 4770 4769 14722
 4771 4770 14723
 4772 4771 14724
 4773 4772 14725
 4774 4773 14726
 4775 4774 14727
 4776 4775 14728
 4777 4776 14729
 4778 4777 14730
 4779 4778 14731
 4780 4779 14732
 4781 4780 14733
 4782 4781 14734
 4783 4782 14735
 4784 4783 14736
 4785 4784 14737
 4786 4785 14738
 4787 4786 14739
 4788 4787 14740
 4789 4788 14741
 4790 4789 14742
 4791 4790 14743
 4792 4791 14744
 4793 4792 14745
 4794 4793 14746
 4795 4794 14747
 4796 4795 14748
 4797 4796 14749
 4798 4797 14750
 4799 4798 14751
 4801 4800 14752
 4802 4801 14753
 4803 4802 14754
 4804 4803 14755
 4805 4804 14756
 4806 4805 14757
 4807 4806 14758
 4808 4807 14759
 4809 4808 14760
 4810 4809 14761
 4811 4810 14762
 4812 4811 14763
 4813 4812 14764
 4814 4813 14765
 4815 4814 14766
 4816 4815 14767
 4817 4816 14768
 4818 4817 14769
 4819 4818 14770
 4820 4819 14771
 4821 4820 14772
 4822 4821 14773
 4823 4822 14774
 4824 4823 14775
 4825 4824 14776
 4826 4825 14777
 4827 4826 14778
 4828 4827 14779
 4829 4828 14780
 4830 4829 14781
 4831 4830 14782
 4832 4831 14783
 4833 4832 14784
 4834 4833 14785
 4835 4834 14786
 4836 4835 14787
 4837 4836 14788
 4838 4837 14789
 4839 4838 14790
 4840 4839 14791
 4841 4840 14792
 4842 4841 14793
 4843 4842 14794
 4844 4843 14795
 4845 4844 14796
 4846 4845 14797
 4847 4846 14798
 4848 4847 14799
 4849 4848 14800
 4850 4849 14801
 4851 4850 14802
 4852 4851 14803
 4853 4852 14804
 4854 4853 14805
 4855 4854 14806
 4856 4855 14807
 4857 4856 14808
 4858 4857 14809
 4859 4858 14810
 4860 4859 14811
 4861 4860 14812
 4862 4861 14813
 4863 4862 14814
 4864 4863 14815
 4865 4864 14816
 4866 4865 14817
 4867 4866 14818
 4868 4867 14819
 4869 4868 14820
 4870 4869 14821
 4871 4870 14822
 4872 4871 14823
 4873 4872 14824
 4874 4873 14825
 4875 4874 14826
 4876 4875 14827
 4877 4876 14828
 4878 4877 14829
 4879 4878 14830
 4880 4879 14831
 4881 4880 14832
 4882 4881 14833
 4883 4882 14834
 4884 4883 14835
 4885 4884 14836
 4886 4885 14837
 4887 4886 14838
 4888 4887 14839
 4889 4888 14840
 4890 4889 14841
 4891 4890 14842
 4892 4891 14843
 4893 4892 14844
 4894 4893 14845
 4895 4894 14846
 4896 4895 14847
 4897 4896 14848
 4898 4897 14849
 4899 4898 14850
 4901 4900 14851
 4902 4901 14852
 4903 4902 14853
 4904 4903 14854
 4905 4904 14855
 4906 4905 14856
 4907 4906 14857
 4908 4907 14858
 4909 4908 14859
 4910 4909 14860
 4911 4910 14861
 4912 4911 14862
 4913 4912 14863
 4914 4913 14864
 4915 4914 14865
 4916 4915 14866
 4917 4916 14867
 4918 4917 14868
 4919 4918 14869
 4920 4919 14870
 4921 4920 14871
 4922 4921 14872
 4923 4922 14873
 4924 4923 14874
 4925 4924 14875
 4926 4925 14876
 4927 4926 14877
 4928 4927 14878
 4929 4928 14879
 4930 4929 14880
 4931 4930 14881
 4932 4931 14882
 4933 4932 14883
 4934 4933 14884
 4935 4934 14885
 4936 4935 14886
 4937 4936 14887
 4938 4937 14888
 4939 4938 14889
 4940 4939 14890
 4941 4940 14891
 4942 4941 14892
 4943 4942 14893
 4944 4943 14894
 4945 4944 14895
 4946 4945 14896
 4947 4946 14897
 4948 4947 14898
 4949 4948 14899
 4950 4949 14900
 4951 4950 14901
 4952 4951 14902
 4953 4952 14903
 4954 4953 14904
 4955 4954 14905
 4956 4955 14906
 4957 4956 14907
 4958 4957 14908
 4959 4958 14909
 4960 4959 14910
 4961 4960 14911
 4962 4961 14912
 4963 4962 14913
 4964 4963 14914
 4965 4964 14915
 4966 4965 14916
 4967 4966 14917
 4968 4967 14918
 4969 4968 14919
 4970 4969 14920
 4971 4970 14921
 4972 4971 14922
 4973 4972 14923
 4974 4973 14924
 4975 4974 14925
 4976 4975 14926
 4977 4976 14927
 4978 4977 14928
 4979 4978 14929
 4980 4979 14930
 4981 4980 14931
 4982 4981 14932
 4983 4982 14933
 4984 4983 14934
 4985 4984 14935
 4986 4985 14936
 4987 4986 14937
 4988 4987 14938
 4989 4988 14939
 4990 4989 14940
 4991 4990 14941
 4992 4991 14942
 4993 4992 14943
 4994 4993 14944
 4995 4994 14945
 4996 4995 14946
 4997 4996 14947
 4998 4997 14948
 4999 4998 14949
 5001 5000 14950
 5002 5001 14951
 5003 5002 14952
 5004 5003 14953
 5005 5004 14954
 5006 5005 14955
 5007 5006 14956
 5008 5007 14957
 5009 5008 14958
 5010 5009 14959
 5011 5010 14960
 5012 5011 14961
 5013 5012 14962
 5014 5013 14963
 5015 5014 14964
 5016 5015 14965
 5017 5016 14966
 5018 5017 14967
 5019 5018 14968
 5020 5019 14969
 5021 5020 14970
 5022 5021 14971
 5023 5022 14972
 5024 5023 14973
 5025 5024 14974
 5026 5025 14975
 5027 5026 14976
 5028 5027 14977
 5029 5028 14978
 5030 5029 14979
 5031 5030 14980
 5032 5031 14981
 5033 5032 14982
 5034 5033 14983
 5035 5034 14984
 5036 5035 14985
 5037 5036 14986
 5038 5037 14987
 5039 5038 14988
 5040 5039 14989
 5041 5040 14990
 5042 5041 14991
 5043 5042 14992
 5044 5043 14993
 5045 5044 14994
 5046 5045 14995
 5047 5046 14996
 5048 5047 14997
 5049 5048 14998
 5050 5049 14999
 5051 5050 15000
 5052 5051 15001
 5053 5052 15002
 5054 5053 15003
 5055 5054 15004
 5056 5055 15005
 5057 5056 15006
 5058 5057 15007
 5059 5058 15008
 5060 5059 15009
 5061 5060 15010
 5062 5061 15011
 5063 5062 15012
 5064 5063 15013
 5065 5064 15014
 5066 5065 15015
 5067 5066 15016
 5068 5067 15017
 5069 5068 15018
 5070 5069 15019
 5071 5070 15020
 5072 5071 15021
 5073 5072 15022
 5074 5073 15023
 5075 5074 15024
 5076 5075 15025
 5077 5076 15026
 5078 5077 15027
 5079 5078 15028
 5080 5079 15029
 5081 5080 15030
 5082 5081 15031
 5083 5082 15032
 5084 5083 15033
 5085 5084 15034
 5086 5085 15035
 5087 5086 15036
 5088 5087 15037
 5089 5088 15038
 5090 5089 15039
 5091 5090 15040
 5092 5091 15041
 5093 5092 15042
 5094 5093 15043
 5095 5094 15044
 5096 5095 15045
 5097 5096 15046
 5098 5097 15047
 5099 5098 15048
 5101 5100 15049
 5102 5101 15050
 5103 5102 15051
 5104 5103 15052
 5105 5104 15053
 5106 5105 15054
 5107 5106 15055
 5108 5107 15056
 5109 5108 15057
 5110 5109 15058
 5111 5110 15059
 5112 5111 15060
 5113 5112 15061
 5114 5113 15062
 5115 5114 15063
 5116 5115 15064
 5117 5116 15065
 5118 5117 15066
 5119 5118 15067
 5120 5119 15068
 5121 5120 15069
 5122 5121 15070
 5123 5122 15071
 5124 5123 15072
 5125 5124 15073
 5126 5125 15074
 5127 5126 15075
 5128 5127 15076
 5129 5128 15077
 5130 5129 15078
 5131 5130 15079
 5132 5131 15080
 5133 5132 15081
 5134 5133 15082
 5135 5134 15083
 5136 5135 15084
 5137 5136 15085
 5138 5137 15086
 5139 5138 15087
 5140 5139 15088
 5141 5140 15089
 5142 5141 15090
 5143 5142 15091
 5144 5143 15092
 5145 5144 15093
 5146 5145 15094
 5147 5146 15095
 5148 5147 15096
 5149 5148 15097
 5150 5149 15098
 5151 5150 15099
 5152 5151 15100
 5153 5152 15101
 5154 5153 15102
 5155 5154 15103
 5156 5155 15104
 5157 5156 15105
 5158 5157 15106
 5159 5158 15107
 5160 5159 15108
 5161 5160 15109
 5162 5161 15110
 5163 5162 15111
 5164 5163 15112
 5165 5164 15113
 5166 5165 15114
 5167 5166 15115
 5168 5167 15116
 5169 5168 15117
 5170 5169 15118
 5171 5170 15119
 5172 5171 15120
 5173 5172 15121
 5174 5173 15122
 5175 5174 15123
 5176 5175 15124
 5177 5176 15125
 5178 5177 15126
 5179 5178 15127
 5180 5179 15128
 5181 5180 15129
 5182 5181 15130
 5183 5182 15131
 5184 5183 15132
 5185 5184 15133
 5186 5185 15134
 5187 5186 15135
 5188 5187 15136
 5189 5188 15137
 5190 5189 15138
 5191 5190 15139
 5192 5191 15140
 5193 5192 15141
 5194 5193 15142
 5195 5194 15143
 5196 5195 15144
 5197 5196 15145
 5198 5197 15146
 5199 5198 15147
 5201 5200 15148
 5202 5201 15149
 5203 5202 15150
 5204 5203 15151
 5205 5204 15152
 5206 5205 15153
 5207 5206 15154
 5208 5207 15155
 5209 5208 15156
 5210 5209 15157
 5211 5210 15158
 5212 5211 15159
 5213 5212 15160
 5214 5213 15161
 5215 5214 15162
 5216 5215 15163
 5217 5216 15164
 5218 5217 15165
 5219 5218 15166
 5220 5219 15167
 5221 5220 15168
 5222 5221 15169
 5223 5222 15170
 5224 5223 15171
 5225 5224 15172
 5226 5225 15173
 5227 5226 15174
 5228 5227 15175
 5229 5228 15176
 5230 5229 15177
 5231 5230 15178
 5232 5231 15179
 5233 5232 15180
 5234 5233 15181
 5235 5234 15182
 5236 5235 15183
 5237 5236 15184
 5238 5237 15185
 5239 5238 15186
 5240 5239 15187
 5241 5240 15188
 5242 5241 15189
 5243 5242 15190
 5244 5243 15191
 5245 5244 15192
 5246 5245 15193
 5247 5246 15194
 5248 5247 15195
 5249 5248 15196
 5250 5249 15197
 5251 5250 15198
 5252 5251 15199
 5253 5252 15200
 5254 5253 15201
 5255 5254 15202
 5256 5255 15203
 5257 5256 15204
 5258 5257 15205
 5259 5258 15206
 5260 5259 15207
 5261 5260 15208
 5262 5261 15209
 5263 5262 15210
 5264 5263 15211
 5265 5264 15212
 5266 5265 15213
 5267 5266 15214
 5268 5267 15215
 5269 5268 15216
 5270 5269 15217
 5271 5270 15218
 5272 5271 15219
 5273 5272 15220
 5274 5273 15221
 5275 5274 15222
 5276 5275 15223
 5277 5276 15224
 5278 5277 15225
 5279 5278 15226
 5280 5279 15227
 5281 5280 15228
 5282 5281 15229
 5283 5282 15230
 5284 5283 15231
 5285 5284 15232
 5286 5285 15233
 5287 5286 15234
 5288 5287 15235
 5289 5288 15236
 5290 5289 15237
 5291 5290 15238
 5292 5291 15239
 5293 5292 15240
 5294 5293 15241
 5295 5294 15242
 5296 5295 15243
 5297 5296 15244
 5298 5297 15245
 5299 5298 15246
 5301 5300 15247
 5302 5301 15248
 5303 5302 15249
 5304 5303 15250
 5305 5304 15251
 5306 5305 15252
 5307 5306 15253
 5308 5307 15254
 5309 5308 15255
 5310 5309 15256
 5311 5310 15257
 5312 5311 15258
 5313 5312 15259
 5314 5313 15260
 5315 5314 15261
 5316 5315 15262
 5317 5316 15263
 5318 5317 15264
 5319 5318 15265
 5320 5319 15266
 5321 5320 15267
 5322 5321 15268
 5323 5322 15269
 5324 5323 15270
 5325 5324 15271
 5326 5325 15272
 5327 5326 15273
 5328 5327 15274
 5329 5328 15275
 5330 5329 15276
 5331 5330 15277
 5332 5331 15278
 5333 5332 15279
 5334 5333 15280
 5335 5334 15281
 5336 5335 15282
 5337 5336 15283
 5338 5337 15284
 5339 5338 15285
 5340 5339 15286
 5341 5340 15287
 5342 5341 15288
 5343 5342 15289
 5344 5343 15290
 5345 5344 15291
 5346 5345 15292
 5347 5346 15293
 5348 5347 15294
 5349 5348 15295
 5350 5349 15296
 5351 5350 15297
 5352 5351 15298
 5353 5352 15299
 5354 5353 15300
 5355 5354 15301
 5356 5355 15302
 5357 5356 15303
 5358 5357 15304
 5359 5358 15305
 5360 5359 15306
 5361 5360 15307
 5362 5361 15308
 5363 5362 15309
 5364 5363 15310
 5365 5364 15311
 5366 5365 15312
 5367 5366 15313
 5368 5367 15314
 5369 5368 15315
 5370 5369 15316
 5371 5370 15317
 5372 5371 15318
 5373 5372 15319
 5374 5373 15320
 5375 5374 15321
 5376 5375 15322
 5377 5376 15323
 5378 5377 15324
 5379 5378 15325
 5380 5379 15326
 5381 5380 15327
 5382 5381 15328
 5383 5382 15329
 5384 5383 15330
 5385 5384 15331
 5386 5385 15332
 5387 5386 15333
 5388 5387 15334
 5389 5388 15335
 5390 5389 15336
 5391 5390 15337
 5392 5391 15338
 5393 5392 15339
 5394 5393 15340
 5395 5394 15341
 5396 5395 15342
 5397 5396 15343
 5398 5397 15344
 5399 5398 15345
 5401 5400 15346
 5402 5401 15347
 5403 5402 15348
 5404 5403 15349
 5405 5404 15350
 5406 5405 15351
 5407 5406 15352
 5408 5407 15353
 5409 5408 15354
 5410 5409 15355
 5411 5410 15356
 5412 5411 15357
 5413 5412 15358
 5414 5413 15359
 5415 5414 15360
 5416 5415 15361
 5417 5416 15362
 5418 5417 15363
 5419 5418 15364
 5420 5419 15365
 5421 5420 15366
 5422 5421 15367
 5423 5422 15368
 5424 5423 15369
 5425 5424 15370
 5426 5425 15371
 5427 5426 15372
 5428 5427 15373
 5429 5428 15374
 5430 5429 15375
 5431 5430 15376
 5432 5431 15377
 5433 5432 15378
 5434 5433 15379
 5435 5434 15380
 5436 5435 15381
 5437 5436 15382
 5438 5437 15383
 5439 5438 15384
 5440 5439 15385
 5441 5440 15386
 5442 5441 15387
 5443 5442 15388
 5444 5443 15389
 5445 5444 15390
 5446 5445 15391
 5447 5446 15392
 5448 5447 15393
 5449 5448 15394
 5450 5449 15395
 5451 5450 15396
 5452 5451 15397
 5453 5452 15398
 5454 5453 15399
 5455 5454 15400
 5456 5455 15401
 5457 5456 15402
 5458 5457 15403
 5459 5458 15404
 5460 5459 15405
 5461 5460 15406
 5462 5461 15407
 5463 5462 15408
 5464 5463 15409
 5465 5464 15410
 5466 5465 15411
 5467 5466 15412
 5468 5467 15413
 5469 5468 15414
 5470 5469 15415
 5471 5470 15416
 5472 5471 15417
 5473 5472 15418
 5474 5473 15419
 5475 5474 15420
 5476 5475 15421
 5477 5476 15422
 5478 5477 15423
 5479 5478 15424
 5480 5479 15425
 5481 5480 15426
 5482 5481 15427
 5483 5482 15428
 5484 5483 15429
 5485 5484 15430
 5486 5485 15431
 5487 5486 15432
 5488 5487 15433
 5489 5488 15434
 5490 5489 15435
 5491 5490 15436
 5492 5491 15437
 5493 5492 15438
 5494 5493 15439
 5495 5494 15440
 5496 5495 15441
 5497 5496 15442
 5498 5497 15443
 5499 5498 15444
 5501 5500 15445
 5502 5501 15446
 5503 5502 15447
 5504 5503 15448
 5505 5504 15449
 5506 5505 15450
 5507 5506 15451
 5508 5507 15452
 5509 5508 15453
 5510 5509 15454
 5511 5510 15455
 5512 5511 15456
 5513 5512 15457
 5514 5513 15458
 5515 5514 15459
 5516 5515 15460
 5517 5516 15461
 5518 5517 15462
 5519 5518 15463
 5520 5519 15464
 5521 5520 15465
 5522 5521 15466
 5523 5522 15467
 5524 5523 15468
 5525 5524 15469
 5526 5525 15470
 5527 5526 15471
 5528 5527 15472
 5529 5528 15473
 5530 5529 15474
 5531 5530 15475
 5532 5531 15476
 5533 5532 15477
 5534 5533 15478
 5535 5534 15479
 5536 5535 15480
 5537 5536 15481
 5538 5537 15482
 5539 5538 15483
 5540 5539 15484
 5541 5540 15485
 5542 5541 15486
 5543 5542 15487
 5544 5543 15488
 5545 5544 15489
 5546 5545 15490
 5547 5546 15491
 5548 5547 15492
 5549 5548 15493
 5550 5549 15494
 5551 5550 15495
 5552 5551 15496
 5553 5552 15497
 5554 5553 15498
 5555 5554 15499
 5556 5555 15500
 5557 5556 15501
 5558 5557 15502
 5559 5558 15503
 5560 5559 15504
 5561 5560 15505
 5562 5561 15506
 5563 5562 15507
 5564 5563 15508
 5565 5564 15509
 5566 5565 15510
 5567 5566 15511
 5568 5567 15512
 5569 5568 15513
 5570 5569 15514
 5571 5570 15515
 5572 5571 15516
 5573 5572 15517
 5574 5573 15518
 5575 5574 15519
 5576 5575 15520
 5577 5576 15521
 5578 5577 15522
 5579 5578 15523
 5580 5579 15524
 5581 5580 15525
 5582 5581 15526
 5583 5582 15527
 5584 5583 15528
 5585 5584 15529
 5586 5585 15530
 5587 5586 15531
 5588 5587 15532
 5589 5588 15533
 5590 5589 15534
 5591 5590 15535
 5592 5591 15536
 5593 5592 15537
 5594 5593 15538
 5595 5594 15539
 5596 5595 15540
 5597 5596 15541
 5598 5597 15542
 5599 5598 15543
 5601 5600 15544
 5602 5601 15545
 5603 5602 15546
 5604 5603 15547
 5605 5604 15548
 5606 5605 15549
 5607 5606 15550
 5608 5607 15551
 5609 5608 15552
 5610 5609 15553
 5611 5610 15554
 5612 5611 15555
 5613 5612 15556
 5614 5613 15557
 5615 5614 15558
 5616 5615 15559
 5617 5616 15560
 5618 5617 15561
 5619 5618 15562
 5620 5619 15563
 5621 5620 15564
 5622 5621 15565
 5623 5622 15566
 5624 5623 15567
 5625 5624 15568
 5626 5625 15569
 5627 5626 15570
 5628 5627 15571
 5629 5628 15572
 5630 5629 15573
 5631 5630 15574
 5632 5631 15575
 5633 5632 15576
 5634 5633 15577
 5635 5634 15578
 5636 5635 15579
 5637 5636 15580
 5638 5637 15581
 5639 5638 15582
 5640 5639 15583
 5641 5640 15584
 5642 5641 15585
 5643 5642 15586
 5644 5643 15587
 5645 5644 15588
 5646 5645 15589
 5647 5646 15590
 5648 5647 15591
 5649 5648 15592
 5650 5649 15593
 5651 5650 15594
 5652 5651 15595
 5653 5652 15596
 5654 5653 15597
 5655 5654 15598
 5656 5655 15599
 5657 5656 15600
 5658 5657 15601
 5659 5658 15602
 5660 5659 15603
 5661 5660 15604
 5662 5661 15605
 5663 5662 15606
 5664 5663 15607
 5665 5664 15608
 5666 5665 15609
 5667 5666 15610
 5668 5667 15611
 5669 5668 15612
 5670 5669 15613
 5671 5670 15614
 5672 5671 15615
 5673 5672 15616
 5674 5673 15617
 5675 5674 15618
 5676 5675 15619
 5677 5676 15620
 5678 5677 15621
 5679 5678 15622
 5680 5679 15623
 5681 5680 15624
 5682 5681 15625
 5683 5682 15626
 5684 5683 15627
 5685 5684 15628
 5686 5685 15629
 5687 5686 15630
 5688 5687 15631
 5689 5688 15632
 5690 5689 15633
 5691 5690 15634
 5692 5691 15635
 5693 5692 15636
 5694 5693 15637
 5695 5694 15638
 5696 5695 15639
 5697 5696 15640
 5698 5697 15641
 5699 5698 15642
 5701 5700 15643
 5702 5701 15644
 5703 5702 15645
 5704 5703 15646
 5705 5704 15647
 5706 5705 15648
 5707 5706 15649
 5708 5707 15650
 5709 5708 15651
 5710 5709 15652
 5711 5710 15653
 5712 5711 15654
 5713 5712 15655
 5714 5713 15656
 5715 5714 15657
 5716 5715 15658
 5717 5716 15659
 5718 5717 15660
 5719 5718 15661
 5720 5719 15662
 5721 5720 15663
 5722 5721 15664
 5723 5722 15665
 5724 5723 15666
 5725 5724 15667
 5726 5725 15668
 5727 5726 15669
 5728 5727 15670
 5729 5728 15671
 5730 5729 15672
 5731 5730 15673
 5732 5731 15674
 5733 5732 15675
 5734 5733 15676
 5735 5734 15677
 5736 5735 15678
 5737 5736 15679
 5738 5737 15680
 5739 5738 15681
 5740 5739 15682
 5741 5740 15683
 5742 5741 15684
 5743 5742 15685
 5744 5743 15686
 5745 5744 15687
 5746 5745 15688
 5747 5746 15689
 5748 5747 15690
 5749 5748 15691
 5750 5749 15692
 5751 5750 15693
 5752 5751 15694
 5753 5752 15695
 5754 5753 15696
 5755 5754 15697
 5756 5755 15698
 5757 5756 15699
 5758 5757 15700
 5759 5758 15701
 5760 5759 15702
 5761 5760 15703
 5762 5761 15704
 5763 5762 15705
 5764 5763 15706
 5765 5764 15707
 5766 5765 15708
 5767 5766 15709
 5768 5767 15710
 5769 5768 15711
 5770 5769 15712
 5771 5770 15713
 5772 5771 15714
 5773 5772 15715
 5774 5773 15716
 5775 5774 15717
 5776 5775 15718
 5777 5776 15719
 5778 5777 15720
 5779 5778 15721
 5780 5779 15722
 5781 5780 15723
 5782 5781 15724
 5783 5782 15725
 5784 5783 15726
 5785 5784 15727
 5786 5785 15728
 5787 5786 15729
 5788 5787 15730
 5789 5788 15731
 5790 5789 15732
 5791 5790 15733
 5792 5791 15734
 5793 5792 15735
 5794 5793 15736
 5795 5794 15737
 5796 5795 15738
 5797 5796 15739
 5798 5797 15740
 5799 5798 15741
 5801 5800 15742
 5802 5801 15743
 5803 5802 15744
 5804 5803 15745
 5805 5804 15746
 5806 5805 15747
 5807 5806 15748
 5808 5807 15749
 5809 5808 15750
 5810 5809 15751
 5811 5810 15752
 5812 5811 15753
 5813 5812 15754
 5814 5813 15755
 5815 5814 15756
 5816 5815 15757
 5817 5816 15758
 5818 5817 15759
 5819 5818 15760
 5820 5819 15761
 5821 5820 15762
 5822 5821 15763
 5823 5822 15764
 5824 5823 15765
 5825 5824 15766
 5826 5825 15767
 5827 5826 15768
 5828 5827 15769
 5829 5828 15770
 5830 5829 15771
 5831 5830 15772
 5832 5831 15773
 5833 5832 15774
 5834 5833 15775
 5835 5834 15776
 5836 5835 15777
 5837 5836 15778
 5838 5837 15779
 5839 5838 15780
 5840 5839 15781
 5841 5840 15782
 5842 5841 15783
 5843 5842 15784
 5844 5843 15785
 5845 5844 15786
 5846 5845 15787
 5847 5846 15788
 5848 5847 15789
 5849 5848 15790
 5850 5849 15791
 5851 5850 15792
 5852 5851 15793
 5853 5852 15794
 5854 5853 15795
 5855 5854 15796
 5856 5855 15797
 5857 5856 15798
 5858 5857 15799
 5859 5858 15800
 5860 5859 15801
 5861 5860 15802
 5862 5861 15803
 5863 5862 15804
 5864 5863 15805
 5865 5864 15806
 5866 5865 15807
 5867 5866 15808
 5868 5867 15809
 5869 5868 15810
 5870 5869 15811
 5871 5870 15812
 5872 5871 15813
 5873 5872 15814
 5874 5873 15815
 5875 5874 15816
 5876 5875 15817
 5877 5876 15818
 5878 5877 15819
 5879 5878 15820
 5880 5879 15821
 5881 5880 15822
 5882 5881 15823
 5883 5882 15824
 5884 5883 15825
 5885 5884 15826
 5886 5885 15827
 5887 5886 15828
 5888 5887 15829
 5889 5888 15830
 5890 5889 15831
 5891 5890 15832
 5892 5891 15833
 5893 5892 15834
 5894 5893 15835
 5895 5894 15836
 5896 5895 15837
 5897 5896 15838
 5898 5897 15839
 5899 5898 15840
 5901 5900 15841
 5902 5901 15842
 5903 5902 15843
 5904 5903 15844
 5905 5904 15845
 5906 5905 15846
 5907 5906 15847
 5908 5907 15848
 5909 5908 15849
 5910 5909 15850
 5911 5910 15851
 5912 5911 15852
 5913 5912 15853
 5914 5913 15854
 5915 5914 15855
 5916 5915 15856
 5917 5916 15857
 5918 5917 15858
 5919 5918 15859
 5920 5919 15860
 5921 5920 15861
 5922 5921 15862
 5923 5922 15863
 5924 5923 15864
 5925 5924 15865
 5926 5925 15866
 5927 5926 15867
 5928 5927 15868
 5929 5928 15869
 5930 5929 15870
 5931 5930 15871
 5932 5931 15872
 5933 5932 15873
 5934 5933 15874
 5935 5934 15875
 5936 5935 15876
 5937 5936 15877
 5938 5937 15878
 5939 5938 15879
 5940 5939 15880
 5941 5940 15881
 5942 5941 15882
 5943 5942 15883
 5944 5943 15884
 5945 5944 15885
 5946 5945 15886
 5947 5946 15887
 5948 5947 15888
 5949 5948 15889
 5950 5949 15890
 5951 5950 15891
 5952 5951 15892
 5953 5952 15893
 5954 5953 15894
 5955 5954 15895
 5956 5955 15896
 5957 5956 15897
 5958 5957 15898
 5959 5958 15899
 5960 5959 15900
 5961 5960 15901
 5962 5961 15902
 5963 5962 15903
 5964 5963 15904
 5965 5964 15905
 5966 5965 15906
 5967 5966 15907
 5968 5967 15908
 5969 5968 15909
 5970 5969 15910
 5971 5970 15911
 5972 5971 15912
 5973 5972 15913
 5974 5973 15914
 5975 5974 15915
 5976 5975 15916
 5977 5976 15917
 5978 5977 15918
 5979 5978 15919
 5980 5979 15920
 5981 5980 15921
 5982 5981 15922
 5983 5982 15923
 5984 5983 15924
 5985 5984 15925
 5986 5985 15926
 5987 5986 15927
 5988 5987 15928
 5989 5988 15929
 5990 5989 15930
 5991 5990 15931
 5992 5991 15932
 5993 5992 15933
 5994 5993 15934
 5995 5994 15935
 5996 5995 15936
 5997 5996 15937
 5998 5997 15938
 5999 5998 15939
 6001 6000 15940
 6002 6001 15941
 6003 6002 15942
 6004 6003 15943
 6005 6004 15944
 6006 6005 15945
 6007 6006 15946
 6008 6007 15947
 6009 6008 15948
 6010 6009 15949
 6011 6010 15950
 6012 6011 15951
 6013 6012 15952
 6014 6013 15953
 6015 6014 15954
 6016 6015 15955
 6017 6016 15956
 6018 6017 15957
 6019 6018 15958
 6020 6019 15959
 6021 6020 15960
 6022 6021 15961
 6023 6022 15962
 6024 6023 15963
 6025 6024 15964
 6026 6025 15965
 6027 6026 15966
 6028 6027 15967
 6029 6028 15968
 6030 6029 15969
 6031 6030 15970
 6032 6031 15971
 6033 6032 15972
 6034 6033 15973
 6035 6034 15974
 6036 6035 15975
 6037 6036 15976
 6038 6037 15977
 6039 6038 15978
 6040 6039 15979
 6041 6040 15980
 6042 6041 15981
 6043 6042 15982
 6044 6043 15983
 6045 6044 15984
 6046 6045 15985
 6047 6046 15986
 6048 6047 15987
 6049 6048 15988
 6050 6049 15989
 6051 6050 15990
 6052 6051 15991
 6053 6052 15992
 6054 6053 15993
 6055 6054 15994
 6056 6055 15995
 6057 6056 15996
 6058 6057 15997
 6059 6058 15998
 6060 6059 15999
 6061 6060 16000
 6062 6061 16001
 6063 6062 16002
 6064 6063 16003
 6065 6064 16004
 6066 6065 16005
 6067 6066 16006
 6068 6067 16007
 6069 6068 16008
 6070 6069 16009
 6071 6070 16010
 6072 6071 16011
 6073 6072 16012
 6074 6073 16013
 6075 6074 16014
 6076 6075 16015
 6077 6076 16016
 6078 6077 16017
 6079 6078 16018
 6080 6079 16019
 6081 6080 16020
 6082 6081 16021
 6083 6082 16022
 6084 6083 16023
 6085 6084 16024
 6086 6085 16025
 6087 6086 16026
 6088 6087 16027
 6089 6088 16028
 6090 6089 16029
 6091 6090 16030
 6092 6091 16031
 6093 6092 16032
 6094 6093 16033
 6095 6094 16034
 6096 6095 16035
 6097 6096 16036
 6098 6097 16037
 6099 6098 16038
 6101 6100 16039
 6102 6101 16040
 6103 6102 16041
 6104 6103 16042
 6105 6104 16043
 6106 6105 16044
 6107 6106 16045
 6108 6107 16046
 6109 6108 16047
 6110 6109 16048
 6111 6110 16049
 6112 6111 16050
 6113 6112 16051
 6114 6113 16052
 6115 6114 16053
 6116 6115 16054
 6117 6116 16055
 6118 6117 16056
 6119 6118 16057
 6120 6119 16058
 6121 6120 16059
 6122 6121 16060
 6123 6122 16061
 6124 6123 16062
 6125 6124 16063
 6126 6125 16064
 6127 6126 16065
 6128 6127 16066
 6129 6128 16067
 6130 6129 16068
 6131 6130 16069
 6132 6131 16070
 6133 6132 16071
 6134 6133 16072
 6135 6134 16073
 6136 6135 16074
 6137 6136 16075
 6138 6137 16076
 6139 6138 16077
 6140 6139 16078
 6141 6140 16079
 6142 6141 16080
 6143 6142 16081
 6144 6143 16082
 6145 6144 16083
 6146 6145 16084
 6147 6146 16085
 6148 6147 16086
 6149 6148 16087
 6150 6149 16088
 6151 6150 16089
 6152 6151 16090
 6153 6152 16091
 6154 6153 16092
 6155 6154 16093
 6156 6155 16094
 6157 6156 16095
 6158 6157 16096
 6159 6158 16097
 6160 6159 16098
 6161 6160 16099
 6162 6161 16100
 6163 6162 16101
 6164 6163 16102
 6165 6164 16103
 6166 6165 16104
 6167 6166 16105
 6168 6167 16106
 6169 6168 16107
 6170 6169 16108
 6171 6170 16109
 6172 6171 16110
 6173 6172 16111
 6174 6173 16112
 6175 6174 16113
 6176 6175 16114
 6177 6176 16115
 6178 6177 16116
 6179 6178 16117
 6180 6179 16118
 6181 6180 16119
 6182 6181 16120
 6183 6182 16121
 6184 6183 16122
 6185 6184 16123
 6186 6185 16124
 6187 6186 16125
 6188 6187 16126
 6189 6188 16127
 6190 6189 16128
 6191 6190 16129
 6192 6191 16130
 6193 6192 16131
 6194 6193 16132
 6195 6194 16133
 6196 6195 16134
 6197 6196 16135
 6198 6197 16136
 6199 6198 16137
 6201 6200 16138
 6202 6201 16139
 6203 6202 16140
 6204 6203 16141
 6205 6204 16142
 6206 6205 16143
 6207 6206 16144
 6208 6207 16145
 6209 6208 16146
 6210 6209 16147
 6211 6210 16148
 6212 6211 16149
 6213 6212 16150
 6214 6213 16151
 6215 6214 16152
 6216 6215 16153
 6217 6216 16154
 6218 6217 16155
 6219 6218 16156
 6220 6219 16157
 6221 6220 16158
 6222 6221 16159
 6223 6222 16160
 6224 6223 16161
 6225 6224 16162
 6226 6225 16163
 6227 6226 16164
 6228 6227 16165
 6229 6228 16166
 6230 6229 16167
 6231 6230 16168
 6232 6231 16169
 6233 6232 16170
 6234 6233 16171
 6235 6234 16172
 6236 6235 16173
 6237 6236 16174
 6238 6237 16175
 6239 6238 16176
 6240 6239 16177
 6241 6240 16178
 6242 6241 16179
 6243 6242 16180
 6244 6243 16181
 6245 6244 16182
 6246 6245 16183
 6247 6246 16184
 6248 6247 16185
 6249 6248 16186
 6250 6249 16187
 6251 6250 16188
 6252 6251 16189
 6253 6252 16190
 6254 6253 16191
 6255 6254 16192
 6256 6255 16193
 6257 6256 16194
 6258 6257 16195
 6259 6258 16196
 6260 6259 16197
 6261 6260 16198
 6262 6261 16199
 6263 6262 16200
 6264 6263 16201
 6265 6264 16202
 6266 6265 16203
 6267 6266 16204
 6268 6267 16205
 6269 6268 16206
 6270 6269 16207
 6271 6270 16208
 6272 6271 16209
 6273 6272 16210
 6274 6273 16211
 6275 6274 16212
 6276 6275 16213
 6277 6276 16214
 6278 6277 16215
 6279 6278 16216
 6280 6279 16217
 6281 6280 16218
 6282 6281 16219
 6283 6282 16220
 6284 6283 16221
 6285 6284 16222
 6286 6285 16223
 6287 6286 16224
 6288 6287 16225
 6289 6288 16226
 6290 6289 16227
 6291 6290 16228
 6292 6291 16229
 6293 6292 16230
 6294 6293 16231
 6295 6294 16232
 6296 6295 16233
 6297 6296 16234
 6298 6297 16235
 6299 6298 16236
 6301 6300 16237
 6302 6301 16238
 6303 6302 16239
 6304 6303 16240
 6305 6304 16241
 6306 6305 16242
 6307 6306 16243
 6308 6307 16244
 6309 6308 16245
 6310 6309 16246
 6311 6310 16247
 6312 6311 16248
 6313 6312 16249
 6314 6313 16250
 6315 6314 16251
 6316 6315 16252
 6317 6316 16253
 6318 6317 16254
 6319 6318 16255
 6320 6319 16256
 6321 6320 16257
 6322 6321 16258
 6323 6322 16259
 6324 6323 16260
 6325 6324 16261
 6326 6325 16262
 6327 6326 16263
 6328 6327 16264
 6329 6328 16265
 6330 6329 16266
 6331 6330 16267
 6332 6331 16268
 6333 6332 16269
 6334 6333 16270
 6335 6334 16271
 6336 6335 16272
 6337 6336 16273
 6338 6337 16274
 6339 6338 16275
 6340 6339 16276
 6341 6340 16277
 6342 6341 16278
 6343 6342 16279
 6344 6343 16280
 6345 6344 16281
 6346 6345 16282
 6347 6346 16283
 6348 6347 16284
 6349 6348 16285
 6350 6349 16286
 6351 6350 16287
 6352 6351 16288
 6353 6352 16289
 6354 6353 16290
 6355 6354 16291
 6356 6355 16292
 6357 6356 16293
 6358 6357 16294
 6359 6358 16295
 6360 6359 16296
 6361 6360 16297
 6362 6361 16298
 6363 6362 16299
 6364 6363 16300
 6365 6364 16301
 6366 6365 16302
 6367 6366 16303
 6368 6367 16304
 6369 6368 16305
 6370 6369 16306
 6371 6370 16307
 6372 6371 16308
 6373 6372 16309
 6374 6373 16310
 6375 6374 16311
 6376 6375 16312
 6377 6376 16313
 6378 6377 16314
 6379 6378 16315
 6380 6379 16316
 6381 6380 16317
 6382 6381 16318
 6383 6382 16319
 6384 6383 16320
 6385 6384 16321
 6386 6385 16322
 6387 6386 16323
 6388 6387 16324
 6389 6388 16325
 6390 6389 16326
 6391 6390 16327
 6392 6391 16328
 6393 6392 16329
 6394 6393 16330
 6395 6394 16331
 6396 6395 16332
 6397 6396 16333
 6398 6397 16334
 6399 6398 16335
 6401 6400 16336
 6402 6401 16337
 6403 6402 16338
 6404 6403 16339
 6405 6404 16340
 6406 6405 16341
 6407 6406 16342
 6408 6407 16343
 6409 6408 16344
 6410 6409 16345
 6411 6410 16346
 6412 6411 16347
 6413 6412 16348
 6414 6413 16349
 6415 6414 16350
 6416 6415 16351
 6417 6416 16352
 6418 6417 16353
 6419 6418 16354
 6420 6419 16355
 6421 6420 16356
 6422 6421 16357
 6423 6422 16358
 6424 6423 16359
 6425 6424 16360
 6426 6425 16361
 6427 6426 16362
 6428 6427 16363
 6429 6428 16364
 6430 6429 16365
 6431 6430 16366
 6432 6431 16367
 6433 6432 16368
 6434 6433 16369
 6435 6434 16370
 6436 6435 16371
 6437 6436 16372
 6438 6437 16373
 6439 6438 16374
 6440 6439 16375
 6441 6440 16376
 6442 6441 16377
 6443 6442 16378
 6444 6443 16379
 6445 6444 16380
 6446 6445 16381
 6447 6446 16382
 6448 6447 16383
 6449 6448 16384
 6450 6449 16385
 6451 6450 16386
 6452 6451 16387
 6453 6452 16388
 6454 6453 16389
 6455 6454 16390
 6456 6455 16391
 6457 6456 16392
 6458 6457 16393
 6459 6458 16394
 6460 6459 16395
 6461 6460 16396
 6462 6461 16397
 6463 6462 16398
 6464 6463 16399
 6465 6464 16400
 6466 6465 16401
 6467 6466 16402
 6468 6467 16403
 6469 6468 16404
 6470 6469 16405
 6471 6470 16406
 6472 6471 16407
 6473 6472 16408
 6474 6473 16409
 6475 6474 16410
 6476 6475 16411
 6477 6476 16412
 6478 6477 16413
 6479 6478 16414
 6480 6479 16415
 6481 6480 16416
 6482 6481 16417
 6483 6482 16418
 6484 6483 16419
 6485 6484 16420
 6486 6485 16421
 6487 6486 16422
 6488 6487 16423
 6489 6488 16424
 6490 6489 16425
 6491 6490 16426
 6492 6491 16427
 6493 6492 16428
 6494 6493 16429
 6495 6494 16430
 6496 6495 16431
 6497 6496 16432
 6498 6497 16433
 6499 6498 16434
 6501 6500 16435
 6502 6501 16436
 6503 6502 16437
 6504 6503 16438
 6505 6504 16439
 6506 6505 16440
 6507 6506 16441
 6508 6507 16442
 6509 6508 16443
 6510 6509 16444
 6511 6510 16445
 6512 6511 16446
 6513 6512 16447
 6514 6513 16448
 6515 6514 16449
 6516 6515 16450
 6517 6516 16451
 6518 6517 16452
 6519 6518 16453
 6520 6519 16454
 6521 6520 16455
 6522 6521 16456
 6523 6522 16457
 6524 6523 16458
 6525 6524 16459
 6526 6525 16460
 6527 6526 16461
 6528 6527 16462
 6529 6528 16463
 6530 6529 16464
 6531 6530 16465
 6532 6531 16466
 6533 6532 16467
 6534 6533 16468
 6535 6534 16469
 6536 6535 16470
 6537 6536 16471
 6538 6537 16472
 6539 6538 16473
 6540 6539 16474
 6541 6540 16475
 6542 6541 16476
 6543 6542 16477
 6544 6543 16478
 6545 6544 16479
 6546 6545 16480
 6547 6546 16481
 6548 6547 16482
 6549 6548 16483
 6550 6549 16484
 6551 6550 16485
 6552 6551 16486
 6553 6552 16487
 6554 6553 16488
 6555 6554 16489
 6556 6555 16490
 6557 6556 16491
 6558 6557 16492
 6559 6558 16493
 6560 6559 16494
 6561 6560 16495
 6562 6561 16496
 6563 6562 16497
 6564 6563 16498
 6565 6564 16499
 6566 6565 16500
 6567 6566 16501
 6568 6567 16502
 6569 6568 16503
 6570 6569 16504
 6571 6570 16505
 6572 6571 16506
 6573 6572 16507
 6574 6573 16508
 6575 6574 16509
 6576 6575 16510
 6577 6576 16511
 6578 6577 16512
 6579 6578 16513
 6580 6579 16514
 6581 6580 16515
 6582 6581 16516
 6583 6582 16517
 6584 6583 16518
 6585 6584 16519
 6586 6585 16520
 6587 6586 16521
 6588 6587 16522
 6589 6588 16523
 6590 6589 16524
 6591 6590 16525
 6592 6591 16526
 6593 6592 16527
 6594 6593 16528
 6595 6594 16529
 6596 6595 16530
 6597 6596 16531
 6598 6597 16532
 6599 6598 16533
 6601 6600 16534
 6602 6601 16535
 6603 6602 16536
 6604 6603 16537
 6605 6604 16538
 6606 6605 16539
 6607 6606 16540
 6608 6607 16541
 6609 6608 16542
 6610 6609 16543
 6611 6610 16544
 6612 6611 16545
 6613 6612 16546
 6614 6613 16547
 6615 6614 16548
 6616 6615 16549
 6617 6616 16550
 6618 6617 16551
 6619 6618 16552
 6620 6619 16553
 6621 6620 16554
 6622 6621 16555
 6623 6622 16556
 6624 6623 16557
 6625 6624 16558
 6626 6625 16559
 6627 6626 16560
 6628 6627 16561
 6629 6628 16562
 6630 6629 16563
 6631 6630 16564
 6632 6631 16565
 6633 6632 16566
 6634 6633 16567
 6635 6634 16568
 6636 6635 16569
 6637 6636 16570
 6638 6637 16571
 6639 6638 16572
 6640 6639 16573
 6641 6640 16574
 6642 6641 16575
 6643 6642 16576
 6644 6643 16577
 6645 6644 16578
 6646 6645 16579
 6647 6646 16580
 6648 6647 16581
 6649 6648 16582
 6650 6649 16583
 6651 6650 16584
 6652 6651 16585
 6653 6652 16586
 6654 6653 16587
 6655 6654 16588
 6656 6655 16589
 6657 6656 16590
 6658 6657 16591
 6659 6658 16592
 6660 6659 16593
 6661 6660 16594
 6662 6661 16595
 6663 6662 16596
 6664 6663 16597
 6665 6664 16598
 6666 6665 16599
 6667 6666 16600
 6668 6667 16601
 6669 6668 16602
 6670 6669 16603
 6671 6670 16604
 6672 6671 16605
 6673 6672 16606
 6674 6673 16607
 6675 6674 16608
 6676 6675 16609
 6677 6676 16610
 6678 6677 16611
 6679 6678 16612
 6680 6679 16613
 6681 6680 16614
 6682 6681 16615
 6683 6682 16616
 6684 6683 16617
 6685 6684 16618
 6686 6685 16619
 6687 6686 16620
 6688 6687 16621
 6689 6688 16622
 6690 6689 16623
 6691 6690 16624
 6692 6691 16625
 6693 6692 16626
 6694 6693 16627
 6695 6694 16628
 6696 6695 16629
 6697 6696 16630
 6698 6697 16631
 6699 6698 16632
 6701 6700 16633
 6702 6701 16634
 6703 6702 16635
 6704 6703 16636
 6705 6704 16637
 6706 6705 16638
 6707 6706 16639
 6708 6707 16640
 6709 6708 16641
 6710 6709 16642
 6711 6710 16643
 6712 6711 16644
 6713 6712 16645
 6714 6713 16646
 6715 6714 16647
 6716 6715 16648
 6717 6716 16649
 6718 6717 16650
 6719 6718 16651
 6720 6719 16652
 6721 6720 16653
 6722 6721 16654
 6723 6722 16655
 6724 6723 16656
 6725 6724 16657
 6726 6725 16658
 6727 6726 16659
 6728 6727 16660
 6729 6728 16661
 6730 6729 16662
 6731 6730 16663
 6732 6731 16664
 6733 6732 16665
 6734 6733 16666
 6735 6734 16667
 6736 6735 16668
 6737 6736 16669
 6738 6737 16670
 6739 6738 16671
 6740 6739 16672
 6741 6740 16673
 6742 6741 16674
 6743 6742 16675
 6744 6743 16676
 6745 6744 16677
 6746 6745 16678
 6747 6746 16679
 6748 6747 16680
 6749 6748 16681
 6750 6749 16682
 6751 6750 16683
 6752 6751 16684
 6753 6752 16685
 6754 6753 16686
 6755 6754 16687
 6756 6755 16688
 6757 6756 16689
 6758 6757 16690
 6759 6758 16691
 6760 6759 16692
 6761 6760 16693
 6762 6761 16694
 6763 6762 16695
 6764 6763 16696
 6765 6764 16697
 6766 6765 16698
 6767 6766 16699
 6768 6767 16700
 6769 6768 16701
 6770 6769 16702
 6771 6770 16703
 6772 6771 16704
 6773 6772 16705
 6774 6773 16706
 6775 6774 16707
 6776 6775 16708
 6777 6776 16709
 6778 6777 16710
 6779 6778 16711
 6780 6779 16712
 6781 6780 16713
 6782 6781 16714
 6783 6782 16715
 6784 6783 16716
 6785 6784 16717
 6786 6785 16718
 6787 6786 16719
 6788 6787 16720
 6789 6788 16721
 6790 6789 16722
 6791 6790 16723
 6792 6791 16724
 6793 6792 16725
 6794 6793 16726
 6795 6794 16727
 6796 6795 16728
 6797 6796 16729
 6798 6797 16730
 6799 6798 16731
 6801 6800 16732
 6802 6801 16733
 6803 6802 16734
 6804 6803 16735
 6805 6804 16736
 6806 6805 16737
 6807 6806 16738
 6808 6807 16739
 6809 6808 16740
 6810 6809 16741
 6811 6810 16742
 6812 6811 16743
 6813 6812 16744
 6814 6813 16745
 6815 6814 16746
 6816 6815 16747
 6817 6816 16748
 6818 6817 16749
 6819 6818 16750
 6820 6819 16751
 6821 6820 16752
 6822 6821 16753
 6823 6822 16754
 6824 6823 16755
 6825 6824 16756
 6826 6825 16757
 6827 6826 16758
 6828 6827 16759
 6829 6828 16760
 6830 6829 16761
 6831 6830 16762
 6832 6831 16763
 6833 6832 16764
 6834 6833 16765
 6835 6834 16766
 6836 6835 16767
 6837 6836 16768
 6838 6837 16769
 6839 6838 16770
 6840 6839 16771
 6841 6840 16772
 6842 6841 16773
 6843 6842 16774
 6844 6843 16775
 6845 6844 16776
 6846 6845 16777
 6847 6846 16778
 6848 6847 16779
 6849 6848 16780
 6850 6849 16781
 6851 6850 16782
 6852 6851 16783
 6853 6852 16784
 6854 6853 16785
 6855 6854 16786
 6856 6855 16787
 6857 6856 16788
 6858 6857 16789
 6859 6858 16790
 6860 6859 16791
 6861 6860 16792
 6862 6861 16793
 6863 6862 16794
 6864 6863 16795
 6865 6864 16796
 6866 6865 16797
 6867 6866 16798
 6868 6867 16799
 6869 6868 16800
 6870 6869 16801
 6871 6870 16802
 6872 6871 16803
 6873 6872 16804
 6874 6873 16805
 6875 6874 16806
 6876 6875 16807
 6877 6876 16808
 6878 6877 16809
 6879 6878 16810
 6880 6879 16811
 6881 6880 16812
 6882 6881 16813
 6883 6882 16814
 6884 6883 16815
 6885 6884 16816
 6886 6885 16817
 6887 6886 16818
 6888 6887 16819
 6889 6888 16820
 6890 6889 16821
 6891 6890 16822
 6892 6891 16823
 6893 6892 16824
 6894 6893 16825
 6895 6894 16826
 6896 6895 16827
 6897 6896 16828
 6898 6897 16829
 6899 6898 16830
 6901 6900 16831
 6902 6901 16832
 6903 6902 16833
 6904 6903 16834
 6905 6904 16835
 6906 6905 16836
 6907 6906 16837
 6908 6907 16838
 6909 6908 16839
 6910 6909 16840
 6911 6910 16841
 6912 6911 16842
 6913 6912 16843
 6914 6913 16844
 6915 6914 16845
 6916 6915 16846
 6917 6916 16847
 6918 6917 16848
 6919 6918 16849
 6920 6919 16850
 6921 6920 16851
 6922 6921 16852
 6923 6922 16853
 6924 6923 16854
 6925 6924 16855
 6926 6925 16856
 6927 6926 16857
 6928 6927 16858
 6929 6928 16859
 6930 6929 16860
 6931 6930 16861
 6932 6931 16862
 6933 6932 16863
 6934 6933 16864
 6935 6934 16865
 6936 6935 16866
 6937 6936 16867
 6938 6937 16868
 6939 6938 16869
 6940 6939 16870
 6941 6940 16871
 6942 6941 16872
 6943 6942 16873
 6944 6943 16874
 6945 6944 16875
 6946 6945 16876
 6947 6946 16877
 6948 6947 16878
 6949 6948 16879
 6950 6949 16880
 6951 6950 16881
 6952 6951 16882
 6953 6952 16883
 6954 6953 16884
 6955 6954 16885
 6956 6955 16886
 6957 6956 16887
 6958 6957 16888
 6959 6958 16889
 6960 6959 16890
 6961 6960 16891
 6962 6961 16892
 6963 6962 16893
 6964 6963 16894
 6965 6964 16895
 6966 6965 16896
 6967 6966 16897
 6968 6967 16898
 6969 6968 16899
 6970 6969 16900
 6971 6970 16901
 6972 6971 16902
 6973 6972 16903
 6974 6973 16904
 6975 6974 16905
 6976 6975 16906
 6977 6976 16907
 6978 6977 16908
 6979 6978 16909
 6980 6979 16910
 6981 6980 16911
 6982 6981 16912
 6983 6982 16913
 6984 6983 16914
 6985 6984 16915
 6986 6985 16916
 6987 6986 16917
 6988 6987 16918
 6989 6988 16919
 6990 6989 16920
 6991 6990 16921
 6992 6991 16922
 6993 6992 16923
 6994 6993 16924
 6995 6994 16925
 6996 6995 16926
 6997 6996 16927
 6998 6997 16928
 6999 6998 16929
 7001 7000 16930
 7002 7001 16931
 7003 7002 16932
 7004 7003 16933
 7005 7004 16934
 7006 7005 16935
 7007 7006 16936
 7008 7007 16937
 7009 7008 16938
 7010 7009 16939
 7011 7010 16940
 7012 7011 16941
 7013 7012 16942
 7014 7013 16943
 7015 7014 16944
 7016 7015 16945
 7017 7016 16946
 7018 7017 16947
 7019 7018 16948
 7020 7019 16949
 7021 7020 16950
 7022 7021 16951
 7023 7022 16952
 7024 7023 16953
 7025 7024 16954
 7026 7025 16955
 7027 7026 16956
 7028 7027 16957
 7029 7028 16958
 7030 7029 16959
 7031 7030 16960
 7032 7031 16961
 7033 7032 16962
 7034 7033 16963
 7035 7034 16964
 7036 7035 16965
 7037 7036 16966
 7038 7037 16967
 7039 7038 16968
 7040 7039 16969
 7041 7040 16970
 7042 7041 16971
 7043 7042 16972
 7044 7043 16973
 7045 7044 16974
 7046 7045 16975
 7047 7046 16976
 7048 7047 16977
 7049 7048 16978
 7050 7049 16979
 7051 7050 16980
 7052 7051 16981
 7053 7052 16982
 7054 7053 16983
 7055 7054 16984
 7056 7055 16985
 7057 7056 16986
 7058 7057 16987
 7059 7058 16988
 7060 7059 16989
 7061 7060 16990
 7062 7061 16991
 7063 7062 16992
 7064 7063 16993
 7065 7064 16994
 7066 7065 16995
 7067 7066 16996
 7068 7067 16997
 7069 7068 16998
 7070 7069 16999
 7071 7070 17000
 7072 7071 17001
 7073 7072 17002
 7074 7073 17003
 7075 7074 17004
 7076 7075 17005
 7077 7076 17006
 7078 7077 17007
 7079 7078 17008
 7080 7079 17009
 7081 7080 17010
 7082 7081 17011
 7083 7082 17012
 7084 7083 17013
 7085 7084 17014
 7086 7085 17015
 7087 7086 17016
 7088 7087 17017
 7089 7088 17018
 7090 7089 17019
 7091 7090 17020
 7092 7091 17021
 7093 7092 17022
 7094 7093 17023
 7095 7094 17024
 7096 7095 17025
 7097 7096 17026
 7098 7097 17027
 7099 7098 17028
 7101 7100 17029
 7102 7101 17030
 7103 7102 17031
 7104 7103 17032
 7105 7104 17033
 7106 7105 17034
 7107 7106 17035
 7108 7107 17036
 7109 7108 17037
 7110 7109 17038
 7111 7110 17039
 7112 7111 17040
 7113 7112 17041
 7114 7113 17042
 7115 7114 17043
 7116 7115 17044
 7117 7116 17045
 7118 7117 17046
 7119 7118 17047
 7120 7119 17048
 7121 7120 17049
 7122 7121 17050
 7123 7122 17051
 7124 7123 17052
 7125 7124 17053
 7126 7125 17054
 7127 7126 17055
 7128 7127 17056
 7129 7128 17057
 7130 7129 17058
 7131 7130 17059
 7132 7131 17060
 7133 7132 17061
 7134 7133 17062
 7135 7134 17063
 7136 7135 17064
 7137 7136 17065
 7138 7137 17066
 7139 7138 17067
 7140 7139 17068
 7141 7140 17069
 7142 7141 17070
 7143 7142 17071
 7144 7143 17072
 7145 7144 17073
 7146 7145 17074
 7147 7146 17075
 7148 7147 17076
 7149 7148 17077
 7150 7149 17078
 7151 7150 17079
 7152 7151 17080
 7153 7152 17081
 7154 7153 17082
 7155 7154 17083
 7156 7155 17084
 7157 7156 17085
 7158 7157 17086
 7159 7158 17087
 7160 7159 17088
 7161 7160 17089
 7162 7161 17090
 7163 7162 17091
 7164 7163 17092
 7165 7164 17093
 7166 7165 17094
 7167 7166 17095
 7168 7167 17096
 7169 7168 17097
 7170 7169 17098
 7171 7170 17099
 7172 7171 17100
 7173 7172 17101
 7174 7173 17102
 7175 7174 17103
 7176 7175 17104
 7177 7176 17105
 7178 7177 17106
 7179 7178 17107
 7180 7179 17108
 7181 7180 17109
 7182 7181 17110
 7183 7182 17111
 7184 7183 17112
 7185 7184 17113
 7186 7185 17114
 7187 7186 17115
 7188 7187 17116
 7189 7188 17117
 7190 7189 17118
 7191 7190 17119
 7192 7191 17120
 7193 7192 17121
 7194 7193 17122
 7195 7194 17123
 7196 7195 17124
 7197 7196 17125
 7198 7197 17126
 7199 7198 17127
 7201 7200 17128
 7202 7201 17129
 7203 7202 17130
 7204 7203 17131
 7205 7204 17132
 7206 7205 17133
 7207 7206 17134
 7208 7207 17135
 7209 7208 17136
 7210 7209 17137
 7211 7210 17138
 7212 7211 17139
 7213 7212 17140
 7214 7213 17141
 7215 7214 17142
 7216 7215 17143
 7217 7216 17144
 7218 7217 17145
 7219 7218 17146
 7220 7219 17147
 7221 7220 17148
 7222 7221 17149
 7223 7222 17150
 7224 7223 17151
 7225 7224 17152
 7226 7225 17153
 7227 7226 17154
 7228 7227 17155
 7229 7228 17156
 7230 7229 17157
 7231 7230 17158
 7232 7231 17159
 7233 7232 17160
 7234 7233 17161
 7235 7234 17162
 7236 7235 17163
 7237 7236 17164
 7238 7237 17165
 7239 7238 17166
 7240 7239 17167
 7241 7240 17168
 7242 7241 17169
 7243 7242 17170
 7244 7243 17171
 7245 7244 17172
 7246 7245 17173
 7247 7246 17174
 7248 7247 17175
 7249 7248 17176
 7250 7249 17177
 7251 7250 17178
 7252 7251 17179
 7253 7252 17180
 7254 7253 17181
 7255 7254 17182
 7256 7255 17183
 7257 7256 17184
 7258 7257 17185
 7259 7258 17186
 7260 7259 17187
 7261 7260 17188
 7262 7261 17189
 7263 7262 17190
 7264 7263 17191
 7265 7264 17192
 7266 7265 17193
 7267 7266 17194
 7268 7267 17195
 7269 7268 17196
 7270 7269 17197
 7271 7270 17198
 7272 7271 17199
 7273 7272 17200
 7274 7273 17201
 7275 7274 17202
 7276 7275 17203
 7277 7276 17204
 7278 7277 17205
 7279 7278 17206
 7280 7279 17207
 7281 7280 17208
 7282 7281 17209
 7283 7282 17210
 7284 7283 17211
 7285 7284 17212
 7286 7285 17213
 7287 7286 17214
 7288 7287 17215
 7289 7288 17216
 7290 7289 17217
 7291 7290 17218
 7292 7291 17219
 7293 7292 17220
 7294 7293 17221
 7295 7294 17222
 7296 7295 17223
 7297 7296 17224
 7298 7297 17225
 7299 7298 17226
 7301 7300 17227
 7302 7301 17228
 7303 7302 17229
 7304 7303 17230
 7305 7304 17231
 7306 7305 17232
 7307 7306 17233
 7308 7307 17234
 7309 7308 17235
 7310 7309 17236
 7311 7310 17237
 7312 7311 17238
 7313 7312 17239
 7314 7313 17240
 7315 7314 17241
 7316 7315 17242
 7317 7316 17243
 7318 7317 17244
 7319 7318 17245
 7320 7319 17246
 7321 7320 17247
 7322 7321 17248
 7323 7322 17249
 7324 7323 17250
 7325 7324 17251
 7326 7325 17252
 7327 7326 17253
 7328 7327 17254
 7329 7328 17255
 7330 7329 17256
 7331 7330 17257
 7332 7331 17258
 7333 7332 17259
 7334 7333 17260
 7335 7334 17261
 7336 7335 17262
 7337 7336 17263
 7338 7337 17264
 7339 7338 17265
 7340 7339 17266
 7341 7340 17267
 7342 7341 17268
 7343 7342 17269
 7344 7343 17270
 7345 7344 17271
 7346 7345 17272
 7347 7346 17273
 7348 7347 17274
 7349 7348 17275
 7350 7349 17276
 7351 7350 17277
 7352 7351 17278
 7353 7352 17279
 7354 7353 17280
 7355 7354 17281
 7356 7355 17282
 7357 7356 17283
 7358 7357 17284
 7359 7358 17285
 7360 7359 17286
 7361 7360 17287
 7362 7361 17288
 7363 7362 17289
 7364 7363 17290
 7365 7364 17291
 7366 7365 17292
 7367 7366 17293
 7368 7367 17294
 7369 7368 17295
 7370 7369 17296
 7371 7370 17297
 7372 7371 17298
 7373 7372 17299
 7374 7373 17300
 7375 7374 17301
 7376 7375 17302
 7377 7376 17303
 7378 7377 17304
 7379 7378 17305
 7380 7379 17306
 7381 7380 17307
 7382 7381 17308
 7383 7382 17309
 7384 7383 17310
 7385 7384 17311
 7386 7385 17312
 7387 7386 17313
 7388 7387 17314
 7389 7388 17315
 7390 7389 17316
 7391 7390 17317
 7392 7391 17318
 7393 7392 17319
 7394 7393 17320
 7395 7394 17321
 7396 7395 17322
 7397 7396 17323
 7398 7397 17324
 7399 7398 17325
 7401 7400 17326
 7402 7401 17327
 7403 7402 17328
 7404 7403 17329
 7405 7404 17330
 7406 7405 17331
 7407 7406 17332
 7408 7407 17333
 7409 7408 17334
 7410 7409 17335
 7411 7410 17336
 7412 7411 17337
 7413 7412 17338
 7414 7413 17339
 7415 7414 17340
 7416 7415 17341
 7417 7416 17342
 7418 7417 17343
 7419 7418 17344
 7420 7419 17345
 7421 7420 17346
 7422 7421 17347
 7423 7422 17348
 7424 7423 17349
 7425 7424 17350
 7426 7425 17351
 7427 7426 17352
 7428 7427 17353
 7429 7428 17354
 7430 7429 17355
 7431 7430 17356
 7432 7431 17357
 7433 7432 17358
 7434 7433 17359
 7435 7434 17360
 7436 7435 17361
 7437 7436 17362
 7438 7437 17363
 7439 7438 17364
 7440 7439 17365
 7441 7440 17366
 7442 7441 17367
 7443 7442 17368
 7444 7443 17369
 7445 7444 17370
 7446 7445 17371
 7447 7446 17372
 7448 7447 17373
 7449 7448 17374
 7450 7449 17375
 7451 7450 17376
 7452 7451 17377
 7453 7452 17378
 7454 7453 17379
 7455 7454 17380
 7456 7455 17381
 7457 7456 17382
 7458 7457 17383
 7459 7458 17384
 7460 7459 17385
 7461 7460 17386
 7462 7461 17387
 7463 7462 17388
 7464 7463 17389
 7465 7464 17390
 7466 7465 17391
 7467 7466 17392
 7468 7467 17393
 7469 7468 17394
 7470 7469 17395
 7471 7470 17396
 7472 7471 17397
 7473 7472 17398
 7474 7473 17399
 7475 7474 17400
 7476 7475 17401
 7477 7476 17402
 7478 7477 17403
 7479 7478 17404
 7480 7479 17405
 7481 7480 17406
 7482 7481 17407
 7483 7482 17408
 7484 7483 17409
 7485 7484 17410
 7486 7485 17411
 7487 7486 17412
 7488 7487 17413
 7489 7488 17414
 7490 7489 17415
 7491 7490 17416
 7492 7491 17417
 7493 7492 17418
 7494 7493 17419
 7495 7494 17420
 7496 7495 17421
 7497 7496 17422
 7498 7497 17423
 7499 7498 17424
 7501 7500 17425
 7502 7501 17426
 7503 7502 17427
 7504 7503 17428
 7505 7504 17429
 7506 7505 17430
 7507 7506 17431
 7508 7507 17432
 7509 7508 17433
 7510 7509 17434
 7511 7510 17435
 7512 7511 17436
 7513 7512 17437
 7514 7513 17438
 7515 7514 17439
 7516 7515 17440
 7517 7516 17441
 7518 7517 17442
 7519 7518 17443
 7520 7519 17444
 7521 7520 17445
 7522 7521 17446
 7523 7522 17447
 7524 7523 17448
 7525 7524 17449
 7526 7525 17450
 7527 7526 17451
 7528 7527 17452
 7529 7528 17453
 7530 7529 17454
 7531 7530 17455
 7532 7531 17456
 7533 7532 17457
 7534 7533 17458
 7535 7534 17459
 7536 7535 17460
 7537 7536 17461
 7538 7537 17462
 7539 7538 17463
 7540 7539 17464
 7541 7540 17465
 7542 7541 17466
 7543 7542 17467
 7544 7543 17468
 7545 7544 17469
 7546 7545 17470
 7547 7546 17471
 7548 7547 17472
 7549 7548 17473
 7550 7549 17474
 7551 7550 17475
 7552 7551 17476
 7553 7552 17477
 7554 7553 17478
 7555 7554 17479
 7556 7555 17480
 7557 7556 17481
 7558 7557 17482
 7559 7558 17483
 7560 7559 17484
 7561 7560 17485
 7562 7561 17486
 7563 7562 17487
 7564 7563 17488
 7565 7564 17489
 7566 7565 17490
 7567 7566 17491
 7568 7567 17492
 7569 7568 17493
 7570 7569 17494
 7571 7570 17495
 7572 7571 17496
 7573 7572 17497
 7574 7573 17498
 7575 7574 17499
 7576 7575 17500
 7577 7576 17501
 7578 7577 17502
 7579 7578 17503
 7580 7579 17504
 7581 7580 17505
 7582 7581 17506
 7583 7582 17507
 7584 7583 17508
 7585 7584 17509
 7586 7585 17510
 7587 7586 17511
 7588 7587 17512
 7589 7588 17513
 7590 7589 17514
 7591 7590 17515
 7592 7591 17516
 7593 7592 17517
 7594 7593 17518
 7595 7594 17519
 7596 7595 17520
 7597 7596 17521
 7598 7597 17522
 7599 7598 17523
 7601 7600 17524
 7602 7601 17525
 7603 7602 17526
 7604 7603 17527
 7605 7604 17528
 7606 7605 17529
 7607 7606 17530
 7608 7607 17531
 7609 7608 17532
 7610 7609 17533
 7611 7610 17534
 7612 7611 17535
 7613 7612 17536
 7614 7613 17537
 7615 7614 17538
 7616 7615 17539
 7617 7616 17540
 7618 7617 17541
 7619 7618 17542
 7620 7619 17543
 7621 7620 17544
 7622 7621 17545
 7623 7622 17546
 7624 7623 17547
 7625 7624 17548
 7626 7625 17549
 7627 7626 17550
 7628 7627 17551
 7629 7628 17552
 7630 7629 17553
 7631 7630 17554
 7632 7631 17555
 7633 7632 17556
 7634 7633 17557
 7635 7634 17558
 7636 7635 17559
 7637 7636 17560
 7638 7637 17561
 7639 7638 17562
 7640 7639 17563
 7641 7640 17564
 7642 7641 17565
 7643 7642 17566
 7644 7643 17567
 7645 7644 17568
 7646 7645 17569
 7647 7646 17570
 7648 7647 17571
 7649 7648 17572
 7650 7649 17573
 7651 7650 17574
 7652 7651 17575
 7653 7652 17576
 7654 7653 17577
 7655 7654 17578
 7656 7655 17579
 7657 7656 17580
 7658 7657 17581
 7659 7658 17582
 7660 7659 17583
 7661 7660 17584
 7662 7661 17585
 7663 7662 17586
 7664 7663 17587
 7665 7664 17588
 7666 7665 17589
 7667 7666 17590
 7668 7667 17591
 7669 7668 17592
 7670 7669 17593
 7671 7670 17594
 7672 7671 17595
 7673 7672 17596
 7674 7673 17597
 7675 7674 17598
 7676 7675 17599
 7677 7676 17600
 7678 7677 17601
 7679 7678 17602
 7680 7679 17603
 7681 7680 17604
 7682 7681 17605
 7683 7682 17606
 7684 7683 17607
 7685 7684 17608
 7686 7685 17609
 7687 7686 17610
 7688 7687 17611
 7689 7688 17612
 7690 7689 17613
 7691 7690 17614
 7692 7691 17615
 7693 7692 17616
 7694 7693 17617
 7695 7694 17618
 7696 7695 17619
 7697 7696 17620
 7698 7697 17621
 7699 7698 17622
 7701 7700 17623
 7702 7701 17624
 7703 7702 17625
 7704 7703 17626
 7705 7704 17627
 7706 7705 17628
 7707 7706 17629
 7708 7707 17630
 7709 7708 17631
 7710 7709 17632
 7711 7710 17633
 7712 7711 17634
 7713 7712 17635
 7714 7713 17636
 7715 7714 17637
 7716 7715 17638
 7717 7716 17639
 7718 7717 17640
 7719 7718 17641
 7720 7719 17642
 7721 7720 17643
 7722 7721 17644
 7723 7722 17645
 7724 7723 17646
 7725 7724 17647
 7726 7725 17648
 7727 7726 17649
 7728 7727 17650
 7729 7728 17651
 7730 7729 17652
 7731 7730 17653
 7732 7731 17654
 7733 7732 17655
 7734 7733 17656
 7735 7734 17657
 7736 7735 17658
 7737 7736 17659
 7738 7737 17660
 7739 7738 17661
 7740 7739 17662
 7741 7740 17663
 7742 7741 17664
 7743 7742 17665
 7744 7743 17666
 7745 7744 17667
 7746 7745 17668
 7747 7746 17669
 7748 7747 17670
 7749 7748 17671
 7750 7749 17672
 7751 7750 17673
 7752 7751 17674
 7753 7752 17675
 7754 7753 17676
 7755 7754 17677
 7756 7755 17678
 7757 7756 17679
 7758 7757 17680
 7759 7758 17681
 7760 7759 17682
 7761 7760 17683
 7762 7761 17684
 7763 7762 17685
 7764 7763 17686
 7765 7764 17687
 7766 7765 17688
 7767 7766 17689
 7768 7767 17690
 7769 7768 17691
 7770 7769 17692
 7771 7770 17693
 7772 7771 17694
 7773 7772 17695
 7774 7773 17696
 7775 7774 17697
 7776 7775 17698
 7777 7776 17699
 7778 7777 17700
 7779 7778 17701
 7780 7779 17702
 7781 7780 17703
 7782 7781 17704
 7783 7782 17705
 7784 7783 17706
 7785 7784 17707
 7786 7785 17708
 7787 7786 17709
 7788 7787 17710
 7789 7788 17711
 7790 7789 17712
 7791 7790 17713
 7792 7791 17714
 7793 7792 17715
 7794 7793 17716
 7795 7794 17717
 7796 7795 17718
 7797 7796 17719
 7798 7797 17720
 7799 7798 17721
 7801 7800 17722
 7802 7801 17723
 7803 7802 17724
 7804 7803 17725
 7805 7804 17726
 7806 7805 17727
 7807 7806 17728
 7808 7807 17729
 7809 7808 17730
 7810 7809 17731
 7811 7810 17732
 7812 7811 17733
 7813 7812 17734
 7814 7813 17735
 7815 7814 17736
 7816 7815 17737
 7817 7816 17738
 7818 7817 17739
 7819 7818 17740
 7820 7819 17741
 7821 7820 17742
 7822 7821 17743
 7823 7822 17744
 7824 7823 17745
 7825 7824 17746
 7826 7825 17747
 7827 7826 17748
 7828 7827 17749
 7829 7828 17750
 7830 7829 17751
 7831 7830 17752
 7832 7831 17753
 7833 7832 17754
 7834 7833 17755
 7835 7834 17756
 7836 7835 17757
 7837 7836 17758
 7838 7837 17759
 7839 7838 17760
 7840 7839 17761
 7841 7840 17762
 7842 7841 17763
 7843 7842 17764
 7844 7843 17765
 7845 7844 17766
 7846 7845 17767
 7847 7846 17768
 7848 7847 17769
 7849 7848 17770
 7850 7849 17771
 7851 7850 17772
 7852 7851 17773
 7853 7852 17774
 7854 7853 17775
 7855 7854 17776
 7856 7855 17777
 7857 7856 17778
 7858 7857 17779
 7859 7858 17780
 7860 7859 17781
 7861 7860 17782
 7862 7861 17783
 7863 7862 17784
 7864 7863 17785
 7865 7864 17786
 7866 7865 17787
 7867 7866 17788
 7868 7867 17789
 7869 7868 17790
 7870 7869 17791
 7871 7870 17792
 7872 7871 17793
 7873 7872 17794
 7874 7873 17795
 7875 7874 17796
 7876 7875 17797
 7877 7876 17798
 7878 7877 17799
 7879 7878 17800
 7880 7879 17801
 7881 7880 17802
 7882 7881 17803
 7883 7882 17804
 7884 7883 17805
 7885 7884 17806
 7886 7885 17807
 7887 7886 17808
 7888 7887 17809
 7889 7888 17810
 7890 7889 17811
 7891 7890 17812
 7892 7891 17813
 7893 7892 17814
 7894 7893 17815
 7895 7894 17816
 7896 7895 17817
 7897 7896 17818
 7898 7897 17819
 7899 7898 17820
 7901 7900 17821
 7902 7901 17822
 7903 7902 17823
 7904 7903 17824
 7905 7904 17825
 7906 7905 17826
 7907 7906 17827
 7908 7907 17828
 7909 7908 17829
 7910 7909 17830
 7911 7910 17831
 7912 7911 17832
 7913 7912 17833
 7914 7913 17834
 7915 7914 17835
 7916 7915 17836
 7917 7916 17837
 7918 7917 17838
 7919 7918 17839
 7920 7919 17840
 7921 7920 17841
 7922 7921 17842
 7923 7922 17843
 7924 7923 17844
 7925 7924 17845
 7926 7925 17846
 7927 7926 17847
 7928 7927 17848
 7929 7928 17849
 7930 7929 17850
 7931 7930 17851
 7932 7931 17852
 7933 7932 17853
 7934 7933 17854
 7935 7934 17855
 7936 7935 17856
 7937 7936 17857
 7938 7937 17858
 7939 7938 17859
 7940 7939 17860
 7941 7940 17861
 7942 7941 17862
 7943 7942 17863
 7944 7943 17864
 7945 7944 17865
 7946 7945 17866
 7947 7946 17867
 7948 7947 17868
 7949 7948 17869
 7950 7949 17870
 7951 7950 17871
 7952 7951 17872
 7953 7952 17873
 7954 7953 17874
 7955 7954 17875
 7956 7955 17876
 7957 7956 17877
 7958 7957 17878
 7959 7958 17879
 7960 7959 17880
 7961 7960 17881
 7962 7961 17882
 7963 7962 17883
 7964 7963 17884
 7965 7964 17885
 7966 7965 17886
 7967 7966 17887
 7968 7967 17888
 7969 7968 17889
 7970 7969 17890
 7971 7970 17891
 7972 7971 17892
 7973 7972 17893
 7974 7973 17894
 7975 7974 17895
 7976 7975 17896
 7977 7976 17897
 7978 7977 17898
 7979 7978 17899
 7980 7979 17900
 7981 7980 17901
 7982 7981 17902
 7983 7982 17903
 7984 7983 17904
 7985 7984 17905
 7986 7985 17906
 7987 7986 17907
 7988 7987 17908
 7989 7988 17909
 7990 7989 17910
 7991 7990 17911
 7992 7991 17912
 7993 7992 17913
 7994 7993 17914
 7995 7994 17915
 7996 7995 17916
 7997 7996 17917
 7998 7997 17918
 7999 7998 17919
 8001 8000 17920
 8002 8001 17921
 8003 8002 17922
 8004 8003 17923
 8005 8004 17924
 8006 8005 17925
 8007 8006 17926
 8008 8007 17927
 8009 8008 17928
 8010 8009 17929
 8011 8010 17930
 8012 8011 17931
 8013 8012 17932
 8014 8013 17933
 8015 8014 17934
 8016 8015 17935
 8017 8016 17936
 8018 8017 17937
 8019 8018 17938
 8020 8019 17939
 8021 8020 17940
 8022 8021 17941
 8023 8022 17942
 8024 8023 17943
 8025 8024 17944
 8026 8025 17945
 8027 8026 17946
 8028 8027 17947
 8029 8028 17948
 8030 8029 17949
 8031 8030 17950
 8032 8031 17951
 8033 8032 17952
 8034 8033 17953
 8035 8034 17954
 8036 8035 17955
 8037 8036 17956
 8038 8037 17957
 8039 8038 17958
 8040 8039 17959
 8041 8040 17960
 8042 8041 17961
 8043 8042 17962
 8044 8043 17963
 8045 8044 17964
 8046 8045 17965
 8047 8046 17966
 8048 8047 17967
 8049 8048 17968
 8050 8049 17969
 8051 8050 17970
 8052 8051 17971
 8053 8052 17972
 8054 8053 17973
 8055 8054 17974
 8056 8055 17975
 8057 8056 17976
 8058 8057 17977
 8059 8058 17978
 8060 8059 17979
 8061 8060 17980
 8062 8061 17981
 8063 8062 17982
 8064 8063 17983
 8065 8064 17984
 8066 8065 17985
 8067 8066 17986
 8068 8067 17987
 8069 8068 17988
 8070 8069 17989
 8071 8070 17990
 8072 8071 17991
 8073 8072 17992
 8074 8073 17993
 8075 8074 17994
 8076 8075 17995
 8077 8076 17996
 8078 8077 17997
 8079 8078 17998
 8080 8079 17999
 8081 8080 18000
 8082 8081 18001
 8083 8082 18002
 8084 8083 18003
 8085 8084 18004
 8086 8085 18005
 8087 8086 18006
 8088 8087 18007
 8089 8088 18008
 8090 8089 18009
 8091 8090 18010
 8092 8091 18011
 8093 8092 18012
 8094 8093 18013
 8095 8094 18014
 8096 8095 18015
 8097 8096 18016
 8098 8097 18017
 8099 8098 18018
 8101 8100 18019
 8102 8101 18020
 8103 8102 18021
 8104 8103 18022
 8105 8104 18023
 8106 8105 18024
 8107 8106 18025
 8108 8107 18026
 8109 8108 18027
 8110 8109 18028
 8111 8110 18029
 8112 8111 18030
 8113 8112 18031
 8114 8113 18032
 8115 8114 18033
 8116 8115 18034
 8117 8116 18035
 8118 8117 18036
 8119 8118 18037
 8120 8119 18038
 8121 8120 18039
 8122 8121 18040
 8123 8122 18041
 8124 8123 18042
 8125 8124 18043
 8126 8125 18044
 8127 8126 18045
 8128 8127 18046
 8129 8128 18047
 8130 8129 18048
 8131 8130 18049
 8132 8131 18050
 8133 8132 18051
 8134 8133 18052
 8135 8134 18053
 8136 8135 18054
 8137 8136 18055
 8138 8137 18056
 8139 8138 18057
 8140 8139 18058
 8141 8140 18059
 8142 8141 18060
 8143 8142 18061
 8144 8143 18062
 8145 8144 18063
 8146 8145 18064
 8147 8146 18065
 8148 8147 18066
 8149 8148 18067
 8150 8149 18068
 8151 8150 18069
 8152 8151 18070
 8153 8152 18071
 8154 8153 18072
 8155 8154 18073
 8156 8155 18074
 8157 8156 18075
 8158 8157 18076
 8159 8158 18077
 8160 8159 18078
 8161 8160 18079
 8162 8161 18080
 8163 8162 18081
 8164 8163 18082
 8165 8164 18083
 8166 8165 18084
 8167 8166 18085
 8168 8167 18086
 8169 8168 18087
 8170 8169 18088
 8171 8170 18089
 8172 8171 18090
 8173 8172 18091
 8174 8173 18092
 8175 8174 18093
 8176 8175 18094
 8177 8176 18095
 8178 8177 18096
 8179 8178 18097
 8180 8179 18098
 8181 8180 18099
 8182 8181 18100
 8183 8182 18101
 8184 8183 18102
 8185 8184 18103
 8186 8185 18104
 8187 8186 18105
 8188 8187 18106
 8189 8188 18107
 8190 8189 18108
 8191 8190 18109
 8192 8191 18110
 8193 8192 18111
 8194 8193 18112
 8195 8194 18113
 8196 8195 18114
 8197 8196 18115
 8198 8197 18116
 8199 8198 18117
 8201 8200 18118
 8202 8201 18119
 8203 8202 18120
 8204 8203 18121
 8205 8204 18122
 8206 8205 18123
 8207 8206 18124
 8208 8207 18125
 8209 8208 18126
 8210 8209 18127
 8211 8210 18128
 8212 8211 18129
 8213 8212 18130
 8214 8213 18131
 8215 8214 18132
 8216 8215 18133
 8217 8216 18134
 8218 8217 18135
 8219 8218 18136
 8220 8219 18137
 8221 8220 18138
 8222 8221 18139
 8223 8222 18140
 8224 8223 18141
 8225 8224 18142
 8226 8225 18143
 8227 8226 18144
 8228 8227 18145
 8229 8228 18146
 8230 8229 18147
 8231 8230 18148
 8232 8231 18149
 8233 8232 18150
 8234 8233 18151
 8235 8234 18152
 8236 8235 18153
 8237 8236 18154
 8238 8237 18155
 8239 8238 18156
 8240 8239 18157
 8241 8240 18158
 8242 8241 18159
 8243 8242 18160
 8244 8243 18161
 8245 8244 18162
 8246 8245 18163
 8247 8246 18164
 8248 8247 18165
 8249 8248 18166
 8250 8249 18167
 8251 8250 18168
 8252 8251 18169
 8253 8252 18170
 8254 8253 18171
 8255 8254 18172
 8256 8255 18173
 8257 8256 18174
 8258 8257 18175
 8259 8258 18176
 8260 8259 18177
 8261 8260 18178
 8262 8261 18179
 8263 8262 18180
 8264 8263 18181
 8265 8264 18182
 8266 8265 18183
 8267 8266 18184
 8268 8267 18185
 8269 8268 18186
 8270 8269 18187
 8271 8270 18188
 8272 8271 18189
 8273 8272 18190
 8274 8273 18191
 8275 8274 18192
 8276 8275 18193
 8277 8276 18194
 8278 8277 18195
 8279 8278 18196
 8280 8279 18197
 8281 8280 18198
 8282 8281 18199
 8283 8282 18200
 8284 8283 18201
 8285 8284 18202
 8286 8285 18203
 8287 8286 18204
 8288 8287 18205
 8289 8288 18206
 8290 8289 18207
 8291 8290 18208
 8292 8291 18209
 8293 8292 18210
 8294 8293 18211
 8295 8294 18212
 8296 8295 18213
 8297 8296 18214
 8298 8297 18215
 8299 8298 18216
 8301 8300 18217
 8302 8301 18218
 8303 8302 18219
 8304 8303 18220
 8305 8304 18221
 8306 8305 18222
 8307 8306 18223
 8308 8307 18224
 8309 8308 18225
 8310 8309 18226
 8311 8310 18227
 8312 8311 18228
 8313 8312 18229
 8314 8313 18230
 8315 8314 18231
 8316 8315 18232
 8317 8316 18233
 8318 8317 18234
 8319 8318 18235
 8320 8319 18236
 8321 8320 18237
 8322 8321 18238
 8323 8322 18239
 8324 8323 18240
 8325 8324 18241
 8326 8325 18242
 8327 8326 18243
 8328 8327 18244
 8329 8328 18245
 8330 8329 18246
 8331 8330 18247
 8332 8331 18248
 8333 8332 18249
 8334 8333 18250
 8335 8334 18251
 8336 8335 18252
 8337 8336 18253
 8338 8337 18254
 8339 8338 18255
 8340 8339 18256
 8341 8340 18257
 8342 8341 18258
 8343 8342 18259
 8344 8343 18260
 8345 8344 18261
 8346 8345 18262
 8347 8346 18263
 8348 8347 18264
 8349 8348 18265
 8350 8349 18266
 8351 8350 18267
 8352 8351 18268
 8353 8352 18269
 8354 8353 18270
 8355 8354 18271
 8356 8355 18272
 8357 8356 18273
 8358 8357 18274
 8359 8358 18275
 8360 8359 18276
 8361 8360 18277
 8362 8361 18278
 8363 8362 18279
 8364 8363 18280
 8365 8364 18281
 8366 8365 18282
 8367 8366 18283
 8368 8367 18284
 8369 8368 18285
 8370 8369 18286
 8371 8370 18287
 8372 8371 18288
 8373 8372 18289
 8374 8373 18290
 8375 8374 18291
 8376 8375 18292
 8377 8376 18293
 8378 8377 18294
 8379 8378 18295
 8380 8379 18296
 8381 8380 18297
 8382 8381 18298
 8383 8382 18299
 8384 8383 18300
 8385 8384 18301
 8386 8385 18302
 8387 8386 18303
 8388 8387 18304
 8389 8388 18305
 8390 8389 18306
 8391 8390 18307
 8392 8391 18308
 8393 8392 18309
 8394 8393 18310
 8395 8394 18311
 8396 8395 18312
 8397 8396 18313
 8398 8397 18314
 8399 8398 18315
 8401 8400 18316
 8402 8401 18317
 8403 8402 18318
 8404 8403 18319
 8405 8404 18320
 8406 8405 18321
 8407 8406 18322
 8408 8407 18323
 8409 8408 18324
 8410 8409 18325
 8411 8410 18326
 8412 8411 18327
 8413 8412 18328
 8414 8413 18329
 8415 8414 18330
 8416 8415 18331
 8417 8416 18332
 8418 8417 18333
 8419 8418 18334
 8420 8419 18335
 8421 8420 18336
 8422 8421 18337
 8423 8422 18338
 8424 8423 18339
 8425 8424 18340
 8426 8425 18341
 8427 8426 18342
 8428 8427 18343
 8429 8428 18344
 8430 8429 18345
 8431 8430 18346
 8432 8431 18347
 8433 8432 18348
 8434 8433 18349
 8435 8434 18350
 8436 8435 18351
 8437 8436 18352
 8438 8437 18353
 8439 8438 18354
 8440 8439 18355
 8441 8440 18356
 8442 8441 18357
 8443 8442 18358
 8444 8443 18359
 8445 8444 18360
 8446 8445 18361
 8447 8446 18362
 8448 8447 18363
 8449 8448 18364
 8450 8449 18365
 8451 8450 18366
 8452 8451 18367
 8453 8452 18368
 8454 8453 18369
 8455 8454 18370
 8456 8455 18371
 8457 8456 18372
 8458 8457 18373
 8459 8458 18374
 8460 8459 18375
 8461 8460 18376
 8462 8461 18377
 8463 8462 18378
 8464 8463 18379
 8465 8464 18380
 8466 8465 18381
 8467 8466 18382
 8468 8467 18383
 8469 8468 18384
 8470 8469 18385
 8471 8470 18386
 8472 8471 18387
 8473 8472 18388
 8474 8473 18389
 8475 8474 18390
 8476 8475 18391
 8477 8476 18392
 8478 8477 18393
 8479 8478 18394
 8480 8479 18395
 8481 8480 18396
 8482 8481 18397
 8483 8482 18398
 8484 8483 18399
 8485 8484 18400
 8486 8485 18401
 8487 8486 18402
 8488 8487 18403
 8489 8488 18404
 8490 8489 18405
 8491 8490 18406
 8492 8491 18407
 8493 8492 18408
 8494 8493 18409
 8495 8494 18410
 8496 8495 18411
 8497 8496 18412
 8498 8497 18413
 8499 8498 18414
 8501 8500 18415
 8502 8501 18416
 8503 8502 18417
 8504 8503 18418
 8505 8504 18419
 8506 8505 18420
 8507 8506 18421
 8508 8507 18422
 8509 8508 18423
 8510 8509 18424
 8511 8510 18425
 8512 8511 18426
 8513 8512 18427
 8514 8513 18428
 8515 8514 18429
 8516 8515 18430
 8517 8516 18431
 8518 8517 18432
 8519 8518 18433
 8520 8519 18434
 8521 8520 18435
 8522 8521 18436
 8523 8522 18437
 8524 8523 18438
 8525 8524 18439
 8526 8525 18440
 8527 8526 18441
 8528 8527 18442
 8529 8528 18443
 8530 8529 18444
 8531 8530 18445
 8532 8531 18446
 8533 8532 18447
 8534 8533 18448
 8535 8534 18449
 8536 8535 18450
 8537 8536 18451
 8538 8537 18452
 8539 8538 18453
 8540 8539 18454
 8541 8540 18455
 8542 8541 18456
 8543 8542 18457
 8544 8543 18458
 8545 8544 18459
 8546 8545 18460
 8547 8546 18461
 8548 8547 18462
 8549 8548 18463
 8550 8549 18464
 8551 8550 18465
 8552 8551 18466
 8553 8552 18467
 8554 8553 18468
 8555 8554 18469
 8556 8555 18470
 8557 8556 18471
 8558 8557 18472
 8559 8558 18473
 8560 8559 18474
 8561 8560 18475
 8562 8561 18476
 8563 8562 18477
 8564 8563 18478
 8565 8564 18479
 8566 8565 18480
 8567 8566 18481
 8568 8567 18482
 8569 8568 18483
 8570 8569 18484
 8571 8570 18485
 8572 8571 18486
 8573 8572 18487
 8574 8573 18488
 8575 8574 18489
 8576 8575 18490
 8577 8576 18491
 8578 8577 18492
 8579 8578 18493
 8580 8579 18494
 8581 8580 18495
 8582 8581 18496
 8583 8582 18497
 8584 8583 18498
 8585 8584 18499
 8586 8585 18500
 8587 8586 18501
 8588 8587 18502
 8589 8588 18503
 8590 8589 18504
 8591 8590 18505
 8592 8591 18506
 8593 8592 18507
 8594 8593 18508
 8595 8594 18509
 8596 8595 18510
 8597 8596 18511
 8598 8597 18512
 8599 8598 18513
 8601 8600 18514
 8602 8601 18515
 8603 8602 18516
 8604 8603 18517
 8605 8604 18518
 8606 8605 18519
 8607 8606 18520
 8608 8607 18521
 8609 8608 18522
 8610 8609 18523
 8611 8610 18524
 8612 8611 18525
 8613 8612 18526
 8614 8613 18527
 8615 8614 18528
 8616 8615 18529
 8617 8616 18530
 8618 8617 18531
 8619 8618 18532
 8620 8619 18533
 8621 8620 18534
 8622 8621 18535
 8623 8622 18536
 8624 8623 18537
 8625 8624 18538
 8626 8625 18539
 8627 8626 18540
 8628 8627 18541
 8629 8628 18542
 8630 8629 18543
 8631 8630 18544
 8632 8631 18545
 8633 8632 18546
 8634 8633 18547
 8635 8634 18548
 8636 8635 18549
 8637 8636 18550
 8638 8637 18551
 8639 8638 18552
 8640 8639 18553
 8641 8640 18554
 8642 8641 18555
 8643 8642 18556
 8644 8643 18557
 8645 8644 18558
 8646 8645 18559
 8647 8646 18560
 8648 8647 18561
 8649 8648 18562
 8650 8649 18563
 8651 8650 18564
 8652 8651 18565
 8653 8652 18566
 8654 8653 18567
 8655 8654 18568
 8656 8655 18569
 8657 8656 18570
 8658 8657 18571
 8659 8658 18572
 8660 8659 18573
 8661 8660 18574
 8662 8661 18575
 8663 8662 18576
 8664 8663 18577
 8665 8664 18578
 8666 8665 18579
 8667 8666 18580
 8668 8667 18581
 8669 8668 18582
 8670 8669 18583
 8671 8670 18584
 8672 8671 18585
 8673 8672 18586
 8674 8673 18587
 8675 8674 18588
 8676 8675 18589
 8677 8676 18590
 8678 8677 18591
 8679 8678 18592
 8680 8679 18593
 8681 8680 18594
 8682 8681 18595
 8683 8682 18596
 8684 8683 18597
 8685 8684 18598
 8686 8685 18599
 8687 8686 18600
 8688 8687 18601
 8689 8688 18602
 8690 8689 18603
 8691 8690 18604
 8692 8691 18605
 8693 8692 18606
 8694 8693 18607
 8695 8694 18608
 8696 8695 18609
 8697 8696 18610
 8698 8697 18611
 8699 8698 18612
 8701 8700 18613
 8702 8701 18614
 8703 8702 18615
 8704 8703 18616
 8705 8704 18617
 8706 8705 18618
 8707 8706 18619
 8708 8707 18620
 8709 8708 18621
 8710 8709 18622
 8711 8710 18623
 8712 8711 18624
 8713 8712 18625
 8714 8713 18626
 8715 8714 18627
 8716 8715 18628
 8717 8716 18629
 8718 8717 18630
 8719 8718 18631
 8720 8719 18632
 8721 8720 18633
 8722 8721 18634
 8723 8722 18635
 8724 8723 18636
 8725 8724 18637
 8726 8725 18638
 8727 8726 18639
 8728 8727 18640
 8729 8728 18641
 8730 8729 18642
 8731 8730 18643
 8732 8731 18644
 8733 8732 18645
 8734 8733 18646
 8735 8734 18647
 8736 8735 18648
 8737 8736 18649
 8738 8737 18650
 8739 8738 18651
 8740 8739 18652
 8741 8740 18653
 8742 8741 18654
 8743 8742 18655
 8744 8743 18656
 8745 8744 18657
 8746 8745 18658
 8747 8746 18659
 8748 8747 18660
 8749 8748 18661
 8750 8749 18662
 8751 8750 18663
 8752 8751 18664
 8753 8752 18665
 8754 8753 18666
 8755 8754 18667
 8756 8755 18668
 8757 8756 18669
 8758 8757 18670
 8759 8758 18671
 8760 8759 18672
 8761 8760 18673
 8762 8761 18674
 8763 8762 18675
 8764 8763 18676
 8765 8764 18677
 8766 8765 18678
 8767 8766 18679
 8768 8767 18680
 8769 8768 18681
 8770 8769 18682
 8771 8770 18683
 8772 8771 18684
 8773 8772 18685
 8774 8773 18686
 8775 8774 18687
 8776 8775 18688
 8777 8776 18689
 8778 8777 18690
 8779 8778 18691
 8780 8779 18692
 8781 8780 18693
 8782 8781 18694
 8783 8782 18695
 8784 8783 18696
 8785 8784 18697
 8786 8785 18698
 8787 8786 18699
 8788 8787 18700
 8789 8788 18701
 8790 8789 18702
 8791 8790 18703
 8792 8791 18704
 8793 8792 18705
 8794 8793 18706
 8795 8794 18707
 8796 8795 18708
 8797 8796 18709
 8798 8797 18710
 8799 8798 18711
 8801 8800 18712
 8802 8801 18713
 8803 8802 18714
 8804 8803 18715
 8805 8804 18716
 8806 8805 18717
 8807 8806 18718
 8808 8807 18719
 8809 8808 18720
 8810 8809 18721
 8811 8810 18722
 8812 8811 18723
 8813 8812 18724
 8814 8813 18725
 8815 8814 18726
 8816 8815 18727
 8817 8816 18728
 8818 8817 18729
 8819 8818 18730
 8820 8819 18731
 8821 8820 18732
 8822 8821 18733
 8823 8822 18734
 8824 8823 18735
 8825 8824 18736
 8826 8825 18737
 8827 8826 18738
 8828 8827 18739
 8829 8828 18740
 8830 8829 18741
 8831 8830 18742
 8832 8831 18743
 8833 8832 18744
 8834 8833 18745
 8835 8834 18746
 8836 8835 18747
 8837 8836 18748
 8838 8837 18749
 8839 8838 18750
 8840 8839 18751
 8841 8840 18752
 8842 8841 18753
 8843 8842 18754
 8844 8843 18755
 8845 8844 18756
 8846 8845 18757
 8847 8846 18758
 8848 8847 18759
 8849 8848 18760
 8850 8849 18761
 8851 8850 18762
 8852 8851 18763
 8853 8852 18764
 8854 8853 18765
 8855 8854 18766
 8856 8855 18767
 8857 8856 18768
 8858 8857 18769
 8859 8858 18770
 8860 8859 18771
 8861 8860 18772
 8862 8861 18773
 8863 8862 18774
 8864 8863 18775
 8865 8864 18776
 8866 8865 18777
 8867 8866 18778
 8868 8867 18779
 8869 8868 18780
 8870 8869 18781
 8871 8870 18782
 8872 8871 18783
 8873 8872 18784
 8874 8873 18785
 8875 8874 18786
 8876 8875 18787
 8877 8876 18788
 8878 8877 18789
 8879 8878 18790
 8880 8879 18791
 8881 8880 18792
 8882 8881 18793
 8883 8882 18794
 8884 8883 18795
 8885 8884 18796
 8886 8885 18797
 8887 8886 18798
 8888 8887 18799
 8889 8888 18800
 8890 8889 18801
 8891 8890 18802
 8892 8891 18803
 8893 8892 18804
 8894 8893 18805
 8895 8894 18806
 8896 8895 18807
 8897 8896 18808
 8898 8897 18809
 8899 8898 18810
 8901 8900 18811
 8902 8901 18812
 8903 8902 18813
 8904 8903 18814
 8905 8904 18815
 8906 8905 18816
 8907 8906 18817
 8908 8907 18818
 8909 8908 18819
 8910 8909 18820
 8911 8910 18821
 8912 8911 18822
 8913 8912 18823
 8914 8913 18824
 8915 8914 18825
 8916 8915 18826
 8917 8916 18827
 8918 8917 18828
 8919 8918 18829
 8920 8919 18830
 8921 8920 18831
 8922 8921 18832
 8923 8922 18833
 8924 8923 18834
 8925 8924 18835
 8926 8925 18836
 8927 8926 18837
 8928 8927 18838
 8929 8928 18839
 8930 8929 18840
 8931 8930 18841
 8932 8931 18842
 8933 8932 18843
 8934 8933 18844
 8935 8934 18845
 8936 8935 18846
 8937 8936 18847
 8938 8937 18848
 8939 8938 18849
 8940 8939 18850
 8941 8940 18851
 8942 8941 18852
 8943 8942 18853
 8944 8943 18854
 8945 8944 18855
 8946 8945 18856
 8947 8946 18857
 8948 8947 18858
 8949 8948 18859
 8950 8949 18860
 8951 8950 18861
 8952 8951 18862
 8953 8952 18863
 8954 8953 18864
 8955 8954 18865
 8956 8955 18866
 8957 8956 18867
 8958 8957 18868
 8959 8958 18869
 8960 8959 18870
 8961 8960 18871
 8962 8961 18872
 8963 8962 18873
 8964 8963 18874
 8965 8964 18875
 8966 8965 18876
 8967 8966 18877
 8968 8967 18878
 8969 8968 18879
 8970 8969 18880
 8971 8970 18881
 8972 8971 18882
 8973 8972 18883
 8974 8973 18884
 8975 8974 18885
 8976 8975 18886
 8977 8976 18887
 8978 8977 18888
 8979 8978 18889
 8980 8979 18890
 8981 8980 18891
 8982 8981 18892
 8983 8982 18893
 8984 8983 18894
 8985 8984 18895
 8986 8985 18896
 8987 8986 18897
 8988 8987 18898
 8989 8988 18899
 8990 8989 18900
 8991 8990 18901
 8992 8991 18902
 8993 8992 18903
 8994 8993 18904
 8995 8994 18905
 8996 8995 18906
 8997 8996 18907
 8998 8997 18908
 8999 8998 18909
 9001 9000 18910
 9002 9001 18911
 9003 9002 18912
 9004 9003 18913
 9005 9004 18914
 9006 9005 18915
 9007 9006 18916
 9008 9007 18917
 9009 9008 18918
 9010 9009 18919
 9011 9010 18920
 9012 9011 18921
 9013 9012 18922
 9014 9013 18923
 9015 9014 18924
 9016 9015 18925
 9017 9016 18926
 9018 9017 18927
 9019 9018 18928
 9020 9019 18929
 9021 9020 18930
 9022 9021 18931
 9023 9022 18932
 9024 9023 18933
 9025 9024 18934
 9026 9025 18935
 9027 9026 18936
 9028 9027 18937
 9029 9028 18938
 9030 9029 18939
 9031 9030 18940
 9032 9031 18941
 9033 9032 18942
 9034 9033 18943
 9035 9034 18944
 9036 9035 18945
 9037 9036 18946
 9038 9037 18947
 9039 9038 18948
 9040 9039 18949
 9041 9040 18950
 9042 9041 18951
 9043 9042 18952
 9044 9043 18953
 9045 9044 18954
 9046 9045 18955
 9047 9046 18956
 9048 9047 18957
 9049 9048 18958
 9050 9049 18959
 9051 9050 18960
 9052 9051 18961
 9053 9052 18962
 9054 9053 18963
 9055 9054 18964
 9056 9055 18965
 9057 9056 18966
 9058 9057 18967
 9059 9058 18968
 9060 9059 18969
 9061 9060 18970
 9062 9061 18971
 9063 9062 18972
 9064 9063 18973
 9065 9064 18974
 9066 9065 18975
 9067 9066 18976
 9068 9067 18977
 9069 9068 18978
 9070 9069 18979
 9071 9070 18980
 9072 9071 18981
 9073 9072 18982
 9074 9073 18983
 9075 9074 18984
 9076 9075 18985
 9077 9076 18986
 9078 9077 18987
 9079 9078 18988
 9080 9079 18989
 9081 9080 18990
 9082 9081 18991
 9083 9082 18992
 9084 9083 18993
 9085 9084 18994
 9086 9085 18995
 9087 9086 18996
 9088 9087 18997
 9089 9088 18998
 9090 9089 18999
 9091 9090 19000
 9092 9091 19001
 9093 9092 19002
 9094 9093 19003
 9095 9094 19004
 9096 9095 19005
 9097 9096 19006
 9098 9097 19007
 9099 9098 19008
 9101 9100 19009
 9102 9101 19010
 9103 9102 19011
 9104 9103 19012
 9105 9104 19013
 9106 9105 19014
 9107 9106 19015
 9108 9107 19016
 9109 9108 19017
 9110 9109 19018
 9111 9110 19019
 9112 9111 19020
 9113 9112 19021
 9114 9113 19022
 9115 9114 19023
 9116 9115 19024
 9117 9116 19025
 9118 9117 19026
 9119 9118 19027
 9120 9119 19028
 9121 9120 19029
 9122 9121 19030
 9123 9122 19031
 9124 9123 19032
 9125 9124 19033
 9126 9125 19034
 9127 9126 19035
 9128 9127 19036
 9129 9128 19037
 9130 9129 19038
 9131 9130 19039
 9132 9131 19040
 9133 9132 19041
 9134 9133 19042
 9135 9134 19043
 9136 9135 19044
 9137 9136 19045
 9138 9137 19046
 9139 9138 19047
 9140 9139 19048
 9141 9140 19049
 9142 9141 19050
 9143 9142 19051
 9144 9143 19052
 9145 9144 19053
 9146 9145 19054
 9147 9146 19055
 9148 9147 19056
 9149 9148 19057
 9150 9149 19058
 9151 9150 19059
 9152 9151 19060
 9153 9152 19061
 9154 9153 19062
 9155 9154 19063
 9156 9155 19064
 9157 9156 19065
 9158 9157 19066
 9159 9158 19067
 9160 9159 19068
 9161 9160 19069
 9162 9161 19070
 9163 9162 19071
 9164 9163 19072
 9165 9164 19073
 9166 9165 19074
 9167 9166 19075
 9168 9167 19076
 9169 9168 19077
 9170 9169 19078
 9171 9170 19079
 9172 9171 19080
 9173 9172 19081
 9174 9173 19082
 9175 9174 19083
 9176 9175 19084
 9177 9176 19085
 9178 9177 19086
 9179 9178 19087
 9180 9179 19088
 9181 9180 19089
 9182 9181 19090
 9183 9182 19091
 9184 9183 19092
 9185 9184 19093
 9186 9185 19094
 9187 9186 19095
 9188 9187 19096
 9189 9188 19097
 9190 9189 19098
 9191 9190 19099
 9192 9191 19100
 9193 9192 19101
 9194 9193 19102
 9195 9194 19103
 9196 9195 19104
 9197 9196 19105
 9198 9197 19106
 9199 9198 19107
 9201 9200 19108
 9202 9201 19109
 9203 9202 19110
 9204 9203 19111
 9205 9204 19112
 9206 9205 19113
 9207 9206 19114
 9208 9207 19115
 9209 9208 19116
 9210 9209 19117
 9211 9210 19118
 9212 9211 19119
 9213 9212 19120
 9214 9213 19121
 9215 9214 19122
 9216 9215 19123
 9217 9216 19124
 9218 9217 19125
 9219 9218 19126
 9220 9219 19127
 9221 9220 19128
 9222 9221 19129
 9223 9222 19130
 9224 9223 19131
 9225 9224 19132
 9226 9225 19133
 9227 9226 19134
 9228 9227 19135
 9229 9228 19136
 9230 9229 19137
 9231 9230 19138
 9232 9231 19139
 9233 9232 19140
 9234 9233 19141
 9235 9234 19142
 9236 9235 19143
 9237 9236 19144
 9238 9237 19145
 9239 9238 19146
 9240 9239 19147
 9241 9240 19148
 9242 9241 19149
 9243 9242 19150
 9244 9243 19151
 9245 9244 19152
 9246 9245 19153
 9247 9246 19154
 9248 9247 19155
 9249 9248 19156
 9250 9249 19157
 9251 9250 19158
 9252 9251 19159
 9253 9252 19160
 9254 9253 19161
 9255 9254 19162
 9256 9255 19163
 9257 9256 19164
 9258 9257 19165
 9259 9258 19166
 9260 9259 19167
 9261 9260 19168
 9262 9261 19169
 9263 9262 19170
 9264 9263 19171
 9265 9264 19172
 9266 9265 19173
 9267 9266 19174
 9268 9267 19175
 9269 9268 19176
 9270 9269 19177
 9271 9270 19178
 9272 9271 19179
 9273 9272 19180
 9274 9273 19181
 9275 9274 19182
 9276 9275 19183
 9277 9276 19184
 9278 9277 19185
 9279 9278 19186
 9280 9279 19187
 9281 9280 19188
 9282 9281 19189
 9283 9282 19190
 9284 9283 19191
 9285 9284 19192
 9286 9285 19193
 9287 9286 19194
 9288 9287 19195
 9289 9288 19196
 9290 9289 19197
 9291 9290 19198
 9292 9291 19199
 9293 9292 19200
 9294 9293 19201
 9295 9294 19202
 9296 9295 19203
 9297 9296 19204
 9298 9297 19205
 9299 9298 19206
 9301 9300 19207
 9302 9301 19208
 9303 9302 19209
 9304 9303 19210
 9305 9304 19211
 9306 9305 19212
 9307 9306 19213
 9308 9307 19214
 9309 9308 19215
 9310 9309 19216
 9311 9310 19217
 9312 9311 19218
 9313 9312 19219
 9314 9313 19220
 9315 9314 19221
 9316 9315 19222
 9317 9316 19223
 9318 9317 19224
 9319 9318 19225
 9320 9319 19226
 9321 9320 19227
 9322 9321 19228
 9323 9322 19229
 9324 9323 19230
 9325 9324 19231
 9326 9325 19232
 9327 9326 19233
 9328 9327 19234
 9329 9328 19235
 9330 9329 19236
 9331 9330 19237
 9332 9331 19238
 9333 9332 19239
 9334 9333 19240
 9335 9334 19241
 9336 9335 19242
 9337 9336 19243
 9338 9337 19244
 9339 9338 19245
 9340 9339 19246
 9341 9340 19247
 9342 9341 19248
 9343 9342 19249
 9344 9343 19250
 9345 9344 19251
 9346 9345 19252
 9347 9346 19253
 9348 9347 19254
 9349 9348 19255
 9350 9349 19256
 9351 9350 19257
 9352 9351 19258
 9353 9352 19259
 9354 9353 19260
 9355 9354 19261
 9356 9355 19262
 9357 9356 19263
 9358 9357 19264
 9359 9358 19265
 9360 9359 19266
 9361 9360 19267
 9362 9361 19268
 9363 9362 19269
 9364 9363 19270
 9365 9364 19271
 9366 9365 19272
 9367 9366 19273
 9368 9367 19274
 9369 9368 19275
 9370 9369 19276
 9371 9370 19277
 9372 9371 19278
 9373 9372 19279
 9374 9373 19280
 9375 9374 19281
 9376 9375 19282
 9377 9376 19283
 9378 9377 19284
 9379 9378 19285
 9380 9379 19286
 9381 9380 19287
 9382 9381 19288
 9383 9382 19289
 9384 9383 19290
 9385 9384 19291
 9386 9385 19292
 9387 9386 19293
 9388 9387 19294
 9389 9388 19295
 9390 9389 19296
 9391 9390 19297
 9392 9391 19298
 9393 9392 19299
 9394 9393 19300
 9395 9394 19301
 9396 9395 19302
 9397 9396 19303
 9398 9397 19304
 9399 9398 19305
 9401 9400 19306
 9402 9401 19307
 9403 9402 19308
 9404 9403 19309
 9405 9404 19310
 9406 9405 19311
 9407 9406 19312
 9408 9407 19313
 9409 9408 19314
 9410 9409 19315
 9411 9410 19316
 9412 9411 19317
 9413 9412 19318
 9414 9413 19319
 9415 9414 19320
 9416 9415 19321
 9417 9416 19322
 9418 9417 19323
 9419 9418 19324
 9420 9419 19325
 9421 9420 19326
 9422 9421 19327
 9423 9422 19328
 9424 9423 19329
 9425 9424 19330
 9426 9425 19331
 9427 9426 19332
 9428 9427 19333
 9429 9428 19334
 9430 9429 19335
 9431 9430 19336
 9432 9431 19337
 9433 9432 19338
 9434 9433 19339
 9435 9434 19340
 9436 9435 19341
 9437 9436 19342
 9438 9437 19343
 9439 9438 19344
 9440 9439 19345
 9441 9440 19346
 9442 9441 19347
 9443 9442 19348
 9444 9443 19349
 9445 9444 19350
 9446 9445 19351
 9447 9446 19352
 9448 9447 19353
 9449 9448 19354
 9450 9449 19355
 9451 9450 19356
 9452 9451 19357
 9453 9452 19358
 9454 9453 19359
 9455 9454 19360
 9456 9455 19361
 9457 9456 19362
 9458 9457 19363
 9459 9458 19364
 9460 9459 19365
 9461 9460 19366
 9462 9461 19367
 9463 9462 19368
 9464 9463 19369
 9465 9464 19370
 9466 9465 19371
 9467 9466 19372
 9468 9467 19373
 9469 9468 19374
 9470 9469 19375
 9471 9470 19376
 9472 9471 19377
 9473 9472 19378
 9474 9473 19379
 9475 9474 19380
 9476 9475 19381
 9477 9476 19382
 9478 9477 19383
 9479 9478 19384
 9480 9479 19385
 9481 9480 19386
 9482 9481 19387
 9483 9482 19388
 9484 9483 19389
 9485 9484 19390
 9486 9485 19391
 9487 9486 19392
 9488 9487 19393
 9489 9488 19394
 9490 9489 19395
 9491 9490 19396
 9492 9491 19397
 9493 9492 19398
 9494 9493 19399
 9495 9494 19400
 9496 9495 19401
 9497 9496 19402
 9498 9497 19403
 9499 9498 19404
 9501 9500 19405
 9502 9501 19406
 9503 9502 19407
 9504 9503 19408
 9505 9504 19409
 9506 9505 19410
 9507 9506 19411
 9508 9507 19412
 9509 9508 19413
 9510 9509 19414
 9511 9510 19415
 9512 9511 19416
 9513 9512 19417
 9514 9513 19418
 9515 9514 19419
 9516 9515 19420
 9517 9516 19421
 9518 9517 19422
 9519 9518 19423
 9520 9519 19424
 9521 9520 19425
 9522 9521 19426
 9523 9522 19427
 9524 9523 19428
 9525 9524 19429
 9526 9525 19430
 9527 9526 19431
 9528 9527 19432
 9529 9528 19433
 9530 9529 19434
 9531 9530 19435
 9532 9531 19436
 9533 9532 19437
 9534 9533 19438
 9535 9534 19439
 9536 9535 19440
 9537 9536 19441
 9538 9537 19442
 9539 9538 19443
 9540 9539 19444
 9541 9540 19445
 9542 9541 19446
 9543 9542 19447
 9544 9543 19448
 9545 9544 19449
 9546 9545 19450
 9547 9546 19451
 9548 9547 19452
 9549 9548 19453
 9550 9549 19454
 9551 9550 19455
 9552 9551 19456
 9553 9552 19457
 9554 9553 19458
 9555 9554 19459
 9556 9555 19460
 9557 9556 19461
 9558 9557 19462
 9559 9558 19463
 9560 9559 19464
 9561 9560 19465
 9562 9561 19466
 9563 9562 19467
 9564 9563 19468
 9565 9564 19469
 9566 9565 19470
 9567 9566 19471
 9568 9567 19472
 9569 9568 19473
 9570 9569 19474
 9571 9570 19475
 9572 9571 19476
 9573 9572 19477
 9574 9573 19478
 9575 9574 19479
 9576 9575 19480
 9577 9576 19481
 9578 9577 19482
 9579 9578 19483
 9580 9579 19484
 9581 9580 19485
 9582 9581 19486
 9583 9582 19487
 9584 9583 19488
 9585 9584 19489
 9586 9585 19490
 9587 9586 19491
 9588 9587 19492
 9589 9588 19493
 9590 9589 19494
 9591 9590 19495
 9592 9591 19496
 9593 9592 19497
 9594 9593 19498
 9595 9594 19499
 9596 9595 19500
 9597 9596 19501
 9598 9597 19502
 9599 9598 19503
 9601 9600 19504
 9602 9601 19505
 9603 9602 19506
 9604 9603 19507
 9605 9604 19508
 9606 9605 19509
 9607 9606 19510
 9608 9607 19511
 9609 9608 19512
 9610 9609 19513
 9611 9610 19514
 9612 9611 19515
 9613 9612 19516
 9614 9613 19517
 9615 9614 19518
 9616 9615 19519
 9617 9616 19520
 9618 9617 19521
 9619 9618 19522
 9620 9619 19523
 9621 9620 19524
 9622 9621 19525
 9623 9622 19526
 9624 9623 19527
 9625 9624 19528
 9626 9625 19529
 9627 9626 19530
 9628 9627 19531
 9629 9628 19532
 9630 9629 19533
 9631 9630 19534
 9632 9631 19535
 9633 9632 19536
 9634 9633 19537
 9635 9634 19538
 9636 9635 19539
 9637 9636 19540
 9638 9637 19541
 9639 9638 19542
 9640 9639 19543
 9641 9640 19544
 9642 9641 19545
 9643 9642 19546
 9644 9643 19547
 9645 9644 19548
 9646 9645 19549
 9647 9646 19550
 9648 9647 19551
 9649 9648 19552
 9650 9649 19553
 9651 9650 19554
 9652 9651 19555
 9653 9652 19556
 9654 9653 19557
 9655 9654 19558
 9656 9655 19559
 9657 9656 19560
 9658 9657 19561
 9659 9658 19562
 9660 9659 19563
 9661 9660 19564
 9662 9661 19565
 9663 9662 19566
 9664 9663 19567
 9665 9664 19568
 9666 9665 19569
 9667 9666 19570
 9668 9667 19571
 9669 9668 19572
 9670 9669 19573
 9671 9670 19574
 9672 9671 19575
 9673 9672 19576
 9674 9673 19577
 9675 9674 19578
 9676 9675 19579
 9677 9676 19580
 9678 9677 19581
 9679 9678 19582
 9680 9679 19583
 9681 9680 19584
 9682 9681 19585
 9683 9682 19586
 9684 9683 19587
 9685 9684 19588
 9686 9685 19589
 9687 9686 19590
 9688 9687 19591
 9689 9688 19592
 9690 9689 19593
 9691 9690 19594
 9692 9691 19595
 9693 9692 19596
 9694 9693 19597
 9695 9694 19598
 9696 9695 19599
 9697 9696 19600
 9698 9697 19601
 9699 9698 19602
 9701 9700 19603
 9702 9701 19604
 9703 9702 19605
 9704 9703 19606
 9705 9704 19607
 9706 9705 19608
 9707 9706 19609
 9708 9707 19610
 9709 9708 19611
 9710 9709 19612
 9711 9710 19613
 9712 9711 19614
 9713 9712 19615
 9714 9713 19616
 9715 9714 19617
 9716 9715 19618
 9717 9716 19619
 9718 9717 19620
 9719 9718 19621
 9720 9719 19622
 9721 9720 19623
 9722 9721 19624
 9723 9722 19625
 9724 9723 19626
 9725 9724 19627
 9726 9725 19628
 9727 9726 19629
 9728 9727 19630
 9729 9728 19631
 9730 9729 19632
 9731 9730 19633
 9732 9731 19634
 9733 9732 19635
 9734 9733 19636
 9735 9734 19637
 9736 9735 19638
 9737 9736 19639
 9738 9737 19640
 9739 9738 19641
 9740 9739 19642
 9741 9740 19643
 9742 9741 19644
 9743 9742 19645
 9744 9743 19646
 9745 9744 19647
 9746 9745 19648
 9747 9746 19649
 9748 9747 19650
 9749 9748 19651
 9750 9749 19652
 9751 9750 19653
 9752 9751 19654
 9753 9752 19655
 9754 9753 19656
 9755 9754 19657
 9756 9755 19658
 9757 9756 19659
 9758 9757 19660
 9759 9758 19661
 9760 9759 19662
 9761 9760 19663
 9762 9761 19664
 9763 9762 19665
 9764 9763 19666
 9765 9764 19667
 9766 9765 19668
 9767 9766 19669
 9768 9767 19670
 9769 9768 19671
 9770 9769 19672
 9771 9770 19673
 9772 9771 19674
 9773 9772 19675
 9774 9773 19676
 9775 9774 19677
 9776 9775 19678
 9777 9776 19679
 9778 9777 19680
 9779 9778 19681
 9780 9779 19682
 9781 9780 19683
 9782 9781 19684
 9783 9782 19685
 9784 9783 19686
 9785 9784 19687
 9786 9785 19688
 9787 9786 19689
 9788 9787 19690
 9789 9788 19691
 9790 9789 19692
 9791 9790 19693
 9792 9791 19694
 9793 9792 19695
 9794 9793 19696
 9795 9794 19697
 9796 9795 19698
 9797 9796 19699
 9798 9797 19700
 9799 9798 19701
 9801 9800 19702
 9802 9801 19703
 9803 9802 19704
 9804 9803 19705
 9805 9804 19706
 9806 9805 19707
 9807 9806 19708
 9808 9807 19709
 9809 9808 19710
 9810 9809 19711
 9811 9810 19712
 9812 9811 19713
 9813 9812 19714
 9814 9813 19715
 9815 9814 19716
 9816 9815 19717
 9817 9816 19718
 9818 9817 19719
 9819 9818 19720
 9820 9819 19721
 9821 9820 19722
 9822 9821 19723
 9823 9822 19724
 9824 9823 19725
 9825 9824 19726
 9826 9825 19727
 9827 9826 19728
 9828 9827 19729
 9829 9828 19730
 9830 9829 19731
 9831 9830 19732
 9832 9831 19733
 9833 9832 19734
 9834 9833 19735
 9835 9834 19736
 9836 9835 19737
 9837 9836 19738
 9838 9837 19739
 9839 9838 19740
 9840 9839 19741
 9841 9840 19742
 9842 9841 19743
 9843 9842 19744
 9844 9843 19745
 9845 9844 19746
 9846 9845 19747
 9847 9846 19748
 9848 9847 19749
 9849 9848 19750
 9850 9849 19751
 9851 9850 19752
 9852 9851 19753
 9853 9852 19754
 9854 9853 19755
 9855 9854 19756
 9856 9855 19757
 9857 9856 19758
 9858 9857 19759
 9859 9858 19760
 9860 9859 19761
 9861 9860 19762
 9862 9861 19763
 9863 9862 19764
 9864 9863 19765
 9865 9864 19766
 9866 9865 19767
 9867 9866 19768
 9868 9867 19769
 9869 9868 19770
 9870 9869 19771
 9871 9870 19772
 9872 9871 19773
 9873 9872 19774
 9874 9873 19775
 9875 9874 19776
 9876 9875 19777
 9877 9876 19778
 9878 9877 19779
 9879 9878 19780
 9880 9879 19781
 9881 9880 19782
 9882 9881 19783
 9883 9882 19784
 9884 9883 19785
 9885 9884 19786
 9886 9885 19787
 9887 9886 19788
 9888 9887 19789
 9889 9888 19790
 9890 9889 19791
 9891 9890 19792
 9892 9891 19793
 9893 9892 19794
 9894 9893 19795
 9895 9894 19796
 9896 9895 19797
 9897 9896 19798
 9898 9897 19799
 9899 9898 19800
 101 1 10000
 102 2 10001
 103 3 10002
 104 4 10003
 105 5 10004
 106 6 10005
 107 7 10006
 108 8 10007
 109 9 10008
 110 10 10009
 111 11 10010
 112 12 10011
 113 13 10012
 114 14 10013
 115 15 10014
 116 16 10015
 117 17 10016
 118 18 10017
 119 19 10018
 120 20 10019
 121 21 10020
 122 22 10021
 123 23 10022
 124 24 10023
 125 25 10024
 126 26 10025
 127 27 10026
 128 28 10027
 129 29 10028
 130 30 10029
 131 31 10030
 132 32 10031
 133 33 10032
 134 34 10033
 135 35 10034
 136 36 10035
 137 37 10036
 138 38 10037
 139 39 10038
 140 40 10039
 141 41 10040
 142 42 10041
 143 43 10042
 144 44 10043
 145 45 10044
 146 46 10045
 147 47 10046
 148 48 10047
 149 49 10048
 150 50 10049
 151 51 10050
 152 52 10051
 153 53 10052
 154 54 10053
 155 55 10054
 156 56 10055
 157 57 10056
 158 58 10057
 159 59 10058
 160 60 10059
 161 61 10060
 162 62 10061
 163 63 10062
 164 64 10063
 165 65 10064
 166 66 10065
 167 67 10066
 168 68 10067
 169 69 10068
 170 70 10069
 171 71 10070
 172 72 10071
 173 73 10072
 174 74 10073
 175 75 10074
 176 76 10075
 177 77 10076
 178 78 10077
 179 79 10078
 180 80 10079
 181 81 10080
 182 82 10081
 183 83 10082
 184 84 10083
 185 85 10084
 186 86 10085
 187 87 10086
 188 88 10087
 189 89 10088
 190 90 10089
 191 91 10090
 192 92 10091
 193 93 10092
 194 94 10093
 195 95 10094
 196 96 10095
 197 97 10096
 198 98 10097
 199 99 10098
 201 101 10099
 202 102 10100
 203 103 10101
 204 104 10102
 205 105 10103
 206 106 10104
 207 107 10105
 208 108 10106
 209 109 10107
 210 110 10108
 211 111 10109
 212 112 10110
 213 113 10111
 214 114 10112
 215 115 10113
 216 116 10114
 217 117 10115
 218 118 10116
 219 119 10117
 220 120 10118
 221 121 10119
 222 122 10120
 223 123 10121
 224 124 10122
 225 125 10123
 226 126 10124
 227 127 10125
 228 128 10126
 229 129 10127
 230 130 10128
 231 131 10129
 232 132 10130
 233 133 10131
 234 134 10132
 235 135 10133
 236 136 10134
 237 137 10135
 238 138 10136
 239 139 10137
 240 140 10138
 241 141 10139
 242 142 10140
 243 143 10141
 244 144 10142
 245 145 10143
 246 146 10144
 247 147 10145
 248 148 10146
 249 149 10147
 250 150 10148
 251 151 10149
 252 152 10150
 253 153 10151
 254 154 10152
 255 155 10153
 256 156 10154
 257 157 10155
 258 158 10156
 259 159 10157
 260 160 10158
 261 161 10159
 262 162 10160
 263 163 10161
 264 164 10162
 265 165 10163
 266 166 10164
 267 167 10165
 268 168 10166
 269 169 10167
 270 170 10168
 271 171 10169
 272 172 10170
 273 173 10171
 274 174 10172
 275 175 10173
 276 176 10174
 277 177 10175
 278 178 10176
 279 179 10177
 280 180 10178
 281 181 10179
 282 182 10180
 283 183 10181
 284 184 10182
 285 185 10183
 286 186 10184
 287 187 10185
 288 188 10186
 289 189 10187
 290 190 10188
 291 191 10189
 292 192 10190
 293 193 10191
 294 194 10192
 295 195 10193
 296 196 10194
 297 197 10195
 298 198 10196
 299 199 10197
 301 201 10198
 302 202 10199
 303 203 10200
 304 204 10201
 305 205 10202
 306 206 10203
 307 207 10204
 308 208 10205
 309 209 10206
 310 210 10207
 311 211 10208
 312 212 10209
 313 213 10210
 314 214 10211
 315 215 10212
 316 216 10213
 317 217 10214
 318 218 10215
 319 219 10216
 320 220 10217
 321 221 10218
 322 222 10219
 323 223 10220
 324 224 10221
 325 225 10222
 326 226 10223
 327 227 10224
 328 228 10225
 329 229 10226
 330 230 10227
 331 231 10228
 332 232 10229
 333 233 10230
 334 234 10231
 335 235 10232
 336 236 10233
 337 237 10234
 338 238 10235
 339 239 10236
 340 240 10237
 341 241 10238
 342 242 10239
 343 243 10240
 344 244 10241
 345 245 10242
 346 246 10243
 347 247 10244
 348 248 10245
 349 249 10246
 350 250 10247
 351 251 10248
 352 252 10249
 353 253 10250
 354 254 10251
 355 255 10252
 356 256 10253
 357 257 10254
 358 258 10255
 359 259 10256
 360 260 10257
 361 261 10258
 362 262 10259
 363 263 10260
 364 264 10261
 365 265 10262
 366 266 10263
 367 267 10264
 368 268 10265
 369 269 10266
 370 270 10267
 371 271 10268
 372 272 10269
 373 273 10270
 374 274 10271
 375 275 10272
 376 276 10273
 377 277 10274
 378 278 10275
 379 279 10276
 380 280 10277
 381 281 10278
 382 282 10279
 383 283 10280
 384 284 10281
 385 285 10282
 386 286 10283
 387 287 10284
 388 288 10285
 389 289 10286
 390 290 10287
 391 291 10288
 392 292 10289
 393 293 10290
 394 294 10291
 395 295 10292
 396 296 10293
 397 297 10294
 398 298 10295
 399 299 10296
 401 301 10297
 402 302 10298
 403 303 10299
 404 304 10300
 405 305 10301
 406 306 10302
 407 307 10303
 408 308 10304
 409 309 10305
 410 310 10306
 411 311 10307
 412 312 10308
 413 313 10309
 414 314 10310
 415 315 10311
 416 316 10312
 417 317 10313
 418 318 10314
 419 319 10315
 420 320 10316
 421 321 10317
 422 322 10318
 423 323 10319
 424 324 10320
 425 325 10321
 426 326 10322
 427 327 10323
 428 328 10324
 429 329 10325
 430 330 10326
 431 331 10327
 432 332 10328
 433 333 10329
 434 334 10330
 435 335 10331
 436 336 10332
 437 337 10333
 438 338 10334
 439 339 10335
 440 340 10336
 441 341 10337
 442 342 10338
 443 343 10339
 444 344 10340
 445 345 10341
 446 346 10342
 447 347 10343
 448 348 10344
 449 349 10345
 450 350 10346
 451 351 10347
 452 352 10348
 453 353 10349
 454 354 10350
 455 355 10351
 456 356 10352
 457 357 10353
 458 358 10354
 459 359 10355
 460 360 10356
 461 361 10357
 462 362 10358
 463 363 10359
 464 364 10360
 465 365 10361
 466 366 10362
 467 367 10363
 468 368 10364
 469 369 10365
 470 370 10366
 471 371 10367
 472 372 10368
 473 373 10369
 474 374 10370
 475 375 10371
 476 376 10372
 477 377 10373
 478 378 10374
 479 379 10375
 480 380 10376
 481 381 10377
 482 382 10378
 483 383 10379
 484 384 10380
 485 385 10381
 486 386 10382
 487 387 10383
 488 388 10384
 489 389 10385
 490 390 10386
 491 391 10387
 492 392 10388
 493 393 10389
 494 394 10390
 495 395 10391
 496 396 10392
 497 397 10393
 498 398 10394
 499 399 10395
 501 401 10396
 502 402 10397
 503 403 10398
 504 404 10399
 505 405 10400
 506 406 10401
 507 407 10402
 508 408 10403
 509 409 10404
 510 410 10405
 511 411 10406
 512 412 10407
 513 413 10408
 514 414 10409
 515 415 10410
 516 416 10411
 517 417 10412
 518 418 10413
 519 419 10414
 520 420 10415
 521 421 10416
 522 422 10417
 523 423 10418
 524 424 10419
 525 425 10420
 526 426 10421
 527 427 10422
 528 428 10423
 529 429 10424
 530 430 10425
 531 431 10426
 532 432 10427
 533 433 10428
 534 434 10429
 535 435 10430
 536 436 10431
 537 437 10432
 538 438 10433
 539 439 10434
 540 440 10435
 541 441 10436
 542 442 10437
 543 443 10438
 544 444 10439
 545 445 10440
 546 446 10441
 547 447 10442
 548 448 10443
 549 449 10444
 550 450 10445
 551 451 10446
 552 452 10447
 553 453 10448
 554 454 10449
 555 455 10450
 556 456 10451
 557 457 10452
 558 458 10453
 559 459 10454
 560 460 10455
 561 461 10456
 562 462 10457
 563 463 10458
 564 464 10459
 565 465 10460
 566 466 10461
 567 467 10462
 568 468 10463
 569 469 10464
 570 470 10465
 571 471 10466
 572 472 10467
 573 473 10468
 574 474 10469
 575 475 10470
 576 476 10471
 577 477 10472
 578 478 10473
 579 479 10474
 580 480 10475
 581 481 10476
 582 482 10477
 583 483 10478
 584 484 10479
 585 485 10480
 586 486 10481
 587 487 10482
 588 488 10483
 589 489 10484
 590 490 10485
 591 491 10486
 592 492 10487
 593 493 10488
 594 494 10489
 595 495 10490
 596 496 10491
 597 497 10492
 598 498 10493
 599 499 10494
 601 501 10495
 602 502 10496
 603 503 10497
 604 504 10498
 605 505 10499
 606 506 10500
 607 507 10501
 608 508 10502
 609 509 10503
 610 510 10504
 611 511 10505
 612 512 10506
 613 513 10507
 614 514 10508
 615 515 10509
 616 516 10510
 617 517 10511
 618 518 10512
 619 519 10513
 620 520 10514
 621 521 10515
 622 522 10516
 623 523 10517
 624 524 10518
 625 525 10519
 626 526 10520
 627 527 10521
 628 528 10522
 629 529 10523
 630 530 10524
 631 531 10525
 632 532 10526
 633 533 10527
 634 534 10528
 635 535 10529
 636 536 10530
 637 537 10531
 638 538 10532
 639 539 10533
 640 540 10534
 641 541 10535
 642 542 10536
 643 543 10537
 644 544 10538
 645 545 10539
 646 546 10540
 647 547 10541
 648 548 10542
 649 549 10543
 650 550 10544
 651 551 10545
 652 552 10546
 653 553 10547
 654 554 10548
 655 555 10549
 656 556 10550
 657 557 10551
 658 558 10552
 659 559 10553
 660 560 10554
 661 561 10555
 662 562 10556
 663 563 10557
 664 564 10558
 665 565 10559
 666 566 10560
 667 567 10561
 668 568 10562
 669 569 10563
 670 570 10564
 671 571 10565
 672 572 10566
 673 573 10567
 674 574 10568
 675 575 10569
 676 576 10570
 677 577 10571
 678 578 10572
 679 579 10573
 680 580 10574
 681 581 10575
 682 582 10576
 683 583 10577
 684 584 10578
 685 585 10579
 686 586 10580
 687 587 10581
 688 588 10582
 689 589 10583
 690 590 10584
 691 591 10585
 692 592 10586
 693 593 10587
 694 594 10588
 695 595 10589
 696 596 10590
 697 597 10591
 698 598 10592
 699 599 10593
 701 601 10594
 702 602 10595
 703 603 10596
 704 604 10597
 705 605 10598
 706 606 10599
 707 607 10600
 708 608 10601
 709 609 10602
 710 610 10603
 711 611 10604
 712 612 10605
 713 613 10606
 714 614 10607
 715 615 10608
 716 616 10609
 717 617 10610
 718 618 10611
 719 619 10612
 720 620 10613
 721 621 10614
 722 622 10615
 723 623 10616
 724 624 10617
 725 625 10618
 726 626 10619
 727 627 10620
 728 628 10621
 729 629 10622
 730 630 10623
 731 631 10624
 732 632 10625
 733 633 10626
 734 634 10627
 735 635 10628
 736 636 10629
 737 637 10630
 738 638 10631
 739 639 10632
 740 640 10633
 741 641 10634
 742 642 10635
 743 643 10636
 744 644 10637
 745 645 10638
 746 646 10639
 747 647 10640
 748 648 10641
 749 649 10642
 750 650 10643
 751 651 10644
 752 652 10645
 753 653 10646
 754 654 10647
 755 655 10648
 756 656 10649
 757 657 10650
 758 658 10651
 759 659 10652
 760 660 10653
 761 661 10654
 762 662 10655
 763 663 10656
 764 664 10657
 765 665 10658
 766 666 10659
 767 667 10660
 768 668 10661
 769 669 10662
 770 670 10663
 771 671 10664
 772 672 10665
 773 673 10666
 774 674 10667
 775 675 10668
 776 676 10669
 777 677 10670
 778 678 10671
 779 679 10672
 780 680 10673
 781 681 10674
 782 682 10675
 783 683 10676
 784 684 10677
 785 685 10678
 786 686 10679
 787 687 10680
 788 688 10681
 789 689 10682
 790 690 10683
 791 691 10684
 792 692 10685
 793 693 10686
 794 694 10687
 795 695 10688
 796 696 10689
 797 697 10690
 798 698 10691
 799 699 10692
 801 701 10693
 802 702 10694
 803 703 10695
 804 704 10696
 805 705 10697
 806 706 10698
 807 707 10699
 808 708 10700
 809 709 10701
 810 710 10702
 811 711 10703
 812 712 10704
 813 713 10705
 814 714 10706
 815 715 10707
 816 716 10708
 817 717 10709
 818 718 10710
 819 719 10711
 820 720 10712
 821 721 10713
 822 722 10714
 823 723 10715
 824 724 10716
 825 725 10717
 826 726 10718
 827 727 10719
 828 728 10720
 829 729 10721
 830 730 10722
 831 731 10723
 832 732 10724
 833 733 10725
 834 734 10726
 835 735 10727
 836 736 10728
 837 737 10729
 838 738 10730
 839 739 10731
 840 740 10732
 841 741 10733
 842 742 10734
 843 743 10735
 844 744 10736
 845 745 10737
 846 746 10738
 847 747 10739
 848 748 10740
 849 749 10741
 850 750 10742
 851 751 10743
 852 752 10744
 853 753 10745
 854 754 10746
 855 755 10747
 856 756 10748
 857 757 10749
 858 758 10750
 859 759 10751
 860 760 10752
 861 761 10753
 862 762 10754
 863 763 10755
 864 764 10756
 865 765 10757
 866 766 10758
 867 767 10759
 868 768 10760
 869 769 10761
 870 770 10762
 871 771 10763
 872 772 10764
 873 773 10765
 874 774 10766
 875 775 10767
 876 776 10768
 877 777 10769
 878 778 10770
 879 779 10771
 880 780 10772
 881 781 10773
 882 782 10774
 883 783 10775
 884 784 10776
 885 785 10777
 886 786 10778
 887 787 10779
 888 788 10780
 889 789 10781
 890 790 10782
 891 791 10783
 892 792 10784
 893 793 10785
 894 794 10786
 895 795 10787
 896 796 10788
 897 797 10789
 898 798 10790
 899 799 10791
 901 801 10792
 902 802 10793
 903 803 10794
 904 804 10795
 905 805 10796
 906 806 10797
 907 807 10798
 908 808 10799
 909 809 10800
 910 810 10801
 911 811 10802
 912 812 10803
 913 813 10804
 914 814 10805
 915 815 10806
 916 816 10807
 917 817 10808
 918 818 10809
 919 819 10810
 920 820 10811
 921 821 10812
 922 822 10813
 923 823 10814
 924 824 10815
 925 825 10816
 926 826 10817
 927 827 10818
 928 828 10819
 929 829 10820
 930 830 10821
 931 831 10822
 932 832 10823
 933 833 10824
 934 834 10825
 935 835 10826
 936 836 10827
 937 837 10828
 938 838 10829
 939 839 10830
 940 840 10831
 941 841 10832
 942 842 10833
 943 843 10834
 944 844 10835
 945 845 10836
 946 846 10837
 947 847 10838
 948 848 10839
 949 849 10840
 950 850 10841
 951 851 10842
 952 852 10843
 953 853 10844
 954 854 10845
 955 855 10846
 956 856 10847
 957 857 10848
 958 858 10849
 959 859 10850
 960 860 10851
 961 861 10852
 962 862 10853
 963 863 10854
 964 864 10855
 965 865 10856
 966 866 10857
 967 867 10858
 968 868 10859
 969 869 10860
 970 870 10861
 971 871 10862
 972 872 10863
 973 873 10864
 974 874 10865
 975 875 10866
 976 876 10867
 977 877 10868
 978 878 10869
 979 879 10870
 980 880 10871
 981 881 10872
 982 882 10873
 983 883 10874
 984 884 10875
 985 885 10876
 986 886 10877
 987 887 10878
 988 888 10879
 989 889 10880
 990 890 10881
 991 891 10882
 992 892 10883
 993 893 10884
 994 894 10885
 995 895 10886
 996 896 10887
 997 897 10888
 998 898 10889
 999 899 10890
 1001 901 10891
 1002 902 10892
 1003 903 10893
 1004 904 10894
 1005 905 10895
 1006 906 10896
 1007 907 10897
 1008 908 10898
 1009 909 10899
 1010 910 10900
 1011 911 10901
 1012 912 10902
 1013 913 10903
 1014 914 10904
 1015 915 10905
 1016 916 10906
 1017 917 10907
 1018 918 10908
 1019 919 10909
 1020 920 10910
 1021 921 10911
 1022 922 10912
 1023 923 10913
 1024 924 10914
 1025 925 10915
 1026 926 10916
 1027 927 10917
 1028 928 10918
 1029 929 10919
 1030 930 10920
 1031 931 10921
 1032 932 10922
 1033 933 10923
 1034 934 10924
 1035 935 10925
 1036 936 10926
 1037 937 10927
 1038 938 10928
 1039 939 10929
 1040 940 10930
 1041 941 10931
 1042 942 10932
 1043 943 10933
 1044 944 10934
 1045 945 10935
 1046 946 10936
 1047 947 10937
 1048 948 10938
 1049 949 10939
 1050 950 10940
 1051 951 10941
 1052 952 10942
 1053 953 10943
 1054 954 10944
 1055 955 10945
 1056 956 10946
 1057 957 10947
 1058 958 10948
 1059 959 10949
 1060 960 10950
 1061 961 10951
 1062 962 10952
 1063 963 10953
 1064 964 10954
 1065 965 10955
 1066 966 10956
 1067 967 10957
 1068 968 10958
 1069 969 10959
 1070 970 10960
 1071 971 10961
 1072 972 10962
 1073 973 10963
 1074 974 10964
 1075 975 10965
 1076 976 10966
 1077 977 10967
 1078 978 10968
 1079 979 10969
 1080 980 10970
 1081 981 10971
 1082 982 10972
 1083 983 10973
 1084 984 10974
 1085 985 10975
 1086 986 10976
 1087 987 10977
 1088 988 10978
 1089 989 10979
 1090 990 10980
 1091 991 10981
 1092 992 10982
 1093 993 10983
 1094 994 10984
 1095 995 10985
 1096 996 10986
 1097 997 10987
 1098 998 10988
 1099 999 10989
 1101 1001 10990
 1102 1002 10991
 1103 1003 10992
 1104 1004 10993
 1105 1005 10994
 1106 1006 10995
 1107 1007 10996
 1108 1008 10997
 1109 1009 10998
 1110 1010 10999
 1111 1011 11000
 1112 1012 11001
 1113 1013 11002
 1114 1014 11003
 1115 1015 11004
 1116 1016 11005
 1117 1017 11006
 1118 1018 11007
 1119 1019 11008
 1120 1020 11009
 1121 1021 11010
 1122 1022 11011
 1123 1023 11012
 1124 1024 11013
 1125 1025 11014
 1126 1026 11015
 1127 1027 11016
 1128 1028 11017
 1129 1029 11018
 1130 1030 11019
 1131 1031 11020
 1132 1032 11021
 1133 1033 11022
 1134 1034 11023
 1135 1035 11024
 1136 1036 11025
 1137 1037 11026
 1138 1038 11027
 1139 1039 11028
 1140 1040 11029
 1141 1041 11030
 1142 1042 11031
 1143 1043 11032
 1144 1044 11033
 1145 1045 11034
 1146 1046 11035
 1147 1047 11036
 1148 1048 11037
 1149 1049 11038
 1150 1050 11039
 1151 1051 11040
 1152 1052 11041
 1153 1053 11042
 1154 1054 11043
 1155 1055 11044
 1156 1056 11045
 1157 1057 11046
 1158 1058 11047
 1159 1059 11048
 1160 1060 11049
 1161 1061 11050
 1162 1062 11051
 1163 1063 11052
 1164 1064 11053
 1165 1065 11054
 1166 1066 11055
 1167 1067 11056
 1168 1068 11057
 1169 1069 11058
 1170 1070 11059
 1171 1071 11060
 1172 1072 11061
 1173 1073 11062
 1174 1074 11063
 1175 1075 11064
 1176 1076 11065
 1177 1077 11066
 1178 1078 11067
 1179 1079 11068
 1180 1080 11069
 1181 1081 11070
 1182 1082 11071
 1183 1083 11072
 1184 1084 11073
 1185 1085 11074
 1186 1086 11075
 1187 1087 11076
 1188 1088 11077
 1189 1089 11078
 1190 1090 11079
 1191 1091 11080
 1192 1092 11081
 1193 1093 11082
 1194 1094 11083
 1195 1095 11084
 1196 1096 11085
 1197 1097 11086
 1198 1098 11087
 1199 1099 11088
 1201 1101 11089
 1202 1102 11090
 1203 1103 11091
 1204 1104 11092
 1205 1105 11093
 1206 1106 11094
 1207 1107 11095
 1208 1108 11096
 1209 1109 11097
 1210 1110 11098
 1211 1111 11099
 1212 1112 11100
 1213 1113 11101
 1214 1114 11102
 1215 1115 11103
 1216 1116 11104
 1217 1117 11105
 1218 1118 11106
 1219 1119 11107
 1220 1120 11108
 1221 1121 11109
 1222 1122 11110
 1223 1123 11111
 1224 1124 11112
 1225 1125 11113
 1226 1126 11114
 1227 1127 11115
 1228 1128 11116
 1229 1129 11117
 1230 1130 11118
 1231 1131 11119
 1232 1132 11120
 1233 1133 11121
 1234 1134 11122
 1235 1135 11123
 1236 1136 11124
 1237 1137 11125
 1238 1138 11126
 1239 1139 11127
 1240 1140 11128
 1241 1141 11129
 1242 1142 11130
 1243 1143 11131
 1244 1144 11132
 1245 1145 11133
 1246 1146 11134
 1247 1147 11135
 1248 1148 11136
 1249 1149 11137
 1250 1150 11138
 1251 1151 11139
 1252 1152 11140
 1253 1153 11141
 1254 1154 11142
 1255 1155 11143
 1256 1156 11144
 1257 1157 11145
 1258 1158 11146
 1259 1159 11147
 1260 1160 11148
 1261 1161 11149
 1262 1162 11150
 1263 1163 11151
 1264 1164 11152
 1265 1165 11153
 1266 1166 11154
 1267 1167 11155
 1268 1168 11156
 1269 1169 11157
 1270 1170 11158
 1271 1171 11159
 1272 1172 11160
 1273 1173 11161
 1274 1174 11162
 1275 1175 11163
 1276 1176 11164
 1277 1177 11165
 1278 1178 11166
 1279 1179 11167
 1280 1180 11168
 1281 1181 11169
 1282 1182 11170
 1283 1183 11171
 1284 1184 11172
 1285 1185 11173
 1286 1186 11174
 1287 1187 11175
 1288 1188 11176
 1289 1189 11177
 1290 1190 11178
 1291 1191 11179
 1292 1192 11180
 1293 1193 11181
 1294 1194 11182
 1295 1195 11183
 1296 1196 11184
 1297 1197 11185
 1298 1198 11186
 1299 1199 11187
 1301 1201 11188
 1302 1202 11189
 1303 1203 11190
 1304 1204 11191
 1305 1205 11192
 1306 1206 11193
 1307 1207 11194
 1308 1208 11195
 1309 1209 11196
 1310 1210 11197
 1311 1211 11198
 1312 1212 11199
 1313 1213 11200
 1314 1214 11201
 1315 1215 11202
 1316 1216 11203
 1317 1217 11204
 1318 1218 11205
 1319 1219 11206
 1320 1220 11207
 1321 1221 11208
 1322 1222 11209
 1323 1223 11210
 1324 1224 11211
 1325 1225 11212
 1326 1226 11213
 1327 1227 11214
 1328 1228 11215
 1329 1229 11216
 1330 1230 11217
 1331 1231 11218
 1332 1232 11219
 1333 1233 11220
 1334 1234 11221
 1335 1235 11222
 1336 1236 11223
 1337 1237 11224
 1338 1238 11225
 1339 1239 11226
 1340 1240 11227
 1341 1241 11228
 1342 1242 11229
 1343 1243 11230
 1344 1244 11231
 1345 1245 11232
 1346 1246 11233
 1347 1247 11234
 1348 1248 11235
 1349 1249 11236
 1350 1250 11237
 1351 1251 11238
 1352 1252 11239
 1353 1253 11240
 1354 1254 11241
 1355 1255 11242
 1356 1256 11243
 1357 1257 11244
 1358 1258 11245
 1359 1259 11246
 1360 1260 11247
 1361 1261 11248
 1362 1262 11249
 1363 1263 11250
 1364 1264 11251
 1365 1265 11252
 1366 1266 11253
 1367 1267 11254
 1368 1268 11255
 1369 1269 11256
 1370 1270 11257
 1371 1271 11258
 1372 1272 11259
 1373 1273 11260
 1374 1274 11261
 1375 1275 11262
 1376 1276 11263
 1377 1277 11264
 1378 1278 11265
 1379 1279 11266
 1380 1280 11267
 1381 1281 11268
 1382 1282 11269
 1383 1283 11270
 1384 1284 11271
 1385 1285 11272
 1386 1286 11273
 1387 1287 11274
 1388 1288 11275
 1389 1289 11276
 1390 1290 11277
 1391 1291 11278
 1392 1292 11279
 1393 1293 11280
 1394 1294 11281
 1395 1295 11282
 1396 1296 11283
 1397 1297 11284
 1398 1298 11285
 1399 1299 11286
 1401 1301 11287
 1402 1302 11288
 1403 1303 11289
 1404 1304 11290
 1405 1305 11291
 1406 1306 11292
 1407 1307 11293
 1408 1308 11294
 1409 1309 11295
 1410 1310 11296
 1411 1311 11297
 1412 1312 11298
 1413 1313 11299
 1414 1314 11300
 1415 1315 11301
 1416 1316 11302
 1417 1317 11303
 1418 1318 11304
 1419 1319 11305
 1420 1320 11306
 1421 1321 11307
 1422 1322 11308
 1423 1323 11309
 1424 1324 11310
 1425 1325 11311
 1426 1326 11312
 1427 1327 11313
 1428 1328 11314
 1429 1329 11315
 1430 1330 11316
 1431 1331 11317
 1432 1332 11318
 1433 1333 11319
 1434 1334 11320
 1435 1335 11321
 1436 1336 11322
 1437 1337 11323
 1438 1338 11324
 1439 1339 11325
 1440 1340 11326
 1441 1341 11327
 1442 1342 11328
 1443 1343 11329
 1444 1344 11330
 1445 1345 11331
 1446 1346 11332
 1447 1347 11333
 1448 1348 11334
 1449 1349 11335
 1450 1350 11336
 1451 1351 11337
 1452 1352 11338
 1453 1353 11339
 1454 1354 11340
 1455 1355 11341
 1456 1356 11342
 1457 1357 11343
 1458 1358 11344
 1459 1359 11345
 1460 1360 11346
 1461 1361 11347
 1462 1362 11348
 1463 1363 11349
 1464 1364 11350
 1465 1365 11351
 1466 1366 11352
 1467 1367 11353
 1468 1368 11354
 1469 1369 11355
 1470 1370 11356
 1471 1371 11357
 1472 1372 11358
 1473 1373 11359
 1474 1374 11360
 1475 1375 11361
 1476 1376 11362
 1477 1377 11363
 1478 1378 11364
 1479 1379 11365
 1480 1380 11366
 1481 1381 11367
 1482 1382 11368
 1483 1383 11369
 1484 1384 11370
 1485 1385 11371
 1486 1386 11372
 1487 1387 11373
 1488 1388 11374
 1489 1389 11375
 1490 1390 11376
 1491 1391 11377
 1492 1392 11378
 1493 1393 11379
 1494 1394 11380
 1495 1395 11381
 1496 1396 11382
 1497 1397 11383
 1498 1398 11384
 1499 1399 11385
 1501 1401 11386
 1502 1402 11387
 1503 1403 11388
 1504 1404 11389
 1505 1405 11390
 1506 1406 11391
 1507 1407 11392
 1508 1408 11393
 1509 1409 11394
 1510 1410 11395
 1511 1411 11396
 1512 1412 11397
 1513 1413 11398
 1514 1414 11399
 1515 1415 11400
 1516 1416 11401
 1517 1417 11402
 1518 1418 11403
 1519 1419 11404
 1520 1420 11405
 1521 1421 11406
 1522 1422 11407
 1523 1423 11408
 1524 1424 11409
 1525 1425 11410
 1526 1426 11411
 1527 1427 11412
 1528 1428 11413
 1529 1429 11414
 1530 1430 11415
 1531 1431 11416
 1532 1432 11417
 1533 1433 11418
 1534 1434 11419
 1535 1435 11420
 1536 1436 11421
 1537 1437 11422
 1538 1438 11423
 1539 1439 11424
 1540 1440 11425
 1541 1441 11426
 1542 1442 11427
 1543 1443 11428
 1544 1444 11429
 1545 1445 11430
 1546 1446 11431
 1547 1447 11432
 1548 1448 11433
 1549 1449 11434
 1550 1450 11435
 1551 1451 11436
 1552 1452 11437
 1553 1453 11438
 1554 1454 11439
 1555 1455 11440
 1556 1456 11441
 1557 1457 11442
 1558 1458 11443
 1559 1459 11444
 1560 1460 11445
 1561 1461 11446
 1562 1462 11447
 1563 1463 11448
 1564 1464 11449
 1565 1465 11450
 1566 1466 11451
 1567 1467 11452
 1568 1468 11453
 1569 1469 11454
 1570 1470 11455
 1571 1471 11456
 1572 1472 11457
 1573 1473 11458
 1574 1474 11459
 1575 1475 11460
 1576 1476 11461
 1577 1477 11462
 1578 1478 11463
 1579 1479 11464
 1580 1480 11465
 1581 1481 11466
 1582 1482 11467
 1583 1483 11468
 1584 1484 11469
 1585 1485 11470
 1586 1486 11471
 1587 1487 11472
 1588 1488 11473
 1589 1489 11474
 1590 1490 11475
 1591 1491 11476
 1592 1492 11477
 1593 1493 11478
 1594 1494 11479
 1595 1495 11480
 1596 1496 11481
 1597 1497 11482
 1598 1498 11483
 1599 1499 11484
 1601 1501 11485
 1602 1502 11486
 1603 1503 11487
 1604 1504 11488
 1605 1505 11489
 1606 1506 11490
 1607 1507 11491
 1608 1508 11492
 1609 1509 11493
 1610 1510 11494
 1611 1511 11495
 1612 1512 11496
 1613 1513 11497
 1614 1514 11498
 1615 1515 11499
 1616 1516 11500
 1617 1517 11501
 1618 1518 11502
 1619 1519 11503
 1620 1520 11504
 1621 1521 11505
 1622 1522 11506
 1623 1523 11507
 1624 1524 11508
 1625 1525 11509
 1626 1526 11510
 1627 1527 11511
 1628 1528 11512
 1629 1529 11513
 1630 1530 11514
 1631 1531 11515
 1632 1532 11516
 1633 1533 11517
 1634 1534 11518
 1635 1535 11519
 1636 1536 11520
 1637 1537 11521
 1638 1538 11522
 1639 1539 11523
 1640 1540 11524
 1641 1541 11525
 1642 1542 11526
 1643 1543 11527
 1644 1544 11528
 1645 1545 11529
 1646 1546 11530
 1647 1547 11531
 1648 1548 11532
 1649 1549 11533
 1650 1550 11534
 1651 1551 11535
 1652 1552 11536
 1653 1553 11537
 1654 1554 11538
 1655 1555 11539
 1656 1556 11540
 1657 1557 11541
 1658 1558 11542
 1659 1559 11543
 1660 1560 11544
 1661 1561 11545
 1662 1562 11546
 1663 1563 11547
 1664 1564 11548
 1665 1565 11549
 1666 1566 11550
 1667 1567 11551
 1668 1568 11552
 1669 1569 11553
 1670 1570 11554
 1671 1571 11555
 1672 1572 11556
 1673 1573 11557
 1674 1574 11558
 1675 1575 11559
 1676 1576 11560
 1677 1577 11561
 1678 1578 11562
 1679 1579 11563
 1680 1580 11564
 1681 1581 11565
 1682 1582 11566
 1683 1583 11567
 1684 1584 11568
 1685 1585 11569
 1686 1586 11570
 1687 1587 11571
 1688 1588 11572
 1689 1589 11573
 1690 1590 11574
 1691 1591 11575
 1692 1592 11576
 1693 1593 11577
 1694 1594 11578
 1695 1595 11579
 1696 1596 11580
 1697 1597 11581
 1698 1598 11582
 1699 1599 11583
 1701 1601 11584
 1702 1602 11585
 1703 1603 11586
 1704 1604 11587
 1705 1605 11588
 1706 1606 11589
 1707 1607 11590
 1708 1608 11591
 1709 1609 11592
 1710 1610 11593
 1711 1611 11594
 1712 1612 11595
 1713 1613 11596
 1714 1614 11597
 1715 1615 11598
 1716 1616 11599
 1717 1617 11600
 1718 1618 11601
 1719 1619 11602
 1720 1620 11603
 1721 1621 11604
 1722 1622 11605
 1723 1623 11606
 1724 1624 11607
 1725 1625 11608
 1726 1626 11609
 1727 1627 11610
 1728 1628 11611
 1729 1629 11612
 1730 1630 11613
 1731 1631 11614
 1732 1632 11615
 1733 1633 11616
 1734 1634 11617
 1735 1635 11618
 1736 1636 11619
 1737 1637 11620
 1738 1638 11621
 1739 1639 11622
 1740 1640 11623
 1741 1641 11624
 1742 1642 11625
 1743 1643 11626
 1744 1644 11627
 1745 1645 11628
 1746 1646 11629
 1747 1647 11630
 1748 1648 11631
 1749 1649 11632
 1750 1650 11633
 1751 1651 11634
 1752 1652 11635
 1753 1653 11636
 1754 1654 11637
 1755 1655 11638
 1756 1656 11639
 1757 1657 11640
 1758 1658 11641
 1759 1659 11642
 1760 1660 11643
 1761 1661 11644
 1762 1662 11645
 1763 1663 11646
 1764 1664 11647
 1765 1665 11648
 1766 1666 11649
 1767 1667 11650
 1768 1668 11651
 1769 1669 11652
 1770 1670 11653
 1771 1671 11654
 1772 1672 11655
 1773 1673 11656
 1774 1674 11657
 1775 1675 11658
 1776 1676 11659
 1777 1677 11660
 1778 1678 11661
 1779 1679 11662
 1780 1680 11663
 1781 1681 11664
 1782 1682 11665
 1783 1683 11666
 1784 1684 11667
 1785 1685 11668
 1786 1686 11669
 1787 1687 11670
 1788 1688 11671
 1789 1689 11672
 1790 1690 11673
 1791 1691 11674
 1792 1692 11675
 1793 1693 11676
 1794 1694 11677
 1795 1695 11678
 1796 1696 11679
 1797 1697 11680
 1798 1698 11681
 1799 1699 11682
 1801 1701 11683
 1802 1702 11684
 1803 1703 11685
 1804 1704 11686
 1805 1705 11687
 1806 1706 11688
 1807 1707 11689
 1808 1708 11690
 1809 1709 11691
 1810 1710 11692
 1811 1711 11693
 1812 1712 11694
 1813 1713 11695
 1814 1714 11696
 1815 1715 11697
 1816 1716 11698
 1817 1717 11699
 1818 1718 11700
 1819 1719 11701
 1820 1720 11702
 1821 1721 11703
 1822 1722 11704
 1823 1723 11705
 1824 1724 11706
 1825 1725 11707
 1826 1726 11708
 1827 1727 11709
 1828 1728 11710
 1829 1729 11711
 1830 1730 11712
 1831 1731 11713
 1832 1732 11714
 1833 1733 11715
 1834 1734 11716
 1835 1735 11717
 1836 1736 11718
 1837 1737 11719
 1838 1738 11720
 1839 1739 11721
 1840 1740 11722
 1841 1741 11723
 1842 1742 11724
 1843 1743 11725
 1844 1744 11726
 1845 1745 11727
 1846 1746 11728
 1847 1747 11729
 1848 1748 11730
 1849 1749 11731
 1850 1750 11732
 1851 1751 11733
 1852 1752 11734
 1853 1753 11735
 1854 1754 11736
 1855 1755 11737
 1856 1756 11738
 1857 1757 11739
 1858 1758 11740
 1859 1759 11741
 1860 1760 11742
 1861 1761 11743
 1862 1762 11744
 1863 1763 11745
 1864 1764 11746
 1865 1765 11747
 1866 1766 11748
 1867 1767 11749
 1868 1768 11750
 1869 1769 11751
 1870 1770 11752
 1871 1771 11753
 1872 1772 11754
 1873 1773 11755
 1874 1774 11756
 1875 1775 11757
 1876 1776 11758
 1877 1777 11759
 1878 1778 11760
 1879 1779 11761
 1880 1780 11762
 1881 1781 11763
 1882 1782 11764
 1883 1783 11765
 1884 1784 11766
 1885 1785 11767
 1886 1786 11768
 1887 1787 11769
 1888 1788 11770
 1889 1789 11771
 1890 1790 11772
 1891 1791 11773
 1892 1792 11774
 1893 1793 11775
 1894 1794 11776
 1895 1795 11777
 1896 1796 11778
 1897 1797 11779
 1898 1798 11780
 1899 1799 11781
 1901 1801 11782
 1902 1802 11783
 1903 1803 11784
 1904 1804 11785
 1905 1805 11786
 1906 1806 11787
 1907 1807 11788
 1908 1808 11789
 1909 1809 11790
 1910 1810 11791
 1911 1811 11792
 1912 1812 11793
 1913 1813 11794
 1914 1814 11795
 1915 1815 11796
 1916 1816 11797
 1917 1817 11798
 1918 1818 11799
 1919 1819 11800
 1920 1820 11801
 1921 1821 11802
 1922 1822 11803
 1923 1823 11804
 1924 1824 11805
 1925 1825 11806
 1926 1826 11807
 1927 1827 11808
 1928 1828 11809
 1929 1829 11810
 1930 1830 11811
 1931 1831 11812
 1932 1832 11813
 1933 1833 11814
 1934 1834 11815
 1935 1835 11816
 1936 1836 11817
 1937 1837 11818
 1938 1838 11819
 1939 1839 11820
 1940 1840 11821
 1941 1841 11822
 1942 1842 11823
 1943 1843 11824
 1944 1844 11825
 1945 1845 11826
 1946 1846 11827
 1947 1847 11828
 1948 1848 11829
 1949 1849 11830
 1950 1850 11831
 1951 1851 11832
 1952 1852 11833
 1953 1853 11834
 1954 1854 11835
 1955 1855 11836
 1956 1856 11837
 1957 1857 11838
 1958 1858 11839
 1959 1859 11840
 1960 1860 11841
 1961 1861 11842
 1962 1862 11843
 1963 1863 11844
 1964 1864 11845
 1965 1865 11846
 1966 1866 11847
 1967 1867 11848
 1968 1868 11849
 1969 1869 11850
 1970 1870 11851
 1971 1871 11852
 1972 1872 11853
 1973 1873 11854
 1974 1874 11855
 1975 1875 11856
 1976 1876 11857
 1977 1877 11858
 1978 1878 11859
 1979 1879 11860
 1980 1880 11861
 1981 1881 11862
 1982 1882 11863
 1983 1883 11864
 1984 1884 11865
 1985 1885 11866
 1986 1886 11867
 1987 1887 11868
 1988 1888 11869
 1989 1889 11870
 1990 1890 11871
 1991 1891 11872
 1992 1892 11873
 1993 1893 11874
 1994 1894 11875
 1995 1895 11876
 1996 1896 11877
 1997 1897 11878
 1998 1898 11879
 1999 1899 11880
 2001 1901 11881
 2002 1902 11882
 2003 1903 11883
 2004 1904 11884
 2005 1905 11885
 2006 1906 11886
 2007 1907 11887
 2008 1908 11888
 2009 1909 11889
 2010 1910 11890
 2011 1911 11891
 2012 1912 11892
 2013 1913 11893
 2014 1914 11894
 2015 1915 11895
 2016 1916 11896
 2017 1917 11897
 2018 1918 11898
 2019 1919 11899
 2020 1920 11900
 2021 1921 11901
 2022 1922 11902
 2023 1923 11903
 2024 1924 11904
 2025 1925 11905
 2026 1926 11906
 2027 1927 11907
 2028 1928 11908
 2029 1929 11909
 2030 1930 11910
 2031 1931 11911
 2032 1932 11912
 2033 1933 11913
 2034 1934 11914
 2035 1935 11915
 2036 1936 11916
 2037 1937 11917
 2038 1938 11918
 2039 1939 11919
 2040 1940 11920
 2041 1941 11921
 2042 1942 11922
 2043 1943 11923
 2044 1944 11924
 2045 1945 11925
 2046 1946 11926
 2047 1947 11927
 2048 1948 11928
 2049 1949 11929
 2050 1950 11930
 2051 1951 11931
 2052 1952 11932
 2053 1953 11933
 2054 1954 11934
 2055 1955 11935
 2056 1956 11936
 2057 1957 11937
 2058 1958 11938
 2059 1959 11939
 2060 1960 11940
 2061 1961 11941
 2062 1962 11942
 2063 1963 11943
 2064 1964 11944
 2065 1965 11945
 2066 1966 11946
 2067 1967 11947
 2068 1968 11948
 2069 1969 11949
 2070 1970 11950
 2071 1971 11951
 2072 1972 11952
 2073 1973 11953
 2074 1974 11954
 2075 1975 11955
 2076 1976 11956
 2077 1977 11957
 2078 1978 11958
 2079 1979 11959
 2080 1980 11960
 2081 1981 11961
 2082 1982 11962
 2083 1983 11963
 2084 1984 11964
 2085 1985 11965
 2086 1986 11966
 2087 1987 11967
 2088 1988 11968
 2089 1989 11969
 2090 1990 11970
 2091 1991 11971
 2092 1992 11972
 2093 1993 11973
 2094 1994 11974
 2095 1995 11975
 2096 1996 11976
 2097 1997 11977
 2098 1998 11978
 2099 1999 11979
 2101 2001 11980
 2102 2002 11981
 2103 2003 11982
 2104 2004 11983
 2105 2005 11984
 2106 2006 11985
 2107 2007 11986
 2108 2008 11987
 2109 2009 11988
 2110 2010 11989
 2111 2011 11990
 2112 2012 11991
 2113 2013 11992
 2114 2014 11993
 2115 2015 11994
 2116 2016 11995
 2117 2017 11996
 2118 2018 11997
 2119 2019 11998
 2120 2020 11999
 2121 2021 12000
 2122 2022 12001
 2123 2023 12002
 2124 2024 12003
 2125 2025 12004
 2126 2026 12005
 2127 2027 12006
 2128 2028 12007
 2129 2029 12008
 2130 2030 12009
 2131 2031 12010
 2132 2032 12011
 2133 2033 12012
 2134 2034 12013
 2135 2035 12014
 2136 2036 12015
 2137 2037 12016
 2138 2038 12017
 2139 2039 12018
 2140 2040 12019
 2141 2041 12020
 2142 2042 12021
 2143 2043 12022
 2144 2044 12023
 2145 2045 12024
 2146 2046 12025
 2147 2047 12026
 2148 2048 12027
 2149 2049 12028
 2150 2050 12029
 2151 2051 12030
 2152 2052 12031
 2153 2053 12032
 2154 2054 12033
 2155 2055 12034
 2156 2056 12035
 2157 2057 12036
 2158 2058 12037
 2159 2059 12038
 2160 2060 12039
 2161 2061 12040
 2162 2062 12041
 2163 2063 12042
 2164 2064 12043
 2165 2065 12044
 2166 2066 12045
 2167 2067 12046
 2168 2068 12047
 2169 2069 12048
 2170 2070 12049
 2171 2071 12050
 2172 2072 12051
 2173 2073 12052
 2174 2074 12053
 2175 2075 12054
 2176 2076 12055
 2177 2077 12056
 2178 2078 12057
 2179 2079 12058
 2180 2080 12059
 2181 2081 12060
 2182 2082 12061
 2183 2083 12062
 2184 2084 12063
 2185 2085 12064
 2186 2086 12065
 2187 2087 12066
 2188 2088 12067
 2189 2089 12068
 2190 2090 12069
 2191 2091 12070
 2192 2092 12071
 2193 2093 12072
 2194 2094 12073
 2195 2095 12074
 2196 2096 12075
 2197 2097 12076
 2198 2098 12077
 2199 2099 12078
 2201 2101 12079
 2202 2102 12080
 2203 2103 12081
 2204 2104 12082
 2205 2105 12083
 2206 2106 12084
 2207 2107 12085
 2208 2108 12086
 2209 2109 12087
 2210 2110 12088
 2211 2111 12089
 2212 2112 12090
 2213 2113 12091
 2214 2114 12092
 2215 2115 12093
 2216 2116 12094
 2217 2117 12095
 2218 2118 12096
 2219 2119 12097
 2220 2120 12098
 2221 2121 12099
 2222 2122 12100
 2223 2123 12101
 2224 2124 12102
 2225 2125 12103
 2226 2126 12104
 2227 2127 12105
 2228 2128 12106
 2229 2129 12107
 2230 2130 12108
 2231 2131 12109
 2232 2132 12110
 2233 2133 12111
 2234 2134 12112
 2235 2135 12113
 2236 2136 12114
 2237 2137 12115
 2238 2138 12116
 2239 2139 12117
 2240 2140 12118
 2241 2141 12119
 2242 2142 12120
 2243 2143 12121
 2244 2144 12122
 2245 2145 12123
 2246 2146 12124
 2247 2147 12125
 2248 2148 12126
 2249 2149 12127
 2250 2150 12128
 2251 2151 12129
 2252 2152 12130
 2253 2153 12131
 2254 2154 12132
 2255 2155 12133
 2256 2156 12134
 2257 2157 12135
 2258 2158 12136
 2259 2159 12137
 2260 2160 12138
 2261 2161 12139
 2262 2162 12140
 2263 2163 12141
 2264 2164 12142
 2265 2165 12143
 2266 2166 12144
 2267 2167 12145
 2268 2168 12146
 2269 2169 12147
 2270 2170 12148
 2271 2171 12149
 2272 2172 12150
 2273 2173 12151
 2274 2174 12152
 2275 2175 12153
 2276 2176 12154
 2277 2177 12155
 2278 2178 12156
 2279 2179 12157
 2280 2180 12158
 2281 2181 12159
 2282 2182 12160
 2283 2183 12161
 2284 2184 12162
 2285 2185 12163
 2286 2186 12164
 2287 2187 12165
 2288 2188 12166
 2289 2189 12167
 2290 2190 12168
 2291 2191 12169
 2292 2192 12170
 2293 2193 12171
 2294 2194 12172
 2295 2195 12173
 2296 2196 12174
 2297 2197 12175
 2298 2198 12176
 2299 2199 12177
 2301 2201 12178
 2302 2202 12179
 2303 2203 12180
 2304 2204 12181
 2305 2205 12182
 2306 2206 12183
 2307 2207 12184
 2308 2208 12185
 2309 2209 12186
 2310 2210 12187
 2311 2211 12188
 2312 2212 12189
 2313 2213 12190
 2314 2214 12191
 2315 2215 12192
 2316 2216 12193
 2317 2217 12194
 2318 2218 12195
 2319 2219 12196
 2320 2220 12197
 2321 2221 12198
 2322 2222 12199
 2323 2223 12200
 2324 2224 12201
 2325 2225 12202
 2326 2226 12203
 2327 2227 12204
 2328 2228 12205
 2329 2229 12206
 2330 2230 12207
 2331 2231 12208
 2332 2232 12209
 2333 2233 12210
 2334 2234 12211
 2335 2235 12212
 2336 2236 12213
 2337 2237 12214
 2338 2238 12215
 2339 2239 12216
 2340 2240 12217
 2341 2241 12218
 2342 2242 12219
 2343 2243 12220
 2344 2244 12221
 2345 2245 12222
 2346 2246 12223
 2347 2247 12224
 2348 2248 12225
 2349 2249 12226
 2350 2250 12227
 2351 2251 12228
 2352 2252 12229
 2353 2253 12230
 2354 2254 12231
 2355 2255 12232
 2356 2256 12233
 2357 2257 12234
 2358 2258 12235
 2359 2259 12236
 2360 2260 12237
 2361 2261 12238
 2362 2262 12239
 2363 2263 12240
 2364 2264 12241
 2365 2265 12242
 2366 2266 12243
 2367 2267 12244
 2368 2268 12245
 2369 2269 12246
 2370 2270 12247
 2371 2271 12248
 2372 2272 12249
 2373 2273 12250
 2374 2274 12251
 2375 2275 12252
 2376 2276 12253
 2377 2277 12254
 2378 2278 12255
 2379 2279 12256
 2380 2280 12257
 2381 2281 12258
 2382 2282 12259
 2383 2283 12260
 2384 2284 12261
 2385 2285 12262
 2386 2286 12263
 2387 2287 12264
 2388 2288 12265
 2389 2289 12266
 2390 2290 12267
 2391 2291 12268
 2392 2292 12269
 2393 2293 12270
 2394 2294 12271
 2395 2295 12272
 2396 2296 12273
 2397 2297 12274
 2398 2298 12275
 2399 2299 12276
 2401 2301 12277
 2402 2302 12278
 2403 2303 12279
 2404 2304 12280
 2405 2305 12281
 2406 2306 12282
 2407 2307 12283
 2408 2308 12284
 2409 2309 12285
 2410 2310 12286
 2411 2311 12287
 2412 2312 12288
 2413 2313 12289
 2414 2314 12290
 2415 2315 12291
 2416 2316 12292
 2417 2317 12293
 2418 2318 12294
 2419 2319 12295
 2420 2320 12296
 2421 2321 12297
 2422 2322 12298
 2423 2323 12299
 2424 2324 12300
 2425 2325 12301
 2426 2326 12302
 2427 2327 12303
 2428 2328 12304
 2429 2329 12305
 2430 2330 12306
 2431 2331 12307
 2432 2332 12308
 2433 2333 12309
 2434 2334 12310
 2435 2335 12311
 2436 2336 12312
 2437 2337 12313
 2438 2338 12314
 2439 2339 12315
 2440 2340 12316
 2441 2341 12317
 2442 2342 12318
 2443 2343 12319
 2444 2344 12320
 2445 2345 12321
 2446 2346 12322
 2447 2347 12323
 2448 2348 12324
 2449 2349 12325
 2450 2350 12326
 2451 2351 12327
 2452 2352 12328
 2453 2353 12329
 2454 2354 12330
 2455 2355 12331
 2456 2356 12332
 2457 2357 12333
 2458 2358 12334
 2459 2359 12335
 2460 2360 12336
 2461 2361 12337
 2462 2362 12338
 2463 2363 12339
 2464 2364 12340
 2465 2365 12341
 2466 2366 12342
 2467 2367 12343
 2468 2368 12344
 2469 2369 12345
 2470 2370 12346
 2471 2371 12347
 2472 2372 12348
 2473 2373 12349
 2474 2374 12350
 2475 2375 12351
 2476 2376 12352
 2477 2377 12353
 2478 2378 12354
 2479 2379 12355
 2480 2380 12356
 2481 2381 12357
 2482 2382 12358
 2483 2383 12359
 2484 2384 12360
 2485 2385 12361
 2486 2386 12362
 2487 2387 12363
 2488 2388 12364
 2489 2389 12365
 2490 2390 12366
 2491 2391 12367
 2492 2392 12368
 2493 2393 12369
 2494 2394 12370
 2495 2395 12371
 2496 2396 12372
 2497 2397 12373
 2498 2398 12374
 2499 2399 12375
 2501 2401 12376
 2502 2402 12377
 2503 2403 12378
 2504 2404 12379
 2505 2405 12380
 2506 2406 12381
 2507 2407 12382
 2508 2408 12383
 2509 2409 12384
 2510 2410 12385
 2511 2411 12386
 2512 2412 12387
 2513 2413 12388
 2514 2414 12389
 2515 2415 12390
 2516 2416 12391
 2517 2417 12392
 2518 2418 12393
 2519 2419 12394
 2520 2420 12395
 2521 2421 12396
 2522 2422 12397
 2523 2423 12398
 2524 2424 12399
 2525 2425 12400
 2526 2426 12401
 2527 2427 12402
 2528 2428 12403
 2529 2429 12404
 2530 2430 12405
 2531 2431 12406
 2532 2432 12407
 2533 2433 12408
 2534 2434 12409
 2535 2435 12410
 2536 2436 12411
 2537 2437 12412
 2538 2438 12413
 2539 2439 12414
 2540 2440 12415
 2541 2441 12416
 2542 2442 12417
 2543 2443 12418
 2544 2444 12419
 2545 2445 12420
 2546 2446 12421
 2547 2447 12422
 2548 2448 12423
 2549 2449 12424
 2550 2450 12425
 2551 2451 12426
 2552 2452 12427
 2553 2453 12428
 2554 2454 12429
 2555 2455 12430
 2556 2456 12431
 2557 2457 12432
 2558 2458 12433
 2559 2459 12434
 2560 2460 12435
 2561 2461 12436
 2562 2462 12437
 2563 2463 12438
 2564 2464 12439
 2565 2465 12440
 2566 2466 12441
 2567 2467 12442
 2568 2468 12443
 2569 2469 12444
 2570 2470 12445
 2571 2471 12446
 2572 2472 12447
 2573 2473 12448
 2574 2474 12449
 2575 2475 12450
 2576 2476 12451
 2577 2477 12452
 2578 2478 12453
 2579 2479 12454
 2580 2480 12455
 2581 2481 12456
 2582 2482 12457
 2583 2483 12458
 2584 2484 12459
 2585 2485 12460
 2586 2486 12461
 2587 2487 12462
 2588 2488 12463
 2589 2489 12464
 2590 2490 12465
 2591 2491 12466
 2592 2492 12467
 2593 2493 12468
 2594 2494 12469
 2595 2495 12470
 2596 2496 12471
 2597 2497 12472
 2598 2498 12473
 2599 2499 12474
 2601 2501 12475
 2602 2502 12476
 2603 2503 12477
 2604 2504 12478
 2605 2505 12479
 2606 2506 12480
 2607 2507 12481
 2608 2508 12482
 2609 2509 12483
 2610 2510 12484
 2611 2511 12485
 2612 2512 12486
 2613 2513 12487
 2614 2514 12488
 2615 2515 12489
 2616 2516 12490
 2617 2517 12491
 2618 2518 12492
 2619 2519 12493
 2620 2520 12494
 2621 2521 12495
 2622 2522 12496
 2623 2523 12497
 2624 2524 12498
 2625 2525 12499
 2626 2526 12500
 2627 2527 12501
 2628 2528 12502
 2629 2529 12503
 2630 2530 12504
 2631 2531 12505
 2632 2532 12506
 2633 2533 12507
 2634 2534 12508
 2635 2535 12509
 2636 2536 12510
 2637 2537 12511
 2638 2538 12512
 2639 2539 12513
 2640 2540 12514
 2641 2541 12515
 2642 2542 12516
 2643 2543 12517
 2644 2544 12518
 2645 2545 12519
 2646 2546 12520
 2647 2547 12521
 2648 2548 12522
 2649 2549 12523
 2650 2550 12524
 2651 2551 12525
 2652 2552 12526
 2653 2553 12527
 2654 2554 12528
 2655 2555 12529
 2656 2556 12530
 2657 2557 12531
 2658 2558 12532
 2659 2559 12533
 2660 2560 12534
 2661 2561 12535
 2662 2562 12536
 2663 2563 12537
 2664 2564 12538
 2665 2565 12539
 2666 2566 12540
 2667 2567 12541
 2668 2568 12542
 2669 2569 12543
 2670 2570 12544
 2671 2571 12545
 2672 2572 12546
 2673 2573 12547
 2674 2574 12548
 2675 2575 12549
 2676 2576 12550
 2677 2577 12551
 2678 2578 12552
 2679 2579 12553
 2680 2580 12554
 2681 2581 12555
 2682 2582 12556
 2683 2583 12557
 2684 2584 12558
 2685 2585 12559
 2686 2586 12560
 2687 2587 12561
 2688 2588 12562
 2689 2589 12563
 2690 2590 12564
 2691 2591 12565
 2692 2592 12566
 2693 2593 12567
 2694 2594 12568
 2695 2595 12569
 2696 2596 12570
 2697 2597 12571
 2698 2598 12572
 2699 2599 12573
 2701 2601 12574
 2702 2602 12575
 2703 2603 12576
 2704 2604 12577
 2705 2605 12578
 2706 2606 12579
 2707 2607 12580
 2708 2608 12581
 2709 2609 12582
 2710 2610 12583
 2711 2611 12584
 2712 2612 12585
 2713 2613 12586
 2714 2614 12587
 2715 2615 12588
 2716 2616 12589
 2717 2617 12590
 2718 2618 12591
 2719 2619 12592
 2720 2620 12593
 2721 2621 12594
 2722 2622 12595
 2723 2623 12596
 2724 2624 12597
 2725 2625 12598
 2726 2626 12599
 2727 2627 12600
 2728 2628 12601
 2729 2629 12602
 2730 2630 12603
 2731 2631 12604
 2732 2632 12605
 2733 2633 12606
 2734 2634 12607
 2735 2635 12608
 2736 2636 12609
 2737 2637 12610
 2738 2638 12611
 2739 2639 12612
 2740 2640 12613
 2741 2641 12614
 2742 2642 12615
 2743 2643 12616
 2744 2644 12617
 2745 2645 12618
 2746 2646 12619
 2747 2647 12620
 2748 2648 12621
 2749 2649 12622
 2750 2650 12623
 2751 2651 12624
 2752 2652 12625
 2753 2653 12626
 2754 2654 12627
 2755 2655 12628
 2756 2656 12629
 2757 2657 12630
 2758 2658 12631
 2759 2659 12632
 2760 2660 12633
 2761 2661 12634
 2762 2662 12635
 2763 2663 12636
 2764 2664 12637
 2765 2665 12638
 2766 2666 12639
 2767 2667 12640
 2768 2668 12641
 2769 2669 12642
 2770 2670 12643
 2771 2671 12644
 2772 2672 12645
 2773 2673 12646
 2774 2674 12647
 2775 2675 12648
 2776 2676 12649
 2777 2677 12650
 2778 2678 12651
 2779 2679 12652
 2780 2680 12653
 2781 2681 12654
 2782 2682 12655
 2783 2683 12656
 2784 2684 12657
 2785 2685 12658
 2786 2686 12659
 2787 2687 12660
 2788 2688 12661
 2789 2689 12662
 2790 2690 12663
 2791 2691 12664
 2792 2692 12665
 2793 2693 12666
 2794 2694 12667
 2795 2695 12668
 2796 2696 12669
 2797 2697 12670
 2798 2698 12671
 2799 2699 12672
 2801 2701 12673
 2802 2702 12674
 2803 2703 12675
 2804 2704 12676
 2805 2705 12677
 2806 2706 12678
 2807 2707 12679
 2808 2708 12680
 2809 2709 12681
 2810 2710 12682
 2811 2711 12683
 2812 2712 12684
 2813 2713 12685
 2814 2714 12686
 2815 2715 12687
 2816 2716 12688
 2817 2717 12689
 2818 2718 12690
 2819 2719 12691
 2820 2720 12692
 2821 2721 12693
 2822 2722 12694
 2823 2723 12695
 2824 2724 12696
 2825 2725 12697
 2826 2726 12698
 2827 2727 12699
 2828 2728 12700
 2829 2729 12701
 2830 2730 12702
 2831 2731 12703
 2832 2732 12704
 2833 2733 12705
 2834 2734 12706
 2835 2735 12707
 2836 2736 12708
 2837 2737 12709
 2838 2738 12710
 2839 2739 12711
 2840 2740 12712
 2841 2741 12713
 2842 2742 12714
 2843 2743 12715
 2844 2744 12716
 2845 2745 12717
 2846 2746 12718
 2847 2747 12719
 2848 2748 12720
 2849 2749 12721
 2850 2750 12722
 2851 2751 12723
 2852 2752 12724
 2853 2753 12725
 2854 2754 12726
 2855 2755 12727
 2856 2756 12728
 2857 2757 12729
 2858 2758 12730
 2859 2759 12731
 2860 2760 12732
 2861 2761 12733
 2862 2762 12734
 2863 2763 12735
 2864 2764 12736
 2865 2765 12737
 2866 2766 12738
 2867 2767 12739
 2868 2768 12740
 2869 2769 12741
 2870 2770 12742
 2871 2771 12743
 2872 2772 12744
 2873 2773 12745
 2874 2774 12746
 2875 2775 12747
 2876 2776 12748
 2877 2777 12749
 2878 2778 12750
 2879 2779 12751
 2880 2780 12752
 2881 2781 12753
 2882 2782 12754
 2883 2783 12755
 2884 2784 12756
 2885 2785 12757
 2886 2786 12758
 2887 2787 12759
 2888 2788 12760
 2889 2789 12761
 2890 2790 12762
 2891 2791 12763
 2892 2792 12764
 2893 2793 12765
 2894 2794 12766
 2895 2795 12767
 2896 2796 12768
 2897 2797 12769
 2898 2798 12770
 2899 2799 12771
 2901 2801 12772
 2902 2802 12773
 2903 2803 12774
 2904 2804 12775
 2905 2805 12776
 2906 2806 12777
 2907 2807 12778
 2908 2808 12779
 2909 2809 12780
 2910 2810 12781
 2911 2811 12782
 2912 2812 12783
 2913 2813 12784
 2914 2814 12785
 2915 2815 12786
 2916 2816 12787
 2917 2817 12788
 2918 2818 12789
 2919 2819 12790
 2920 2820 12791
 2921 2821 12792
 2922 2822 12793
 2923 2823 12794
 2924 2824 12795
 2925 2825 12796
 2926 2826 12797
 2927 2827 12798
 2928 2828 12799
 2929 2829 12800
 2930 2830 12801
 2931 2831 12802
 2932 2832 12803
 2933 2833 12804
 2934 2834 12805
 2935 2835 12806
 2936 2836 12807
 2937 2837 12808
 2938 2838 12809
 2939 2839 12810
 2940 2840 12811
 2941 2841 12812
 2942 2842 12813
 2943 2843 12814
 2944 2844 12815
 2945 2845 12816
 2946 2846 12817
 2947 2847 12818
 2948 2848 12819
 2949 2849 12820
 2950 2850 12821
 2951 2851 12822
 2952 2852 12823
 2953 2853 12824
 2954 2854 12825
 2955 2855 12826
 2956 2856 12827
 2957 2857 12828
 2958 2858 12829
 2959 2859 12830
 2960 2860 12831
 2961 2861 12832
 2962 2862 12833
 2963 2863 12834
 2964 2864 12835
 2965 2865 12836
 2966 2866 12837
 2967 2867 12838
 2968 2868 12839
 2969 2869 12840
 2970 2870 12841
 2971 2871 12842
 2972 2872 12843
 2973 2873 12844
 2974 2874 12845
 2975 2875 12846
 2976 2876 12847
 2977 2877 12848
 2978 2878 12849
 2979 2879 12850
 2980 2880 12851
 2981 2881 12852
 2982 2882 12853
 2983 2883 12854
 2984 2884 12855
 2985 2885 12856
 2986 2886 12857
 2987 2887 12858
 2988 2888 12859
 2989 2889 12860
 2990 2890 12861
 2991 2891 12862
 2992 2892 12863
 2993 2893 12864
 2994 2894 12865
 2995 2895 12866
 2996 2896 12867
 2997 2897 12868
 2998 2898 12869
 2999 2899 12870
 3001 2901 12871
 3002 2902 12872
 3003 2903 12873
 3004 2904 12874
 3005 2905 12875
 3006 2906 12876
 3007 2907 12877
 3008 2908 12878
 3009 2909 12879
 3010 2910 12880
 3011 2911 12881
 3012 2912 12882
 3013 2913 12883
 3014 2914 12884
 3015 2915 12885
 3016 2916 12886
 3017 2917 12887
 3018 2918 12888
 3019 2919 12889
 3020 2920 12890
 3021 2921 12891
 3022 2922 12892
 3023 2923 12893
 3024 2924 12894
 3025 2925 12895
 3026 2926 12896
 3027 2927 12897
 3028 2928 12898
 3029 2929 12899
 3030 2930 12900
 3031 2931 12901
 3032 2932 12902
 3033 2933 12903
 3034 2934 12904
 3035 2935 12905
 3036 2936 12906
 3037 2937 12907
 3038 2938 12908
 3039 2939 12909
 3040 2940 12910
 3041 2941 12911
 3042 2942 12912
 3043 2943 12913
 3044 2944 12914
 3045 2945 12915
 3046 2946 12916
 3047 2947 12917
 3048 2948 12918
 3049 2949 12919
 3050 2950 12920
 3051 2951 12921
 3052 2952 12922
 3053 2953 12923
 3054 2954 12924
 3055 2955 12925
 3056 2956 12926
 3057 2957 12927
 3058 2958 12928
 3059 2959 12929
 3060 2960 12930
 3061 2961 12931
 3062 2962 12932
 3063 2963 12933
 3064 2964 12934
 3065 2965 12935
 3066 2966 12936
 3067 2967 12937
 3068 2968 12938
 3069 2969 12939
 3070 2970 12940
 3071 2971 12941
 3072 2972 12942
 3073 2973 12943
 3074 2974 12944
 3075 2975 12945
 3076 2976 12946
 3077 2977 12947
 3078 2978 12948
 3079 2979 12949
 3080 2980 12950
 3081 2981 12951
 3082 2982 12952
 3083 2983 12953
 3084 2984 12954
 3085 2985 12955
 3086 2986 12956
 3087 2987 12957
 3088 2988 12958
 3089 2989 12959
 3090 2990 12960
 3091 2991 12961
 3092 2992 12962
 3093 2993 12963
 3094 2994 12964
 3095 2995 12965
 3096 2996 12966
 3097 2997 12967
 3098 2998 12968
 3099 2999 12969
 3101 3001 12970
 3102 3002 12971
 3103 3003 12972
 3104 3004 12973
 3105 3005 12974
 3106 3006 12975
 3107 3007 12976
 3108 3008 12977
 3109 3009 12978
 3110 3010 12979
 3111 3011 12980
 3112 3012 12981
 3113 3013 12982
 3114 3014 12983
 3115 3015 12984
 3116 3016 12985
 3117 3017 12986
 3118 3018 12987
 3119 3019 12988
 3120 3020 12989
 3121 3021 12990
 3122 3022 12991
 3123 3023 12992
 3124 3024 12993
 3125 3025 12994
 3126 3026 12995
 3127 3027 12996
 3128 3028 12997
 3129 3029 12998
 3130 3030 12999
 3131 3031 13000
 3132 3032 13001
 3133 3033 13002
 3134 3034 13003
 3135 3035 13004
 3136 3036 13005
 3137 3037 13006
 3138 3038 13007
 3139 3039 13008
 3140 3040 13009
 3141 3041 13010
 3142 3042 13011
 3143 3043 13012
 3144 3044 13013
 3145 3045 13014
 3146 3046 13015
 3147 3047 13016
 3148 3048 13017
 3149 3049 13018
 3150 3050 13019
 3151 3051 13020
 3152 3052 13021
 3153 3053 13022
 3154 3054 13023
 3155 3055 13024
 3156 3056 13025
 3157 3057 13026
 3158 3058 13027
 3159 3059 13028
 3160 3060 13029
 3161 3061 13030
 3162 3062 13031
 3163 3063 13032
 3164 3064 13033
 3165 3065 13034
 3166 3066 13035
 3167 3067 13036
 3168 3068 13037
 3169 3069 13038
 3170 3070 13039
 3171 3071 13040
 3172 3072 13041
 3173 3073 13042
 3174 3074 13043
 3175 3075 13044
 3176 3076 13045
 3177 3077 13046
 3178 3078 13047
 3179 3079 13048
 3180 3080 13049
 3181 3081 13050
 3182 3082 13051
 3183 3083 13052
 3184 3084 13053
 3185 3085 13054
 3186 3086 13055
 3187 3087 13056
 3188 3088 13057
 3189 3089 13058
 3190 3090 13059
 3191 3091 13060
 3192 3092 13061
 3193 3093 13062
 3194 3094 13063
 3195 3095 13064
 3196 3096 13065
 3197 3097 13066
 3198 3098 13067
 3199 3099 13068
 3201 3101 13069
 3202 3102 13070
 3203 3103 13071
 3204 3104 13072
 3205 3105 13073
 3206 3106 13074
 3207 3107 13075
 3208 3108 13076
 3209 3109 13077
 3210 3110 13078
 3211 3111 13079
 3212 3112 13080
 3213 3113 13081
 3214 3114 13082
 3215 3115 13083
 3216 3116 13084
 3217 3117 13085
 3218 3118 13086
 3219 3119 13087
 3220 3120 13088
 3221 3121 13089
 3222 3122 13090
 3223 3123 13091
 3224 3124 13092
 3225 3125 13093
 3226 3126 13094
 3227 3127 13095
 3228 3128 13096
 3229 3129 13097
 3230 3130 13098
 3231 3131 13099
 3232 3132 13100
 3233 3133 13101
 3234 3134 13102
 3235 3135 13103
 3236 3136 13104
 3237 3137 13105
 3238 3138 13106
 3239 3139 13107
 3240 3140 13108
 3241 3141 13109
 3242 3142 13110
 3243 3143 13111
 3244 3144 13112
 3245 3145 13113
 3246 3146 13114
 3247 3147 13115
 3248 3148 13116
 3249 3149 13117
 3250 3150 13118
 3251 3151 13119
 3252 3152 13120
 3253 3153 13121
 3254 3154 13122
 3255 3155 13123
 3256 3156 13124
 3257 3157 13125
 3258 3158 13126
 3259 3159 13127
 3260 3160 13128
 3261 3161 13129
 3262 3162 13130
 3263 3163 13131
 3264 3164 13132
 3265 3165 13133
 3266 3166 13134
 3267 3167 13135
 3268 3168 13136
 3269 3169 13137
 3270 3170 13138
 3271 3171 13139
 3272 3172 13140
 3273 3173 13141
 3274 3174 13142
 3275 3175 13143
 3276 3176 13144
 3277 3177 13145
 3278 3178 13146
 3279 3179 13147
 3280 3180 13148
 3281 3181 13149
 3282 3182 13150
 3283 3183 13151
 3284 3184 13152
 3285 3185 13153
 3286 3186 13154
 3287 3187 13155
 3288 3188 13156
 3289 3189 13157
 3290 3190 13158
 3291 3191 13159
 3292 3192 13160
 3293 3193 13161
 3294 3194 13162
 3295 3195 13163
 3296 3196 13164
 3297 3197 13165
 3298 3198 13166
 3299 3199 13167
 3301 3201 13168
 3302 3202 13169
 3303 3203 13170
 3304 3204 13171
 3305 3205 13172
 3306 3206 13173
 3307 3207 13174
 3308 3208 13175
 3309 3209 13176
 3310 3210 13177
 3311 3211 13178
 3312 3212 13179
 3313 3213 13180
 3314 3214 13181
 3315 3215 13182
 3316 3216 13183
 3317 3217 13184
 3318 3218 13185
 3319 3219 13186
 3320 3220 13187
 3321 3221 13188
 3322 3222 13189
 3323 3223 13190
 3324 3224 13191
 3325 3225 13192
 3326 3226 13193
 3327 3227 13194
 3328 3228 13195
 3329 3229 13196
 3330 3230 13197
 3331 3231 13198
 3332 3232 13199
 3333 3233 13200
 3334 3234 13201
 3335 3235 13202
 3336 3236 13203
 3337 3237 13204
 3338 3238 13205
 3339 3239 13206
 3340 3240 13207
 3341 3241 13208
 3342 3242 13209
 3343 3243 13210
 3344 3244 13211
 3345 3245 13212
 3346 3246 13213
 3347 3247 13214
 3348 3248 13215
 3349 3249 13216
 3350 3250 13217
 3351 3251 13218
 3352 3252 13219
 3353 3253 13220
 3354 3254 13221
 3355 3255 13222
 3356 3256 13223
 3357 3257 13224
 3358 3258 13225
 3359 3259 13226
 3360 3260 13227
 3361 3261 13228
 3362 3262 13229
 3363 3263 13230
 3364 3264 13231
 3365 3265 13232
 3366 3266 13233
 3367 3267 13234
 3368 3268 13235
 3369 3269 13236
 3370 3270 13237
 3371 3271 13238
 3372 3272 13239
 3373 3273 13240
 3374 3274 13241
 3375 3275 13242
 3376 3276 13243
 3377 3277 13244
 3378 3278 13245
 3379 3279 13246
 3380 3280 13247
 3381 3281 13248
 3382 3282 13249
 3383 3283 13250
 3384 3284 13251
 3385 3285 13252
 3386 3286 13253
 3387 3287 13254
 3388 3288 13255
 3389 3289 13256
 3390 3290 13257
 3391 3291 13258
 3392 3292 13259
 3393 3293 13260
 3394 3294 13261
 3395 3295 13262
 3396 3296 13263
 3397 3297 13264
 3398 3298 13265
 3399 3299 13266
 3401 3301 13267
 3402 3302 13268
 3403 3303 13269
 3404 3304 13270
 3405 3305 13271
 3406 3306 13272
 3407 3307 13273
 3408 3308 13274
 3409 3309 13275
 3410 3310 13276
 3411 3311 13277
 3412 3312 13278
 3413 3313 13279
 3414 3314 13280
 3415 3315 13281
 3416 3316 13282
 3417 3317 13283
 3418 3318 13284
 3419 3319 13285
 3420 3320 13286
 3421 3321 13287
 3422 3322 13288
 3423 3323 13289
 3424 3324 13290
 3425 3325 13291
 3426 3326 13292
 3427 3327 13293
 3428 3328 13294
 3429 3329 13295
 3430 3330 13296
 3431 3331 13297
 3432 3332 13298
 3433 3333 13299
 3434 3334 13300
 3435 3335 13301
 3436 3336 13302
 3437 3337 13303
 3438 3338 13304
 3439 3339 13305
 3440 3340 13306
 3441 3341 13307
 3442 3342 13308
 3443 3343 13309
 3444 3344 13310
 3445 3345 13311
 3446 3346 13312
 3447 3347 13313
 3448 3348 13314
 3449 3349 13315
 3450 3350 13316
 3451 3351 13317
 3452 3352 13318
 3453 3353 13319
 3454 3354 13320
 3455 3355 13321
 3456 3356 13322
 3457 3357 13323
 3458 3358 13324
 3459 3359 13325
 3460 3360 13326
 3461 3361 13327
 3462 3362 13328
 3463 3363 13329
 3464 3364 13330
 3465 3365 13331
 3466 3366 13332
 3467 3367 13333
 3468 3368 13334
 3469 3369 13335
 3470 3370 13336
 3471 3371 13337
 3472 3372 13338
 3473 3373 13339
 3474 3374 13340
 3475 3375 13341
 3476 3376 13342
 3477 3377 13343
 3478 3378 13344
 3479 3379 13345
 3480 3380 13346
 3481 3381 13347
 3482 3382 13348
 3483 3383 13349
 3484 3384 13350
 3485 3385 13351
 3486 3386 13352
 3487 3387 13353
 3488 3388 13354
 3489 3389 13355
 3490 3390 13356
 3491 3391 13357
 3492 3392 13358
 3493 3393 13359
 3494 3394 13360
 3495 3395 13361
 3496 3396 13362
 3497 3397 13363
 3498 3398 13364
 3499 3399 13365
 3501 3401 13366
 3502 3402 13367
 3503 3403 13368
 3504 3404 13369
 3505 3405 13370
 3506 3406 13371
 3507 3407 13372
 3508 3408 13373
 3509 3409 13374
 3510 3410 13375
 3511 3411 13376
 3512 3412 13377
 3513 3413 13378
 3514 3414 13379
 3515 3415 13380
 3516 3416 13381
 3517 3417 13382
 3518 3418 13383
 3519 3419 13384
 3520 3420 13385
 3521 3421 13386
 3522 3422 13387
 3523 3423 13388
 3524 3424 13389
 3525 3425 13390
 3526 3426 13391
 3527 3427 13392
 3528 3428 13393
 3529 3429 13394
 3530 3430 13395
 3531 3431 13396
 3532 3432 13397
 3533 3433 13398
 3534 3434 13399
 3535 3435 13400
 3536 3436 13401
 3537 3437 13402
 3538 3438 13403
 3539 3439 13404
 3540 3440 13405
 3541 3441 13406
 3542 3442 13407
 3543 3443 13408
 3544 3444 13409
 3545 3445 13410
 3546 3446 13411
 3547 3447 13412
 3548 3448 13413
 3549 3449 13414
 3550 3450 13415
 3551 3451 13416
 3552 3452 13417
 3553 3453 13418
 3554 3454 13419
 3555 3455 13420
 3556 3456 13421
 3557 3457 13422
 3558 3458 13423
 3559 3459 13424
 3560 3460 13425
 3561 3461 13426
 3562 3462 13427
 3563 3463 13428
 3564 3464 13429
 3565 3465 13430
 3566 3466 13431
 3567 3467 13432
 3568 3468 13433
 3569 3469 13434
 3570 3470 13435
 3571 3471 13436
 3572 3472 13437
 3573 3473 13438
 3574 3474 13439
 3575 3475 13440
 3576 3476 13441
 3577 3477 13442
 3578 3478 13443
 3579 3479 13444
 3580 3480 13445
 3581 3481 13446
 3582 3482 13447
 3583 3483 13448
 3584 3484 13449
 3585 3485 13450
 3586 3486 13451
 3587 3487 13452
 3588 3488 13453
 3589 3489 13454
 3590 3490 13455
 3591 3491 13456
 3592 3492 13457
 3593 3493 13458
 3594 3494 13459
 3595 3495 13460
 3596 3496 13461
 3597 3497 13462
 3598 3498 13463
 3599 3499 13464
 3601 3501 13465
 3602 3502 13466
 3603 3503 13467
 3604 3504 13468
 3605 3505 13469
 3606 3506 13470
 3607 3507 13471
 3608 3508 13472
 3609 3509 13473
 3610 3510 13474
 3611 3511 13475
 3612 3512 13476
 3613 3513 13477
 3614 3514 13478
 3615 3515 13479
 3616 3516 13480
 3617 3517 13481
 3618 3518 13482
 3619 3519 13483
 3620 3520 13484
 3621 3521 13485
 3622 3522 13486
 3623 3523 13487
 3624 3524 13488
 3625 3525 13489
 3626 3526 13490
 3627 3527 13491
 3628 3528 13492
 3629 3529 13493
 3630 3530 13494
 3631 3531 13495
 3632 3532 13496
 3633 3533 13497
 3634 3534 13498
 3635 3535 13499
 3636 3536 13500
 3637 3537 13501
 3638 3538 13502
 3639 3539 13503
 3640 3540 13504
 3641 3541 13505
 3642 3542 13506
 3643 3543 13507
 3644 3544 13508
 3645 3545 13509
 3646 3546 13510
 3647 3547 13511
 3648 3548 13512
 3649 3549 13513
 3650 3550 13514
 3651 3551 13515
 3652 3552 13516
 3653 3553 13517
 3654 3554 13518
 3655 3555 13519
 3656 3556 13520
 3657 3557 13521
 3658 3558 13522
 3659 3559 13523
 3660 3560 13524
 3661 3561 13525
 3662 3562 13526
 3663 3563 13527
 3664 3564 13528
 3665 3565 13529
 3666 3566 13530
 3667 3567 13531
 3668 3568 13532
 3669 3569 13533
 3670 3570 13534
 3671 3571 13535
 3672 3572 13536
 3673 3573 13537
 3674 3574 13538
 3675 3575 13539
 3676 3576 13540
 3677 3577 13541
 3678 3578 13542
 3679 3579 13543
 3680 3580 13544
 3681 3581 13545
 3682 3582 13546
 3683 3583 13547
 3684 3584 13548
 3685 3585 13549
 3686 3586 13550
 3687 3587 13551
 3688 3588 13552
 3689 3589 13553
 3690 3590 13554
 3691 3591 13555
 3692 3592 13556
 3693 3593 13557
 3694 3594 13558
 3695 3595 13559
 3696 3596 13560
 3697 3597 13561
 3698 3598 13562
 3699 3599 13563
 3701 3601 13564
 3702 3602 13565
 3703 3603 13566
 3704 3604 13567
 3705 3605 13568
 3706 3606 13569
 3707 3607 13570
 3708 3608 13571
 3709 3609 13572
 3710 3610 13573
 3711 3611 13574
 3712 3612 13575
 3713 3613 13576
 3714 3614 13577
 3715 3615 13578
 3716 3616 13579
 3717 3617 13580
 3718 3618 13581
 3719 3619 13582
 3720 3620 13583
 3721 3621 13584
 3722 3622 13585
 3723 3623 13586
 3724 3624 13587
 3725 3625 13588
 3726 3626 13589
 3727 3627 13590
 3728 3628 13591
 3729 3629 13592
 3730 3630 13593
 3731 3631 13594
 3732 3632 13595
 3733 3633 13596
 3734 3634 13597
 3735 3635 13598
 3736 3636 13599
 3737 3637 13600
 3738 3638 13601
 3739 3639 13602
 3740 3640 13603
 3741 3641 13604
 3742 3642 13605
 3743 3643 13606
 3744 3644 13607
 3745 3645 13608
 3746 3646 13609
 3747 3647 13610
 3748 3648 13611
 3749 3649 13612
 3750 3650 13613
 3751 3651 13614
 3752 3652 13615
 3753 3653 13616
 3754 3654 13617
 3755 3655 13618
 3756 3656 13619
 3757 3657 13620
 3758 3658 13621
 3759 3659 13622
 3760 3660 13623
 3761 3661 13624
 3762 3662 13625
 3763 3663 13626
 3764 3664 13627
 3765 3665 13628
 3766 3666 13629
 3767 3667 13630
 3768 3668 13631
 3769 3669 13632
 3770 3670 13633
 3771 3671 13634
 3772 3672 13635
 3773 3673 13636
 3774 3674 13637
 3775 3675 13638
 3776 3676 13639
 3777 3677 13640
 3778 3678 13641
 3779 3679 13642
 3780 3680 13643
 3781 3681 13644
 3782 3682 13645
 3783 3683 13646
 3784 3684 13647
 3785 3685 13648
 3786 3686 13649
 3787 3687 13650
 3788 3688 13651
 3789 3689 13652
 3790 3690 13653
 3791 3691 13654
 3792 3692 13655
 3793 3693 13656
 3794 3694 13657
 3795 3695 13658
 3796 3696 13659
 3797 3697 13660
 3798 3698 13661
 3799 3699 13662
 3801 3701 13663
 3802 3702 13664
 3803 3703 13665
 3804 3704 13666
 3805 3705 13667
 3806 3706 13668
 3807 3707 13669
 3808 3708 13670
 3809 3709 13671
 3810 3710 13672
 3811 3711 13673
 3812 3712 13674
 3813 3713 13675
 3814 3714 13676
 3815 3715 13677
 3816 3716 13678
 3817 3717 13679
 3818 3718 13680
 3819 3719 13681
 3820 3720 13682
 3821 3721 13683
 3822 3722 13684
 3823 3723 13685
 3824 3724 13686
 3825 3725 13687
 3826 3726 13688
 3827 3727 13689
 3828 3728 13690
 3829 3729 13691
 3830 3730 13692
 3831 3731 13693
 3832 3732 13694
 3833 3733 13695
 3834 3734 13696
 3835 3735 13697
 3836 3736 13698
 3837 3737 13699
 3838 3738 13700
 3839 3739 13701
 3840 3740 13702
 3841 3741 13703
 3842 3742 13704
 3843 3743 13705
 3844 3744 13706
 3845 3745 13707
 3846 3746 13708
 3847 3747 13709
 3848 3748 13710
 3849 3749 13711
 3850 3750 13712
 3851 3751 13713
 3852 3752 13714
 3853 3753 13715
 3854 3754 13716
 3855 3755 13717
 3856 3756 13718
 3857 3757 13719
 3858 3758 13720
 3859 3759 13721
 3860 3760 13722
 3861 3761 13723
 3862 3762 13724
 3863 3763 13725
 3864 3764 13726
 3865 3765 13727
 3866 3766 13728
 3867 3767 13729
 3868 3768 13730
 3869 3769 13731
 3870 3770 13732
 3871 3771 13733
 3872 3772 13734
 3873 3773 13735
 3874 3774 13736
 3875 3775 13737
 3876 3776 13738
 3877 3777 13739
 3878 3778 13740
 3879 3779 13741
 3880 3780 13742
 3881 3781 13743
 3882 3782 13744
 3883 3783 13745
 3884 3784 13746
 3885 3785 13747
 3886 3786 13748
 3887 3787 13749
 3888 3788 13750
 3889 3789 13751
 3890 3790 13752
 3891 3791 13753
 3892 3792 13754
 3893 3793 13755
 3894 3794 13756
 3895 3795 13757
 3896 3796 13758
 3897 3797 13759
 3898 3798 13760
 3899 3799 13761
 3901 3801 13762
 3902 3802 13763
 3903 3803 13764
 3904 3804 13765
 3905 3805 13766
 3906 3806 13767
 3907 3807 13768
 3908 3808 13769
 3909 3809 13770
 3910 3810 13771
 3911 3811 13772
 3912 3812 13773
 3913 3813 13774
 3914 3814 13775
 3915 3815 13776
 3916 3816 13777
 3917 3817 13778
 3918 3818 13779
 3919 3819 13780
 3920 3820 13781
 3921 3821 13782
 3922 3822 13783
 3923 3823 13784
 3924 3824 13785
 3925 3825 13786
 3926 3826 13787
 3927 3827 13788
 3928 3828 13789
 3929 3829 13790
 3930 3830 13791
 3931 3831 13792
 3932 3832 13793
 3933 3833 13794
 3934 3834 13795
 3935 3835 13796
 3936 3836 13797
 3937 3837 13798
 3938 3838 13799
 3939 3839 13800
 3940 3840 13801
 3941 3841 13802
 3942 3842 13803
 3943 3843 13804
 3944 3844 13805
 3945 3845 13806
 3946 3846 13807
 3947 3847 13808
 3948 3848 13809
 3949 3849 13810
 3950 3850 13811
 3951 3851 13812
 3952 3852 13813
 3953 3853 13814
 3954 3854 13815
 3955 3855 13816
 3956 3856 13817
 3957 3857 13818
 3958 3858 13819
 3959 3859 13820
 3960 3860 13821
 3961 3861 13822
 3962 3862 13823
 3963 3863 13824
 3964 3864 13825
 3965 3865 13826
 3966 3866 13827
 3967 3867 13828
 3968 3868 13829
 3969 3869 13830
 3970 3870 13831
 3971 3871 13832
 3972 3872 13833
 3973 3873 13834
 3974 3874 13835
 3975 3875 13836
 3976 3876 13837
 3977 3877 13838
 3978 3878 13839
 3979 3879 13840
 3980 3880 13841
 3981 3881 13842
 3982 3882 13843
 3983 3883 13844
 3984 3884 13845
 3985 3885 13846
 3986 3886 13847
 3987 3887 13848
 3988 3888 13849
 3989 3889 13850
 3990 3890 13851
 3991 3891 13852
 3992 3892 13853
 3993 3893 13854
 3994 3894 13855
 3995 3895 13856
 3996 3896 13857
 3997 3897 13858
 3998 3898 13859
 3999 3899 13860
 4001 3901 13861
 4002 3902 13862
 4003 3903 13863
 4004 3904 13864
 4005 3905 13865
 4006 3906 13866
 4007 3907 13867
 4008 3908 13868
 4009 3909 13869
 4010 3910 13870
 4011 3911 13871
 4012 3912 13872
 4013 3913 13873
 4014 3914 13874
 4015 3915 13875
 4016 3916 13876
 4017 3917 13877
 4018 3918 13878
 4019 3919 13879
 4020 3920 13880
 4021 3921 13881
 4022 3922 13882
 4023 3923 13883
 4024 3924 13884
 4025 3925 13885
 4026 3926 13886
 4027 3927 13887
 4028 3928 13888
 4029 3929 13889
 4030 3930 13890
 4031 3931 13891
 4032 3932 13892
 4033 3933 13893
 4034 3934 13894
 4035 3935 13895
 4036 3936 13896
 4037 3937 13897
 4038 3938 13898
 4039 3939 13899
 4040 3940 13900
 4041 3941 13901
 4042 3942 13902
 4043 3943 13903
 4044 3944 13904
 4045 3945 13905
 4046 3946 13906
 4047 3947 13907
 4048 3948 13908
 4049 3949 13909
 4050 3950 13910
 4051 3951 13911
 4052 3952 13912
 4053 3953 13913
 4054 3954 13914
 4055 3955 13915
 4056 3956 13916
 4057 3957 13917
 4058 3958 13918
 4059 3959 13919
 4060 3960 13920
 4061 3961 13921
 4062 3962 13922
 4063 3963 13923
 4064 3964 13924
 4065 3965 13925
 4066 3966 13926
 4067 3967 13927
 4068 3968 13928
 4069 3969 13929
 4070 3970 13930
 4071 3971 13931
 4072 3972 13932
 4073 3973 13933
 4074 3974 13934
 4075 3975 13935
 4076 3976 13936
 4077 3977 13937
 4078 3978 13938
 4079 3979 13939
 4080 3980 13940
 4081 3981 13941
 4082 3982 13942
 4083 3983 13943
 4084 3984 13944
 4085 3985 13945
 4086 3986 13946
 4087 3987 13947
 4088 3988 13948
 4089 3989 13949
 4090 3990 13950
 4091 3991 13951
 4092 3992 13952
 4093 3993 13953
 4094 3994 13954
 4095 3995 13955
 4096 3996 13956
 4097 3997 13957
 4098 3998 13958
 4099 3999 13959
 4101 4001 13960
 4102 4002 13961
 4103 4003 13962
 4104 4004 13963
 4105 4005 13964
 4106 4006 13965
 4107 4007 13966
 4108 4008 13967
 4109 4009 13968
 4110 4010 13969
 4111 4011 13970
 4112 4012 13971
 4113 4013 13972
 4114 4014 13973
 4115 4015 13974
 4116 4016 13975
 4117 4017 13976
 4118 4018 13977
 4119 4019 13978
 4120 4020 13979
 4121 4021 13980
 4122 4022 13981
 4123 4023 13982
 4124 4024 13983
 4125 4025 13984
 4126 4026 13985
 4127 4027 13986
 4128 4028 13987
 4129 4029 13988
 4130 4030 13989
 4131 4031 13990
 4132 4032 13991
 4133 4033 13992
 4134 4034 13993
 4135 4035 13994
 4136 4036 13995
 4137 4037 13996
 4138 4038 13997
 4139 4039 13998
 4140 4040 13999
 4141 4041 14000
 4142 4042 14001
 4143 4043 14002
 4144 4044 14003
 4145 4045 14004
 4146 4046 14005
 4147 4047 14006
 4148 4048 14007
 4149 4049 14008
 4150 4050 14009
 4151 4051 14010
 4152 4052 14011
 4153 4053 14012
 4154 4054 14013
 4155 4055 14014
 4156 4056 14015
 4157 4057 14016
 4158 4058 14017
 4159 4059 14018
 4160 4060 14019
 4161 4061 14020
 4162 4062 14021
 4163 4063 14022
 4164 4064 14023
 4165 4065 14024
 4166 4066 14025
 4167 4067 14026
 4168 4068 14027
 4169 4069 14028
 4170 4070 14029
 4171 4071 14030
 4172 4072 14031
 4173 4073 14032
 4174 4074 14033
 4175 4075 14034
 4176 4076 14035
 4177 4077 14036
 4178 4078 14037
 4179 4079 14038
 4180 4080 14039
 4181 4081 14040
 4182 4082 14041
 4183 4083 14042
 4184 4084 14043
 4185 4085 14044
 4186 4086 14045
 4187 4087 14046
 4188 4088 14047
 4189 4089 14048
 4190 4090 14049
 4191 4091 14050
 4192 4092 14051
 4193 4093 14052
 4194 4094 14053
 4195 4095 14054
 4196 4096 14055
 4197 4097 14056
 4198 4098 14057
 4199 4099 14058
 4201 4101 14059
 4202 4102 14060
 4203 4103 14061
 4204 4104 14062
 4205 4105 14063
 4206 4106 14064
 4207 4107 14065
 4208 4108 14066
 4209 4109 14067
 4210 4110 14068
 4211 4111 14069
 4212 4112 14070
 4213 4113 14071
 4214 4114 14072
 4215 4115 14073
 4216 4116 14074
 4217 4117 14075
 4218 4118 14076
 4219 4119 14077
 4220 4120 14078
 4221 4121 14079
 4222 4122 14080
 4223 4123 14081
 4224 4124 14082
 4225 4125 14083
 4226 4126 14084
 4227 4127 14085
 4228 4128 14086
 4229 4129 14087
 4230 4130 14088
 4231 4131 14089
 4232 4132 14090
 4233 4133 14091
 4234 4134 14092
 4235 4135 14093
 4236 4136 14094
 4237 4137 14095
 4238 4138 14096
 4239 4139 14097
 4240 4140 14098
 4241 4141 14099
 4242 4142 14100
 4243 4143 14101
 4244 4144 14102
 4245 4145 14103
 4246 4146 14104
 4247 4147 14105
 4248 4148 14106
 4249 4149 14107
 4250 4150 14108
 4251 4151 14109
 4252 4152 14110
 4253 4153 14111
 4254 4154 14112
 4255 4155 14113
 4256 4156 14114
 4257 4157 14115
 4258 4158 14116
 4259 4159 14117
 4260 4160 14118
 4261 4161 14119
 4262 4162 14120
 4263 4163 14121
 4264 4164 14122
 4265 4165 14123
 4266 4166 14124
 4267 4167 14125
 4268 4168 14126
 4269 4169 14127
 4270 4170 14128
 4271 4171 14129
 4272 4172 14130
 4273 4173 14131
 4274 4174 14132
 4275 4175 14133
 4276 4176 14134
 4277 4177 14135
 4278 4178 14136
 4279 4179 14137
 4280 4180 14138
 4281 4181 14139
 4282 4182 14140
 4283 4183 14141
 4284 4184 14142
 4285 4185 14143
 4286 4186 14144
 4287 4187 14145
 4288 4188 14146
 4289 4189 14147
 4290 4190 14148
 4291 4191 14149
 4292 4192 14150
 4293 4193 14151
 4294 4194 14152
 4295 4195 14153
 4296 4196 14154
 4297 4197 14155
 4298 4198 14156
 4299 4199 14157
 4301 4201 14158
 4302 4202 14159
 4303 4203 14160
 4304 4204 14161
 4305 4205 14162
 4306 4206 14163
 4307 4207 14164
 4308 4208 14165
 4309 4209 14166
 4310 4210 14167
 4311 4211 14168
 4312 4212 14169
 4313 4213 14170
 4314 4214 14171
 4315 4215 14172
 4316 4216 14173
 4317 4217 14174
 4318 4218 14175
 4319 4219 14176
 4320 4220 14177
 4321 4221 14178
 4322 4222 14179
 4323 4223 14180
 4324 4224 14181
 4325 4225 14182
 4326 4226 14183
 4327 4227 14184
 4328 4228 14185
 4329 4229 14186
 4330 4230 14187
 4331 4231 14188
 4332 4232 14189
 4333 4233 14190
 4334 4234 14191
 4335 4235 14192
 4336 4236 14193
 4337 4237 14194
 4338 4238 14195
 4339 4239 14196
 4340 4240 14197
 4341 4241 14198
 4342 4242 14199
 4343 4243 14200
 4344 4244 14201
 4345 4245 14202
 4346 4246 14203
 4347 4247 14204
 4348 4248 14205
 4349 4249 14206
 4350 4250 14207
 4351 4251 14208
 4352 4252 14209
 4353 4253 14210
 4354 4254 14211
 4355 4255 14212
 4356 4256 14213
 4357 4257 14214
 4358 4258 14215
 4359 4259 14216
 4360 4260 14217
 4361 4261 14218
 4362 4262 14219
 4363 4263 14220
 4364 4264 14221
 4365 4265 14222
 4366 4266 14223
 4367 4267 14224
 4368 4268 14225
 4369 4269 14226
 4370 4270 14227
 4371 4271 14228
 4372 4272 14229
 4373 4273 14230
 4374 4274 14231
 4375 4275 14232
 4376 4276 14233
 4377 4277 14234
 4378 4278 14235
 4379 4279 14236
 4380 4280 14237
 4381 4281 14238
 4382 4282 14239
 4383 4283 14240
 4384 4284 14241
 4385 4285 14242
 4386 4286 14243
 4387 4287 14244
 4388 4288 14245
 4389 4289 14246
 4390 4290 14247
 4391 4291 14248
 4392 4292 14249
 4393 4293 14250
 4394 4294 14251
 4395 4295 14252
 4396 4296 14253
 4397 4297 14254
 4398 4298 14255
 4399 4299 14256
 4401 4301 14257
 4402 4302 14258
 4403 4303 14259
 4404 4304 14260
 4405 4305 14261
 4406 4306 14262
 4407 4307 14263
 4408 4308 14264
 4409 4309 14265
 4410 4310 14266
 4411 4311 14267
 4412 4312 14268
 4413 4313 14269
 4414 4314 14270
 4415 4315 14271
 4416 4316 14272
 4417 4317 14273
 4418 4318 14274
 4419 4319 14275
 4420 4320 14276
 4421 4321 14277
 4422 4322 14278
 4423 4323 14279
 4424 4324 14280
 4425 4325 14281
 4426 4326 14282
 4427 4327 14283
 4428 4328 14284
 4429 4329 14285
 4430 4330 14286
 4431 4331 14287
 4432 4332 14288
 4433 4333 14289
 4434 4334 14290
 4435 4335 14291
 4436 4336 14292
 4437 4337 14293
 4438 4338 14294
 4439 4339 14295
 4440 4340 14296
 4441 4341 14297
 4442 4342 14298
 4443 4343 14299
 4444 4344 14300
 4445 4345 14301
 4446 4346 14302
 4447 4347 14303
 4448 4348 14304
 4449 4349 14305
 4450 4350 14306
 4451 4351 14307
 4452 4352 14308
 4453 4353 14309
 4454 4354 14310
 4455 4355 14311
 4456 4356 14312
 4457 4357 14313
 4458 4358 14314
 4459 4359 14315
 4460 4360 14316
 4461 4361 14317
 4462 4362 14318
 4463 4363 14319
 4464 4364 14320
 4465 4365 14321
 4466 4366 14322
 4467 4367 14323
 4468 4368 14324
 4469 4369 14325
 4470 4370 14326
 4471 4371 14327
 4472 4372 14328
 4473 4373 14329
 4474 4374 14330
 4475 4375 14331
 4476 4376 14332
 4477 4377 14333
 4478 4378 14334
 4479 4379 14335
 4480 4380 14336
 4481 4381 14337
 4482 4382 14338
 4483 4383 14339
 4484 4384 14340
 4485 4385 14341
 4486 4386 14342
 4487 4387 14343
 4488 4388 14344
 4489 4389 14345
 4490 4390 14346
 4491 4391 14347
 4492 4392 14348
 4493 4393 14349
 4494 4394 14350
 4495 4395 14351
 4496 4396 14352
 4497 4397 14353
 4498 4398 14354
 4499 4399 14355
 4501 4401 14356
 4502 4402 14357
 4503 4403 14358
 4504 4404 14359
 4505 4405 14360
 4506 4406 14361
 4507 4407 14362
 4508 4408 14363
 4509 4409 14364
 4510 4410 14365
 4511 4411 14366
 4512 4412 14367
 4513 4413 14368
 4514 4414 14369
 4515 4415 14370
 4516 4416 14371
 4517 4417 14372
 4518 4418 14373
 4519 4419 14374
 4520 4420 14375
 4521 4421 14376
 4522 4422 14377
 4523 4423 14378
 4524 4424 14379
 4525 4425 14380
 4526 4426 14381
 4527 4427 14382
 4528 4428 14383
 4529 4429 14384
 4530 4430 14385
 4531 4431 14386
 4532 4432 14387
 4533 4433 14388
 4534 4434 14389
 4535 4435 14390
 4536 4436 14391
 4537 4437 14392
 4538 4438 14393
 4539 4439 14394
 4540 4440 14395
 4541 4441 14396
 4542 4442 14397
 4543 4443 14398
 4544 4444 14399
 4545 4445 14400
 4546 4446 14401
 4547 4447 14402
 4548 4448 14403
 4549 4449 14404
 4550 4450 14405
 4551 4451 14406
 4552 4452 14407
 4553 4453 14408
 4554 4454 14409
 4555 4455 14410
 4556 4456 14411
 4557 4457 14412
 4558 4458 14413
 4559 4459 14414
 4560 4460 14415
 4561 4461 14416
 4562 4462 14417
 4563 4463 14418
 4564 4464 14419
 4565 4465 14420
 4566 4466 14421
 4567 4467 14422
 4568 4468 14423
 4569 4469 14424
 4570 4470 14425
 4571 4471 14426
 4572 4472 14427
 4573 4473 14428
 4574 4474 14429
 4575 4475 14430
 4576 4476 14431
 4577 4477 14432
 4578 4478 14433
 4579 4479 14434
 4580 4480 14435
 4581 4481 14436
 4582 4482 14437
 4583 4483 14438
 4584 4484 14439
 4585 4485 14440
 4586 4486 14441
 4587 4487 14442
 4588 4488 14443
 4589 4489 14444
 4590 4490 14445
 4591 4491 14446
 4592 4492 14447
 4593 4493 14448
 4594 4494 14449
 4595 4495 14450
 4596 4496 14451
 4597 4497 14452
 4598 4498 14453
 4599 4499 14454
 4601 4501 14455
 4602 4502 14456
 4603 4503 14457
 4604 4504 14458
 4605 4505 14459
 4606 4506 14460
 4607 4507 14461
 4608 4508 14462
 4609 4509 14463
 4610 4510 14464
 4611 4511 14465
 4612 4512 14466
 4613 4513 14467
 4614 4514 14468
 4615 4515 14469
 4616 4516 14470
 4617 4517 14471
 4618 4518 14472
 4619 4519 14473
 4620 4520 14474
 4621 4521 14475
 4622 4522 14476
 4623 4523 14477
 4624 4524 14478
 4625 4525 14479
 4626 4526 14480
 4627 4527 14481
 4628 4528 14482
 4629 4529 14483
 4630 4530 14484
 4631 4531 14485
 4632 4532 14486
 4633 4533 14487
 4634 4534 14488
 4635 4535 14489
 4636 4536 14490
 4637 4537 14491
 4638 4538 14492
 4639 4539 14493
 4640 4540 14494
 4641 4541 14495
 4642 4542 14496
 4643 4543 14497
 4644 4544 14498
 4645 4545 14499
 4646 4546 14500
 4647 4547 14501
 4648 4548 14502
 4649 4549 14503
 4650 4550 14504
 4651 4551 14505
 4652 4552 14506
 4653 4553 14507
 4654 4554 14508
 4655 4555 14509
 4656 4556 14510
 4657 4557 14511
 4658 4558 14512
 4659 4559 14513
 4660 4560 14514
 4661 4561 14515
 4662 4562 14516
 4663 4563 14517
 4664 4564 14518
 4665 4565 14519
 4666 4566 14520
 4667 4567 14521
 4668 4568 14522
 4669 4569 14523
 4670 4570 14524
 4671 4571 14525
 4672 4572 14526
 4673 4573 14527
 4674 4574 14528
 4675 4575 14529
 4676 4576 14530
 4677 4577 14531
 4678 4578 14532
 4679 4579 14533
 4680 4580 14534
 4681 4581 14535
 4682 4582 14536
 4683 4583 14537
 4684 4584 14538
 4685 4585 14539
 4686 4586 14540
 4687 4587 14541
 4688 4588 14542
 4689 4589 14543
 4690 4590 14544
 4691 4591 14545
 4692 4592 14546
 4693 4593 14547
 4694 4594 14548
 4695 4595 14549
 4696 4596 14550
 4697 4597 14551
 4698 4598 14552
 4699 4599 14553
 4701 4601 14554
 4702 4602 14555
 4703 4603 14556
 4704 4604 14557
 4705 4605 14558
 4706 4606 14559
 4707 4607 14560
 4708 4608 14561
 4709 4609 14562
 4710 4610 14563
 4711 4611 14564
 4712 4612 14565
 4713 4613 14566
 4714 4614 14567
 4715 4615 14568
 4716 4616 14569
 4717 4617 14570
 4718 4618 14571
 4719 4619 14572
 4720 4620 14573
 4721 4621 14574
 4722 4622 14575
 4723 4623 14576
 4724 4624 14577
 4725 4625 14578
 4726 4626 14579
 4727 4627 14580
 4728 4628 14581
 4729 4629 14582
 4730 4630 14583
 4731 4631 14584
 4732 4632 14585
 4733 4633 14586
 4734 4634 14587
 4735 4635 14588
 4736 4636 14589
 4737 4637 14590
 4738 4638 14591
 4739 4639 14592
 4740 4640 14593
 4741 4641 14594
 4742 4642 14595
 4743 4643 14596
 4744 4644 14597
 4745 4645 14598
 4746 4646 14599
 4747 4647 14600
 4748 4648 14601
 4749 4649 14602
 4750 4650 14603
 4751 4651 14604
 4752 4652 14605
 4753 4653 14606
 4754 4654 14607
 4755 4655 14608
 4756 4656 14609
 4757 4657 14610
 4758 4658 14611
 4759 4659 14612
 4760 4660 14613
 4761 4661 14614
 4762 4662 14615
 4763 4663 14616
 4764 4664 14617
 4765 4665 14618
 4766 4666 14619
 4767 4667 14620
 4768 4668 14621
 4769 4669 14622
 4770 4670 14623
 4771 4671 14624
 4772 4672 14625
 4773 4673 14626
 4774 4674 14627
 4775 4675 14628
 4776 4676 14629
 4777 4677 14630
 4778 4678 14631
 4779 4679 14632
 4780 4680 14633
 4781 4681 14634
 4782 4682 14635
 4783 4683 14636
 4784 4684 14637
 4785 4685 14638
 4786 4686 14639
 4787 4687 14640
 4788 4688 14641
 4789 4689 14642
 4790 4690 14643
 4791 4691 14644
 4792 4692 14645
 4793 4693 14646
 4794 4694 14647
 4795 4695 14648
 4796 4696 14649
 4797 4697 14650
 4798 4698 14651
 4799 4699 14652
 4801 4701 14653
 4802 4702 14654
 4803 4703 14655
 4804 4704 14656
 4805 4705 14657
 4806 4706 14658
 4807 4707 14659
 4808 4708 14660
 4809 4709 14661
 4810 4710 14662
 4811 4711 14663
 4812 4712 14664
 4813 4713 14665
 4814 4714 14666
 4815 4715 14667
 4816 4716 14668
 4817 4717 14669
 4818 4718 14670
 4819 4719 14671
 4820 4720 14672
 4821 4721 14673
 4822 4722 14674
 4823 4723 14675
 4824 4724 14676
 4825 4725 14677
 4826 4726 14678
 4827 4727 14679
 4828 4728 14680
 4829 4729 14681
 4830 4730 14682
 4831 4731 14683
 4832 4732 14684
 4833 4733 14685
 4834 4734 14686
 4835 4735 14687
 4836 4736 14688
 4837 4737 14689
 4838 4738 14690
 4839 4739 14691
 4840 4740 14692
 4841 4741 14693
 4842 4742 14694
 4843 4743 14695
 4844 4744 14696
 4845 4745 14697
 4846 4746 14698
 4847 4747 14699
 4848 4748 14700
 4849 4749 14701
 4850 4750 14702
 4851 4751 14703
 4852 4752 14704
 4853 4753 14705
 4854 4754 14706
 4855 4755 14707
 4856 4756 14708
 4857 4757 14709
 4858 4758 14710
 4859 4759 14711
 4860 4760 14712
 4861 4761 14713
 4862 4762 14714
 4863 4763 14715
 4864 4764 14716
 4865 4765 14717
 4866 4766 14718
 4867 4767 14719
 4868 4768 14720
 4869 4769 14721
 4870 4770 14722
 4871 4771 14723
 4872 4772 14724
 4873 4773 14725
 4874 4774 14726
 4875 4775 14727
 4876 4776 14728
 4877 4777 14729
 4878 4778 14730
 4879 4779 14731
 4880 4780 14732
 4881 4781 14733
 4882 4782 14734
 4883 4783 14735
 4884 4784 14736
 4885 4785 14737
 4886 4786 14738
 4887 4787 14739
 4888 4788 14740
 4889 4789 14741
 4890 4790 14742
 4891 4791 14743
 4892 4792 14744
 4893 4793 14745
 4894 4794 14746
 4895 4795 14747
 4896 4796 14748
 4897 4797 14749
 4898 4798 14750
 4899 4799 14751
 4901 4801 14752
 4902 4802 14753
 4903 4803 14754
 4904 4804 14755
 4905 4805 14756
 4906 4806 14757
 4907 4807 14758
 4908 4808 14759
 4909 4809 14760
 4910 4810 14761
 4911 4811 14762
 4912 4812 14763
 4913 4813 14764
 4914 4814 14765
 4915 4815 14766
 4916 4816 14767
 4917 4817 14768
 4918 4818 14769
 4919 4819 14770
 4920 4820 14771
 4921 4821 14772
 4922 4822 14773
 4923 4823 14774
 4924 4824 14775
 4925 4825 14776
 4926 4826 14777
 4927 4827 14778
 4928 4828 14779
 4929 4829 14780
 4930 4830 14781
 4931 4831 14782
 4932 4832 14783
 4933 4833 14784
 4934 4834 14785
 4935 4835 14786
 4936 4836 14787
 4937 4837 14788
 4938 4838 14789
 4939 4839 14790
 4940 4840 14791
 4941 4841 14792
 4942 4842 14793
 4943 4843 14794
 4944 4844 14795
 4945 4845 14796
 4946 4846 14797
 4947 4847 14798
 4948 4848 14799
 4949 4849 14800
 4950 4850 14801
 4951 4851 14802
 4952 4852 14803
 4953 4853 14804
 4954 4854 14805
 4955 4855 14806
 4956 4856 14807
 4957 4857 14808
 4958 4858 14809
 4959 4859 14810
 4960 4860 14811
 4961 4861 14812
 4962 4862 14813
 4963 4863 14814
 4964 4864 14815
 4965 4865 14816
 4966 4866 14817
 4967 4867 14818
 4968 4868 14819
 4969 4869 14820
 4970 4870 14821
 4971 4871 14822
 4972 4872 14823
 4973 4873 14824
 4974 4874 14825
 4975 4875 14826
 4976 4876 14827
 4977 4877 14828
 4978 4878 14829
 4979 4879 14830
 4980 4880 14831
 4981 4881 14832
 4982 4882 14833
 4983 4883 14834
 4984 4884 14835
 4985 4885 14836
 4986 4886 14837
 4987 4887 14838
 4988 4888 14839
 4989 4889 14840
 4990 4890 14841
 4991 4891 14842
 4992 4892 14843
 4993 4893 14844
 4994 4894 14845
 4995 4895 14846
 4996 4896 14847
 4997 4897 14848
 4998 4898 14849
 4999 4899 14850
 5001 4901 14851
 5002 4902 14852
 5003 4903 14853
 5004 4904 14854
 5005 4905 14855
 5006 4906 14856
 5007 4907 14857
 5008 4908 14858
 5009 4909 14859
 5010 4910 14860
 5011 4911 14861
 5012 4912 14862
 5013 4913 14863
 5014 4914 14864
 5015 4915 14865
 5016 4916 14866
 5017 4917 14867
 5018 4918 14868
 5019 4919 14869
 5020 4920 14870
 5021 4921 14871
 5022 4922 14872
 5023 4923 14873
 5024 4924 14874
 5025 4925 14875
 5026 4926 14876
 5027 4927 14877
 5028 4928 14878
 5029 4929 14879
 5030 4930 14880
 5031 4931 14881
 5032 4932 14882
 5033 4933 14883
 5034 4934 14884
 5035 4935 14885
 5036 4936 14886
 5037 4937 14887
 5038 4938 14888
 5039 4939 14889
 5040 4940 14890
 5041 4941 14891
 5042 4942 14892
 5043 4943 14893
 5044 4944 14894
 5045 4945 14895
 5046 4946 14896
 5047 4947 14897
 5048 4948 14898
 5049 4949 14899
 5050 4950 14900
 5051 4951 14901
 5052 4952 14902
 5053 4953 14903
 5054 4954 14904
 5055 4955 14905
 5056 4956 14906
 5057 4957 14907
 5058 4958 14908
 5059 4959 14909
 5060 4960 14910
 5061 4961 14911
 5062 4962 14912
 5063 4963 14913
 5064 4964 14914
 5065 4965 14915
 5066 4966 14916
 5067 4967 14917
 5068 4968 14918
 5069 4969 14919
 5070 4970 14920
 5071 4971 14921
 5072 4972 14922
 5073 4973 14923
 5074 4974 14924
 5075 4975 14925
 5076 4976 14926
 5077 4977 14927
 5078 4978 14928
 5079 4979 14929
 5080 4980 14930
 5081 4981 14931
 5082 4982 14932
 5083 4983 14933
 5084 4984 14934
 5085 4985 14935
 5086 4986 14936
 5087 4987 14937
 5088 4988 14938
 5089 4989 14939
 5090 4990 14940
 5091 4991 14941
 5092 4992 14942
 5093 4993 14943
 5094 4994 14944
 5095 4995 14945
 5096 4996 14946
 5097 4997 14947
 5098 4998 14948
 5099 4999 14949
 5101 5001 14950
 5102 5002 14951
 5103 5003 14952
 5104 5004 14953
 5105 5005 14954
 5106 5006 14955
 5107 5007 14956
 5108 5008 14957
 5109 5009 14958
 5110 5010 14959
 5111 5011 14960
 5112 5012 14961
 5113 5013 14962
 5114 5014 14963
 5115 5015 14964
 5116 5016 14965
 5117 5017 14966
 5118 5018 14967
 5119 5019 14968
 5120 5020 14969
 5121 5021 14970
 5122 5022 14971
 5123 5023 14972
 5124 5024 14973
 5125 5025 14974
 5126 5026 14975
 5127 5027 14976
 5128 5028 14977
 5129 5029 14978
 5130 5030 14979
 5131 5031 14980
 5132 5032 14981
 5133 5033 14982
 5134 5034 14983
 5135 5035 14984
 5136 5036 14985
 5137 5037 14986
 5138 5038 14987
 5139 5039 14988
 5140 5040 14989
 5141 5041 14990
 5142 5042 14991
 5143 5043 14992
 5144 5044 14993
 5145 5045 14994
 5146 5046 14995
 5147 5047 14996
 5148 5048 14997
 5149 5049 14998
 5150 5050 14999
 5151 5051 15000
 5152 5052 15001
 5153 5053 15002
 5154 5054 15003
 5155 5055 15004
 5156 5056 15005
 5157 5057 15006
 5158 5058 15007
 5159 5059 15008
 5160 5060 15009
 5161 5061 15010
 5162 5062 15011
 5163 5063 15012
 5164 5064 15013
 5165 5065 15014
 5166 5066 15015
 5167 5067 15016
 5168 5068 15017
 5169 5069 15018
 5170 5070 15019
 5171 5071 15020
 5172 5072 15021
 5173 5073 15022
 5174 5074 15023
 5175 5075 15024
 5176 5076 15025
 5177 5077 15026
 5178 5078 15027
 5179 5079 15028
 5180 5080 15029
 5181 5081 15030
 5182 5082 15031
 5183 5083 15032
 5184 5084 15033
 5185 5085 15034
 5186 5086 15035
 5187 5087 15036
 5188 5088 15037
 5189 5089 15038
 5190 5090 15039
 5191 5091 15040
 5192 5092 15041
 5193 5093 15042
 5194 5094 15043
 5195 5095 15044
 5196 5096 15045
 5197 5097 15046
 5198 5098 15047
 5199 5099 15048
 5201 5101 15049
 5202 5102 15050
 5203 5103 15051
 5204 5104 15052
 5205 5105 15053
 5206 5106 15054
 5207 5107 15055
 5208 5108 15056
 5209 5109 15057
 5210 5110 15058
 5211 5111 15059
 5212 5112 15060
 5213 5113 15061
 5214 5114 15062
 5215 5115 15063
 5216 5116 15064
 5217 5117 15065
 5218 5118 15066
 5219 5119 15067
 5220 5120 15068
 5221 5121 15069
 5222 5122 15070
 5223 5123 15071
 5224 5124 15072
 5225 5125 15073
 5226 5126 15074
 5227 5127 15075
 5228 5128 15076
 5229 5129 15077
 5230 5130 15078
 5231 5131 15079
 5232 5132 15080
 5233 5133 15081
 5234 5134 15082
 5235 5135 15083
 5236 5136 15084
 5237 5137 15085
 5238 5138 15086
 5239 5139 15087
 5240 5140 15088
 5241 5141 15089
 5242 5142 15090
 5243 5143 15091
 5244 5144 15092
 5245 5145 15093
 5246 5146 15094
 5247 5147 15095
 5248 5148 15096
 5249 5149 15097
 5250 5150 15098
 5251 5151 15099
 5252 5152 15100
 5253 5153 15101
 5254 5154 15102
 5255 5155 15103
 5256 5156 15104
 5257 5157 15105
 5258 5158 15106
 5259 5159 15107
 5260 5160 15108
 5261 5161 15109
 5262 5162 15110
 5263 5163 15111
 5264 5164 15112
 5265 5165 15113
 5266 5166 15114
 5267 5167 15115
 5268 5168 15116
 5269 5169 15117
 5270 5170 15118
 5271 5171 15119
 5272 5172 15120
 5273 5173 15121
 5274 5174 15122
 5275 5175 15123
 5276 5176 15124
 5277 5177 15125
 5278 5178 15126
 5279 5179 15127
 5280 5180 15128
 5281 5181 15129
 5282 5182 15130
 5283 5183 15131
 5284 5184 15132
 5285 5185 15133
 5286 5186 15134
 5287 5187 15135
 5288 5188 15136
 5289 5189 15137
 5290 5190 15138
 5291 5191 15139
 5292 5192 15140
 5293 5193 15141
 5294 5194 15142
 5295 5195 15143
 5296 5196 15144
 5297 5197 15145
 5298 5198 15146
 5299 5199 15147
 5301 5201 15148
 5302 5202 15149
 5303 5203 15150
 5304 5204 15151
 5305 5205 15152
 5306 5206 15153
 5307 5207 15154
 5308 5208 15155
 5309 5209 15156
 5310 5210 15157
 5311 5211 15158
 5312 5212 15159
 5313 5213 15160
 5314 5214 15161
 5315 5215 15162
 5316 5216 15163
 5317 5217 15164
 5318 5218 15165
 5319 5219 15166
 5320 5220 15167
 5321 5221 15168
 5322 5222 15169
 5323 5223 15170
 5324 5224 15171
 5325 5225 15172
 5326 5226 15173
 5327 5227 15174
 5328 5228 15175
 5329 5229 15176
 5330 5230 15177
 5331 5231 15178
 5332 5232 15179
 5333 5233 15180
 5334 5234 15181
 5335 5235 15182
 5336 5236 15183
 5337 5237 15184
 5338 5238 15185
 5339 5239 15186
 5340 5240 15187
 5341 5241 15188
 5342 5242 15189
 5343 5243 15190
 5344 5244 15191
 5345 5245 15192
 5346 5246 15193
 5347 5247 15194
 5348 5248 15195
 5349 5249 15196
 5350 5250 15197
 5351 5251 15198
 5352 5252 15199
 5353 5253 15200
 5354 5254 15201
 5355 5255 15202
 5356 5256 15203
 5357 5257 15204
 5358 5258 15205
 5359 5259 15206
 5360 5260 15207
 5361 5261 15208
 5362 5262 15209
 5363 5263 15210
 5364 5264 15211
 5365 5265 15212
 5366 5266 15213
 5367 5267 15214
 5368 5268 15215
 5369 5269 15216
 5370 5270 15217
 5371 5271 15218
 5372 5272 15219
 5373 5273 15220
 5374 5274 15221
 5375 5275 15222
 5376 5276 15223
 5377 5277 15224
 5378 5278 15225
 5379 5279 15226
 5380 5280 15227
 5381 5281 15228
 5382 5282 15229
 5383 5283 15230
 5384 5284 15231
 5385 5285 15232
 5386 5286 15233
 5387 5287 15234
 5388 5288 15235
 5389 5289 15236
 5390 5290 15237
 5391 5291 15238
 5392 5292 15239
 5393 5293 15240
 5394 5294 15241
 5395 5295 15242
 5396 5296 15243
 5397 5297 15244
 5398 5298 15245
 5399 5299 15246
 5401 5301 15247
 5402 5302 15248
 5403 5303 15249
 5404 5304 15250
 5405 5305 15251
 5406 5306 15252
 5407 5307 15253
 5408 5308 15254
 5409 5309 15255
 5410 5310 15256
 5411 5311 15257
 5412 5312 15258
 5413 5313 15259
 5414 5314 15260
 5415 5315 15261
 5416 5316 15262
 5417 5317 15263
 5418 5318 15264
 5419 5319 15265
 5420 5320 15266
 5421 5321 15267
 5422 5322 15268
 5423 5323 15269
 5424 5324 15270
 5425 5325 15271
 5426 5326 15272
 5427 5327 15273
 5428 5328 15274
 5429 5329 15275
 5430 5330 15276
 5431 5331 15277
 5432 5332 15278
 5433 5333 15279
 5434 5334 15280
 5435 5335 15281
 5436 5336 15282
 5437 5337 15283
 5438 5338 15284
 5439 5339 15285
 5440 5340 15286
 5441 5341 15287
 5442 5342 15288
 5443 5343 15289
 5444 5344 15290
 5445 5345 15291
 5446 5346 15292
 5447 5347 15293
 5448 5348 15294
 5449 5349 15295
 5450 5350 15296
 5451 5351 15297
 5452 5352 15298
 5453 5353 15299
 5454 5354 15300
 5455 5355 15301
 5456 5356 15302
 5457 5357 15303
 5458 5358 15304
 5459 5359 15305
 5460 5360 15306
 5461 5361 15307
 5462 5362 15308
 5463 5363 15309
 5464 5364 15310
 5465 5365 15311
 5466 5366 15312
 5467 5367 15313
 5468 5368 15314
 5469 5369 15315
 5470 5370 15316
 5471 5371 15317
 5472 5372 15318
 5473 5373 15319
 5474 5374 15320
 5475 5375 15321
 5476 5376 15322
 5477 5377 15323
 5478 5378 15324
 5479 5379 15325
 5480 5380 15326
 5481 5381 15327
 5482 5382 15328
 5483 5383 15329
 5484 5384 15330
 5485 5385 15331
 5486 5386 15332
 5487 5387 15333
 5488 5388 15334
 5489 5389 15335
 5490 5390 15336
 5491 5391 15337
 5492 5392 15338
 5493 5393 15339
 5494 5394 15340
 5495 5395 15341
 5496 5396 15342
 5497 5397 15343
 5498 5398 15344
 5499 5399 15345
 5501 5401 15346
 5502 5402 15347
 5503 5403 15348
 5504 5404 15349
 5505 5405 15350
 5506 5406 15351
 5507 5407 15352
 5508 5408 15353
 5509 5409 15354
 5510 5410 15355
 5511 5411 15356
 5512 5412 15357
 5513 5413 15358
 5514 5414 15359
 5515 5415 15360
 5516 5416 15361
 5517 5417 15362
 5518 5418 15363
 5519 5419 15364
 5520 5420 15365
 5521 5421 15366
 5522 5422 15367
 5523 5423 15368
 5524 5424 15369
 5525 5425 15370
 5526 5426 15371
 5527 5427 15372
 5528 5428 15373
 5529 5429 15374
 5530 5430 15375
 5531 5431 15376
 5532 5432 15377
 5533 5433 15378
 5534 5434 15379
 5535 5435 15380
 5536 5436 15381
 5537 5437 15382
 5538 5438 15383
 5539 5439 15384
 5540 5440 15385
 5541 5441 15386
 5542 5442 15387
 5543 5443 15388
 5544 5444 15389
 5545 5445 15390
 5546 5446 15391
 5547 5447 15392
 5548 5448 15393
 5549 5449 15394
 5550 5450 15395
 5551 5451 15396
 5552 5452 15397
 5553 5453 15398
 5554 5454 15399
 5555 5455 15400
 5556 5456 15401
 5557 5457 15402
 5558 5458 15403
 5559 5459 15404
 5560 5460 15405
 5561 5461 15406
 5562 5462 15407
 5563 5463 15408
 5564 5464 15409
 5565 5465 15410
 5566 5466 15411
 5567 5467 15412
 5568 5468 15413
 5569 5469 15414
 5570 5470 15415
 5571 5471 15416
 5572 5472 15417
 5573 5473 15418
 5574 5474 15419
 5575 5475 15420
 5576 5476 15421
 5577 5477 15422
 5578 5478 15423
 5579 5479 15424
 5580 5480 15425
 5581 5481 15426
 5582 5482 15427
 5583 5483 15428
 5584 5484 15429
 5585 5485 15430
 5586 5486 15431
 5587 5487 15432
 5588 5488 15433
 5589 5489 15434
 5590 5490 15435
 5591 5491 15436
 5592 5492 15437
 5593 5493 15438
 5594 5494 15439
 5595 5495 15440
 5596 5496 15441
 5597 5497 15442
 5598 5498 15443
 5599 5499 15444
 5601 5501 15445
 5602 5502 15446
 5603 5503 15447
 5604 5504 15448
 5605 5505 15449
 5606 5506 15450
 5607 5507 15451
 5608 5508 15452
 5609 5509 15453
 5610 5510 15454
 5611 5511 15455
 5612 5512 15456
 5613 5513 15457
 5614 5514 15458
 5615 5515 15459
 5616 5516 15460
 5617 5517 15461
 5618 5518 15462
 5619 5519 15463
 5620 5520 15464
 5621 5521 15465
 5622 5522 15466
 5623 5523 15467
 5624 5524 15468
 5625 5525 15469
 5626 5526 15470
 5627 5527 15471
 5628 5528 15472
 5629 5529 15473
 5630 5530 15474
 5631 5531 15475
 5632 5532 15476
 5633 5533 15477
 5634 5534 15478
 5635 5535 15479
 5636 5536 15480
 5637 5537 15481
 5638 5538 15482
 5639 5539 15483
 5640 5540 15484
 5641 5541 15485
 5642 5542 15486
 5643 5543 15487
 5644 5544 15488
 5645 5545 15489
 5646 5546 15490
 5647 5547 15491
 5648 5548 15492
 5649 5549 15493
 5650 5550 15494
 5651 5551 15495
 5652 5552 15496
 5653 5553 15497
 5654 5554 15498
 5655 5555 15499
 5656 5556 15500
 5657 5557 15501
 5658 5558 15502
 5659 5559 15503
 5660 5560 15504
 5661 5561 15505
 5662 5562 15506
 5663 5563 15507
 5664 5564 15508
 5665 5565 15509
 5666 5566 15510
 5667 5567 15511
 5668 5568 15512
 5669 5569 15513
 5670 5570 15514
 5671 5571 15515
 5672 5572 15516
 5673 5573 15517
 5674 5574 15518
 5675 5575 15519
 5676 5576 15520
 5677 5577 15521
 5678 5578 15522
 5679 5579 15523
 5680 5580 15524
 5681 5581 15525
 5682 5582 15526
 5683 5583 15527
 5684 5584 15528
 5685 5585 15529
 5686 5586 15530
 5687 5587 15531
 5688 5588 15532
 5689 5589 15533
 5690 5590 15534
 5691 5591 15535
 5692 5592 15536
 5693 5593 15537
 5694 5594 15538
 5695 5595 15539
 5696 5596 15540
 5697 5597 15541
 5698 5598 15542
 5699 5599 15543
 5701 5601 15544
 5702 5602 15545
 5703 5603 15546
 5704 5604 15547
 5705 5605 15548
 5706 5606 15549
 5707 5607 15550
 5708 5608 15551
 5709 5609 15552
 5710 5610 15553
 5711 5611 15554
 5712 5612 15555
 5713 5613 15556
 5714 5614 15557
 5715 5615 15558
 5716 5616 15559
 5717 5617 15560
 5718 5618 15561
 5719 5619 15562
 5720 5620 15563
 5721 5621 15564
 5722 5622 15565
 5723 5623 15566
 5724 5624 15567
 5725 5625 15568
 5726 5626 15569
 5727 5627 15570
 5728 5628 15571
 5729 5629 15572
 5730 5630 15573
 5731 5631 15574
 5732 5632 15575
 5733 5633 15576
 5734 5634 15577
 5735 5635 15578
 5736 5636 15579
 5737 5637 15580
 5738 5638 15581
 5739 5639 15582
 5740 5640 15583
 5741 5641 15584
 5742 5642 15585
 5743 5643 15586
 5744 5644 15587
 5745 5645 15588
 5746 5646 15589
 5747 5647 15590
 5748 5648 15591
 5749 5649 15592
 5750 5650 15593
 5751 5651 15594
 5752 5652 15595
 5753 5653 15596
 5754 5654 15597
 5755 5655 15598
 5756 5656 15599
 5757 5657 15600
 5758 5658 15601
 5759 5659 15602
 5760 5660 15603
 5761 5661 15604
 5762 5662 15605
 5763 5663 15606
 5764 5664 15607
 5765 5665 15608
 5766 5666 15609
 5767 5667 15610
 5768 5668 15611
 5769 5669 15612
 5770 5670 15613
 5771 5671 15614
 5772 5672 15615
 5773 5673 15616
 5774 5674 15617
 5775 5675 15618
 5776 5676 15619
 5777 5677 15620
 5778 5678 15621
 5779 5679 15622
 5780 5680 15623
 5781 5681 15624
 5782 5682 15625
 5783 5683 15626
 5784 5684 15627
 5785 5685 15628
 5786 5686 15629
 5787 5687 15630
 5788 5688 15631
 5789 5689 15632
 5790 5690 15633
 5791 5691 15634
 5792 5692 15635
 5793 5693 15636
 5794 5694 15637
 5795 5695 15638
 5796 5696 15639
 5797 5697 15640
 5798 5698 15641
 5799 5699 15642
 5801 5701 15643
 5802 5702 15644
 5803 5703 15645
 5804 5704 15646
 5805 5705 15647
 5806 5706 15648
 5807 5707 15649
 5808 5708 15650
 5809 5709 15651
 5810 5710 15652
 5811 5711 15653
 5812 5712 15654
 5813 5713 15655
 5814 5714 15656
 5815 5715 15657
 5816 5716 15658
 5817 5717 15659
 5818 5718 15660
 5819 5719 15661
 5820 5720 15662
 5821 5721 15663
 5822 5722 15664
 5823 5723 15665
 5824 5724 15666
 5825 5725 15667
 5826 5726 15668
 5827 5727 15669
 5828 5728 15670
 5829 5729 15671
 5830 5730 15672
 5831 5731 15673
 5832 5732 15674
 5833 5733 15675
 5834 5734 15676
 5835 5735 15677
 5836 5736 15678
 5837 5737 15679
 5838 5738 15680
 5839 5739 15681
 5840 5740 15682
 5841 5741 15683
 5842 5742 15684
 5843 5743 15685
 5844 5744 15686
 5845 5745 15687
 5846 5746 15688
 5847 5747 15689
 5848 5748 15690
 5849 5749 15691
 5850 5750 15692
 5851 5751 15693
 5852 5752 15694
 5853 5753 15695
 5854 5754 15696
 5855 5755 15697
 5856 5756 15698
 5857 5757 15699
 5858 5758 15700
 5859 5759 15701
 5860 5760 15702
 5861 5761 15703
 5862 5762 15704
 5863 5763 15705
 5864 5764 15706
 5865 5765 15707
 5866 5766 15708
 5867 5767 15709
 5868 5768 15710
 5869 5769 15711
 5870 5770 15712
 5871 5771 15713
 5872 5772 15714
 5873 5773 15715
 5874 5774 15716
 5875 5775 15717
 5876 5776 15718
 5877 5777 15719
 5878 5778 15720
 5879 5779 15721
 5880 5780 15722
 5881 5781 15723
 5882 5782 15724
 5883 5783 15725
 5884 5784 15726
 5885 5785 15727
 5886 5786 15728
 5887 5787 15729
 5888 5788 15730
 5889 5789 15731
 5890 5790 15732
 5891 5791 15733
 5892 5792 15734
 5893 5793 15735
 5894 5794 15736
 5895 5795 15737
 5896 5796 15738
 5897 5797 15739
 5898 5798 15740
 5899 5799 15741
 5901 5801 15742
 5902 5802 15743
 5903 5803 15744
 5904 5804 15745
 5905 5805 15746
 5906 5806 15747
 5907 5807 15748
 5908 5808 15749
 5909 5809 15750
 5910 5810 15751
 5911 5811 15752
 5912 5812 15753
 5913 5813 15754
 5914 5814 15755
 5915 5815 15756
 5916 5816 15757
 5917 5817 15758
 5918 5818 15759
 5919 5819 15760
 5920 5820 15761
 5921 5821 15762
 5922 5822 15763
 5923 5823 15764
 5924 5824 15765
 5925 5825 15766
 5926 5826 15767
 5927 5827 15768
 5928 5828 15769
 5929 5829 15770
 5930 5830 15771
 5931 5831 15772
 5932 5832 15773
 5933 5833 15774
 5934 5834 15775
 5935 5835 15776
 5936 5836 15777
 5937 5837 15778
 5938 5838 15779
 5939 5839 15780
 5940 5840 15781
 5941 5841 15782
 5942 5842 15783
 5943 5843 15784
 5944 5844 15785
 5945 5845 15786
 5946 5846 15787
 5947 5847 15788
 5948 5848 15789
 5949 5849 15790
 5950 5850 15791
 5951 5851 15792
 5952 5852 15793
 5953 5853 15794
 5954 5854 15795
 5955 5855 15796
 5956 5856 15797
 5957 5857 15798
 5958 5858 15799
 5959 5859 15800
 5960 5860 15801
 5961 5861 15802
 5962 5862 15803
 5963 5863 15804
 5964 5864 15805
 5965 5865 15806
 5966 5866 15807
 5967 5867 15808
 5968 5868 15809
 5969 5869 15810
 5970 5870 15811
 5971 5871 15812
 5972 5872 15813
 5973 5873 15814
 5974 5874 15815
 5975 5875 15816
 5976 5876 15817
 5977 5877 15818
 5978 5878 15819
 5979 5879 15820
 5980 5880 15821
 5981 5881 15822
 5982 5882 15823
 5983 5883 15824
 5984 5884 15825
 5985 5885 15826
 5986 5886 15827
 5987 5887 15828
 5988 5888 15829
 5989 5889 15830
 5990 5890 15831
 5991 5891 15832
 5992 5892 15833
 5993 5893 15834
 5994 5894 15835
 5995 5895 15836
 5996 5896 15837
 5997 5897 15838
 5998 5898 15839
 5999 5899 15840
 6001 5901 15841
 6002 5902 15842
 6003 5903 15843
 6004 5904 15844
 6005 5905 15845
 6006 5906 15846
 6007 5907 15847
 6008 5908 15848
 6009 5909 15849
 6010 5910 15850
 6011 5911 15851
 6012 5912 15852
 6013 5913 15853
 6014 5914 15854
 6015 5915 15855
 6016 5916 15856
 6017 5917 15857
 6018 5918 15858
 6019 5919 15859
 6020 5920 15860
 6021 5921 15861
 6022 5922 15862
 6023 5923 15863
 6024 5924 15864
 6025 5925 15865
 6026 5926 15866
 6027 5927 15867
 6028 5928 15868
 6029 5929 15869
 6030 5930 15870
 6031 5931 15871
 6032 5932 15872
 6033 5933 15873
 6034 5934 15874
 6035 5935 15875
 6036 5936 15876
 6037 5937 15877
 6038 5938 15878
 6039 5939 15879
 6040 5940 15880
 6041 5941 15881
 6042 5942 15882
 6043 5943 15883
 6044 5944 15884
 6045 5945 15885
 6046 5946 15886
 6047 5947 15887
 6048 5948 15888
 6049 5949 15889
 6050 5950 15890
 6051 5951 15891
 6052 5952 15892
 6053 5953 15893
 6054 5954 15894
 6055 5955 15895
 6056 5956 15896
 6057 5957 15897
 6058 5958 15898
 6059 5959 15899
 6060 5960 15900
 6061 5961 15901
 6062 5962 15902
 6063 5963 15903
 6064 5964 15904
 6065 5965 15905
 6066 5966 15906
 6067 5967 15907
 6068 5968 15908
 6069 5969 15909
 6070 5970 15910
 6071 5971 15911
 6072 5972 15912
 6073 5973 15913
 6074 5974 15914
 6075 5975 15915
 6076 5976 15916
 6077 5977 15917
 6078 5978 15918
 6079 5979 15919
 6080 5980 15920
 6081 5981 15921
 6082 5982 15922
 6083 5983 15923
 6084 5984 15924
 6085 5985 15925
 6086 5986 15926
 6087 5987 15927
 6088 5988 15928
 6089 5989 15929
 6090 5990 15930
 6091 5991 15931
 6092 5992 15932
 6093 5993 15933
 6094 5994 15934
 6095 5995 15935
 6096 5996 15936
 6097 5997 15937
 6098 5998 15938
 6099 5999 15939
 6101 6001 15940
 6102 6002 15941
 6103 6003 15942
 6104 6004 15943
 6105 6005 15944
 6106 6006 15945
 6107 6007 15946
 6108 6008 15947
 6109 6009 15948
 6110 6010 15949
 6111 6011 15950
 6112 6012 15951
 6113 6013 15952
 6114 6014 15953
 6115 6015 15954
 6116 6016 15955
 6117 6017 15956
 6118 6018 15957
 6119 6019 15958
 6120 6020 15959
 6121 6021 15960
 6122 6022 15961
 6123 6023 15962
 6124 6024 15963
 6125 6025 15964
 6126 6026 15965
 6127 6027 15966
 6128 6028 15967
 6129 6029 15968
 6130 6030 15969
 6131 6031 15970
 6132 6032 15971
 6133 6033 15972
 6134 6034 15973
 6135 6035 15974
 6136 6036 15975
 6137 6037 15976
 6138 6038 15977
 6139 6039 15978
 6140 6040 15979
 6141 6041 15980
 6142 6042 15981
 6143 6043 15982
 6144 6044 15983
 6145 6045 15984
 6146 6046 15985
 6147 6047 15986
 6148 6048 15987
 6149 6049 15988
 6150 6050 15989
 6151 6051 15990
 6152 6052 15991
 6153 6053 15992
 6154 6054 15993
 6155 6055 15994
 6156 6056 15995
 6157 6057 15996
 6158 6058 15997
 6159 6059 15998
 6160 6060 15999
 6161 6061 16000
 6162 6062 16001
 6163 6063 16002
 6164 6064 16003
 6165 6065 16004
 6166 6066 16005
 6167 6067 16006
 6168 6068 16007
 6169 6069 16008
 6170 6070 16009
 6171 6071 16010
 6172 6072 16011
 6173 6073 16012
 6174 6074 16013
 6175 6075 16014
 6176 6076 16015
 6177 6077 16016
 6178 6078 16017
 6179 6079 16018
 6180 6080 16019
 6181 6081 16020
 6182 6082 16021
 6183 6083 16022
 6184 6084 16023
 6185 6085 16024
 6186 6086 16025
 6187 6087 16026
 6188 6088 16027
 6189 6089 16028
 6190 6090 16029
 6191 6091 16030
 6192 6092 16031
 6193 6093 16032
 6194 6094 16033
 6195 6095 16034
 6196 6096 16035
 6197 6097 16036
 6198 6098 16037
 6199 6099 16038
 6201 6101 16039
 6202 6102 16040
 6203 6103 16041
 6204 6104 16042
 6205 6105 16043
 6206 6106 16044
 6207 6107 16045
 6208 6108 16046
 6209 6109 16047
 6210 6110 16048
 6211 6111 16049
 6212 6112 16050
 6213 6113 16051
 6214 6114 16052
 6215 6115 16053
 6216 6116 16054
 6217 6117 16055
 6218 6118 16056
 6219 6119 16057
 6220 6120 16058
 6221 6121 16059
 6222 6122 16060
 6223 6123 16061
 6224 6124 16062
 6225 6125 16063
 6226 6126 16064
 6227 6127 16065
 6228 6128 16066
 6229 6129 16067
 6230 6130 16068
 6231 6131 16069
 6232 6132 16070
 6233 6133 16071
 6234 6134 16072
 6235 6135 16073
 6236 6136 16074
 6237 6137 16075
 6238 6138 16076
 6239 6139 16077
 6240 6140 16078
 6241 6141 16079
 6242 6142 16080
 6243 6143 16081
 6244 6144 16082
 6245 6145 16083
 6246 6146 16084
 6247 6147 16085
 6248 6148 16086
 6249 6149 16087
 6250 6150 16088
 6251 6151 16089
 6252 6152 16090
 6253 6153 16091
 6254 6154 16092
 6255 6155 16093
 6256 6156 16094
 6257 6157 16095
 6258 6158 16096
 6259 6159 16097
 6260 6160 16098
 6261 6161 16099
 6262 6162 16100
 6263 6163 16101
 6264 6164 16102
 6265 6165 16103
 6266 6166 16104
 6267 6167 16105
 6268 6168 16106
 6269 6169 16107
 6270 6170 16108
 6271 6171 16109
 6272 6172 16110
 6273 6173 16111
 6274 6174 16112
 6275 6175 16113
 6276 6176 16114
 6277 6177 16115
 6278 6178 16116
 6279 6179 16117
 6280 6180 16118
 6281 6181 16119
 6282 6182 16120
 6283 6183 16121
 6284 6184 16122
 6285 6185 16123
 6286 6186 16124
 6287 6187 16125
 6288 6188 16126
 6289 6189 16127
 6290 6190 16128
 6291 6191 16129
 6292 6192 16130
 6293 6193 16131
 6294 6194 16132
 6295 6195 16133
 6296 6196 16134
 6297 6197 16135
 6298 6198 16136
 6299 6199 16137
 6301 6201 16138
 6302 6202 16139
 6303 6203 16140
 6304 6204 16141
 6305 6205 16142
 6306 6206 16143
 6307 6207 16144
 6308 6208 16145
 6309 6209 16146
 6310 6210 16147
 6311 6211 16148
 6312 6212 16149
 6313 6213 16150
 6314 6214 16151
 6315 6215 16152
 6316 6216 16153
 6317 6217 16154
 6318 6218 16155
 6319 6219 16156
 6320 6220 16157
 6321 6221 16158
 6322 6222 16159
 6323 6223 16160
 6324 6224 16161
 6325 6225 16162
 6326 6226 16163
 6327 6227 16164
 6328 6228 16165
 6329 6229 16166
 6330 6230 16167
 6331 6231 16168
 6332 6232 16169
 6333 6233 16170
 6334 6234 16171
 6335 6235 16172
 6336 6236 16173
 6337 6237 16174
 6338 6238 16175
 6339 6239 16176
 6340 6240 16177
 6341 6241 16178
 6342 6242 16179
 6343 6243 16180
 6344 6244 16181
 6345 6245 16182
 6346 6246 16183
 6347 6247 16184
 6348 6248 16185
 6349 6249 16186
 6350 6250 16187
 6351 6251 16188
 6352 6252 16189
 6353 6253 16190
 6354 6254 16191
 6355 6255 16192
 6356 6256 16193
 6357 6257 16194
 6358 6258 16195
 6359 6259 16196
 6360 6260 16197
 6361 6261 16198
 6362 6262 16199
 6363 6263 16200
 6364 6264 16201
 6365 6265 16202
 6366 6266 16203
 6367 6267 16204
 6368 6268 16205
 6369 6269 16206
 6370 6270 16207
 6371 6271 16208
 6372 6272 16209
 6373 6273 16210
 6374 6274 16211
 6375 6275 16212
 6376 6276 16213
 6377 6277 16214
 6378 6278 16215
 6379 6279 16216
 6380 6280 16217
 6381 6281 16218
 6382 6282 16219
 6383 6283 16220
 6384 6284 16221
 6385 6285 16222
 6386 6286 16223
 6387 6287 16224
 6388 6288 16225
 6389 6289 16226
 6390 6290 16227
 6391 6291 16228
 6392 6292 16229
 6393 6293 16230
 6394 6294 16231
 6395 6295 16232
 6396 6296 16233
 6397 6297 16234
 6398 6298 16235
 6399 6299 16236
 6401 6301 16237
 6402 6302 16238
 6403 6303 16239
 6404 6304 16240
 6405 6305 16241
 6406 6306 16242
 6407 6307 16243
 6408 6308 16244
 6409 6309 16245
 6410 6310 16246
 6411 6311 16247
 6412 6312 16248
 6413 6313 16249
 6414 6314 16250
 6415 6315 16251
 6416 6316 16252
 6417 6317 16253
 6418 6318 16254
 6419 6319 16255
 6420 6320 16256
 6421 6321 16257
 6422 6322 16258
 6423 6323 16259
 6424 6324 16260
 6425 6325 16261
 6426 6326 16262
 6427 6327 16263
 6428 6328 16264
 6429 6329 16265
 6430 6330 16266
 6431 6331 16267
 6432 6332 16268
 6433 6333 16269
 6434 6334 16270
 6435 6335 16271
 6436 6336 16272
 6437 6337 16273
 6438 6338 16274
 6439 6339 16275
 6440 6340 16276
 6441 6341 16277
 6442 6342 16278
 6443 6343 16279
 6444 6344 16280
 6445 6345 16281
 6446 6346 16282
 6447 6347 16283
 6448 6348 16284
 6449 6349 16285
 6450 6350 16286
 6451 6351 16287
 6452 6352 16288
 6453 6353 16289
 6454 6354 16290
 6455 6355 16291
 6456 6356 16292
 6457 6357 16293
 6458 6358 16294
 6459 6359 16295
 6460 6360 16296
 6461 6361 16297
 6462 6362 16298
 6463 6363 16299
 6464 6364 16300
 6465 6365 16301
 6466 6366 16302
 6467 6367 16303
 6468 6368 16304
 6469 6369 16305
 6470 6370 16306
 6471 6371 16307
 6472 6372 16308
 6473 6373 16309
 6474 6374 16310
 6475 6375 16311
 6476 6376 16312
 6477 6377 16313
 6478 6378 16314
 6479 6379 16315
 6480 6380 16316
 6481 6381 16317
 6482 6382 16318
 6483 6383 16319
 6484 6384 16320
 6485 6385 16321
 6486 6386 16322
 6487 6387 16323
 6488 6388 16324
 6489 6389 16325
 6490 6390 16326
 6491 6391 16327
 6492 6392 16328
 6493 6393 16329
 6494 6394 16330
 6495 6395 16331
 6496 6396 16332
 6497 6397 16333
 6498 6398 16334
 6499 6399 16335
 6501 6401 16336
 6502 6402 16337
 6503 6403 16338
 6504 6404 16339
 6505 6405 16340
 6506 6406 16341
 6507 6407 16342
 6508 6408 16343
 6509 6409 16344
 6510 6410 16345
 6511 6411 16346
 6512 6412 16347
 6513 6413 16348
 6514 6414 16349
 6515 6415 16350
 6516 6416 16351
 6517 6417 16352
 6518 6418 16353
 6519 6419 16354
 6520 6420 16355
 6521 6421 16356
 6522 6422 16357
 6523 6423 16358
 6524 6424 16359
 6525 6425 16360
 6526 6426 16361
 6527 6427 16362
 6528 6428 16363
 6529 6429 16364
 6530 6430 16365
 6531 6431 16366
 6532 6432 16367
 6533 6433 16368
 6534 6434 16369
 6535 6435 16370
 6536 6436 16371
 6537 6437 16372
 6538 6438 16373
 6539 6439 16374
 6540 6440 16375
 6541 6441 16376
 6542 6442 16377
 6543 6443 16378
 6544 6444 16379
 6545 6445 16380
 6546 6446 16381
 6547 6447 16382
 6548 6448 16383
 6549 6449 16384
 6550 6450 16385
 6551 6451 16386
 6552 6452 16387
 6553 6453 16388
 6554 6454 16389
 6555 6455 16390
 6556 6456 16391
 6557 6457 16392
 6558 6458 16393
 6559 6459 16394
 6560 6460 16395
 6561 6461 16396
 6562 6462 16397
 6563 6463 16398
 6564 6464 16399
 6565 6465 16400
 6566 6466 16401
 6567 6467 16402
 6568 6468 16403
 6569 6469 16404
 6570 6470 16405
 6571 6471 16406
 6572 6472 16407
 6573 6473 16408
 6574 6474 16409
 6575 6475 16410
 6576 6476 16411
 6577 6477 16412
 6578 6478 16413
 6579 6479 16414
 6580 6480 16415
 6581 6481 16416
 6582 6482 16417
 6583 6483 16418
 6584 6484 16419
 6585 6485 16420
 6586 6486 16421
 6587 6487 16422
 6588 6488 16423
 6589 6489 16424
 6590 6490 16425
 6591 6491 16426
 6592 6492 16427
 6593 6493 16428
 6594 6494 16429
 6595 6495 16430
 6596 6496 16431
 6597 6497 16432
 6598 6498 16433
 6599 6499 16434
 6601 6501 16435
 6602 6502 16436
 6603 6503 16437
 6604 6504 16438
 6605 6505 16439
 6606 6506 16440
 6607 6507 16441
 6608 6508 16442
 6609 6509 16443
 6610 6510 16444
 6611 6511 16445
 6612 6512 16446
 6613 6513 16447
 6614 6514 16448
 6615 6515 16449
 6616 6516 16450
 6617 6517 16451
 6618 6518 16452
 6619 6519 16453
 6620 6520 16454
 6621 6521 16455
 6622 6522 16456
 6623 6523 16457
 6624 6524 16458
 6625 6525 16459
 6626 6526 16460
 6627 6527 16461
 6628 6528 16462
 6629 6529 16463
 6630 6530 16464
 6631 6531 16465
 6632 6532 16466
 6633 6533 16467
 6634 6534 16468
 6635 6535 16469
 6636 6536 16470
 6637 6537 16471
 6638 6538 16472
 6639 6539 16473
 6640 6540 16474
 6641 6541 16475
 6642 6542 16476
 6643 6543 16477
 6644 6544 16478
 6645 6545 16479
 6646 6546 16480
 6647 6547 16481
 6648 6548 16482
 6649 6549 16483
 6650 6550 16484
 6651 6551 16485
 6652 6552 16486
 6653 6553 16487
 6654 6554 16488
 6655 6555 16489
 6656 6556 16490
 6657 6557 16491
 6658 6558 16492
 6659 6559 16493
 6660 6560 16494
 6661 6561 16495
 6662 6562 16496
 6663 6563 16497
 6664 6564 16498
 6665 6565 16499
 6666 6566 16500
 6667 6567 16501
 6668 6568 16502
 6669 6569 16503
 6670 6570 16504
 6671 6571 16505
 6672 6572 16506
 6673 6573 16507
 6674 6574 16508
 6675 6575 16509
 6676 6576 16510
 6677 6577 16511
 6678 6578 16512
 6679 6579 16513
 6680 6580 16514
 6681 6581 16515
 6682 6582 16516
 6683 6583 16517
 6684 6584 16518
 6685 6585 16519
 6686 6586 16520
 6687 6587 16521
 6688 6588 16522
 6689 6589 16523
 6690 6590 16524
 6691 6591 16525
 6692 6592 16526
 6693 6593 16527
 6694 6594 16528
 6695 6595 16529
 6696 6596 16530
 6697 6597 16531
 6698 6598 16532
 6699 6599 16533
 6701 6601 16534
 6702 6602 16535
 6703 6603 16536
 6704 6604 16537
 6705 6605 16538
 6706 6606 16539
 6707 6607 16540
 6708 6608 16541
 6709 6609 16542
 6710 6610 16543
 6711 6611 16544
 6712 6612 16545
 6713 6613 16546
 6714 6614 16547
 6715 6615 16548
 6716 6616 16549
 6717 6617 16550
 6718 6618 16551
 6719 6619 16552
 6720 6620 16553
 6721 6621 16554
 6722 6622 16555
 6723 6623 16556
 6724 6624 16557
 6725 6625 16558
 6726 6626 16559
 6727 6627 16560
 6728 6628 16561
 6729 6629 16562
 6730 6630 16563
 6731 6631 16564
 6732 6632 16565
 6733 6633 16566
 6734 6634 16567
 6735 6635 16568
 6736 6636 16569
 6737 6637 16570
 6738 6638 16571
 6739 6639 16572
 6740 6640 16573
 6741 6641 16574
 6742 6642 16575
 6743 6643 16576
 6744 6644 16577
 6745 6645 16578
 6746 6646 16579
 6747 6647 16580
 6748 6648 16581
 6749 6649 16582
 6750 6650 16583
 6751 6651 16584
 6752 6652 16585
 6753 6653 16586
 6754 6654 16587
 6755 6655 16588
 6756 6656 16589
 6757 6657 16590
 6758 6658 16591
 6759 6659 16592
 6760 6660 16593
 6761 6661 16594
 6762 6662 16595
 6763 6663 16596
 6764 6664 16597
 6765 6665 16598
 6766 6666 16599
 6767 6667 16600
 6768 6668 16601
 6769 6669 16602
 6770 6670 16603
 6771 6671 16604
 6772 6672 16605
 6773 6673 16606
 6774 6674 16607
 6775 6675 16608
 6776 6676 16609
 6777 6677 16610
 6778 6678 16611
 6779 6679 16612
 6780 6680 16613
 6781 6681 16614
 6782 6682 16615
 6783 6683 16616
 6784 6684 16617
 6785 6685 16618
 6786 6686 16619
 6787 6687 16620
 6788 6688 16621
 6789 6689 16622
 6790 6690 16623
 6791 6691 16624
 6792 6692 16625
 6793 6693 16626
 6794 6694 16627
 6795 6695 16628
 6796 6696 16629
 6797 6697 16630
 6798 6698 16631
 6799 6699 16632
 6801 6701 16633
 6802 6702 16634
 6803 6703 16635
 6804 6704 16636
 6805 6705 16637
 6806 6706 16638
 6807 6707 16639
 6808 6708 16640
 6809 6709 16641
 6810 6710 16642
 6811 6711 16643
 6812 6712 16644
 6813 6713 16645
 6814 6714 16646
 6815 6715 16647
 6816 6716 16648
 6817 6717 16649
 6818 6718 16650
 6819 6719 16651
 6820 6720 16652
 6821 6721 16653
 6822 6722 16654
 6823 6723 16655
 6824 6724 16656
 6825 6725 16657
 6826 6726 16658
 6827 6727 16659
 6828 6728 16660
 6829 6729 16661
 6830 6730 16662
 6831 6731 16663
 6832 6732 16664
 6833 6733 16665
 6834 6734 16666
 6835 6735 16667
 6836 6736 16668
 6837 6737 16669
 6838 6738 16670
 6839 6739 16671
 6840 6740 16672
 6841 6741 16673
 6842 6742 16674
 6843 6743 16675
 6844 6744 16676
 6845 6745 16677
 6846 6746 16678
 6847 6747 16679
 6848 6748 16680
 6849 6749 16681
 6850 6750 16682
 6851 6751 16683
 6852 6752 16684
 6853 6753 16685
 6854 6754 16686
 6855 6755 16687
 6856 6756 16688
 6857 6757 16689
 6858 6758 16690
 6859 6759 16691
 6860 6760 16692
 6861 6761 16693
 6862 6762 16694
 6863 6763 16695
 6864 6764 16696
 6865 6765 16697
 6866 6766 16698
 6867 6767 16699
 6868 6768 16700
 6869 6769 16701
 6870 6770 16702
 6871 6771 16703
 6872 6772 16704
 6873 6773 16705
 6874 6774 16706
 6875 6775 16707
 6876 6776 16708
 6877 6777 16709
 6878 6778 16710
 6879 6779 16711
 6880 6780 16712
 6881 6781 16713
 6882 6782 16714
 6883 6783 16715
 6884 6784 16716
 6885 6785 16717
 6886 6786 16718
 6887 6787 16719
 6888 6788 16720
 6889 6789 16721
 6890 6790 16722
 6891 6791 16723
 6892 6792 16724
 6893 6793 16725
 6894 6794 16726
 6895 6795 16727
 6896 6796 16728
 6897 6797 16729
 6898 6798 16730
 6899 6799 16731
 6901 6801 16732
 6902 6802 16733
 6903 6803 16734
 6904 6804 16735
 6905 6805 16736
 6906 6806 16737
 6907 6807 16738
 6908 6808 16739
 6909 6809 16740
 6910 6810 16741
 6911 6811 16742
 6912 6812 16743
 6913 6813 16744
 6914 6814 16745
 6915 6815 16746
 6916 6816 16747
 6917 6817 16748
 6918 6818 16749
 6919 6819 16750
 6920 6820 16751
 6921 6821 16752
 6922 6822 16753
 6923 6823 16754
 6924 6824 16755
 6925 6825 16756
 6926 6826 16757
 6927 6827 16758
 6928 6828 16759
 6929 6829 16760
 6930 6830 16761
 6931 6831 16762
 6932 6832 16763
 6933 6833 16764
 6934 6834 16765
 6935 6835 16766
 6936 6836 16767
 6937 6837 16768
 6938 6838 16769
 6939 6839 16770
 6940 6840 16771
 6941 6841 16772
 6942 6842 16773
 6943 6843 16774
 6944 6844 16775
 6945 6845 16776
 6946 6846 16777
 6947 6847 16778
 6948 6848 16779
 6949 6849 16780
 6950 6850 16781
 6951 6851 16782
 6952 6852 16783
 6953 6853 16784
 6954 6854 16785
 6955 6855 16786
 6956 6856 16787
 6957 6857 16788
 6958 6858 16789
 6959 6859 16790
 6960 6860 16791
 6961 6861 16792
 6962 6862 16793
 6963 6863 16794
 6964 6864 16795
 6965 6865 16796
 6966 6866 16797
 6967 6867 16798
 6968 6868 16799
 6969 6869 16800
 6970 6870 16801
 6971 6871 16802
 6972 6872 16803
 6973 6873 16804
 6974 6874 16805
 6975 6875 16806
 6976 6876 16807
 6977 6877 16808
 6978 6878 16809
 6979 6879 16810
 6980 6880 16811
 6981 6881 16812
 6982 6882 16813
 6983 6883 16814
 6984 6884 16815
 6985 6885 16816
 6986 6886 16817
 6987 6887 16818
 6988 6888 16819
 6989 6889 16820
 6990 6890 16821
 6991 6891 16822
 6992 6892 16823
 6993 6893 16824
 6994 6894 16825
 6995 6895 16826
 6996 6896 16827
 6997 6897 16828
 6998 6898 16829
 6999 6899 16830
 7001 6901 16831
 7002 6902 16832
 7003 6903 16833
 7004 6904 16834
 7005 6905 16835
 7006 6906 16836
 7007 6907 16837
 7008 6908 16838
 7009 6909 16839
 7010 6910 16840
 7011 6911 16841
 7012 6912 16842
 7013 6913 16843
 7014 6914 16844
 7015 6915 16845
 7016 6916 16846
 7017 6917 16847
 7018 6918 16848
 7019 6919 16849
 7020 6920 16850
 7021 6921 16851
 7022 6922 16852
 7023 6923 16853
 7024 6924 16854
 7025 6925 16855
 7026 6926 16856
 7027 6927 16857
 7028 6928 16858
 7029 6929 16859
 7030 6930 16860
 7031 6931 16861
 7032 6932 16862
 7033 6933 16863
 7034 6934 16864
 7035 6935 16865
 7036 6936 16866
 7037 6937 16867
 7038 6938 16868
 7039 6939 16869
 7040 6940 16870
 7041 6941 16871
 7042 6942 16872
 7043 6943 16873
 7044 6944 16874
 7045 6945 16875
 7046 6946 16876
 7047 6947 16877
 7048 6948 16878
 7049 6949 16879
 7050 6950 16880
 7051 6951 16881
 7052 6952 16882
 7053 6953 16883
 7054 6954 16884
 7055 6955 16885
 7056 6956 16886
 7057 6957 16887
 7058 6958 16888
 7059 6959 16889
 7060 6960 16890
 7061 6961 16891
 7062 6962 16892
 7063 6963 16893
 7064 6964 16894
 7065 6965 16895
 7066 6966 16896
 7067 6967 16897
 7068 6968 16898
 7069 6969 16899
 7070 6970 16900
 7071 6971 16901
 7072 6972 16902
 7073 6973 16903
 7074 6974 16904
 7075 6975 16905
 7076 6976 16906
 7077 6977 16907
 7078 6978 16908
 7079 6979 16909
 7080 6980 16910
 7081 6981 16911
 7082 6982 16912
 7083 6983 16913
 7084 6984 16914
 7085 6985 16915
 7086 6986 16916
 7087 6987 16917
 7088 6988 16918
 7089 6989 16919
 7090 6990 16920
 7091 6991 16921
 7092 6992 16922
 7093 6993 16923
 7094 6994 16924
 7095 6995 16925
 7096 6996 16926
 7097 6997 16927
 7098 6998 16928
 7099 6999 16929
 7101 7001 16930
 7102 7002 16931
 7103 7003 16932
 7104 7004 16933
 7105 7005 16934
 7106 7006 16935
 7107 7007 16936
 7108 7008 16937
 7109 7009 16938
 7110 7010 16939
 7111 7011 16940
 7112 7012 16941
 7113 7013 16942
 7114 7014 16943
 7115 7015 16944
 7116 7016 16945
 7117 7017 16946
 7118 7018 16947
 7119 7019 16948
 7120 7020 16949
 7121 7021 16950
 7122 7022 16951
 7123 7023 16952
 7124 7024 16953
 7125 7025 16954
 7126 7026 16955
 7127 7027 16956
 7128 7028 16957
 7129 7029 16958
 7130 7030 16959
 7131 7031 16960
 7132 7032 16961
 7133 7033 16962
 7134 7034 16963
 7135 7035 16964
 7136 7036 16965
 7137 7037 16966
 7138 7038 16967
 7139 7039 16968
 7140 7040 16969
 7141 7041 16970
 7142 7042 16971
 7143 7043 16972
 7144 7044 16973
 7145 7045 16974
 7146 7046 16975
 7147 7047 16976
 7148 7048 16977
 7149 7049 16978
 7150 7050 16979
 7151 7051 16980
 7152 7052 16981
 7153 7053 16982
 7154 7054 16983
 7155 7055 16984
 7156 7056 16985
 7157 7057 16986
 7158 7058 16987
 7159 7059 16988
 7160 7060 16989
 7161 7061 16990
 7162 7062 16991
 7163 7063 16992
 7164 7064 16993
 7165 7065 16994
 7166 7066 16995
 7167 7067 16996
 7168 7068 16997
 7169 7069 16998
 7170 7070 16999
 7171 7071 17000
 7172 7072 17001
 7173 7073 17002
 7174 7074 17003
 7175 7075 17004
 7176 7076 17005
 7177 7077 17006
 7178 7078 17007
 7179 7079 17008
 7180 7080 17009
 7181 7081 17010
 7182 7082 17011
 7183 7083 17012
 7184 7084 17013
 7185 7085 17014
 7186 7086 17015
 7187 7087 17016
 7188 7088 17017
 7189 7089 17018
 7190 7090 17019
 7191 7091 17020
 7192 7092 17021
 7193 7093 17022
 7194 7094 17023
 7195 7095 17024
 7196 7096 17025
 7197 7097 17026
 7198 7098 17027
 7199 7099 17028
 7201 7101 17029
 7202 7102 17030
 7203 7103 17031
 7204 7104 17032
 7205 7105 17033
 7206 7106 17034
 7207 7107 17035
 7208 7108 17036
 7209 7109 17037
 7210 7110 17038
 7211 7111 17039
 7212 7112 17040
 7213 7113 17041
 7214 7114 17042
 7215 7115 17043
 7216 7116 17044
 7217 7117 17045
 7218 7118 17046
 7219 7119 17047
 7220 7120 17048
 7221 7121 17049
 7222 7122 17050
 7223 7123 17051
 7224 7124 17052
 7225 7125 17053
 7226 7126 17054
 7227 7127 17055
 7228 7128 17056
 7229 7129 17057
 7230 7130 17058
 7231 7131 17059
 7232 7132 17060
 7233 7133 17061
 7234 7134 17062
 7235 7135 17063
 7236 7136 17064
 7237 7137 17065
 7238 7138 17066
 7239 7139 17067
 7240 7140 17068
 7241 7141 17069
 7242 7142 17070
 7243 7143 17071
 7244 7144 17072
 7245 7145 17073
 7246 7146 17074
 7247 7147 17075
 7248 7148 17076
 7249 7149 17077
 7250 7150 17078
 7251 7151 17079
 7252 7152 17080
 7253 7153 17081
 7254 7154 17082
 7255 7155 17083
 7256 7156 17084
 7257 7157 17085
 7258 7158 17086
 7259 7159 17087
 7260 7160 17088
 7261 7161 17089
 7262 7162 17090
 7263 7163 17091
 7264 7164 17092
 7265 7165 17093
 7266 7166 17094
 7267 7167 17095
 7268 7168 17096
 7269 7169 17097
 7270 7170 17098
 7271 7171 17099
 7272 7172 17100
 7273 7173 17101
 7274 7174 17102
 7275 7175 17103
 7276 7176 17104
 7277 7177 17105
 7278 7178 17106
 7279 7179 17107
 7280 7180 17108
 7281 7181 17109
 7282 7182 17110
 7283 7183 17111
 7284 7184 17112
 7285 7185 17113
 7286 7186 17114
 7287 7187 17115
 7288 7188 17116
 7289 7189 17117
 7290 7190 17118
 7291 7191 17119
 7292 7192 17120
 7293 7193 17121
 7294 7194 17122
 7295 7195 17123
 7296 7196 17124
 7297 7197 17125
 7298 7198 17126
 7299 7199 17127
 7301 7201 17128
 7302 7202 17129
 7303 7203 17130
 7304 7204 17131
 7305 7205 17132
 7306 7206 17133
 7307 7207 17134
 7308 7208 17135
 7309 7209 17136
 7310 7210 17137
 7311 7211 17138
 7312 7212 17139
 7313 7213 17140
 7314 7214 17141
 7315 7215 17142
 7316 7216 17143
 7317 7217 17144
 7318 7218 17145
 7319 7219 17146
 7320 7220 17147
 7321 7221 17148
 7322 7222 17149
 7323 7223 17150
 7324 7224 17151
 7325 7225 17152
 7326 7226 17153
 7327 7227 17154
 7328 7228 17155
 7329 7229 17156
 7330 7230 17157
 7331 7231 17158
 7332 7232 17159
 7333 7233 17160
 7334 7234 17161
 7335 7235 17162
 7336 7236 17163
 7337 7237 17164
 7338 7238 17165
 7339 7239 17166
 7340 7240 17167
 7341 7241 17168
 7342 7242 17169
 7343 7243 17170
 7344 7244 17171
 7345 7245 17172
 7346 7246 17173
 7347 7247 17174
 7348 7248 17175
 7349 7249 17176
 7350 7250 17177
 7351 7251 17178
 7352 7252 17179
 7353 7253 17180
 7354 7254 17181
 7355 7255 17182
 7356 7256 17183
 7357 7257 17184
 7358 7258 17185
 7359 7259 17186
 7360 7260 17187
 7361 7261 17188
 7362 7262 17189
 7363 7263 17190
 7364 7264 17191
 7365 7265 17192
 7366 7266 17193
 7367 7267 17194
 7368 7268 17195
 7369 7269 17196
 7370 7270 17197
 7371 7271 17198
 7372 7272 17199
 7373 7273 17200
 7374 7274 17201
 7375 7275 17202
 7376 7276 17203
 7377 7277 17204
 7378 7278 17205
 7379 7279 17206
 7380 7280 17207
 7381 7281 17208
 7382 7282 17209
 7383 7283 17210
 7384 7284 17211
 7385 7285 17212
 7386 7286 17213
 7387 7287 17214
 7388 7288 17215
 7389 7289 17216
 7390 7290 17217
 7391 7291 17218
 7392 7292 17219
 7393 7293 17220
 7394 7294 17221
 7395 7295 17222
 7396 7296 17223
 7397 7297 17224
 7398 7298 17225
 7399 7299 17226
 7401 7301 17227
 7402 7302 17228
 7403 7303 17229
 7404 7304 17230
 7405 7305 17231
 7406 7306 17232
 7407 7307 17233
 7408 7308 17234
 7409 7309 17235
 7410 7310 17236
 7411 7311 17237
 7412 7312 17238
 7413 7313 17239
 7414 7314 17240
 7415 7315 17241
 7416 7316 17242
 7417 7317 17243
 7418 7318 17244
 7419 7319 17245
 7420 7320 17246
 7421 7321 17247
 7422 7322 17248
 7423 7323 17249
 7424 7324 17250
 7425 7325 17251
 7426 7326 17252
 7427 7327 17253
 7428 7328 17254
 7429 7329 17255
 7430 7330 17256
 7431 7331 17257
 7432 7332 17258
 7433 7333 17259
 7434 7334 17260
 7435 7335 17261
 7436 7336 17262
 7437 7337 17263
 7438 7338 17264
 7439 7339 17265
 7440 7340 17266
 7441 7341 17267
 7442 7342 17268
 7443 7343 17269
 7444 7344 17270
 7445 7345 17271
 7446 7346 17272
 7447 7347 17273
 7448 7348 17274
 7449 7349 17275
 7450 7350 17276
 7451 7351 17277
 7452 7352 17278
 7453 7353 17279
 7454 7354 17280
 7455 7355 17281
 7456 7356 17282
 7457 7357 17283
 7458 7358 17284
 7459 7359 17285
 7460 7360 17286
 7461 7361 17287
 7462 7362 17288
 7463 7363 17289
 7464 7364 17290
 7465 7365 17291
 7466 7366 17292
 7467 7367 17293
 7468 7368 17294
 7469 7369 17295
 7470 7370 17296
 7471 7371 17297
 7472 7372 17298
 7473 7373 17299
 7474 7374 17300
 7475 7375 17301
 7476 7376 17302
 7477 7377 17303
 7478 7378 17304
 7479 7379 17305
 7480 7380 17306
 7481 7381 17307
 7482 7382 17308
 7483 7383 17309
 7484 7384 17310
 7485 7385 17311
 7486 7386 17312
 7487 7387 17313
 7488 7388 17314
 7489 7389 17315
 7490 7390 17316
 7491 7391 17317
 7492 7392 17318
 7493 7393 17319
 7494 7394 17320
 7495 7395 17321
 7496 7396 17322
 7497 7397 17323
 7498 7398 17324
 7499 7399 17325
 7501 7401 17326
 7502 7402 17327
 7503 7403 17328
 7504 7404 17329
 7505 7405 17330
 7506 7406 17331
 7507 7407 17332
 7508 7408 17333
 7509 7409 17334
 7510 7410 17335
 7511 7411 17336
 7512 7412 17337
 7513 7413 17338
 7514 7414 17339
 7515 7415 17340
 7516 7416 17341
 7517 7417 17342
 7518 7418 17343
 7519 7419 17344
 7520 7420 17345
 7521 7421 17346
 7522 7422 17347
 7523 7423 17348
 7524 7424 17349
 7525 7425 17350
 7526 7426 17351
 7527 7427 17352
 7528 7428 17353
 7529 7429 17354
 7530 7430 17355
 7531 7431 17356
 7532 7432 17357
 7533 7433 17358
 7534 7434 17359
 7535 7435 17360
 7536 7436 17361
 7537 7437 17362
 7538 7438 17363
 7539 7439 17364
 7540 7440 17365
 7541 7441 17366
 7542 7442 17367
 7543 7443 17368
 7544 7444 17369
 7545 7445 17370
 7546 7446 17371
 7547 7447 17372
 7548 7448 17373
 7549 7449 17374
 7550 7450 17375
 7551 7451 17376
 7552 7452 17377
 7553 7453 17378
 7554 7454 17379
 7555 7455 17380
 7556 7456 17381
 7557 7457 17382
 7558 7458 17383
 7559 7459 17384
 7560 7460 17385
 7561 7461 17386
 7562 7462 17387
 7563 7463 17388
 7564 7464 17389
 7565 7465 17390
 7566 7466 17391
 7567 7467 17392
 7568 7468 17393
 7569 7469 17394
 7570 7470 17395
 7571 7471 17396
 7572 7472 17397
 7573 7473 17398
 7574 7474 17399
 7575 7475 17400
 7576 7476 17401
 7577 7477 17402
 7578 7478 17403
 7579 7479 17404
 7580 7480 17405
 7581 7481 17406
 7582 7482 17407
 7583 7483 17408
 7584 7484 17409
 7585 7485 17410
 7586 7486 17411
 7587 7487 17412
 7588 7488 17413
 7589 7489 17414
 7590 7490 17415
 7591 7491 17416
 7592 7492 17417
 7593 7493 17418
 7594 7494 17419
 7595 7495 17420
 7596 7496 17421
 7597 7497 17422
 7598 7498 17423
 7599 7499 17424
 7601 7501 17425
 7602 7502 17426
 7603 7503 17427
 7604 7504 17428
 7605 7505 17429
 7606 7506 17430
 7607 7507 17431
 7608 7508 17432
 7609 7509 17433
 7610 7510 17434
 7611 7511 17435
 7612 7512 17436
 7613 7513 17437
 7614 7514 17438
 7615 7515 17439
 7616 7516 17440
 7617 7517 17441
 7618 7518 17442
 7619 7519 17443
 7620 7520 17444
 7621 7521 17445
 7622 7522 17446
 7623 7523 17447
 7624 7524 17448
 7625 7525 17449
 7626 7526 17450
 7627 7527 17451
 7628 7528 17452
 7629 7529 17453
 7630 7530 17454
 7631 7531 17455
 7632 7532 17456
 7633 7533 17457
 7634 7534 17458
 7635 7535 17459
 7636 7536 17460
 7637 7537 17461
 7638 7538 17462
 7639 7539 17463
 7640 7540 17464
 7641 7541 17465
 7642 7542 17466
 7643 7543 17467
 7644 7544 17468
 7645 7545 17469
 7646 7546 17470
 7647 7547 17471
 7648 7548 17472
 7649 7549 17473
 7650 7550 17474
 7651 7551 17475
 7652 7552 17476
 7653 7553 17477
 7654 7554 17478
 7655 7555 17479
 7656 7556 17480
 7657 7557 17481
 7658 7558 17482
 7659 7559 17483
 7660 7560 17484
 7661 7561 17485
 7662 7562 17486
 7663 7563 17487
 7664 7564 17488
 7665 7565 17489
 7666 7566 17490
 7667 7567 17491
 7668 7568 17492
 7669 7569 17493
 7670 7570 17494
 7671 7571 17495
 7672 7572 17496
 7673 7573 17497
 7674 7574 17498
 7675 7575 17499
 7676 7576 17500
 7677 7577 17501
 7678 7578 17502
 7679 7579 17503
 7680 7580 17504
 7681 7581 17505
 7682 7582 17506
 7683 7583 17507
 7684 7584 17508
 7685 7585 17509
 7686 7586 17510
 7687 7587 17511
 7688 7588 17512
 7689 7589 17513
 7690 7590 17514
 7691 7591 17515
 7692 7592 17516
 7693 7593 17517
 7694 7594 17518
 7695 7595 17519
 7696 7596 17520
 7697 7597 17521
 7698 7598 17522
 7699 7599 17523
 7701 7601 17524
 7702 7602 17525
 7703 7603 17526
 7704 7604 17527
 7705 7605 17528
 7706 7606 17529
 7707 7607 17530
 7708 7608 17531
 7709 7609 17532
 7710 7610 17533
 7711 7611 17534
 7712 7612 17535
 7713 7613 17536
 7714 7614 17537
 7715 7615 17538
 7716 7616 17539
 7717 7617 17540
 7718 7618 17541
 7719 7619 17542
 7720 7620 17543
 7721 7621 17544
 7722 7622 17545
 7723 7623 17546
 7724 7624 17547
 7725 7625 17548
 7726 7626 17549
 7727 7627 17550
 7728 7628 17551
 7729 7629 17552
 7730 7630 17553
 7731 7631 17554
 7732 7632 17555
 7733 7633 17556
 7734 7634 17557
 7735 7635 17558
 7736 7636 17559
 7737 7637 17560
 7738 7638 17561
 7739 7639 17562
 7740 7640 17563
 7741 7641 17564
 7742 7642 17565
 7743 7643 17566
 7744 7644 17567
 7745 7645 17568
 7746 7646 17569
 7747 7647 17570
 7748 7648 17571
 7749 7649 17572
 7750 7650 17573
 7751 7651 17574
 7752 7652 17575
 7753 7653 17576
 7754 7654 17577
 7755 7655 17578
 7756 7656 17579
 7757 7657 17580
 7758 7658 17581
 7759 7659 17582
 7760 7660 17583
 7761 7661 17584
 7762 7662 17585
 7763 7663 17586
 7764 7664 17587
 7765 7665 17588
 7766 7666 17589
 7767 7667 17590
 7768 7668 17591
 7769 7669 17592
 7770 7670 17593
 7771 7671 17594
 7772 7672 17595
 7773 7673 17596
 7774 7674 17597
 7775 7675 17598
 7776 7676 17599
 7777 7677 17600
 7778 7678 17601
 7779 7679 17602
 7780 7680 17603
 7781 7681 17604
 7782 7682 17605
 7783 7683 17606
 7784 7684 17607
 7785 7685 17608
 7786 7686 17609
 7787 7687 17610
 7788 7688 17611
 7789 7689 17612
 7790 7690 17613
 7791 7691 17614
 7792 7692 17615
 7793 7693 17616
 7794 7694 17617
 7795 7695 17618
 7796 7696 17619
 7797 7697 17620
 7798 7698 17621
 7799 7699 17622
 7801 7701 17623
 7802 7702 17624
 7803 7703 17625
 7804 7704 17626
 7805 7705 17627
 7806 7706 17628
 7807 7707 17629
 7808 7708 17630
 7809 7709 17631
 7810 7710 17632
 7811 7711 17633
 7812 7712 17634
 7813 7713 17635
 7814 7714 17636
 7815 7715 17637
 7816 7716 17638
 7817 7717 17639
 7818 7718 17640
 7819 7719 17641
 7820 7720 17642
 7821 7721 17643
 7822 7722 17644
 7823 7723 17645
 7824 7724 17646
 7825 7725 17647
 7826 7726 17648
 7827 7727 17649
 7828 7728 17650
 7829 7729 17651
 7830 7730 17652
 7831 7731 17653
 7832 7732 17654
 7833 7733 17655
 7834 7734 17656
 7835 7735 17657
 7836 7736 17658
 7837 7737 17659
 7838 7738 17660
 7839 7739 17661
 7840 7740 17662
 7841 7741 17663
 7842 7742 17664
 7843 7743 17665
 7844 7744 17666
 7845 7745 17667
 7846 7746 17668
 7847 7747 17669
 7848 7748 17670
 7849 7749 17671
 7850 7750 17672
 7851 7751 17673
 7852 7752 17674
 7853 7753 17675
 7854 7754 17676
 7855 7755 17677
 7856 7756 17678
 7857 7757 17679
 7858 7758 17680
 7859 7759 17681
 7860 7760 17682
 7861 7761 17683
 7862 7762 17684
 7863 7763 17685
 7864 7764 17686
 7865 7765 17687
 7866 7766 17688
 7867 7767 17689
 7868 7768 17690
 7869 7769 17691
 7870 7770 17692
 7871 7771 17693
 7872 7772 17694
 7873 7773 17695
 7874 7774 17696
 7875 7775 17697
 7876 7776 17698
 7877 7777 17699
 7878 7778 17700
 7879 7779 17701
 7880 7780 17702
 7881 7781 17703
 7882 7782 17704
 7883 7783 17705
 7884 7784 17706
 7885 7785 17707
 7886 7786 17708
 7887 7787 17709
 7888 7788 17710
 7889 7789 17711
 7890 7790 17712
 7891 7791 17713
 7892 7792 17714
 7893 7793 17715
 7894 7794 17716
 7895 7795 17717
 7896 7796 17718
 7897 7797 17719
 7898 7798 17720
 7899 7799 17721
 7901 7801 17722
 7902 7802 17723
 7903 7803 17724
 7904 7804 17725
 7905 7805 17726
 7906 7806 17727
 7907 7807 17728
 7908 7808 17729
 7909 7809 17730
 7910 7810 17731
 7911 7811 17732
 7912 7812 17733
 7913 7813 17734
 7914 7814 17735
 7915 7815 17736
 7916 7816 17737
 7917 7817 17738
 7918 7818 17739
 7919 7819 17740
 7920 7820 17741
 7921 7821 17742
 7922 7822 17743
 7923 7823 17744
 7924 7824 17745
 7925 7825 17746
 7926 7826 17747
 7927 7827 17748
 7928 7828 17749
 7929 7829 17750
 7930 7830 17751
 7931 7831 17752
 7932 7832 17753
 7933 7833 17754
 7934 7834 17755
 7935 7835 17756
 7936 7836 17757
 7937 7837 17758
 7938 7838 17759
 7939 7839 17760
 7940 7840 17761
 7941 7841 17762
 7942 7842 17763
 7943 7843 17764
 7944 7844 17765
 7945 7845 17766
 7946 7846 17767
 7947 7847 17768
 7948 7848 17769
 7949 7849 17770
 7950 7850 17771
 7951 7851 17772
 7952 7852 17773
 7953 7853 17774
 7954 7854 17775
 7955 7855 17776
 7956 7856 17777
 7957 7857 17778
 7958 7858 17779
 7959 7859 17780
 7960 7860 17781
 7961 7861 17782
 7962 7862 17783
 7963 7863 17784
 7964 7864 17785
 7965 7865 17786
 7966 7866 17787
 7967 7867 17788
 7968 7868 17789
 7969 7869 17790
 7970 7870 17791
 7971 7871 17792
 7972 7872 17793
 7973 7873 17794
 7974 7874 17795
 7975 7875 17796
 7976 7876 17797
 7977 7877 17798
 7978 7878 17799
 7979 7879 17800
 7980 7880 17801
 7981 7881 17802
 7982 7882 17803
 7983 7883 17804
 7984 7884 17805
 7985 7885 17806
 7986 7886 17807
 7987 7887 17808
 7988 7888 17809
 7989 7889 17810
 7990 7890 17811
 7991 7891 17812
 7992 7892 17813
 7993 7893 17814
 7994 7894 17815
 7995 7895 17816
 7996 7896 17817
 7997 7897 17818
 7998 7898 17819
 7999 7899 17820
 8001 7901 17821
 8002 7902 17822
 8003 7903 17823
 8004 7904 17824
 8005 7905 17825
 8006 7906 17826
 8007 7907 17827
 8008 7908 17828
 8009 7909 17829
 8010 7910 17830
 8011 7911 17831
 8012 7912 17832
 8013 7913 17833
 8014 7914 17834
 8015 7915 17835
 8016 7916 17836
 8017 7917 17837
 8018 7918 17838
 8019 7919 17839
 8020 7920 17840
 8021 7921 17841
 8022 7922 17842
 8023 7923 17843
 8024 7924 17844
 8025 7925 17845
 8026 7926 17846
 8027 7927 17847
 8028 7928 17848
 8029 7929 17849
 8030 7930 17850
 8031 7931 17851
 8032 7932 17852
 8033 7933 17853
 8034 7934 17854
 8035 7935 17855
 8036 7936 17856
 8037 7937 17857
 8038 7938 17858
 8039 7939 17859
 8040 7940 17860
 8041 7941 17861
 8042 7942 17862
 8043 7943 17863
 8044 7944 17864
 8045 7945 17865
 8046 7946 17866
 8047 7947 17867
 8048 7948 17868
 8049 7949 17869
 8050 7950 17870
 8051 7951 17871
 8052 7952 17872
 8053 7953 17873
 8054 7954 17874
 8055 7955 17875
 8056 7956 17876
 8057 7957 17877
 8058 7958 17878
 8059 7959 17879
 8060 7960 17880
 8061 7961 17881
 8062 7962 17882
 8063 7963 17883
 8064 7964 17884
 8065 7965 17885
 8066 7966 17886
 8067 7967 17887
 8068 7968 17888
 8069 7969 17889
 8070 7970 17890
 8071 7971 17891
 8072 7972 17892
 8073 7973 17893
 8074 7974 17894
 8075 7975 17895
 8076 7976 17896
 8077 7977 17897
 8078 7978 17898
 8079 7979 17899
 8080 7980 17900
 8081 7981 17901
 8082 7982 17902
 8083 7983 17903
 8084 7984 17904
 8085 7985 17905
 8086 7986 17906
 8087 7987 17907
 8088 7988 17908
 8089 7989 17909
 8090 7990 17910
 8091 7991 17911
 8092 7992 17912
 8093 7993 17913
 8094 7994 17914
 8095 7995 17915
 8096 7996 17916
 8097 7997 17917
 8098 7998 17918
 8099 7999 17919
 8101 8001 17920
 8102 8002 17921
 8103 8003 17922
 8104 8004 17923
 8105 8005 17924
 8106 8006 17925
 8107 8007 17926
 8108 8008 17927
 8109 8009 17928
 8110 8010 17929
 8111 8011 17930
 8112 8012 17931
 8113 8013 17932
 8114 8014 17933
 8115 8015 17934
 8116 8016 17935
 8117 8017 17936
 8118 8018 17937
 8119 8019 17938
 8120 8020 17939
 8121 8021 17940
 8122 8022 17941
 8123 8023 17942
 8124 8024 17943
 8125 8025 17944
 8126 8026 17945
 8127 8027 17946
 8128 8028 17947
 8129 8029 17948
 8130 8030 17949
 8131 8031 17950
 8132 8032 17951
 8133 8033 17952
 8134 8034 17953
 8135 8035 17954
 8136 8036 17955
 8137 8037 17956
 8138 8038 17957
 8139 8039 17958
 8140 8040 17959
 8141 8041 17960
 8142 8042 17961
 8143 8043 17962
 8144 8044 17963
 8145 8045 17964
 8146 8046 17965
 8147 8047 17966
 8148 8048 17967
 8149 8049 17968
 8150 8050 17969
 8151 8051 17970
 8152 8052 17971
 8153 8053 17972
 8154 8054 17973
 8155 8055 17974
 8156 8056 17975
 8157 8057 17976
 8158 8058 17977
 8159 8059 17978
 8160 8060 17979
 8161 8061 17980
 8162 8062 17981
 8163 8063 17982
 8164 8064 17983
 8165 8065 17984
 8166 8066 17985
 8167 8067 17986
 8168 8068 17987
 8169 8069 17988
 8170 8070 17989
 8171 8071 17990
 8172 8072 17991
 8173 8073 17992
 8174 8074 17993
 8175 8075 17994
 8176 8076 17995
 8177 8077 17996
 8178 8078 17997
 8179 8079 17998
 8180 8080 17999
 8181 8081 18000
 8182 8082 18001
 8183 8083 18002
 8184 8084 18003
 8185 8085 18004
 8186 8086 18005
 8187 8087 18006
 8188 8088 18007
 8189 8089 18008
 8190 8090 18009
 8191 8091 18010
 8192 8092 18011
 8193 8093 18012
 8194 8094 18013
 8195 8095 18014
 8196 8096 18015
 8197 8097 18016
 8198 8098 18017
 8199 8099 18018
 8201 8101 18019
 8202 8102 18020
 8203 8103 18021
 8204 8104 18022
 8205 8105 18023
 8206 8106 18024
 8207 8107 18025
 8208 8108 18026
 8209 8109 18027
 8210 8110 18028
 8211 8111 18029
 8212 8112 18030
 8213 8113 18031
 8214 8114 18032
 8215 8115 18033
 8216 8116 18034
 8217 8117 18035
 8218 8118 18036
 8219 8119 18037
 8220 8120 18038
 8221 8121 18039
 8222 8122 18040
 8223 8123 18041
 8224 8124 18042
 8225 8125 18043
 8226 8126 18044
 8227 8127 18045
 8228 8128 18046
 8229 8129 18047
 8230 8130 18048
 8231 8131 18049
 8232 8132 18050
 8233 8133 18051
 8234 8134 18052
 8235 8135 18053
 8236 8136 18054
 8237 8137 18055
 8238 8138 18056
 8239 8139 18057
 8240 8140 18058
 8241 8141 18059
 8242 8142 18060
 8243 8143 18061
 8244 8144 18062
 8245 8145 18063
 8246 8146 18064
 8247 8147 18065
 8248 8148 18066
 8249 8149 18067
 8250 8150 18068
 8251 8151 18069
 8252 8152 18070
 8253 8153 18071
 8254 8154 18072
 8255 8155 18073
 8256 8156 18074
 8257 8157 18075
 8258 8158 18076
 8259 8159 18077
 8260 8160 18078
 8261 8161 18079
 8262 8162 18080
 8263 8163 18081
 8264 8164 18082
 8265 8165 18083
 8266 8166 18084
 8267 8167 18085
 8268 8168 18086
 8269 8169 18087
 8270 8170 18088
 8271 8171 18089
 8272 8172 18090
 8273 8173 18091
 8274 8174 18092
 8275 8175 18093
 8276 8176 18094
 8277 8177 18095
 8278 8178 18096
 8279 8179 18097
 8280 8180 18098
 8281 8181 18099
 8282 8182 18100
 8283 8183 18101
 8284 8184 18102
 8285 8185 18103
 8286 8186 18104
 8287 8187 18105
 8288 8188 18106
 8289 8189 18107
 8290 8190 18108
 8291 8191 18109
 8292 8192 18110
 8293 8193 18111
 8294 8194 18112
 8295 8195 18113
 8296 8196 18114
 8297 8197 18115
 8298 8198 18116
 8299 8199 18117
 8301 8201 18118
 8302 8202 18119
 8303 8203 18120
 8304 8204 18121
 8305 8205 18122
 8306 8206 18123
 8307 8207 18124
 8308 8208 18125
 8309 8209 18126
 8310 8210 18127
 8311 8211 18128
 8312 8212 18129
 8313 8213 18130
 8314 8214 18131
 8315 8215 18132
 8316 8216 18133
 8317 8217 18134
 8318 8218 18135
 8319 8219 18136
 8320 8220 18137
 8321 8221 18138
 8322 8222 18139
 8323 8223 18140
 8324 8224 18141
 8325 8225 18142
 8326 8226 18143
 8327 8227 18144
 8328 8228 18145
 8329 8229 18146
 8330 8230 18147
 8331 8231 18148
 8332 8232 18149
 8333 8233 18150
 8334 8234 18151
 8335 8235 18152
 8336 8236 18153
 8337 8237 18154
 8338 8238 18155
 8339 8239 18156
 8340 8240 18157
 8341 8241 18158
 8342 8242 18159
 8343 8243 18160
 8344 8244 18161
 8345 8245 18162
 8346 8246 18163
 8347 8247 18164
 8348 8248 18165
 8349 8249 18166
 8350 8250 18167
 8351 8251 18168
 8352 8252 18169
 8353 8253 18170
 8354 8254 18171
 8355 8255 18172
 8356 8256 18173
 8357 8257 18174
 8358 8258 18175
 8359 8259 18176
 8360 8260 18177
 8361 8261 18178
 8362 8262 18179
 8363 8263 18180
 8364 8264 18181
 8365 8265 18182
 8366 8266 18183
 8367 8267 18184
 8368 8268 18185
 8369 8269 18186
 8370 8270 18187
 8371 8271 18188
 8372 8272 18189
 8373 8273 18190
 8374 8274 18191
 8375 8275 18192
 8376 8276 18193
 8377 8277 18194
 8378 8278 18195
 8379 8279 18196
 8380 8280 18197
 8381 8281 18198
 8382 8282 18199
 8383 8283 18200
 8384 8284 18201
 8385 8285 18202
 8386 8286 18203
 8387 8287 18204
 8388 8288 18205
 8389 8289 18206
 8390 8290 18207
 8391 8291 18208
 8392 8292 18209
 8393 8293 18210
 8394 8294 18211
 8395 8295 18212
 8396 8296 18213
 8397 8297 18214
 8398 8298 18215
 8399 8299 18216
 8401 8301 18217
 8402 8302 18218
 8403 8303 18219
 8404 8304 18220
 8405 8305 18221
 8406 8306 18222
 8407 8307 18223
 8408 8308 18224
 8409 8309 18225
 8410 8310 18226
 8411 8311 18227
 8412 8312 18228
 8413 8313 18229
 8414 8314 18230
 8415 8315 18231
 8416 8316 18232
 8417 8317 18233
 8418 8318 18234
 8419 8319 18235
 8420 8320 18236
 8421 8321 18237
 8422 8322 18238
 8423 8323 18239
 8424 8324 18240
 8425 8325 18241
 8426 8326 18242
 8427 8327 18243
 8428 8328 18244
 8429 8329 18245
 8430 8330 18246
 8431 8331 18247
 8432 8332 18248
 8433 8333 18249
 8434 8334 18250
 8435 8335 18251
 8436 8336 18252
 8437 8337 18253
 8438 8338 18254
 8439 8339 18255
 8440 8340 18256
 8441 8341 18257
 8442 8342 18258
 8443 8343 18259
 8444 8344 18260
 8445 8345 18261
 8446 8346 18262
 8447 8347 18263
 8448 8348 18264
 8449 8349 18265
 8450 8350 18266
 8451 8351 18267
 8452 8352 18268
 8453 8353 18269
 8454 8354 18270
 8455 8355 18271
 8456 8356 18272
 8457 8357 18273
 8458 8358 18274
 8459 8359 18275
 8460 8360 18276
 8461 8361 18277
 8462 8362 18278
 8463 8363 18279
 8464 8364 18280
 8465 8365 18281
 8466 8366 18282
 8467 8367 18283
 8468 8368 18284
 8469 8369 18285
 8470 8370 18286
 8471 8371 18287
 8472 8372 18288
 8473 8373 18289
 8474 8374 18290
 8475 8375 18291
 8476 8376 18292
 8477 8377 18293
 8478 8378 18294
 8479 8379 18295
 8480 8380 18296
 8481 8381 18297
 8482 8382 18298
 8483 8383 18299
 8484 8384 18300
 8485 8385 18301
 8486 8386 18302
 8487 8387 18303
 8488 8388 18304
 8489 8389 18305
 8490 8390 18306
 8491 8391 18307
 8492 8392 18308
 8493 8393 18309
 8494 8394 18310
 8495 8395 18311
 8496 8396 18312
 8497 8397 18313
 8498 8398 18314
 8499 8399 18315
 8501 8401 18316
 8502 8402 18317
 8503 8403 18318
 8504 8404 18319
 8505 8405 18320
 8506 8406 18321
 8507 8407 18322
 8508 8408 18323
 8509 8409 18324
 8510 8410 18325
 8511 8411 18326
 8512 8412 18327
 8513 8413 18328
 8514 8414 18329
 8515 8415 18330
 8516 8416 18331
 8517 8417 18332
 8518 8418 18333
 8519 8419 18334
 8520 8420 18335
 8521 8421 18336
 8522 8422 18337
 8523 8423 18338
 8524 8424 18339
 8525 8425 18340
 8526 8426 18341
 8527 8427 18342
 8528 8428 18343
 8529 8429 18344
 8530 8430 18345
 8531 8431 18346
 8532 8432 18347
 8533 8433 18348
 8534 8434 18349
 8535 8435 18350
 8536 8436 18351
 8537 8437 18352
 8538 8438 18353
 8539 8439 18354
 8540 8440 18355
 8541 8441 18356
 8542 8442 18357
 8543 8443 18358
 8544 8444 18359
 8545 8445 18360
 8546 8446 18361
 8547 8447 18362
 8548 8448 18363
 8549 8449 18364
 8550 8450 18365
 8551 8451 18366
 8552 8452 18367
 8553 8453 18368
 8554 8454 18369
 8555 8455 18370
 8556 8456 18371
 8557 8457 18372
 8558 8458 18373
 8559 8459 18374
 8560 8460 18375
 8561 8461 18376
 8562 8462 18377
 8563 8463 18378
 8564 8464 18379
 8565 8465 18380
 8566 8466 18381
 8567 8467 18382
 8568 8468 18383
 8569 8469 18384
 8570 8470 18385
 8571 8471 18386
 8572 8472 18387
 8573 8473 18388
 8574 8474 18389
 8575 8475 18390
 8576 8476 18391
 8577 8477 18392
 8578 8478 18393
 8579 8479 18394
 8580 8480 18395
 8581 8481 18396
 8582 8482 18397
 8583 8483 18398
 8584 8484 18399
 8585 8485 18400
 8586 8486 18401
 8587 8487 18402
 8588 8488 18403
 8589 8489 18404
 8590 8490 18405
 8591 8491 18406
 8592 8492 18407
 8593 8493 18408
 8594 8494 18409
 8595 8495 18410
 8596 8496 18411
 8597 8497 18412
 8598 8498 18413
 8599 8499 18414
 8601 8501 18415
 8602 8502 18416
 8603 8503 18417
 8604 8504 18418
 8605 8505 18419
 8606 8506 18420
 8607 8507 18421
 8608 8508 18422
 8609 8509 18423
 8610 8510 18424
 8611 8511 18425
 8612 8512 18426
 8613 8513 18427
 8614 8514 18428
 8615 8515 18429
 8616 8516 18430
 8617 8517 18431
 8618 8518 18432
 8619 8519 18433
 8620 8520 18434
 8621 8521 18435
 8622 8522 18436
 8623 8523 18437
 8624 8524 18438
 8625 8525 18439
 8626 8526 18440
 8627 8527 18441
 8628 8528 18442
 8629 8529 18443
 8630 8530 18444
 8631 8531 18445
 8632 8532 18446
 8633 8533 18447
 8634 8534 18448
 8635 8535 18449
 8636 8536 18450
 8637 8537 18451
 8638 8538 18452
 8639 8539 18453
 8640 8540 18454
 8641 8541 18455
 8642 8542 18456
 8643 8543 18457
 8644 8544 18458
 8645 8545 18459
 8646 8546 18460
 8647 8547 18461
 8648 8548 18462
 8649 8549 18463
 8650 8550 18464
 8651 8551 18465
 8652 8552 18466
 8653 8553 18467
 8654 8554 18468
 8655 8555 18469
 8656 8556 18470
 8657 8557 18471
 8658 8558 18472
 8659 8559 18473
 8660 8560 18474
 8661 8561 18475
 8662 8562 18476
 8663 8563 18477
 8664 8564 18478
 8665 8565 18479
 8666 8566 18480
 8667 8567 18481
 8668 8568 18482
 8669 8569 18483
 8670 8570 18484
 8671 8571 18485
 8672 8572 18486
 8673 8573 18487
 8674 8574 18488
 8675 8575 18489
 8676 8576 18490
 8677 8577 18491
 8678 8578 18492
 8679 8579 18493
 8680 8580 18494
 8681 8581 18495
 8682 8582 18496
 8683 8583 18497
 8684 8584 18498
 8685 8585 18499
 8686 8586 18500
 8687 8587 18501
 8688 8588 18502
 8689 8589 18503
 8690 8590 18504
 8691 8591 18505
 8692 8592 18506
 8693 8593 18507
 8694 8594 18508
 8695 8595 18509
 8696 8596 18510
 8697 8597 18511
 8698 8598 18512
 8699 8599 18513
 8701 8601 18514
 8702 8602 18515
 8703 8603 18516
 8704 8604 18517
 8705 8605 18518
 8706 8606 18519
 8707 8607 18520
 8708 8608 18521
 8709 8609 18522
 8710 8610 18523
 8711 8611 18524
 8712 8612 18525
 8713 8613 18526
 8714 8614 18527
 8715 8615 18528
 8716 8616 18529
 8717 8617 18530
 8718 8618 18531
 8719 8619 18532
 8720 8620 18533
 8721 8621 18534
 8722 8622 18535
 8723 8623 18536
 8724 8624 18537
 8725 8625 18538
 8726 8626 18539
 8727 8627 18540
 8728 8628 18541
 8729 8629 18542
 8730 8630 18543
 8731 8631 18544
 8732 8632 18545
 8733 8633 18546
 8734 8634 18547
 8735 8635 18548
 8736 8636 18549
 8737 8637 18550
 8738 8638 18551
 8739 8639 18552
 8740 8640 18553
 8741 8641 18554
 8742 8642 18555
 8743 8643 18556
 8744 8644 18557
 8745 8645 18558
 8746 8646 18559
 8747 8647 18560
 8748 8648 18561
 8749 8649 18562
 8750 8650 18563
 8751 8651 18564
 8752 8652 18565
 8753 8653 18566
 8754 8654 18567
 8755 8655 18568
 8756 8656 18569
 8757 8657 18570
 8758 8658 18571
 8759 8659 18572
 8760 8660 18573
 8761 8661 18574
 8762 8662 18575
 8763 8663 18576
 8764 8664 18577
 8765 8665 18578
 8766 8666 18579
 8767 8667 18580
 8768 8668 18581
 8769 8669 18582
 8770 8670 18583
 8771 8671 18584
 8772 8672 18585
 8773 8673 18586
 8774 8674 18587
 8775 8675 18588
 8776 8676 18589
 8777 8677 18590
 8778 8678 18591
 8779 8679 18592
 8780 8680 18593
 8781 8681 18594
 8782 8682 18595
 8783 8683 18596
 8784 8684 18597
 8785 8685 18598
 8786 8686 18599
 8787 8687 18600
 8788 8688 18601
 8789 8689 18602
 8790 8690 18603
 8791 8691 18604
 8792 8692 18605
 8793 8693 18606
 8794 8694 18607
 8795 8695 18608
 8796 8696 18609
 8797 8697 18610
 8798 8698 18611
 8799 8699 18612
 8801 8701 18613
 8802 8702 18614
 8803 8703 18615
 8804 8704 18616
 8805 8705 18617
 8806 8706 18618
 8807 8707 18619
 8808 8708 18620
 8809 8709 18621
 8810 8710 18622
 8811 8711 18623
 8812 8712 18624
 8813 8713 18625
 8814 8714 18626
 8815 8715 18627
 8816 8716 18628
 8817 8717 18629
 8818 8718 18630
 8819 8719 18631
 8820 8720 18632
 8821 8721 18633
 8822 8722 18634
 8823 8723 18635
 8824 8724 18636
 8825 8725 18637
 8826 8726 18638
 8827 8727 18639
 8828 8728 18640
 8829 8729 18641
 8830 8730 18642
 8831 8731 18643
 8832 8732 18644
 8833 8733 18645
 8834 8734 18646
 8835 8735 18647
 8836 8736 18648
 8837 8737 18649
 8838 8738 18650
 8839 8739 18651
 8840 8740 18652
 8841 8741 18653
 8842 8742 18654
 8843 8743 18655
 8844 8744 18656
 8845 8745 18657
 8846 8746 18658
 8847 8747 18659
 8848 8748 18660
 8849 8749 18661
 8850 8750 18662
 8851 8751 18663
 8852 8752 18664
 8853 8753 18665
 8854 8754 18666
 8855 8755 18667
 8856 8756 18668
 8857 8757 18669
 8858 8758 18670
 8859 8759 18671
 8860 8760 18672
 8861 8761 18673
 8862 8762 18674
 8863 8763 18675
 8864 8764 18676
 8865 8765 18677
 8866 8766 18678
 8867 8767 18679
 8868 8768 18680
 8869 8769 18681
 8870 8770 18682
 8871 8771 18683
 8872 8772 18684
 8873 8773 18685
 8874 8774 18686
 8875 8775 18687
 8876 8776 18688
 8877 8777 18689
 8878 8778 18690
 8879 8779 18691
 8880 8780 18692
 8881 8781 18693
 8882 8782 18694
 8883 8783 18695
 8884 8784 18696
 8885 8785 18697
 8886 8786 18698
 8887 8787 18699
 8888 8788 18700
 8889 8789 18701
 8890 8790 18702
 8891 8791 18703
 8892 8792 18704
 8893 8793 18705
 8894 8794 18706
 8895 8795 18707
 8896 8796 18708
 8897 8797 18709
 8898 8798 18710
 8899 8799 18711
 8901 8801 18712
 8902 8802 18713
 8903 8803 18714
 8904 8804 18715
 8905 8805 18716
 8906 8806 18717
 8907 8807 18718
 8908 8808 18719
 8909 8809 18720
 8910 8810 18721
 8911 8811 18722
 8912 8812 18723
 8913 8813 18724
 8914 8814 18725
 8915 8815 18726
 8916 8816 18727
 8917 8817 18728
 8918 8818 18729
 8919 8819 18730
 8920 8820 18731
 8921 8821 18732
 8922 8822 18733
 8923 8823 18734
 8924 8824 18735
 8925 8825 18736
 8926 8826 18737
 8927 8827 18738
 8928 8828 18739
 8929 8829 18740
 8930 8830 18741
 8931 8831 18742
 8932 8832 18743
 8933 8833 18744
 8934 8834 18745
 8935 8835 18746
 8936 8836 18747
 8937 8837 18748
 8938 8838 18749
 8939 8839 18750
 8940 8840 18751
 8941 8841 18752
 8942 8842 18753
 8943 8843 18754
 8944 8844 18755
 8945 8845 18756
 8946 8846 18757
 8947 8847 18758
 8948 8848 18759
 8949 8849 18760
 8950 8850 18761
 8951 8851 18762
 8952 8852 18763
 8953 8853 18764
 8954 8854 18765
 8955 8855 18766
 8956 8856 18767
 8957 8857 18768
 8958 8858 18769
 8959 8859 18770
 8960 8860 18771
 8961 8861 18772
 8962 8862 18773
 8963 8863 18774
 8964 8864 18775
 8965 8865 18776
 8966 8866 18777
 8967 8867 18778
 8968 8868 18779
 8969 8869 18780
 8970 8870 18781
 8971 8871 18782
 8972 8872 18783
 8973 8873 18784
 8974 8874 18785
 8975 8875 18786
 8976 8876 18787
 8977 8877 18788
 8978 8878 18789
 8979 8879 18790
 8980 8880 18791
 8981 8881 18792
 8982 8882 18793
 8983 8883 18794
 8984 8884 18795
 8985 8885 18796
 8986 8886 18797
 8987 8887 18798
 8988 8888 18799
 8989 8889 18800
 8990 8890 18801
 8991 8891 18802
 8992 8892 18803
 8993 8893 18804
 8994 8894 18805
 8995 8895 18806
 8996 8896 18807
 8997 8897 18808
 8998 8898 18809
 8999 8899 18810
 9001 8901 18811
 9002 8902 18812
 9003 8903 18813
 9004 8904 18814
 9005 8905 18815
 9006 8906 18816
 9007 8907 18817
 9008 8908 18818
 9009 8909 18819
 9010 8910 18820
 9011 8911 18821
 9012 8912 18822
 9013 8913 18823
 9014 8914 18824
 9015 8915 18825
 9016 8916 18826
 9017 8917 18827
 9018 8918 18828
 9019 8919 18829
 9020 8920 18830
 9021 8921 18831
 9022 8922 18832
 9023 8923 18833
 9024 8924 18834
 9025 8925 18835
 9026 8926 18836
 9027 8927 18837
 9028 8928 18838
 9029 8929 18839
 9030 8930 18840
 9031 8931 18841
 9032 8932 18842
 9033 8933 18843
 9034 8934 18844
 9035 8935 18845
 9036 8936 18846
 9037 8937 18847
 9038 8938 18848
 9039 8939 18849
 9040 8940 18850
 9041 8941 18851
 9042 8942 18852
 9043 8943 18853
 9044 8944 18854
 9045 8945 18855
 9046 8946 18856
 9047 8947 18857
 9048 8948 18858
 9049 8949 18859
 9050 8950 18860
 9051 8951 18861
 9052 8952 18862
 9053 8953 18863
 9054 8954 18864
 9055 8955 18865
 9056 8956 18866
 9057 8957 18867
 9058 8958 18868
 9059 8959 18869
 9060 8960 18870
 9061 8961 18871
 9062 8962 18872
 9063 8963 18873
 9064 8964 18874
 9065 8965 18875
 9066 8966 18876
 9067 8967 18877
 9068 8968 18878
 9069 8969 18879
 9070 8970 18880
 9071 8971 18881
 9072 8972 18882
 9073 8973 18883
 9074 8974 18884
 9075 8975 18885
 9076 8976 18886
 9077 8977 18887
 9078 8978 18888
 9079 8979 18889
 9080 8980 18890
 9081 8981 18891
 9082 8982 18892
 9083 8983 18893
 9084 8984 18894
 9085 8985 18895
 9086 8986 18896
 9087 8987 18897
 9088 8988 18898
 9089 8989 18899
 9090 8990 18900
 9091 8991 18901
 9092 8992 18902
 9093 8993 18903
 9094 8994 18904
 9095 8995 18905
 9096 8996 18906
 9097 8997 18907
 9098 8998 18908
 9099 8999 18909
 9101 9001 18910
 9102 9002 18911
 9103 9003 18912
 9104 9004 18913
 9105 9005 18914
 9106 9006 18915
 9107 9007 18916
 9108 9008 18917
 9109 9009 18918
 9110 9010 18919
 9111 9011 18920
 9112 9012 18921
 9113 9013 18922
 9114 9014 18923
 9115 9015 18924
 9116 9016 18925
 9117 9017 18926
 9118 9018 18927
 9119 9019 18928
 9120 9020 18929
 9121 9021 18930
 9122 9022 18931
 9123 9023 18932
 9124 9024 18933
 9125 9025 18934
 9126 9026 18935
 9127 9027 18936
 9128 9028 18937
 9129 9029 18938
 9130 9030 18939
 9131 9031 18940
 9132 9032 18941
 9133 9033 18942
 9134 9034 18943
 9135 9035 18944
 9136 9036 18945
 9137 9037 18946
 9138 9038 18947
 9139 9039 18948
 9140 9040 18949
 9141 9041 18950
 9142 9042 18951
 9143 9043 18952
 9144 9044 18953
 9145 9045 18954
 9146 9046 18955
 9147 9047 18956
 9148 9048 18957
 9149 9049 18958
 9150 9050 18959
 9151 9051 18960
 9152 9052 18961
 9153 9053 18962
 9154 9054 18963
 9155 9055 18964
 9156 9056 18965
 9157 9057 18966
 9158 9058 18967
 9159 9059 18968
 9160 9060 18969
 9161 9061 18970
 9162 9062 18971
 9163 9063 18972
 9164 9064 18973
 9165 9065 18974
 9166 9066 18975
 9167 9067 18976
 9168 9068 18977
 9169 9069 18978
 9170 9070 18979
 9171 9071 18980
 9172 9072 18981
 9173 9073 18982
 9174 9074 18983
 9175 9075 18984
 9176 9076 18985
 9177 9077 18986
 9178 9078 18987
 9179 9079 18988
 9180 9080 18989
 9181 9081 18990
 9182 9082 18991
 9183 9083 18992
 9184 9084 18993
 9185 9085 18994
 9186 9086 18995
 9187 9087 18996
 9188 9088 18997
 9189 9089 18998
 9190 9090 18999
 9191 9091 19000
 9192 9092 19001
 9193 9093 19002
 9194 9094 19003
 9195 9095 19004
 9196 9096 19005
 9197 9097 19006
 9198 9098 19007
 9199 9099 19008
 9201 9101 19009
 9202 9102 19010
 9203 9103 19011
 9204 9104 19012
 9205 9105 19013
 9206 9106 19014
 9207 9107 19015
 9208 9108 19016
 9209 9109 19017
 9210 9110 19018
 9211 9111 19019
 9212 9112 19020
 9213 9113 19021
 9214 9114 19022
 9215 9115 19023
 9216 9116 19024
 9217 9117 19025
 9218 9118 19026
 9219 9119 19027
 9220 9120 19028
 9221 9121 19029
 9222 9122 19030
 9223 9123 19031
 9224 9124 19032
 9225 9125 19033
 9226 9126 19034
 9227 9127 19035
 9228 9128 19036
 9229 9129 19037
 9230 9130 19038
 9231 9131 19039
 9232 9132 19040
 9233 9133 19041
 9234 9134 19042
 9235 9135 19043
 9236 9136 19044
 9237 9137 19045
 9238 9138 19046
 9239 9139 19047
 9240 9140 19048
 9241 9141 19049
 9242 9142 19050
 9243 9143 19051
 9244 9144 19052
 9245 9145 19053
 9246 9146 19054
 9247 9147 19055
 9248 9148 19056
 9249 9149 19057
 9250 9150 19058
 9251 9151 19059
 9252 9152 19060
 9253 9153 19061
 9254 9154 19062
 9255 9155 19063
 9256 9156 19064
 9257 9157 19065
 9258 9158 19066
 9259 9159 19067
 9260 9160 19068
 9261 9161 19069
 9262 9162 19070
 9263 9163 19071
 9264 9164 19072
 9265 9165 19073
 9266 9166 19074
 9267 9167 19075
 9268 9168 19076
 9269 9169 19077
 9270 9170 19078
 9271 9171 19079
 9272 9172 19080
 9273 9173 19081
 9274 9174 19082
 9275 9175 19083
 9276 9176 19084
 9277 9177 19085
 9278 9178 19086
 9279 9179 19087
 9280 9180 19088
 9281 9181 19089
 9282 9182 19090
 9283 9183 19091
 9284 9184 19092
 9285 9185 19093
 9286 9186 19094
 9287 9187 19095
 9288 9188 19096
 9289 9189 19097
 9290 9190 19098
 9291 9191 19099
 9292 9192 19100
 9293 9193 19101
 9294 9194 19102
 9295 9195 19103
 9296 9196 19104
 9297 9197 19105
 9298 9198 19106
 9299 9199 19107
 9301 9201 19108
 9302 9202 19109
 9303 9203 19110
 9304 9204 19111
 9305 9205 19112
 9306 9206 19113
 9307 9207 19114
 9308 9208 19115
 9309 9209 19116
 9310 9210 19117
 9311 9211 19118
 9312 9212 19119
 9313 9213 19120
 9314 9214 19121
 9315 9215 19122
 9316 9216 19123
 9317 9217 19124
 9318 9218 19125
 9319 9219 19126
 9320 9220 19127
 9321 9221 19128
 9322 9222 19129
 9323 9223 19130
 9324 9224 19131
 9325 9225 19132
 9326 9226 19133
 9327 9227 19134
 9328 9228 19135
 9329 9229 19136
 9330 9230 19137
 9331 9231 19138
 9332 9232 19139
 9333 9233 19140
 9334 9234 19141
 9335 9235 19142
 9336 9236 19143
 9337 9237 19144
 9338 9238 19145
 9339 9239 19146
 9340 9240 19147
 9341 9241 19148
 9342 9242 19149
 9343 9243 19150
 9344 9244 19151
 9345 9245 19152
 9346 9246 19153
 9347 9247 19154
 9348 9248 19155
 9349 9249 19156
 9350 9250 19157
 9351 9251 19158
 9352 9252 19159
 9353 9253 19160
 9354 9254 19161
 9355 9255 19162
 9356 9256 19163
 9357 9257 19164
 9358 9258 19165
 9359 9259 19166
 9360 9260 19167
 9361 9261 19168
 9362 9262 19169
 9363 9263 19170
 9364 9264 19171
 9365 9265 19172
 9366 9266 19173
 9367 9267 19174
 9368 9268 19175
 9369 9269 19176
 9370 9270 19177
 9371 9271 19178
 9372 9272 19179
 9373 9273 19180
 9374 9274 19181
 9375 9275 19182
 9376 9276 19183
 9377 9277 19184
 9378 9278 19185
 9379 9279 19186
 9380 9280 19187
 9381 9281 19188
 9382 9282 19189
 9383 9283 19190
 9384 9284 19191
 9385 9285 19192
 9386 9286 19193
 9387 9287 19194
 9388 9288 19195
 9389 9289 19196
 9390 9290 19197
 9391 9291 19198
 9392 9292 19199
 9393 9293 19200
 9394 9294 19201
 9395 9295 19202
 9396 9296 19203
 9397 9297 19204
 9398 9298 19205
 9399 9299 19206
 9401 9301 19207
 9402 9302 19208
 9403 9303 19209
 9404 9304 19210
 9405 9305 19211
 9406 9306 19212
 9407 9307 19213
 9408 9308 19214
 9409 9309 19215
 9410 9310 19216
 9411 9311 19217
 9412 9312 19218
 9413 9313 19219
 9414 9314 19220
 9415 9315 19221
 9416 9316 19222
 9417 9317 19223
 9418 9318 19224
 9419 9319 19225
 9420 9320 19226
 9421 9321 19227
 9422 9322 19228
 9423 9323 19229
 9424 9324 19230
 9425 9325 19231
 9426 9326 19232
 9427 9327 19233
 9428 9328 19234
 9429 9329 19235
 9430 9330 19236
 9431 9331 19237
 9432 9332 19238
 9433 9333 19239
 9434 9334 19240
 9435 9335 19241
 9436 9336 19242
 9437 9337 19243
 9438 9338 19244
 9439 9339 19245
 9440 9340 19246
 9441 9341 19247
 9442 9342 19248
 9443 9343 19249
 9444 9344 19250
 9445 9345 19251
 9446 9346 19252
 9447 9347 19253
 9448 9348 19254
 9449 9349 19255
 9450 9350 19256
 9451 9351 19257
 9452 9352 19258
 9453 9353 19259
 9454 9354 19260
 9455 9355 19261
 9456 9356 19262
 9457 9357 19263
 9458 9358 19264
 9459 9359 19265
 9460 9360 19266
 9461 9361 19267
 9462 9362 19268
 9463 9363 19269
 9464 9364 19270
 9465 9365 19271
 9466 9366 19272
 9467 9367 19273
 9468 9368 19274
 9469 9369 19275
 9470 9370 19276
 9471 9371 19277
 9472 9372 19278
 9473 9373 19279
 9474 9374 19280
 9475 9375 19281
 9476 9376 19282
 9477 9377 19283
 9478 9378 19284
 9479 9379 19285
 9480 9380 19286
 9481 9381 19287
 9482 9382 19288
 9483 9383 19289
 9484 9384 19290
 9485 9385 19291
 9486 9386 19292
 9487 9387 19293
 9488 9388 19294
 9489 9389 19295
 9490 9390 19296
 9491 9391 19297
 9492 9392 19298
 9493 9393 19299
 9494 9394 19300
 9495 9395 19301
 9496 9396 19302
 9497 9397 19303
 9498 9398 19304
 9499 9399 19305
 9501 9401 19306
 9502 9402 19307
 9503 9403 19308
 9504 9404 19309
 9505 9405 19310
 9506 9406 19311
 9507 9407 19312
 9508 9408 19313
 9509 9409 19314
 9510 9410 19315
 9511 9411 19316
 9512 9412 19317
 9513 9413 19318
 9514 9414 19319
 9515 9415 19320
 9516 9416 19321
 9517 9417 19322
 9518 9418 19323
 9519 9419 19324
 9520 9420 19325
 9521 9421 19326
 9522 9422 19327
 9523 9423 19328
 9524 9424 19329
 9525 9425 19330
 9526 9426 19331
 9527 9427 19332
 9528 9428 19333
 9529 9429 19334
 9530 9430 19335
 9531 9431 19336
 9532 9432 19337
 9533 9433 19338
 9534 9434 19339
 9535 9435 19340
 9536 9436 19341
 9537 9437 19342
 9538 9438 19343
 9539 9439 19344
 9540 9440 19345
 9541 9441 19346
 9542 9442 19347
 9543 9443 19348
 9544 9444 19349
 9545 9445 19350
 9546 9446 19351
 9547 9447 19352
 9548 9448 19353
 9549 9449 19354
 9550 9450 19355
 9551 9451 19356
 9552 9452 19357
 9553 9453 19358
 9554 9454 19359
 9555 9455 19360
 9556 9456 19361
 9557 9457 19362
 9558 9458 19363
 9559 9459 19364
 9560 9460 19365
 9561 9461 19366
 9562 9462 19367
 9563 9463 19368
 9564 9464 19369
 9565 9465 19370
 9566 9466 19371
 9567 9467 19372
 9568 9468 19373
 9569 9469 19374
 9570 9470 19375
 9571 9471 19376
 9572 9472 19377
 9573 9473 19378
 9574 9474 19379
 9575 9475 19380
 9576 9476 19381
 9577 9477 19382
 9578 9478 19383
 9579 9479 19384
 9580 9480 19385
 9581 9481 19386
 9582 9482 19387
 9583 9483 19388
 9584 9484 19389
 9585 9485 19390
 9586 9486 19391
 9587 9487 19392
 9588 9488 19393
 9589 9489 19394
 9590 9490 19395
 9591 9491 19396
 9592 9492 19397
 9593 9493 19398
 9594 9494 19399
 9595 9495 19400
 9596 9496 19401
 9597 9497 19402
 9598 9498 19403
 9599 9499 19404
 9601 9501 19405
 9602 9502 19406
 9603 9503 19407
 9604 9504 19408
 9605 9505 19409
 9606 9506 19410
 9607 9507 19411
 9608 9508 19412
 9609 9509 19413
 9610 9510 19414
 9611 9511 19415
 9612 9512 19416
 9613 9513 19417
 9614 9514 19418
 9615 9515 19419
 9616 9516 19420
 9617 9517 19421
 9618 9518 19422
 9619 9519 19423
 9620 9520 19424
 9621 9521 19425
 9622 9522 19426
 9623 9523 19427
 9624 9524 19428
 9625 9525 19429
 9626 9526 19430
 9627 9527 19431
 9628 9528 19432
 9629 9529 19433
 9630 9530 19434
 9631 9531 19435
 9632 9532 19436
 9633 9533 19437
 9634 9534 19438
 9635 9535 19439
 9636 9536 19440
 9637 9537 19441
 9638 9538 19442
 9639 9539 19443
 9640 9540 19444
 9641 9541 19445
 9642 9542 19446
 9643 9543 19447
 9644 9544 19448
 9645 9545 19449
 9646 9546 19450
 9647 9547 19451
 9648 9548 19452
 9649 9549 19453
 9650 9550 19454
 9651 9551 19455
 9652 9552 19456
 9653 9553 19457
 9654 9554 19458
 9655 9555 19459
 9656 9556 19460
 9657 9557 19461
 9658 9558 19462
 9659 9559 19463
 9660 9560 19464
 9661 9561 19465
 9662 9562 19466
 9663 9563 19467
 9664 9564 19468
 9665 9565 19469
 9666 9566 19470
 9667 9567 19471
 9668 9568 19472
 9669 9569 19473
 9670 9570 19474
 9671 9571 19475
 9672 9572 19476
 9673 9573 19477
 9674 9574 19478
 9675 9575 19479
 9676 9576 19480
 9677 9577 19481
 9678 9578 19482
 9679 9579 19483
 9680 9580 19484
 9681 9581 19485
 9682 9582 19486
 9683 9583 19487
 9684 9584 19488
 9685 9585 19489
 9686 9586 19490
 9687 9587 19491
 9688 9588 19492
 9689 9589 19493
 9690 9590 19494
 9691 9591 19495
 9692 9592 19496
 9693 9593 19497
 9694 9594 19498
 9695 9595 19499
 9696 9596 19500
 9697 9597 19501
 9698 9598 19502
 9699 9599 19503
 9701 9601 19504
 9702 9602 19505
 9703 9603 19506
 9704 9604 19507
 9705 9605 19508
 9706 9606 19509
 9707 9607 19510
 9708 9608 19511
 9709 9609 19512
 9710 9610 19513
 9711 9611 19514
 9712 9612 19515
 9713 9613 19516
 9714 9614 19517
 9715 9615 19518
 9716 9616 19519
 9717 9617 19520
 9718 9618 19521
 9719 9619 19522
 9720 9620 19523
 9721 9621 19524
 9722 9622 19525
 9723 9623 19526
 9724 9624 19527
 9725 9625 19528
 9726 9626 19529
 9727 9627 19530
 9728 9628 19531
 9729 9629 19532
 9730 9630 19533
 9731 9631 19534
 9732 9632 19535
 9733 9633 19536
 9734 9634 19537
 9735 9635 19538
 9736 9636 19539
 9737 9637 19540
 9738 9638 19541
 9739 9639 19542
 9740 9640 19543
 9741 9641 19544
 9742 9642 19545
 9743 9643 19546
 9744 9644 19547
 9745 9645 19548
 9746 9646 19549
 9747 9647 19550
 9748 9648 19551
 9749 9649 19552
 9750 9650 19553
 9751 9651 19554
 9752 9652 19555
 9753 9653 19556
 9754 9654 19557
 9755 9655 19558
 9756 9656 19559
 9757 9657 19560
 9758 9658 19561
 9759 9659 19562
 9760 9660 19563
 9761 9661 19564
 9762 9662 19565
 9763 9663 19566
 9764 9664 19567
 9765 9665 19568
 9766 9666 19569
 9767 9667 19570
 9768 9668 19571
 9769 9669 19572
 9770 9670 19573
 9771 9671 19574
 9772 9672 19575
 9773 9673 19576
 9774 9674 19577
 9775 9675 19578
 9776 9676 19579
 9777 9677 19580
 9778 9678 19581
 9779 9679 19582
 9780 9680 19583
 9781 9681 19584
 9782 9682 19585
 9783 9683 19586
 9784 9684 19587
 9785 9685 19588
 9786 9686 19589
 9787 9687 19590
 9788 9688 19591
 9789 9689 19592
 9790 9690 19593
 9791 9691 19594
 9792 9692 19595
 9793 9693 19596
 9794 9694 19597
 9795 9695 19598
 9796 9696 19599
 9797 9697 19600
 9798 9698 19601
 9799 9699 19602
 9801 9701 19603
 9802 9702 19604
 9803 9703 19605
 9804 9704 19606
 9805 9705 19607
 9806 9706 19608
 9807 9707 19609
 9808 9708 19610
 9809 9709 19611
 9810 9710 19612
 9811 9711 19613
 9812 9712 19614
 9813 9713 19615
 9814 9714 19616
 9815 9715 19617
 9816 9716 19618
 9817 9717 19619
 9818 9718 19620
 9819 9719 19621
 9820 9720 19622
 9821 9721 19623
 9822 9722 19624
 9823 9723 19625
 9824 9724 19626
 9825 9725 19627
 9826 9726 19628
 9827 9727 19629
 9828 9728 19630
 9829 9729 19631
 9830 9730 19632
 9831 9731 19633
 9832 9732 19634
 9833 9733 19635
 9834 9734 19636
 9835 9735 19637
 9836 9736 19638
 9837 9737 19639
 9838 9738 19640
 9839 9739 19641
 9840 9740 19642
 9841 9741 19643
 9842 9742 19644
 9843 9743 19645
 9844 9744 19646
 9845 9745 19647
 9846 9746 19648
 9847 9747 19649
 9848 9748 19650
 9849 9749 19651
 9850 9750 19652
 9851 9751 19653
 9852 9752 19654
 9853 9753 19655
 9854 9754 19656
 9855 9755 19657
 9856 9756 19658
 9857 9757 19659
 9858 9758 19660
 9859 9759 19661
 9860 9760 19662
 9861 9761 19663
 9862 9762 19664
 9863 9763 19665
 9864 9764 19666
 9865 9765 19667
 9866 9766 19668
 9867 9767 19669
 9868 9768 19670
 9869 9769 19671
 9870 9770 19672
 9871 9771 19673
 9872 9772 19674
 9873 9773 19675
 9874 9774 19676
 9875 9775 19677
 9876 9776 19678
 9877 9777 19679
 9878 9778 19680
 9879 9779 19681
 9880 9780 19682
 9881 9781 19683
 9882 9782 19684
 9883 9783 19685
 9884 9784 19686
 9885 9785 19687
 9886 9786 19688
 9887 9787 19689
 9888 9788 19690
 9889 9789 19691
 9890 9790 19692
 9891 9791 19693
 9892 9792 19694
 9893 9793 19695
 9894 9794 19696
 9895 9795 19697
 9896 9796 19698
 9897 9797 19699
 9898 9798 19700
 9899 9799 19701
 9901 9801 19702
 9902 9802 19703
 9903 9803 19704
 9904 9804 19705
 9905 9805 19706
 9906 9806 19707
 9907 9807 19708
 9908 9808 19709
 9909 9809 19710
 9910 9810 19711
 9911 9811 19712
 9912 9812 19713
 9913 9813 19714
 9914 9814 19715
 9915 9815 19716
 9916 9816 19717
 9917 9817 19718
 9918 9818 19719
 9919 9819 19720
 9920 9820 19721
 9921 9821 19722
 9922 9822 19723
 9923 9823 19724
 9924 9824 19725
 9925 9825 19726
 9926 9826 19727
 9927 9827 19728
 9928 9828 19729
 9929 9829 19730
 9930 9830 19731
 9931 9831 19732
 9932 9832 19733
 9933 9833 19734
 9934 9834 19735
 9935 9835 19736
 9936 9836 19737
 9937 9837 19738
 9938 9838 19739
 9939 9839 19740
 9940 9840 19741
 9941 9841 19742
 9942 9842 19743
 9943 9843 19744
 9944 9844 19745
 9945 9845 19746
 9946 9846 19747
 9947 9847 19748
 9948 9848 19749
 9949 9849 19750
 9950 9850 19751
 9951 9851 19752
 9952 9852 19753
 9953 9853 19754
 9954 9854 19755
 9955 9855 19756
 9956 9856 19757
 9957 9857 19758
 9958 9858 19759
 9959 9859 19760
 9960 9860 19761
 9961 9861 19762
 9962 9862 19763
 9963 9863 19764
 9964 9864 19765
 9965 9865 19766
 9966 9866 19767
 9967 9867 19768
 9968 9868 19769
 9969 9869 19770
 9970 9870 19771
 9971 9871 19772
 9972 9872 19773
 9973 9873 19774
 9974 9874 19775
 9975 9875 19776
 9976 9876 19777
 9977 9877 19778
 9978 9878 19779
 9979 9879 19780
 9980 9880 19781
 9981 9881 19782
 9982 9882 19783
 9983 9883 19784
 9984 9884 19785
 9985 9885 19786
 9986 9886 19787
 9987 9887 19788
 9988 9888 19789
 9989 9889 19790
 9990 9890 19791
 9991 9891 19792
 9992 9892 19793
 9993 9893 19794
 9994 9894 19795
 9995 9895 19796
 9996 9896 19797
 9997 9897 19798
 9998 9898 19799
 9999 9899 19800
 100 101 10000
 101 102 10001
 102 103 10002
 103 104 10003
 104 105 10004
 105 106 10005
 106 107 10006
 107 108 10007
 108 109 10008
 109 110 10009
 110 111 10010
 111 112 10011
 112 113 10012
 113 114 10013
 114 115 10014
 115 116 10015
 116 117 10016
 117 118 10017
 118 119 10018
 119 120 10019
 120 121 10020
 121 122 10021
 122 123 10022
 123 124 10023
 124 125 10024
 125 126 10025
 126 127 10026
 127 128 10027
 128 129 10028
 129 130 10029
 130 131 10030
 131 132 10031
 132 133 10032
 133 134 10033
 134 135 10034
 135 136 10035
 136 137 10036
 137 138 10037
 138 139 10038
 139 140 10039
 140 141 10040
 141 142 10041
 142 143 10042
 143 144 10043
 144 145 10044
 145 146 10045
 146 147 10046
 147 148 10047
 148 149 10048
 149 150 10049
 150 151 10050
 151 152 10051
 152 153 10052
 153 154 10053
 154 155 10054
 155 156 10055
 156 157 10056
 157 158 10057
 158 159 10058
 159 160 10059
 160 161 10060
 161 162 10061
 162 163 10062
 163 164 10063
 164 165 10064
 165 166 10065
 166 167 10066
 167 168 10067
 168 169 10068
 169 170 10069
 170 171 10070
 171 172 10071
 172 173 10072
 173 174 10073
 174 175 10074
 175 176 10075
 176 177 10076
 177 178 10077
 178 179 10078
 179 180 10079
 180 181 10080
 181 182 10081
 182 183 10082
 183 184 10083
 184 185 10084
 185 186 10085
 186 187 10086
 187 188 10087
 188 189 10088
 189 190 10089
 190 191 10090
 191 192 10091
 192 193 10092
 193 194 10093
 194 195 10094
 195 196 10095
 196 197 10096
 197 198 10097
 198 199 10098
 200 201 10099
 201 202 10100
 202 203 10101
 203 204 10102
 204 205 10103
 205 206 10104
 206 207 10105
 207 208 10106
 208 209 10107
 209 210 10108
 210 211 10109
 211 212 10110
 212 213 10111
 213 214 10112
 214 215 10113
 215 216 10114
 216 217 10115
 217 218 10116
 218 219 10117
 219 220 10118
 220 221 10119
 221 222 10120
 222 223 10121
 223 224 10122
 224 225 10123
 225 226 10124
 226 227 10125
 227 228 10126
 228 229 10127
 229 230 10128
 230 231 10129
 231 232 10130
 232 233 10131
 233 234 10132
 234 235 10133
 235 236 10134
 236 237 10135
 237 238 10136
 238 239 10137
 239 240 10138
 240 241 10139
 241 242 10140
 242 243 10141
 243 244 10142
 244 245 10143
 245 246 10144
 246 247 10145
 247 248 10146
 248 249 10147
 249 250 10148
 250 251 10149
 251 252 10150
 252 253 10151
 253 254 10152
 254 255 10153
 255 256 10154
 256 257 10155
 257 258 10156
 258 259 10157
 259 260 10158
 260 261 10159
 261 262 10160
 262 263 10161
 263 264 10162
 264 265 10163
 265 266 10164
 266 267 10165
 267 268 10166
 268 269 10167
 269 270 10168
 270 271 10169
 271 272 10170
 272 273 10171
 273 274 10172
 274 275 10173
 275 276 10174
 276 277 10175
 277 278 10176
 278 279 10177
 279 280 10178
 280 281 10179
 281 282 10180
 282 283 10181
 283 284 10182
 284 285 10183
 285 286 10184
 286 287 10185
 287 288 10186
 288 289 10187
 289 290 10188
 290 291 10189
 291 292 10190
 292 293 10191
 293 294 10192
 294 295 10193
 295 296 10194
 296 297 10195
 297 298 10196
 298 299 10197
 300 301 10198
 301 302 10199
 302 303 10200
 303 304 10201
 304 305 10202
 305 306 10203
 306 307 10204
 307 308 10205
 308 309 10206
 309 310 10207
 310 311 10208
 311 312 10209
 312 313 10210
 313 314 10211
 314 315 10212
 315 316 10213
 316 317 10214
 317 318 10215
 318 319 10216
 319 320 10217
 320 321 10218
 321 322 10219
 322 323 10220
 323 324 10221
 324 325 10222
 325 326 10223
 326 327 10224
 327 328 10225
 328 329 10226
 329 330 10227
 330 331 10228
 331 332 10229
 332 333 10230
 333 334 10231
 334 335 10232
 335 336 10233
 336 337 10234
 337 338 10235
 338 339 10236
 339 340 10237
 340 341 10238
 341 342 10239
 342 343 10240
 343 344 10241
 344 345 10242
 345 346 10243
 346 347 10244
 347 348 10245
 348 349 10246
 349 350 10247
 350 351 10248
 351 352 10249
 352 353 10250
 353 354 10251
 354 355 10252
 355 356 10253
 356 357 10254
 357 358 10255
 358 359 10256
 359 360 10257
 360 361 10258
 361 362 10259
 362 363 10260
 363 364 10261
 364 365 10262
 365 366 10263
 366 367 10264
 367 368 10265
 368 369 10266
 369 370 10267
 370 371 10268
 371 372 10269
 372 373 10270
 373 374 10271
 374 375 10272
 375 376 10273
 376 377 10274
 377 378 10275
 378 379 10276
 379 380 10277
 380 381 10278
 381 382 10279
 382 383 10280
 383 384 10281
 384 385 10282
 385 386 10283
 386 387 10284
 387 388 10285
 388 389 10286
 389 390 10287
 390 391 10288
 391 392 10289
 392 393 10290
 393 394 10291
 394 395 10292
 395 396 10293
 396 397 10294
 397 398 10295
 398 399 10296
 400 401 10297
 401 402 10298
 402 403 10299
 403 404 10300
 404 405 10301
 405 406 10302
 406 407 10303
 407 408 10304
 408 409 10305
 409 410 10306
 410 411 10307
 411 412 10308
 412 413 10309
 413 414 10310
 414 415 10311
 415 416 10312
 416 417 10313
 417 418 10314
 418 419 10315
 419 420 10316
 420 421 10317
 421 422 10318
 422 423 10319
 423 424 10320
 424 425 10321
 425 426 10322
 426 427 10323
 427 428 10324
 428 429 10325
 429 430 10326
 430 431 10327
 431 432 10328
 432 433 10329
 433 434 10330
 434 435 10331
 435 436 10332
 436 437 10333
 437 438 10334
 438 439 10335
 439 440 10336
 440 441 10337
 441 442 10338
 442 443 10339
 443 444 10340
 444 445 10341
 445 446 10342
 446 447 10343
 447 448 10344
 448 449 10345
 449 450 10346
 450 451 10347
 451 452 10348
 452 453 10349
 453 454 10350
 454 455 10351
 455 456 10352
 456 457 10353
 457 458 10354
 458 459 10355
 459 460 10356
 460 461 10357
 461 462 10358
 462 463 10359
 463 464 10360
 464 465 10361
 465 466 10362
 466 467 10363
 467 468 10364
 468 469 10365
 469 470 10366
 470 471 10367
 471 472 10368
 472 473 10369
 473 474 10370
 474 475 10371
 475 476 10372
 476 477 10373
 477 478 10374
 478 479 10375
 479 480 10376
 480 481 10377
 481 482 10378
 482 483 10379
 483 484 10380
 484 485 10381
 485 486 10382
 486 487 10383
 487 488 10384
 488 489 10385
 489 490 10386
 490 491 10387
 491 492 10388
 492 493 10389
 493 494 10390
 494 495 10391
 495 496 10392
 496 497 10393
 497 498 10394
 498 499 10395
 500 501 10396
 501 502 10397
 502 503 10398
 503 504 10399
 504 505 10400
 505 506 10401
 506 507 10402
 507 508 10403
 508 509 10404
 509 510 10405
 510 511 10406
 511 512 10407
 512 513 10408
 513 514 10409
 514 515 10410
 515 516 10411
 516 517 10412
 517 518 10413
 518 519 10414
 519 520 10415
 520 521 10416
 521 522 10417
 522 523 10418
 523 524 10419
 524 525 10420
 525 526 10421
 526 527 10422
 527 528 10423
 528 529 10424
 529 530 10425
 530 531 10426
 531 532 10427
 532 533 10428
 533 534 10429
 534 535 10430
 535 536 10431
 536 537 10432
 537 538 10433
 538 539 10434
 539 540 10435
 540 541 10436
 541 542 10437
 542 543 10438
 543 544 10439
 544 545 10440
 545 546 10441
 546 547 10442
 547 548 10443
 548 549 10444
 549 550 10445
 550 551 10446
 551 552 10447
 552 553 10448
 553 554 10449
 554 555 10450
 555 556 10451
 556 557 10452
 557 558 10453
 558 559 10454
 559 560 10455
 560 561 10456
 561 562 10457
 562 563 10458
 563 564 10459
 564 565 10460
 565 566 10461
 566 567 10462
 567 568 10463
 568 569 10464
 569 570 10465
 570 571 10466
 571 572 10467
 572 573 10468
 573 574 10469
 574 575 10470
 575 576 10471
 576 577 10472
 577 578 10473
 578 579 10474
 579 580 10475
 580 581 10476
 581 582 10477
 582 583 10478
 583 584 10479
 584 585 10480
 585 586 10481
 586 587 10482
 587 588 10483
 588 589 10484
 589 590 10485
 590 591 10486
 591 592 10487
 592 593 10488
 593 594 10489
 594 595 10490
 595 596 10491
 596 597 10492
 597 598 10493
 598 599 10494
 600 601 10495
 601 602 10496
 602 603 10497
 603 604 10498
 604 605 10499
 605 606 10500
 606 607 10501
 607 608 10502
 608 609 10503
 609 610 10504
 610 611 10505
 611 612 10506
 612 613 10507
 613 614 10508
 614 615 10509
 615 616 10510
 616 617 10511
 617 618 10512
 618 619 10513
 619 620 10514
 620 621 10515
 621 622 10516
 622 623 10517
 623 624 10518
 624 625 10519
 625 626 10520
 626 627 10521
 627 628 10522
 628 629 10523
 629 630 10524
 630 631 10525
 631 632 10526
 632 633 10527
 633 634 10528
 634 635 10529
 635 636 10530
 636 637 10531
 637 638 10532
 638 639 10533
 639 640 10534
 640 641 10535
 641 642 10536
 642 643 10537
 643 644 10538
 644 645 10539
 645 646 10540
 646 647 10541
 647 648 10542
 648 649 10543
 649 650 10544
 650 651 10545
 651 652 10546
 652 653 10547
 653 654 10548
 654 655 10549
 655 656 10550
 656 657 10551
 657 658 10552
 658 659 10553
 659 660 10554
 660 661 10555
 661 662 10556
 662 663 10557
 663 664 10558
 664 665 10559
 665 666 10560
 666 667 10561
 667 668 10562
 668 669 10563
 669 670 10564
 670 671 10565
 671 672 10566
 672 673 10567
 673 674 10568
 674 675 10569
 675 676 10570
 676 677 10571
 677 678 10572
 678 679 10573
 679 680 10574
 680 681 10575
 681 682 10576
 682 683 10577
 683 684 10578
 684 685 10579
 685 686 10580
 686 687 10581
 687 688 10582
 688 689 10583
 689 690 10584
 690 691 10585
 691 692 10586
 692 693 10587
 693 694 10588
 694 695 10589
 695 696 10590
 696 697 10591
 697 698 10592
 698 699 10593
 700 701 10594
 701 702 10595
 702 703 10596
 703 704 10597
 704 705 10598
 705 706 10599
 706 707 10600
 707 708 10601
 708 709 10602
 709 710 10603
 710 711 10604
 711 712 10605
 712 713 10606
 713 714 10607
 714 715 10608
 715 716 10609
 716 717 10610
 717 718 10611
 718 719 10612
 719 720 10613
 720 721 10614
 721 722 10615
 722 723 10616
 723 724 10617
 724 725 10618
 725 726 10619
 726 727 10620
 727 728 10621
 728 729 10622
 729 730 10623
 730 731 10624
 731 732 10625
 732 733 10626
 733 734 10627
 734 735 10628
 735 736 10629
 736 737 10630
 737 738 10631
 738 739 10632
 739 740 10633
 740 741 10634
 741 742 10635
 742 743 10636
 743 744 10637
 744 745 10638
 745 746 10639
 746 747 10640
 747 748 10641
 748 749 10642
 749 750 10643
 750 751 10644
 751 752 10645
 752 753 10646
 753 754 10647
 754 755 10648
 755 756 10649
 756 757 10650
 757 758 10651
 758 759 10652
 759 760 10653
 760 761 10654
 761 762 10655
 762 763 10656
 763 764 10657
 764 765 10658
 765 766 10659
 766 767 10660
 767 768 10661
 768 769 10662
 769 770 10663
 770 771 10664
 771 772 10665
 772 773 10666
 773 774 10667
 774 775 10668
 775 776 10669
 776 777 10670
 777 778 10671
 778 779 10672
 779 780 10673
 780 781 10674
 781 782 10675
 782 783 10676
 783 784 10677
 784 785 10678
 785 786 10679
 786 787 10680
 787 788 10681
 788 789 10682
 789 790 10683
 790 791 10684
 791 792 10685
 792 793 10686
 793 794 10687
 794 795 10688
 795 796 10689
 796 797 10690
 797 798 10691
 798 799 10692
 800 801 10693
 801 802 10694
 802 803 10695
 803 804 10696
 804 805 10697
 805 806 10698
 806 807 10699
 807 808 10700
 808 809 10701
 809 810 10702
 810 811 10703
 811 812 10704
 812 813 10705
 813 814 10706
 814 815 10707
 815 816 10708
 816 817 10709
 817 818 10710
 818 819 10711
 819 820 10712
 820 821 10713
 821 822 10714
 822 823 10715
 823 824 10716
 824 825 10717
 825 826 10718
 826 827 10719
 827 828 10720
 828 829 10721
 829 830 10722
 830 831 10723
 831 832 10724
 832 833 10725
 833 834 10726
 834 835 10727
 835 836 10728
 836 837 10729
 837 838 10730
 838 839 10731
 839 840 10732
 840 841 10733
 841 842 10734
 842 843 10735
 843 844 10736
 844 845 10737
 845 846 10738
 846 847 10739
 847 848 10740
 848 849 10741
 849 850 10742
 850 851 10743
 851 852 10744
 852 853 10745
 853 854 10746
 854 855 10747
 855 856 10748
 856 857 10749
 857 858 10750
 858 859 10751
 859 860 10752
 860 861 10753
 861 862 10754
 862 863 10755
 863 864 10756
 864 865 10757
 865 866 10758
 866 867 10759
 867 868 10760
 868 869 10761
 869 870 10762
 870 871 10763
 871 872 10764
 872 873 10765
 873 874 10766
 874 875 10767
 875 876 10768
 876 877 10769
 877 878 10770
 878 879 10771
 879 880 10772
 880 881 10773
 881 882 10774
 882 883 10775
 883 884 10776
 884 885 10777
 885 886 10778
 886 887 10779
 887 888 10780
 888 889 10781
 889 890 10782
 890 891 10783
 891 892 10784
 892 893 10785
 893 894 10786
 894 895 10787
 895 896 10788
 896 897 10789
 897 898 10790
 898 899 10791
 900 901 10792
 901 902 10793
 902 903 10794
 903 904 10795
 904 905 10796
 905 906 10797
 906 907 10798
 907 908 10799
 908 909 10800
 909 910 10801
 910 911 10802
 911 912 10803
 912 913 10804
 913 914 10805
 914 915 10806
 915 916 10807
 916 917 10808
 917 918 10809
 918 919 10810
 919 920 10811
 920 921 10812
 921 922 10813
 922 923 10814
 923 924 10815
 924 925 10816
 925 926 10817
 926 927 10818
 927 928 10819
 928 929 10820
 929 930 10821
 930 931 10822
 931 932 10823
 932 933 10824
 933 934 10825
 934 935 10826
 935 936 10827
 936 937 10828
 937 938 10829
 938 939 10830
 939 940 10831
 940 941 10832
 941 942 10833
 942 943 10834
 943 944 10835
 944 945 10836
 945 946 10837
 946 947 10838
 947 948 10839
 948 949 10840
 949 950 10841
 950 951 10842
 951 952 10843
 952 953 10844
 953 954 10845
 954 955 10846
 955 956 10847
 956 957 10848
 957 958 10849
 958 959 10850
 959 960 10851
 960 961 10852
 961 962 10853
 962 963 10854
 963 964 10855
 964 965 10856
 965 966 10857
 966 967 10858
 967 968 10859
 968 969 10860
 969 970 10861
 970 971 10862
 971 972 10863
 972 973 10864
 973 974 10865
 974 975 10866
 975 976 10867
 976 977 10868
 977 978 10869
 978 979 10870
 979 980 10871
 980 981 10872
 981 982 10873
 982 983 10874
 983 984 10875
 984 985 10876
 985 986 10877
 986 987 10878
 987 988 10879
 988 989 10880
 989 990 10881
 990 991 10882
 991 992 10883
 992 993 10884
 993 994 10885
 994 995 10886
 995 996 10887
 996 997 10888
 997 998 10889
 998 999 10890
 1000 1001 10891
 1001 1002 10892
 1002 1003 10893
 1003 1004 10894
 1004 1005 10895
 1005 1006 10896
 1006 1007 10897
 1007 1008 10898
 1008 1009 10899
 1009 1010 10900
 1010 1011 10901
 1011 1012 10902
 1012 1013 10903
 1013 1014 10904
 1014 1015 10905
 1015 1016 10906
 1016 1017 10907
 1017 1018 10908
 1018 1019 10909
 1019 1020 10910
 1020 1021 10911
 1021 1022 10912
 1022 1023 10913
 1023 1024 10914
 1024 1025 10915
 1025 1026 10916
 1026 1027 10917
 1027 1028 10918
 1028 1029 10919
 1029 1030 10920
 1030 1031 10921
 1031 1032 10922
 1032 1033 10923
 1033 1034 10924
 1034 1035 10925
 1035 1036 10926
 1036 1037 10927
 1037 1038 10928
 1038 1039 10929
 1039 1040 10930
 1040 1041 10931
 1041 1042 10932
 1042 1043 10933
 1043 1044 10934
 1044 1045 10935
 1045 1046 10936
 1046 1047 10937
 1047 1048 10938
 1048 1049 10939
 1049 1050 10940
 1050 1051 10941
 1051 1052 10942
 1052 1053 10943
 1053 1054 10944
 1054 1055 10945
 1055 1056 10946
 1056 1057 10947
 1057 1058 10948
 1058 1059 10949
 1059 1060 10950
 1060 1061 10951
 1061 1062 10952
 1062 1063 10953
 1063 1064 10954
 1064 1065 10955
 1065 1066 10956
 1066 1067 10957
 1067 1068 10958
 1068 1069 10959
 1069 1070 10960
 1070 1071 10961
 1071 1072 10962
 1072 1073 10963
 1073 1074 10964
 1074 1075 10965
 1075 1076 10966
 1076 1077 10967
 1077 1078 10968
 1078 1079 10969
 1079 1080 10970
 1080 1081 10971
 1081 1082 10972
 1082 1083 10973
 1083 1084 10974
 1084 1085 10975
 1085 1086 10976
 1086 1087 10977
 1087 1088 10978
 1088 1089 10979
 1089 1090 10980
 1090 1091 10981
 1091 1092 10982
 1092 1093 10983
 1093 1094 10984
 1094 1095 10985
 1095 1096 10986
 1096 1097 10987
 1097 1098 10988
 1098 1099 10989
 1100 1101 10990
 1101 1102 10991
 1102 1103 10992
 1103 1104 10993
 1104 1105 10994
 1105 1106 10995
 1106 1107 10996
 1107 1108 10997
 1108 1109 10998
 1109 1110 10999
 1110 1111 11000
 1111 1112 11001
 1112 1113 11002
 1113 1114 11003
 1114 1115 11004
 1115 1116 11005
 1116 1117 11006
 1117 1118 11007
 1118 1119 11008
 1119 1120 11009
 1120 1121 11010
 1121 1122 11011
 1122 1123 11012
 1123 1124 11013
 1124 1125 11014
 1125 1126 11015
 1126 1127 11016
 1127 1128 11017
 1128 1129 11018
 1129 1130 11019
 1130 1131 11020
 1131 1132 11021
 1132 1133 11022
 1133 1134 11023
 1134 1135 11024
 1135 1136 11025
 1136 1137 11026
 1137 1138 11027
 1138 1139 11028
 1139 1140 11029
 1140 1141 11030
 1141 1142 11031
 1142 1143 11032
 1143 1144 11033
 1144 1145 11034
 1145 1146 11035
 1146 1147 11036
 1147 1148 11037
 1148 1149 11038
 1149 1150 11039
 1150 1151 11040
 1151 1152 11041
 1152 1153 11042
 1153 1154 11043
 1154 1155 11044
 1155 1156 11045
 1156 1157 11046
 1157 1158 11047
 1158 1159 11048
 1159 1160 11049
 1160 1161 11050
 1161 1162 11051
 1162 1163 11052
 1163 1164 11053
 1164 1165 11054
 1165 1166 11055
 1166 1167 11056
 1167 1168 11057
 1168 1169 11058
 1169 1170 11059
 1170 1171 11060
 1171 1172 11061
 1172 1173 11062
 1173 1174 11063
 1174 1175 11064
 1175 1176 11065
 1176 1177 11066
 1177 1178 11067
 1178 1179 11068
 1179 1180 11069
 1180 1181 11070
 1181 1182 11071
 1182 1183 11072
 1183 1184 11073
 1184 1185 11074
 1185 1186 11075
 1186 1187 11076
 1187 1188 11077
 1188 1189 11078
 1189 1190 11079
 1190 1191 11080
 1191 1192 11081
 1192 1193 11082
 1193 1194 11083
 1194 1195 11084
 1195 1196 11085
 1196 1197 11086
 1197 1198 11087
 1198 1199 11088
 1200 1201 11089
 1201 1202 11090
 1202 1203 11091
 1203 1204 11092
 1204 1205 11093
 1205 1206 11094
 1206 1207 11095
 1207 1208 11096
 1208 1209 11097
 1209 1210 11098
 1210 1211 11099
 1211 1212 11100
 1212 1213 11101
 1213 1214 11102
 1214 1215 11103
 1215 1216 11104
 1216 1217 11105
 1217 1218 11106
 1218 1219 11107
 1219 1220 11108
 1220 1221 11109
 1221 1222 11110
 1222 1223 11111
 1223 1224 11112
 1224 1225 11113
 1225 1226 11114
 1226 1227 11115
 1227 1228 11116
 1228 1229 11117
 1229 1230 11118
 1230 1231 11119
 1231 1232 11120
 1232 1233 11121
 1233 1234 11122
 1234 1235 11123
 1235 1236 11124
 1236 1237 11125
 1237 1238 11126
 1238 1239 11127
 1239 1240 11128
 1240 1241 11129
 1241 1242 11130
 1242 1243 11131
 1243 1244 11132
 1244 1245 11133
 1245 1246 11134
 1246 1247 11135
 1247 1248 11136
 1248 1249 11137
 1249 1250 11138
 1250 1251 11139
 1251 1252 11140
 1252 1253 11141
 1253 1254 11142
 1254 1255 11143
 1255 1256 11144
 1256 1257 11145
 1257 1258 11146
 1258 1259 11147
 1259 1260 11148
 1260 1261 11149
 1261 1262 11150
 1262 1263 11151
 1263 1264 11152
 1264 1265 11153
 1265 1266 11154
 1266 1267 11155
 1267 1268 11156
 1268 1269 11157
 1269 1270 11158
 1270 1271 11159
 1271 1272 11160
 1272 1273 11161
 1273 1274 11162
 1274 1275 11163
 1275 1276 11164
 1276 1277 11165
 1277 1278 11166
 1278 1279 11167
 1279 1280 11168
 1280 1281 11169
 1281 1282 11170
 1282 1283 11171
 1283 1284 11172
 1284 1285 11173
 1285 1286 11174
 1286 1287 11175
 1287 1288 11176
 1288 1289 11177
 1289 1290 11178
 1290 1291 11179
 1291 1292 11180
 1292 1293 11181
 1293 1294 11182
 1294 1295 11183
 1295 1296 11184
 1296 1297 11185
 1297 1298 11186
 1298 1299 11187
 1300 1301 11188
 1301 1302 11189
 1302 1303 11190
 1303 1304 11191
 1304 1305 11192
 1305 1306 11193
 1306 1307 11194
 1307 1308 11195
 1308 1309 11196
 1309 1310 11197
 1310 1311 11198
 1311 1312 11199
 1312 1313 11200
 1313 1314 11201
 1314 1315 11202
 1315 1316 11203
 1316 1317 11204
 1317 1318 11205
 1318 1319 11206
 1319 1320 11207
 1320 1321 11208
 1321 1322 11209
 1322 1323 11210
 1323 1324 11211
 1324 1325 11212
 1325 1326 11213
 1326 1327 11214
 1327 1328 11215
 1328 1329 11216
 1329 1330 11217
 1330 1331 11218
 1331 1332 11219
 1332 1333 11220
 1333 1334 11221
 1334 1335 11222
 1335 1336 11223
 1336 1337 11224
 1337 1338 11225
 1338 1339 11226
 1339 1340 11227
 1340 1341 11228
 1341 1342 11229
 1342 1343 11230
 1343 1344 11231
 1344 1345 11232
 1345 1346 11233
 1346 1347 11234
 1347 1348 11235
 1348 1349 11236
 1349 1350 11237
 1350 1351 11238
 1351 1352 11239
 1352 1353 11240
 1353 1354 11241
 1354 1355 11242
 1355 1356 11243
 1356 1357 11244
 1357 1358 11245
 1358 1359 11246
 1359 1360 11247
 1360 1361 11248
 1361 1362 11249
 1362 1363 11250
 1363 1364 11251
 1364 1365 11252
 1365 1366 11253
 1366 1367 11254
 1367 1368 11255
 1368 1369 11256
 1369 1370 11257
 1370 1371 11258
 1371 1372 11259
 1372 1373 11260
 1373 1374 11261
 1374 1375 11262
 1375 1376 11263
 1376 1377 11264
 1377 1378 11265
 1378 1379 11266
 1379 1380 11267
 1380 1381 11268
 1381 1382 11269
 1382 1383 11270
 1383 1384 11271
 1384 1385 11272
 1385 1386 11273
 1386 1387 11274
 1387 1388 11275
 1388 1389 11276
 1389 1390 11277
 1390 1391 11278
 1391 1392 11279
 1392 1393 11280
 1393 1394 11281
 1394 1395 11282
 1395 1396 11283
 1396 1397 11284
 1397 1398 11285
 1398 1399 11286
 1400 1401 11287
 1401 1402 11288
 1402 1403 11289
 1403 1404 11290
 1404 1405 11291
 1405 1406 11292
 1406 1407 11293
 1407 1408 11294
 1408 1409 11295
 1409 1410 11296
 1410 1411 11297
 1411 1412 11298
 1412 1413 11299
 1413 1414 11300
 1414 1415 11301
 1415 1416 11302
 1416 1417 11303
 1417 1418 11304
 1418 1419 11305
 1419 1420 11306
 1420 1421 11307
 1421 1422 11308
 1422 1423 11309
 1423 1424 11310
 1424 1425 11311
 1425 1426 11312
 1426 1427 11313
 1427 1428 11314
 1428 1429 11315
 1429 1430 11316
 1430 1431 11317
 1431 1432 11318
 1432 1433 11319
 1433 1434 11320
 1434 1435 11321
 1435 1436 11322
 1436 1437 11323
 1437 1438 11324
 1438 1439 11325
 1439 1440 11326
 1440 1441 11327
 1441 1442 11328
 1442 1443 11329
 1443 1444 11330
 1444 1445 11331
 1445 1446 11332
 1446 1447 11333
 1447 1448 11334
 1448 1449 11335
 1449 1450 11336
 1450 1451 11337
 1451 1452 11338
 1452 1453 11339
 1453 1454 11340
 1454 1455 11341
 1455 1456 11342
 1456 1457 11343
 1457 1458 11344
 1458 1459 11345
 1459 1460 11346
 1460 1461 11347
 1461 1462 11348
 1462 1463 11349
 1463 1464 11350
 1464 1465 11351
 1465 1466 11352
 1466 1467 11353
 1467 1468 11354
 1468 1469 11355
 1469 1470 11356
 1470 1471 11357
 1471 1472 11358
 1472 1473 11359
 1473 1474 11360
 1474 1475 11361
 1475 1476 11362
 1476 1477 11363
 1477 1478 11364
 1478 1479 11365
 1479 1480 11366
 1480 1481 11367
 1481 1482 11368
 1482 1483 11369
 1483 1484 11370
 1484 1485 11371
 1485 1486 11372
 1486 1487 11373
 1487 1488 11374
 1488 1489 11375
 1489 1490 11376
 1490 1491 11377
 1491 1492 11378
 1492 1493 11379
 1493 1494 11380
 1494 1495 11381
 1495 1496 11382
 1496 1497 11383
 1497 1498 11384
 1498 1499 11385
 1500 1501 11386
 1501 1502 11387
 1502 1503 11388
 1503 1504 11389
 1504 1505 11390
 1505 1506 11391
 1506 1507 11392
 1507 1508 11393
 1508 1509 11394
 1509 1510 11395
 1510 1511 11396
 1511 1512 11397
 1512 1513 11398
 1513 1514 11399
 1514 1515 11400
 1515 1516 11401
 1516 1517 11402
 1517 1518 11403
 1518 1519 11404
 1519 1520 11405
 1520 1521 11406
 1521 1522 11407
 1522 1523 11408
 1523 1524 11409
 1524 1525 11410
 1525 1526 11411
 1526 1527 11412
 1527 1528 11413
 1528 1529 11414
 1529 1530 11415
 1530 1531 11416
 1531 1532 11417
 1532 1533 11418
 1533 1534 11419
 1534 1535 11420
 1535 1536 11421
 1536 1537 11422
 1537 1538 11423
 1538 1539 11424
 1539 1540 11425
 1540 1541 11426
 1541 1542 11427
 1542 1543 11428
 1543 1544 11429
 1544 1545 11430
 1545 1546 11431
 1546 1547 11432
 1547 1548 11433
 1548 1549 11434
 1549 1550 11435
 1550 1551 11436
 1551 1552 11437
 1552 1553 11438
 1553 1554 11439
 1554 1555 11440
 1555 1556 11441
 1556 1557 11442
 1557 1558 11443
 1558 1559 11444
 1559 1560 11445
 1560 1561 11446
 1561 1562 11447
 1562 1563 11448
 1563 1564 11449
 1564 1565 11450
 1565 1566 11451
 1566 1567 11452
 1567 1568 11453
 1568 1569 11454
 1569 1570 11455
 1570 1571 11456
 1571 1572 11457
 1572 1573 11458
 1573 1574 11459
 1574 1575 11460
 1575 1576 11461
 1576 1577 11462
 1577 1578 11463
 1578 1579 11464
 1579 1580 11465
 1580 1581 11466
 1581 1582 11467
 1582 1583 11468
 1583 1584 11469
 1584 1585 11470
 1585 1586 11471
 1586 1587 11472
 1587 1588 11473
 1588 1589 11474
 1589 1590 11475
 1590 1591 11476
 1591 1592 11477
 1592 1593 11478
 1593 1594 11479
 1594 1595 11480
 1595 1596 11481
 1596 1597 11482
 1597 1598 11483
 1598 1599 11484
 1600 1601 11485
 1601 1602 11486
 1602 1603 11487
 1603 1604 11488
 1604 1605 11489
 1605 1606 11490
 1606 1607 11491
 1607 1608 11492
 1608 1609 11493
 1609 1610 11494
 1610 1611 11495
 1611 1612 11496
 1612 1613 11497
 1613 1614 11498
 1614 1615 11499
 1615 1616 11500
 1616 1617 11501
 1617 1618 11502
 1618 1619 11503
 1619 1620 11504
 1620 1621 11505
 1621 1622 11506
 1622 1623 11507
 1623 1624 11508
 1624 1625 11509
 1625 1626 11510
 1626 1627 11511
 1627 1628 11512
 1628 1629 11513
 1629 1630 11514
 1630 1631 11515
 1631 1632 11516
 1632 1633 11517
 1633 1634 11518
 1634 1635 11519
 1635 1636 11520
 1636 1637 11521
 1637 1638 11522
 1638 1639 11523
 1639 1640 11524
 1640 1641 11525
 1641 1642 11526
 1642 1643 11527
 1643 1644 11528
 1644 1645 11529
 1645 1646 11530
 1646 1647 11531
 1647 1648 11532
 1648 1649 11533
 1649 1650 11534
 1650 1651 11535
 1651 1652 11536
 1652 1653 11537
 1653 1654 11538
 1654 1655 11539
 1655 1656 11540
 1656 1657 11541
 1657 1658 11542
 1658 1659 11543
 1659 1660 11544
 1660 1661 11545
 1661 1662 11546
 1662 1663 11547
 1663 1664 11548
 1664 1665 11549
 1665 1666 11550
 1666 1667 11551
 1667 1668 11552
 1668 1669 11553
 1669 1670 11554
 1670 1671 11555
 1671 1672 11556
 1672 1673 11557
 1673 1674 11558
 1674 1675 11559
 1675 1676 11560
 1676 1677 11561
 1677 1678 11562
 1678 1679 11563
 1679 1680 11564
 1680 1681 11565
 1681 1682 11566
 1682 1683 11567
 1683 1684 11568
 1684 1685 11569
 1685 1686 11570
 1686 1687 11571
 1687 1688 11572
 1688 1689 11573
 1689 1690 11574
 1690 1691 11575
 1691 1692 11576
 1692 1693 11577
 1693 1694 11578
 1694 1695 11579
 1695 1696 11580
 1696 1697 11581
 1697 1698 11582
 1698 1699 11583
 1700 1701 11584
 1701 1702 11585
 1702 1703 11586
 1703 1704 11587
 1704 1705 11588
 1705 1706 11589
 1706 1707 11590
 1707 1708 11591
 1708 1709 11592
 1709 1710 11593
 1710 1711 11594
 1711 1712 11595
 1712 1713 11596
 1713 1714 11597
 1714 1715 11598
 1715 1716 11599
 1716 1717 11600
 1717 1718 11601
 1718 1719 11602
 1719 1720 11603
 1720 1721 11604
 1721 1722 11605
 1722 1723 11606
 1723 1724 11607
 1724 1725 11608
 1725 1726 11609
 1726 1727 11610
 1727 1728 11611
 1728 1729 11612
 1729 1730 11613
 1730 1731 11614
 1731 1732 11615
 1732 1733 11616
 1733 1734 11617
 1734 1735 11618
 1735 1736 11619
 1736 1737 11620
 1737 1738 11621
 1738 1739 11622
 1739 1740 11623
 1740 1741 11624
 1741 1742 11625
 1742 1743 11626
 1743 1744 11627
 1744 1745 11628
 1745 1746 11629
 1746 1747 11630
 1747 1748 11631
 1748 1749 11632
 1749 1750 11633
 1750 1751 11634
 1751 1752 11635
 1752 1753 11636
 1753 1754 11637
 1754 1755 11638
 1755 1756 11639
 1756 1757 11640
 1757 1758 11641
 1758 1759 11642
 1759 1760 11643
 1760 1761 11644
 1761 1762 11645
 1762 1763 11646
 1763 1764 11647
 1764 1765 11648
 1765 1766 11649
 1766 1767 11650
 1767 1768 11651
 1768 1769 11652
 1769 1770 11653
 1770 1771 11654
 1771 1772 11655
 1772 1773 11656
 1773 1774 11657
 1774 1775 11658
 1775 1776 11659
 1776 1777 11660
 1777 1778 11661
 1778 1779 11662
 1779 1780 11663
 1780 1781 11664
 1781 1782 11665
 1782 1783 11666
 1783 1784 11667
 1784 1785 11668
 1785 1786 11669
 1786 1787 11670
 1787 1788 11671
 1788 1789 11672
 1789 1790 11673
 1790 1791 11674
 1791 1792 11675
 1792 1793 11676
 1793 1794 11677
 1794 1795 11678
 1795 1796 11679
 1796 1797 11680
 1797 1798 11681
 1798 1799 11682
 1800 1801 11683
 1801 1802 11684
 1802 1803 11685
 1803 1804 11686
 1804 1805 11687
 1805 1806 11688
 1806 1807 11689
 1807 1808 11690
 1808 1809 11691
 1809 1810 11692
 1810 1811 11693
 1811 1812 11694
 1812 1813 11695
 1813 1814 11696
 1814 1815 11697
 1815 1816 11698
 1816 1817 11699
 1817 1818 11700
 1818 1819 11701
 1819 1820 11702
 1820 1821 11703
 1821 1822 11704
 1822 1823 11705
 1823 1824 11706
 1824 1825 11707
 1825 1826 11708
 1826 1827 11709
 1827 1828 11710
 1828 1829 11711
 1829 1830 11712
 1830 1831 11713
 1831 1832 11714
 1832 1833 11715
 1833 1834 11716
 1834 1835 11717
 1835 1836 11718
 1836 1837 11719
 1837 1838 11720
 1838 1839 11721
 1839 1840 11722
 1840 1841 11723
 1841 1842 11724
 1842 1843 11725
 1843 1844 11726
 1844 1845 11727
 1845 1846 11728
 1846 1847 11729
 1847 1848 11730
 1848 1849 11731
 1849 1850 11732
 1850 1851 11733
 1851 1852 11734
 1852 1853 11735
 1853 1854 11736
 1854 1855 11737
 1855 1856 11738
 1856 1857 11739
 1857 1858 11740
 1858 1859 11741
 1859 1860 11742
 1860 1861 11743
 1861 1862 11744
 1862 1863 11745
 1863 1864 11746
 1864 1865 11747
 1865 1866 11748
 1866 1867 11749
 1867 1868 11750
 1868 1869 11751
 1869 1870 11752
 1870 1871 11753
 1871 1872 11754
 1872 1873 11755
 1873 1874 11756
 1874 1875 11757
 1875 1876 11758
 1876 1877 11759
 1877 1878 11760
 1878 1879 11761
 1879 1880 11762
 1880 1881 11763
 1881 1882 11764
 1882 1883 11765
 1883 1884 11766
 1884 1885 11767
 1885 1886 11768
 1886 1887 11769
 1887 1888 11770
 1888 1889 11771
 1889 1890 11772
 1890 1891 11773
 1891 1892 11774
 1892 1893 11775
 1893 1894 11776
 1894 1895 11777
 1895 1896 11778
 1896 1897 11779
 1897 1898 11780
 1898 1899 11781
 1900 1901 11782
 1901 1902 11783
 1902 1903 11784
 1903 1904 11785
 1904 1905 11786
 1905 1906 11787
 1906 1907 11788
 1907 1908 11789
 1908 1909 11790
 1909 1910 11791
 1910 1911 11792
 1911 1912 11793
 1912 1913 11794
 1913 1914 11795
 1914 1915 11796
 1915 1916 11797
 1916 1917 11798
 1917 1918 11799
 1918 1919 11800
 1919 1920 11801
 1920 1921 11802
 1921 1922 11803
 1922 1923 11804
 1923 1924 11805
 1924 1925 11806
 1925 1926 11807
 1926 1927 11808
 1927 1928 11809
 1928 1929 11810
 1929 1930 11811
 1930 1931 11812
 1931 1932 11813
 1932 1933 11814
 1933 1934 11815
 1934 1935 11816
 1935 1936 11817
 1936 1937 11818
 1937 1938 11819
 1938 1939 11820
 1939 1940 11821
 1940 1941 11822
 1941 1942 11823
 1942 1943 11824
 1943 1944 11825
 1944 1945 11826
 1945 1946 11827
 1946 1947 11828
 1947 1948 11829
 1948 1949 11830
 1949 1950 11831
 1950 1951 11832
 1951 1952 11833
 1952 1953 11834
 1953 1954 11835
 1954 1955 11836
 1955 1956 11837
 1956 1957 11838
 1957 1958 11839
 1958 1959 11840
 1959 1960 11841
 1960 1961 11842
 1961 1962 11843
 1962 1963 11844
 1963 1964 11845
 1964 1965 11846
 1965 1966 11847
 1966 1967 11848
 1967 1968 11849
 1968 1969 11850
 1969 1970 11851
 1970 1971 11852
 1971 1972 11853
 1972 1973 11854
 1973 1974 11855
 1974 1975 11856
 1975 1976 11857
 1976 1977 11858
 1977 1978 11859
 1978 1979 11860
 1979 1980 11861
 1980 1981 11862
 1981 1982 11863
 1982 1983 11864
 1983 1984 11865
 1984 1985 11866
 1985 1986 11867
 1986 1987 11868
 1987 1988 11869
 1988 1989 11870
 1989 1990 11871
 1990 1991 11872
 1991 1992 11873
 1992 1993 11874
 1993 1994 11875
 1994 1995 11876
 1995 1996 11877
 1996 1997 11878
 1997 1998 11879
 1998 1999 11880
 2000 2001 11881
 2001 2002 11882
 2002 2003 11883
 2003 2004 11884
 2004 2005 11885
 2005 2006 11886
 2006 2007 11887
 2007 2008 11888
 2008 2009 11889
 2009 2010 11890
 2010 2011 11891
 2011 2012 11892
 2012 2013 11893
 2013 2014 11894
 2014 2015 11895
 2015 2016 11896
 2016 2017 11897
 2017 2018 11898
 2018 2019 11899
 2019 2020 11900
 2020 2021 11901
 2021 2022 11902
 2022 2023 11903
 2023 2024 11904
 2024 2025 11905
 2025 2026 11906
 2026 2027 11907
 2027 2028 11908
 2028 2029 11909
 2029 2030 11910
 2030 2031 11911
 2031 2032 11912
 2032 2033 11913
 2033 2034 11914
 2034 2035 11915
 2035 2036 11916
 2036 2037 11917
 2037 2038 11918
 2038 2039 11919
 2039 2040 11920
 2040 2041 11921
 2041 2042 11922
 2042 2043 11923
 2043 2044 11924
 2044 2045 11925
 2045 2046 11926
 2046 2047 11927
 2047 2048 11928
 2048 2049 11929
 2049 2050 11930
 2050 2051 11931
 2051 2052 11932
 2052 2053 11933
 2053 2054 11934
 2054 2055 11935
 2055 2056 11936
 2056 2057 11937
 2057 2058 11938
 2058 2059 11939
 2059 2060 11940
 2060 2061 11941
 2061 2062 11942
 2062 2063 11943
 2063 2064 11944
 2064 2065 11945
 2065 2066 11946
 2066 2067 11947
 2067 2068 11948
 2068 2069 11949
 2069 2070 11950
 2070 2071 11951
 2071 2072 11952
 2072 2073 11953
 2073 2074 11954
 2074 2075 11955
 2075 2076 11956
 2076 2077 11957
 2077 2078 11958
 2078 2079 11959
 2079 2080 11960
 2080 2081 11961
 2081 2082 11962
 2082 2083 11963
 2083 2084 11964
 2084 2085 11965
 2085 2086 11966
 2086 2087 11967
 2087 2088 11968
 2088 2089 11969
 2089 2090 11970
 2090 2091 11971
 2091 2092 11972
 2092 2093 11973
 2093 2094 11974
 2094 2095 11975
 2095 2096 11976
 2096 2097 11977
 2097 2098 11978
 2098 2099 11979
 2100 2101 11980
 2101 2102 11981
 2102 2103 11982
 2103 2104 11983
 2104 2105 11984
 2105 2106 11985
 2106 2107 11986
 2107 2108 11987
 2108 2109 11988
 2109 2110 11989
 2110 2111 11990
 2111 2112 11991
 2112 2113 11992
 2113 2114 11993
 2114 2115 11994
 2115 2116 11995
 2116 2117 11996
 2117 2118 11997
 2118 2119 11998
 2119 2120 11999
 2120 2121 12000
 2121 2122 12001
 2122 2123 12002
 2123 2124 12003
 2124 2125 12004
 2125 2126 12005
 2126 2127 12006
 2127 2128 12007
 2128 2129 12008
 2129 2130 12009
 2130 2131 12010
 2131 2132 12011
 2132 2133 12012
 2133 2134 12013
 2134 2135 12014
 2135 2136 12015
 2136 2137 12016
 2137 2138 12017
 2138 2139 12018
 2139 2140 12019
 2140 2141 12020
 2141 2142 12021
 2142 2143 12022
 2143 2144 12023
 2144 2145 12024
 2145 2146 12025
 2146 2147 12026
 2147 2148 12027
 2148 2149 12028
 2149 2150 12029
 2150 2151 12030
 2151 2152 12031
 2152 2153 12032
 2153 2154 12033
 2154 2155 12034
 2155 2156 12035
 2156 2157 12036
 2157 2158 12037
 2158 2159 12038
 2159 2160 12039
 2160 2161 12040
 2161 2162 12041
 2162 2163 12042
 2163 2164 12043
 2164 2165 12044
 2165 2166 12045
 2166 2167 12046
 2167 2168 12047
 2168 2169 12048
 2169 2170 12049
 2170 2171 12050
 2171 2172 12051
 2172 2173 12052
 2173 2174 12053
 2174 2175 12054
 2175 2176 12055
 2176 2177 12056
 2177 2178 12057
 2178 2179 12058
 2179 2180 12059
 2180 2181 12060
 2181 2182 12061
 2182 2183 12062
 2183 2184 12063
 2184 2185 12064
 2185 2186 12065
 2186 2187 12066
 2187 2188 12067
 2188 2189 12068
 2189 2190 12069
 2190 2191 12070
 2191 2192 12071
 2192 2193 12072
 2193 2194 12073
 2194 2195 12074
 2195 2196 12075
 2196 2197 12076
 2197 2198 12077
 2198 2199 12078
 2200 2201 12079
 2201 2202 12080
 2202 2203 12081
 2203 2204 12082
 2204 2205 12083
 2205 2206 12084
 2206 2207 12085
 2207 2208 12086
 2208 2209 12087
 2209 2210 12088
 2210 2211 12089
 2211 2212 12090
 2212 2213 12091
 2213 2214 12092
 2214 2215 12093
 2215 2216 12094
 2216 2217 12095
 2217 2218 12096
 2218 2219 12097
 2219 2220 12098
 2220 2221 12099
 2221 2222 12100
 2222 2223 12101
 2223 2224 12102
 2224 2225 12103
 2225 2226 12104
 2226 2227 12105
 2227 2228 12106
 2228 2229 12107
 2229 2230 12108
 2230 2231 12109
 2231 2232 12110
 2232 2233 12111
 2233 2234 12112
 2234 2235 12113
 2235 2236 12114
 2236 2237 12115
 2237 2238 12116
 2238 2239 12117
 2239 2240 12118
 2240 2241 12119
 2241 2242 12120
 2242 2243 12121
 2243 2244 12122
 2244 2245 12123
 2245 2246 12124
 2246 2247 12125
 2247 2248 12126
 2248 2249 12127
 2249 2250 12128
 2250 2251 12129
 2251 2252 12130
 2252 2253 12131
 2253 2254 12132
 2254 2255 12133
 2255 2256 12134
 2256 2257 12135
 2257 2258 12136
 2258 2259 12137
 2259 2260 12138
 2260 2261 12139
 2261 2262 12140
 2262 2263 12141
 2263 2264 12142
 2264 2265 12143
 2265 2266 12144
 2266 2267 12145
 2267 2268 12146
 2268 2269 12147
 2269 2270 12148
 2270 2271 12149
 2271 2272 12150
 2272 2273 12151
 2273 2274 12152
 2274 2275 12153
 2275 2276 12154
 2276 2277 12155
 2277 2278 12156
 2278 2279 12157
 2279 2280 12158
 2280 2281 12159
 2281 2282 12160
 2282 2283 12161
 2283 2284 12162
 2284 2285 12163
 2285 2286 12164
 2286 2287 12165
 2287 2288 12166
 2288 2289 12167
 2289 2290 12168
 2290 2291 12169
 2291 2292 12170
 2292 2293 12171
 2293 2294 12172
 2294 2295 12173
 2295 2296 12174
 2296 2297 12175
 2297 2298 12176
 2298 2299 12177
 2300 2301 12178
 2301 2302 12179
 2302 2303 12180
 2303 2304 12181
 2304 2305 12182
 2305 2306 12183
 2306 2307 12184
 2307 2308 12185
 2308 2309 12186
 2309 2310 12187
 2310 2311 12188
 2311 2312 12189
 2312 2313 12190
 2313 2314 12191
 2314 2315 12192
 2315 2316 12193
 2316 2317 12194
 2317 2318 12195
 2318 2319 12196
 2319 2320 12197
 2320 2321 12198
 2321 2322 12199
 2322 2323 12200
 2323 2324 12201
 2324 2325 12202
 2325 2326 12203
 2326 2327 12204
 2327 2328 12205
 2328 2329 12206
 2329 2330 12207
 2330 2331 12208
 2331 2332 12209
 2332 2333 12210
 2333 2334 12211
 2334 2335 12212
 2335 2336 12213
 2336 2337 12214
 2337 2338 12215
 2338 2339 12216
 2339 2340 12217
 2340 2341 12218
 2341 2342 12219
 2342 2343 12220
 2343 2344 12221
 2344 2345 12222
 2345 2346 12223
 2346 2347 12224
 2347 2348 12225
 2348 2349 12226
 2349 2350 12227
 2350 2351 12228
 2351 2352 12229
 2352 2353 12230
 2353 2354 12231
 2354 2355 12232
 2355 2356 12233
 2356 2357 12234
 2357 2358 12235
 2358 2359 12236
 2359 2360 12237
 2360 2361 12238
 2361 2362 12239
 2362 2363 12240
 2363 2364 12241
 2364 2365 12242
 2365 2366 12243
 2366 2367 12244
 2367 2368 12245
 2368 2369 12246
 2369 2370 12247
 2370 2371 12248
 2371 2372 12249
 2372 2373 12250
 2373 2374 12251
 2374 2375 12252
 2375 2376 12253
 2376 2377 12254
 2377 2378 12255
 2378 2379 12256
 2379 2380 12257
 2380 2381 12258
 2381 2382 12259
 2382 2383 12260
 2383 2384 12261
 2384 2385 12262
 2385 2386 12263
 2386 2387 12264
 2387 2388 12265
 2388 2389 12266
 2389 2390 12267
 2390 2391 12268
 2391 2392 12269
 2392 2393 12270
 2393 2394 12271
 2394 2395 12272
 2395 2396 12273
 2396 2397 12274
 2397 2398 12275
 2398 2399 12276
 2400 2401 12277
 2401 2402 12278
 2402 2403 12279
 2403 2404 12280
 2404 2405 12281
 2405 2406 12282
 2406 2407 12283
 2407 2408 12284
 2408 2409 12285
 2409 2410 12286
 2410 2411 12287
 2411 2412 12288
 2412 2413 12289
 2413 2414 12290
 2414 2415 12291
 2415 2416 12292
 2416 2417 12293
 2417 2418 12294
 2418 2419 12295
 2419 2420 12296
 2420 2421 12297
 2421 2422 12298
 2422 2423 12299
 2423 2424 12300
 2424 2425 12301
 2425 2426 12302
 2426 2427 12303
 2427 2428 12304
 2428 2429 12305
 2429 2430 12306
 2430 2431 12307
 2431 2432 12308
 2432 2433 12309
 2433 2434 12310
 2434 2435 12311
 2435 2436 12312
 2436 2437 12313
 2437 2438 12314
 2438 2439 12315
 2439 2440 12316
 2440 2441 12317
 2441 2442 12318
 2442 2443 12319
 2443 2444 12320
 2444 2445 12321
 2445 2446 12322
 2446 2447 12323
 2447 2448 12324
 2448 2449 12325
 2449 2450 12326
 2450 2451 12327
 2451 2452 12328
 2452 2453 12329
 2453 2454 12330
 2454 2455 12331
 2455 2456 12332
 2456 2457 12333
 2457 2458 12334
 2458 2459 12335
 2459 2460 12336
 2460 2461 12337
 2461 2462 12338
 2462 2463 12339
 2463 2464 12340
 2464 2465 12341
 2465 2466 12342
 2466 2467 12343
 2467 2468 12344
 2468 2469 12345
 2469 2470 12346
 2470 2471 12347
 2471 2472 12348
 2472 2473 12349
 2473 2474 12350
 2474 2475 12351
 2475 2476 12352
 2476 2477 12353
 2477 2478 12354
 2478 2479 12355
 2479 2480 12356
 2480 2481 12357
 2481 2482 12358
 2482 2483 12359
 2483 2484 12360
 2484 2485 12361
 2485 2486 12362
 2486 2487 12363
 2487 2488 12364
 2488 2489 12365
 2489 2490 12366
 2490 2491 12367
 2491 2492 12368
 2492 2493 12369
 2493 2494 12370
 2494 2495 12371
 2495 2496 12372
 2496 2497 12373
 2497 2498 12374
 2498 2499 12375
 2500 2501 12376
 2501 2502 12377
 2502 2503 12378
 2503 2504 12379
 2504 2505 12380
 2505 2506 12381
 2506 2507 12382
 2507 2508 12383
 2508 2509 12384
 2509 2510 12385
 2510 2511 12386
 2511 2512 12387
 2512 2513 12388
 2513 2514 12389
 2514 2515 12390
 2515 2516 12391
 2516 2517 12392
 2517 2518 12393
 2518 2519 12394
 2519 2520 12395
 2520 2521 12396
 2521 2522 12397
 2522 2523 12398
 2523 2524 12399
 2524 2525 12400
 2525 2526 12401
 2526 2527 12402
 2527 2528 12403
 2528 2529 12404
 2529 2530 12405
 2530 2531 12406
 2531 2532 12407
 2532 2533 12408
 2533 2534 12409
 2534 2535 12410
 2535 2536 12411
 2536 2537 12412
 2537 2538 12413
 2538 2539 12414
 2539 2540 12415
 2540 2541 12416
 2541 2542 12417
 2542 2543 12418
 2543 2544 12419
 2544 2545 12420
 2545 2546 12421
 2546 2547 12422
 2547 2548 12423
 2548 2549 12424
 2549 2550 12425
 2550 2551 12426
 2551 2552 12427
 2552 2553 12428
 2553 2554 12429
 2554 2555 12430
 2555 2556 12431
 2556 2557 12432
 2557 2558 12433
 2558 2559 12434
 2559 2560 12435
 2560 2561 12436
 2561 2562 12437
 2562 2563 12438
 2563 2564 12439
 2564 2565 12440
 2565 2566 12441
 2566 2567 12442
 2567 2568 12443
 2568 2569 12444
 2569 2570 12445
 2570 2571 12446
 2571 2572 12447
 2572 2573 12448
 2573 2574 12449
 2574 2575 12450
 2575 2576 12451
 2576 2577 12452
 2577 2578 12453
 2578 2579 12454
 2579 2580 12455
 2580 2581 12456
 2581 2582 12457
 2582 2583 12458
 2583 2584 12459
 2584 2585 12460
 2585 2586 12461
 2586 2587 12462
 2587 2588 12463
 2588 2589 12464
 2589 2590 12465
 2590 2591 12466
 2591 2592 12467
 2592 2593 12468
 2593 2594 12469
 2594 2595 12470
 2595 2596 12471
 2596 2597 12472
 2597 2598 12473
 2598 2599 12474
 2600 2601 12475
 2601 2602 12476
 2602 2603 12477
 2603 2604 12478
 2604 2605 12479
 2605 2606 12480
 2606 2607 12481
 2607 2608 12482
 2608 2609 12483
 2609 2610 12484
 2610 2611 12485
 2611 2612 12486
 2612 2613 12487
 2613 2614 12488
 2614 2615 12489
 2615 2616 12490
 2616 2617 12491
 2617 2618 12492
 2618 2619 12493
 2619 2620 12494
 2620 2621 12495
 2621 2622 12496
 2622 2623 12497
 2623 2624 12498
 2624 2625 12499
 2625 2626 12500
 2626 2627 12501
 2627 2628 12502
 2628 2629 12503
 2629 2630 12504
 2630 2631 12505
 2631 2632 12506
 2632 2633 12507
 2633 2634 12508
 2634 2635 12509
 2635 2636 12510
 2636 2637 12511
 2637 2638 12512
 2638 2639 12513
 2639 2640 12514
 2640 2641 12515
 2641 2642 12516
 2642 2643 12517
 2643 2644 12518
 2644 2645 12519
 2645 2646 12520
 2646 2647 12521
 2647 2648 12522
 2648 2649 12523
 2649 2650 12524
 2650 2651 12525
 2651 2652 12526
 2652 2653 12527
 2653 2654 12528
 2654 2655 12529
 2655 2656 12530
 2656 2657 12531
 2657 2658 12532
 2658 2659 12533
 2659 2660 12534
 2660 2661 12535
 2661 2662 12536
 2662 2663 12537
 2663 2664 12538
 2664 2665 12539
 2665 2666 12540
 2666 2667 12541
 2667 2668 12542
 2668 2669 12543
 2669 2670 12544
 2670 2671 12545
 2671 2672 12546
 2672 2673 12547
 2673 2674 12548
 2674 2675 12549
 2675 2676 12550
 2676 2677 12551
 2677 2678 12552
 2678 2679 12553
 2679 2680 12554
 2680 2681 12555
 2681 2682 12556
 2682 2683 12557
 2683 2684 12558
 2684 2685 12559
 2685 2686 12560
 2686 2687 12561
 2687 2688 12562
 2688 2689 12563
 2689 2690 12564
 2690 2691 12565
 2691 2692 12566
 2692 2693 12567
 2693 2694 12568
 2694 2695 12569
 2695 2696 12570
 2696 2697 12571
 2697 2698 12572
 2698 2699 12573
 2700 2701 12574
 2701 2702 12575
 2702 2703 12576
 2703 2704 12577
 2704 2705 12578
 2705 2706 12579
 2706 2707 12580
 2707 2708 12581
 2708 2709 12582
 2709 2710 12583
 2710 2711 12584
 2711 2712 12585
 2712 2713 12586
 2713 2714 12587
 2714 2715 12588
 2715 2716 12589
 2716 2717 12590
 2717 2718 12591
 2718 2719 12592
 2719 2720 12593
 2720 2721 12594
 2721 2722 12595
 2722 2723 12596
 2723 2724 12597
 2724 2725 12598
 2725 2726 12599
 2726 2727 12600
 2727 2728 12601
 2728 2729 12602
 2729 2730 12603
 2730 2731 12604
 2731 2732 12605
 2732 2733 12606
 2733 2734 12607
 2734 2735 12608
 2735 2736 12609
 2736 2737 12610
 2737 2738 12611
 2738 2739 12612
 2739 2740 12613
 2740 2741 12614
 2741 2742 12615
 2742 2743 12616
 2743 2744 12617
 2744 2745 12618
 2745 2746 12619
 2746 2747 12620
 2747 2748 12621
 2748 2749 12622
 2749 2750 12623
 2750 2751 12624
 2751 2752 12625
 2752 2753 12626
 2753 2754 12627
 2754 2755 12628
 2755 2756 12629
 2756 2757 12630
 2757 2758 12631
 2758 2759 12632
 2759 2760 12633
 2760 2761 12634
 2761 2762 12635
 2762 2763 12636
 2763 2764 12637
 2764 2765 12638
 2765 2766 12639
 2766 2767 12640
 2767 2768 12641
 2768 2769 12642
 2769 2770 12643
 2770 2771 12644
 2771 2772 12645
 2772 2773 12646
 2773 2774 12647
 2774 2775 12648
 2775 2776 12649
 2776 2777 12650
 2777 2778 12651
 2778 2779 12652
 2779 2780 12653
 2780 2781 12654
 2781 2782 12655
 2782 2783 12656
 2783 2784 12657
 2784 2785 12658
 2785 2786 12659
 2786 2787 12660
 2787 2788 12661
 2788 2789 12662
 2789 2790 12663
 2790 2791 12664
 2791 2792 12665
 2792 2793 12666
 2793 2794 12667
 2794 2795 12668
 2795 2796 12669
 2796 2797 12670
 2797 2798 12671
 2798 2799 12672
 2800 2801 12673
 2801 2802 12674
 2802 2803 12675
 2803 2804 12676
 2804 2805 12677
 2805 2806 12678
 2806 2807 12679
 2807 2808 12680
 2808 2809 12681
 2809 2810 12682
 2810 2811 12683
 2811 2812 12684
 2812 2813 12685
 2813 2814 12686
 2814 2815 12687
 2815 2816 12688
 2816 2817 12689
 2817 2818 12690
 2818 2819 12691
 2819 2820 12692
 2820 2821 12693
 2821 2822 12694
 2822 2823 12695
 2823 2824 12696
 2824 2825 12697
 2825 2826 12698
 2826 2827 12699
 2827 2828 12700
 2828 2829 12701
 2829 2830 12702
 2830 2831 12703
 2831 2832 12704
 2832 2833 12705
 2833 2834 12706
 2834 2835 12707
 2835 2836 12708
 2836 2837 12709
 2837 2838 12710
 2838 2839 12711
 2839 2840 12712
 2840 2841 12713
 2841 2842 12714
 2842 2843 12715
 2843 2844 12716
 2844 2845 12717
 2845 2846 12718
 2846 2847 12719
 2847 2848 12720
 2848 2849 12721
 2849 2850 12722
 2850 2851 12723
 2851 2852 12724
 2852 2853 12725
 2853 2854 12726
 2854 2855 12727
 2855 2856 12728
 2856 2857 12729
 2857 2858 12730
 2858 2859 12731
 2859 2860 12732
 2860 2861 12733
 2861 2862 12734
 2862 2863 12735
 2863 2864 12736
 2864 2865 12737
 2865 2866 12738
 2866 2867 12739
 2867 2868 12740
 2868 2869 12741
 2869 2870 12742
 2870 2871 12743
 2871 2872 12744
 2872 2873 12745
 2873 2874 12746
 2874 2875 12747
 2875 2876 12748
 2876 2877 12749
 2877 2878 12750
 2878 2879 12751
 2879 2880 12752
 2880 2881 12753
 2881 2882 12754
 2882 2883 12755
 2883 2884 12756
 2884 2885 12757
 2885 2886 12758
 2886 2887 12759
 2887 2888 12760
 2888 2889 12761
 2889 2890 12762
 2890 2891 12763
 2891 2892 12764
 2892 2893 12765
 2893 2894 12766
 2894 2895 12767
 2895 2896 12768
 2896 2897 12769
 2897 2898 12770
 2898 2899 12771
 2900 2901 12772
 2901 2902 12773
 2902 2903 12774
 2903 2904 12775
 2904 2905 12776
 2905 2906 12777
 2906 2907 12778
 2907 2908 12779
 2908 2909 12780
 2909 2910 12781
 2910 2911 12782
 2911 2912 12783
 2912 2913 12784
 2913 2914 12785
 2914 2915 12786
 2915 2916 12787
 2916 2917 12788
 2917 2918 12789
 2918 2919 12790
 2919 2920 12791
 2920 2921 12792
 2921 2922 12793
 2922 2923 12794
 2923 2924 12795
 2924 2925 12796
 2925 2926 12797
 2926 2927 12798
 2927 2928 12799
 2928 2929 12800
 2929 2930 12801
 2930 2931 12802
 2931 2932 12803
 2932 2933 12804
 2933 2934 12805
 2934 2935 12806
 2935 2936 12807
 2936 2937 12808
 2937 2938 12809
 2938 2939 12810
 2939 2940 12811
 2940 2941 12812
 2941 2942 12813
 2942 2943 12814
 2943 2944 12815
 2944 2945 12816
 2945 2946 12817
 2946 2947 12818
 2947 2948 12819
 2948 2949 12820
 2949 2950 12821
 2950 2951 12822
 2951 2952 12823
 2952 2953 12824
 2953 2954 12825
 2954 2955 12826
 2955 2956 12827
 2956 2957 12828
 2957 2958 12829
 2958 2959 12830
 2959 2960 12831
 2960 2961 12832
 2961 2962 12833
 2962 2963 12834
 2963 2964 12835
 2964 2965 12836
 2965 2966 12837
 2966 2967 12838
 2967 2968 12839
 2968 2969 12840
 2969 2970 12841
 2970 2971 12842
 2971 2972 12843
 2972 2973 12844
 2973 2974 12845
 2974 2975 12846
 2975 2976 12847
 2976 2977 12848
 2977 2978 12849
 2978 2979 12850
 2979 2980 12851
 2980 2981 12852
 2981 2982 12853
 2982 2983 12854
 2983 2984 12855
 2984 2985 12856
 2985 2986 12857
 2986 2987 12858
 2987 2988 12859
 2988 2989 12860
 2989 2990 12861
 2990 2991 12862
 2991 2992 12863
 2992 2993 12864
 2993 2994 12865
 2994 2995 12866
 2995 2996 12867
 2996 2997 12868
 2997 2998 12869
 2998 2999 12870
 3000 3001 12871
 3001 3002 12872
 3002 3003 12873
 3003 3004 12874
 3004 3005 12875
 3005 3006 12876
 3006 3007 12877
 3007 3008 12878
 3008 3009 12879
 3009 3010 12880
 3010 3011 12881
 3011 3012 12882
 3012 3013 12883
 3013 3014 12884
 3014 3015 12885
 3015 3016 12886
 3016 3017 12887
 3017 3018 12888
 3018 3019 12889
 3019 3020 12890
 3020 3021 12891
 3021 3022 12892
 3022 3023 12893
 3023 3024 12894
 3024 3025 12895
 3025 3026 12896
 3026 3027 12897
 3027 3028 12898
 3028 3029 12899
 3029 3030 12900
 3030 3031 12901
 3031 3032 12902
 3032 3033 12903
 3033 3034 12904
 3034 3035 12905
 3035 3036 12906
 3036 3037 12907
 3037 3038 12908
 3038 3039 12909
 3039 3040 12910
 3040 3041 12911
 3041 3042 12912
 3042 3043 12913
 3043 3044 12914
 3044 3045 12915
 3045 3046 12916
 3046 3047 12917
 3047 3048 12918
 3048 3049 12919
 3049 3050 12920
 3050 3051 12921
 3051 3052 12922
 3052 3053 12923
 3053 3054 12924
 3054 3055 12925
 3055 3056 12926
 3056 3057 12927
 3057 3058 12928
 3058 3059 12929
 3059 3060 12930
 3060 3061 12931
 3061 3062 12932
 3062 3063 12933
 3063 3064 12934
 3064 3065 12935
 3065 3066 12936
 3066 3067 12937
 3067 3068 12938
 3068 3069 12939
 3069 3070 12940
 3070 3071 12941
 3071 3072 12942
 3072 3073 12943
 3073 3074 12944
 3074 3075 12945
 3075 3076 12946
 3076 3077 12947
 3077 3078 12948
 3078 3079 12949
 3079 3080 12950
 3080 3081 12951
 3081 3082 12952
 3082 3083 12953
 3083 3084 12954
 3084 3085 12955
 3085 3086 12956
 3086 3087 12957
 3087 3088 12958
 3088 3089 12959
 3089 3090 12960
 3090 3091 12961
 3091 3092 12962
 3092 3093 12963
 3093 3094 12964
 3094 3095 12965
 3095 3096 12966
 3096 3097 12967
 3097 3098 12968
 3098 3099 12969
 3100 3101 12970
 3101 3102 12971
 3102 3103 12972
 3103 3104 12973
 3104 3105 12974
 3105 3106 12975
 3106 3107 12976
 3107 3108 12977
 3108 3109 12978
 3109 3110 12979
 3110 3111 12980
 3111 3112 12981
 3112 3113 12982
 3113 3114 12983
 3114 3115 12984
 3115 3116 12985
 3116 3117 12986
 3117 3118 12987
 3118 3119 12988
 3119 3120 12989
 3120 3121 12990
 3121 3122 12991
 3122 3123 12992
 3123 3124 12993
 3124 3125 12994
 3125 3126 12995
 3126 3127 12996
 3127 3128 12997
 3128 3129 12998
 3129 3130 12999
 3130 3131 13000
 3131 3132 13001
 3132 3133 13002
 3133 3134 13003
 3134 3135 13004
 3135 3136 13005
 3136 3137 13006
 3137 3138 13007
 3138 3139 13008
 3139 3140 13009
 3140 3141 13010
 3141 3142 13011
 3142 3143 13012
 3143 3144 13013
 3144 3145 13014
 3145 3146 13015
 3146 3147 13016
 3147 3148 13017
 3148 3149 13018
 3149 3150 13019
 3150 3151 13020
 3151 3152 13021
 3152 3153 13022
 3153 3154 13023
 3154 3155 13024
 3155 3156 13025
 3156 3157 13026
 3157 3158 13027
 3158 3159 13028
 3159 3160 13029
 3160 3161 13030
 3161 3162 13031
 3162 3163 13032
 3163 3164 13033
 3164 3165 13034
 3165 3166 13035
 3166 3167 13036
 3167 3168 13037
 3168 3169 13038
 3169 3170 13039
 3170 3171 13040
 3171 3172 13041
 3172 3173 13042
 3173 3174 13043
 3174 3175 13044
 3175 3176 13045
 3176 3177 13046
 3177 3178 13047
 3178 3179 13048
 3179 3180 13049
 3180 3181 13050
 3181 3182 13051
 3182 3183 13052
 3183 3184 13053
 3184 3185 13054
 3185 3186 13055
 3186 3187 13056
 3187 3188 13057
 3188 3189 13058
 3189 3190 13059
 3190 3191 13060
 3191 3192 13061
 3192 3193 13062
 3193 3194 13063
 3194 3195 13064
 3195 3196 13065
 3196 3197 13066
 3197 3198 13067
 3198 3199 13068
 3200 3201 13069
 3201 3202 13070
 3202 3203 13071
 3203 3204 13072
 3204 3205 13073
 3205 3206 13074
 3206 3207 13075
 3207 3208 13076
 3208 3209 13077
 3209 3210 13078
 3210 3211 13079
 3211 3212 13080
 3212 3213 13081
 3213 3214 13082
 3214 3215 13083
 3215 3216 13084
 3216 3217 13085
 3217 3218 13086
 3218 3219 13087
 3219 3220 13088
 3220 3221 13089
 3221 3222 13090
 3222 3223 13091
 3223 3224 13092
 3224 3225 13093
 3225 3226 13094
 3226 3227 13095
 3227 3228 13096
 3228 3229 13097
 3229 3230 13098
 3230 3231 13099
 3231 3232 13100
 3232 3233 13101
 3233 3234 13102
 3234 3235 13103
 3235 3236 13104
 3236 3237 13105
 3237 3238 13106
 3238 3239 13107
 3239 3240 13108
 3240 3241 13109
 3241 3242 13110
 3242 3243 13111
 3243 3244 13112
 3244 3245 13113
 3245 3246 13114
 3246 3247 13115
 3247 3248 13116
 3248 3249 13117
 3249 3250 13118
 3250 3251 13119
 3251 3252 13120
 3252 3253 13121
 3253 3254 13122
 3254 3255 13123
 3255 3256 13124
 3256 3257 13125
 3257 3258 13126
 3258 3259 13127
 3259 3260 13128
 3260 3261 13129
 3261 3262 13130
 3262 3263 13131
 3263 3264 13132
 3264 3265 13133
 3265 3266 13134
 3266 3267 13135
 3267 3268 13136
 3268 3269 13137
 3269 3270 13138
 3270 3271 13139
 3271 3272 13140
 3272 3273 13141
 3273 3274 13142
 3274 3275 13143
 3275 3276 13144
 3276 3277 13145
 3277 3278 13146
 3278 3279 13147
 3279 3280 13148
 3280 3281 13149
 3281 3282 13150
 3282 3283 13151
 3283 3284 13152
 3284 3285 13153
 3285 3286 13154
 3286 3287 13155
 3287 3288 13156
 3288 3289 13157
 3289 3290 13158
 3290 3291 13159
 3291 3292 13160
 3292 3293 13161
 3293 3294 13162
 3294 3295 13163
 3295 3296 13164
 3296 3297 13165
 3297 3298 13166
 3298 3299 13167
 3300 3301 13168
 3301 3302 13169
 3302 3303 13170
 3303 3304 13171
 3304 3305 13172
 3305 3306 13173
 3306 3307 13174
 3307 3308 13175
 3308 3309 13176
 3309 3310 13177
 3310 3311 13178
 3311 3312 13179
 3312 3313 13180
 3313 3314 13181
 3314 3315 13182
 3315 3316 13183
 3316 3317 13184
 3317 3318 13185
 3318 3319 13186
 3319 3320 13187
 3320 3321 13188
 3321 3322 13189
 3322 3323 13190
 3323 3324 13191
 3324 3325 13192
 3325 3326 13193
 3326 3327 13194
 3327 3328 13195
 3328 3329 13196
 3329 3330 13197
 3330 3331 13198
 3331 3332 13199
 3332 3333 13200
 3333 3334 13201
 3334 3335 13202
 3335 3336 13203
 3336 3337 13204
 3337 3338 13205
 3338 3339 13206
 3339 3340 13207
 3340 3341 13208
 3341 3342 13209
 3342 3343 13210
 3343 3344 13211
 3344 3345 13212
 3345 3346 13213
 3346 3347 13214
 3347 3348 13215
 3348 3349 13216
 3349 3350 13217
 3350 3351 13218
 3351 3352 13219
 3352 3353 13220
 3353 3354 13221
 3354 3355 13222
 3355 3356 13223
 3356 3357 13224
 3357 3358 13225
 3358 3359 13226
 3359 3360 13227
 3360 3361 13228
 3361 3362 13229
 3362 3363 13230
 3363 3364 13231
 3364 3365 13232
 3365 3366 13233
 3366 3367 13234
 3367 3368 13235
 3368 3369 13236
 3369 3370 13237
 3370 3371 13238
 3371 3372 13239
 3372 3373 13240
 3373 3374 13241
 3374 3375 13242
 3375 3376 13243
 3376 3377 13244
 3377 3378 13245
 3378 3379 13246
 3379 3380 13247
 3380 3381 13248
 3381 3382 13249
 3382 3383 13250
 3383 3384 13251
 3384 3385 13252
 3385 3386 13253
 3386 3387 13254
 3387 3388 13255
 3388 3389 13256
 3389 3390 13257
 3390 3391 13258
 3391 3392 13259
 3392 3393 13260
 3393 3394 13261
 3394 3395 13262
 3395 3396 13263
 3396 3397 13264
 3397 3398 13265
 3398 3399 13266
 3400 3401 13267
 3401 3402 13268
 3402 3403 13269
 3403 3404 13270
 3404 3405 13271
 3405 3406 13272
 3406 3407 13273
 3407 3408 13274
 3408 3409 13275
 3409 3410 13276
 3410 3411 13277
 3411 3412 13278
 3412 3413 13279
 3413 3414 13280
 3414 3415 13281
 3415 3416 13282
 3416 3417 13283
 3417 3418 13284
 3418 3419 13285
 3419 3420 13286
 3420 3421 13287
 3421 3422 13288
 3422 3423 13289
 3423 3424 13290
 3424 3425 13291
 3425 3426 13292
 3426 3427 13293
 3427 3428 13294
 3428 3429 13295
 3429 3430 13296
 3430 3431 13297
 3431 3432 13298
 3432 3433 13299
 3433 3434 13300
 3434 3435 13301
 3435 3436 13302
 3436 3437 13303
 3437 3438 13304
 3438 3439 13305
 3439 3440 13306
 3440 3441 13307
 3441 3442 13308
 3442 3443 13309
 3443 3444 13310
 3444 3445 13311
 3445 3446 13312
 3446 3447 13313
 3447 3448 13314
 3448 3449 13315
 3449 3450 13316
 3450 3451 13317
 3451 3452 13318
 3452 3453 13319
 3453 3454 13320
 3454 3455 13321
 3455 3456 13322
 3456 3457 13323
 3457 3458 13324
 3458 3459 13325
 3459 3460 13326
 3460 3461 13327
 3461 3462 13328
 3462 3463 13329
 3463 3464 13330
 3464 3465 13331
 3465 3466 13332
 3466 3467 13333
 3467 3468 13334
 3468 3469 13335
 3469 3470 13336
 3470 3471 13337
 3471 3472 13338
 3472 3473 13339
 3473 3474 13340
 3474 3475 13341
 3475 3476 13342
 3476 3477 13343
 3477 3478 13344
 3478 3479 13345
 3479 3480 13346
 3480 3481 13347
 3481 3482 13348
 3482 3483 13349
 3483 3484 13350
 3484 3485 13351
 3485 3486 13352
 3486 3487 13353
 3487 3488 13354
 3488 3489 13355
 3489 3490 13356
 3490 3491 13357
 3491 3492 13358
 3492 3493 13359
 3493 3494 13360
 3494 3495 13361
 3495 3496 13362
 3496 3497 13363
 3497 3498 13364
 3498 3499 13365
 3500 3501 13366
 3501 3502 13367
 3502 3503 13368
 3503 3504 13369
 3504 3505 13370
 3505 3506 13371
 3506 3507 13372
 3507 3508 13373
 3508 3509 13374
 3509 3510 13375
 3510 3511 13376
 3511 3512 13377
 3512 3513 13378
 3513 3514 13379
 3514 3515 13380
 3515 3516 13381
 3516 3517 13382
 3517 3518 13383
 3518 3519 13384
 3519 3520 13385
 3520 3521 13386
 3521 3522 13387
 3522 3523 13388
 3523 3524 13389
 3524 3525 13390
 3525 3526 13391
 3526 3527 13392
 3527 3528 13393
 3528 3529 13394
 3529 3530 13395
 3530 3531 13396
 3531 3532 13397
 3532 3533 13398
 3533 3534 13399
 3534 3535 13400
 3535 3536 13401
 3536 3537 13402
 3537 3538 13403
 3538 3539 13404
 3539 3540 13405
 3540 3541 13406
 3541 3542 13407
 3542 3543 13408
 3543 3544 13409
 3544 3545 13410
 3545 3546 13411
 3546 3547 13412
 3547 3548 13413
 3548 3549 13414
 3549 3550 13415
 3550 3551 13416
 3551 3552 13417
 3552 3553 13418
 3553 3554 13419
 3554 3555 13420
 3555 3556 13421
 3556 3557 13422
 3557 3558 13423
 3558 3559 13424
 3559 3560 13425
 3560 3561 13426
 3561 3562 13427
 3562 3563 13428
 3563 3564 13429
 3564 3565 13430
 3565 3566 13431
 3566 3567 13432
 3567 3568 13433
 3568 3569 13434
 3569 3570 13435
 3570 3571 13436
 3571 3572 13437
 3572 3573 13438
 3573 3574 13439
 3574 3575 13440
 3575 3576 13441
 3576 3577 13442
 3577 3578 13443
 3578 3579 13444
 3579 3580 13445
 3580 3581 13446
 3581 3582 13447
 3582 3583 13448
 3583 3584 13449
 3584 3585 13450
 3585 3586 13451
 3586 3587 13452
 3587 3588 13453
 3588 3589 13454
 3589 3590 13455
 3590 3591 13456
 3591 3592 13457
 3592 3593 13458
 3593 3594 13459
 3594 3595 13460
 3595 3596 13461
 3596 3597 13462
 3597 3598 13463
 3598 3599 13464
 3600 3601 13465
 3601 3602 13466
 3602 3603 13467
 3603 3604 13468
 3604 3605 13469
 3605 3606 13470
 3606 3607 13471
 3607 3608 13472
 3608 3609 13473
 3609 3610 13474
 3610 3611 13475
 3611 3612 13476
 3612 3613 13477
 3613 3614 13478
 3614 3615 13479
 3615 3616 13480
 3616 3617 13481
 3617 3618 13482
 3618 3619 13483
 3619 3620 13484
 3620 3621 13485
 3621 3622 13486
 3622 3623 13487
 3623 3624 13488
 3624 3625 13489
 3625 3626 13490
 3626 3627 13491
 3627 3628 13492
 3628 3629 13493
 3629 3630 13494
 3630 3631 13495
 3631 3632 13496
 3632 3633 13497
 3633 3634 13498
 3634 3635 13499
 3635 3636 13500
 3636 3637 13501
 3637 3638 13502
 3638 3639 13503
 3639 3640 13504
 3640 3641 13505
 3641 3642 13506
 3642 3643 13507
 3643 3644 13508
 3644 3645 13509
 3645 3646 13510
 3646 3647 13511
 3647 3648 13512
 3648 3649 13513
 3649 3650 13514
 3650 3651 13515
 3651 3652 13516
 3652 3653 13517
 3653 3654 13518
 3654 3655 13519
 3655 3656 13520
 3656 3657 13521
 3657 3658 13522
 3658 3659 13523
 3659 3660 13524
 3660 3661 13525
 3661 3662 13526
 3662 3663 13527
 3663 3664 13528
 3664 3665 13529
 3665 3666 13530
 3666 3667 13531
 3667 3668 13532
 3668 3669 13533
 3669 3670 13534
 3670 3671 13535
 3671 3672 13536
 3672 3673 13537
 3673 3674 13538
 3674 3675 13539
 3675 3676 13540
 3676 3677 13541
 3677 3678 13542
 3678 3679 13543
 3679 3680 13544
 3680 3681 13545
 3681 3682 13546
 3682 3683 13547
 3683 3684 13548
 3684 3685 13549
 3685 3686 13550
 3686 3687 13551
 3687 3688 13552
 3688 3689 13553
 3689 3690 13554
 3690 3691 13555
 3691 3692 13556
 3692 3693 13557
 3693 3694 13558
 3694 3695 13559
 3695 3696 13560
 3696 3697 13561
 3697 3698 13562
 3698 3699 13563
 3700 3701 13564
 3701 3702 13565
 3702 3703 13566
 3703 3704 13567
 3704 3705 13568
 3705 3706 13569
 3706 3707 13570
 3707 3708 13571
 3708 3709 13572
 3709 3710 13573
 3710 3711 13574
 3711 3712 13575
 3712 3713 13576
 3713 3714 13577
 3714 3715 13578
 3715 3716 13579
 3716 3717 13580
 3717 3718 13581
 3718 3719 13582
 3719 3720 13583
 3720 3721 13584
 3721 3722 13585
 3722 3723 13586
 3723 3724 13587
 3724 3725 13588
 3725 3726 13589
 3726 3727 13590
 3727 3728 13591
 3728 3729 13592
 3729 3730 13593
 3730 3731 13594
 3731 3732 13595
 3732 3733 13596
 3733 3734 13597
 3734 3735 13598
 3735 3736 13599
 3736 3737 13600
 3737 3738 13601
 3738 3739 13602
 3739 3740 13603
 3740 3741 13604
 3741 3742 13605
 3742 3743 13606
 3743 3744 13607
 3744 3745 13608
 3745 3746 13609
 3746 3747 13610
 3747 3748 13611
 3748 3749 13612
 3749 3750 13613
 3750 3751 13614
 3751 3752 13615
 3752 3753 13616
 3753 3754 13617
 3754 3755 13618
 3755 3756 13619
 3756 3757 13620
 3757 3758 13621
 3758 3759 13622
 3759 3760 13623
 3760 3761 13624
 3761 3762 13625
 3762 3763 13626
 3763 3764 13627
 3764 3765 13628
 3765 3766 13629
 3766 3767 13630
 3767 3768 13631
 3768 3769 13632
 3769 3770 13633
 3770 3771 13634
 3771 3772 13635
 3772 3773 13636
 3773 3774 13637
 3774 3775 13638
 3775 3776 13639
 3776 3777 13640
 3777 3778 13641
 3778 3779 13642
 3779 3780 13643
 3780 3781 13644
 3781 3782 13645
 3782 3783 13646
 3783 3784 13647
 3784 3785 13648
 3785 3786 13649
 3786 3787 13650
 3787 3788 13651
 3788 3789 13652
 3789 3790 13653
 3790 3791 13654
 3791 3792 13655
 3792 3793 13656
 3793 3794 13657
 3794 3795 13658
 3795 3796 13659
 3796 3797 13660
 3797 3798 13661
 3798 3799 13662
 3800 3801 13663
 3801 3802 13664
 3802 3803 13665
 3803 3804 13666
 3804 3805 13667
 3805 3806 13668
 3806 3807 13669
 3807 3808 13670
 3808 3809 13671
 3809 3810 13672
 3810 3811 13673
 3811 3812 13674
 3812 3813 13675
 3813 3814 13676
 3814 3815 13677
 3815 3816 13678
 3816 3817 13679
 3817 3818 13680
 3818 3819 13681
 3819 3820 13682
 3820 3821 13683
 3821 3822 13684
 3822 3823 13685
 3823 3824 13686
 3824 3825 13687
 3825 3826 13688
 3826 3827 13689
 3827 3828 13690
 3828 3829 13691
 3829 3830 13692
 3830 3831 13693
 3831 3832 13694
 3832 3833 13695
 3833 3834 13696
 3834 3835 13697
 3835 3836 13698
 3836 3837 13699
 3837 3838 13700
 3838 3839 13701
 3839 3840 13702
 3840 3841 13703
 3841 3842 13704
 3842 3843 13705
 3843 3844 13706
 3844 3845 13707
 3845 3846 13708
 3846 3847 13709
 3847 3848 13710
 3848 3849 13711
 3849 3850 13712
 3850 3851 13713
 3851 3852 13714
 3852 3853 13715
 3853 3854 13716
 3854 3855 13717
 3855 3856 13718
 3856 3857 13719
 3857 3858 13720
 3858 3859 13721
 3859 3860 13722
 3860 3861 13723
 3861 3862 13724
 3862 3863 13725
 3863 3864 13726
 3864 3865 13727
 3865 3866 13728
 3866 3867 13729
 3867 3868 13730
 3868 3869 13731
 3869 3870 13732
 3870 3871 13733
 3871 3872 13734
 3872 3873 13735
 3873 3874 13736
 3874 3875 13737
 3875 3876 13738
 3876 3877 13739
 3877 3878 13740
 3878 3879 13741
 3879 3880 13742
 3880 3881 13743
 3881 3882 13744
 3882 3883 13745
 3883 3884 13746
 3884 3885 13747
 3885 3886 13748
 3886 3887 13749
 3887 3888 13750
 3888 3889 13751
 3889 3890 13752
 3890 3891 13753
 3891 3892 13754
 3892 3893 13755
 3893 3894 13756
 3894 3895 13757
 3895 3896 13758
 3896 3897 13759
 3897 3898 13760
 3898 3899 13761
 3900 3901 13762
 3901 3902 13763
 3902 3903 13764
 3903 3904 13765
 3904 3905 13766
 3905 3906 13767
 3906 3907 13768
 3907 3908 13769
 3908 3909 13770
 3909 3910 13771
 3910 3911 13772
 3911 3912 13773
 3912 3913 13774
 3913 3914 13775
 3914 3915 13776
 3915 3916 13777
 3916 3917 13778
 3917 3918 13779
 3918 3919 13780
 3919 3920 13781
 3920 3921 13782
 3921 3922 13783
 3922 3923 13784
 3923 3924 13785
 3924 3925 13786
 3925 3926 13787
 3926 3927 13788
 3927 3928 13789
 3928 3929 13790
 3929 3930 13791
 3930 3931 13792
 3931 3932 13793
 3932 3933 13794
 3933 3934 13795
 3934 3935 13796
 3935 3936 13797
 3936 3937 13798
 3937 3938 13799
 3938 3939 13800
 3939 3940 13801
 3940 3941 13802
 3941 3942 13803
 3942 3943 13804
 3943 3944 13805
 3944 3945 13806
 3945 3946 13807
 3946 3947 13808
 3947 3948 13809
 3948 3949 13810
 3949 3950 13811
 3950 3951 13812
 3951 3952 13813
 3952 3953 13814
 3953 3954 13815
 3954 3955 13816
 3955 3956 13817
 3956 3957 13818
 3957 3958 13819
 3958 3959 13820
 3959 3960 13821
 3960 3961 13822
 3961 3962 13823
 3962 3963 13824
 3963 3964 13825
 3964 3965 13826
 3965 3966 13827
 3966 3967 13828
 3967 3968 13829
 3968 3969 13830
 3969 3970 13831
 3970 3971 13832
 3971 3972 13833
 3972 3973 13834
 3973 3974 13835
 3974 3975 13836
 3975 3976 13837
 3976 3977 13838
 3977 3978 13839
 3978 3979 13840
 3979 3980 13841
 3980 3981 13842
 3981 3982 13843
 3982 3983 13844
 3983 3984 13845
 3984 3985 13846
 3985 3986 13847
 3986 3987 13848
 3987 3988 13849
 3988 3989 13850
 3989 3990 13851
 3990 3991 13852
 3991 3992 13853
 3992 3993 13854
 3993 3994 13855
 3994 3995 13856
 3995 3996 13857
 3996 3997 13858
 3997 3998 13859
 3998 3999 13860
 4000 4001 13861
 4001 4002 13862
 4002 4003 13863
 4003 4004 13864
 4004 4005 13865
 4005 4006 13866
 4006 4007 13867
 4007 4008 13868
 4008 4009 13869
 4009 4010 13870
 4010 4011 13871
 4011 4012 13872
 4012 4013 13873
 4013 4014 13874
 4014 4015 13875
 4015 4016 13876
 4016 4017 13877
 4017 4018 13878
 4018 4019 13879
 4019 4020 13880
 4020 4021 13881
 4021 4022 13882
 4022 4023 13883
 4023 4024 13884
 4024 4025 13885
 4025 4026 13886
 4026 4027 13887
 4027 4028 13888
 4028 4029 13889
 4029 4030 13890
 4030 4031 13891
 4031 4032 13892
 4032 4033 13893
 4033 4034 13894
 4034 4035 13895
 4035 4036 13896
 4036 4037 13897
 4037 4038 13898
 4038 4039 13899
 4039 4040 13900
 4040 4041 13901
 4041 4042 13902
 4042 4043 13903
 4043 4044 13904
 4044 4045 13905
 4045 4046 13906
 4046 4047 13907
 4047 4048 13908
 4048 4049 13909
 4049 4050 13910
 4050 4051 13911
 4051 4052 13912
 4052 4053 13913
 4053 4054 13914
 4054 4055 13915
 4055 4056 13916
 4056 4057 13917
 4057 4058 13918
 4058 4059 13919
 4059 4060 13920
 4060 4061 13921
 4061 4062 13922
 4062 4063 13923
 4063 4064 13924
 4064 4065 13925
 4065 4066 13926
 4066 4067 13927
 4067 4068 13928
 4068 4069 13929
 4069 4070 13930
 4070 4071 13931
 4071 4072 13932
 4072 4073 13933
 4073 4074 13934
 4074 4075 13935
 4075 4076 13936
 4076 4077 13937
 4077 4078 13938
 4078 4079 13939
 4079 4080 13940
 4080 4081 13941
 4081 4082 13942
 4082 4083 13943
 4083 4084 13944
 4084 4085 13945
 4085 4086 13946
 4086 4087 13947
 4087 4088 13948
 4088 4089 13949
 4089 4090 13950
 4090 4091 13951
 4091 4092 13952
 4092 4093 13953
 4093 4094 13954
 4094 4095 13955
 4095 4096 13956
 4096 4097 13957
 4097 4098 13958
 4098 4099 13959
 4100 4101 13960
 4101 4102 13961
 4102 4103 13962
 4103 4104 13963
 4104 4105 13964
 4105 4106 13965
 4106 4107 13966
 4107 4108 13967
 4108 4109 13968
 4109 4110 13969
 4110 4111 13970
 4111 4112 13971
 4112 4113 13972
 4113 4114 13973
 4114 4115 13974
 4115 4116 13975
 4116 4117 13976
 4117 4118 13977
 4118 4119 13978
 4119 4120 13979
 4120 4121 13980
 4121 4122 13981
 4122 4123 13982
 4123 4124 13983
 4124 4125 13984
 4125 4126 13985
 4126 4127 13986
 4127 4128 13987
 4128 4129 13988
 4129 4130 13989
 4130 4131 13990
 4131 4132 13991
 4132 4133 13992
 4133 4134 13993
 4134 4135 13994
 4135 4136 13995
 4136 4137 13996
 4137 4138 13997
 4138 4139 13998
 4139 4140 13999
 4140 4141 14000
 4141 4142 14001
 4142 4143 14002
 4143 4144 14003
 4144 4145 14004
 4145 4146 14005
 4146 4147 14006
 4147 4148 14007
 4148 4149 14008
 4149 4150 14009
 4150 4151 14010
 4151 4152 14011
 4152 4153 14012
 4153 4154 14013
 4154 4155 14014
 4155 4156 14015
 4156 4157 14016
 4157 4158 14017
 4158 4159 14018
 4159 4160 14019
 4160 4161 14020
 4161 4162 14021
 4162 4163 14022
 4163 4164 14023
 4164 4165 14024
 4165 4166 14025
 4166 4167 14026
 4167 4168 14027
 4168 4169 14028
 4169 4170 14029
 4170 4171 14030
 4171 4172 14031
 4172 4173 14032
 4173 4174 14033
 4174 4175 14034
 4175 4176 14035
 4176 4177 14036
 4177 4178 14037
 4178 4179 14038
 4179 4180 14039
 4180 4181 14040
 4181 4182 14041
 4182 4183 14042
 4183 4184 14043
 4184 4185 14044
 4185 4186 14045
 4186 4187 14046
 4187 4188 14047
 4188 4189 14048
 4189 4190 14049
 4190 4191 14050
 4191 4192 14051
 4192 4193 14052
 4193 4194 14053
 4194 4195 14054
 4195 4196 14055
 4196 4197 14056
 4197 4198 14057
 4198 4199 14058
 4200 4201 14059
 4201 4202 14060
 4202 4203 14061
 4203 4204 14062
 4204 4205 14063
 4205 4206 14064
 4206 4207 14065
 4207 4208 14066
 4208 4209 14067
 4209 4210 14068
 4210 4211 14069
 4211 4212 14070
 4212 4213 14071
 4213 4214 14072
 4214 4215 14073
 4215 4216 14074
 4216 4217 14075
 4217 4218 14076
 4218 4219 14077
 4219 4220 14078
 4220 4221 14079
 4221 4222 14080
 4222 4223 14081
 4223 4224 14082
 4224 4225 14083
 4225 4226 14084
 4226 4227 14085
 4227 4228 14086
 4228 4229 14087
 4229 4230 14088
 4230 4231 14089
 4231 4232 14090
 4232 4233 14091
 4233 4234 14092
 4234 4235 14093
 4235 4236 14094
 4236 4237 14095
 4237 4238 14096
 4238 4239 14097
 4239 4240 14098
 4240 4241 14099
 4241 4242 14100
 4242 4243 14101
 4243 4244 14102
 4244 4245 14103
 4245 4246 14104
 4246 4247 14105
 4247 4248 14106
 4248 4249 14107
 4249 4250 14108
 4250 4251 14109
 4251 4252 14110
 4252 4253 14111
 4253 4254 14112
 4254 4255 14113
 4255 4256 14114
 4256 4257 14115
 4257 4258 14116
 4258 4259 14117
 4259 4260 14118
 4260 4261 14119
 4261 4262 14120
 4262 4263 14121
 4263 4264 14122
 4264 4265 14123
 4265 4266 14124
 4266 4267 14125
 4267 4268 14126
 4268 4269 14127
 4269 4270 14128
 4270 4271 14129
 4271 4272 14130
 4272 4273 14131
 4273 4274 14132
 4274 4275 14133
 4275 4276 14134
 4276 4277 14135
 4277 4278 14136
 4278 4279 14137
 4279 4280 14138
 4280 4281 14139
 4281 4282 14140
 4282 4283 14141
 4283 4284 14142
 4284 4285 14143
 4285 4286 14144
 4286 4287 14145
 4287 4288 14146
 4288 4289 14147
 4289 4290 14148
 4290 4291 14149
 4291 4292 14150
 4292 4293 14151
 4293 4294 14152
 4294 4295 14153
 4295 4296 14154
 4296 4297 14155
 4297 4298 14156
 4298 4299 14157
 4300 4301 14158
 4301 4302 14159
 4302 4303 14160
 4303 4304 14161
 4304 4305 14162
 4305 4306 14163
 4306 4307 14164
 4307 4308 14165
 4308 4309 14166
 4309 4310 14167
 4310 4311 14168
 4311 4312 14169
 4312 4313 14170
 4313 4314 14171
 4314 4315 14172
 4315 4316 14173
 4316 4317 14174
 4317 4318 14175
 4318 4319 14176
 4319 4320 14177
 4320 4321 14178
 4321 4322 14179
 4322 4323 14180
 4323 4324 14181
 4324 4325 14182
 4325 4326 14183
 4326 4327 14184
 4327 4328 14185
 4328 4329 14186
 4329 4330 14187
 4330 4331 14188
 4331 4332 14189
 4332 4333 14190
 4333 4334 14191
 4334 4335 14192
 4335 4336 14193
 4336 4337 14194
 4337 4338 14195
 4338 4339 14196
 4339 4340 14197
 4340 4341 14198
 4341 4342 14199
 4342 4343 14200
 4343 4344 14201
 4344 4345 14202
 4345 4346 14203
 4346 4347 14204
 4347 4348 14205
 4348 4349 14206
 4349 4350 14207
 4350 4351 14208
 4351 4352 14209
 4352 4353 14210
 4353 4354 14211
 4354 4355 14212
 4355 4356 14213
 4356 4357 14214
 4357 4358 14215
 4358 4359 14216
 4359 4360 14217
 4360 4361 14218
 4361 4362 14219
 4362 4363 14220
 4363 4364 14221
 4364 4365 14222
 4365 4366 14223
 4366 4367 14224
 4367 4368 14225
 4368 4369 14226
 4369 4370 14227
 4370 4371 14228
 4371 4372 14229
 4372 4373 14230
 4373 4374 14231
 4374 4375 14232
 4375 4376 14233
 4376 4377 14234
 4377 4378 14235
 4378 4379 14236
 4379 4380 14237
 4380 4381 14238
 4381 4382 14239
 4382 4383 14240
 4383 4384 14241
 4384 4385 14242
 4385 4386 14243
 4386 4387 14244
 4387 4388 14245
 4388 4389 14246
 4389 4390 14247
 4390 4391 14248
 4391 4392 14249
 4392 4393 14250
 4393 4394 14251
 4394 4395 14252
 4395 4396 14253
 4396 4397 14254
 4397 4398 14255
 4398 4399 14256
 4400 4401 14257
 4401 4402 14258
 4402 4403 14259
 4403 4404 14260
 4404 4405 14261
 4405 4406 14262
 4406 4407 14263
 4407 4408 14264
 4408 4409 14265
 4409 4410 14266
 4410 4411 14267
 4411 4412 14268
 4412 4413 14269
 4413 4414 14270
 4414 4415 14271
 4415 4416 14272
 4416 4417 14273
 4417 4418 14274
 4418 4419 14275
 4419 4420 14276
 4420 4421 14277
 4421 4422 14278
 4422 4423 14279
 4423 4424 14280
 4424 4425 14281
 4425 4426 14282
 4426 4427 14283
 4427 4428 14284
 4428 4429 14285
 4429 4430 14286
 4430 4431 14287
 4431 4432 14288
 4432 4433 14289
 4433 4434 14290
 4434 4435 14291
 4435 4436 14292
 4436 4437 14293
 4437 4438 14294
 4438 4439 14295
 4439 4440 14296
 4440 4441 14297
 4441 4442 14298
 4442 4443 14299
 4443 4444 14300
 4444 4445 14301
 4445 4446 14302
 4446 4447 14303
 4447 4448 14304
 4448 4449 14305
 4449 4450 14306
 4450 4451 14307
 4451 4452 14308
 4452 4453 14309
 4453 4454 14310
 4454 4455 14311
 4455 4456 14312
 4456 4457 14313
 4457 4458 14314
 4458 4459 14315
 4459 4460 14316
 4460 4461 14317
 4461 4462 14318
 4462 4463 14319
 4463 4464 14320
 4464 4465 14321
 4465 4466 14322
 4466 4467 14323
 4467 4468 14324
 4468 4469 14325
 4469 4470 14326
 4470 4471 14327
 4471 4472 14328
 4472 4473 14329
 4473 4474 14330
 4474 4475 14331
 4475 4476 14332
 4476 4477 14333
 4477 4478 14334
 4478 4479 14335
 4479 4480 14336
 4480 4481 14337
 4481 4482 14338
 4482 4483 14339
 4483 4484 14340
 4484 4485 14341
 4485 4486 14342
 4486 4487 14343
 4487 4488 14344
 4488 4489 14345
 4489 4490 14346
 4490 4491 14347
 4491 4492 14348
 4492 4493 14349
 4493 4494 14350
 4494 4495 14351
 4495 4496 14352
 4496 4497 14353
 4497 4498 14354
 4498 4499 14355
 4500 4501 14356
 4501 4502 14357
 4502 4503 14358
 4503 4504 14359
 4504 4505 14360
 4505 4506 14361
 4506 4507 14362
 4507 4508 14363
 4508 4509 14364
 4509 4510 14365
 4510 4511 14366
 4511 4512 14367
 4512 4513 14368
 4513 4514 14369
 4514 4515 14370
 4515 4516 14371
 4516 4517 14372
 4517 4518 14373
 4518 4519 14374
 4519 4520 14375
 4520 4521 14376
 4521 4522 14377
 4522 4523 14378
 4523 4524 14379
 4524 4525 14380
 4525 4526 14381
 4526 4527 14382
 4527 4528 14383
 4528 4529 14384
 4529 4530 14385
 4530 4531 14386
 4531 4532 14387
 4532 4533 14388
 4533 4534 14389
 4534 4535 14390
 4535 4536 14391
 4536 4537 14392
 4537 4538 14393
 4538 4539 14394
 4539 4540 14395
 4540 4541 14396
 4541 4542 14397
 4542 4543 14398
 4543 4544 14399
 4544 4545 14400
 4545 4546 14401
 4546 4547 14402
 4547 4548 14403
 4548 4549 14404
 4549 4550 14405
 4550 4551 14406
 4551 4552 14407
 4552 4553 14408
 4553 4554 14409
 4554 4555 14410
 4555 4556 14411
 4556 4557 14412
 4557 4558 14413
 4558 4559 14414
 4559 4560 14415
 4560 4561 14416
 4561 4562 14417
 4562 4563 14418
 4563 4564 14419
 4564 4565 14420
 4565 4566 14421
 4566 4567 14422
 4567 4568 14423
 4568 4569 14424
 4569 4570 14425
 4570 4571 14426
 4571 4572 14427
 4572 4573 14428
 4573 4574 14429
 4574 4575 14430
 4575 4576 14431
 4576 4577 14432
 4577 4578 14433
 4578 4579 14434
 4579 4580 14435
 4580 4581 14436
 4581 4582 14437
 4582 4583 14438
 4583 4584 14439
 4584 4585 14440
 4585 4586 14441
 4586 4587 14442
 4587 4588 14443
 4588 4589 14444
 4589 4590 14445
 4590 4591 14446
 4591 4592 14447
 4592 4593 14448
 4593 4594 14449
 4594 4595 14450
 4595 4596 14451
 4596 4597 14452
 4597 4598 14453
 4598 4599 14454
 4600 4601 14455
 4601 4602 14456
 4602 4603 14457
 4603 4604 14458
 4604 4605 14459
 4605 4606 14460
 4606 4607 14461
 4607 4608 14462
 4608 4609 14463
 4609 4610 14464
 4610 4611 14465
 4611 4612 14466
 4612 4613 14467
 4613 4614 14468
 4614 4615 14469
 4615 4616 14470
 4616 4617 14471
 4617 4618 14472
 4618 4619 14473
 4619 4620 14474
 4620 4621 14475
 4621 4622 14476
 4622 4623 14477
 4623 4624 14478
 4624 4625 14479
 4625 4626 14480
 4626 4627 14481
 4627 4628 14482
 4628 4629 14483
 4629 4630 14484
 4630 4631 14485
 4631 4632 14486
 4632 4633 14487
 4633 4634 14488
 4634 4635 14489
 4635 4636 14490
 4636 4637 14491
 4637 4638 14492
 4638 4639 14493
 4639 4640 14494
 4640 4641 14495
 4641 4642 14496
 4642 4643 14497
 4643 4644 14498
 4644 4645 14499
 4645 4646 14500
 4646 4647 14501
 4647 4648 14502
 4648 4649 14503
 4649 4650 14504
 4650 4651 14505
 4651 4652 14506
 4652 4653 14507
 4653 4654 14508
 4654 4655 14509
 4655 4656 14510
 4656 4657 14511
 4657 4658 14512
 4658 4659 14513
 4659 4660 14514
 4660 4661 14515
 4661 4662 14516
 4662 4663 14517
 4663 4664 14518
 4664 4665 14519
 4665 4666 14520
 4666 4667 14521
 4667 4668 14522
 4668 4669 14523
 4669 4670 14524
 4670 4671 14525
 4671 4672 14526
 4672 4673 14527
 4673 4674 14528
 4674 4675 14529
 4675 4676 14530
 4676 4677 14531
 4677 4678 14532
 4678 4679 14533
 4679 4680 14534
 4680 4681 14535
 4681 4682 14536
 4682 4683 14537
 4683 4684 14538
 4684 4685 14539
 4685 4686 14540
 4686 4687 14541
 4687 4688 14542
 4688 4689 14543
 4689 4690 14544
 4690 4691 14545
 4691 4692 14546
 4692 4693 14547
 4693 4694 14548
 4694 4695 14549
 4695 4696 14550
 4696 4697 14551
 4697 4698 14552
 4698 4699 14553
 4700 4701 14554
 4701 4702 14555
 4702 4703 14556
 4703 4704 14557
 4704 4705 14558
 4705 4706 14559
 4706 4707 14560
 4707 4708 14561
 4708 4709 14562
 4709 4710 14563
 4710 4711 14564
 4711 4712 14565
 4712 4713 14566
 4713 4714 14567
 4714 4715 14568
 4715 4716 14569
 4716 4717 14570
 4717 4718 14571
 4718 4719 14572
 4719 4720 14573
 4720 4721 14574
 4721 4722 14575
 4722 4723 14576
 4723 4724 14577
 4724 4725 14578
 4725 4726 14579
 4726 4727 14580
 4727 4728 14581
 4728 4729 14582
 4729 4730 14583
 4730 4731 14584
 4731 4732 14585
 4732 4733 14586
 4733 4734 14587
 4734 4735 14588
 4735 4736 14589
 4736 4737 14590
 4737 4738 14591
 4738 4739 14592
 4739 4740 14593
 4740 4741 14594
 4741 4742 14595
 4742 4743 14596
 4743 4744 14597
 4744 4745 14598
 4745 4746 14599
 4746 4747 14600
 4747 4748 14601
 4748 4749 14602
 4749 4750 14603
 4750 4751 14604
 4751 4752 14605
 4752 4753 14606
 4753 4754 14607
 4754 4755 14608
 4755 4756 14609
 4756 4757 14610
 4757 4758 14611
 4758 4759 14612
 4759 4760 14613
 4760 4761 14614
 4761 4762 14615
 4762 4763 14616
 4763 4764 14617
 4764 4765 14618
 4765 4766 14619
 4766 4767 14620
 4767 4768 14621
 4768 4769 14622
 4769 4770 14623
 4770 4771 14624
 4771 4772 14625
 4772 4773 14626
 4773 4774 14627
 4774 4775 14628
 4775 4776 14629
 4776 4777 14630
 4777 4778 14631
 4778 4779 14632
 4779 4780 14633
 4780 4781 14634
 4781 4782 14635
 4782 4783 14636
 4783 4784 14637
 4784 4785 14638
 4785 4786 14639
 4786 4787 14640
 4787 4788 14641
 4788 4789 14642
 4789 4790 14643
 4790 4791 14644
 4791 4792 14645
 4792 4793 14646
 4793 4794 14647
 4794 4795 14648
 4795 4796 14649
 4796 4797 14650
 4797 4798 14651
 4798 4799 14652
 4800 4801 14653
 4801 4802 14654
 4802 4803 14655
 4803 4804 14656
 4804 4805 14657
 4805 4806 14658
 4806 4807 14659
 4807 4808 14660
 4808 4809 14661
 4809 4810 14662
 4810 4811 14663
 4811 4812 14664
 4812 4813 14665
 4813 4814 14666
 4814 4815 14667
 4815 4816 14668
 4816 4817 14669
 4817 4818 14670
 4818 4819 14671
 4819 4820 14672
 4820 4821 14673
 4821 4822 14674
 4822 4823 14675
 4823 4824 14676
 4824 4825 14677
 4825 4826 14678
 4826 4827 14679
 4827 4828 14680
 4828 4829 14681
 4829 4830 14682
 4830 4831 14683
 4831 4832 14684
 4832 4833 14685
 4833 4834 14686
 4834 4835 14687
 4835 4836 14688
 4836 4837 14689
 4837 4838 14690
 4838 4839 14691
 4839 4840 14692
 4840 4841 14693
 4841 4842 14694
 4842 4843 14695
 4843 4844 14696
 4844 4845 14697
 4845 4846 14698
 4846 4847 14699
 4847 4848 14700
 4848 4849 14701
 4849 4850 14702
 4850 4851 14703
 4851 4852 14704
 4852 4853 14705
 4853 4854 14706
 4854 4855 14707
 4855 4856 14708
 4856 4857 14709
 4857 4858 14710
 4858 4859 14711
 4859 4860 14712
 4860 4861 14713
 4861 4862 14714
 4862 4863 14715
 4863 4864 14716
 4864 4865 14717
 4865 4866 14718
 4866 4867 14719
 4867 4868 14720
 4868 4869 14721
 4869 4870 14722
 4870 4871 14723
 4871 4872 14724
 4872 4873 14725
 4873 4874 14726
 4874 4875 14727
 4875 4876 14728
 4876 4877 14729
 4877 4878 14730
 4878 4879 14731
 4879 4880 14732
 4880 4881 14733
 4881 4882 14734
 4882 4883 14735
 4883 4884 14736
 4884 4885 14737
 4885 4886 14738
 4886 4887 14739
 4887 4888 14740
 4888 4889 14741
 4889 4890 14742
 4890 4891 14743
 4891 4892 14744
 4892 4893 14745
 4893 4894 14746
 4894 4895 14747
 4895 4896 14748
 4896 4897 14749
 4897 4898 14750
 4898 4899 14751
 4900 4901 14752
 4901 4902 14753
 4902 4903 14754
 4903 4904 14755
 4904 4905 14756
 4905 4906 14757
 4906 4907 14758
 4907 4908 14759
 4908 4909 14760
 4909 4910 14761
 4910 4911 14762
 4911 4912 14763
 4912 4913 14764
 4913 4914 14765
 4914 4915 14766
 4915 4916 14767
 4916 4917 14768
 4917 4918 14769
 4918 4919 14770
 4919 4920 14771
 4920 4921 14772
 4921 4922 14773
 4922 4923 14774
 4923 4924 14775
 4924 4925 14776
 4925 4926 14777
 4926 4927 14778
 4927 4928 14779
 4928 4929 14780
 4929 4930 14781
 4930 4931 14782
 4931 4932 14783
 4932 4933 14784
 4933 4934 14785
 4934 4935 14786
 4935 4936 14787
 4936 4937 14788
 4937 4938 14789
 4938 4939 14790
 4939 4940 14791
 4940 4941 14792
 4941 4942 14793
 4942 4943 14794
 4943 4944 14795
 4944 4945 14796
 4945 4946 14797
 4946 4947 14798
 4947 4948 14799
 4948 4949 14800
 4949 4950 14801
 4950 4951 14802
 4951 4952 14803
 4952 4953 14804
 4953 4954 14805
 4954 4955 14806
 4955 4956 14807
 4956 4957 14808
 4957 4958 14809
 4958 4959 14810
 4959 4960 14811
 4960 4961 14812
 4961 4962 14813
 4962 4963 14814
 4963 4964 14815
 4964 4965 14816
 4965 4966 14817
 4966 4967 14818
 4967 4968 14819
 4968 4969 14820
 4969 4970 14821
 4970 4971 14822
 4971 4972 14823
 4972 4973 14824
 4973 4974 14825
 4974 4975 14826
 4975 4976 14827
 4976 4977 14828
 4977 4978 14829
 4978 4979 14830
 4979 4980 14831
 4980 4981 14832
 4981 4982 14833
 4982 4983 14834
 4983 4984 14835
 4984 4985 14836
 4985 4986 14837
 4986 4987 14838
 4987 4988 14839
 4988 4989 14840
 4989 4990 14841
 4990 4991 14842
 4991 4992 14843
 4992 4993 14844
 4993 4994 14845
 4994 4995 14846
 4995 4996 14847
 4996 4997 14848
 4997 4998 14849
 4998 4999 14850
 5000 5001 14851
 5001 5002 14852
 5002 5003 14853
 5003 5004 14854
 5004 5005 14855
 5005 5006 14856
 5006 5007 14857
 5007 5008 14858
 5008 5009 14859
 5009 5010 14860
 5010 5011 14861
 5011 5012 14862
 5012 5013 14863
 5013 5014 14864
 5014 5015 14865
 5015 5016 14866
 5016 5017 14867
 5017 5018 14868
 5018 5019 14869
 5019 5020 14870
 5020 5021 14871
 5021 5022 14872
 5022 5023 14873
 5023 5024 14874
 5024 5025 14875
 5025 5026 14876
 5026 5027 14877
 5027 5028 14878
 5028 5029 14879
 5029 5030 14880
 5030 5031 14881
 5031 5032 14882
 5032 5033 14883
 5033 5034 14884
 5034 5035 14885
 5035 5036 14886
 5036 5037 14887
 5037 5038 14888
 5038 5039 14889
 5039 5040 14890
 5040 5041 14891
 5041 5042 14892
 5042 5043 14893
 5043 5044 14894
 5044 5045 14895
 5045 5046 14896
 5046 5047 14897
 5047 5048 14898
 5048 5049 14899
 5049 5050 14900
 5050 5051 14901
 5051 5052 14902
 5052 5053 14903
 5053 5054 14904
 5054 5055 14905
 5055 5056 14906
 5056 5057 14907
 5057 5058 14908
 5058 5059 14909
 5059 5060 14910
 5060 5061 14911
 5061 5062 14912
 5062 5063 14913
 5063 5064 14914
 5064 5065 14915
 5065 5066 14916
 5066 5067 14917
 5067 5068 14918
 5068 5069 14919
 5069 5070 14920
 5070 5071 14921
 5071 5072 14922
 5072 5073 14923
 5073 5074 14924
 5074 5075 14925
 5075 5076 14926
 5076 5077 14927
 5077 5078 14928
 5078 5079 14929
 5079 5080 14930
 5080 5081 14931
 5081 5082 14932
 5082 5083 14933
 5083 5084 14934
 5084 5085 14935
 5085 5086 14936
 5086 5087 14937
 5087 5088 14938
 5088 5089 14939
 5089 5090 14940
 5090 5091 14941
 5091 5092 14942
 5092 5093 14943
 5093 5094 14944
 5094 5095 14945
 5095 5096 14946
 5096 5097 14947
 5097 5098 14948
 5098 5099 14949
 5100 5101 14950
 5101 5102 14951
 5102 5103 14952
 5103 5104 14953
 5104 5105 14954
 5105 5106 14955
 5106 5107 14956
 5107 5108 14957
 5108 5109 14958
 5109 5110 14959
 5110 5111 14960
 5111 5112 14961
 5112 5113 14962
 5113 5114 14963
 5114 5115 14964
 5115 5116 14965
 5116 5117 14966
 5117 5118 14967
 5118 5119 14968
 5119 5120 14969
 5120 5121 14970
 5121 5122 14971
 5122 5123 14972
 5123 5124 14973
 5124 5125 14974
 5125 5126 14975
 5126 5127 14976
 5127 5128 14977
 5128 5129 14978
 5129 5130 14979
 5130 5131 14980
 5131 5132 14981
 5132 5133 14982
 5133 5134 14983
 5134 5135 14984
 5135 5136 14985
 5136 5137 14986
 5137 5138 14987
 5138 5139 14988
 5139 5140 14989
 5140 5141 14990
 5141 5142 14991
 5142 5143 14992
 5143 5144 14993
 5144 5145 14994
 5145 5146 14995
 5146 5147 14996
 5147 5148 14997
 5148 5149 14998
 5149 5150 14999
 5150 5151 15000
 5151 5152 15001
 5152 5153 15002
 5153 5154 15003
 5154 5155 15004
 5155 5156 15005
 5156 5157 15006
 5157 5158 15007
 5158 5159 15008
 5159 5160 15009
 5160 5161 15010
 5161 5162 15011
 5162 5163 15012
 5163 5164 15013
 5164 5165 15014
 5165 5166 15015
 5166 5167 15016
 5167 5168 15017
 5168 5169 15018
 5169 5170 15019
 5170 5171 15020
 5171 5172 15021
 5172 5173 15022
 5173 5174 15023
 5174 5175 15024
 5175 5176 15025
 5176 5177 15026
 5177 5178 15027
 5178 5179 15028
 5179 5180 15029
 5180 5181 15030
 5181 5182 15031
 5182 5183 15032
 5183 5184 15033
 5184 5185 15034
 5185 5186 15035
 5186 5187 15036
 5187 5188 15037
 5188 5189 15038
 5189 5190 15039
 5190 5191 15040
 5191 5192 15041
 5192 5193 15042
 5193 5194 15043
 5194 5195 15044
 5195 5196 15045
 5196 5197 15046
 5197 5198 15047
 5198 5199 15048
 5200 5201 15049
 5201 5202 15050
 5202 5203 15051
 5203 5204 15052
 5204 5205 15053
 5205 5206 15054
 5206 5207 15055
 5207 5208 15056
 5208 5209 15057
 5209 5210 15058
 5210 5211 15059
 5211 5212 15060
 5212 5213 15061
 5213 5214 15062
 5214 5215 15063
 5215 5216 15064
 5216 5217 15065
 5217 5218 15066
 5218 5219 15067
 5219 5220 15068
 5220 5221 15069
 5221 5222 15070
 5222 5223 15071
 5223 5224 15072
 5224 5225 15073
 5225 5226 15074
 5226 5227 15075
 5227 5228 15076
 5228 5229 15077
 5229 5230 15078
 5230 5231 15079
 5231 5232 15080
 5232 5233 15081
 5233 5234 15082
 5234 5235 15083
 5235 5236 15084
 5236 5237 15085
 5237 5238 15086
 5238 5239 15087
 5239 5240 15088
 5240 5241 15089
 5241 5242 15090
 5242 5243 15091
 5243 5244 15092
 5244 5245 15093
 5245 5246 15094
 5246 5247 15095
 5247 5248 15096
 5248 5249 15097
 5249 5250 15098
 5250 5251 15099
 5251 5252 15100
 5252 5253 15101
 5253 5254 15102
 5254 5255 15103
 5255 5256 15104
 5256 5257 15105
 5257 5258 15106
 5258 5259 15107
 5259 5260 15108
 5260 5261 15109
 5261 5262 15110
 5262 5263 15111
 5263 5264 15112
 5264 5265 15113
 5265 5266 15114
 5266 5267 15115
 5267 5268 15116
 5268 5269 15117
 5269 5270 15118
 5270 5271 15119
 5271 5272 15120
 5272 5273 15121
 5273 5274 15122
 5274 5275 15123
 5275 5276 15124
 5276 5277 15125
 5277 5278 15126
 5278 5279 15127
 5279 5280 15128
 5280 5281 15129
 5281 5282 15130
 5282 5283 15131
 5283 5284 15132
 5284 5285 15133
 5285 5286 15134
 5286 5287 15135
 5287 5288 15136
 5288 5289 15137
 5289 5290 15138
 5290 5291 15139
 5291 5292 15140
 5292 5293 15141
 5293 5294 15142
 5294 5295 15143
 5295 5296 15144
 5296 5297 15145
 5297 5298 15146
 5298 5299 15147
 5300 5301 15148
 5301 5302 15149
 5302 5303 15150
 5303 5304 15151
 5304 5305 15152
 5305 5306 15153
 5306 5307 15154
 5307 5308 15155
 5308 5309 15156
 5309 5310 15157
 5310 5311 15158
 5311 5312 15159
 5312 5313 15160
 5313 5314 15161
 5314 5315 15162
 5315 5316 15163
 5316 5317 15164
 5317 5318 15165
 5318 5319 15166
 5319 5320 15167
 5320 5321 15168
 5321 5322 15169
 5322 5323 15170
 5323 5324 15171
 5324 5325 15172
 5325 5326 15173
 5326 5327 15174
 5327 5328 15175
 5328 5329 15176
 5329 5330 15177
 5330 5331 15178
 5331 5332 15179
 5332 5333 15180
 5333 5334 15181
 5334 5335 15182
 5335 5336 15183
 5336 5337 15184
 5337 5338 15185
 5338 5339 15186
 5339 5340 15187
 5340 5341 15188
 5341 5342 15189
 5342 5343 15190
 5343 5344 15191
 5344 5345 15192
 5345 5346 15193
 5346 5347 15194
 5347 5348 15195
 5348 5349 15196
 5349 5350 15197
 5350 5351 15198
 5351 5352 15199
 5352 5353 15200
 5353 5354 15201
 5354 5355 15202
 5355 5356 15203
 5356 5357 15204
 5357 5358 15205
 5358 5359 15206
 5359 5360 15207
 5360 5361 15208
 5361 5362 15209
 5362 5363 15210
 5363 5364 15211
 5364 5365 15212
 5365 5366 15213
 5366 5367 15214
 5367 5368 15215
 5368 5369 15216
 5369 5370 15217
 5370 5371 15218
 5371 5372 15219
 5372 5373 15220
 5373 5374 15221
 5374 5375 15222
 5375 5376 15223
 5376 5377 15224
 5377 5378 15225
 5378 5379 15226
 5379 5380 15227
 5380 5381 15228
 5381 5382 15229
 5382 5383 15230
 5383 5384 15231
 5384 5385 15232
 5385 5386 15233
 5386 5387 15234
 5387 5388 15235
 5388 5389 15236
 5389 5390 15237
 5390 5391 15238
 5391 5392 15239
 5392 5393 15240
 5393 5394 15241
 5394 5395 15242
 5395 5396 15243
 5396 5397 15244
 5397 5398 15245
 5398 5399 15246
 5400 5401 15247
 5401 5402 15248
 5402 5403 15249
 5403 5404 15250
 5404 5405 15251
 5405 5406 15252
 5406 5407 15253
 5407 5408 15254
 5408 5409 15255
 5409 5410 15256
 5410 5411 15257
 5411 5412 15258
 5412 5413 15259
 5413 5414 15260
 5414 5415 15261
 5415 5416 15262
 5416 5417 15263
 5417 5418 15264
 5418 5419 15265
 5419 5420 15266
 5420 5421 15267
 5421 5422 15268
 5422 5423 15269
 5423 5424 15270
 5424 5425 15271
 5425 5426 15272
 5426 5427 15273
 5427 5428 15274
 5428 5429 15275
 5429 5430 15276
 5430 5431 15277
 5431 5432 15278
 5432 5433 15279
 5433 5434 15280
 5434 5435 15281
 5435 5436 15282
 5436 5437 15283
 5437 5438 15284
 5438 5439 15285
 5439 5440 15286
 5440 5441 15287
 5441 5442 15288
 5442 5443 15289
 5443 5444 15290
 5444 5445 15291
 5445 5446 15292
 5446 5447 15293
 5447 5448 15294
 5448 5449 15295
 5449 5450 15296
 5450 5451 15297
 5451 5452 15298
 5452 5453 15299
 5453 5454 15300
 5454 5455 15301
 5455 5456 15302
 5456 5457 15303
 5457 5458 15304
 5458 5459 15305
 5459 5460 15306
 5460 5461 15307
 5461 5462 15308
 5462 5463 15309
 5463 5464 15310
 5464 5465 15311
 5465 5466 15312
 5466 5467 15313
 5467 5468 15314
 5468 5469 15315
 5469 5470 15316
 5470 5471 15317
 5471 5472 15318
 5472 5473 15319
 5473 5474 15320
 5474 5475 15321
 5475 5476 15322
 5476 5477 15323
 5477 5478 15324
 5478 5479 15325
 5479 5480 15326
 5480 5481 15327
 5481 5482 15328
 5482 5483 15329
 5483 5484 15330
 5484 5485 15331
 5485 5486 15332
 5486 5487 15333
 5487 5488 15334
 5488 5489 15335
 5489 5490 15336
 5490 5491 15337
 5491 5492 15338
 5492 5493 15339
 5493 5494 15340
 5494 5495 15341
 5495 5496 15342
 5496 5497 15343
 5497 5498 15344
 5498 5499 15345
 5500 5501 15346
 5501 5502 15347
 5502 5503 15348
 5503 5504 15349
 5504 5505 15350
 5505 5506 15351
 5506 5507 15352
 5507 5508 15353
 5508 5509 15354
 5509 5510 15355
 5510 5511 15356
 5511 5512 15357
 5512 5513 15358
 5513 5514 15359
 5514 5515 15360
 5515 5516 15361
 5516 5517 15362
 5517 5518 15363
 5518 5519 15364
 5519 5520 15365
 5520 5521 15366
 5521 5522 15367
 5522 5523 15368
 5523 5524 15369
 5524 5525 15370
 5525 5526 15371
 5526 5527 15372
 5527 5528 15373
 5528 5529 15374
 5529 5530 15375
 5530 5531 15376
 5531 5532 15377
 5532 5533 15378
 5533 5534 15379
 5534 5535 15380
 5535 5536 15381
 5536 5537 15382
 5537 5538 15383
 5538 5539 15384
 5539 5540 15385
 5540 5541 15386
 5541 5542 15387
 5542 5543 15388
 5543 5544 15389
 5544 5545 15390
 5545 5546 15391
 5546 5547 15392
 5547 5548 15393
 5548 5549 15394
 5549 5550 15395
 5550 5551 15396
 5551 5552 15397
 5552 5553 15398
 5553 5554 15399
 5554 5555 15400
 5555 5556 15401
 5556 5557 15402
 5557 5558 15403
 5558 5559 15404
 5559 5560 15405
 5560 5561 15406
 5561 5562 15407
 5562 5563 15408
 5563 5564 15409
 5564 5565 15410
 5565 5566 15411
 5566 5567 15412
 5567 5568 15413
 5568 5569 15414
 5569 5570 15415
 5570 5571 15416
 5571 5572 15417
 5572 5573 15418
 5573 5574 15419
 5574 5575 15420
 5575 5576 15421
 5576 5577 15422
 5577 5578 15423
 5578 5579 15424
 5579 5580 15425
 5580 5581 15426
 5581 5582 15427
 5582 5583 15428
 5583 5584 15429
 5584 5585 15430
 5585 5586 15431
 5586 5587 15432
 5587 5588 15433
 5588 5589 15434
 5589 5590 15435
 5590 5591 15436
 5591 5592 15437
 5592 5593 15438
 5593 5594 15439
 5594 5595 15440
 5595 5596 15441
 5596 5597 15442
 5597 5598 15443
 5598 5599 15444
 5600 5601 15445
 5601 5602 15446
 5602 5603 15447
 5603 5604 15448
 5604 5605 15449
 5605 5606 15450
 5606 5607 15451
 5607 5608 15452
 5608 5609 15453
 5609 5610 15454
 5610 5611 15455
 5611 5612 15456
 5612 5613 15457
 5613 5614 15458
 5614 5615 15459
 5615 5616 15460
 5616 5617 15461
 5617 5618 15462
 5618 5619 15463
 5619 5620 15464
 5620 5621 15465
 5621 5622 15466
 5622 5623 15467
 5623 5624 15468
 5624 5625 15469
 5625 5626 15470
 5626 5627 15471
 5627 5628 15472
 5628 5629 15473
 5629 5630 15474
 5630 5631 15475
 5631 5632 15476
 5632 5633 15477
 5633 5634 15478
 5634 5635 15479
 5635 5636 15480
 5636 5637 15481
 5637 5638 15482
 5638 5639 15483
 5639 5640 15484
 5640 5641 15485
 5641 5642 15486
 5642 5643 15487
 5643 5644 15488
 5644 5645 15489
 5645 5646 15490
 5646 5647 15491
 5647 5648 15492
 5648 5649 15493
 5649 5650 15494
 5650 5651 15495
 5651 5652 15496
 5652 5653 15497
 5653 5654 15498
 5654 5655 15499
 5655 5656 15500
 5656 5657 15501
 5657 5658 15502
 5658 5659 15503
 5659 5660 15504
 5660 5661 15505
 5661 5662 15506
 5662 5663 15507
 5663 5664 15508
 5664 5665 15509
 5665 5666 15510
 5666 5667 15511
 5667 5668 15512
 5668 5669 15513
 5669 5670 15514
 5670 5671 15515
 5671 5672 15516
 5672 5673 15517
 5673 5674 15518
 5674 5675 15519
 5675 5676 15520
 5676 5677 15521
 5677 5678 15522
 5678 5679 15523
 5679 5680 15524
 5680 5681 15525
 5681 5682 15526
 5682 5683 15527
 5683 5684 15528
 5684 5685 15529
 5685 5686 15530
 5686 5687 15531
 5687 5688 15532
 5688 5689 15533
 5689 5690 15534
 5690 5691 15535
 5691 5692 15536
 5692 5693 15537
 5693 5694 15538
 5694 5695 15539
 5695 5696 15540
 5696 5697 15541
 5697 5698 15542
 5698 5699 15543
 5700 5701 15544
 5701 5702 15545
 5702 5703 15546
 5703 5704 15547
 5704 5705 15548
 5705 5706 15549
 5706 5707 15550
 5707 5708 15551
 5708 5709 15552
 5709 5710 15553
 5710 5711 15554
 5711 5712 15555
 5712 5713 15556
 5713 5714 15557
 5714 5715 15558
 5715 5716 15559
 5716 5717 15560
 5717 5718 15561
 5718 5719 15562
 5719 5720 15563
 5720 5721 15564
 5721 5722 15565
 5722 5723 15566
 5723 5724 15567
 5724 5725 15568
 5725 5726 15569
 5726 5727 15570
 5727 5728 15571
 5728 5729 15572
 5729 5730 15573
 5730 5731 15574
 5731 5732 15575
 5732 5733 15576
 5733 5734 15577
 5734 5735 15578
 5735 5736 15579
 5736 5737 15580
 5737 5738 15581
 5738 5739 15582
 5739 5740 15583
 5740 5741 15584
 5741 5742 15585
 5742 5743 15586
 5743 5744 15587
 5744 5745 15588
 5745 5746 15589
 5746 5747 15590
 5747 5748 15591
 5748 5749 15592
 5749 5750 15593
 5750 5751 15594
 5751 5752 15595
 5752 5753 15596
 5753 5754 15597
 5754 5755 15598
 5755 5756 15599
 5756 5757 15600
 5757 5758 15601
 5758 5759 15602
 5759 5760 15603
 5760 5761 15604
 5761 5762 15605
 5762 5763 15606
 5763 5764 15607
 5764 5765 15608
 5765 5766 15609
 5766 5767 15610
 5767 5768 15611
 5768 5769 15612
 5769 5770 15613
 5770 5771 15614
 5771 5772 15615
 5772 5773 15616
 5773 5774 15617
 5774 5775 15618
 5775 5776 15619
 5776 5777 15620
 5777 5778 15621
 5778 5779 15622
 5779 5780 15623
 5780 5781 15624
 5781 5782 15625
 5782 5783 15626
 5783 5784 15627
 5784 5785 15628
 5785 5786 15629
 5786 5787 15630
 5787 5788 15631
 5788 5789 15632
 5789 5790 15633
 5790 5791 15634
 5791 5792 15635
 5792 5793 15636
 5793 5794 15637
 5794 5795 15638
 5795 5796 15639
 5796 5797 15640
 5797 5798 15641
 5798 5799 15642
 5800 5801 15643
 5801 5802 15644
 5802 5803 15645
 5803 5804 15646
 5804 5805 15647
 5805 5806 15648
 5806 5807 15649
 5807 5808 15650
 5808 5809 15651
 5809 5810 15652
 5810 5811 15653
 5811 5812 15654
 5812 5813 15655
 5813 5814 15656
 5814 5815 15657
 5815 5816 15658
 5816 5817 15659
 5817 5818 15660
 5818 5819 15661
 5819 5820 15662
 5820 5821 15663
 5821 5822 15664
 5822 5823 15665
 5823 5824 15666
 5824 5825 15667
 5825 5826 15668
 5826 5827 15669
 5827 5828 15670
 5828 5829 15671
 5829 5830 15672
 5830 5831 15673
 5831 5832 15674
 5832 5833 15675
 5833 5834 15676
 5834 5835 15677
 5835 5836 15678
 5836 5837 15679
 5837 5838 15680
 5838 5839 15681
 5839 5840 15682
 5840 5841 15683
 5841 5842 15684
 5842 5843 15685
 5843 5844 15686
 5844 5845 15687
 5845 5846 15688
 5846 5847 15689
 5847 5848 15690
 5848 5849 15691
 5849 5850 15692
 5850 5851 15693
 5851 5852 15694
 5852 5853 15695
 5853 5854 15696
 5854 5855 15697
 5855 5856 15698
 5856 5857 15699
 5857 5858 15700
 5858 5859 15701
 5859 5860 15702
 5860 5861 15703
 5861 5862 15704
 5862 5863 15705
 5863 5864 15706
 5864 5865 15707
 5865 5866 15708
 5866 5867 15709
 5867 5868 15710
 5868 5869 15711
 5869 5870 15712
 5870 5871 15713
 5871 5872 15714
 5872 5873 15715
 5873 5874 15716
 5874 5875 15717
 5875 5876 15718
 5876 5877 15719
 5877 5878 15720
 5878 5879 15721
 5879 5880 15722
 5880 5881 15723
 5881 5882 15724
 5882 5883 15725
 5883 5884 15726
 5884 5885 15727
 5885 5886 15728
 5886 5887 15729
 5887 5888 15730
 5888 5889 15731
 5889 5890 15732
 5890 5891 15733
 5891 5892 15734
 5892 5893 15735
 5893 5894 15736
 5894 5895 15737
 5895 5896 15738
 5896 5897 15739
 5897 5898 15740
 5898 5899 15741
 5900 5901 15742
 5901 5902 15743
 5902 5903 15744
 5903 5904 15745
 5904 5905 15746
 5905 5906 15747
 5906 5907 15748
 5907 5908 15749
 5908 5909 15750
 5909 5910 15751
 5910 5911 15752
 5911 5912 15753
 5912 5913 15754
 5913 5914 15755
 5914 5915 15756
 5915 5916 15757
 5916 5917 15758
 5917 5918 15759
 5918 5919 15760
 5919 5920 15761
 5920 5921 15762
 5921 5922 15763
 5922 5923 15764
 5923 5924 15765
 5924 5925 15766
 5925 5926 15767
 5926 5927 15768
 5927 5928 15769
 5928 5929 15770
 5929 5930 15771
 5930 5931 15772
 5931 5932 15773
 5932 5933 15774
 5933 5934 15775
 5934 5935 15776
 5935 5936 15777
 5936 5937 15778
 5937 5938 15779
 5938 5939 15780
 5939 5940 15781
 5940 5941 15782
 5941 5942 15783
 5942 5943 15784
 5943 5944 15785
 5944 5945 15786
 5945 5946 15787
 5946 5947 15788
 5947 5948 15789
 5948 5949 15790
 5949 5950 15791
 5950 5951 15792
 5951 5952 15793
 5952 5953 15794
 5953 5954 15795
 5954 5955 15796
 5955 5956 15797
 5956 5957 15798
 5957 5958 15799
 5958 5959 15800
 5959 5960 15801
 5960 5961 15802
 5961 5962 15803
 5962 5963 15804
 5963 5964 15805
 5964 5965 15806
 5965 5966 15807
 5966 5967 15808
 5967 5968 15809
 5968 5969 15810
 5969 5970 15811
 5970 5971 15812
 5971 5972 15813
 5972 5973 15814
 5973 5974 15815
 5974 5975 15816
 5975 5976 15817
 5976 5977 15818
 5977 5978 15819
 5978 5979 15820
 5979 5980 15821
 5980 5981 15822
 5981 5982 15823
 5982 5983 15824
 5983 5984 15825
 5984 5985 15826
 5985 5986 15827
 5986 5987 15828
 5987 5988 15829
 5988 5989 15830
 5989 5990 15831
 5990 5991 15832
 5991 5992 15833
 5992 5993 15834
 5993 5994 15835
 5994 5995 15836
 5995 5996 15837
 5996 5997 15838
 5997 5998 15839
 5998 5999 15840
 6000 6001 15841
 6001 6002 15842
 6002 6003 15843
 6003 6004 15844
 6004 6005 15845
 6005 6006 15846
 6006 6007 15847
 6007 6008 15848
 6008 6009 15849
 6009 6010 15850
 6010 6011 15851
 6011 6012 15852
 6012 6013 15853
 6013 6014 15854
 6014 6015 15855
 6015 6016 15856
 6016 6017 15857
 6017 6018 15858
 6018 6019 15859
 6019 6020 15860
 6020 6021 15861
 6021 6022 15862
 6022 6023 15863
 6023 6024 15864
 6024 6025 15865
 6025 6026 15866
 6026 6027 15867
 6027 6028 15868
 6028 6029 15869
 6029 6030 15870
 6030 6031 15871
 6031 6032 15872
 6032 6033 15873
 6033 6034 15874
 6034 6035 15875
 6035 6036 15876
 6036 6037 15877
 6037 6038 15878
 6038 6039 15879
 6039 6040 15880
 6040 6041 15881
 6041 6042 15882
 6042 6043 15883
 6043 6044 15884
 6044 6045 15885
 6045 6046 15886
 6046 6047 15887
 6047 6048 15888
 6048 6049 15889
 6049 6050 15890
 6050 6051 15891
 6051 6052 15892
 6052 6053 15893
 6053 6054 15894
 6054 6055 15895
 6055 6056 15896
 6056 6057 15897
 6057 6058 15898
 6058 6059 15899
 6059 6060 15900
 6060 6061 15901
 6061 6062 15902
 6062 6063 15903
 6063 6064 15904
 6064 6065 15905
 6065 6066 15906
 6066 6067 15907
 6067 6068 15908
 6068 6069 15909
 6069 6070 15910
 6070 6071 15911
 6071 6072 15912
 6072 6073 15913
 6073 6074 15914
 6074 6075 15915
 6075 6076 15916
 6076 6077 15917
 6077 6078 15918
 6078 6079 15919
 6079 6080 15920
 6080 6081 15921
 6081 6082 15922
 6082 6083 15923
 6083 6084 15924
 6084 6085 15925
 6085 6086 15926
 6086 6087 15927
 6087 6088 15928
 6088 6089 15929
 6089 6090 15930
 6090 6091 15931
 6091 6092 15932
 6092 6093 15933
 6093 6094 15934
 6094 6095 15935
 6095 6096 15936
 6096 6097 15937
 6097 6098 15938
 6098 6099 15939
 6100 6101 15940
 6101 6102 15941
 6102 6103 15942
 6103 6104 15943
 6104 6105 15944
 6105 6106 15945
 6106 6107 15946
 6107 6108 15947
 6108 6109 15948
 6109 6110 15949
 6110 6111 15950
 6111 6112 15951
 6112 6113 15952
 6113 6114 15953
 6114 6115 15954
 6115 6116 15955
 6116 6117 15956
 6117 6118 15957
 6118 6119 15958
 6119 6120 15959
 6120 6121 15960
 6121 6122 15961
 6122 6123 15962
 6123 6124 15963
 6124 6125 15964
 6125 6126 15965
 6126 6127 15966
 6127 6128 15967
 6128 6129 15968
 6129 6130 15969
 6130 6131 15970
 6131 6132 15971
 6132 6133 15972
 6133 6134 15973
 6134 6135 15974
 6135 6136 15975
 6136 6137 15976
 6137 6138 15977
 6138 6139 15978
 6139 6140 15979
 6140 6141 15980
 6141 6142 15981
 6142 6143 15982
 6143 6144 15983
 6144 6145 15984
 6145 6146 15985
 6146 6147 15986
 6147 6148 15987
 6148 6149 15988
 6149 6150 15989
 6150 6151 15990
 6151 6152 15991
 6152 6153 15992
 6153 6154 15993
 6154 6155 15994
 6155 6156 15995
 6156 6157 15996
 6157 6158 15997
 6158 6159 15998
 6159 6160 15999
 6160 6161 16000
 6161 6162 16001
 6162 6163 16002
 6163 6164 16003
 6164 6165 16004
 6165 6166 16005
 6166 6167 16006
 6167 6168 16007
 6168 6169 16008
 6169 6170 16009
 6170 6171 16010
 6171 6172 16011
 6172 6173 16012
 6173 6174 16013
 6174 6175 16014
 6175 6176 16015
 6176 6177 16016
 6177 6178 16017
 6178 6179 16018
 6179 6180 16019
 6180 6181 16020
 6181 6182 16021
 6182 6183 16022
 6183 6184 16023
 6184 6185 16024
 6185 6186 16025
 6186 6187 16026
 6187 6188 16027
 6188 6189 16028
 6189 6190 16029
 6190 6191 16030
 6191 6192 16031
 6192 6193 16032
 6193 6194 16033
 6194 6195 16034
 6195 6196 16035
 6196 6197 16036
 6197 6198 16037
 6198 6199 16038
 6200 6201 16039
 6201 6202 16040
 6202 6203 16041
 6203 6204 16042
 6204 6205 16043
 6205 6206 16044
 6206 6207 16045
 6207 6208 16046
 6208 6209 16047
 6209 6210 16048
 6210 6211 16049
 6211 6212 16050
 6212 6213 16051
 6213 6214 16052
 6214 6215 16053
 6215 6216 16054
 6216 6217 16055
 6217 6218 16056
 6218 6219 16057
 6219 6220 16058
 6220 6221 16059
 6221 6222 16060
 6222 6223 16061
 6223 6224 16062
 6224 6225 16063
 6225 6226 16064
 6226 6227 16065
 6227 6228 16066
 6228 6229 16067
 6229 6230 16068
 6230 6231 16069
 6231 6232 16070
 6232 6233 16071
 6233 6234 16072
 6234 6235 16073
 6235 6236 16074
 6236 6237 16075
 6237 6238 16076
 6238 6239 16077
 6239 6240 16078
 6240 6241 16079
 6241 6242 16080
 6242 6243 16081
 6243 6244 16082
 6244 6245 16083
 6245 6246 16084
 6246 6247 16085
 6247 6248 16086
 6248 6249 16087
 6249 6250 16088
 6250 6251 16089
 6251 6252 16090
 6252 6253 16091
 6253 6254 16092
 6254 6255 16093
 6255 6256 16094
 6256 6257 16095
 6257 6258 16096
 6258 6259 16097
 6259 6260 16098
 6260 6261 16099
 6261 6262 16100
 6262 6263 16101
 6263 6264 16102
 6264 6265 16103
 6265 6266 16104
 6266 6267 16105
 6267 6268 16106
 6268 6269 16107
 6269 6270 16108
 6270 6271 16109
 6271 6272 16110
 6272 6273 16111
 6273 6274 16112
 6274 6275 16113
 6275 6276 16114
 6276 6277 16115
 6277 6278 16116
 6278 6279 16117
 6279 6280 16118
 6280 6281 16119
 6281 6282 16120
 6282 6283 16121
 6283 6284 16122
 6284 6285 16123
 6285 6286 16124
 6286 6287 16125
 6287 6288 16126
 6288 6289 16127
 6289 6290 16128
 6290 6291 16129
 6291 6292 16130
 6292 6293 16131
 6293 6294 16132
 6294 6295 16133
 6295 6296 16134
 6296 6297 16135
 6297 6298 16136
 6298 6299 16137
 6300 6301 16138
 6301 6302 16139
 6302 6303 16140
 6303 6304 16141
 6304 6305 16142
 6305 6306 16143
 6306 6307 16144
 6307 6308 16145
 6308 6309 16146
 6309 6310 16147
 6310 6311 16148
 6311 6312 16149
 6312 6313 16150
 6313 6314 16151
 6314 6315 16152
 6315 6316 16153
 6316 6317 16154
 6317 6318 16155
 6318 6319 16156
 6319 6320 16157
 6320 6321 16158
 6321 6322 16159
 6322 6323 16160
 6323 6324 16161
 6324 6325 16162
 6325 6326 16163
 6326 6327 16164
 6327 6328 16165
 6328 6329 16166
 6329 6330 16167
 6330 6331 16168
 6331 6332 16169
 6332 6333 16170
 6333 6334 16171
 6334 6335 16172
 6335 6336 16173
 6336 6337 16174
 6337 6338 16175
 6338 6339 16176
 6339 6340 16177
 6340 6341 16178
 6341 6342 16179
 6342 6343 16180
 6343 6344 16181
 6344 6345 16182
 6345 6346 16183
 6346 6347 16184
 6347 6348 16185
 6348 6349 16186
 6349 6350 16187
 6350 6351 16188
 6351 6352 16189
 6352 6353 16190
 6353 6354 16191
 6354 6355 16192
 6355 6356 16193
 6356 6357 16194
 6357 6358 16195
 6358 6359 16196
 6359 6360 16197
 6360 6361 16198
 6361 6362 16199
 6362 6363 16200
 6363 6364 16201
 6364 6365 16202
 6365 6366 16203
 6366 6367 16204
 6367 6368 16205
 6368 6369 16206
 6369 6370 16207
 6370 6371 16208
 6371 6372 16209
 6372 6373 16210
 6373 6374 16211
 6374 6375 16212
 6375 6376 16213
 6376 6377 16214
 6377 6378 16215
 6378 6379 16216
 6379 6380 16217
 6380 6381 16218
 6381 6382 16219
 6382 6383 16220
 6383 6384 16221
 6384 6385 16222
 6385 6386 16223
 6386 6387 16224
 6387 6388 16225
 6388 6389 16226
 6389 6390 16227
 6390 6391 16228
 6391 6392 16229
 6392 6393 16230
 6393 6394 16231
 6394 6395 16232
 6395 6396 16233
 6396 6397 16234
 6397 6398 16235
 6398 6399 16236
 6400 6401 16237
 6401 6402 16238
 6402 6403 16239
 6403 6404 16240
 6404 6405 16241
 6405 6406 16242
 6406 6407 16243
 6407 6408 16244
 6408 6409 16245
 6409 6410 16246
 6410 6411 16247
 6411 6412 16248
 6412 6413 16249
 6413 6414 16250
 6414 6415 16251
 6415 6416 16252
 6416 6417 16253
 6417 6418 16254
 6418 6419 16255
 6419 6420 16256
 6420 6421 16257
 6421 6422 16258
 6422 6423 16259
 6423 6424 16260
 6424 6425 16261
 6425 6426 16262
 6426 6427 16263
 6427 6428 16264
 6428 6429 16265
 6429 6430 16266
 6430 6431 16267
 6431 6432 16268
 6432 6433 16269
 6433 6434 16270
 6434 6435 16271
 6435 6436 16272
 6436 6437 16273
 6437 6438 16274
 6438 6439 16275
 6439 6440 16276
 6440 6441 16277
 6441 6442 16278
 6442 6443 16279
 6443 6444 16280
 6444 6445 16281
 6445 6446 16282
 6446 6447 16283
 6447 6448 16284
 6448 6449 16285
 6449 6450 16286
 6450 6451 16287
 6451 6452 16288
 6452 6453 16289
 6453 6454 16290
 6454 6455 16291
 6455 6456 16292
 6456 6457 16293
 6457 6458 16294
 6458 6459 16295
 6459 6460 16296
 6460 6461 16297
 6461 6462 16298
 6462 6463 16299
 6463 6464 16300
 6464 6465 16301
 6465 6466 16302
 6466 6467 16303
 6467 6468 16304
 6468 6469 16305
 6469 6470 16306
 6470 6471 16307
 6471 6472 16308
 6472 6473 16309
 6473 6474 16310
 6474 6475 16311
 6475 6476 16312
 6476 6477 16313
 6477 6478 16314
 6478 6479 16315
 6479 6480 16316
 6480 6481 16317
 6481 6482 16318
 6482 6483 16319
 6483 6484 16320
 6484 6485 16321
 6485 6486 16322
 6486 6487 16323
 6487 6488 16324
 6488 6489 16325
 6489 6490 16326
 6490 6491 16327
 6491 6492 16328
 6492 6493 16329
 6493 6494 16330
 6494 6495 16331
 6495 6496 16332
 6496 6497 16333
 6497 6498 16334
 6498 6499 16335
 6500 6501 16336
 6501 6502 16337
 6502 6503 16338
 6503 6504 16339
 6504 6505 16340
 6505 6506 16341
 6506 6507 16342
 6507 6508 16343
 6508 6509 16344
 6509 6510 16345
 6510 6511 16346
 6511 6512 16347
 6512 6513 16348
 6513 6514 16349
 6514 6515 16350
 6515 6516 16351
 6516 6517 16352
 6517 6518 16353
 6518 6519 16354
 6519 6520 16355
 6520 6521 16356
 6521 6522 16357
 6522 6523 16358
 6523 6524 16359
 6524 6525 16360
 6525 6526 16361
 6526 6527 16362
 6527 6528 16363
 6528 6529 16364
 6529 6530 16365
 6530 6531 16366
 6531 6532 16367
 6532 6533 16368
 6533 6534 16369
 6534 6535 16370
 6535 6536 16371
 6536 6537 16372
 6537 6538 16373
 6538 6539 16374
 6539 6540 16375
 6540 6541 16376
 6541 6542 16377
 6542 6543 16378
 6543 6544 16379
 6544 6545 16380
 6545 6546 16381
 6546 6547 16382
 6547 6548 16383
 6548 6549 16384
 6549 6550 16385
 6550 6551 16386
 6551 6552 16387
 6552 6553 16388
 6553 6554 16389
 6554 6555 16390
 6555 6556 16391
 6556 6557 16392
 6557 6558 16393
 6558 6559 16394
 6559 6560 16395
 6560 6561 16396
 6561 6562 16397
 6562 6563 16398
 6563 6564 16399
 6564 6565 16400
 6565 6566 16401
 6566 6567 16402
 6567 6568 16403
 6568 6569 16404
 6569 6570 16405
 6570 6571 16406
 6571 6572 16407
 6572 6573 16408
 6573 6574 16409
 6574 6575 16410
 6575 6576 16411
 6576 6577 16412
 6577 6578 16413
 6578 6579 16414
 6579 6580 16415
 6580 6581 16416
 6581 6582 16417
 6582 6583 16418
 6583 6584 16419
 6584 6585 16420
 6585 6586 16421
 6586 6587 16422
 6587 6588 16423
 6588 6589 16424
 6589 6590 16425
 6590 6591 16426
 6591 6592 16427
 6592 6593 16428
 6593 6594 16429
 6594 6595 16430
 6595 6596 16431
 6596 6597 16432
 6597 6598 16433
 6598 6599 16434
 6600 6601 16435
 6601 6602 16436
 6602 6603 16437
 6603 6604 16438
 6604 6605 16439
 6605 6606 16440
 6606 6607 16441
 6607 6608 16442
 6608 6609 16443
 6609 6610 16444
 6610 6611 16445
 6611 6612 16446
 6612 6613 16447
 6613 6614 16448
 6614 6615 16449
 6615 6616 16450
 6616 6617 16451
 6617 6618 16452
 6618 6619 16453
 6619 6620 16454
 6620 6621 16455
 6621 6622 16456
 6622 6623 16457
 6623 6624 16458
 6624 6625 16459
 6625 6626 16460
 6626 6627 16461
 6627 6628 16462
 6628 6629 16463
 6629 6630 16464
 6630 6631 16465
 6631 6632 16466
 6632 6633 16467
 6633 6634 16468
 6634 6635 16469
 6635 6636 16470
 6636 6637 16471
 6637 6638 16472
 6638 6639 16473
 6639 6640 16474
 6640 6641 16475
 6641 6642 16476
 6642 6643 16477
 6643 6644 16478
 6644 6645 16479
 6645 6646 16480
 6646 6647 16481
 6647 6648 16482
 6648 6649 16483
 6649 6650 16484
 6650 6651 16485
 6651 6652 16486
 6652 6653 16487
 6653 6654 16488
 6654 6655 16489
 6655 6656 16490
 6656 6657 16491
 6657 6658 16492
 6658 6659 16493
 6659 6660 16494
 6660 6661 16495
 6661 6662 16496
 6662 6663 16497
 6663 6664 16498
 6664 6665 16499
 6665 6666 16500
 6666 6667 16501
 6667 6668 16502
 6668 6669 16503
 6669 6670 16504
 6670 6671 16505
 6671 6672 16506
 6672 6673 16507
 6673 6674 16508
 6674 6675 16509
 6675 6676 16510
 6676 6677 16511
 6677 6678 16512
 6678 6679 16513
 6679 6680 16514
 6680 6681 16515
 6681 6682 16516
 6682 6683 16517
 6683 6684 16518
 6684 6685 16519
 6685 6686 16520
 6686 6687 16521
 6687 6688 16522
 6688 6689 16523
 6689 6690 16524
 6690 6691 16525
 6691 6692 16526
 6692 6693 16527
 6693 6694 16528
 6694 6695 16529
 6695 6696 16530
 6696 6697 16531
 6697 6698 16532
 6698 6699 16533
 6700 6701 16534
 6701 6702 16535
 6702 6703 16536
 6703 6704 16537
 6704 6705 16538
 6705 6706 16539
 6706 6707 16540
 6707 6708 16541
 6708 6709 16542
 6709 6710 16543
 6710 6711 16544
 6711 6712 16545
 6712 6713 16546
 6713 6714 16547
 6714 6715 16548
 6715 6716 16549
 6716 6717 16550
 6717 6718 16551
 6718 6719 16552
 6719 6720 16553
 6720 6721 16554
 6721 6722 16555
 6722 6723 16556
 6723 6724 16557
 6724 6725 16558
 6725 6726 16559
 6726 6727 16560
 6727 6728 16561
 6728 6729 16562
 6729 6730 16563
 6730 6731 16564
 6731 6732 16565
 6732 6733 16566
 6733 6734 16567
 6734 6735 16568
 6735 6736 16569
 6736 6737 16570
 6737 6738 16571
 6738 6739 16572
 6739 6740 16573
 6740 6741 16574
 6741 6742 16575
 6742 6743 16576
 6743 6744 16577
 6744 6745 16578
 6745 6746 16579
 6746 6747 16580
 6747 6748 16581
 6748 6749 16582
 6749 6750 16583
 6750 6751 16584
 6751 6752 16585
 6752 6753 16586
 6753 6754 16587
 6754 6755 16588
 6755 6756 16589
 6756 6757 16590
 6757 6758 16591
 6758 6759 16592
 6759 6760 16593
 6760 6761 16594
 6761 6762 16595
 6762 6763 16596
 6763 6764 16597
 6764 6765 16598
 6765 6766 16599
 6766 6767 16600
 6767 6768 16601
 6768 6769 16602
 6769 6770 16603
 6770 6771 16604
 6771 6772 16605
 6772 6773 16606
 6773 6774 16607
 6774 6775 16608
 6775 6776 16609
 6776 6777 16610
 6777 6778 16611
 6778 6779 16612
 6779 6780 16613
 6780 6781 16614
 6781 6782 16615
 6782 6783 16616
 6783 6784 16617
 6784 6785 16618
 6785 6786 16619
 6786 6787 16620
 6787 6788 16621
 6788 6789 16622
 6789 6790 16623
 6790 6791 16624
 6791 6792 16625
 6792 6793 16626
 6793 6794 16627
 6794 6795 16628
 6795 6796 16629
 6796 6797 16630
 6797 6798 16631
 6798 6799 16632
 6800 6801 16633
 6801 6802 16634
 6802 6803 16635
 6803 6804 16636
 6804 6805 16637
 6805 6806 16638
 6806 6807 16639
 6807 6808 16640
 6808 6809 16641
 6809 6810 16642
 6810 6811 16643
 6811 6812 16644
 6812 6813 16645
 6813 6814 16646
 6814 6815 16647
 6815 6816 16648
 6816 6817 16649
 6817 6818 16650
 6818 6819 16651
 6819 6820 16652
 6820 6821 16653
 6821 6822 16654
 6822 6823 16655
 6823 6824 16656
 6824 6825 16657
 6825 6826 16658
 6826 6827 16659
 6827 6828 16660
 6828 6829 16661
 6829 6830 16662
 6830 6831 16663
 6831 6832 16664
 6832 6833 16665
 6833 6834 16666
 6834 6835 16667
 6835 6836 16668
 6836 6837 16669
 6837 6838 16670
 6838 6839 16671
 6839 6840 16672
 6840 6841 16673
 6841 6842 16674
 6842 6843 16675
 6843 6844 16676
 6844 6845 16677
 6845 6846 16678
 6846 6847 16679
 6847 6848 16680
 6848 6849 16681
 6849 6850 16682
 6850 6851 16683
 6851 6852 16684
 6852 6853 16685
 6853 6854 16686
 6854 6855 16687
 6855 6856 16688
 6856 6857 16689
 6857 6858 16690
 6858 6859 16691
 6859 6860 16692
 6860 6861 16693
 6861 6862 16694
 6862 6863 16695
 6863 6864 16696
 6864 6865 16697
 6865 6866 16698
 6866 6867 16699
 6867 6868 16700
 6868 6869 16701
 6869 6870 16702
 6870 6871 16703
 6871 6872 16704
 6872 6873 16705
 6873 6874 16706
 6874 6875 16707
 6875 6876 16708
 6876 6877 16709
 6877 6878 16710
 6878 6879 16711
 6879 6880 16712
 6880 6881 16713
 6881 6882 16714
 6882 6883 16715
 6883 6884 16716
 6884 6885 16717
 6885 6886 16718
 6886 6887 16719
 6887 6888 16720
 6888 6889 16721
 6889 6890 16722
 6890 6891 16723
 6891 6892 16724
 6892 6893 16725
 6893 6894 16726
 6894 6895 16727
 6895 6896 16728
 6896 6897 16729
 6897 6898 16730
 6898 6899 16731
 6900 6901 16732
 6901 6902 16733
 6902 6903 16734
 6903 6904 16735
 6904 6905 16736
 6905 6906 16737
 6906 6907 16738
 6907 6908 16739
 6908 6909 16740
 6909 6910 16741
 6910 6911 16742
 6911 6912 16743
 6912 6913 16744
 6913 6914 16745
 6914 6915 16746
 6915 6916 16747
 6916 6917 16748
 6917 6918 16749
 6918 6919 16750
 6919 6920 16751
 6920 6921 16752
 6921 6922 16753
 6922 6923 16754
 6923 6924 16755
 6924 6925 16756
 6925 6926 16757
 6926 6927 16758
 6927 6928 16759
 6928 6929 16760
 6929 6930 16761
 6930 6931 16762
 6931 6932 16763
 6932 6933 16764
 6933 6934 16765
 6934 6935 16766
 6935 6936 16767
 6936 6937 16768
 6937 6938 16769
 6938 6939 16770
 6939 6940 16771
 6940 6941 16772
 6941 6942 16773
 6942 6943 16774
 6943 6944 16775
 6944 6945 16776
 6945 6946 16777
 6946 6947 16778
 6947 6948 16779
 6948 6949 16780
 6949 6950 16781
 6950 6951 16782
 6951 6952 16783
 6952 6953 16784
 6953 6954 16785
 6954 6955 16786
 6955 6956 16787
 6956 6957 16788
 6957 6958 16789
 6958 6959 16790
 6959 6960 16791
 6960 6961 16792
 6961 6962 16793
 6962 6963 16794
 6963 6964 16795
 6964 6965 16796
 6965 6966 16797
 6966 6967 16798
 6967 6968 16799
 6968 6969 16800
 6969 6970 16801
 6970 6971 16802
 6971 6972 16803
 6972 6973 16804
 6973 6974 16805
 6974 6975 16806
 6975 6976 16807
 6976 6977 16808
 6977 6978 16809
 6978 6979 16810
 6979 6980 16811
 6980 6981 16812
 6981 6982 16813
 6982 6983 16814
 6983 6984 16815
 6984 6985 16816
 6985 6986 16817
 6986 6987 16818
 6987 6988 16819
 6988 6989 16820
 6989 6990 16821
 6990 6991 16822
 6991 6992 16823
 6992 6993 16824
 6993 6994 16825
 6994 6995 16826
 6995 6996 16827
 6996 6997 16828
 6997 6998 16829
 6998 6999 16830
 7000 7001 16831
 7001 7002 16832
 7002 7003 16833
 7003 7004 16834
 7004 7005 16835
 7005 7006 16836
 7006 7007 16837
 7007 7008 16838
 7008 7009 16839
 7009 7010 16840
 7010 7011 16841
 7011 7012 16842
 7012 7013 16843
 7013 7014 16844
 7014 7015 16845
 7015 7016 16846
 7016 7017 16847
 7017 7018 16848
 7018 7019 16849
 7019 7020 16850
 7020 7021 16851
 7021 7022 16852
 7022 7023 16853
 7023 7024 16854
 7024 7025 16855
 7025 7026 16856
 7026 7027 16857
 7027 7028 16858
 7028 7029 16859
 7029 7030 16860
 7030 7031 16861
 7031 7032 16862
 7032 7033 16863
 7033 7034 16864
 7034 7035 16865
 7035 7036 16866
 7036 7037 16867
 7037 7038 16868
 7038 7039 16869
 7039 7040 16870
 7040 7041 16871
 7041 7042 16872
 7042 7043 16873
 7043 7044 16874
 7044 7045 16875
 7045 7046 16876
 7046 7047 16877
 7047 7048 16878
 7048 7049 16879
 7049 7050 16880
 7050 7051 16881
 7051 7052 16882
 7052 7053 16883
 7053 7054 16884
 7054 7055 16885
 7055 7056 16886
 7056 7057 16887
 7057 7058 16888
 7058 7059 16889
 7059 7060 16890
 7060 7061 16891
 7061 7062 16892
 7062 7063 16893
 7063 7064 16894
 7064 7065 16895
 7065 7066 16896
 7066 7067 16897
 7067 7068 16898
 7068 7069 16899
 7069 7070 16900
 7070 7071 16901
 7071 7072 16902
 7072 7073 16903
 7073 7074 16904
 7074 7075 16905
 7075 7076 16906
 7076 7077 16907
 7077 7078 16908
 7078 7079 16909
 7079 7080 16910
 7080 7081 16911
 7081 7082 16912
 7082 7083 16913
 7083 7084 16914
 7084 7085 16915
 7085 7086 16916
 7086 7087 16917
 7087 7088 16918
 7088 7089 16919
 7089 7090 16920
 7090 7091 16921
 7091 7092 16922
 7092 7093 16923
 7093 7094 16924
 7094 7095 16925
 7095 7096 16926
 7096 7097 16927
 7097 7098 16928
 7098 7099 16929
 7100 7101 16930
 7101 7102 16931
 7102 7103 16932
 7103 7104 16933
 7104 7105 16934
 7105 7106 16935
 7106 7107 16936
 7107 7108 16937
 7108 7109 16938
 7109 7110 16939
 7110 7111 16940
 7111 7112 16941
 7112 7113 16942
 7113 7114 16943
 7114 7115 16944
 7115 7116 16945
 7116 7117 16946
 7117 7118 16947
 7118 7119 16948
 7119 7120 16949
 7120 7121 16950
 7121 7122 16951
 7122 7123 16952
 7123 7124 16953
 7124 7125 16954
 7125 7126 16955
 7126 7127 16956
 7127 7128 16957
 7128 7129 16958
 7129 7130 16959
 7130 7131 16960
 7131 7132 16961
 7132 7133 16962
 7133 7134 16963
 7134 7135 16964
 7135 7136 16965
 7136 7137 16966
 7137 7138 16967
 7138 7139 16968
 7139 7140 16969
 7140 7141 16970
 7141 7142 16971
 7142 7143 16972
 7143 7144 16973
 7144 7145 16974
 7145 7146 16975
 7146 7147 16976
 7147 7148 16977
 7148 7149 16978
 7149 7150 16979
 7150 7151 16980
 7151 7152 16981
 7152 7153 16982
 7153 7154 16983
 7154 7155 16984
 7155 7156 16985
 7156 7157 16986
 7157 7158 16987
 7158 7159 16988
 7159 7160 16989
 7160 7161 16990
 7161 7162 16991
 7162 7163 16992
 7163 7164 16993
 7164 7165 16994
 7165 7166 16995
 7166 7167 16996
 7167 7168 16997
 7168 7169 16998
 7169 7170 16999
 7170 7171 17000
 7171 7172 17001
 7172 7173 17002
 7173 7174 17003
 7174 7175 17004
 7175 7176 17005
 7176 7177 17006
 7177 7178 17007
 7178 7179 17008
 7179 7180 17009
 7180 7181 17010
 7181 7182 17011
 7182 7183 17012
 7183 7184 17013
 7184 7185 17014
 7185 7186 17015
 7186 7187 17016
 7187 7188 17017
 7188 7189 17018
 7189 7190 17019
 7190 7191 17020
 7191 7192 17021
 7192 7193 17022
 7193 7194 17023
 7194 7195 17024
 7195 7196 17025
 7196 7197 17026
 7197 7198 17027
 7198 7199 17028
 7200 7201 17029
 7201 7202 17030
 7202 7203 17031
 7203 7204 17032
 7204 7205 17033
 7205 7206 17034
 7206 7207 17035
 7207 7208 17036
 7208 7209 17037
 7209 7210 17038
 7210 7211 17039
 7211 7212 17040
 7212 7213 17041
 7213 7214 17042
 7214 7215 17043
 7215 7216 17044
 7216 7217 17045
 7217 7218 17046
 7218 7219 17047
 7219 7220 17048
 7220 7221 17049
 7221 7222 17050
 7222 7223 17051
 7223 7224 17052
 7224 7225 17053
 7225 7226 17054
 7226 7227 17055
 7227 7228 17056
 7228 7229 17057
 7229 7230 17058
 7230 7231 17059
 7231 7232 17060
 7232 7233 17061
 7233 7234 17062
 7234 7235 17063
 7235 7236 17064
 7236 7237 17065
 7237 7238 17066
 7238 7239 17067
 7239 7240 17068
 7240 7241 17069
 7241 7242 17070
 7242 7243 17071
 7243 7244 17072
 7244 7245 17073
 7245 7246 17074
 7246 7247 17075
 7247 7248 17076
 7248 7249 17077
 7249 7250 17078
 7250 7251 17079
 7251 7252 17080
 7252 7253 17081
 7253 7254 17082
 7254 7255 17083
 7255 7256 17084
 7256 7257 17085
 7257 7258 17086
 7258 7259 17087
 7259 7260 17088
 7260 7261 17089
 7261 7262 17090
 7262 7263 17091
 7263 7264 17092
 7264 7265 17093
 7265 7266 17094
 7266 7267 17095
 7267 7268 17096
 7268 7269 17097
 7269 7270 17098
 7270 7271 17099
 7271 7272 17100
 7272 7273 17101
 7273 7274 17102
 7274 7275 17103
 7275 7276 17104
 7276 7277 17105
 7277 7278 17106
 7278 7279 17107
 7279 7280 17108
 7280 7281 17109
 7281 7282 17110
 7282 7283 17111
 7283 7284 17112
 7284 7285 17113
 7285 7286 17114
 7286 7287 17115
 7287 7288 17116
 7288 7289 17117
 7289 7290 17118
 7290 7291 17119
 7291 7292 17120
 7292 7293 17121
 7293 7294 17122
 7294 7295 17123
 7295 7296 17124
 7296 7297 17125
 7297 7298 17126
 7298 7299 17127
 7300 7301 17128
 7301 7302 17129
 7302 7303 17130
 7303 7304 17131
 7304 7305 17132
 7305 7306 17133
 7306 7307 17134
 7307 7308 17135
 7308 7309 17136
 7309 7310 17137
 7310 7311 17138
 7311 7312 17139
 7312 7313 17140
 7313 7314 17141
 7314 7315 17142
 7315 7316 17143
 7316 7317 17144
 7317 7318 17145
 7318 7319 17146
 7319 7320 17147
 7320 7321 17148
 7321 7322 17149
 7322 7323 17150
 7323 7324 17151
 7324 7325 17152
 7325 7326 17153
 7326 7327 17154
 7327 7328 17155
 7328 7329 17156
 7329 7330 17157
 7330 7331 17158
 7331 7332 17159
 7332 7333 17160
 7333 7334 17161
 7334 7335 17162
 7335 7336 17163
 7336 7337 17164
 7337 7338 17165
 7338 7339 17166
 7339 7340 17167
 7340 7341 17168
 7341 7342 17169
 7342 7343 17170
 7343 7344 17171
 7344 7345 17172
 7345 7346 17173
 7346 7347 17174
 7347 7348 17175
 7348 7349 17176
 7349 7350 17177
 7350 7351 17178
 7351 7352 17179
 7352 7353 17180
 7353 7354 17181
 7354 7355 17182
 7355 7356 17183
 7356 7357 17184
 7357 7358 17185
 7358 7359 17186
 7359 7360 17187
 7360 7361 17188
 7361 7362 17189
 7362 7363 17190
 7363 7364 17191
 7364 7365 17192
 7365 7366 17193
 7366 7367 17194
 7367 7368 17195
 7368 7369 17196
 7369 7370 17197
 7370 7371 17198
 7371 7372 17199
 7372 7373 17200
 7373 7374 17201
 7374 7375 17202
 7375 7376 17203
 7376 7377 17204
 7377 7378 17205
 7378 7379 17206
 7379 7380 17207
 7380 7381 17208
 7381 7382 17209
 7382 7383 17210
 7383 7384 17211
 7384 7385 17212
 7385 7386 17213
 7386 7387 17214
 7387 7388 17215
 7388 7389 17216
 7389 7390 17217
 7390 7391 17218
 7391 7392 17219
 7392 7393 17220
 7393 7394 17221
 7394 7395 17222
 7395 7396 17223
 7396 7397 17224
 7397 7398 17225
 7398 7399 17226
 7400 7401 17227
 7401 7402 17228
 7402 7403 17229
 7403 7404 17230
 7404 7405 17231
 7405 7406 17232
 7406 7407 17233
 7407 7408 17234
 7408 7409 17235
 7409 7410 17236
 7410 7411 17237
 7411 7412 17238
 7412 7413 17239
 7413 7414 17240
 7414 7415 17241
 7415 7416 17242
 7416 7417 17243
 7417 7418 17244
 7418 7419 17245
 7419 7420 17246
 7420 7421 17247
 7421 7422 17248
 7422 7423 17249
 7423 7424 17250
 7424 7425 17251
 7425 7426 17252
 7426 7427 17253
 7427 7428 17254
 7428 7429 17255
 7429 7430 17256
 7430 7431 17257
 7431 7432 17258
 7432 7433 17259
 7433 7434 17260
 7434 7435 17261
 7435 7436 17262
 7436 7437 17263
 7437 7438 17264
 7438 7439 17265
 7439 7440 17266
 7440 7441 17267
 7441 7442 17268
 7442 7443 17269
 7443 7444 17270
 7444 7445 17271
 7445 7446 17272
 7446 7447 17273
 7447 7448 17274
 7448 7449 17275
 7449 7450 17276
 7450 7451 17277
 7451 7452 17278
 7452 7453 17279
 7453 7454 17280
 7454 7455 17281
 7455 7456 17282
 7456 7457 17283
 7457 7458 17284
 7458 7459 17285
 7459 7460 17286
 7460 7461 17287
 7461 7462 17288
 7462 7463 17289
 7463 7464 17290
 7464 7465 17291
 7465 7466 17292
 7466 7467 17293
 7467 7468 17294
 7468 7469 17295
 7469 7470 17296
 7470 7471 17297
 7471 7472 17298
 7472 7473 17299
 7473 7474 17300
 7474 7475 17301
 7475 7476 17302
 7476 7477 17303
 7477 7478 17304
 7478 7479 17305
 7479 7480 17306
 7480 7481 17307
 7481 7482 17308
 7482 7483 17309
 7483 7484 17310
 7484 7485 17311
 7485 7486 17312
 7486 7487 17313
 7487 7488 17314
 7488 7489 17315
 7489 7490 17316
 7490 7491 17317
 7491 7492 17318
 7492 7493 17319
 7493 7494 17320
 7494 7495 17321
 7495 7496 17322
 7496 7497 17323
 7497 7498 17324
 7498 7499 17325
 7500 7501 17326
 7501 7502 17327
 7502 7503 17328
 7503 7504 17329
 7504 7505 17330
 7505 7506 17331
 7506 7507 17332
 7507 7508 17333
 7508 7509 17334
 7509 7510 17335
 7510 7511 17336
 7511 7512 17337
 7512 7513 17338
 7513 7514 17339
 7514 7515 17340
 7515 7516 17341
 7516 7517 17342
 7517 7518 17343
 7518 7519 17344
 7519 7520 17345
 7520 7521 17346
 7521 7522 17347
 7522 7523 17348
 7523 7524 17349
 7524 7525 17350
 7525 7526 17351
 7526 7527 17352
 7527 7528 17353
 7528 7529 17354
 7529 7530 17355
 7530 7531 17356
 7531 7532 17357
 7532 7533 17358
 7533 7534 17359
 7534 7535 17360
 7535 7536 17361
 7536 7537 17362
 7537 7538 17363
 7538 7539 17364
 7539 7540 17365
 7540 7541 17366
 7541 7542 17367
 7542 7543 17368
 7543 7544 17369
 7544 7545 17370
 7545 7546 17371
 7546 7547 17372
 7547 7548 17373
 7548 7549 17374
 7549 7550 17375
 7550 7551 17376
 7551 7552 17377
 7552 7553 17378
 7553 7554 17379
 7554 7555 17380
 7555 7556 17381
 7556 7557 17382
 7557 7558 17383
 7558 7559 17384
 7559 7560 17385
 7560 7561 17386
 7561 7562 17387
 7562 7563 17388
 7563 7564 17389
 7564 7565 17390
 7565 7566 17391
 7566 7567 17392
 7567 7568 17393
 7568 7569 17394
 7569 7570 17395
 7570 7571 17396
 7571 7572 17397
 7572 7573 17398
 7573 7574 17399
 7574 7575 17400
 7575 7576 17401
 7576 7577 17402
 7577 7578 17403
 7578 7579 17404
 7579 7580 17405
 7580 7581 17406
 7581 7582 17407
 7582 7583 17408
 7583 7584 17409
 7584 7585 17410
 7585 7586 17411
 7586 7587 17412
 7587 7588 17413
 7588 7589 17414
 7589 7590 17415
 7590 7591 17416
 7591 7592 17417
 7592 7593 17418
 7593 7594 17419
 7594 7595 17420
 7595 7596 17421
 7596 7597 17422
 7597 7598 17423
 7598 7599 17424
 7600 7601 17425
 7601 7602 17426
 7602 7603 17427
 7603 7604 17428
 7604 7605 17429
 7605 7606 17430
 7606 7607 17431
 7607 7608 17432
 7608 7609 17433
 7609 7610 17434
 7610 7611 17435
 7611 7612 17436
 7612 7613 17437
 7613 7614 17438
 7614 7615 17439
 7615 7616 17440
 7616 7617 17441
 7617 7618 17442
 7618 7619 17443
 7619 7620 17444
 7620 7621 17445
 7621 7622 17446
 7622 7623 17447
 7623 7624 17448
 7624 7625 17449
 7625 7626 17450
 7626 7627 17451
 7627 7628 17452
 7628 7629 17453
 7629 7630 17454
 7630 7631 17455
 7631 7632 17456
 7632 7633 17457
 7633 7634 17458
 7634 7635 17459
 7635 7636 17460
 7636 7637 17461
 7637 7638 17462
 7638 7639 17463
 7639 7640 17464
 7640 7641 17465
 7641 7642 17466
 7642 7643 17467
 7643 7644 17468
 7644 7645 17469
 7645 7646 17470
 7646 7647 17471
 7647 7648 17472
 7648 7649 17473
 7649 7650 17474
 7650 7651 17475
 7651 7652 17476
 7652 7653 17477
 7653 7654 17478
 7654 7655 17479
 7655 7656 17480
 7656 7657 17481
 7657 7658 17482
 7658 7659 17483
 7659 7660 17484
 7660 7661 17485
 7661 7662 17486
 7662 7663 17487
 7663 7664 17488
 7664 7665 17489
 7665 7666 17490
 7666 7667 17491
 7667 7668 17492
 7668 7669 17493
 7669 7670 17494
 7670 7671 17495
 7671 7672 17496
 7672 7673 17497
 7673 7674 17498
 7674 7675 17499
 7675 7676 17500
 7676 7677 17501
 7677 7678 17502
 7678 7679 17503
 7679 7680 17504
 7680 7681 17505
 7681 7682 17506
 7682 7683 17507
 7683 7684 17508
 7684 7685 17509
 7685 7686 17510
 7686 7687 17511
 7687 7688 17512
 7688 7689 17513
 7689 7690 17514
 7690 7691 17515
 7691 7692 17516
 7692 7693 17517
 7693 7694 17518
 7694 7695 17519
 7695 7696 17520
 7696 7697 17521
 7697 7698 17522
 7698 7699 17523
 7700 7701 17524
 7701 7702 17525
 7702 7703 17526
 7703 7704 17527
 7704 7705 17528
 7705 7706 17529
 7706 7707 17530
 7707 7708 17531
 7708 7709 17532
 7709 7710 17533
 7710 7711 17534
 7711 7712 17535
 7712 7713 17536
 7713 7714 17537
 7714 7715 17538
 7715 7716 17539
 7716 7717 17540
 7717 7718 17541
 7718 7719 17542
 7719 7720 17543
 7720 7721 17544
 7721 7722 17545
 7722 7723 17546
 7723 7724 17547
 7724 7725 17548
 7725 7726 17549
 7726 7727 17550
 7727 7728 17551
 7728 7729 17552
 7729 7730 17553
 7730 7731 17554
 7731 7732 17555
 7732 7733 17556
 7733 7734 17557
 7734 7735 17558
 7735 7736 17559
 7736 7737 17560
 7737 7738 17561
 7738 7739 17562
 7739 7740 17563
 7740 7741 17564
 7741 7742 17565
 7742 7743 17566
 7743 7744 17567
 7744 7745 17568
 7745 7746 17569
 7746 7747 17570
 7747 7748 17571
 7748 7749 17572
 7749 7750 17573
 7750 7751 17574
 7751 7752 17575
 7752 7753 17576
 7753 7754 17577
 7754 7755 17578
 7755 7756 17579
 7756 7757 17580
 7757 7758 17581
 7758 7759 17582
 7759 7760 17583
 7760 7761 17584
 7761 7762 17585
 7762 7763 17586
 7763 7764 17587
 7764 7765 17588
 7765 7766 17589
 7766 7767 17590
 7767 7768 17591
 7768 7769 17592
 7769 7770 17593
 7770 7771 17594
 7771 7772 17595
 7772 7773 17596
 7773 7774 17597
 7774 7775 17598
 7775 7776 17599
 7776 7777 17600
 7777 7778 17601
 7778 7779 17602
 7779 7780 17603
 7780 7781 17604
 7781 7782 17605
 7782 7783 17606
 7783 7784 17607
 7784 7785 17608
 7785 7786 17609
 7786 7787 17610
 7787 7788 17611
 7788 7789 17612
 7789 7790 17613
 7790 7791 17614
 7791 7792 17615
 7792 7793 17616
 7793 7794 17617
 7794 7795 17618
 7795 7796 17619
 7796 7797 17620
 7797 7798 17621
 7798 7799 17622
 7800 7801 17623
 7801 7802 17624
 7802 7803 17625
 7803 7804 17626
 7804 7805 17627
 7805 7806 17628
 7806 7807 17629
 7807 7808 17630
 7808 7809 17631
 7809 7810 17632
 7810 7811 17633
 7811 7812 17634
 7812 7813 17635
 7813 7814 17636
 7814 7815 17637
 7815 7816 17638
 7816 7817 17639
 7817 7818 17640
 7818 7819 17641
 7819 7820 17642
 7820 7821 17643
 7821 7822 17644
 7822 7823 17645
 7823 7824 17646
 7824 7825 17647
 7825 7826 17648
 7826 7827 17649
 7827 7828 17650
 7828 7829 17651
 7829 7830 17652
 7830 7831 17653
 7831 7832 17654
 7832 7833 17655
 7833 7834 17656
 7834 7835 17657
 7835 7836 17658
 7836 7837 17659
 7837 7838 17660
 7838 7839 17661
 7839 7840 17662
 7840 7841 17663
 7841 7842 17664
 7842 7843 17665
 7843 7844 17666
 7844 7845 17667
 7845 7846 17668
 7846 7847 17669
 7847 7848 17670
 7848 7849 17671
 7849 7850 17672
 7850 7851 17673
 7851 7852 17674
 7852 7853 17675
 7853 7854 17676
 7854 7855 17677
 7855 7856 17678
 7856 7857 17679
 7857 7858 17680
 7858 7859 17681
 7859 7860 17682
 7860 7861 17683
 7861 7862 17684
 7862 7863 17685
 7863 7864 17686
 7864 7865 17687
 7865 7866 17688
 7866 7867 17689
 7867 7868 17690
 7868 7869 17691
 7869 7870 17692
 7870 7871 17693
 7871 7872 17694
 7872 7873 17695
 7873 7874 17696
 7874 7875 17697
 7875 7876 17698
 7876 7877 17699
 7877 7878 17700
 7878 7879 17701
 7879 7880 17702
 7880 7881 17703
 7881 7882 17704
 7882 7883 17705
 7883 7884 17706
 7884 7885 17707
 7885 7886 17708
 7886 7887 17709
 7887 7888 17710
 7888 7889 17711
 7889 7890 17712
 7890 7891 17713
 7891 7892 17714
 7892 7893 17715
 7893 7894 17716
 7894 7895 17717
 7895 7896 17718
 7896 7897 17719
 7897 7898 17720
 7898 7899 17721
 7900 7901 17722
 7901 7902 17723
 7902 7903 17724
 7903 7904 17725
 7904 7905 17726
 7905 7906 17727
 7906 7907 17728
 7907 7908 17729
 7908 7909 17730
 7909 7910 17731
 7910 7911 17732
 7911 7912 17733
 7912 7913 17734
 7913 7914 17735
 7914 7915 17736
 7915 7916 17737
 7916 7917 17738
 7917 7918 17739
 7918 7919 17740
 7919 7920 17741
 7920 7921 17742
 7921 7922 17743
 7922 7923 17744
 7923 7924 17745
 7924 7925 17746
 7925 7926 17747
 7926 7927 17748
 7927 7928 17749
 7928 7929 17750
 7929 7930 17751
 7930 7931 17752
 7931 7932 17753
 7932 7933 17754
 7933 7934 17755
 7934 7935 17756
 7935 7936 17757
 7936 7937 17758
 7937 7938 17759
 7938 7939 17760
 7939 7940 17761
 7940 7941 17762
 7941 7942 17763
 7942 7943 17764
 7943 7944 17765
 7944 7945 17766
 7945 7946 17767
 7946 7947 17768
 7947 7948 17769
 7948 7949 17770
 7949 7950 17771
 7950 7951 17772
 7951 7952 17773
 7952 7953 17774
 7953 7954 17775
 7954 7955 17776
 7955 7956 17777
 7956 7957 17778
 7957 7958 17779
 7958 7959 17780
 7959 7960 17781
 7960 7961 17782
 7961 7962 17783
 7962 7963 17784
 7963 7964 17785
 7964 7965 17786
 7965 7966 17787
 7966 7967 17788
 7967 7968 17789
 7968 7969 17790
 7969 7970 17791
 7970 7971 17792
 7971 7972 17793
 7972 7973 17794
 7973 7974 17795
 7974 7975 17796
 7975 7976 17797
 7976 7977 17798
 7977 7978 17799
 7978 7979 17800
 7979 7980 17801
 7980 7981 17802
 7981 7982 17803
 7982 7983 17804
 7983 7984 17805
 7984 7985 17806
 7985 7986 17807
 7986 7987 17808
 7987 7988 17809
 7988 7989 17810
 7989 7990 17811
 7990 7991 17812
 7991 7992 17813
 7992 7993 17814
 7993 7994 17815
 7994 7995 17816
 7995 7996 17817
 7996 7997 17818
 7997 7998 17819
 7998 7999 17820
 8000 8001 17821
 8001 8002 17822
 8002 8003 17823
 8003 8004 17824
 8004 8005 17825
 8005 8006 17826
 8006 8007 17827
 8007 8008 17828
 8008 8009 17829
 8009 8010 17830
 8010 8011 17831
 8011 8012 17832
 8012 8013 17833
 8013 8014 17834
 8014 8015 17835
 8015 8016 17836
 8016 8017 17837
 8017 8018 17838
 8018 8019 17839
 8019 8020 17840
 8020 8021 17841
 8021 8022 17842
 8022 8023 17843
 8023 8024 17844
 8024 8025 17845
 8025 8026 17846
 8026 8027 17847
 8027 8028 17848
 8028 8029 17849
 8029 8030 17850
 8030 8031 17851
 8031 8032 17852
 8032 8033 17853
 8033 8034 17854
 8034 8035 17855
 8035 8036 17856
 8036 8037 17857
 8037 8038 17858
 8038 8039 17859
 8039 8040 17860
 8040 8041 17861
 8041 8042 17862
 8042 8043 17863
 8043 8044 17864
 8044 8045 17865
 8045 8046 17866
 8046 8047 17867
 8047 8048 17868
 8048 8049 17869
 8049 8050 17870
 8050 8051 17871
 8051 8052 17872
 8052 8053 17873
 8053 8054 17874
 8054 8055 17875
 8055 8056 17876
 8056 8057 17877
 8057 8058 17878
 8058 8059 17879
 8059 8060 17880
 8060 8061 17881
 8061 8062 17882
 8062 8063 17883
 8063 8064 17884
 8064 8065 17885
 8065 8066 17886
 8066 8067 17887
 8067 8068 17888
 8068 8069 17889
 8069 8070 17890
 8070 8071 17891
 8071 8072 17892
 8072 8073 17893
 8073 8074 17894
 8074 8075 17895
 8075 8076 17896
 8076 8077 17897
 8077 8078 17898
 8078 8079 17899
 8079 8080 17900
 8080 8081 17901
 8081 8082 17902
 8082 8083 17903
 8083 8084 17904
 8084 8085 17905
 8085 8086 17906
 8086 8087 17907
 8087 8088 17908
 8088 8089 17909
 8089 8090 17910
 8090 8091 17911
 8091 8092 17912
 8092 8093 17913
 8093 8094 17914
 8094 8095 17915
 8095 8096 17916
 8096 8097 17917
 8097 8098 17918
 8098 8099 17919
 8100 8101 17920
 8101 8102 17921
 8102 8103 17922
 8103 8104 17923
 8104 8105 17924
 8105 8106 17925
 8106 8107 17926
 8107 8108 17927
 8108 8109 17928
 8109 8110 17929
 8110 8111 17930
 8111 8112 17931
 8112 8113 17932
 8113 8114 17933
 8114 8115 17934
 8115 8116 17935
 8116 8117 17936
 8117 8118 17937
 8118 8119 17938
 8119 8120 17939
 8120 8121 17940
 8121 8122 17941
 8122 8123 17942
 8123 8124 17943
 8124 8125 17944
 8125 8126 17945
 8126 8127 17946
 8127 8128 17947
 8128 8129 17948
 8129 8130 17949
 8130 8131 17950
 8131 8132 17951
 8132 8133 17952
 8133 8134 17953
 8134 8135 17954
 8135 8136 17955
 8136 8137 17956
 8137 8138 17957
 8138 8139 17958
 8139 8140 17959
 8140 8141 17960
 8141 8142 17961
 8142 8143 17962
 8143 8144 17963
 8144 8145 17964
 8145 8146 17965
 8146 8147 17966
 8147 8148 17967
 8148 8149 17968
 8149 8150 17969
 8150 8151 17970
 8151 8152 17971
 8152 8153 17972
 8153 8154 17973
 8154 8155 17974
 8155 8156 17975
 8156 8157 17976
 8157 8158 17977
 8158 8159 17978
 8159 8160 17979
 8160 8161 17980
 8161 8162 17981
 8162 8163 17982
 8163 8164 17983
 8164 8165 17984
 8165 8166 17985
 8166 8167 17986
 8167 8168 17987
 8168 8169 17988
 8169 8170 17989
 8170 8171 17990
 8171 8172 17991
 8172 8173 17992
 8173 8174 17993
 8174 8175 17994
 8175 8176 17995
 8176 8177 17996
 8177 8178 17997
 8178 8179 17998
 8179 8180 17999
 8180 8181 18000
 8181 8182 18001
 8182 8183 18002
 8183 8184 18003
 8184 8185 18004
 8185 8186 18005
 8186 8187 18006
 8187 8188 18007
 8188 8189 18008
 8189 8190 18009
 8190 8191 18010
 8191 8192 18011
 8192 8193 18012
 8193 8194 18013
 8194 8195 18014
 8195 8196 18015
 8196 8197 18016
 8197 8198 18017
 8198 8199 18018
 8200 8201 18019
 8201 8202 18020
 8202 8203 18021
 8203 8204 18022
 8204 8205 18023
 8205 8206 18024
 8206 8207 18025
 8207 8208 18026
 8208 8209 18027
 8209 8210 18028
 8210 8211 18029
 8211 8212 18030
 8212 8213 18031
 8213 8214 18032
 8214 8215 18033
 8215 8216 18034
 8216 8217 18035
 8217 8218 18036
 8218 8219 18037
 8219 8220 18038
 8220 8221 18039
 8221 8222 18040
 8222 8223 18041
 8223 8224 18042
 8224 8225 18043
 8225 8226 18044
 8226 8227 18045
 8227 8228 18046
 8228 8229 18047
 8229 8230 18048
 8230 8231 18049
 8231 8232 18050
 8232 8233 18051
 8233 8234 18052
 8234 8235 18053
 8235 8236 18054
 8236 8237 18055
 8237 8238 18056
 8238 8239 18057
 8239 8240 18058
 8240 8241 18059
 8241 8242 18060
 8242 8243 18061
 8243 8244 18062
 8244 8245 18063
 8245 8246 18064
 8246 8247 18065
 8247 8248 18066
 8248 8249 18067
 8249 8250 18068
 8250 8251 18069
 8251 8252 18070
 8252 8253 18071
 8253 8254 18072
 8254 8255 18073
 8255 8256 18074
 8256 8257 18075
 8257 8258 18076
 8258 8259 18077
 8259 8260 18078
 8260 8261 18079
 8261 8262 18080
 8262 8263 18081
 8263 8264 18082
 8264 8265 18083
 8265 8266 18084
 8266 8267 18085
 8267 8268 18086
 8268 8269 18087
 8269 8270 18088
 8270 8271 18089
 8271 8272 18090
 8272 8273 18091
 8273 8274 18092
 8274 8275 18093
 8275 8276 18094
 8276 8277 18095
 8277 8278 18096
 8278 8279 18097
 8279 8280 18098
 8280 8281 18099
 8281 8282 18100
 8282 8283 18101
 8283 8284 18102
 8284 8285 18103
 8285 8286 18104
 8286 8287 18105
 8287 8288 18106
 8288 8289 18107
 8289 8290 18108
 8290 8291 18109
 8291 8292 18110
 8292 8293 18111
 8293 8294 18112
 8294 8295 18113
 8295 8296 18114
 8296 8297 18115
 8297 8298 18116
 8298 8299 18117
 8300 8301 18118
 8301 8302 18119
 8302 8303 18120
 8303 8304 18121
 8304 8305 18122
 8305 8306 18123
 8306 8307 18124
 8307 8308 18125
 8308 8309 18126
 8309 8310 18127
 8310 8311 18128
 8311 8312 18129
 8312 8313 18130
 8313 8314 18131
 8314 8315 18132
 8315 8316 18133
 8316 8317 18134
 8317 8318 18135
 8318 8319 18136
 8319 8320 18137
 8320 8321 18138
 8321 8322 18139
 8322 8323 18140
 8323 8324 18141
 8324 8325 18142
 8325 8326 18143
 8326 8327 18144
 8327 8328 18145
 8328 8329 18146
 8329 8330 18147
 8330 8331 18148
 8331 8332 18149
 8332 8333 18150
 8333 8334 18151
 8334 8335 18152
 8335 8336 18153
 8336 8337 18154
 8337 8338 18155
 8338 8339 18156
 8339 8340 18157
 8340 8341 18158
 8341 8342 18159
 8342 8343 18160
 8343 8344 18161
 8344 8345 18162
 8345 8346 18163
 8346 8347 18164
 8347 8348 18165
 8348 8349 18166
 8349 8350 18167
 8350 8351 18168
 8351 8352 18169
 8352 8353 18170
 8353 8354 18171
 8354 8355 18172
 8355 8356 18173
 8356 8357 18174
 8357 8358 18175
 8358 8359 18176
 8359 8360 18177
 8360 8361 18178
 8361 8362 18179
 8362 8363 18180
 8363 8364 18181
 8364 8365 18182
 8365 8366 18183
 8366 8367 18184
 8367 8368 18185
 8368 8369 18186
 8369 8370 18187
 8370 8371 18188
 8371 8372 18189
 8372 8373 18190
 8373 8374 18191
 8374 8375 18192
 8375 8376 18193
 8376 8377 18194
 8377 8378 18195
 8378 8379 18196
 8379 8380 18197
 8380 8381 18198
 8381 8382 18199
 8382 8383 18200
 8383 8384 18201
 8384 8385 18202
 8385 8386 18203
 8386 8387 18204
 8387 8388 18205
 8388 8389 18206
 8389 8390 18207
 8390 8391 18208
 8391 8392 18209
 8392 8393 18210
 8393 8394 18211
 8394 8395 18212
 8395 8396 18213
 8396 8397 18214
 8397 8398 18215
 8398 8399 18216
 8400 8401 18217
 8401 8402 18218
 8402 8403 18219
 8403 8404 18220
 8404 8405 18221
 8405 8406 18222
 8406 8407 18223
 8407 8408 18224
 8408 8409 18225
 8409 8410 18226
 8410 8411 18227
 8411 8412 18228
 8412 8413 18229
 8413 8414 18230
 8414 8415 18231
 8415 8416 18232
 8416 8417 18233
 8417 8418 18234
 8418 8419 18235
 8419 8420 18236
 8420 8421 18237
 8421 8422 18238
 8422 8423 18239
 8423 8424 18240
 8424 8425 18241
 8425 8426 18242
 8426 8427 18243
 8427 8428 18244
 8428 8429 18245
 8429 8430 18246
 8430 8431 18247
 8431 8432 18248
 8432 8433 18249
 8433 8434 18250
 8434 8435 18251
 8435 8436 18252
 8436 8437 18253
 8437 8438 18254
 8438 8439 18255
 8439 8440 18256
 8440 8441 18257
 8441 8442 18258
 8442 8443 18259
 8443 8444 18260
 8444 8445 18261
 8445 8446 18262
 8446 8447 18263
 8447 8448 18264
 8448 8449 18265
 8449 8450 18266
 8450 8451 18267
 8451 8452 18268
 8452 8453 18269
 8453 8454 18270
 8454 8455 18271
 8455 8456 18272
 8456 8457 18273
 8457 8458 18274
 8458 8459 18275
 8459 8460 18276
 8460 8461 18277
 8461 8462 18278
 8462 8463 18279
 8463 8464 18280
 8464 8465 18281
 8465 8466 18282
 8466 8467 18283
 8467 8468 18284
 8468 8469 18285
 8469 8470 18286
 8470 8471 18287
 8471 8472 18288
 8472 8473 18289
 8473 8474 18290
 8474 8475 18291
 8475 8476 18292
 8476 8477 18293
 8477 8478 18294
 8478 8479 18295
 8479 8480 18296
 8480 8481 18297
 8481 8482 18298
 8482 8483 18299
 8483 8484 18300
 8484 8485 18301
 8485 8486 18302
 8486 8487 18303
 8487 8488 18304
 8488 8489 18305
 8489 8490 18306
 8490 8491 18307
 8491 8492 18308
 8492 8493 18309
 8493 8494 18310
 8494 8495 18311
 8495 8496 18312
 8496 8497 18313
 8497 8498 18314
 8498 8499 18315
 8500 8501 18316
 8501 8502 18317
 8502 8503 18318
 8503 8504 18319
 8504 8505 18320
 8505 8506 18321
 8506 8507 18322
 8507 8508 18323
 8508 8509 18324
 8509 8510 18325
 8510 8511 18326
 8511 8512 18327
 8512 8513 18328
 8513 8514 18329
 8514 8515 18330
 8515 8516 18331
 8516 8517 18332
 8517 8518 18333
 8518 8519 18334
 8519 8520 18335
 8520 8521 18336
 8521 8522 18337
 8522 8523 18338
 8523 8524 18339
 8524 8525 18340
 8525 8526 18341
 8526 8527 18342
 8527 8528 18343
 8528 8529 18344
 8529 8530 18345
 8530 8531 18346
 8531 8532 18347
 8532 8533 18348
 8533 8534 18349
 8534 8535 18350
 8535 8536 18351
 8536 8537 18352
 8537 8538 18353
 8538 8539 18354
 8539 8540 18355
 8540 8541 18356
 8541 8542 18357
 8542 8543 18358
 8543 8544 18359
 8544 8545 18360
 8545 8546 18361
 8546 8547 18362
 8547 8548 18363
 8548 8549 18364
 8549 8550 18365
 8550 8551 18366
 8551 8552 18367
 8552 8553 18368
 8553 8554 18369
 8554 8555 18370
 8555 8556 18371
 8556 8557 18372
 8557 8558 18373
 8558 8559 18374
 8559 8560 18375
 8560 8561 18376
 8561 8562 18377
 8562 8563 18378
 8563 8564 18379
 8564 8565 18380
 8565 8566 18381
 8566 8567 18382
 8567 8568 18383
 8568 8569 18384
 8569 8570 18385
 8570 8571 18386
 8571 8572 18387
 8572 8573 18388
 8573 8574 18389
 8574 8575 18390
 8575 8576 18391
 8576 8577 18392
 8577 8578 18393
 8578 8579 18394
 8579 8580 18395
 8580 8581 18396
 8581 8582 18397
 8582 8583 18398
 8583 8584 18399
 8584 8585 18400
 8585 8586 18401
 8586 8587 18402
 8587 8588 18403
 8588 8589 18404
 8589 8590 18405
 8590 8591 18406
 8591 8592 18407
 8592 8593 18408
 8593 8594 18409
 8594 8595 18410
 8595 8596 18411
 8596 8597 18412
 8597 8598 18413
 8598 8599 18414
 8600 8601 18415
 8601 8602 18416
 8602 8603 18417
 8603 8604 18418
 8604 8605 18419
 8605 8606 18420
 8606 8607 18421
 8607 8608 18422
 8608 8609 18423
 8609 8610 18424
 8610 8611 18425
 8611 8612 18426
 8612 8613 18427
 8613 8614 18428
 8614 8615 18429
 8615 8616 18430
 8616 8617 18431
 8617 8618 18432
 8618 8619 18433
 8619 8620 18434
 8620 8621 18435
 8621 8622 18436
 8622 8623 18437
 8623 8624 18438
 8624 8625 18439
 8625 8626 18440
 8626 8627 18441
 8627 8628 18442
 8628 8629 18443
 8629 8630 18444
 8630 8631 18445
 8631 8632 18446
 8632 8633 18447
 8633 8634 18448
 8634 8635 18449
 8635 8636 18450
 8636 8637 18451
 8637 8638 18452
 8638 8639 18453
 8639 8640 18454
 8640 8641 18455
 8641 8642 18456
 8642 8643 18457
 8643 8644 18458
 8644 8645 18459
 8645 8646 18460
 8646 8647 18461
 8647 8648 18462
 8648 8649 18463
 8649 8650 18464
 8650 8651 18465
 8651 8652 18466
 8652 8653 18467
 8653 8654 18468
 8654 8655 18469
 8655 8656 18470
 8656 8657 18471
 8657 8658 18472
 8658 8659 18473
 8659 8660 18474
 8660 8661 18475
 8661 8662 18476
 8662 8663 18477
 8663 8664 18478
 8664 8665 18479
 8665 8666 18480
 8666 8667 18481
 8667 8668 18482
 8668 8669 18483
 8669 8670 18484
 8670 8671 18485
 8671 8672 18486
 8672 8673 18487
 8673 8674 18488
 8674 8675 18489
 8675 8676 18490
 8676 8677 18491
 8677 8678 18492
 8678 8679 18493
 8679 8680 18494
 8680 8681 18495
 8681 8682 18496
 8682 8683 18497
 8683 8684 18498
 8684 8685 18499
 8685 8686 18500
 8686 8687 18501
 8687 8688 18502
 8688 8689 18503
 8689 8690 18504
 8690 8691 18505
 8691 8692 18506
 8692 8693 18507
 8693 8694 18508
 8694 8695 18509
 8695 8696 18510
 8696 8697 18511
 8697 8698 18512
 8698 8699 18513
 8700 8701 18514
 8701 8702 18515
 8702 8703 18516
 8703 8704 18517
 8704 8705 18518
 8705 8706 18519
 8706 8707 18520
 8707 8708 18521
 8708 8709 18522
 8709 8710 18523
 8710 8711 18524
 8711 8712 18525
 8712 8713 18526
 8713 8714 18527
 8714 8715 18528
 8715 8716 18529
 8716 8717 18530
 8717 8718 18531
 8718 8719 18532
 8719 8720 18533
 8720 8721 18534
 8721 8722 18535
 8722 8723 18536
 8723 8724 18537
 8724 8725 18538
 8725 8726 18539
 8726 8727 18540
 8727 8728 18541
 8728 8729 18542
 8729 8730 18543
 8730 8731 18544
 8731 8732 18545
 8732 8733 18546
 8733 8734 18547
 8734 8735 18548
 8735 8736 18549
 8736 8737 18550
 8737 8738 18551
 8738 8739 18552
 8739 8740 18553
 8740 8741 18554
 8741 8742 18555
 8742 8743 18556
 8743 8744 18557
 8744 8745 18558
 8745 8746 18559
 8746 8747 18560
 8747 8748 18561
 8748 8749 18562
 8749 8750 18563
 8750 8751 18564
 8751 8752 18565
 8752 8753 18566
 8753 8754 18567
 8754 8755 18568
 8755 8756 18569
 8756 8757 18570
 8757 8758 18571
 8758 8759 18572
 8759 8760 18573
 8760 8761 18574
 8761 8762 18575
 8762 8763 18576
 8763 8764 18577
 8764 8765 18578
 8765 8766 18579
 8766 8767 18580
 8767 8768 18581
 8768 8769 18582
 8769 8770 18583
 8770 8771 18584
 8771 8772 18585
 8772 8773 18586
 8773 8774 18587
 8774 8775 18588
 8775 8776 18589
 8776 8777 18590
 8777 8778 18591
 8778 8779 18592
 8779 8780 18593
 8780 8781 18594
 8781 8782 18595
 8782 8783 18596
 8783 8784 18597
 8784 8785 18598
 8785 8786 18599
 8786 8787 18600
 8787 8788 18601
 8788 8789 18602
 8789 8790 18603
 8790 8791 18604
 8791 8792 18605
 8792 8793 18606
 8793 8794 18607
 8794 8795 18608
 8795 8796 18609
 8796 8797 18610
 8797 8798 18611
 8798 8799 18612
 8800 8801 18613
 8801 8802 18614
 8802 8803 18615
 8803 8804 18616
 8804 8805 18617
 8805 8806 18618
 8806 8807 18619
 8807 8808 18620
 8808 8809 18621
 8809 8810 18622
 8810 8811 18623
 8811 8812 18624
 8812 8813 18625
 8813 8814 18626
 8814 8815 18627
 8815 8816 18628
 8816 8817 18629
 8817 8818 18630
 8818 8819 18631
 8819 8820 18632
 8820 8821 18633
 8821 8822 18634
 8822 8823 18635
 8823 8824 18636
 8824 8825 18637
 8825 8826 18638
 8826 8827 18639
 8827 8828 18640
 8828 8829 18641
 8829 8830 18642
 8830 8831 18643
 8831 8832 18644
 8832 8833 18645
 8833 8834 18646
 8834 8835 18647
 8835 8836 18648
 8836 8837 18649
 8837 8838 18650
 8838 8839 18651
 8839 8840 18652
 8840 8841 18653
 8841 8842 18654
 8842 8843 18655
 8843 8844 18656
 8844 8845 18657
 8845 8846 18658
 8846 8847 18659
 8847 8848 18660
 8848 8849 18661
 8849 8850 18662
 8850 8851 18663
 8851 8852 18664
 8852 8853 18665
 8853 8854 18666
 8854 8855 18667
 8855 8856 18668
 8856 8857 18669
 8857 8858 18670
 8858 8859 18671
 8859 8860 18672
 8860 8861 18673
 8861 8862 18674
 8862 8863 18675
 8863 8864 18676
 8864 8865 18677
 8865 8866 18678
 8866 8867 18679
 8867 8868 18680
 8868 8869 18681
 8869 8870 18682
 8870 8871 18683
 8871 8872 18684
 8872 8873 18685
 8873 8874 18686
 8874 8875 18687
 8875 8876 18688
 8876 8877 18689
 8877 8878 18690
 8878 8879 18691
 8879 8880 18692
 8880 8881 18693
 8881 8882 18694
 8882 8883 18695
 8883 8884 18696
 8884 8885 18697
 8885 8886 18698
 8886 8887 18699
 8887 8888 18700
 8888 8889 18701
 8889 8890 18702
 8890 8891 18703
 8891 8892 18704
 8892 8893 18705
 8893 8894 18706
 8894 8895 18707
 8895 8896 18708
 8896 8897 18709
 8897 8898 18710
 8898 8899 18711
 8900 8901 18712
 8901 8902 18713
 8902 8903 18714
 8903 8904 18715
 8904 8905 18716
 8905 8906 18717
 8906 8907 18718
 8907 8908 18719
 8908 8909 18720
 8909 8910 18721
 8910 8911 18722
 8911 8912 18723
 8912 8913 18724
 8913 8914 18725
 8914 8915 18726
 8915 8916 18727
 8916 8917 18728
 8917 8918 18729
 8918 8919 18730
 8919 8920 18731
 8920 8921 18732
 8921 8922 18733
 8922 8923 18734
 8923 8924 18735
 8924 8925 18736
 8925 8926 18737
 8926 8927 18738
 8927 8928 18739
 8928 8929 18740
 8929 8930 18741
 8930 8931 18742
 8931 8932 18743
 8932 8933 18744
 8933 8934 18745
 8934 8935 18746
 8935 8936 18747
 8936 8937 18748
 8937 8938 18749
 8938 8939 18750
 8939 8940 18751
 8940 8941 18752
 8941 8942 18753
 8942 8943 18754
 8943 8944 18755
 8944 8945 18756
 8945 8946 18757
 8946 8947 18758
 8947 8948 18759
 8948 8949 18760
 8949 8950 18761
 8950 8951 18762
 8951 8952 18763
 8952 8953 18764
 8953 8954 18765
 8954 8955 18766
 8955 8956 18767
 8956 8957 18768
 8957 8958 18769
 8958 8959 18770
 8959 8960 18771
 8960 8961 18772
 8961 8962 18773
 8962 8963 18774
 8963 8964 18775
 8964 8965 18776
 8965 8966 18777
 8966 8967 18778
 8967 8968 18779
 8968 8969 18780
 8969 8970 18781
 8970 8971 18782
 8971 8972 18783
 8972 8973 18784
 8973 8974 18785
 8974 8975 18786
 8975 8976 18787
 8976 8977 18788
 8977 8978 18789
 8978 8979 18790
 8979 8980 18791
 8980 8981 18792
 8981 8982 18793
 8982 8983 18794
 8983 8984 18795
 8984 8985 18796
 8985 8986 18797
 8986 8987 18798
 8987 8988 18799
 8988 8989 18800
 8989 8990 18801
 8990 8991 18802
 8991 8992 18803
 8992 8993 18804
 8993 8994 18805
 8994 8995 18806
 8995 8996 18807
 8996 8997 18808
 8997 8998 18809
 8998 8999 18810
 9000 9001 18811
 9001 9002 18812
 9002 9003 18813
 9003 9004 18814
 9004 9005 18815
 9005 9006 18816
 9006 9007 18817
 9007 9008 18818
 9008 9009 18819
 9009 9010 18820
 9010 9011 18821
 9011 9012 18822
 9012 9013 18823
 9013 9014 18824
 9014 9015 18825
 9015 9016 18826
 9016 9017 18827
 9017 9018 18828
 9018 9019 18829
 9019 9020 18830
 9020 9021 18831
 9021 9022 18832
 9022 9023 18833
 9023 9024 18834
 9024 9025 18835
 9025 9026 18836
 9026 9027 18837
 9027 9028 18838
 9028 9029 18839
 9029 9030 18840
 9030 9031 18841
 9031 9032 18842
 9032 9033 18843
 9033 9034 18844
 9034 9035 18845
 9035 9036 18846
 9036 9037 18847
 9037 9038 18848
 9038 9039 18849
 9039 9040 18850
 9040 9041 18851
 9041 9042 18852
 9042 9043 18853
 9043 9044 18854
 9044 9045 18855
 9045 9046 18856
 9046 9047 18857
 9047 9048 18858
 9048 9049 18859
 9049 9050 18860
 9050 9051 18861
 9051 9052 18862
 9052 9053 18863
 9053 9054 18864
 9054 9055 18865
 9055 9056 18866
 9056 9057 18867
 9057 9058 18868
 9058 9059 18869
 9059 9060 18870
 9060 9061 18871
 9061 9062 18872
 9062 9063 18873
 9063 9064 18874
 9064 9065 18875
 9065 9066 18876
 9066 9067 18877
 9067 9068 18878
 9068 9069 18879
 9069 9070 18880
 9070 9071 18881
 9071 9072 18882
 9072 9073 18883
 9073 9074 18884
 9074 9075 18885
 9075 9076 18886
 9076 9077 18887
 9077 9078 18888
 9078 9079 18889
 9079 9080 18890
 9080 9081 18891
 9081 9082 18892
 9082 9083 18893
 9083 9084 18894
 9084 9085 18895
 9085 9086 18896
 9086 9087 18897
 9087 9088 18898
 9088 9089 18899
 9089 9090 18900
 9090 9091 18901
 9091 9092 18902
 9092 9093 18903
 9093 9094 18904
 9094 9095 18905
 9095 9096 18906
 9096 9097 18907
 9097 9098 18908
 9098 9099 18909
 9100 9101 18910
 9101 9102 18911
 9102 9103 18912
 9103 9104 18913
 9104 9105 18914
 9105 9106 18915
 9106 9107 18916
 9107 9108 18917
 9108 9109 18918
 9109 9110 18919
 9110 9111 18920
 9111 9112 18921
 9112 9113 18922
 9113 9114 18923
 9114 9115 18924
 9115 9116 18925
 9116 9117 18926
 9117 9118 18927
 9118 9119 18928
 9119 9120 18929
 9120 9121 18930
 9121 9122 18931
 9122 9123 18932
 9123 9124 18933
 9124 9125 18934
 9125 9126 18935
 9126 9127 18936
 9127 9128 18937
 9128 9129 18938
 9129 9130 18939
 9130 9131 18940
 9131 9132 18941
 9132 9133 18942
 9133 9134 18943
 9134 9135 18944
 9135 9136 18945
 9136 9137 18946
 9137 9138 18947
 9138 9139 18948
 9139 9140 18949
 9140 9141 18950
 9141 9142 18951
 9142 9143 18952
 9143 9144 18953
 9144 9145 18954
 9145 9146 18955
 9146 9147 18956
 9147 9148 18957
 9148 9149 18958
 9149 9150 18959
 9150 9151 18960
 9151 9152 18961
 9152 9153 18962
 9153 9154 18963
 9154 9155 18964
 9155 9156 18965
 9156 9157 18966
 9157 9158 18967
 9158 9159 18968
 9159 9160 18969
 9160 9161 18970
 9161 9162 18971
 9162 9163 18972
 9163 9164 18973
 9164 9165 18974
 9165 9166 18975
 9166 9167 18976
 9167 9168 18977
 9168 9169 18978
 9169 9170 18979
 9170 9171 18980
 9171 9172 18981
 9172 9173 18982
 9173 9174 18983
 9174 9175 18984
 9175 9176 18985
 9176 9177 18986
 9177 9178 18987
 9178 9179 18988
 9179 9180 18989
 9180 9181 18990
 9181 9182 18991
 9182 9183 18992
 9183 9184 18993
 9184 9185 18994
 9185 9186 18995
 9186 9187 18996
 9187 9188 18997
 9188 9189 18998
 9189 9190 18999
 9190 9191 19000
 9191 9192 19001
 9192 9193 19002
 9193 9194 19003
 9194 9195 19004
 9195 9196 19005
 9196 9197 19006
 9197 9198 19007
 9198 9199 19008
 9200 9201 19009
 9201 9202 19010
 9202 9203 19011
 9203 9204 19012
 9204 9205 19013
 9205 9206 19014
 9206 9207 19015
 9207 9208 19016
 9208 9209 19017
 9209 9210 19018
 9210 9211 19019
 9211 9212 19020
 9212 9213 19021
 9213 9214 19022
 9214 9215 19023
 9215 9216 19024
 9216 9217 19025
 9217 9218 19026
 9218 9219 19027
 9219 9220 19028
 9220 9221 19029
 9221 9222 19030
 9222 9223 19031
 9223 9224 19032
 9224 9225 19033
 9225 9226 19034
 9226 9227 19035
 9227 9228 19036
 9228 9229 19037
 9229 9230 19038
 9230 9231 19039
 9231 9232 19040
 9232 9233 19041
 9233 9234 19042
 9234 9235 19043
 9235 9236 19044
 9236 9237 19045
 9237 9238 19046
 9238 9239 19047
 9239 9240 19048
 9240 9241 19049
 9241 9242 19050
 9242 9243 19051
 9243 9244 19052
 9244 9245 19053
 9245 9246 19054
 9246 9247 19055
 9247 9248 19056
 9248 9249 19057
 9249 9250 19058
 9250 9251 19059
 9251 9252 19060
 9252 9253 19061
 9253 9254 19062
 9254 9255 19063
 9255 9256 19064
 9256 9257 19065
 9257 9258 19066
 9258 9259 19067
 9259 9260 19068
 9260 9261 19069
 9261 9262 19070
 9262 9263 19071
 9263 9264 19072
 9264 9265 19073
 9265 9266 19074
 9266 9267 19075
 9267 9268 19076
 9268 9269 19077
 9269 9270 19078
 9270 9271 19079
 9271 9272 19080
 9272 9273 19081
 9273 9274 19082
 9274 9275 19083
 9275 9276 19084
 9276 9277 19085
 9277 9278 19086
 9278 9279 19087
 9279 9280 19088
 9280 9281 19089
 9281 9282 19090
 9282 9283 19091
 9283 9284 19092
 9284 9285 19093
 9285 9286 19094
 9286 9287 19095
 9287 9288 19096
 9288 9289 19097
 9289 9290 19098
 9290 9291 19099
 9291 9292 19100
 9292 9293 19101
 9293 9294 19102
 9294 9295 19103
 9295 9296 19104
 9296 9297 19105
 9297 9298 19106
 9298 9299 19107
 9300 9301 19108
 9301 9302 19109
 9302 9303 19110
 9303 9304 19111
 9304 9305 19112
 9305 9306 19113
 9306 9307 19114
 9307 9308 19115
 9308 9309 19116
 9309 9310 19117
 9310 9311 19118
 9311 9312 19119
 9312 9313 19120
 9313 9314 19121
 9314 9315 19122
 9315 9316 19123
 9316 9317 19124
 9317 9318 19125
 9318 9319 19126
 9319 9320 19127
 9320 9321 19128
 9321 9322 19129
 9322 9323 19130
 9323 9324 19131
 9324 9325 19132
 9325 9326 19133
 9326 9327 19134
 9327 9328 19135
 9328 9329 19136
 9329 9330 19137
 9330 9331 19138
 9331 9332 19139
 9332 9333 19140
 9333 9334 19141
 9334 9335 19142
 9335 9336 19143
 9336 9337 19144
 9337 9338 19145
 9338 9339 19146
 9339 9340 19147
 9340 9341 19148
 9341 9342 19149
 9342 9343 19150
 9343 9344 19151
 9344 9345 19152
 9345 9346 19153
 9346 9347 19154
 9347 9348 19155
 9348 9349 19156
 9349 9350 19157
 9350 9351 19158
 9351 9352 19159
 9352 9353 19160
 9353 9354 19161
 9354 9355 19162
 9355 9356 19163
 9356 9357 19164
 9357 9358 19165
 9358 9359 19166
 9359 9360 19167
 9360 9361 19168
 9361 9362 19169
 9362 9363 19170
 9363 9364 19171
 9364 9365 19172
 9365 9366 19173
 9366 9367 19174
 9367 9368 19175
 9368 9369 19176
 9369 9370 19177
 9370 9371 19178
 9371 9372 19179
 9372 9373 19180
 9373 9374 19181
 9374 9375 19182
 9375 9376 19183
 9376 9377 19184
 9377 9378 19185
 9378 9379 19186
 9379 9380 19187
 9380 9381 19188
 9381 9382 19189
 9382 9383 19190
 9383 9384 19191
 9384 9385 19192
 9385 9386 19193
 9386 9387 19194
 9387 9388 19195
 9388 9389 19196
 9389 9390 19197
 9390 9391 19198
 9391 9392 19199
 9392 9393 19200
 9393 9394 19201
 9394 9395 19202
 9395 9396 19203
 9396 9397 19204
 9397 9398 19205
 9398 9399 19206
 9400 9401 19207
 9401 9402 19208
 9402 9403 19209
 9403 9404 19210
 9404 9405 19211
 9405 9406 19212
 9406 9407 19213
 9407 9408 19214
 9408 9409 19215
 9409 9410 19216
 9410 9411 19217
 9411 9412 19218
 9412 9413 19219
 9413 9414 19220
 9414 9415 19221
 9415 9416 19222
 9416 9417 19223
 9417 9418 19224
 9418 9419 19225
 9419 9420 19226
 9420 9421 19227
 9421 9422 19228
 9422 9423 19229
 9423 9424 19230
 9424 9425 19231
 9425 9426 19232
 9426 9427 19233
 9427 9428 19234
 9428 9429 19235
 9429 9430 19236
 9430 9431 19237
 9431 9432 19238
 9432 9433 19239
 9433 9434 19240
 9434 9435 19241
 9435 9436 19242
 9436 9437 19243
 9437 9438 19244
 9438 9439 19245
 9439 9440 19246
 9440 9441 19247
 9441 9442 19248
 9442 9443 19249
 9443 9444 19250
 9444 9445 19251
 9445 9446 19252
 9446 9447 19253
 9447 9448 19254
 9448 9449 19255
 9449 9450 19256
 9450 9451 19257
 9451 9452 19258
 9452 9453 19259
 9453 9454 19260
 9454 9455 19261
 9455 9456 19262
 9456 9457 19263
 9457 9458 19264
 9458 9459 19265
 9459 9460 19266
 9460 9461 19267
 9461 9462 19268
 9462 9463 19269
 9463 9464 19270
 9464 9465 19271
 9465 9466 19272
 9466 9467 19273
 9467 9468 19274
 9468 9469 19275
 9469 9470 19276
 9470 9471 19277
 9471 9472 19278
 9472 9473 19279
 9473 9474 19280
 9474 9475 19281
 9475 9476 19282
 9476 9477 19283
 9477 9478 19284
 9478 9479 19285
 9479 9480 19286
 9480 9481 19287
 9481 9482 19288
 9482 9483 19289
 9483 9484 19290
 9484 9485 19291
 9485 9486 19292
 9486 9487 19293
 9487 9488 19294
 9488 9489 19295
 9489 9490 19296
 9490 9491 19297
 9491 9492 19298
 9492 9493 19299
 9493 9494 19300
 9494 9495 19301
 9495 9496 19302
 9496 9497 19303
 9497 9498 19304
 9498 9499 19305
 9500 9501 19306
 9501 9502 19307
 9502 9503 19308
 9503 9504 19309
 9504 9505 19310
 9505 9506 19311
 9506 9507 19312
 9507 9508 19313
 9508 9509 19314
 9509 9510 19315
 9510 9511 19316
 9511 9512 19317
 9512 9513 19318
 9513 9514 19319
 9514 9515 19320
 9515 9516 19321
 9516 9517 19322
 9517 9518 19323
 9518 9519 19324
 9519 9520 19325
 9520 9521 19326
 9521 9522 19327
 9522 9523 19328
 9523 9524 19329
 9524 9525 19330
 9525 9526 19331
 9526 9527 19332
 9527 9528 19333
 9528 9529 19334
 9529 9530 19335
 9530 9531 19336
 9531 9532 19337
 9532 9533 19338
 9533 9534 19339
 9534 9535 19340
 9535 9536 19341
 9536 9537 19342
 9537 9538 19343
 9538 9539 19344
 9539 9540 19345
 9540 9541 19346
 9541 9542 19347
 9542 9543 19348
 9543 9544 19349
 9544 9545 19350
 9545 9546 19351
 9546 9547 19352
 9547 9548 19353
 9548 9549 19354
 9549 9550 19355
 9550 9551 19356
 9551 9552 19357
 9552 9553 19358
 9553 9554 19359
 9554 9555 19360
 9555 9556 19361
 9556 9557 19362
 9557 9558 19363
 9558 9559 19364
 9559 9560 19365
 9560 9561 19366
 9561 9562 19367
 9562 9563 19368
 9563 9564 19369
 9564 9565 19370
 9565 9566 19371
 9566 9567 19372
 9567 9568 19373
 9568 9569 19374
 9569 9570 19375
 9570 9571 19376
 9571 9572 19377
 9572 9573 19378
 9573 9574 19379
 9574 9575 19380
 9575 9576 19381
 9576 9577 19382
 9577 9578 19383
 9578 9579 19384
 9579 9580 19385
 9580 9581 19386
 9581 9582 19387
 9582 9583 19388
 9583 9584 19389
 9584 9585 19390
 9585 9586 19391
 9586 9587 19392
 9587 9588 19393
 9588 9589 19394
 9589 9590 19395
 9590 9591 19396
 9591 9592 19397
 9592 9593 19398
 9593 9594 19399
 9594 9595 19400
 9595 9596 19401
 9596 9597 19402
 9597 9598 19403
 9598 9599 19404
 9600 9601 19405
 9601 9602 19406
 9602 9603 19407
 9603 9604 19408
 9604 9605 19409
 9605 9606 19410
 9606 9607 19411
 9607 9608 19412
 9608 9609 19413
 9609 9610 19414
 9610 9611 19415
 9611 9612 19416
 9612 9613 19417
 9613 9614 19418
 9614 9615 19419
 9615 9616 19420
 9616 9617 19421
 9617 9618 19422
 9618 9619 19423
 9619 9620 19424
 9620 9621 19425
 9621 9622 19426
 9622 9623 19427
 9623 9624 19428
 9624 9625 19429
 9625 9626 19430
 9626 9627 19431
 9627 9628 19432
 9628 9629 19433
 9629 9630 19434
 9630 9631 19435
 9631 9632 19436
 9632 9633 19437
 9633 9634 19438
 9634 9635 19439
 9635 9636 19440
 9636 9637 19441
 9637 9638 19442
 9638 9639 19443
 9639 9640 19444
 9640 9641 19445
 9641 9642 19446
 9642 9643 19447
 9643 9644 19448
 9644 9645 19449
 9645 9646 19450
 9646 9647 19451
 9647 9648 19452
 9648 9649 19453
 9649 9650 19454
 9650 9651 19455
 9651 9652 19456
 9652 9653 19457
 9653 9654 19458
 9654 9655 19459
 9655 9656 19460
 9656 9657 19461
 9657 9658 19462
 9658 9659 19463
 9659 9660 19464
 9660 9661 19465
 9661 9662 19466
 9662 9663 19467
 9663 9664 19468
 9664 9665 19469
 9665 9666 19470
 9666 9667 19471
 9667 9668 19472
 9668 9669 19473
 9669 9670 19474
 9670 9671 19475
 9671 9672 19476
 9672 9673 19477
 9673 9674 19478
 9674 9675 19479
 9675 9676 19480
 9676 9677 19481
 9677 9678 19482
 9678 9679 19483
 9679 9680 19484
 9680 9681 19485
 9681 9682 19486
 9682 9683 19487
 9683 9684 19488
 9684 9685 19489
 9685 9686 19490
 9686 9687 19491
 9687 9688 19492
 9688 9689 19493
 9689 9690 19494
 9690 9691 19495
 9691 9692 19496
 9692 9693 19497
 9693 9694 19498
 9694 9695 19499
 9695 9696 19500
 9696 9697 19501
 9697 9698 19502
 9698 9699 19503
 9700 9701 19504
 9701 9702 19505
 9702 9703 19506
 9703 9704 19507
 9704 9705 19508
 9705 9706 19509
 9706 9707 19510
 9707 9708 19511
 9708 9709 19512
 9709 9710 19513
 9710 9711 19514
 9711 9712 19515
 9712 9713 19516
 9713 9714 19517
 9714 9715 19518
 9715 9716 19519
 9716 9717 19520
 9717 9718 19521
 9718 9719 19522
 9719 9720 19523
 9720 9721 19524
 9721 9722 19525
 9722 9723 19526
 9723 9724 19527
 9724 9725 19528
 9725 9726 19529
 9726 9727 19530
 9727 9728 19531
 9728 9729 19532
 9729 9730 19533
 9730 9731 19534
 9731 9732 19535
 9732 9733 19536
 9733 9734 19537
 9734 9735 19538
 9735 9736 19539
 9736 9737 19540
 9737 9738 19541
 9738 9739 19542
 9739 9740 19543
 9740 9741 19544
 9741 9742 19545
 9742 9743 19546
 9743 9744 19547
 9744 9745 19548
 9745 9746 19549
 9746 9747 19550
 9747 9748 19551
 9748 9749 19552
 9749 9750 19553
 9750 9751 19554
 9751 9752 19555
 9752 9753 19556
 9753 9754 19557
 9754 9755 19558
 9755 9756 19559
 9756 9757 19560
 9757 9758 19561
 9758 9759 19562
 9759 9760 19563
 9760 9761 19564
 9761 9762 19565
 9762 9763 19566
 9763 9764 19567
 9764 9765 19568
 9765 9766 19569
 9766 9767 19570
 9767 9768 19571
 9768 9769 19572
 9769 9770 19573
 9770 9771 19574
 9771 9772 19575
 9772 9773 19576
 9773 9774 19577
 9774 9775 19578
 9775 9776 19579
 9776 9777 19580
 9777 9778 19581
 9778 9779 19582
 9779 9780 19583
 9780 9781 19584
 9781 9782 19585
 9782 9783 19586
 9783 9784 19587
 9784 9785 19588
 9785 9786 19589
 9786 9787 19590
 9787 9788 19591
 9788 9789 19592
 9789 9790 19593
 9790 9791 19594
 9791 9792 19595
 9792 9793 19596
 9793 9794 19597
 9794 9795 19598
 9795 9796 19599
 9796 9797 19600
 9797 9798 19601
 9798 9799 19602
 9800 9801 19603
 9801 9802 19604
 9802 9803 19605
 9803 9804 19606
 9804 9805 19607
 9805 9806 19608
 9806 9807 19609
 9807 9808 19610
 9808 9809 19611
 9809 9810 19612
 9810 9811 19613
 9811 9812 19614
 9812 9813 19615
 9813 9814 19616
 9814 9815 19617
 9815 9816 19618
 9816 9817 19619
 9817 9818 19620
 9818 9819 19621
 9819 9820 19622
 9820 9821 19623
 9821 9822 19624
 9822 9823 19625
 9823 9824 19626
 9824 9825 19627
 9825 9826 19628
 9826 9827 19629
 9827 9828 19630
 9828 9829 19631
 9829 9830 19632
 9830 9831 19633
 9831 9832 19634
 9832 9833 19635
 9833 9834 19636
 9834 9835 19637
 9835 9836 19638
 9836 9837 19639
 9837 9838 19640
 9838 9839 19641
 9839 9840 19642
 9840 9841 19643
 9841 9842 19644
 9842 9843 19645
 9843 9844 19646
 9844 9845 19647
 9845 9846 19648
 9846 9847 19649
 9847 9848 19650
 9848 9849 19651
 9849 9850 19652
 9850 9851 19653
 9851 9852 19654
 9852 9853 19655
 9853 9854 19656
 9854 9855 19657
 9855 9856 19658
 9856 9857 19659
 9857 9858 19660
 9858 9859 19661
 9859 9860 19662
 9860 9861 19663
 9861 9862 19664
 9862 9863 19665
 9863 9864 19666
 9864 9865 19667
 9865 9866 19668
 9866 9867 19669
 9867 9868 19670
 9868 9869 19671
 9869 9870 19672
 9870 9871 19673
 9871 9872 19674
 9872 9873 19675
 9873 9874 19676
 9874 9875 19677
 9875 9876 19678
 9876 9877 19679
 9877 9878 19680
 9878 9879 19681
 9879 9880 19682
 9880 9881 19683
 9881 9882 19684
 9882 9883 19685
 9883 9884 19686
 9884 9885 19687
 9885 9886 19688
 9886 9887 19689
 9887 9888 19690
 9888 9889 19691
 9889 9890 19692
 9890 9891 19693
 9891 9892 19694
 9892 9893 19695
 9893 9894 19696
 9894 9895 19697
 9895 9896 19698
 9896 9897 19699
 9897 9898 19700
 9898 9899 19701
 9900 9901 19702
 9901 9902 19703
 9902 9903 19704
 9903 9904 19705
 9904 9905 19706
 9905 9906 19707
 9906 9907 19708
 9907 9908 19709
 9908 9909 19710
 9909 9910 19711
 9910 9911 19712
 9911 9912 19713
 9912 9913 19714
 9913 9914 19715
 9914 9915 19716
 9915 9916 19717
 9916 9917 19718
 9917 9918 19719
 9918 9919 19720
 9919 9920 19721
 9920 9921 19722
 9921 9922 19723
 9922 9923 19724
 9923 9924 19725
 9924 9925 19726
 9925 9926 19727
 9926 9927 19728
 9927 9928 19729
 9928 9929 19730
 9929 9930 19731
 9930 9931 19732
 9931 9932 19733
 9932 9933 19734
 9933 9934 19735
 9934 9935 19736
 9935 9936 19737
 9936 9937 19738
 9937 9938 19739
 9938 9939 19740
 9939 9940 19741
 9940 9941 19742
 9941 9942 19743
 9942 9943 19744
 9943 9944 19745
 9944 9945 19746
 9945 9946 19747
 9946 9947 19748
 9947 9948 19749
 9948 9949 19750
 9949 9950 19751
 9950 9951 19752
 9951 9952 19753
 9952 9953 19754
 9953 9954 19755
 9954 9955 19756
 9955 9956 19757
 9956 9957 19758
 9957 9958 19759
 9958 9959 19760
 9959 9960 19761
 9960 9961 19762
 9961 9962 19763
 9962 9963 19764
 9963 9964 19765
 9964 9965 19766
 9965 9966 19767
 9966 9967 19768
 9967 9968 19769
 9968 9969 19770
 9969 9970 19771
 9970 9971 19772
 9971 9972 19773
 9972 9973 19774
 9973 9974 19775
 9974 9975 19776
 9975 9976 19777
 9976 9977 19778
 9977 9978 19779
 9978 9979 19780
 9979 9980 19781
 9980 9981 19782
 9981 9982 19783
 9982 9983 19784
 9983 9984 19785
 9984 9985 19786
 9985 9986 19787
 9986 9987 19788
 9987 9988 19789
 9988 9989 19790
 9989 9990 19791
 9990 9991 19792
 9991 9992 19793
 9992 9993 19794
 9993 9994 19795
 9994 9995 19796
 9995 9996 19797
 9996 9997 19798
 9997 9998 19799
 9998 9999 19800
 0 100 10000
 1 101 10001
 2 102 10002
 3 103 10003
 4 104 10004
 5 105 10005
 6 106 10006
 7 107 10007
 8 108 10008
 9 109 10009
 10 110 10010
 11 111 10011
 12 112 10012
 13 113 10013
 14 114 10014
 15 115 10015
 16 116 10016
 17 117 10017
 18 118 10018
 19 119 10019
 20 120 10020
 21 121 10021
 22 122 10022
 23 123 10023
 24 124 10024
 25 125 10025
 26 126 10026
 27 127 10027
 28 128 10028
 29 129 10029
 30 130 10030
 31 131 10031
 32 132 10032
 33 133 10033
 34 134 10034
 35 135 10035
 36 136 10036
 37 137 10037
 38 138 10038
 39 139 10039
 40 140 10040
 41 141 10041
 42 142 10042
 43 143 10043
 44 144 10044
 45 145 10045
 46 146 10046
 47 147 10047
 48 148 10048
 49 149 10049
 50 150 10050
 51 151 10051
 52 152 10052
 53 153 10053
 54 154 10054
 55 155 10055
 56 156 10056
 57 157 10057
 58 158 10058
 59 159 10059
 60 160 10060
 61 161 10061
 62 162 10062
 63 163 10063
 64 164 10064
 65 165 10065
 66 166 10066
 67 167 10067
 68 168 10068
 69 169 10069
 70 170 10070
 71 171 10071
 72 172 10072
 73 173 10073
 74 174 10074
 75 175 10075
 76 176 10076
 77 177 10077
 78 178 10078
 79 179 10079
 80 180 10080
 81 181 10081
 82 182 10082
 83 183 10083
 84 184 10084
 85 185 10085
 86 186 10086
 87 187 10087
 88 188 10088
 89 189 10089
 90 190 10090
 91 191 10091
 92 192 10092
 93 193 10093
 94 194 10094
 95 195 10095
 96 196 10096
 97 197 10097
 98 198 10098
 100 200 10099
 101 201 10100
 102 202 10101
 103 203 10102
 104 204 10103
 105 205 10104
 106 206 10105
 107 207 10106
 108 208 10107
 109 209 10108
 110 210 10109
 111 211 10110
 112 212 10111
 113 213 10112
 114 214 10113
 115 215 10114
 116 216 10115
 117 217 10116
 118 218 10117
 119 219 10118
 120 220 10119
 121 221 10120
 122 222 10121
 123 223 10122
 124 224 10123
 125 225 10124
 126 226 10125
 127 227 10126
 128 228 10127
 129 229 10128
 130 230 10129
 131 231 10130
 132 232 10131
 133 233 10132
 134 234 10133
 135 235 10134
 136 236 10135
 137 237 10136
 138 238 10137
 139 239 10138
 140 240 10139
 141 241 10140
 142 242 10141
 143 243 10142
 144 244 10143
 145 245 10144
 146 246 10145
 147 247 10146
 148 248 10147
 149 249 10148
 150 250 10149
 151 251 10150
 152 252 10151
 153 253 10152
 154 254 10153
 155 255 10154
 156 256 10155
 157 257 10156
 158 258 10157
 159 259 10158
 160 260 10159
 161 261 10160
 162 262 10161
 163 263 10162
 164 264 10163
 165 265 10164
 166 266 10165
 167 267 10166
 168 268 10167
 169 269 10168
 170 270 10169
 171 271 10170
 172 272 10171
 173 273 10172
 174 274 10173
 175 275 10174
 176 276 10175
 177 277 10176
 178 278 10177
 179 279 10178
 180 280 10179
 181 281 10180
 182 282 10181
 183 283 10182
 184 284 10183
 185 285 10184
 186 286 10185
 187 287 10186
 188 288 10187
 189 289 10188
 190 290 10189
 191 291 10190
 192 292 10191
 193 293 10192
 194 294 10193
 195 295 10194
 196 296 10195
 197 297 10196
 198 298 10197
 200 300 10198
 201 301 10199
 202 302 10200
 203 303 10201
 204 304 10202
 205 305 10203
 206 306 10204
 207 307 10205
 208 308 10206
 209 309 10207
 210 310 10208
 211 311 10209
 212 312 10210
 213 313 10211
 214 314 10212
 215 315 10213
 216 316 10214
 217 317 10215
 218 318 10216
 219 319 10217
 220 320 10218
 221 321 10219
 222 322 10220
 223 323 10221
 224 324 10222
 225 325 10223
 226 326 10224
 227 327 10225
 228 328 10226
 229 329 10227
 230 330 10228
 231 331 10229
 232 332 10230
 233 333 10231
 234 334 10232
 235 335 10233
 236 336 10234
 237 337 10235
 238 338 10236
 239 339 10237
 240 340 10238
 241 341 10239
 242 342 10240
 243 343 10241
 244 344 10242
 245 345 10243
 246 346 10244
 247 347 10245
 248 348 10246
 249 349 10247
 250 350 10248
 251 351 10249
 252 352 10250
 253 353 10251
 254 354 10252
 255 355 10253
 256 356 10254
 257 357 10255
 258 358 10256
 259 359 10257
 260 360 10258
 261 361 10259
 262 362 10260
 263 363 10261
 264 364 10262
 265 365 10263
 266 366 10264
 267 367 10265
 268 368 10266
 269 369 10267
 270 370 10268
 271 371 10269
 272 372 10270
 273 373 10271
 274 374 10272
 275 375 10273
 276 376 10274
 277 377 10275
 278 378 10276
 279 379 10277
 280 380 10278
 281 381 10279
 282 382 10280
 283 383 10281
 284 384 10282
 285 385 10283
 286 386 10284
 287 387 10285
 288 388 10286
 289 389 10287
 290 390 10288
 291 391 10289
 292 392 10290
 293 393 10291
 294 394 10292
 295 395 10293
 296 396 10294
 297 397 10295
 298 398 10296
 300 400 10297
 301 401 10298
 302 402 10299
 303 403 10300
 304 404 10301
 305 405 10302
 306 406 10303
 307 407 10304
 308 408 10305
 309 409 10306
 310 410 10307
 311 411 10308
 312 412 10309
 313 413 10310
 314 414 10311
 315 415 10312
 316 416 10313
 317 417 10314
 318 418 10315
 319 419 10316
 320 420 10317
 321 421 10318
 322 422 10319
 323 423 10320
 324 424 10321
 325 425 10322
 326 426 10323
 327 427 10324
 328 428 10325
 329 429 10326
 330 430 10327
 331 431 10328
 332 432 10329
 333 433 10330
 334 434 10331
 335 435 10332
 336 436 10333
 337 437 10334
 338 438 10335
 339 439 10336
 340 440 10337
 341 441 10338
 342 442 10339
 343 443 10340
 344 444 10341
 345 445 10342
 346 446 10343
 347 447 10344
 348 448 10345
 349 449 10346
 350 450 10347
 351 451 10348
 352 452 10349
 353 453 10350
 354 454 10351
 355 455 10352
 356 456 10353
 357 457 10354
 358 458 10355
 359 459 10356
 360 460 10357
 361 461 10358
 362 462 10359
 363 463 10360
 364 464 10361
 365 465 10362
 366 466 10363
 367 467 10364
 368 468 10365
 369 469 10366
 370 470 10367
 371 471 10368
 372 472 10369
 373 473 10370
 374 474 10371
 375 475 10372
 376 476 10373
 377 477 10374
 378 478 10375
 379 479 10376
 380 480 10377
 381 481 10378
 382 482 10379
 383 483 10380
 384 484 10381
 385 485 10382
 386 486 10383
 387 487 10384
 388 488 10385
 389 489 10386
 390 490 10387
 391 491 10388
 392 492 10389
 393 493 10390
 394 494 10391
 395 495 10392
 396 496 10393
 397 497 10394
 398 498 10395
 400 500 10396
 401 501 10397
 402 502 10398
 403 503 10399
 404 504 10400
 405 505 10401
 406 506 10402
 407 507 10403
 408 508 10404
 409 509 10405
 410 510 10406
 411 511 10407
 412 512 10408
 413 513 10409
 414 514 10410
 415 515 10411
 416 516 10412
 417 517 10413
 418 518 10414
 419 519 10415
 420 520 10416
 421 521 10417
 422 522 10418
 423 523 10419
 424 524 10420
 425 525 10421
 426 526 10422
 427 527 10423
 428 528 10424
 429 529 10425
 430 530 10426
 431 531 10427
 432 532 10428
 433 533 10429
 434 534 10430
 435 535 10431
 436 536 10432
 437 537 10433
 438 538 10434
 439 539 10435
 440 540 10436
 441 541 10437
 442 542 10438
 443 543 10439
 444 544 10440
 445 545 10441
 446 546 10442
 447 547 10443
 448 548 10444
 449 549 10445
 450 550 10446
 451 551 10447
 452 552 10448
 453 553 10449
 454 554 10450
 455 555 10451
 456 556 10452
 457 557 10453
 458 558 10454
 459 559 10455
 460 560 10456
 461 561 10457
 462 562 10458
 463 563 10459
 464 564 10460
 465 565 10461
 466 566 10462
 467 567 10463
 468 568 10464
 469 569 10465
 470 570 10466
 471 571 10467
 472 572 10468
 473 573 10469
 474 574 10470
 475 575 10471
 476 576 10472
 477 577 10473
 478 578 10474
 479 579 10475
 480 580 10476
 481 581 10477
 482 582 10478
 483 583 10479
 484 584 10480
 485 585 10481
 486 586 10482
 487 587 10483
 488 588 10484
 489 589 10485
 490 590 10486
 491 591 10487
 492 592 10488
 493 593 10489
 494 594 10490
 495 595 10491
 496 596 10492
 497 597 10493
 498 598 10494
 500 600 10495
 501 601 10496
 502 602 10497
 503 603 10498
 504 604 10499
 505 605 10500
 506 606 10501
 507 607 10502
 508 608 10503
 509 609 10504
 510 610 10505
 511 611 10506
 512 612 10507
 513 613 10508
 514 614 10509
 515 615 10510
 516 616 10511
 517 617 10512
 518 618 10513
 519 619 10514
 520 620 10515
 521 621 10516
 522 622 10517
 523 623 10518
 524 624 10519
 525 625 10520
 526 626 10521
 527 627 10522
 528 628 10523
 529 629 10524
 530 630 10525
 531 631 10526
 532 632 10527
 533 633 10528
 534 634 10529
 535 635 10530
 536 636 10531
 537 637 10532
 538 638 10533
 539 639 10534
 540 640 10535
 541 641 10536
 542 642 10537
 543 643 10538
 544 644 10539
 545 645 10540
 546 646 10541
 547 647 10542
 548 648 10543
 549 649 10544
 550 650 10545
 551 651 10546
 552 652 10547
 553 653 10548
 554 654 10549
 555 655 10550
 556 656 10551
 557 657 10552
 558 658 10553
 559 659 10554
 560 660 10555
 561 661 10556
 562 662 10557
 563 663 10558
 564 664 10559
 565 665 10560
 566 666 10561
 567 667 10562
 568 668 10563
 569 669 10564
 570 670 10565
 571 671 10566
 572 672 10567
 573 673 10568
 574 674 10569
 575 675 10570
 576 676 10571
 577 677 10572
 578 678 10573
 579 679 10574
 580 680 10575
 581 681 10576
 582 682 10577
 583 683 10578
 584 684 10579
 585 685 10580
 586 686 10581
 587 687 10582
 588 688 10583
 589 689 10584
 590 690 10585
 591 691 10586
 592 692 10587
 593 693 10588
 594 694 10589
 595 695 10590
 596 696 10591
 597 697 10592
 598 698 10593
 600 700 10594
 601 701 10595
 602 702 10596
 603 703 10597
 604 704 10598
 605 705 10599
 606 706 10600
 607 707 10601
 608 708 10602
 609 709 10603
 610 710 10604
 611 711 10605
 612 712 10606
 613 713 10607
 614 714 10608
 615 715 10609
 616 716 10610
 617 717 10611
 618 718 10612
 619 719 10613
 620 720 10614
 621 721 10615
 622 722 10616
 623 723 10617
 624 724 10618
 625 725 10619
 626 726 10620
 627 727 10621
 628 728 10622
 629 729 10623
 630 730 10624
 631 731 10625
 632 732 10626
 633 733 10627
 634 734 10628
 635 735 10629
 636 736 10630
 637 737 10631
 638 738 10632
 639 739 10633
 640 740 10634
 641 741 10635
 642 742 10636
 643 743 10637
 644 744 10638
 645 745 10639
 646 746 10640
 647 747 10641
 648 748 10642
 649 749 10643
 650 750 10644
 651 751 10645
 652 752 10646
 653 753 10647
 654 754 10648
 655 755 10649
 656 756 10650
 657 757 10651
 658 758 10652
 659 759 10653
 660 760 10654
 661 761 10655
 662 762 10656
 663 763 10657
 664 764 10658
 665 765 10659
 666 766 10660
 667 767 10661
 668 768 10662
 669 769 10663
 670 770 10664
 671 771 10665
 672 772 10666
 673 773 10667
 674 774 10668
 675 775 10669
 676 776 10670
 677 777 10671
 678 778 10672
 679 779 10673
 680 780 10674
 681 781 10675
 682 782 10676
 683 783 10677
 684 784 10678
 685 785 10679
 686 786 10680
 687 787 10681
 688 788 10682
 689 789 10683
 690 790 10684
 691 791 10685
 692 792 10686
 693 793 10687
 694 794 10688
 695 795 10689
 696 796 10690
 697 797 10691
 698 798 10692
 700 800 10693
 701 801 10694
 702 802 10695
 703 803 10696
 704 804 10697
 705 805 10698
 706 806 10699
 707 807 10700
 708 808 10701
 709 809 10702
 710 810 10703
 711 811 10704
 712 812 10705
 713 813 10706
 714 814 10707
 715 815 10708
 716 816 10709
 717 817 10710
 718 818 10711
 719 819 10712
 720 820 10713
 721 821 10714
 722 822 10715
 723 823 10716
 724 824 10717
 725 825 10718
 726 826 10719
 727 827 10720
 728 828 10721
 729 829 10722
 730 830 10723
 731 831 10724
 732 832 10725
 733 833 10726
 734 834 10727
 735 835 10728
 736 836 10729
 737 837 10730
 738 838 10731
 739 839 10732
 740 840 10733
 741 841 10734
 742 842 10735
 743 843 10736
 744 844 10737
 745 845 10738
 746 846 10739
 747 847 10740
 748 848 10741
 749 849 10742
 750 850 10743
 751 851 10744
 752 852 10745
 753 853 10746
 754 854 10747
 755 855 10748
 756 856 10749
 757 857 10750
 758 858 10751
 759 859 10752
 760 860 10753
 761 861 10754
 762 862 10755
 763 863 10756
 764 864 10757
 765 865 10758
 766 866 10759
 767 867 10760
 768 868 10761
 769 869 10762
 770 870 10763
 771 871 10764
 772 872 10765
 773 873 10766
 774 874 10767
 775 875 10768
 776 876 10769
 777 877 10770
 778 878 10771
 779 879 10772
 780 880 10773
 781 881 10774
 782 882 10775
 783 883 10776
 784 884 10777
 785 885 10778
 786 886 10779
 787 887 10780
 788 888 10781
 789 889 10782
 790 890 10783
 791 891 10784
 792 892 10785
 793 893 10786
 794 894 10787
 795 895 10788
 796 896 10789
 797 897 10790
 798 898 10791
 800 900 10792
 801 901 10793
 802 902 10794
 803 903 10795
 804 904 10796
 805 905 10797
 806 906 10798
 807 907 10799
 808 908 10800
 809 909 10801
 810 910 10802
 811 911 10803
 812 912 10804
 813 913 10805
 814 914 10806
 815 915 10807
 816 916 10808
 817 917 10809
 818 918 10810
 819 919 10811
 820 920 10812
 821 921 10813
 822 922 10814
 823 923 10815
 824 924 10816
 825 925 10817
 826 926 10818
 827 927 10819
 828 928 10820
 829 929 10821
 830 930 10822
 831 931 10823
 832 932 10824
 833 933 10825
 834 934 10826
 835 935 10827
 836 936 10828
 837 937 10829
 838 938 10830
 839 939 10831
 840 940 10832
 841 941 10833
 842 942 10834
 843 943 10835
 844 944 10836
 845 945 10837
 846 946 10838
 847 947 10839
 848 948 10840
 849 949 10841
 850 950 10842
 851 951 10843
 852 952 10844
 853 953 10845
 854 954 10846
 855 955 10847
 856 956 10848
 857 957 10849
 858 958 10850
 859 959 10851
 860 960 10852
 861 961 10853
 862 962 10854
 863 963 10855
 864 964 10856
 865 965 10857
 866 966 10858
 867 967 10859
 868 968 10860
 869 969 10861
 870 970 10862
 871 971 10863
 872 972 10864
 873 973 10865
 874 974 10866
 875 975 10867
 876 976 10868
 877 977 10869
 878 978 10870
 879 979 10871
 880 980 10872
 881 981 10873
 882 982 10874
 883 983 10875
 884 984 10876
 885 985 10877
 886 986 10878
 887 987 10879
 888 988 10880
 889 989 10881
 890 990 10882
 891 991 10883
 892 992 10884
 893 993 10885
 894 994 10886
 895 995 10887
 896 996 10888
 897 997 10889
 898 998 10890
 900 1000 10891
 901 1001 10892
 902 1002 10893
 903 1003 10894
 904 1004 10895
 905 1005 10896
 906 1006 10897
 907 1007 10898
 908 1008 10899
 909 1009 10900
 910 1010 10901
 911 1011 10902
 912 1012 10903
 913 1013 10904
 914 1014 10905
 915 1015 10906
 916 1016 10907
 917 1017 10908
 918 1018 10909
 919 1019 10910
 920 1020 10911
 921 1021 10912
 922 1022 10913
 923 1023 10914
 924 1024 10915
 925 1025 10916
 926 1026 10917
 927 1027 10918
 928 1028 10919
 929 1029 10920
 930 1030 10921
 931 1031 10922
 932 1032 10923
 933 1033 10924
 934 1034 10925
 935 1035 10926
 936 1036 10927
 937 1037 10928
 938 1038 10929
 939 1039 10930
 940 1040 10931
 941 1041 10932
 942 1042 10933
 943 1043 10934
 944 1044 10935
 945 1045 10936
 946 1046 10937
 947 1047 10938
 948 1048 10939
 949 1049 10940
 950 1050 10941
 951 1051 10942
 952 1052 10943
 953 1053 10944
 954 1054 10945
 955 1055 10946
 956 1056 10947
 957 1057 10948
 958 1058 10949
 959 1059 10950
 960 1060 10951
 961 1061 10952
 962 1062 10953
 963 1063 10954
 964 1064 10955
 965 1065 10956
 966 1066 10957
 967 1067 10958
 968 1068 10959
 969 1069 10960
 970 1070 10961
 971 1071 10962
 972 1072 10963
 973 1073 10964
 974 1074 10965
 975 1075 10966
 976 1076 10967
 977 1077 10968
 978 1078 10969
 979 1079 10970
 980 1080 10971
 981 1081 10972
 982 1082 10973
 983 1083 10974
 984 1084 10975
 985 1085 10976
 986 1086 10977
 987 1087 10978
 988 1088 10979
 989 1089 10980
 990 1090 10981
 991 1091 10982
 992 1092 10983
 993 1093 10984
 994 1094 10985
 995 1095 10986
 996 1096 10987
 997 1097 10988
 998 1098 10989
 1000 1100 10990
 1001 1101 10991
 1002 1102 10992
 1003 1103 10993
 1004 1104 10994
 1005 1105 10995
 1006 1106 10996
 1007 1107 10997
 1008 1108 10998
 1009 1109 10999
 1010 1110 11000
 1011 1111 11001
 1012 1112 11002
 1013 1113 11003
 1014 1114 11004
 1015 1115 11005
 1016 1116 11006
 1017 1117 11007
 1018 1118 11008
 1019 1119 11009
 1020 1120 11010
 1021 1121 11011
 1022 1122 11012
 1023 1123 11013
 1024 1124 11014
 1025 1125 11015
 1026 1126 11016
 1027 1127 11017
 1028 1128 11018
 1029 1129 11019
 1030 1130 11020
 1031 1131 11021
 1032 1132 11022
 1033 1133 11023
 1034 1134 11024
 1035 1135 11025
 1036 1136 11026
 1037 1137 11027
 1038 1138 11028
 1039 1139 11029
 1040 1140 11030
 1041 1141 11031
 1042 1142 11032
 1043 1143 11033
 1044 1144 11034
 1045 1145 11035
 1046 1146 11036
 1047 1147 11037
 1048 1148 11038
 1049 1149 11039
 1050 1150 11040
 1051 1151 11041
 1052 1152 11042
 1053 1153 11043
 1054 1154 11044
 1055 1155 11045
 1056 1156 11046
 1057 1157 11047
 1058 1158 11048
 1059 1159 11049
 1060 1160 11050
 1061 1161 11051
 1062 1162 11052
 1063 1163 11053
 1064 1164 11054
 1065 1165 11055
 1066 1166 11056
 1067 1167 11057
 1068 1168 11058
 1069 1169 11059
 1070 1170 11060
 1071 1171 11061
 1072 1172 11062
 1073 1173 11063
 1074 1174 11064
 1075 1175 11065
 1076 1176 11066
 1077 1177 11067
 1078 1178 11068
 1079 1179 11069
 1080 1180 11070
 1081 1181 11071
 1082 1182 11072
 1083 1183 11073
 1084 1184 11074
 1085 1185 11075
 1086 1186 11076
 1087 1187 11077
 1088 1188 11078
 1089 1189 11079
 1090 1190 11080
 1091 1191 11081
 1092 1192 11082
 1093 1193 11083
 1094 1194 11084
 1095 1195 11085
 1096 1196 11086
 1097 1197 11087
 1098 1198 11088
 1100 1200 11089
 1101 1201 11090
 1102 1202 11091
 1103 1203 11092
 1104 1204 11093
 1105 1205 11094
 1106 1206 11095
 1107 1207 11096
 1108 1208 11097
 1109 1209 11098
 1110 1210 11099
 1111 1211 11100
 1112 1212 11101
 1113 1213 11102
 1114 1214 11103
 1115 1215 11104
 1116 1216 11105
 1117 1217 11106
 1118 1218 11107
 1119 1219 11108
 1120 1220 11109
 1121 1221 11110
 1122 1222 11111
 1123 1223 11112
 1124 1224 11113
 1125 1225 11114
 1126 1226 11115
 1127 1227 11116
 1128 1228 11117
 1129 1229 11118
 1130 1230 11119
 1131 1231 11120
 1132 1232 11121
 1133 1233 11122
 1134 1234 11123
 1135 1235 11124
 1136 1236 11125
 1137 1237 11126
 1138 1238 11127
 1139 1239 11128
 1140 1240 11129
 1141 1241 11130
 1142 1242 11131
 1143 1243 11132
 1144 1244 11133
 1145 1245 11134
 1146 1246 11135
 1147 1247 11136
 1148 1248 11137
 1149 1249 11138
 1150 1250 11139
 1151 1251 11140
 1152 1252 11141
 1153 1253 11142
 1154 1254 11143
 1155 1255 11144
 1156 1256 11145
 1157 1257 11146
 1158 1258 11147
 1159 1259 11148
 1160 1260 11149
 1161 1261 11150
 1162 1262 11151
 1163 1263 11152
 1164 1264 11153
 1165 1265 11154
 1166 1266 11155
 1167 1267 11156
 1168 1268 11157
 1169 1269 11158
 1170 1270 11159
 1171 1271 11160
 1172 1272 11161
 1173 1273 11162
 1174 1274 11163
 1175 1275 11164
 1176 1276 11165
 1177 1277 11166
 1178 1278 11167
 1179 1279 11168
 1180 1280 11169
 1181 1281 11170
 1182 1282 11171
 1183 1283 11172
 1184 1284 11173
 1185 1285 11174
 1186 1286 11175
 1187 1287 11176
 1188 1288 11177
 1189 1289 11178
 1190 1290 11179
 1191 1291 11180
 1192 1292 11181
 1193 1293 11182
 1194 1294 11183
 1195 1295 11184
 1196 1296 11185
 1197 1297 11186
 1198 1298 11187
 1200 1300 11188
 1201 1301 11189
 1202 1302 11190
 1203 1303 11191
 1204 1304 11192
 1205 1305 11193
 1206 1306 11194
 1207 1307 11195
 1208 1308 11196
 1209 1309 11197
 1210 1310 11198
 1211 1311 11199
 1212 1312 11200
 1213 1313 11201
 1214 1314 11202
 1215 1315 11203
 1216 1316 11204
 1217 1317 11205
 1218 1318 11206
 1219 1319 11207
 1220 1320 11208
 1221 1321 11209
 1222 1322 11210
 1223 1323 11211
 1224 1324 11212
 1225 1325 11213
 1226 1326 11214
 1227 1327 11215
 1228 1328 11216
 1229 1329 11217
 1230 1330 11218
 1231 1331 11219
 1232 1332 11220
 1233 1333 11221
 1234 1334 11222
 1235 1335 11223
 1236 1336 11224
 1237 1337 11225
 1238 1338 11226
 1239 1339 11227
 1240 1340 11228
 1241 1341 11229
 1242 1342 11230
 1243 1343 11231
 1244 1344 11232
 1245 1345 11233
 1246 1346 11234
 1247 1347 11235
 1248 1348 11236
 1249 1349 11237
 1250 1350 11238
 1251 1351 11239
 1252 1352 11240
 1253 1353 11241
 1254 1354 11242
 1255 1355 11243
 1256 1356 11244
 1257 1357 11245
 1258 1358 11246
 1259 1359 11247
 1260 1360 11248
 1261 1361 11249
 1262 1362 11250
 1263 1363 11251
 1264 1364 11252
 1265 1365 11253
 1266 1366 11254
 1267 1367 11255
 1268 1368 11256
 1269 1369 11257
 1270 1370 11258
 1271 1371 11259
 1272 1372 11260
 1273 1373 11261
 1274 1374 11262
 1275 1375 11263
 1276 1376 11264
 1277 1377 11265
 1278 1378 11266
 1279 1379 11267
 1280 1380 11268
 1281 1381 11269
 1282 1382 11270
 1283 1383 11271
 1284 1384 11272
 1285 1385 11273
 1286 1386 11274
 1287 1387 11275
 1288 1388 11276
 1289 1389 11277
 1290 1390 11278
 1291 1391 11279
 1292 1392 11280
 1293 1393 11281
 1294 1394 11282
 1295 1395 11283
 1296 1396 11284
 1297 1397 11285
 1298 1398 11286
 1300 1400 11287
 1301 1401 11288
 1302 1402 11289
 1303 1403 11290
 1304 1404 11291
 1305 1405 11292
 1306 1406 11293
 1307 1407 11294
 1308 1408 11295
 1309 1409 11296
 1310 1410 11297
 1311 1411 11298
 1312 1412 11299
 1313 1413 11300
 1314 1414 11301
 1315 1415 11302
 1316 1416 11303
 1317 1417 11304
 1318 1418 11305
 1319 1419 11306
 1320 1420 11307
 1321 1421 11308
 1322 1422 11309
 1323 1423 11310
 1324 1424 11311
 1325 1425 11312
 1326 1426 11313
 1327 1427 11314
 1328 1428 11315
 1329 1429 11316
 1330 1430 11317
 1331 1431 11318
 1332 1432 11319
 1333 1433 11320
 1334 1434 11321
 1335 1435 11322
 1336 1436 11323
 1337 1437 11324
 1338 1438 11325
 1339 1439 11326
 1340 1440 11327
 1341 1441 11328
 1342 1442 11329
 1343 1443 11330
 1344 1444 11331
 1345 1445 11332
 1346 1446 11333
 1347 1447 11334
 1348 1448 11335
 1349 1449 11336
 1350 1450 11337
 1351 1451 11338
 1352 1452 11339
 1353 1453 11340
 1354 1454 11341
 1355 1455 11342
 1356 1456 11343
 1357 1457 11344
 1358 1458 11345
 1359 1459 11346
 1360 1460 11347
 1361 1461 11348
 1362 1462 11349
 1363 1463 11350
 1364 1464 11351
 1365 1465 11352
 1366 1466 11353
 1367 1467 11354
 1368 1468 11355
 1369 1469 11356
 1370 1470 11357
 1371 1471 11358
 1372 1472 11359
 1373 1473 11360
 1374 1474 11361
 1375 1475 11362
 1376 1476 11363
 1377 1477 11364
 1378 1478 11365
 1379 1479 11366
 1380 1480 11367
 1381 1481 11368
 1382 1482 11369
 1383 1483 11370
 1384 1484 11371
 1385 1485 11372
 1386 1486 11373
 1387 1487 11374
 1388 1488 11375
 1389 1489 11376
 1390 1490 11377
 1391 1491 11378
 1392 1492 11379
 1393 1493 11380
 1394 1494 11381
 1395 1495 11382
 1396 1496 11383
 1397 1497 11384
 1398 1498 11385
 1400 1500 11386
 1401 1501 11387
 1402 1502 11388
 1403 1503 11389
 1404 1504 11390
 1405 1505 11391
 1406 1506 11392
 1407 1507 11393
 1408 1508 11394
 1409 1509 11395
 1410 1510 11396
 1411 1511 11397
 1412 1512 11398
 1413 1513 11399
 1414 1514 11400
 1415 1515 11401
 1416 1516 11402
 1417 1517 11403
 1418 1518 11404
 1419 1519 11405
 1420 1520 11406
 1421 1521 11407
 1422 1522 11408
 1423 1523 11409
 1424 1524 11410
 1425 1525 11411
 1426 1526 11412
 1427 1527 11413
 1428 1528 11414
 1429 1529 11415
 1430 1530 11416
 1431 1531 11417
 1432 1532 11418
 1433 1533 11419
 1434 1534 11420
 1435 1535 11421
 1436 1536 11422
 1437 1537 11423
 1438 1538 11424
 1439 1539 11425
 1440 1540 11426
 1441 1541 11427
 1442 1542 11428
 1443 1543 11429
 1444 1544 11430
 1445 1545 11431
 1446 1546 11432
 1447 1547 11433
 1448 1548 11434
 1449 1549 11435
 1450 1550 11436
 1451 1551 11437
 1452 1552 11438
 1453 1553 11439
 1454 1554 11440
 1455 1555 11441
 1456 1556 11442
 1457 1557 11443
 1458 1558 11444
 1459 1559 11445
 1460 1560 11446
 1461 1561 11447
 1462 1562 11448
 1463 1563 11449
 1464 1564 11450
 1465 1565 11451
 1466 1566 11452
 1467 1567 11453
 1468 1568 11454
 1469 1569 11455
 1470 1570 11456
 1471 1571 11457
 1472 1572 11458
 1473 1573 11459
 1474 1574 11460
 1475 1575 11461
 1476 1576 11462
 1477 1577 11463
 1478 1578 11464
 1479 1579 11465
 1480 1580 11466
 1481 1581 11467
 1482 1582 11468
 1483 1583 11469
 1484 1584 11470
 1485 1585 11471
 1486 1586 11472
 1487 1587 11473
 1488 1588 11474
 1489 1589 11475
 1490 1590 11476
 1491 1591 11477
 1492 1592 11478
 1493 1593 11479
 1494 1594 11480
 1495 1595 11481
 1496 1596 11482
 1497 1597 11483
 1498 1598 11484
 1500 1600 11485
 1501 1601 11486
 1502 1602 11487
 1503 1603 11488
 1504 1604 11489
 1505 1605 11490
 1506 1606 11491
 1507 1607 11492
 1508 1608 11493
 1509 1609 11494
 1510 1610 11495
 1511 1611 11496
 1512 1612 11497
 1513 1613 11498
 1514 1614 11499
 1515 1615 11500
 1516 1616 11501
 1517 1617 11502
 1518 1618 11503
 1519 1619 11504
 1520 1620 11505
 1521 1621 11506
 1522 1622 11507
 1523 1623 11508
 1524 1624 11509
 1525 1625 11510
 1526 1626 11511
 1527 1627 11512
 1528 1628 11513
 1529 1629 11514
 1530 1630 11515
 1531 1631 11516
 1532 1632 11517
 1533 1633 11518
 1534 1634 11519
 1535 1635 11520
 1536 1636 11521
 1537 1637 11522
 1538 1638 11523
 1539 1639 11524
 1540 1640 11525
 1541 1641 11526
 1542 1642 11527
 1543 1643 11528
 1544 1644 11529
 1545 1645 11530
 1546 1646 11531
 1547 1647 11532
 1548 1648 11533
 1549 1649 11534
 1550 1650 11535
 1551 1651 11536
 1552 1652 11537
 1553 1653 11538
 1554 1654 11539
 1555 1655 11540
 1556 1656 11541
 1557 1657 11542
 1558 1658 11543
 1559 1659 11544
 1560 1660 11545
 1561 1661 11546
 1562 1662 11547
 1563 1663 11548
 1564 1664 11549
 1565 1665 11550
 1566 1666 11551
 1567 1667 11552
 1568 1668 11553
 1569 1669 11554
 1570 1670 11555
 1571 1671 11556
 1572 1672 11557
 1573 1673 11558
 1574 1674 11559
 1575 1675 11560
 1576 1676 11561
 1577 1677 11562
 1578 1678 11563
 1579 1679 11564
 1580 1680 11565
 1581 1681 11566
 1582 1682 11567
 1583 1683 11568
 1584 1684 11569
 1585 1685 11570
 1586 1686 11571
 1587 1687 11572
 1588 1688 11573
 1589 1689 11574
 1590 1690 11575
 1591 1691 11576
 1592 1692 11577
 1593 1693 11578
 1594 1694 11579
 1595 1695 11580
 1596 1696 11581
 1597 1697 11582
 1598 1698 11583
 1600 1700 11584
 1601 1701 11585
 1602 1702 11586
 1603 1703 11587
 1604 1704 11588
 1605 1705 11589
 1606 1706 11590
 1607 1707 11591
 1608 1708 11592
 1609 1709 11593
 1610 1710 11594
 1611 1711 11595
 1612 1712 11596
 1613 1713 11597
 1614 1714 11598
 1615 1715 11599
 1616 1716 11600
 1617 1717 11601
 1618 1718 11602
 1619 1719 11603
 1620 1720 11604
 1621 1721 11605
 1622 1722 11606
 1623 1723 11607
 1624 1724 11608
 1625 1725 11609
 1626 1726 11610
 1627 1727 11611
 1628 1728 11612
 1629 1729 11613
 1630 1730 11614
 1631 1731 11615
 1632 1732 11616
 1633 1733 11617
 1634 1734 11618
 1635 1735 11619
 1636 1736 11620
 1637 1737 11621
 1638 1738 11622
 1639 1739 11623
 1640 1740 11624
 1641 1741 11625
 1642 1742 11626
 1643 1743 11627
 1644 1744 11628
 1645 1745 11629
 1646 1746 11630
 1647 1747 11631
 1648 1748 11632
 1649 1749 11633
 1650 1750 11634
 1651 1751 11635
 1652 1752 11636
 1653 1753 11637
 1654 1754 11638
 1655 1755 11639
 1656 1756 11640
 1657 1757 11641
 1658 1758 11642
 1659 1759 11643
 1660 1760 11644
 1661 1761 11645
 1662 1762 11646
 1663 1763 11647
 1664 1764 11648
 1665 1765 11649
 1666 1766 11650
 1667 1767 11651
 1668 1768 11652
 1669 1769 11653
 1670 1770 11654
 1671 1771 11655
 1672 1772 11656
 1673 1773 11657
 1674 1774 11658
 1675 1775 11659
 1676 1776 11660
 1677 1777 11661
 1678 1778 11662
 1679 1779 11663
 1680 1780 11664
 1681 1781 11665
 1682 1782 11666
 1683 1783 11667
 1684 1784 11668
 1685 1785 11669
 1686 1786 11670
 1687 1787 11671
 1688 1788 11672
 1689 1789 11673
 1690 1790 11674
 1691 1791 11675
 1692 1792 11676
 1693 1793 11677
 1694 1794 11678
 1695 1795 11679
 1696 1796 11680
 1697 1797 11681
 1698 1798 11682
 1700 1800 11683
 1701 1801 11684
 1702 1802 11685
 1703 1803 11686
 1704 1804 11687
 1705 1805 11688
 1706 1806 11689
 1707 1807 11690
 1708 1808 11691
 1709 1809 11692
 1710 1810 11693
 1711 1811 11694
 1712 1812 11695
 1713 1813 11696
 1714 1814 11697
 1715 1815 11698
 1716 1816 11699
 1717 1817 11700
 1718 1818 11701
 1719 1819 11702
 1720 1820 11703
 1721 1821 11704
 1722 1822 11705
 1723 1823 11706
 1724 1824 11707
 1725 1825 11708
 1726 1826 11709
 1727 1827 11710
 1728 1828 11711
 1729 1829 11712
 1730 1830 11713
 1731 1831 11714
 1732 1832 11715
 1733 1833 11716
 1734 1834 11717
 1735 1835 11718
 1736 1836 11719
 1737 1837 11720
 1738 1838 11721
 1739 1839 11722
 1740 1840 11723
 1741 1841 11724
 1742 1842 11725
 1743 1843 11726
 1744 1844 11727
 1745 1845 11728
 1746 1846 11729
 1747 1847 11730
 1748 1848 11731
 1749 1849 11732
 1750 1850 11733
 1751 1851 11734
 1752 1852 11735
 1753 1853 11736
 1754 1854 11737
 1755 1855 11738
 1756 1856 11739
 1757 1857 11740
 1758 1858 11741
 1759 1859 11742
 1760 1860 11743
 1761 1861 11744
 1762 1862 11745
 1763 1863 11746
 1764 1864 11747
 1765 1865 11748
 1766 1866 11749
 1767 1867 11750
 1768 1868 11751
 1769 1869 11752
 1770 1870 11753
 1771 1871 11754
 1772 1872 11755
 1773 1873 11756
 1774 1874 11757
 1775 1875 11758
 1776 1876 11759
 1777 1877 11760
 1778 1878 11761
 1779 1879 11762
 1780 1880 11763
 1781 1881 11764
 1782 1882 11765
 1783 1883 11766
 1784 1884 11767
 1785 1885 11768
 1786 1886 11769
 1787 1887 11770
 1788 1888 11771
 1789 1889 11772
 1790 1890 11773
 1791 1891 11774
 1792 1892 11775
 1793 1893 11776
 1794 1894 11777
 1795 1895 11778
 1796 1896 11779
 1797 1897 11780
 1798 1898 11781
 1800 1900 11782
 1801 1901 11783
 1802 1902 11784
 1803 1903 11785
 1804 1904 11786
 1805 1905 11787
 1806 1906 11788
 1807 1907 11789
 1808 1908 11790
 1809 1909 11791
 1810 1910 11792
 1811 1911 11793
 1812 1912 11794
 1813 1913 11795
 1814 1914 11796
 1815 1915 11797
 1816 1916 11798
 1817 1917 11799
 1818 1918 11800
 1819 1919 11801
 1820 1920 11802
 1821 1921 11803
 1822 1922 11804
 1823 1923 11805
 1824 1924 11806
 1825 1925 11807
 1826 1926 11808
 1827 1927 11809
 1828 1928 11810
 1829 1929 11811
 1830 1930 11812
 1831 1931 11813
 1832 1932 11814
 1833 1933 11815
 1834 1934 11816
 1835 1935 11817
 1836 1936 11818
 1837 1937 11819
 1838 1938 11820
 1839 1939 11821
 1840 1940 11822
 1841 1941 11823
 1842 1942 11824
 1843 1943 11825
 1844 1944 11826
 1845 1945 11827
 1846 1946 11828
 1847 1947 11829
 1848 1948 11830
 1849 1949 11831
 1850 1950 11832
 1851 1951 11833
 1852 1952 11834
 1853 1953 11835
 1854 1954 11836
 1855 1955 11837
 1856 1956 11838
 1857 1957 11839
 1858 1958 11840
 1859 1959 11841
 1860 1960 11842
 1861 1961 11843
 1862 1962 11844
 1863 1963 11845
 1864 1964 11846
 1865 1965 11847
 1866 1966 11848
 1867 1967 11849
 1868 1968 11850
 1869 1969 11851
 1870 1970 11852
 1871 1971 11853
 1872 1972 11854
 1873 1973 11855
 1874 1974 11856
 1875 1975 11857
 1876 1976 11858
 1877 1977 11859
 1878 1978 11860
 1879 1979 11861
 1880 1980 11862
 1881 1981 11863
 1882 1982 11864
 1883 1983 11865
 1884 1984 11866
 1885 1985 11867
 1886 1986 11868
 1887 1987 11869
 1888 1988 11870
 1889 1989 11871
 1890 1990 11872
 1891 1991 11873
 1892 1992 11874
 1893 1993 11875
 1894 1994 11876
 1895 1995 11877
 1896 1996 11878
 1897 1997 11879
 1898 1998 11880
 1900 2000 11881
 1901 2001 11882
 1902 2002 11883
 1903 2003 11884
 1904 2004 11885
 1905 2005 11886
 1906 2006 11887
 1907 2007 11888
 1908 2008 11889
 1909 2009 11890
 1910 2010 11891
 1911 2011 11892
 1912 2012 11893
 1913 2013 11894
 1914 2014 11895
 1915 2015 11896
 1916 2016 11897
 1917 2017 11898
 1918 2018 11899
 1919 2019 11900
 1920 2020 11901
 1921 2021 11902
 1922 2022 11903
 1923 2023 11904
 1924 2024 11905
 1925 2025 11906
 1926 2026 11907
 1927 2027 11908
 1928 2028 11909
 1929 2029 11910
 1930 2030 11911
 1931 2031 11912
 1932 2032 11913
 1933 2033 11914
 1934 2034 11915
 1935 2035 11916
 1936 2036 11917
 1937 2037 11918
 1938 2038 11919
 1939 2039 11920
 1940 2040 11921
 1941 2041 11922
 1942 2042 11923
 1943 2043 11924
 1944 2044 11925
 1945 2045 11926
 1946 2046 11927
 1947 2047 11928
 1948 2048 11929
 1949 2049 11930
 1950 2050 11931
 1951 2051 11932
 1952 2052 11933
 1953 2053 11934
 1954 2054 11935
 1955 2055 11936
 1956 2056 11937
 1957 2057 11938
 1958 2058 11939
 1959 2059 11940
 1960 2060 11941
 1961 2061 11942
 1962 2062 11943
 1963 2063 11944
 1964 2064 11945
 1965 2065 11946
 1966 2066 11947
 1967 2067 11948
 1968 2068 11949
 1969 2069 11950
 1970 2070 11951
 1971 2071 11952
 1972 2072 11953
 1973 2073 11954
 1974 2074 11955
 1975 2075 11956
 1976 2076 11957
 1977 2077 11958
 1978 2078 11959
 1979 2079 11960
 1980 2080 11961
 1981 2081 11962
 1982 2082 11963
 1983 2083 11964
 1984 2084 11965
 1985 2085 11966
 1986 2086 11967
 1987 2087 11968
 1988 2088 11969
 1989 2089 11970
 1990 2090 11971
 1991 2091 11972
 1992 2092 11973
 1993 2093 11974
 1994 2094 11975
 1995 2095 11976
 1996 2096 11977
 1997 2097 11978
 1998 2098 11979
 2000 2100 11980
 2001 2101 11981
 2002 2102 11982
 2003 2103 11983
 2004 2104 11984
 2005 2105 11985
 2006 2106 11986
 2007 2107 11987
 2008 2108 11988
 2009 2109 11989
 2010 2110 11990
 2011 2111 11991
 2012 2112 11992
 2013 2113 11993
 2014 2114 11994
 2015 2115 11995
 2016 2116 11996
 2017 2117 11997
 2018 2118 11998
 2019 2119 11999
 2020 2120 12000
 2021 2121 12001
 2022 2122 12002
 2023 2123 12003
 2024 2124 12004
 2025 2125 12005
 2026 2126 12006
 2027 2127 12007
 2028 2128 12008
 2029 2129 12009
 2030 2130 12010
 2031 2131 12011
 2032 2132 12012
 2033 2133 12013
 2034 2134 12014
 2035 2135 12015
 2036 2136 12016
 2037 2137 12017
 2038 2138 12018
 2039 2139 12019
 2040 2140 12020
 2041 2141 12021
 2042 2142 12022
 2043 2143 12023
 2044 2144 12024
 2045 2145 12025
 2046 2146 12026
 2047 2147 12027
 2048 2148 12028
 2049 2149 12029
 2050 2150 12030
 2051 2151 12031
 2052 2152 12032
 2053 2153 12033
 2054 2154 12034
 2055 2155 12035
 2056 2156 12036
 2057 2157 12037
 2058 2158 12038
 2059 2159 12039
 2060 2160 12040
 2061 2161 12041
 2062 2162 12042
 2063 2163 12043
 2064 2164 12044
 2065 2165 12045
 2066 2166 12046
 2067 2167 12047
 2068 2168 12048
 2069 2169 12049
 2070 2170 12050
 2071 2171 12051
 2072 2172 12052
 2073 2173 12053
 2074 2174 12054
 2075 2175 12055
 2076 2176 12056
 2077 2177 12057
 2078 2178 12058
 2079 2179 12059
 2080 2180 12060
 2081 2181 12061
 2082 2182 12062
 2083 2183 12063
 2084 2184 12064
 2085 2185 12065
 2086 2186 12066
 2087 2187 12067
 2088 2188 12068
 2089 2189 12069
 2090 2190 12070
 2091 2191 12071
 2092 2192 12072
 2093 2193 12073
 2094 2194 12074
 2095 2195 12075
 2096 2196 12076
 2097 2197 12077
 2098 2198 12078
 2100 2200 12079
 2101 2201 12080
 2102 2202 12081
 2103 2203 12082
 2104 2204 12083
 2105 2205 12084
 2106 2206 12085
 2107 2207 12086
 2108 2208 12087
 2109 2209 12088
 2110 2210 12089
 2111 2211 12090
 2112 2212 12091
 2113 2213 12092
 2114 2214 12093
 2115 2215 12094
 2116 2216 12095
 2117 2217 12096
 2118 2218 12097
 2119 2219 12098
 2120 2220 12099
 2121 2221 12100
 2122 2222 12101
 2123 2223 12102
 2124 2224 12103
 2125 2225 12104
 2126 2226 12105
 2127 2227 12106
 2128 2228 12107
 2129 2229 12108
 2130 2230 12109
 2131 2231 12110
 2132 2232 12111
 2133 2233 12112
 2134 2234 12113
 2135 2235 12114
 2136 2236 12115
 2137 2237 12116
 2138 2238 12117
 2139 2239 12118
 2140 2240 12119
 2141 2241 12120
 2142 2242 12121
 2143 2243 12122
 2144 2244 12123
 2145 2245 12124
 2146 2246 12125
 2147 2247 12126
 2148 2248 12127
 2149 2249 12128
 2150 2250 12129
 2151 2251 12130
 2152 2252 12131
 2153 2253 12132
 2154 2254 12133
 2155 2255 12134
 2156 2256 12135
 2157 2257 12136
 2158 2258 12137
 2159 2259 12138
 2160 2260 12139
 2161 2261 12140
 2162 2262 12141
 2163 2263 12142
 2164 2264 12143
 2165 2265 12144
 2166 2266 12145
 2167 2267 12146
 2168 2268 12147
 2169 2269 12148
 2170 2270 12149
 2171 2271 12150
 2172 2272 12151
 2173 2273 12152
 2174 2274 12153
 2175 2275 12154
 2176 2276 12155
 2177 2277 12156
 2178 2278 12157
 2179 2279 12158
 2180 2280 12159
 2181 2281 12160
 2182 2282 12161
 2183 2283 12162
 2184 2284 12163
 2185 2285 12164
 2186 2286 12165
 2187 2287 12166
 2188 2288 12167
 2189 2289 12168
 2190 2290 12169
 2191 2291 12170
 2192 2292 12171
 2193 2293 12172
 2194 2294 12173
 2195 2295 12174
 2196 2296 12175
 2197 2297 12176
 2198 2298 12177
 2200 2300 12178
 2201 2301 12179
 2202 2302 12180
 2203 2303 12181
 2204 2304 12182
 2205 2305 12183
 2206 2306 12184
 2207 2307 12185
 2208 2308 12186
 2209 2309 12187
 2210 2310 12188
 2211 2311 12189
 2212 2312 12190
 2213 2313 12191
 2214 2314 12192
 2215 2315 12193
 2216 2316 12194
 2217 2317 12195
 2218 2318 12196
 2219 2319 12197
 2220 2320 12198
 2221 2321 12199
 2222 2322 12200
 2223 2323 12201
 2224 2324 12202
 2225 2325 12203
 2226 2326 12204
 2227 2327 12205
 2228 2328 12206
 2229 2329 12207
 2230 2330 12208
 2231 2331 12209
 2232 2332 12210
 2233 2333 12211
 2234 2334 12212
 2235 2335 12213
 2236 2336 12214
 2237 2337 12215
 2238 2338 12216
 2239 2339 12217
 2240 2340 12218
 2241 2341 12219
 2242 2342 12220
 2243 2343 12221
 2244 2344 12222
 2245 2345 12223
 2246 2346 12224
 2247 2347 12225
 2248 2348 12226
 2249 2349 12227
 2250 2350 12228
 2251 2351 12229
 2252 2352 12230
 2253 2353 12231
 2254 2354 12232
 2255 2355 12233
 2256 2356 12234
 2257 2357 12235
 2258 2358 12236
 2259 2359 12237
 2260 2360 12238
 2261 2361 12239
 2262 2362 12240
 2263 2363 12241
 2264 2364 12242
 2265 2365 12243
 2266 2366 12244
 2267 2367 12245
 2268 2368 12246
 2269 2369 12247
 2270 2370 12248
 2271 2371 12249
 2272 2372 12250
 2273 2373 12251
 2274 2374 12252
 2275 2375 12253
 2276 2376 12254
 2277 2377 12255
 2278 2378 12256
 2279 2379 12257
 2280 2380 12258
 2281 2381 12259
 2282 2382 12260
 2283 2383 12261
 2284 2384 12262
 2285 2385 12263
 2286 2386 12264
 2287 2387 12265
 2288 2388 12266
 2289 2389 12267
 2290 2390 12268
 2291 2391 12269
 2292 2392 12270
 2293 2393 12271
 2294 2394 12272
 2295 2395 12273
 2296 2396 12274
 2297 2397 12275
 2298 2398 12276
 2300 2400 12277
 2301 2401 12278
 2302 2402 12279
 2303 2403 12280
 2304 2404 12281
 2305 2405 12282
 2306 2406 12283
 2307 2407 12284
 2308 2408 12285
 2309 2409 12286
 2310 2410 12287
 2311 2411 12288
 2312 2412 12289
 2313 2413 12290
 2314 2414 12291
 2315 2415 12292
 2316 2416 12293
 2317 2417 12294
 2318 2418 12295
 2319 2419 12296
 2320 2420 12297
 2321 2421 12298
 2322 2422 12299
 2323 2423 12300
 2324 2424 12301
 2325 2425 12302
 2326 2426 12303
 2327 2427 12304
 2328 2428 12305
 2329 2429 12306
 2330 2430 12307
 2331 2431 12308
 2332 2432 12309
 2333 2433 12310
 2334 2434 12311
 2335 2435 12312
 2336 2436 12313
 2337 2437 12314
 2338 2438 12315
 2339 2439 12316
 2340 2440 12317
 2341 2441 12318
 2342 2442 12319
 2343 2443 12320
 2344 2444 12321
 2345 2445 12322
 2346 2446 12323
 2347 2447 12324
 2348 2448 12325
 2349 2449 12326
 2350 2450 12327
 2351 2451 12328
 2352 2452 12329
 2353 2453 12330
 2354 2454 12331
 2355 2455 12332
 2356 2456 12333
 2357 2457 12334
 2358 2458 12335
 2359 2459 12336
 2360 2460 12337
 2361 2461 12338
 2362 2462 12339
 2363 2463 12340
 2364 2464 12341
 2365 2465 12342
 2366 2466 12343
 2367 2467 12344
 2368 2468 12345
 2369 2469 12346
 2370 2470 12347
 2371 2471 12348
 2372 2472 12349
 2373 2473 12350
 2374 2474 12351
 2375 2475 12352
 2376 2476 12353
 2377 2477 12354
 2378 2478 12355
 2379 2479 12356
 2380 2480 12357
 2381 2481 12358
 2382 2482 12359
 2383 2483 12360
 2384 2484 12361
 2385 2485 12362
 2386 2486 12363
 2387 2487 12364
 2388 2488 12365
 2389 2489 12366
 2390 2490 12367
 2391 2491 12368
 2392 2492 12369
 2393 2493 12370
 2394 2494 12371
 2395 2495 12372
 2396 2496 12373
 2397 2497 12374
 2398 2498 12375
 2400 2500 12376
 2401 2501 12377
 2402 2502 12378
 2403 2503 12379
 2404 2504 12380
 2405 2505 12381
 2406 2506 12382
 2407 2507 12383
 2408 2508 12384
 2409 2509 12385
 2410 2510 12386
 2411 2511 12387
 2412 2512 12388
 2413 2513 12389
 2414 2514 12390
 2415 2515 12391
 2416 2516 12392
 2417 2517 12393
 2418 2518 12394
 2419 2519 12395
 2420 2520 12396
 2421 2521 12397
 2422 2522 12398
 2423 2523 12399
 2424 2524 12400
 2425 2525 12401
 2426 2526 12402
 2427 2527 12403
 2428 2528 12404
 2429 2529 12405
 2430 2530 12406
 2431 2531 12407
 2432 2532 12408
 2433 2533 12409
 2434 2534 12410
 2435 2535 12411
 2436 2536 12412
 2437 2537 12413
 2438 2538 12414
 2439 2539 12415
 2440 2540 12416
 2441 2541 12417
 2442 2542 12418
 2443 2543 12419
 2444 2544 12420
 2445 2545 12421
 2446 2546 12422
 2447 2547 12423
 2448 2548 12424
 2449 2549 12425
 2450 2550 12426
 2451 2551 12427
 2452 2552 12428
 2453 2553 12429
 2454 2554 12430
 2455 2555 12431
 2456 2556 12432
 2457 2557 12433
 2458 2558 12434
 2459 2559 12435
 2460 2560 12436
 2461 2561 12437
 2462 2562 12438
 2463 2563 12439
 2464 2564 12440
 2465 2565 12441
 2466 2566 12442
 2467 2567 12443
 2468 2568 12444
 2469 2569 12445
 2470 2570 12446
 2471 2571 12447
 2472 2572 12448
 2473 2573 12449
 2474 2574 12450
 2475 2575 12451
 2476 2576 12452
 2477 2577 12453
 2478 2578 12454
 2479 2579 12455
 2480 2580 12456
 2481 2581 12457
 2482 2582 12458
 2483 2583 12459
 2484 2584 12460
 2485 2585 12461
 2486 2586 12462
 2487 2587 12463
 2488 2588 12464
 2489 2589 12465
 2490 2590 12466
 2491 2591 12467
 2492 2592 12468
 2493 2593 12469
 2494 2594 12470
 2495 2595 12471
 2496 2596 12472
 2497 2597 12473
 2498 2598 12474
 2500 2600 12475
 2501 2601 12476
 2502 2602 12477
 2503 2603 12478
 2504 2604 12479
 2505 2605 12480
 2506 2606 12481
 2507 2607 12482
 2508 2608 12483
 2509 2609 12484
 2510 2610 12485
 2511 2611 12486
 2512 2612 12487
 2513 2613 12488
 2514 2614 12489
 2515 2615 12490
 2516 2616 12491
 2517 2617 12492
 2518 2618 12493
 2519 2619 12494
 2520 2620 12495
 2521 2621 12496
 2522 2622 12497
 2523 2623 12498
 2524 2624 12499
 2525 2625 12500
 2526 2626 12501
 2527 2627 12502
 2528 2628 12503
 2529 2629 12504
 2530 2630 12505
 2531 2631 12506
 2532 2632 12507
 2533 2633 12508
 2534 2634 12509
 2535 2635 12510
 2536 2636 12511
 2537 2637 12512
 2538 2638 12513
 2539 2639 12514
 2540 2640 12515
 2541 2641 12516
 2542 2642 12517
 2543 2643 12518
 2544 2644 12519
 2545 2645 12520
 2546 2646 12521
 2547 2647 12522
 2548 2648 12523
 2549 2649 12524
 2550 2650 12525
 2551 2651 12526
 2552 2652 12527
 2553 2653 12528
 2554 2654 12529
 2555 2655 12530
 2556 2656 12531
 2557 2657 12532
 2558 2658 12533
 2559 2659 12534
 2560 2660 12535
 2561 2661 12536
 2562 2662 12537
 2563 2663 12538
 2564 2664 12539
 2565 2665 12540
 2566 2666 12541
 2567 2667 12542
 2568 2668 12543
 2569 2669 12544
 2570 2670 12545
 2571 2671 12546
 2572 2672 12547
 2573 2673 12548
 2574 2674 12549
 2575 2675 12550
 2576 2676 12551
 2577 2677 12552
 2578 2678 12553
 2579 2679 12554
 2580 2680 12555
 2581 2681 12556
 2582 2682 12557
 2583 2683 12558
 2584 2684 12559
 2585 2685 12560
 2586 2686 12561
 2587 2687 12562
 2588 2688 12563
 2589 2689 12564
 2590 2690 12565
 2591 2691 12566
 2592 2692 12567
 2593 2693 12568
 2594 2694 12569
 2595 2695 12570
 2596 2696 12571
 2597 2697 12572
 2598 2698 12573
 2600 2700 12574
 2601 2701 12575
 2602 2702 12576
 2603 2703 12577
 2604 2704 12578
 2605 2705 12579
 2606 2706 12580
 2607 2707 12581
 2608 2708 12582
 2609 2709 12583
 2610 2710 12584
 2611 2711 12585
 2612 2712 12586
 2613 2713 12587
 2614 2714 12588
 2615 2715 12589
 2616 2716 12590
 2617 2717 12591
 2618 2718 12592
 2619 2719 12593
 2620 2720 12594
 2621 2721 12595
 2622 2722 12596
 2623 2723 12597
 2624 2724 12598
 2625 2725 12599
 2626 2726 12600
 2627 2727 12601
 2628 2728 12602
 2629 2729 12603
 2630 2730 12604
 2631 2731 12605
 2632 2732 12606
 2633 2733 12607
 2634 2734 12608
 2635 2735 12609
 2636 2736 12610
 2637 2737 12611
 2638 2738 12612
 2639 2739 12613
 2640 2740 12614
 2641 2741 12615
 2642 2742 12616
 2643 2743 12617
 2644 2744 12618
 2645 2745 12619
 2646 2746 12620
 2647 2747 12621
 2648 2748 12622
 2649 2749 12623
 2650 2750 12624
 2651 2751 12625
 2652 2752 12626
 2653 2753 12627
 2654 2754 12628
 2655 2755 12629
 2656 2756 12630
 2657 2757 12631
 2658 2758 12632
 2659 2759 12633
 2660 2760 12634
 2661 2761 12635
 2662 2762 12636
 2663 2763 12637
 2664 2764 12638
 2665 2765 12639
 2666 2766 12640
 2667 2767 12641
 2668 2768 12642
 2669 2769 12643
 2670 2770 12644
 2671 2771 12645
 2672 2772 12646
 2673 2773 12647
 2674 2774 12648
 2675 2775 12649
 2676 2776 12650
 2677 2777 12651
 2678 2778 12652
 2679 2779 12653
 2680 2780 12654
 2681 2781 12655
 2682 2782 12656
 2683 2783 12657
 2684 2784 12658
 2685 2785 12659
 2686 2786 12660
 2687 2787 12661
 2688 2788 12662
 2689 2789 12663
 2690 2790 12664
 2691 2791 12665
 2692 2792 12666
 2693 2793 12667
 2694 2794 12668
 2695 2795 12669
 2696 2796 12670
 2697 2797 12671
 2698 2798 12672
 2700 2800 12673
 2701 2801 12674
 2702 2802 12675
 2703 2803 12676
 2704 2804 12677
 2705 2805 12678
 2706 2806 12679
 2707 2807 12680
 2708 2808 12681
 2709 2809 12682
 2710 2810 12683
 2711 2811 12684
 2712 2812 12685
 2713 2813 12686
 2714 2814 12687
 2715 2815 12688
 2716 2816 12689
 2717 2817 12690
 2718 2818 12691
 2719 2819 12692
 2720 2820 12693
 2721 2821 12694
 2722 2822 12695
 2723 2823 12696
 2724 2824 12697
 2725 2825 12698
 2726 2826 12699
 2727 2827 12700
 2728 2828 12701
 2729 2829 12702
 2730 2830 12703
 2731 2831 12704
 2732 2832 12705
 2733 2833 12706
 2734 2834 12707
 2735 2835 12708
 2736 2836 12709
 2737 2837 12710
 2738 2838 12711
 2739 2839 12712
 2740 2840 12713
 2741 2841 12714
 2742 2842 12715
 2743 2843 12716
 2744 2844 12717
 2745 2845 12718
 2746 2846 12719
 2747 2847 12720
 2748 2848 12721
 2749 2849 12722
 2750 2850 12723
 2751 2851 12724
 2752 2852 12725
 2753 2853 12726
 2754 2854 12727
 2755 2855 12728
 2756 2856 12729
 2757 2857 12730
 2758 2858 12731
 2759 2859 12732
 2760 2860 12733
 2761 2861 12734
 2762 2862 12735
 2763 2863 12736
 2764 2864 12737
 2765 2865 12738
 2766 2866 12739
 2767 2867 12740
 2768 2868 12741
 2769 2869 12742
 2770 2870 12743
 2771 2871 12744
 2772 2872 12745
 2773 2873 12746
 2774 2874 12747
 2775 2875 12748
 2776 2876 12749
 2777 2877 12750
 2778 2878 12751
 2779 2879 12752
 2780 2880 12753
 2781 2881 12754
 2782 2882 12755
 2783 2883 12756
 2784 2884 12757
 2785 2885 12758
 2786 2886 12759
 2787 2887 12760
 2788 2888 12761
 2789 2889 12762
 2790 2890 12763
 2791 2891 12764
 2792 2892 12765
 2793 2893 12766
 2794 2894 12767
 2795 2895 12768
 2796 2896 12769
 2797 2897 12770
 2798 2898 12771
 2800 2900 12772
 2801 2901 12773
 2802 2902 12774
 2803 2903 12775
 2804 2904 12776
 2805 2905 12777
 2806 2906 12778
 2807 2907 12779
 2808 2908 12780
 2809 2909 12781
 2810 2910 12782
 2811 2911 12783
 2812 2912 12784
 2813 2913 12785
 2814 2914 12786
 2815 2915 12787
 2816 2916 12788
 2817 2917 12789
 2818 2918 12790
 2819 2919 12791
 2820 2920 12792
 2821 2921 12793
 2822 2922 12794
 2823 2923 12795
 2824 2924 12796
 2825 2925 12797
 2826 2926 12798
 2827 2927 12799
 2828 2928 12800
 2829 2929 12801
 2830 2930 12802
 2831 2931 12803
 2832 2932 12804
 2833 2933 12805
 2834 2934 12806
 2835 2935 12807
 2836 2936 12808
 2837 2937 12809
 2838 2938 12810
 2839 2939 12811
 2840 2940 12812
 2841 2941 12813
 2842 2942 12814
 2843 2943 12815
 2844 2944 12816
 2845 2945 12817
 2846 2946 12818
 2847 2947 12819
 2848 2948 12820
 2849 2949 12821
 2850 2950 12822
 2851 2951 12823
 2852 2952 12824
 2853 2953 12825
 2854 2954 12826
 2855 2955 12827
 2856 2956 12828
 2857 2957 12829
 2858 2958 12830
 2859 2959 12831
 2860 2960 12832
 2861 2961 12833
 2862 2962 12834
 2863 2963 12835
 2864 2964 12836
 2865 2965 12837
 2866 2966 12838
 2867 2967 12839
 2868 2968 12840
 2869 2969 12841
 2870 2970 12842
 2871 2971 12843
 2872 2972 12844
 2873 2973 12845
 2874 2974 12846
 2875 2975 12847
 2876 2976 12848
 2877 2977 12849
 2878 2978 12850
 2879 2979 12851
 2880 2980 12852
 2881 2981 12853
 2882 2982 12854
 2883 2983 12855
 2884 2984 12856
 2885 2985 12857
 2886 2986 12858
 2887 2987 12859
 2888 2988 12860
 2889 2989 12861
 2890 2990 12862
 2891 2991 12863
 2892 2992 12864
 2893 2993 12865
 2894 2994 12866
 2895 2995 12867
 2896 2996 12868
 2897 2997 12869
 2898 2998 12870
 2900 3000 12871
 2901 3001 12872
 2902 3002 12873
 2903 3003 12874
 2904 3004 12875
 2905 3005 12876
 2906 3006 12877
 2907 3007 12878
 2908 3008 12879
 2909 3009 12880
 2910 3010 12881
 2911 3011 12882
 2912 3012 12883
 2913 3013 12884
 2914 3014 12885
 2915 3015 12886
 2916 3016 12887
 2917 3017 12888
 2918 3018 12889
 2919 3019 12890
 2920 3020 12891
 2921 3021 12892
 2922 3022 12893
 2923 3023 12894
 2924 3024 12895
 2925 3025 12896
 2926 3026 12897
 2927 3027 12898
 2928 3028 12899
 2929 3029 12900
 2930 3030 12901
 2931 3031 12902
 2932 3032 12903
 2933 3033 12904
 2934 3034 12905
 2935 3035 12906
 2936 3036 12907
 2937 3037 12908
 2938 3038 12909
 2939 3039 12910
 2940 3040 12911
 2941 3041 12912
 2942 3042 12913
 2943 3043 12914
 2944 3044 12915
 2945 3045 12916
 2946 3046 12917
 2947 3047 12918
 2948 3048 12919
 2949 3049 12920
 2950 3050 12921
 2951 3051 12922
 2952 3052 12923
 2953 3053 12924
 2954 3054 12925
 2955 3055 12926
 2956 3056 12927
 2957 3057 12928
 2958 3058 12929
 2959 3059 12930
 2960 3060 12931
 2961 3061 12932
 2962 3062 12933
 2963 3063 12934
 2964 3064 12935
 2965 3065 12936
 2966 3066 12937
 2967 3067 12938
 2968 3068 12939
 2969 3069 12940
 2970 3070 12941
 2971 3071 12942
 2972 3072 12943
 2973 3073 12944
 2974 3074 12945
 2975 3075 12946
 2976 3076 12947
 2977 3077 12948
 2978 3078 12949
 2979 3079 12950
 2980 3080 12951
 2981 3081 12952
 2982 3082 12953
 2983 3083 12954
 2984 3084 12955
 2985 3085 12956
 2986 3086 12957
 2987 3087 12958
 2988 3088 12959
 2989 3089 12960
 2990 3090 12961
 2991 3091 12962
 2992 3092 12963
 2993 3093 12964
 2994 3094 12965
 2995 3095 12966
 2996 3096 12967
 2997 3097 12968
 2998 3098 12969
 3000 3100 12970
 3001 3101 12971
 3002 3102 12972
 3003 3103 12973
 3004 3104 12974
 3005 3105 12975
 3006 3106 12976
 3007 3107 12977
 3008 3108 12978
 3009 3109 12979
 3010 3110 12980
 3011 3111 12981
 3012 3112 12982
 3013 3113 12983
 3014 3114 12984
 3015 3115 12985
 3016 3116 12986
 3017 3117 12987
 3018 3118 12988
 3019 3119 12989
 3020 3120 12990
 3021 3121 12991
 3022 3122 12992
 3023 3123 12993
 3024 3124 12994
 3025 3125 12995
 3026 3126 12996
 3027 3127 12997
 3028 3128 12998
 3029 3129 12999
 3030 3130 13000
 3031 3131 13001
 3032 3132 13002
 3033 3133 13003
 3034 3134 13004
 3035 3135 13005
 3036 3136 13006
 3037 3137 13007
 3038 3138 13008
 3039 3139 13009
 3040 3140 13010
 3041 3141 13011
 3042 3142 13012
 3043 3143 13013
 3044 3144 13014
 3045 3145 13015
 3046 3146 13016
 3047 3147 13017
 3048 3148 13018
 3049 3149 13019
 3050 3150 13020
 3051 3151 13021
 3052 3152 13022
 3053 3153 13023
 3054 3154 13024
 3055 3155 13025
 3056 3156 13026
 3057 3157 13027
 3058 3158 13028
 3059 3159 13029
 3060 3160 13030
 3061 3161 13031
 3062 3162 13032
 3063 3163 13033
 3064 3164 13034
 3065 3165 13035
 3066 3166 13036
 3067 3167 13037
 3068 3168 13038
 3069 3169 13039
 3070 3170 13040
 3071 3171 13041
 3072 3172 13042
 3073 3173 13043
 3074 3174 13044
 3075 3175 13045
 3076 3176 13046
 3077 3177 13047
 3078 3178 13048
 3079 3179 13049
 3080 3180 13050
 3081 3181 13051
 3082 3182 13052
 3083 3183 13053
 3084 3184 13054
 3085 3185 13055
 3086 3186 13056
 3087 3187 13057
 3088 3188 13058
 3089 3189 13059
 3090 3190 13060
 3091 3191 13061
 3092 3192 13062
 3093 3193 13063
 3094 3194 13064
 3095 3195 13065
 3096 3196 13066
 3097 3197 13067
 3098 3198 13068
 3100 3200 13069
 3101 3201 13070
 3102 3202 13071
 3103 3203 13072
 3104 3204 13073
 3105 3205 13074
 3106 3206 13075
 3107 3207 13076
 3108 3208 13077
 3109 3209 13078
 3110 3210 13079
 3111 3211 13080
 3112 3212 13081
 3113 3213 13082
 3114 3214 13083
 3115 3215 13084
 3116 3216 13085
 3117 3217 13086
 3118 3218 13087
 3119 3219 13088
 3120 3220 13089
 3121 3221 13090
 3122 3222 13091
 3123 3223 13092
 3124 3224 13093
 3125 3225 13094
 3126 3226 13095
 3127 3227 13096
 3128 3228 13097
 3129 3229 13098
 3130 3230 13099
 3131 3231 13100
 3132 3232 13101
 3133 3233 13102
 3134 3234 13103
 3135 3235 13104
 3136 3236 13105
 3137 3237 13106
 3138 3238 13107
 3139 3239 13108
 3140 3240 13109
 3141 3241 13110
 3142 3242 13111
 3143 3243 13112
 3144 3244 13113
 3145 3245 13114
 3146 3246 13115
 3147 3247 13116
 3148 3248 13117
 3149 3249 13118
 3150 3250 13119
 3151 3251 13120
 3152 3252 13121
 3153 3253 13122
 3154 3254 13123
 3155 3255 13124
 3156 3256 13125
 3157 3257 13126
 3158 3258 13127
 3159 3259 13128
 3160 3260 13129
 3161 3261 13130
 3162 3262 13131
 3163 3263 13132
 3164 3264 13133
 3165 3265 13134
 3166 3266 13135
 3167 3267 13136
 3168 3268 13137
 3169 3269 13138
 3170 3270 13139
 3171 3271 13140
 3172 3272 13141
 3173 3273 13142
 3174 3274 13143
 3175 3275 13144
 3176 3276 13145
 3177 3277 13146
 3178 3278 13147
 3179 3279 13148
 3180 3280 13149
 3181 3281 13150
 3182 3282 13151
 3183 3283 13152
 3184 3284 13153
 3185 3285 13154
 3186 3286 13155
 3187 3287 13156
 3188 3288 13157
 3189 3289 13158
 3190 3290 13159
 3191 3291 13160
 3192 3292 13161
 3193 3293 13162
 3194 3294 13163
 3195 3295 13164
 3196 3296 13165
 3197 3297 13166
 3198 3298 13167
 3200 3300 13168
 3201 3301 13169
 3202 3302 13170
 3203 3303 13171
 3204 3304 13172
 3205 3305 13173
 3206 3306 13174
 3207 3307 13175
 3208 3308 13176
 3209 3309 13177
 3210 3310 13178
 3211 3311 13179
 3212 3312 13180
 3213 3313 13181
 3214 3314 13182
 3215 3315 13183
 3216 3316 13184
 3217 3317 13185
 3218 3318 13186
 3219 3319 13187
 3220 3320 13188
 3221 3321 13189
 3222 3322 13190
 3223 3323 13191
 3224 3324 13192
 3225 3325 13193
 3226 3326 13194
 3227 3327 13195
 3228 3328 13196
 3229 3329 13197
 3230 3330 13198
 3231 3331 13199
 3232 3332 13200
 3233 3333 13201
 3234 3334 13202
 3235 3335 13203
 3236 3336 13204
 3237 3337 13205
 3238 3338 13206
 3239 3339 13207
 3240 3340 13208
 3241 3341 13209
 3242 3342 13210
 3243 3343 13211
 3244 3344 13212
 3245 3345 13213
 3246 3346 13214
 3247 3347 13215
 3248 3348 13216
 3249 3349 13217
 3250 3350 13218
 3251 3351 13219
 3252 3352 13220
 3253 3353 13221
 3254 3354 13222
 3255 3355 13223
 3256 3356 13224
 3257 3357 13225
 3258 3358 13226
 3259 3359 13227
 3260 3360 13228
 3261 3361 13229
 3262 3362 13230
 3263 3363 13231
 3264 3364 13232
 3265 3365 13233
 3266 3366 13234
 3267 3367 13235
 3268 3368 13236
 3269 3369 13237
 3270 3370 13238
 3271 3371 13239
 3272 3372 13240
 3273 3373 13241
 3274 3374 13242
 3275 3375 13243
 3276 3376 13244
 3277 3377 13245
 3278 3378 13246
 3279 3379 13247
 3280 3380 13248
 3281 3381 13249
 3282 3382 13250
 3283 3383 13251
 3284 3384 13252
 3285 3385 13253
 3286 3386 13254
 3287 3387 13255
 3288 3388 13256
 3289 3389 13257
 3290 3390 13258
 3291 3391 13259
 3292 3392 13260
 3293 3393 13261
 3294 3394 13262
 3295 3395 13263
 3296 3396 13264
 3297 3397 13265
 3298 3398 13266
 3300 3400 13267
 3301 3401 13268
 3302 3402 13269
 3303 3403 13270
 3304 3404 13271
 3305 3405 13272
 3306 3406 13273
 3307 3407 13274
 3308 3408 13275
 3309 3409 13276
 3310 3410 13277
 3311 3411 13278
 3312 3412 13279
 3313 3413 13280
 3314 3414 13281
 3315 3415 13282
 3316 3416 13283
 3317 3417 13284
 3318 3418 13285
 3319 3419 13286
 3320 3420 13287
 3321 3421 13288
 3322 3422 13289
 3323 3423 13290
 3324 3424 13291
 3325 3425 13292
 3326 3426 13293
 3327 3427 13294
 3328 3428 13295
 3329 3429 13296
 3330 3430 13297
 3331 3431 13298
 3332 3432 13299
 3333 3433 13300
 3334 3434 13301
 3335 3435 13302
 3336 3436 13303
 3337 3437 13304
 3338 3438 13305
 3339 3439 13306
 3340 3440 13307
 3341 3441 13308
 3342 3442 13309
 3343 3443 13310
 3344 3444 13311
 3345 3445 13312
 3346 3446 13313
 3347 3447 13314
 3348 3448 13315
 3349 3449 13316
 3350 3450 13317
 3351 3451 13318
 3352 3452 13319
 3353 3453 13320
 3354 3454 13321
 3355 3455 13322
 3356 3456 13323
 3357 3457 13324
 3358 3458 13325
 3359 3459 13326
 3360 3460 13327
 3361 3461 13328
 3362 3462 13329
 3363 3463 13330
 3364 3464 13331
 3365 3465 13332
 3366 3466 13333
 3367 3467 13334
 3368 3468 13335
 3369 3469 13336
 3370 3470 13337
 3371 3471 13338
 3372 3472 13339
 3373 3473 13340
 3374 3474 13341
 3375 3475 13342
 3376 3476 13343
 3377 3477 13344
 3378 3478 13345
 3379 3479 13346
 3380 3480 13347
 3381 3481 13348
 3382 3482 13349
 3383 3483 13350
 3384 3484 13351
 3385 3485 13352
 3386 3486 13353
 3387 3487 13354
 3388 3488 13355
 3389 3489 13356
 3390 3490 13357
 3391 3491 13358
 3392 3492 13359
 3393 3493 13360
 3394 3494 13361
 3395 3495 13362
 3396 3496 13363
 3397 3497 13364
 3398 3498 13365
 3400 3500 13366
 3401 3501 13367
 3402 3502 13368
 3403 3503 13369
 3404 3504 13370
 3405 3505 13371
 3406 3506 13372
 3407 3507 13373
 3408 3508 13374
 3409 3509 13375
 3410 3510 13376
 3411 3511 13377
 3412 3512 13378
 3413 3513 13379
 3414 3514 13380
 3415 3515 13381
 3416 3516 13382
 3417 3517 13383
 3418 3518 13384
 3419 3519 13385
 3420 3520 13386
 3421 3521 13387
 3422 3522 13388
 3423 3523 13389
 3424 3524 13390
 3425 3525 13391
 3426 3526 13392
 3427 3527 13393
 3428 3528 13394
 3429 3529 13395
 3430 3530 13396
 3431 3531 13397
 3432 3532 13398
 3433 3533 13399
 3434 3534 13400
 3435 3535 13401
 3436 3536 13402
 3437 3537 13403
 3438 3538 13404
 3439 3539 13405
 3440 3540 13406
 3441 3541 13407
 3442 3542 13408
 3443 3543 13409
 3444 3544 13410
 3445 3545 13411
 3446 3546 13412
 3447 3547 13413
 3448 3548 13414
 3449 3549 13415
 3450 3550 13416
 3451 3551 13417
 3452 3552 13418
 3453 3553 13419
 3454 3554 13420
 3455 3555 13421
 3456 3556 13422
 3457 3557 13423
 3458 3558 13424
 3459 3559 13425
 3460 3560 13426
 3461 3561 13427
 3462 3562 13428
 3463 3563 13429
 3464 3564 13430
 3465 3565 13431
 3466 3566 13432
 3467 3567 13433
 3468 3568 13434
 3469 3569 13435
 3470 3570 13436
 3471 3571 13437
 3472 3572 13438
 3473 3573 13439
 3474 3574 13440
 3475 3575 13441
 3476 3576 13442
 3477 3577 13443
 3478 3578 13444
 3479 3579 13445
 3480 3580 13446
 3481 3581 13447
 3482 3582 13448
 3483 3583 13449
 3484 3584 13450
 3485 3585 13451
 3486 3586 13452
 3487 3587 13453
 3488 3588 13454
 3489 3589 13455
 3490 3590 13456
 3491 3591 13457
 3492 3592 13458
 3493 3593 13459
 3494 3594 13460
 3495 3595 13461
 3496 3596 13462
 3497 3597 13463
 3498 3598 13464
 3500 3600 13465
 3501 3601 13466
 3502 3602 13467
 3503 3603 13468
 3504 3604 13469
 3505 3605 13470
 3506 3606 13471
 3507 3607 13472
 3508 3608 13473
 3509 3609 13474
 3510 3610 13475
 3511 3611 13476
 3512 3612 13477
 3513 3613 13478
 3514 3614 13479
 3515 3615 13480
 3516 3616 13481
 3517 3617 13482
 3518 3618 13483
 3519 3619 13484
 3520 3620 13485
 3521 3621 13486
 3522 3622 13487
 3523 3623 13488
 3524 3624 13489
 3525 3625 13490
 3526 3626 13491
 3527 3627 13492
 3528 3628 13493
 3529 3629 13494
 3530 3630 13495
 3531 3631 13496
 3532 3632 13497
 3533 3633 13498
 3534 3634 13499
 3535 3635 13500
 3536 3636 13501
 3537 3637 13502
 3538 3638 13503
 3539 3639 13504
 3540 3640 13505
 3541 3641 13506
 3542 3642 13507
 3543 3643 13508
 3544 3644 13509
 3545 3645 13510
 3546 3646 13511
 3547 3647 13512
 3548 3648 13513
 3549 3649 13514
 3550 3650 13515
 3551 3651 13516
 3552 3652 13517
 3553 3653 13518
 3554 3654 13519
 3555 3655 13520
 3556 3656 13521
 3557 3657 13522
 3558 3658 13523
 3559 3659 13524
 3560 3660 13525
 3561 3661 13526
 3562 3662 13527
 3563 3663 13528
 3564 3664 13529
 3565 3665 13530
 3566 3666 13531
 3567 3667 13532
 3568 3668 13533
 3569 3669 13534
 3570 3670 13535
 3571 3671 13536
 3572 3672 13537
 3573 3673 13538
 3574 3674 13539
 3575 3675 13540
 3576 3676 13541
 3577 3677 13542
 3578 3678 13543
 3579 3679 13544
 3580 3680 13545
 3581 3681 13546
 3582 3682 13547
 3583 3683 13548
 3584 3684 13549
 3585 3685 13550
 3586 3686 13551
 3587 3687 13552
 3588 3688 13553
 3589 3689 13554
 3590 3690 13555
 3591 3691 13556
 3592 3692 13557
 3593 3693 13558
 3594 3694 13559
 3595 3695 13560
 3596 3696 13561
 3597 3697 13562
 3598 3698 13563
 3600 3700 13564
 3601 3701 13565
 3602 3702 13566
 3603 3703 13567
 3604 3704 13568
 3605 3705 13569
 3606 3706 13570
 3607 3707 13571
 3608 3708 13572
 3609 3709 13573
 3610 3710 13574
 3611 3711 13575
 3612 3712 13576
 3613 3713 13577
 3614 3714 13578
 3615 3715 13579
 3616 3716 13580
 3617 3717 13581
 3618 3718 13582
 3619 3719 13583
 3620 3720 13584
 3621 3721 13585
 3622 3722 13586
 3623 3723 13587
 3624 3724 13588
 3625 3725 13589
 3626 3726 13590
 3627 3727 13591
 3628 3728 13592
 3629 3729 13593
 3630 3730 13594
 3631 3731 13595
 3632 3732 13596
 3633 3733 13597
 3634 3734 13598
 3635 3735 13599
 3636 3736 13600
 3637 3737 13601
 3638 3738 13602
 3639 3739 13603
 3640 3740 13604
 3641 3741 13605
 3642 3742 13606
 3643 3743 13607
 3644 3744 13608
 3645 3745 13609
 3646 3746 13610
 3647 3747 13611
 3648 3748 13612
 3649 3749 13613
 3650 3750 13614
 3651 3751 13615
 3652 3752 13616
 3653 3753 13617
 3654 3754 13618
 3655 3755 13619
 3656 3756 13620
 3657 3757 13621
 3658 3758 13622
 3659 3759 13623
 3660 3760 13624
 3661 3761 13625
 3662 3762 13626
 3663 3763 13627
 3664 3764 13628
 3665 3765 13629
 3666 3766 13630
 3667 3767 13631
 3668 3768 13632
 3669 3769 13633
 3670 3770 13634
 3671 3771 13635
 3672 3772 13636
 3673 3773 13637
 3674 3774 13638
 3675 3775 13639
 3676 3776 13640
 3677 3777 13641
 3678 3778 13642
 3679 3779 13643
 3680 3780 13644
 3681 3781 13645
 3682 3782 13646
 3683 3783 13647
 3684 3784 13648
 3685 3785 13649
 3686 3786 13650
 3687 3787 13651
 3688 3788 13652
 3689 3789 13653
 3690 3790 13654
 3691 3791 13655
 3692 3792 13656
 3693 3793 13657
 3694 3794 13658
 3695 3795 13659
 3696 3796 13660
 3697 3797 13661
 3698 3798 13662
 3700 3800 13663
 3701 3801 13664
 3702 3802 13665
 3703 3803 13666
 3704 3804 13667
 3705 3805 13668
 3706 3806 13669
 3707 3807 13670
 3708 3808 13671
 3709 3809 13672
 3710 3810 13673
 3711 3811 13674
 3712 3812 13675
 3713 3813 13676
 3714 3814 13677
 3715 3815 13678
 3716 3816 13679
 3717 3817 13680
 3718 3818 13681
 3719 3819 13682
 3720 3820 13683
 3721 3821 13684
 3722 3822 13685
 3723 3823 13686
 3724 3824 13687
 3725 3825 13688
 3726 3826 13689
 3727 3827 13690
 3728 3828 13691
 3729 3829 13692
 3730 3830 13693
 3731 3831 13694
 3732 3832 13695
 3733 3833 13696
 3734 3834 13697
 3735 3835 13698
 3736 3836 13699
 3737 3837 13700
 3738 3838 13701
 3739 3839 13702
 3740 3840 13703
 3741 3841 13704
 3742 3842 13705
 3743 3843 13706
 3744 3844 13707
 3745 3845 13708
 3746 3846 13709
 3747 3847 13710
 3748 3848 13711
 3749 3849 13712
 3750 3850 13713
 3751 3851 13714
 3752 3852 13715
 3753 3853 13716
 3754 3854 13717
 3755 3855 13718
 3756 3856 13719
 3757 3857 13720
 3758 3858 13721
 3759 3859 13722
 3760 3860 13723
 3761 3861 13724
 3762 3862 13725
 3763 3863 13726
 3764 3864 13727
 3765 3865 13728
 3766 3866 13729
 3767 3867 13730
 3768 3868 13731
 3769 3869 13732
 3770 3870 13733
 3771 3871 13734
 3772 3872 13735
 3773 3873 13736
 3774 3874 13737
 3775 3875 13738
 3776 3876 13739
 3777 3877 13740
 3778 3878 13741
 3779 3879 13742
 3780 3880 13743
 3781 3881 13744
 3782 3882 13745
 3783 3883 13746
 3784 3884 13747
 3785 3885 13748
 3786 3886 13749
 3787 3887 13750
 3788 3888 13751
 3789 3889 13752
 3790 3890 13753
 3791 3891 13754
 3792 3892 13755
 3793 3893 13756
 3794 3894 13757
 3795 3895 13758
 3796 3896 13759
 3797 3897 13760
 3798 3898 13761
 3800 3900 13762
 3801 3901 13763
 3802 3902 13764
 3803 3903 13765
 3804 3904 13766
 3805 3905 13767
 3806 3906 13768
 3807 3907 13769
 3808 3908 13770
 3809 3909 13771
 3810 3910 13772
 3811 3911 13773
 3812 3912 13774
 3813 3913 13775
 3814 3914 13776
 3815 3915 13777
 3816 3916 13778
 3817 3917 13779
 3818 3918 13780
 3819 3919 13781
 3820 3920 13782
 3821 3921 13783
 3822 3922 13784
 3823 3923 13785
 3824 3924 13786
 3825 3925 13787
 3826 3926 13788
 3827 3927 13789
 3828 3928 13790
 3829 3929 13791
 3830 3930 13792
 3831 3931 13793
 3832 3932 13794
 3833 3933 13795
 3834 3934 13796
 3835 3935 13797
 3836 3936 13798
 3837 3937 13799
 3838 3938 13800
 3839 3939 13801
 3840 3940 13802
 3841 3941 13803
 3842 3942 13804
 3843 3943 13805
 3844 3944 13806
 3845 3945 13807
 3846 3946 13808
 3847 3947 13809
 3848 3948 13810
 3849 3949 13811
 3850 3950 13812
 3851 3951 13813
 3852 3952 13814
 3853 3953 13815
 3854 3954 13816
 3855 3955 13817
 3856 3956 13818
 3857 3957 13819
 3858 3958 13820
 3859 3959 13821
 3860 3960 13822
 3861 3961 13823
 3862 3962 13824
 3863 3963 13825
 3864 3964 13826
 3865 3965 13827
 3866 3966 13828
 3867 3967 13829
 3868 3968 13830
 3869 3969 13831
 3870 3970 13832
 3871 3971 13833
 3872 3972 13834
 3873 3973 13835
 3874 3974 13836
 3875 3975 13837
 3876 3976 13838
 3877 3977 13839
 3878 3978 13840
 3879 3979 13841
 3880 3980 13842
 3881 3981 13843
 3882 3982 13844
 3883 3983 13845
 3884 3984 13846
 3885 3985 13847
 3886 3986 13848
 3887 3987 13849
 3888 3988 13850
 3889 3989 13851
 3890 3990 13852
 3891 3991 13853
 3892 3992 13854
 3893 3993 13855
 3894 3994 13856
 3895 3995 13857
 3896 3996 13858
 3897 3997 13859
 3898 3998 13860
 3900 4000 13861
 3901 4001 13862
 3902 4002 13863
 3903 4003 13864
 3904 4004 13865
 3905 4005 13866
 3906 4006 13867
 3907 4007 13868
 3908 4008 13869
 3909 4009 13870
 3910 4010 13871
 3911 4011 13872
 3912 4012 13873
 3913 4013 13874
 3914 4014 13875
 3915 4015 13876
 3916 4016 13877
 3917 4017 13878
 3918 4018 13879
 3919 4019 13880
 3920 4020 13881
 3921 4021 13882
 3922 4022 13883
 3923 4023 13884
 3924 4024 13885
 3925 4025 13886
 3926 4026 13887
 3927 4027 13888
 3928 4028 13889
 3929 4029 13890
 3930 4030 13891
 3931 4031 13892
 3932 4032 13893
 3933 4033 13894
 3934 4034 13895
 3935 4035 13896
 3936 4036 13897
 3937 4037 13898
 3938 4038 13899
 3939 4039 13900
 3940 4040 13901
 3941 4041 13902
 3942 4042 13903
 3943 4043 13904
 3944 4044 13905
 3945 4045 13906
 3946 4046 13907
 3947 4047 13908
 3948 4048 13909
 3949 4049 13910
 3950 4050 13911
 3951 4051 13912
 3952 4052 13913
 3953 4053 13914
 3954 4054 13915
 3955 4055 13916
 3956 4056 13917
 3957 4057 13918
 3958 4058 13919
 3959 4059 13920
 3960 4060 13921
 3961 4061 13922
 3962 4062 13923
 3963 4063 13924
 3964 4064 13925
 3965 4065 13926
 3966 4066 13927
 3967 4067 13928
 3968 4068 13929
 3969 4069 13930
 3970 4070 13931
 3971 4071 13932
 3972 4072 13933
 3973 4073 13934
 3974 4074 13935
 3975 4075 13936
 3976 4076 13937
 3977 4077 13938
 3978 4078 13939
 3979 4079 13940
 3980 4080 13941
 3981 4081 13942
 3982 4082 13943
 3983 4083 13944
 3984 4084 13945
 3985 4085 13946
 3986 4086 13947
 3987 4087 13948
 3988 4088 13949
 3989 4089 13950
 3990 4090 13951
 3991 4091 13952
 3992 4092 13953
 3993 4093 13954
 3994 4094 13955
 3995 4095 13956
 3996 4096 13957
 3997 4097 13958
 3998 4098 13959
 4000 4100 13960
 4001 4101 13961
 4002 4102 13962
 4003 4103 13963
 4004 4104 13964
 4005 4105 13965
 4006 4106 13966
 4007 4107 13967
 4008 4108 13968
 4009 4109 13969
 4010 4110 13970
 4011 4111 13971
 4012 4112 13972
 4013 4113 13973
 4014 4114 13974
 4015 4115 13975
 4016 4116 13976
 4017 4117 13977
 4018 4118 13978
 4019 4119 13979
 4020 4120 13980
 4021 4121 13981
 4022 4122 13982
 4023 4123 13983
 4024 4124 13984
 4025 4125 13985
 4026 4126 13986
 4027 4127 13987
 4028 4128 13988
 4029 4129 13989
 4030 4130 13990
 4031 4131 13991
 4032 4132 13992
 4033 4133 13993
 4034 4134 13994
 4035 4135 13995
 4036 4136 13996
 4037 4137 13997
 4038 4138 13998
 4039 4139 13999
 4040 4140 14000
 4041 4141 14001
 4042 4142 14002
 4043 4143 14003
 4044 4144 14004
 4045 4145 14005
 4046 4146 14006
 4047 4147 14007
 4048 4148 14008
 4049 4149 14009
 4050 4150 14010
 4051 4151 14011
 4052 4152 14012
 4053 4153 14013
 4054 4154 14014
 4055 4155 14015
 4056 4156 14016
 4057 4157 14017
 4058 4158 14018
 4059 4159 14019
 4060 4160 14020
 4061 4161 14021
 4062 4162 14022
 4063 4163 14023
 4064 4164 14024
 4065 4165 14025
 4066 4166 14026
 4067 4167 14027
 4068 4168 14028
 4069 4169 14029
 4070 4170 14030
 4071 4171 14031
 4072 4172 14032
 4073 4173 14033
 4074 4174 14034
 4075 4175 14035
 4076 4176 14036
 4077 4177 14037
 4078 4178 14038
 4079 4179 14039
 4080 4180 14040
 4081 4181 14041
 4082 4182 14042
 4083 4183 14043
 4084 4184 14044
 4085 4185 14045
 4086 4186 14046
 4087 4187 14047
 4088 4188 14048
 4089 4189 14049
 4090 4190 14050
 4091 4191 14051
 4092 4192 14052
 4093 4193 14053
 4094 4194 14054
 4095 4195 14055
 4096 4196 14056
 4097 4197 14057
 4098 4198 14058
 4100 4200 14059
 4101 4201 14060
 4102 4202 14061
 4103 4203 14062
 4104 4204 14063
 4105 4205 14064
 4106 4206 14065
 4107 4207 14066
 4108 4208 14067
 4109 4209 14068
 4110 4210 14069
 4111 4211 14070
 4112 4212 14071
 4113 4213 14072
 4114 4214 14073
 4115 4215 14074
 4116 4216 14075
 4117 4217 14076
 4118 4218 14077
 4119 4219 14078
 4120 4220 14079
 4121 4221 14080
 4122 4222 14081
 4123 4223 14082
 4124 4224 14083
 4125 4225 14084
 4126 4226 14085
 4127 4227 14086
 4128 4228 14087
 4129 4229 14088
 4130 4230 14089
 4131 4231 14090
 4132 4232 14091
 4133 4233 14092
 4134 4234 14093
 4135 4235 14094
 4136 4236 14095
 4137 4237 14096
 4138 4238 14097
 4139 4239 14098
 4140 4240 14099
 4141 4241 14100
 4142 4242 14101
 4143 4243 14102
 4144 4244 14103
 4145 4245 14104
 4146 4246 14105
 4147 4247 14106
 4148 4248 14107
 4149 4249 14108
 4150 4250 14109
 4151 4251 14110
 4152 4252 14111
 4153 4253 14112
 4154 4254 14113
 4155 4255 14114
 4156 4256 14115
 4157 4257 14116
 4158 4258 14117
 4159 4259 14118
 4160 4260 14119
 4161 4261 14120
 4162 4262 14121
 4163 4263 14122
 4164 4264 14123
 4165 4265 14124
 4166 4266 14125
 4167 4267 14126
 4168 4268 14127
 4169 4269 14128
 4170 4270 14129
 4171 4271 14130
 4172 4272 14131
 4173 4273 14132
 4174 4274 14133
 4175 4275 14134
 4176 4276 14135
 4177 4277 14136
 4178 4278 14137
 4179 4279 14138
 4180 4280 14139
 4181 4281 14140
 4182 4282 14141
 4183 4283 14142
 4184 4284 14143
 4185 4285 14144
 4186 4286 14145
 4187 4287 14146
 4188 4288 14147
 4189 4289 14148
 4190 4290 14149
 4191 4291 14150
 4192 4292 14151
 4193 4293 14152
 4194 4294 14153
 4195 4295 14154
 4196 4296 14155
 4197 4297 14156
 4198 4298 14157
 4200 4300 14158
 4201 4301 14159
 4202 4302 14160
 4203 4303 14161
 4204 4304 14162
 4205 4305 14163
 4206 4306 14164
 4207 4307 14165
 4208 4308 14166
 4209 4309 14167
 4210 4310 14168
 4211 4311 14169
 4212 4312 14170
 4213 4313 14171
 4214 4314 14172
 4215 4315 14173
 4216 4316 14174
 4217 4317 14175
 4218 4318 14176
 4219 4319 14177
 4220 4320 14178
 4221 4321 14179
 4222 4322 14180
 4223 4323 14181
 4224 4324 14182
 4225 4325 14183
 4226 4326 14184
 4227 4327 14185
 4228 4328 14186
 4229 4329 14187
 4230 4330 14188
 4231 4331 14189
 4232 4332 14190
 4233 4333 14191
 4234 4334 14192
 4235 4335 14193
 4236 4336 14194
 4237 4337 14195
 4238 4338 14196
 4239 4339 14197
 4240 4340 14198
 4241 4341 14199
 4242 4342 14200
 4243 4343 14201
 4244 4344 14202
 4245 4345 14203
 4246 4346 14204
 4247 4347 14205
 4248 4348 14206
 4249 4349 14207
 4250 4350 14208
 4251 4351 14209
 4252 4352 14210
 4253 4353 14211
 4254 4354 14212
 4255 4355 14213
 4256 4356 14214
 4257 4357 14215
 4258 4358 14216
 4259 4359 14217
 4260 4360 14218
 4261 4361 14219
 4262 4362 14220
 4263 4363 14221
 4264 4364 14222
 4265 4365 14223
 4266 4366 14224
 4267 4367 14225
 4268 4368 14226
 4269 4369 14227
 4270 4370 14228
 4271 4371 14229
 4272 4372 14230
 4273 4373 14231
 4274 4374 14232
 4275 4375 14233
 4276 4376 14234
 4277 4377 14235
 4278 4378 14236
 4279 4379 14237
 4280 4380 14238
 4281 4381 14239
 4282 4382 14240
 4283 4383 14241
 4284 4384 14242
 4285 4385 14243
 4286 4386 14244
 4287 4387 14245
 4288 4388 14246
 4289 4389 14247
 4290 4390 14248
 4291 4391 14249
 4292 4392 14250
 4293 4393 14251
 4294 4394 14252
 4295 4395 14253
 4296 4396 14254
 4297 4397 14255
 4298 4398 14256
 4300 4400 14257
 4301 4401 14258
 4302 4402 14259
 4303 4403 14260
 4304 4404 14261
 4305 4405 14262
 4306 4406 14263
 4307 4407 14264
 4308 4408 14265
 4309 4409 14266
 4310 4410 14267
 4311 4411 14268
 4312 4412 14269
 4313 4413 14270
 4314 4414 14271
 4315 4415 14272
 4316 4416 14273
 4317 4417 14274
 4318 4418 14275
 4319 4419 14276
 4320 4420 14277
 4321 4421 14278
 4322 4422 14279
 4323 4423 14280
 4324 4424 14281
 4325 4425 14282
 4326 4426 14283
 4327 4427 14284
 4328 4428 14285
 4329 4429 14286
 4330 4430 14287
 4331 4431 14288
 4332 4432 14289
 4333 4433 14290
 4334 4434 14291
 4335 4435 14292
 4336 4436 14293
 4337 4437 14294
 4338 4438 14295
 4339 4439 14296
 4340 4440 14297
 4341 4441 14298
 4342 4442 14299
 4343 4443 14300
 4344 4444 14301
 4345 4445 14302
 4346 4446 14303
 4347 4447 14304
 4348 4448 14305
 4349 4449 14306
 4350 4450 14307
 4351 4451 14308
 4352 4452 14309
 4353 4453 14310
 4354 4454 14311
 4355 4455 14312
 4356 4456 14313
 4357 4457 14314
 4358 4458 14315
 4359 4459 14316
 4360 4460 14317
 4361 4461 14318
 4362 4462 14319
 4363 4463 14320
 4364 4464 14321
 4365 4465 14322
 4366 4466 14323
 4367 4467 14324
 4368 4468 14325
 4369 4469 14326
 4370 4470 14327
 4371 4471 14328
 4372 4472 14329
 4373 4473 14330
 4374 4474 14331
 4375 4475 14332
 4376 4476 14333
 4377 4477 14334
 4378 4478 14335
 4379 4479 14336
 4380 4480 14337
 4381 4481 14338
 4382 4482 14339
 4383 4483 14340
 4384 4484 14341
 4385 4485 14342
 4386 4486 14343
 4387 4487 14344
 4388 4488 14345
 4389 4489 14346
 4390 4490 14347
 4391 4491 14348
 4392 4492 14349
 4393 4493 14350
 4394 4494 14351
 4395 4495 14352
 4396 4496 14353
 4397 4497 14354
 4398 4498 14355
 4400 4500 14356
 4401 4501 14357
 4402 4502 14358
 4403 4503 14359
 4404 4504 14360
 4405 4505 14361
 4406 4506 14362
 4407 4507 14363
 4408 4508 14364
 4409 4509 14365
 4410 4510 14366
 4411 4511 14367
 4412 4512 14368
 4413 4513 14369
 4414 4514 14370
 4415 4515 14371
 4416 4516 14372
 4417 4517 14373
 4418 4518 14374
 4419 4519 14375
 4420 4520 14376
 4421 4521 14377
 4422 4522 14378
 4423 4523 14379
 4424 4524 14380
 4425 4525 14381
 4426 4526 14382
 4427 4527 14383
 4428 4528 14384
 4429 4529 14385
 4430 4530 14386
 4431 4531 14387
 4432 4532 14388
 4433 4533 14389
 4434 4534 14390
 4435 4535 14391
 4436 4536 14392
 4437 4537 14393
 4438 4538 14394
 4439 4539 14395
 4440 4540 14396
 4441 4541 14397
 4442 4542 14398
 4443 4543 14399
 4444 4544 14400
 4445 4545 14401
 4446 4546 14402
 4447 4547 14403
 4448 4548 14404
 4449 4549 14405
 4450 4550 14406
 4451 4551 14407
 4452 4552 14408
 4453 4553 14409
 4454 4554 14410
 4455 4555 14411
 4456 4556 14412
 4457 4557 14413
 4458 4558 14414
 4459 4559 14415
 4460 4560 14416
 4461 4561 14417
 4462 4562 14418
 4463 4563 14419
 4464 4564 14420
 4465 4565 14421
 4466 4566 14422
 4467 4567 14423
 4468 4568 14424
 4469 4569 14425
 4470 4570 14426
 4471 4571 14427
 4472 4572 14428
 4473 4573 14429
 4474 4574 14430
 4475 4575 14431
 4476 4576 14432
 4477 4577 14433
 4478 4578 14434
 4479 4579 14435
 4480 4580 14436
 4481 4581 14437
 4482 4582 14438
 4483 4583 14439
 4484 4584 14440
 4485 4585 14441
 4486 4586 14442
 4487 4587 14443
 4488 4588 14444
 4489 4589 14445
 4490 4590 14446
 4491 4591 14447
 4492 4592 14448
 4493 4593 14449
 4494 4594 14450
 4495 4595 14451
 4496 4596 14452
 4497 4597 14453
 4498 4598 14454
 4500 4600 14455
 4501 4601 14456
 4502 4602 14457
 4503 4603 14458
 4504 4604 14459
 4505 4605 14460
 4506 4606 14461
 4507 4607 14462
 4508 4608 14463
 4509 4609 14464
 4510 4610 14465
 4511 4611 14466
 4512 4612 14467
 4513 4613 14468
 4514 4614 14469
 4515 4615 14470
 4516 4616 14471
 4517 4617 14472
 4518 4618 14473
 4519 4619 14474
 4520 4620 14475
 4521 4621 14476
 4522 4622 14477
 4523 4623 14478
 4524 4624 14479
 4525 4625 14480
 4526 4626 14481
 4527 4627 14482
 4528 4628 14483
 4529 4629 14484
 4530 4630 14485
 4531 4631 14486
 4532 4632 14487
 4533 4633 14488
 4534 4634 14489
 4535 4635 14490
 4536 4636 14491
 4537 4637 14492
 4538 4638 14493
 4539 4639 14494
 4540 4640 14495
 4541 4641 14496
 4542 4642 14497
 4543 4643 14498
 4544 4644 14499
 4545 4645 14500
 4546 4646 14501
 4547 4647 14502
 4548 4648 14503
 4549 4649 14504
 4550 4650 14505
 4551 4651 14506
 4552 4652 14507
 4553 4653 14508
 4554 4654 14509
 4555 4655 14510
 4556 4656 14511
 4557 4657 14512
 4558 4658 14513
 4559 4659 14514
 4560 4660 14515
 4561 4661 14516
 4562 4662 14517
 4563 4663 14518
 4564 4664 14519
 4565 4665 14520
 4566 4666 14521
 4567 4667 14522
 4568 4668 14523
 4569 4669 14524
 4570 4670 14525
 4571 4671 14526
 4572 4672 14527
 4573 4673 14528
 4574 4674 14529
 4575 4675 14530
 4576 4676 14531
 4577 4677 14532
 4578 4678 14533
 4579 4679 14534
 4580 4680 14535
 4581 4681 14536
 4582 4682 14537
 4583 4683 14538
 4584 4684 14539
 4585 4685 14540
 4586 4686 14541
 4587 4687 14542
 4588 4688 14543
 4589 4689 14544
 4590 4690 14545
 4591 4691 14546
 4592 4692 14547
 4593 4693 14548
 4594 4694 14549
 4595 4695 14550
 4596 4696 14551
 4597 4697 14552
 4598 4698 14553
 4600 4700 14554
 4601 4701 14555
 4602 4702 14556
 4603 4703 14557
 4604 4704 14558
 4605 4705 14559
 4606 4706 14560
 4607 4707 14561
 4608 4708 14562
 4609 4709 14563
 4610 4710 14564
 4611 4711 14565
 4612 4712 14566
 4613 4713 14567
 4614 4714 14568
 4615 4715 14569
 4616 4716 14570
 4617 4717 14571
 4618 4718 14572
 4619 4719 14573
 4620 4720 14574
 4621 4721 14575
 4622 4722 14576
 4623 4723 14577
 4624 4724 14578
 4625 4725 14579
 4626 4726 14580
 4627 4727 14581
 4628 4728 14582
 4629 4729 14583
 4630 4730 14584
 4631 4731 14585
 4632 4732 14586
 4633 4733 14587
 4634 4734 14588
 4635 4735 14589
 4636 4736 14590
 4637 4737 14591
 4638 4738 14592
 4639 4739 14593
 4640 4740 14594
 4641 4741 14595
 4642 4742 14596
 4643 4743 14597
 4644 4744 14598
 4645 4745 14599
 4646 4746 14600
 4647 4747 14601
 4648 4748 14602
 4649 4749 14603
 4650 4750 14604
 4651 4751 14605
 4652 4752 14606
 4653 4753 14607
 4654 4754 14608
 4655 4755 14609
 4656 4756 14610
 4657 4757 14611
 4658 4758 14612
 4659 4759 14613
 4660 4760 14614
 4661 4761 14615
 4662 4762 14616
 4663 4763 14617
 4664 4764 14618
 4665 4765 14619
 4666 4766 14620
 4667 4767 14621
 4668 4768 14622
 4669 4769 14623
 4670 4770 14624
 4671 4771 14625
 4672 4772 14626
 4673 4773 14627
 4674 4774 14628
 4675 4775 14629
 4676 4776 14630
 4677 4777 14631
 4678 4778 14632
 4679 4779 14633
 4680 4780 14634
 4681 4781 14635
 4682 4782 14636
 4683 4783 14637
 4684 4784 14638
 4685 4785 14639
 4686 4786 14640
 4687 4787 14641
 4688 4788 14642
 4689 4789 14643
 4690 4790 14644
 4691 4791 14645
 4692 4792 14646
 4693 4793 14647
 4694 4794 14648
 4695 4795 14649
 4696 4796 14650
 4697 4797 14651
 4698 4798 14652
 4700 4800 14653
 4701 4801 14654
 4702 4802 14655
 4703 4803 14656
 4704 4804 14657
 4705 4805 14658
 4706 4806 14659
 4707 4807 14660
 4708 4808 14661
 4709 4809 14662
 4710 4810 14663
 4711 4811 14664
 4712 4812 14665
 4713 4813 14666
 4714 4814 14667
 4715 4815 14668
 4716 4816 14669
 4717 4817 14670
 4718 4818 14671
 4719 4819 14672
 4720 4820 14673
 4721 4821 14674
 4722 4822 14675
 4723 4823 14676
 4724 4824 14677
 4725 4825 14678
 4726 4826 14679
 4727 4827 14680
 4728 4828 14681
 4729 4829 14682
 4730 4830 14683
 4731 4831 14684
 4732 4832 14685
 4733 4833 14686
 4734 4834 14687
 4735 4835 14688
 4736 4836 14689
 4737 4837 14690
 4738 4838 14691
 4739 4839 14692
 4740 4840 14693
 4741 4841 14694
 4742 4842 14695
 4743 4843 14696
 4744 4844 14697
 4745 4845 14698
 4746 4846 14699
 4747 4847 14700
 4748 4848 14701
 4749 4849 14702
 4750 4850 14703
 4751 4851 14704
 4752 4852 14705
 4753 4853 14706
 4754 4854 14707
 4755 4855 14708
 4756 4856 14709
 4757 4857 14710
 4758 4858 14711
 4759 4859 14712
 4760 4860 14713
 4761 4861 14714
 4762 4862 14715
 4763 4863 14716
 4764 4864 14717
 4765 4865 14718
 4766 4866 14719
 4767 4867 14720
 4768 4868 14721
 4769 4869 14722
 4770 4870 14723
 4771 4871 14724
 4772 4872 14725
 4773 4873 14726
 4774 4874 14727
 4775 4875 14728
 4776 4876 14729
 4777 4877 14730
 4778 4878 14731
 4779 4879 14732
 4780 4880 14733
 4781 4881 14734
 4782 4882 14735
 4783 4883 14736
 4784 4884 14737
 4785 4885 14738
 4786 4886 14739
 4787 4887 14740
 4788 4888 14741
 4789 4889 14742
 4790 4890 14743
 4791 4891 14744
 4792 4892 14745
 4793 4893 14746
 4794 4894 14747
 4795 4895 14748
 4796 4896 14749
 4797 4897 14750
 4798 4898 14751
 4800 4900 14752
 4801 4901 14753
 4802 4902 14754
 4803 4903 14755
 4804 4904 14756
 4805 4905 14757
 4806 4906 14758
 4807 4907 14759
 4808 4908 14760
 4809 4909 14761
 4810 4910 14762
 4811 4911 14763
 4812 4912 14764
 4813 4913 14765
 4814 4914 14766
 4815 4915 14767
 4816 4916 14768
 4817 4917 14769
 4818 4918 14770
 4819 4919 14771
 4820 4920 14772
 4821 4921 14773
 4822 4922 14774
 4823 4923 14775
 4824 4924 14776
 4825 4925 14777
 4826 4926 14778
 4827 4927 14779
 4828 4928 14780
 4829 4929 14781
 4830 4930 14782
 4831 4931 14783
 4832 4932 14784
 4833 4933 14785
 4834 4934 14786
 4835 4935 14787
 4836 4936 14788
 4837 4937 14789
 4838 4938 14790
 4839 4939 14791
 4840 4940 14792
 4841 4941 14793
 4842 4942 14794
 4843 4943 14795
 4844 4944 14796
 4845 4945 14797
 4846 4946 14798
 4847 4947 14799
 4848 4948 14800
 4849 4949 14801
 4850 4950 14802
 4851 4951 14803
 4852 4952 14804
 4853 4953 14805
 4854 4954 14806
 4855 4955 14807
 4856 4956 14808
 4857 4957 14809
 4858 4958 14810
 4859 4959 14811
 4860 4960 14812
 4861 4961 14813
 4862 4962 14814
 4863 4963 14815
 4864 4964 14816
 4865 4965 14817
 4866 4966 14818
 4867 4967 14819
 4868 4968 14820
 4869 4969 14821
 4870 4970 14822
 4871 4971 14823
 4872 4972 14824
 4873 4973 14825
 4874 4974 14826
 4875 4975 14827
 4876 4976 14828
 4877 4977 14829
 4878 4978 14830
 4879 4979 14831
 4880 4980 14832
 4881 4981 14833
 4882 4982 14834
 4883 4983 14835
 4884 4984 14836
 4885 4985 14837
 4886 4986 14838
 4887 4987 14839
 4888 4988 14840
 4889 4989 14841
 4890 4990 14842
 4891 4991 14843
 4892 4992 14844
 4893 4993 14845
 4894 4994 14846
 4895 4995 14847
 4896 4996 14848
 4897 4997 14849
 4898 4998 14850
 4900 5000 14851
 4901 5001 14852
 4902 5002 14853
 4903 5003 14854
 4904 5004 14855
 4905 5005 14856
 4906 5006 14857
 4907 5007 14858
 4908 5008 14859
 4909 5009 14860
 4910 5010 14861
 4911 5011 14862
 4912 5012 14863
 4913 5013 14864
 4914 5014 14865
 4915 5015 14866
 4916 5016 14867
 4917 5017 14868
 4918 5018 14869
 4919 5019 14870
 4920 5020 14871
 4921 5021 14872
 4922 5022 14873
 4923 5023 14874
 4924 5024 14875
 4925 5025 14876
 4926 5026 14877
 4927 5027 14878
 4928 5028 14879
 4929 5029 14880
 4930 5030 14881
 4931 5031 14882
 4932 5032 14883
 4933 5033 14884
 4934 5034 14885
 4935 5035 14886
 4936 5036 14887
 4937 5037 14888
 4938 5038 14889
 4939 5039 14890
 4940 5040 14891
 4941 5041 14892
 4942 5042 14893
 4943 5043 14894
 4944 5044 14895
 4945 5045 14896
 4946 5046 14897
 4947 5047 14898
 4948 5048 14899
 4949 5049 14900
 4950 5050 14901
 4951 5051 14902
 4952 5052 14903
 4953 5053 14904
 4954 5054 14905
 4955 5055 14906
 4956 5056 14907
 4957 5057 14908
 4958 5058 14909
 4959 5059 14910
 4960 5060 14911
 4961 5061 14912
 4962 5062 14913
 4963 5063 14914
 4964 5064 14915
 4965 5065 14916
 4966 5066 14917
 4967 5067 14918
 4968 5068 14919
 4969 5069 14920
 4970 5070 14921
 4971 5071 14922
 4972 5072 14923
 4973 5073 14924
 4974 5074 14925
 4975 5075 14926
 4976 5076 14927
 4977 5077 14928
 4978 5078 14929
 4979 5079 14930
 4980 5080 14931
 4981 5081 14932
 4982 5082 14933
 4983 5083 14934
 4984 5084 14935
 4985 5085 14936
 4986 5086 14937
 4987 5087 14938
 4988 5088 14939
 4989 5089 14940
 4990 5090 14941
 4991 5091 14942
 4992 5092 14943
 4993 5093 14944
 4994 5094 14945
 4995 5095 14946
 4996 5096 14947
 4997 5097 14948
 4998 5098 14949
 5000 5100 14950
 5001 5101 14951
 5002 5102 14952
 5003 5103 14953
 5004 5104 14954
 5005 5105 14955
 5006 5106 14956
 5007 5107 14957
 5008 5108 14958
 5009 5109 14959
 5010 5110 14960
 5011 5111 14961
 5012 5112 14962
 5013 5113 14963
 5014 5114 14964
 5015 5115 14965
 5016 5116 14966
 5017 5117 14967
 5018 5118 14968
 5019 5119 14969
 5020 5120 14970
 5021 5121 14971
 5022 5122 14972
 5023 5123 14973
 5024 5124 14974
 5025 5125 14975
 5026 5126 14976
 5027 5127 14977
 5028 5128 14978
 5029 5129 14979
 5030 5130 14980
 5031 5131 14981
 5032 5132 14982
 5033 5133 14983
 5034 5134 14984
 5035 5135 14985
 5036 5136 14986
 5037 5137 14987
 5038 5138 14988
 5039 5139 14989
 5040 5140 14990
 5041 5141 14991
 5042 5142 14992
 5043 5143 14993
 5044 5144 14994
 5045 5145 14995
 5046 5146 14996
 5047 5147 14997
 5048 5148 14998
 5049 5149 14999
 5050 5150 15000
 5051 5151 15001
 5052 5152 15002
 5053 5153 15003
 5054 5154 15004
 5055 5155 15005
 5056 5156 15006
 5057 5157 15007
 5058 5158 15008
 5059 5159 15009
 5060 5160 15010
 5061 5161 15011
 5062 5162 15012
 5063 5163 15013
 5064 5164 15014
 5065 5165 15015
 5066 5166 15016
 5067 5167 15017
 5068 5168 15018
 5069 5169 15019
 5070 5170 15020
 5071 5171 15021
 5072 5172 15022
 5073 5173 15023
 5074 5174 15024
 5075 5175 15025
 5076 5176 15026
 5077 5177 15027
 5078 5178 15028
 5079 5179 15029
 5080 5180 15030
 5081 5181 15031
 5082 5182 15032
 5083 5183 15033
 5084 5184 15034
 5085 5185 15035
 5086 5186 15036
 5087 5187 15037
 5088 5188 15038
 5089 5189 15039
 5090 5190 15040
 5091 5191 15041
 5092 5192 15042
 5093 5193 15043
 5094 5194 15044
 5095 5195 15045
 5096 5196 15046
 5097 5197 15047
 5098 5198 15048
 5100 5200 15049
 5101 5201 15050
 5102 5202 15051
 5103 5203 15052
 5104 5204 15053
 5105 5205 15054
 5106 5206 15055
 5107 5207 15056
 5108 5208 15057
 5109 5209 15058
 5110 5210 15059
 5111 5211 15060
 5112 5212 15061
 5113 5213 15062
 5114 5214 15063
 5115 5215 15064
 5116 5216 15065
 5117 5217 15066
 5118 5218 15067
 5119 5219 15068
 5120 5220 15069
 5121 5221 15070
 5122 5222 15071
 5123 5223 15072
 5124 5224 15073
 5125 5225 15074
 5126 5226 15075
 5127 5227 15076
 5128 5228 15077
 5129 5229 15078
 5130 5230 15079
 5131 5231 15080
 5132 5232 15081
 5133 5233 15082
 5134 5234 15083
 5135 5235 15084
 5136 5236 15085
 5137 5237 15086
 5138 5238 15087
 5139 5239 15088
 5140 5240 15089
 5141 5241 15090
 5142 5242 15091
 5143 5243 15092
 5144 5244 15093
 5145 5245 15094
 5146 5246 15095
 5147 5247 15096
 5148 5248 15097
 5149 5249 15098
 5150 5250 15099
 5151 5251 15100
 5152 5252 15101
 5153 5253 15102
 5154 5254 15103
 5155 5255 15104
 5156 5256 15105
 5157 5257 15106
 5158 5258 15107
 5159 5259 15108
 5160 5260 15109
 5161 5261 15110
 5162 5262 15111
 5163 5263 15112
 5164 5264 15113
 5165 5265 15114
 5166 5266 15115
 5167 5267 15116
 5168 5268 15117
 5169 5269 15118
 5170 5270 15119
 5171 5271 15120
 5172 5272 15121
 5173 5273 15122
 5174 5274 15123
 5175 5275 15124
 5176 5276 15125
 5177 5277 15126
 5178 5278 15127
 5179 5279 15128
 5180 5280 15129
 5181 5281 15130
 5182 5282 15131
 5183 5283 15132
 5184 5284 15133
 5185 5285 15134
 5186 5286 15135
 5187 5287 15136
 5188 5288 15137
 5189 5289 15138
 5190 5290 15139
 5191 5291 15140
 5192 5292 15141
 5193 5293 15142
 5194 5294 15143
 5195 5295 15144
 5196 5296 15145
 5197 5297 15146
 5198 5298 15147
 5200 5300 15148
 5201 5301 15149
 5202 5302 15150
 5203 5303 15151
 5204 5304 15152
 5205 5305 15153
 5206 5306 15154
 5207 5307 15155
 5208 5308 15156
 5209 5309 15157
 5210 5310 15158
 5211 5311 15159
 5212 5312 15160
 5213 5313 15161
 5214 5314 15162
 5215 5315 15163
 5216 5316 15164
 5217 5317 15165
 5218 5318 15166
 5219 5319 15167
 5220 5320 15168
 5221 5321 15169
 5222 5322 15170
 5223 5323 15171
 5224 5324 15172
 5225 5325 15173
 5226 5326 15174
 5227 5327 15175
 5228 5328 15176
 5229 5329 15177
 5230 5330 15178
 5231 5331 15179
 5232 5332 15180
 5233 5333 15181
 5234 5334 15182
 5235 5335 15183
 5236 5336 15184
 5237 5337 15185
 5238 5338 15186
 5239 5339 15187
 5240 5340 15188
 5241 5341 15189
 5242 5342 15190
 5243 5343 15191
 5244 5344 15192
 5245 5345 15193
 5246 5346 15194
 5247 5347 15195
 5248 5348 15196
 5249 5349 15197
 5250 5350 15198
 5251 5351 15199
 5252 5352 15200
 5253 5353 15201
 5254 5354 15202
 5255 5355 15203
 5256 5356 15204
 5257 5357 15205
 5258 5358 15206
 5259 5359 15207
 5260 5360 15208
 5261 5361 15209
 5262 5362 15210
 5263 5363 15211
 5264 5364 15212
 5265 5365 15213
 5266 5366 15214
 5267 5367 15215
 5268 5368 15216
 5269 5369 15217
 5270 5370 15218
 5271 5371 15219
 5272 5372 15220
 5273 5373 15221
 5274 5374 15222
 5275 5375 15223
 5276 5376 15224
 5277 5377 15225
 5278 5378 15226
 5279 5379 15227
 5280 5380 15228
 5281 5381 15229
 5282 5382 15230
 5283 5383 15231
 5284 5384 15232
 5285 5385 15233
 5286 5386 15234
 5287 5387 15235
 5288 5388 15236
 5289 5389 15237
 5290 5390 15238
 5291 5391 15239
 5292 5392 15240
 5293 5393 15241
 5294 5394 15242
 5295 5395 15243
 5296 5396 15244
 5297 5397 15245
 5298 5398 15246
 5300 5400 15247
 5301 5401 15248
 5302 5402 15249
 5303 5403 15250
 5304 5404 15251
 5305 5405 15252
 5306 5406 15253
 5307 5407 15254
 5308 5408 15255
 5309 5409 15256
 5310 5410 15257
 5311 5411 15258
 5312 5412 15259
 5313 5413 15260
 5314 5414 15261
 5315 5415 15262
 5316 5416 15263
 5317 5417 15264
 5318 5418 15265
 5319 5419 15266
 5320 5420 15267
 5321 5421 15268
 5322 5422 15269
 5323 5423 15270
 5324 5424 15271
 5325 5425 15272
 5326 5426 15273
 5327 5427 15274
 5328 5428 15275
 5329 5429 15276
 5330 5430 15277
 5331 5431 15278
 5332 5432 15279
 5333 5433 15280
 5334 5434 15281
 5335 5435 15282
 5336 5436 15283
 5337 5437 15284
 5338 5438 15285
 5339 5439 15286
 5340 5440 15287
 5341 5441 15288
 5342 5442 15289
 5343 5443 15290
 5344 5444 15291
 5345 5445 15292
 5346 5446 15293
 5347 5447 15294
 5348 5448 15295
 5349 5449 15296
 5350 5450 15297
 5351 5451 15298
 5352 5452 15299
 5353 5453 15300
 5354 5454 15301
 5355 5455 15302
 5356 5456 15303
 5357 5457 15304
 5358 5458 15305
 5359 5459 15306
 5360 5460 15307
 5361 5461 15308
 5362 5462 15309
 5363 5463 15310
 5364 5464 15311
 5365 5465 15312
 5366 5466 15313
 5367 5467 15314
 5368 5468 15315
 5369 5469 15316
 5370 5470 15317
 5371 5471 15318
 5372 5472 15319
 5373 5473 15320
 5374 5474 15321
 5375 5475 15322
 5376 5476 15323
 5377 5477 15324
 5378 5478 15325
 5379 5479 15326
 5380 5480 15327
 5381 5481 15328
 5382 5482 15329
 5383 5483 15330
 5384 5484 15331
 5385 5485 15332
 5386 5486 15333
 5387 5487 15334
 5388 5488 15335
 5389 5489 15336
 5390 5490 15337
 5391 5491 15338
 5392 5492 15339
 5393 5493 15340
 5394 5494 15341
 5395 5495 15342
 5396 5496 15343
 5397 5497 15344
 5398 5498 15345
 5400 5500 15346
 5401 5501 15347
 5402 5502 15348
 5403 5503 15349
 5404 5504 15350
 5405 5505 15351
 5406 5506 15352
 5407 5507 15353
 5408 5508 15354
 5409 5509 15355
 5410 5510 15356
 5411 5511 15357
 5412 5512 15358
 5413 5513 15359
 5414 5514 15360
 5415 5515 15361
 5416 5516 15362
 5417 5517 15363
 5418 5518 15364
 5419 5519 15365
 5420 5520 15366
 5421 5521 15367
 5422 5522 15368
 5423 5523 15369
 5424 5524 15370
 5425 5525 15371
 5426 5526 15372
 5427 5527 15373
 5428 5528 15374
 5429 5529 15375
 5430 5530 15376
 5431 5531 15377
 5432 5532 15378
 5433 5533 15379
 5434 5534 15380
 5435 5535 15381
 5436 5536 15382
 5437 5537 15383
 5438 5538 15384
 5439 5539 15385
 5440 5540 15386
 5441 5541 15387
 5442 5542 15388
 5443 5543 15389
 5444 5544 15390
 5445 5545 15391
 5446 5546 15392
 5447 5547 15393
 5448 5548 15394
 5449 5549 15395
 5450 5550 15396
 5451 5551 15397
 5452 5552 15398
 5453 5553 15399
 5454 5554 15400
 5455 5555 15401
 5456 5556 15402
 5457 5557 15403
 5458 5558 15404
 5459 5559 15405
 5460 5560 15406
 5461 5561 15407
 5462 5562 15408
 5463 5563 15409
 5464 5564 15410
 5465 5565 15411
 5466 5566 15412
 5467 5567 15413
 5468 5568 15414
 5469 5569 15415
 5470 5570 15416
 5471 5571 15417
 5472 5572 15418
 5473 5573 15419
 5474 5574 15420
 5475 5575 15421
 5476 5576 15422
 5477 5577 15423
 5478 5578 15424
 5479 5579 15425
 5480 5580 15426
 5481 5581 15427
 5482 5582 15428
 5483 5583 15429
 5484 5584 15430
 5485 5585 15431
 5486 5586 15432
 5487 5587 15433
 5488 5588 15434
 5489 5589 15435
 5490 5590 15436
 5491 5591 15437
 5492 5592 15438
 5493 5593 15439
 5494 5594 15440
 5495 5595 15441
 5496 5596 15442
 5497 5597 15443
 5498 5598 15444
 5500 5600 15445
 5501 5601 15446
 5502 5602 15447
 5503 5603 15448
 5504 5604 15449
 5505 5605 15450
 5506 5606 15451
 5507 5607 15452
 5508 5608 15453
 5509 5609 15454
 5510 5610 15455
 5511 5611 15456
 5512 5612 15457
 5513 5613 15458
 5514 5614 15459
 5515 5615 15460
 5516 5616 15461
 5517 5617 15462
 5518 5618 15463
 5519 5619 15464
 5520 5620 15465
 5521 5621 15466
 5522 5622 15467
 5523 5623 15468
 5524 5624 15469
 5525 5625 15470
 5526 5626 15471
 5527 5627 15472
 5528 5628 15473
 5529 5629 15474
 5530 5630 15475
 5531 5631 15476
 5532 5632 15477
 5533 5633 15478
 5534 5634 15479
 5535 5635 15480
 5536 5636 15481
 5537 5637 15482
 5538 5638 15483
 5539 5639 15484
 5540 5640 15485
 5541 5641 15486
 5542 5642 15487
 5543 5643 15488
 5544 5644 15489
 5545 5645 15490
 5546 5646 15491
 5547 5647 15492
 5548 5648 15493
 5549 5649 15494
 5550 5650 15495
 5551 5651 15496
 5552 5652 15497
 5553 5653 15498
 5554 5654 15499
 5555 5655 15500
 5556 5656 15501
 5557 5657 15502
 5558 5658 15503
 5559 5659 15504
 5560 5660 15505
 5561 5661 15506
 5562 5662 15507
 5563 5663 15508
 5564 5664 15509
 5565 5665 15510
 5566 5666 15511
 5567 5667 15512
 5568 5668 15513
 5569 5669 15514
 5570 5670 15515
 5571 5671 15516
 5572 5672 15517
 5573 5673 15518
 5574 5674 15519
 5575 5675 15520
 5576 5676 15521
 5577 5677 15522
 5578 5678 15523
 5579 5679 15524
 5580 5680 15525
 5581 5681 15526
 5582 5682 15527
 5583 5683 15528
 5584 5684 15529
 5585 5685 15530
 5586 5686 15531
 5587 5687 15532
 5588 5688 15533
 5589 5689 15534
 5590 5690 15535
 5591 5691 15536
 5592 5692 15537
 5593 5693 15538
 5594 5694 15539
 5595 5695 15540
 5596 5696 15541
 5597 5697 15542
 5598 5698 15543
 5600 5700 15544
 5601 5701 15545
 5602 5702 15546
 5603 5703 15547
 5604 5704 15548
 5605 5705 15549
 5606 5706 15550
 5607 5707 15551
 5608 5708 15552
 5609 5709 15553
 5610 5710 15554
 5611 5711 15555
 5612 5712 15556
 5613 5713 15557
 5614 5714 15558
 5615 5715 15559
 5616 5716 15560
 5617 5717 15561
 5618 5718 15562
 5619 5719 15563
 5620 5720 15564
 5621 5721 15565
 5622 5722 15566
 5623 5723 15567
 5624 5724 15568
 5625 5725 15569
 5626 5726 15570
 5627 5727 15571
 5628 5728 15572
 5629 5729 15573
 5630 5730 15574
 5631 5731 15575
 5632 5732 15576
 5633 5733 15577
 5634 5734 15578
 5635 5735 15579
 5636 5736 15580
 5637 5737 15581
 5638 5738 15582
 5639 5739 15583
 5640 5740 15584
 5641 5741 15585
 5642 5742 15586
 5643 5743 15587
 5644 5744 15588
 5645 5745 15589
 5646 5746 15590
 5647 5747 15591
 5648 5748 15592
 5649 5749 15593
 5650 5750 15594
 5651 5751 15595
 5652 5752 15596
 5653 5753 15597
 5654 5754 15598
 5655 5755 15599
 5656 5756 15600
 5657 5757 15601
 5658 5758 15602
 5659 5759 15603
 5660 5760 15604
 5661 5761 15605
 5662 5762 15606
 5663 5763 15607
 5664 5764 15608
 5665 5765 15609
 5666 5766 15610
 5667 5767 15611
 5668 5768 15612
 5669 5769 15613
 5670 5770 15614
 5671 5771 15615
 5672 5772 15616
 5673 5773 15617
 5674 5774 15618
 5675 5775 15619
 5676 5776 15620
 5677 5777 15621
 5678 5778 15622
 5679 5779 15623
 5680 5780 15624
 5681 5781 15625
 5682 5782 15626
 5683 5783 15627
 5684 5784 15628
 5685 5785 15629
 5686 5786 15630
 5687 5787 15631
 5688 5788 15632
 5689 5789 15633
 5690 5790 15634
 5691 5791 15635
 5692 5792 15636
 5693 5793 15637
 5694 5794 15638
 5695 5795 15639
 5696 5796 15640
 5697 5797 15641
 5698 5798 15642
 5700 5800 15643
 5701 5801 15644
 5702 5802 15645
 5703 5803 15646
 5704 5804 15647
 5705 5805 15648
 5706 5806 15649
 5707 5807 15650
 5708 5808 15651
 5709 5809 15652
 5710 5810 15653
 5711 5811 15654
 5712 5812 15655
 5713 5813 15656
 5714 5814 15657
 5715 5815 15658
 5716 5816 15659
 5717 5817 15660
 5718 5818 15661
 5719 5819 15662
 5720 5820 15663
 5721 5821 15664
 5722 5822 15665
 5723 5823 15666
 5724 5824 15667
 5725 5825 15668
 5726 5826 15669
 5727 5827 15670
 5728 5828 15671
 5729 5829 15672
 5730 5830 15673
 5731 5831 15674
 5732 5832 15675
 5733 5833 15676
 5734 5834 15677
 5735 5835 15678
 5736 5836 15679
 5737 5837 15680
 5738 5838 15681
 5739 5839 15682
 5740 5840 15683
 5741 5841 15684
 5742 5842 15685
 5743 5843 15686
 5744 5844 15687
 5745 5845 15688
 5746 5846 15689
 5747 5847 15690
 5748 5848 15691
 5749 5849 15692
 5750 5850 15693
 5751 5851 15694
 5752 5852 15695
 5753 5853 15696
 5754 5854 15697
 5755 5855 15698
 5756 5856 15699
 5757 5857 15700
 5758 5858 15701
 5759 5859 15702
 5760 5860 15703
 5761 5861 15704
 5762 5862 15705
 5763 5863 15706
 5764 5864 15707
 5765 5865 15708
 5766 5866 15709
 5767 5867 15710
 5768 5868 15711
 5769 5869 15712
 5770 5870 15713
 5771 5871 15714
 5772 5872 15715
 5773 5873 15716
 5774 5874 15717
 5775 5875 15718
 5776 5876 15719
 5777 5877 15720
 5778 5878 15721
 5779 5879 15722
 5780 5880 15723
 5781 5881 15724
 5782 5882 15725
 5783 5883 15726
 5784 5884 15727
 5785 5885 15728
 5786 5886 15729
 5787 5887 15730
 5788 5888 15731
 5789 5889 15732
 5790 5890 15733
 5791 5891 15734
 5792 5892 15735
 5793 5893 15736
 5794 5894 15737
 5795 5895 15738
 5796 5896 15739
 5797 5897 15740
 5798 5898 15741
 5800 5900 15742
 5801 5901 15743
 5802 5902 15744
 5803 5903 15745
 5804 5904 15746
 5805 5905 15747
 5806 5906 15748
 5807 5907 15749
 5808 5908 15750
 5809 5909 15751
 5810 5910 15752
 5811 5911 15753
 5812 5912 15754
 5813 5913 15755
 5814 5914 15756
 5815 5915 15757
 5816 5916 15758
 5817 5917 15759
 5818 5918 15760
 5819 5919 15761
 5820 5920 15762
 5821 5921 15763
 5822 5922 15764
 5823 5923 15765
 5824 5924 15766
 5825 5925 15767
 5826 5926 15768
 5827 5927 15769
 5828 5928 15770
 5829 5929 15771
 5830 5930 15772
 5831 5931 15773
 5832 5932 15774
 5833 5933 15775
 5834 5934 15776
 5835 5935 15777
 5836 5936 15778
 5837 5937 15779
 5838 5938 15780
 5839 5939 15781
 5840 5940 15782
 5841 5941 15783
 5842 5942 15784
 5843 5943 15785
 5844 5944 15786
 5845 5945 15787
 5846 5946 15788
 5847 5947 15789
 5848 5948 15790
 5849 5949 15791
 5850 5950 15792
 5851 5951 15793
 5852 5952 15794
 5853 5953 15795
 5854 5954 15796
 5855 5955 15797
 5856 5956 15798
 5857 5957 15799
 5858 5958 15800
 5859 5959 15801
 5860 5960 15802
 5861 5961 15803
 5862 5962 15804
 5863 5963 15805
 5864 5964 15806
 5865 5965 15807
 5866 5966 15808
 5867 5967 15809
 5868 5968 15810
 5869 5969 15811
 5870 5970 15812
 5871 5971 15813
 5872 5972 15814
 5873 5973 15815
 5874 5974 15816
 5875 5975 15817
 5876 5976 15818
 5877 5977 15819
 5878 5978 15820
 5879 5979 15821
 5880 5980 15822
 5881 5981 15823
 5882 5982 15824
 5883 5983 15825
 5884 5984 15826
 5885 5985 15827
 5886 5986 15828
 5887 5987 15829
 5888 5988 15830
 5889 5989 15831
 5890 5990 15832
 5891 5991 15833
 5892 5992 15834
 5893 5993 15835
 5894 5994 15836
 5895 5995 15837
 5896 5996 15838
 5897 5997 15839
 5898 5998 15840
 5900 6000 15841
 5901 6001 15842
 5902 6002 15843
 5903 6003 15844
 5904 6004 15845
 5905 6005 15846
 5906 6006 15847
 5907 6007 15848
 5908 6008 15849
 5909 6009 15850
 5910 6010 15851
 5911 6011 15852
 5912 6012 15853
 5913 6013 15854
 5914 6014 15855
 5915 6015 15856
 5916 6016 15857
 5917 6017 15858
 5918 6018 15859
 5919 6019 15860
 5920 6020 15861
 5921 6021 15862
 5922 6022 15863
 5923 6023 15864
 5924 6024 15865
 5925 6025 15866
 5926 6026 15867
 5927 6027 15868
 5928 6028 15869
 5929 6029 15870
 5930 6030 15871
 5931 6031 15872
 5932 6032 15873
 5933 6033 15874
 5934 6034 15875
 5935 6035 15876
 5936 6036 15877
 5937 6037 15878
 5938 6038 15879
 5939 6039 15880
 5940 6040 15881
 5941 6041 15882
 5942 6042 15883
 5943 6043 15884
 5944 6044 15885
 5945 6045 15886
 5946 6046 15887
 5947 6047 15888
 5948 6048 15889
 5949 6049 15890
 5950 6050 15891
 5951 6051 15892
 5952 6052 15893
 5953 6053 15894
 5954 6054 15895
 5955 6055 15896
 5956 6056 15897
 5957 6057 15898
 5958 6058 15899
 5959 6059 15900
 5960 6060 15901
 5961 6061 15902
 5962 6062 15903
 5963 6063 15904
 5964 6064 15905
 5965 6065 15906
 5966 6066 15907
 5967 6067 15908
 5968 6068 15909
 5969 6069 15910
 5970 6070 15911
 5971 6071 15912
 5972 6072 15913
 5973 6073 15914
 5974 6074 15915
 5975 6075 15916
 5976 6076 15917
 5977 6077 15918
 5978 6078 15919
 5979 6079 15920
 5980 6080 15921
 5981 6081 15922
 5982 6082 15923
 5983 6083 15924
 5984 6084 15925
 5985 6085 15926
 5986 6086 15927
 5987 6087 15928
 5988 6088 15929
 5989 6089 15930
 5990 6090 15931
 5991 6091 15932
 5992 6092 15933
 5993 6093 15934
 5994 6094 15935
 5995 6095 15936
 5996 6096 15937
 5997 6097 15938
 5998 6098 15939
 6000 6100 15940
 6001 6101 15941
 6002 6102 15942
 6003 6103 15943
 6004 6104 15944
 6005 6105 15945
 6006 6106 15946
 6007 6107 15947
 6008 6108 15948
 6009 6109 15949
 6010 6110 15950
 6011 6111 15951
 6012 6112 15952
 6013 6113 15953
 6014 6114 15954
 6015 6115 15955
 6016 6116 15956
 6017 6117 15957
 6018 6118 15958
 6019 6119 15959
 6020 6120 15960
 6021 6121 15961
 6022 6122 15962
 6023 6123 15963
 6024 6124 15964
 6025 6125 15965
 6026 6126 15966
 6027 6127 15967
 6028 6128 15968
 6029 6129 15969
 6030 6130 15970
 6031 6131 15971
 6032 6132 15972
 6033 6133 15973
 6034 6134 15974
 6035 6135 15975
 6036 6136 15976
 6037 6137 15977
 6038 6138 15978
 6039 6139 15979
 6040 6140 15980
 6041 6141 15981
 6042 6142 15982
 6043 6143 15983
 6044 6144 15984
 6045 6145 15985
 6046 6146 15986
 6047 6147 15987
 6048 6148 15988
 6049 6149 15989
 6050 6150 15990
 6051 6151 15991
 6052 6152 15992
 6053 6153 15993
 6054 6154 15994
 6055 6155 15995
 6056 6156 15996
 6057 6157 15997
 6058 6158 15998
 6059 6159 15999
 6060 6160 16000
 6061 6161 16001
 6062 6162 16002
 6063 6163 16003
 6064 6164 16004
 6065 6165 16005
 6066 6166 16006
 6067 6167 16007
 6068 6168 16008
 6069 6169 16009
 6070 6170 16010
 6071 6171 16011
 6072 6172 16012
 6073 6173 16013
 6074 6174 16014
 6075 6175 16015
 6076 6176 16016
 6077 6177 16017
 6078 6178 16018
 6079 6179 16019
 6080 6180 16020
 6081 6181 16021
 6082 6182 16022
 6083 6183 16023
 6084 6184 16024
 6085 6185 16025
 6086 6186 16026
 6087 6187 16027
 6088 6188 16028
 6089 6189 16029
 6090 6190 16030
 6091 6191 16031
 6092 6192 16032
 6093 6193 16033
 6094 6194 16034
 6095 6195 16035
 6096 6196 16036
 6097 6197 16037
 6098 6198 16038
 6100 6200 16039
 6101 6201 16040
 6102 6202 16041
 6103 6203 16042
 6104 6204 16043
 6105 6205 16044
 6106 6206 16045
 6107 6207 16046
 6108 6208 16047
 6109 6209 16048
 6110 6210 16049
 6111 6211 16050
 6112 6212 16051
 6113 6213 16052
 6114 6214 16053
 6115 6215 16054
 6116 6216 16055
 6117 6217 16056
 6118 6218 16057
 6119 6219 16058
 6120 6220 16059
 6121 6221 16060
 6122 6222 16061
 6123 6223 16062
 6124 6224 16063
 6125 6225 16064
 6126 6226 16065
 6127 6227 16066
 6128 6228 16067
 6129 6229 16068
 6130 6230 16069
 6131 6231 16070
 6132 6232 16071
 6133 6233 16072
 6134 6234 16073
 6135 6235 16074
 6136 6236 16075
 6137 6237 16076
 6138 6238 16077
 6139 6239 16078
 6140 6240 16079
 6141 6241 16080
 6142 6242 16081
 6143 6243 16082
 6144 6244 16083
 6145 6245 16084
 6146 6246 16085
 6147 6247 16086
 6148 6248 16087
 6149 6249 16088
 6150 6250 16089
 6151 6251 16090
 6152 6252 16091
 6153 6253 16092
 6154 6254 16093
 6155 6255 16094
 6156 6256 16095
 6157 6257 16096
 6158 6258 16097
 6159 6259 16098
 6160 6260 16099
 6161 6261 16100
 6162 6262 16101
 6163 6263 16102
 6164 6264 16103
 6165 6265 16104
 6166 6266 16105
 6167 6267 16106
 6168 6268 16107
 6169 6269 16108
 6170 6270 16109
 6171 6271 16110
 6172 6272 16111
 6173 6273 16112
 6174 6274 16113
 6175 6275 16114
 6176 6276 16115
 6177 6277 16116
 6178 6278 16117
 6179 6279 16118
 6180 6280 16119
 6181 6281 16120
 6182 6282 16121
 6183 6283 16122
 6184 6284 16123
 6185 6285 16124
 6186 6286 16125
 6187 6287 16126
 6188 6288 16127
 6189 6289 16128
 6190 6290 16129
 6191 6291 16130
 6192 6292 16131
 6193 6293 16132
 6194 6294 16133
 6195 6295 16134
 6196 6296 16135
 6197 6297 16136
 6198 6298 16137
 6200 6300 16138
 6201 6301 16139
 6202 6302 16140
 6203 6303 16141
 6204 6304 16142
 6205 6305 16143
 6206 6306 16144
 6207 6307 16145
 6208 6308 16146
 6209 6309 16147
 6210 6310 16148
 6211 6311 16149
 6212 6312 16150
 6213 6313 16151
 6214 6314 16152
 6215 6315 16153
 6216 6316 16154
 6217 6317 16155
 6218 6318 16156
 6219 6319 16157
 6220 6320 16158
 6221 6321 16159
 6222 6322 16160
 6223 6323 16161
 6224 6324 16162
 6225 6325 16163
 6226 6326 16164
 6227 6327 16165
 6228 6328 16166
 6229 6329 16167
 6230 6330 16168
 6231 6331 16169
 6232 6332 16170
 6233 6333 16171
 6234 6334 16172
 6235 6335 16173
 6236 6336 16174
 6237 6337 16175
 6238 6338 16176
 6239 6339 16177
 6240 6340 16178
 6241 6341 16179
 6242 6342 16180
 6243 6343 16181
 6244 6344 16182
 6245 6345 16183
 6246 6346 16184
 6247 6347 16185
 6248 6348 16186
 6249 6349 16187
 6250 6350 16188
 6251 6351 16189
 6252 6352 16190
 6253 6353 16191
 6254 6354 16192
 6255 6355 16193
 6256 6356 16194
 6257 6357 16195
 6258 6358 16196
 6259 6359 16197
 6260 6360 16198
 6261 6361 16199
 6262 6362 16200
 6263 6363 16201
 6264 6364 16202
 6265 6365 16203
 6266 6366 16204
 6267 6367 16205
 6268 6368 16206
 6269 6369 16207
 6270 6370 16208
 6271 6371 16209
 6272 6372 16210
 6273 6373 16211
 6274 6374 16212
 6275 6375 16213
 6276 6376 16214
 6277 6377 16215
 6278 6378 16216
 6279 6379 16217
 6280 6380 16218
 6281 6381 16219
 6282 6382 16220
 6283 6383 16221
 6284 6384 16222
 6285 6385 16223
 6286 6386 16224
 6287 6387 16225
 6288 6388 16226
 6289 6389 16227
 6290 6390 16228
 6291 6391 16229
 6292 6392 16230
 6293 6393 16231
 6294 6394 16232
 6295 6395 16233
 6296 6396 16234
 6297 6397 16235
 6298 6398 16236
 6300 6400 16237
 6301 6401 16238
 6302 6402 16239
 6303 6403 16240
 6304 6404 16241
 6305 6405 16242
 6306 6406 16243
 6307 6407 16244
 6308 6408 16245
 6309 6409 16246
 6310 6410 16247
 6311 6411 16248
 6312 6412 16249
 6313 6413 16250
 6314 6414 16251
 6315 6415 16252
 6316 6416 16253
 6317 6417 16254
 6318 6418 16255
 6319 6419 16256
 6320 6420 16257
 6321 6421 16258
 6322 6422 16259
 6323 6423 16260
 6324 6424 16261
 6325 6425 16262
 6326 6426 16263
 6327 6427 16264
 6328 6428 16265
 6329 6429 16266
 6330 6430 16267
 6331 6431 16268
 6332 6432 16269
 6333 6433 16270
 6334 6434 16271
 6335 6435 16272
 6336 6436 16273
 6337 6437 16274
 6338 6438 16275
 6339 6439 16276
 6340 6440 16277
 6341 6441 16278
 6342 6442 16279
 6343 6443 16280
 6344 6444 16281
 6345 6445 16282
 6346 6446 16283
 6347 6447 16284
 6348 6448 16285
 6349 6449 16286
 6350 6450 16287
 6351 6451 16288
 6352 6452 16289
 6353 6453 16290
 6354 6454 16291
 6355 6455 16292
 6356 6456 16293
 6357 6457 16294
 6358 6458 16295
 6359 6459 16296
 6360 6460 16297
 6361 6461 16298
 6362 6462 16299
 6363 6463 16300
 6364 6464 16301
 6365 6465 16302
 6366 6466 16303
 6367 6467 16304
 6368 6468 16305
 6369 6469 16306
 6370 6470 16307
 6371 6471 16308
 6372 6472 16309
 6373 6473 16310
 6374 6474 16311
 6375 6475 16312
 6376 6476 16313
 6377 6477 16314
 6378 6478 16315
 6379 6479 16316
 6380 6480 16317
 6381 6481 16318
 6382 6482 16319
 6383 6483 16320
 6384 6484 16321
 6385 6485 16322
 6386 6486 16323
 6387 6487 16324
 6388 6488 16325
 6389 6489 16326
 6390 6490 16327
 6391 6491 16328
 6392 6492 16329
 6393 6493 16330
 6394 6494 16331
 6395 6495 16332
 6396 6496 16333
 6397 6497 16334
 6398 6498 16335
 6400 6500 16336
 6401 6501 16337
 6402 6502 16338
 6403 6503 16339
 6404 6504 16340
 6405 6505 16341
 6406 6506 16342
 6407 6507 16343
 6408 6508 16344
 6409 6509 16345
 6410 6510 16346
 6411 6511 16347
 6412 6512 16348
 6413 6513 16349
 6414 6514 16350
 6415 6515 16351
 6416 6516 16352
 6417 6517 16353
 6418 6518 16354
 6419 6519 16355
 6420 6520 16356
 6421 6521 16357
 6422 6522 16358
 6423 6523 16359
 6424 6524 16360
 6425 6525 16361
 6426 6526 16362
 6427 6527 16363
 6428 6528 16364
 6429 6529 16365
 6430 6530 16366
 6431 6531 16367
 6432 6532 16368
 6433 6533 16369
 6434 6534 16370
 6435 6535 16371
 6436 6536 16372
 6437 6537 16373
 6438 6538 16374
 6439 6539 16375
 6440 6540 16376
 6441 6541 16377
 6442 6542 16378
 6443 6543 16379
 6444 6544 16380
 6445 6545 16381
 6446 6546 16382
 6447 6547 16383
 6448 6548 16384
 6449 6549 16385
 6450 6550 16386
 6451 6551 16387
 6452 6552 16388
 6453 6553 16389
 6454 6554 16390
 6455 6555 16391
 6456 6556 16392
 6457 6557 16393
 6458 6558 16394
 6459 6559 16395
 6460 6560 16396
 6461 6561 16397
 6462 6562 16398
 6463 6563 16399
 6464 6564 16400
 6465 6565 16401
 6466 6566 16402
 6467 6567 16403
 6468 6568 16404
 6469 6569 16405
 6470 6570 16406
 6471 6571 16407
 6472 6572 16408
 6473 6573 16409
 6474 6574 16410
 6475 6575 16411
 6476 6576 16412
 6477 6577 16413
 6478 6578 16414
 6479 6579 16415
 6480 6580 16416
 6481 6581 16417
 6482 6582 16418
 6483 6583 16419
 6484 6584 16420
 6485 6585 16421
 6486 6586 16422
 6487 6587 16423
 6488 6588 16424
 6489 6589 16425
 6490 6590 16426
 6491 6591 16427
 6492 6592 16428
 6493 6593 16429
 6494 6594 16430
 6495 6595 16431
 6496 6596 16432
 6497 6597 16433
 6498 6598 16434
 6500 6600 16435
 6501 6601 16436
 6502 6602 16437
 6503 6603 16438
 6504 6604 16439
 6505 6605 16440
 6506 6606 16441
 6507 6607 16442
 6508 6608 16443
 6509 6609 16444
 6510 6610 16445
 6511 6611 16446
 6512 6612 16447
 6513 6613 16448
 6514 6614 16449
 6515 6615 16450
 6516 6616 16451
 6517 6617 16452
 6518 6618 16453
 6519 6619 16454
 6520 6620 16455
 6521 6621 16456
 6522 6622 16457
 6523 6623 16458
 6524 6624 16459
 6525 6625 16460
 6526 6626 16461
 6527 6627 16462
 6528 6628 16463
 6529 6629 16464
 6530 6630 16465
 6531 6631 16466
 6532 6632 16467
 6533 6633 16468
 6534 6634 16469
 6535 6635 16470
 6536 6636 16471
 6537 6637 16472
 6538 6638 16473
 6539 6639 16474
 6540 6640 16475
 6541 6641 16476
 6542 6642 16477
 6543 6643 16478
 6544 6644 16479
 6545 6645 16480
 6546 6646 16481
 6547 6647 16482
 6548 6648 16483
 6549 6649 16484
 6550 6650 16485
 6551 6651 16486
 6552 6652 16487
 6553 6653 16488
 6554 6654 16489
 6555 6655 16490
 6556 6656 16491
 6557 6657 16492
 6558 6658 16493
 6559 6659 16494
 6560 6660 16495
 6561 6661 16496
 6562 6662 16497
 6563 6663 16498
 6564 6664 16499
 6565 6665 16500
 6566 6666 16501
 6567 6667 16502
 6568 6668 16503
 6569 6669 16504
 6570 6670 16505
 6571 6671 16506
 6572 6672 16507
 6573 6673 16508
 6574 6674 16509
 6575 6675 16510
 6576 6676 16511
 6577 6677 16512
 6578 6678 16513
 6579 6679 16514
 6580 6680 16515
 6581 6681 16516
 6582 6682 16517
 6583 6683 16518
 6584 6684 16519
 6585 6685 16520
 6586 6686 16521
 6587 6687 16522
 6588 6688 16523
 6589 6689 16524
 6590 6690 16525
 6591 6691 16526
 6592 6692 16527
 6593 6693 16528
 6594 6694 16529
 6595 6695 16530
 6596 6696 16531
 6597 6697 16532
 6598 6698 16533
 6600 6700 16534
 6601 6701 16535
 6602 6702 16536
 6603 6703 16537
 6604 6704 16538
 6605 6705 16539
 6606 6706 16540
 6607 6707 16541
 6608 6708 16542
 6609 6709 16543
 6610 6710 16544
 6611 6711 16545
 6612 6712 16546
 6613 6713 16547
 6614 6714 16548
 6615 6715 16549
 6616 6716 16550
 6617 6717 16551
 6618 6718 16552
 6619 6719 16553
 6620 6720 16554
 6621 6721 16555
 6622 6722 16556
 6623 6723 16557
 6624 6724 16558
 6625 6725 16559
 6626 6726 16560
 6627 6727 16561
 6628 6728 16562
 6629 6729 16563
 6630 6730 16564
 6631 6731 16565
 6632 6732 16566
 6633 6733 16567
 6634 6734 16568
 6635 6735 16569
 6636 6736 16570
 6637 6737 16571
 6638 6738 16572
 6639 6739 16573
 6640 6740 16574
 6641 6741 16575
 6642 6742 16576
 6643 6743 16577
 6644 6744 16578
 6645 6745 16579
 6646 6746 16580
 6647 6747 16581
 6648 6748 16582
 6649 6749 16583
 6650 6750 16584
 6651 6751 16585
 6652 6752 16586
 6653 6753 16587
 6654 6754 16588
 6655 6755 16589
 6656 6756 16590
 6657 6757 16591
 6658 6758 16592
 6659 6759 16593
 6660 6760 16594
 6661 6761 16595
 6662 6762 16596
 6663 6763 16597
 6664 6764 16598
 6665 6765 16599
 6666 6766 16600
 6667 6767 16601
 6668 6768 16602
 6669 6769 16603
 6670 6770 16604
 6671 6771 16605
 6672 6772 16606
 6673 6773 16607
 6674 6774 16608
 6675 6775 16609
 6676 6776 16610
 6677 6777 16611
 6678 6778 16612
 6679 6779 16613
 6680 6780 16614
 6681 6781 16615
 6682 6782 16616
 6683 6783 16617
 6684 6784 16618
 6685 6785 16619
 6686 6786 16620
 6687 6787 16621
 6688 6788 16622
 6689 6789 16623
 6690 6790 16624
 6691 6791 16625
 6692 6792 16626
 6693 6793 16627
 6694 6794 16628
 6695 6795 16629
 6696 6796 16630
 6697 6797 16631
 6698 6798 16632
 6700 6800 16633
 6701 6801 16634
 6702 6802 16635
 6703 6803 16636
 6704 6804 16637
 6705 6805 16638
 6706 6806 16639
 6707 6807 16640
 6708 6808 16641
 6709 6809 16642
 6710 6810 16643
 6711 6811 16644
 6712 6812 16645
 6713 6813 16646
 6714 6814 16647
 6715 6815 16648
 6716 6816 16649
 6717 6817 16650
 6718 6818 16651
 6719 6819 16652
 6720 6820 16653
 6721 6821 16654
 6722 6822 16655
 6723 6823 16656
 6724 6824 16657
 6725 6825 16658
 6726 6826 16659
 6727 6827 16660
 6728 6828 16661
 6729 6829 16662
 6730 6830 16663
 6731 6831 16664
 6732 6832 16665
 6733 6833 16666
 6734 6834 16667
 6735 6835 16668
 6736 6836 16669
 6737 6837 16670
 6738 6838 16671
 6739 6839 16672
 6740 6840 16673
 6741 6841 16674
 6742 6842 16675
 6743 6843 16676
 6744 6844 16677
 6745 6845 16678
 6746 6846 16679
 6747 6847 16680
 6748 6848 16681
 6749 6849 16682
 6750 6850 16683
 6751 6851 16684
 6752 6852 16685
 6753 6853 16686
 6754 6854 16687
 6755 6855 16688
 6756 6856 16689
 6757 6857 16690
 6758 6858 16691
 6759 6859 16692
 6760 6860 16693
 6761 6861 16694
 6762 6862 16695
 6763 6863 16696
 6764 6864 16697
 6765 6865 16698
 6766 6866 16699
 6767 6867 16700
 6768 6868 16701
 6769 6869 16702
 6770 6870 16703
 6771 6871 16704
 6772 6872 16705
 6773 6873 16706
 6774 6874 16707
 6775 6875 16708
 6776 6876 16709
 6777 6877 16710
 6778 6878 16711
 6779 6879 16712
 6780 6880 16713
 6781 6881 16714
 6782 6882 16715
 6783 6883 16716
 6784 6884 16717
 6785 6885 16718
 6786 6886 16719
 6787 6887 16720
 6788 6888 16721
 6789 6889 16722
 6790 6890 16723
 6791 6891 16724
 6792 6892 16725
 6793 6893 16726
 6794 6894 16727
 6795 6895 16728
 6796 6896 16729
 6797 6897 16730
 6798 6898 16731
 6800 6900 16732
 6801 6901 16733
 6802 6902 16734
 6803 6903 16735
 6804 6904 16736
 6805 6905 16737
 6806 6906 16738
 6807 6907 16739
 6808 6908 16740
 6809 6909 16741
 6810 6910 16742
 6811 6911 16743
 6812 6912 16744
 6813 6913 16745
 6814 6914 16746
 6815 6915 16747
 6816 6916 16748
 6817 6917 16749
 6818 6918 16750
 6819 6919 16751
 6820 6920 16752
 6821 6921 16753
 6822 6922 16754
 6823 6923 16755
 6824 6924 16756
 6825 6925 16757
 6826 6926 16758
 6827 6927 16759
 6828 6928 16760
 6829 6929 16761
 6830 6930 16762
 6831 6931 16763
 6832 6932 16764
 6833 6933 16765
 6834 6934 16766
 6835 6935 16767
 6836 6936 16768
 6837 6937 16769
 6838 6938 16770
 6839 6939 16771
 6840 6940 16772
 6841 6941 16773
 6842 6942 16774
 6843 6943 16775
 6844 6944 16776
 6845 6945 16777
 6846 6946 16778
 6847 6947 16779
 6848 6948 16780
 6849 6949 16781
 6850 6950 16782
 6851 6951 16783
 6852 6952 16784
 6853 6953 16785
 6854 6954 16786
 6855 6955 16787
 6856 6956 16788
 6857 6957 16789
 6858 6958 16790
 6859 6959 16791
 6860 6960 16792
 6861 6961 16793
 6862 6962 16794
 6863 6963 16795
 6864 6964 16796
 6865 6965 16797
 6866 6966 16798
 6867 6967 16799
 6868 6968 16800
 6869 6969 16801
 6870 6970 16802
 6871 6971 16803
 6872 6972 16804
 6873 6973 16805
 6874 6974 16806
 6875 6975 16807
 6876 6976 16808
 6877 6977 16809
 6878 6978 16810
 6879 6979 16811
 6880 6980 16812
 6881 6981 16813
 6882 6982 16814
 6883 6983 16815
 6884 6984 16816
 6885 6985 16817
 6886 6986 16818
 6887 6987 16819
 6888 6988 16820
 6889 6989 16821
 6890 6990 16822
 6891 6991 16823
 6892 6992 16824
 6893 6993 16825
 6894 6994 16826
 6895 6995 16827
 6896 6996 16828
 6897 6997 16829
 6898 6998 16830
 6900 7000 16831
 6901 7001 16832
 6902 7002 16833
 6903 7003 16834
 6904 7004 16835
 6905 7005 16836
 6906 7006 16837
 6907 7007 16838
 6908 7008 16839
 6909 7009 16840
 6910 7010 16841
 6911 7011 16842
 6912 7012 16843
 6913 7013 16844
 6914 7014 16845
 6915 7015 16846
 6916 7016 16847
 6917 7017 16848
 6918 7018 16849
 6919 7019 16850
 6920 7020 16851
 6921 7021 16852
 6922 7022 16853
 6923 7023 16854
 6924 7024 16855
 6925 7025 16856
 6926 7026 16857
 6927 7027 16858
 6928 7028 16859
 6929 7029 16860
 6930 7030 16861
 6931 7031 16862
 6932 7032 16863
 6933 7033 16864
 6934 7034 16865
 6935 7035 16866
 6936 7036 16867
 6937 7037 16868
 6938 7038 16869
 6939 7039 16870
 6940 7040 16871
 6941 7041 16872
 6942 7042 16873
 6943 7043 16874
 6944 7044 16875
 6945 7045 16876
 6946 7046 16877
 6947 7047 16878
 6948 7048 16879
 6949 7049 16880
 6950 7050 16881
 6951 7051 16882
 6952 7052 16883
 6953 7053 16884
 6954 7054 16885
 6955 7055 16886
 6956 7056 16887
 6957 7057 16888
 6958 7058 16889
 6959 7059 16890
 6960 7060 16891
 6961 7061 16892
 6962 7062 16893
 6963 7063 16894
 6964 7064 16895
 6965 7065 16896
 6966 7066 16897
 6967 7067 16898
 6968 7068 16899
 6969 7069 16900
 6970 7070 16901
 6971 7071 16902
 6972 7072 16903
 6973 7073 16904
 6974 7074 16905
 6975 7075 16906
 6976 7076 16907
 6977 7077 16908
 6978 7078 16909
 6979 7079 16910
 6980 7080 16911
 6981 7081 16912
 6982 7082 16913
 6983 7083 16914
 6984 7084 16915
 6985 7085 16916
 6986 7086 16917
 6987 7087 16918
 6988 7088 16919
 6989 7089 16920
 6990 7090 16921
 6991 7091 16922
 6992 7092 16923
 6993 7093 16924
 6994 7094 16925
 6995 7095 16926
 6996 7096 16927
 6997 7097 16928
 6998 7098 16929
 7000 7100 16930
 7001 7101 16931
 7002 7102 16932
 7003 7103 16933
 7004 7104 16934
 7005 7105 16935
 7006 7106 16936
 7007 7107 16937
 7008 7108 16938
 7009 7109 16939
 7010 7110 16940
 7011 7111 16941
 7012 7112 16942
 7013 7113 16943
 7014 7114 16944
 7015 7115 16945
 7016 7116 16946
 7017 7117 16947
 7018 7118 16948
 7019 7119 16949
 7020 7120 16950
 7021 7121 16951
 7022 7122 16952
 7023 7123 16953
 7024 7124 16954
 7025 7125 16955
 7026 7126 16956
 7027 7127 16957
 7028 7128 16958
 7029 7129 16959
 7030 7130 16960
 7031 7131 16961
 7032 7132 16962
 7033 7133 16963
 7034 7134 16964
 7035 7135 16965
 7036 7136 16966
 7037 7137 16967
 7038 7138 16968
 7039 7139 16969
 7040 7140 16970
 7041 7141 16971
 7042 7142 16972
 7043 7143 16973
 7044 7144 16974
 7045 7145 16975
 7046 7146 16976
 7047 7147 16977
 7048 7148 16978
 7049 7149 16979
 7050 7150 16980
 7051 7151 16981
 7052 7152 16982
 7053 7153 16983
 7054 7154 16984
 7055 7155 16985
 7056 7156 16986
 7057 7157 16987
 7058 7158 16988
 7059 7159 16989
 7060 7160 16990
 7061 7161 16991
 7062 7162 16992
 7063 7163 16993
 7064 7164 16994
 7065 7165 16995
 7066 7166 16996
 7067 7167 16997
 7068 7168 16998
 7069 7169 16999
 7070 7170 17000
 7071 7171 17001
 7072 7172 17002
 7073 7173 17003
 7074 7174 17004
 7075 7175 17005
 7076 7176 17006
 7077 7177 17007
 7078 7178 17008
 7079 7179 17009
 7080 7180 17010
 7081 7181 17011
 7082 7182 17012
 7083 7183 17013
 7084 7184 17014
 7085 7185 17015
 7086 7186 17016
 7087 7187 17017
 7088 7188 17018
 7089 7189 17019
 7090 7190 17020
 7091 7191 17021
 7092 7192 17022
 7093 7193 17023
 7094 7194 17024
 7095 7195 17025
 7096 7196 17026
 7097 7197 17027
 7098 7198 17028
 7100 7200 17029
 7101 7201 17030
 7102 7202 17031
 7103 7203 17032
 7104 7204 17033
 7105 7205 17034
 7106 7206 17035
 7107 7207 17036
 7108 7208 17037
 7109 7209 17038
 7110 7210 17039
 7111 7211 17040
 7112 7212 17041
 7113 7213 17042
 7114 7214 17043
 7115 7215 17044
 7116 7216 17045
 7117 7217 17046
 7118 7218 17047
 7119 7219 17048
 7120 7220 17049
 7121 7221 17050
 7122 7222 17051
 7123 7223 17052
 7124 7224 17053
 7125 7225 17054
 7126 7226 17055
 7127 7227 17056
 7128 7228 17057
 7129 7229 17058
 7130 7230 17059
 7131 7231 17060
 7132 7232 17061
 7133 7233 17062
 7134 7234 17063
 7135 7235 17064
 7136 7236 17065
 7137 7237 17066
 7138 7238 17067
 7139 7239 17068
 7140 7240 17069
 7141 7241 17070
 7142 7242 17071
 7143 7243 17072
 7144 7244 17073
 7145 7245 17074
 7146 7246 17075
 7147 7247 17076
 7148 7248 17077
 7149 7249 17078
 7150 7250 17079
 7151 7251 17080
 7152 7252 17081
 7153 7253 17082
 7154 7254 17083
 7155 7255 17084
 7156 7256 17085
 7157 7257 17086
 7158 7258 17087
 7159 7259 17088
 7160 7260 17089
 7161 7261 17090
 7162 7262 17091
 7163 7263 17092
 7164 7264 17093
 7165 7265 17094
 7166 7266 17095
 7167 7267 17096
 7168 7268 17097
 7169 7269 17098
 7170 7270 17099
 7171 7271 17100
 7172 7272 17101
 7173 7273 17102
 7174 7274 17103
 7175 7275 17104
 7176 7276 17105
 7177 7277 17106
 7178 7278 17107
 7179 7279 17108
 7180 7280 17109
 7181 7281 17110
 7182 7282 17111
 7183 7283 17112
 7184 7284 17113
 7185 7285 17114
 7186 7286 17115
 7187 7287 17116
 7188 7288 17117
 7189 7289 17118
 7190 7290 17119
 7191 7291 17120
 7192 7292 17121
 7193 7293 17122
 7194 7294 17123
 7195 7295 17124
 7196 7296 17125
 7197 7297 17126
 7198 7298 17127
 7200 7300 17128
 7201 7301 17129
 7202 7302 17130
 7203 7303 17131
 7204 7304 17132
 7205 7305 17133
 7206 7306 17134
 7207 7307 17135
 7208 7308 17136
 7209 7309 17137
 7210 7310 17138
 7211 7311 17139
 7212 7312 17140
 7213 7313 17141
 7214 7314 17142
 7215 7315 17143
 7216 7316 17144
 7217 7317 17145
 7218 7318 17146
 7219 7319 17147
 7220 7320 17148
 7221 7321 17149
 7222 7322 17150
 7223 7323 17151
 7224 7324 17152
 7225 7325 17153
 7226 7326 17154
 7227 7327 17155
 7228 7328 17156
 7229 7329 17157
 7230 7330 17158
 7231 7331 17159
 7232 7332 17160
 7233 7333 17161
 7234 7334 17162
 7235 7335 17163
 7236 7336 17164
 7237 7337 17165
 7238 7338 17166
 7239 7339 17167
 7240 7340 17168
 7241 7341 17169
 7242 7342 17170
 7243 7343 17171
 7244 7344 17172
 7245 7345 17173
 7246 7346 17174
 7247 7347 17175
 7248 7348 17176
 7249 7349 17177
 7250 7350 17178
 7251 7351 17179
 7252 7352 17180
 7253 7353 17181
 7254 7354 17182
 7255 7355 17183
 7256 7356 17184
 7257 7357 17185
 7258 7358 17186
 7259 7359 17187
 7260 7360 17188
 7261 7361 17189
 7262 7362 17190
 7263 7363 17191
 7264 7364 17192
 7265 7365 17193
 7266 7366 17194
 7267 7367 17195
 7268 7368 17196
 7269 7369 17197
 7270 7370 17198
 7271 7371 17199
 7272 7372 17200
 7273 7373 17201
 7274 7374 17202
 7275 7375 17203
 7276 7376 17204
 7277 7377 17205
 7278 7378 17206
 7279 7379 17207
 7280 7380 17208
 7281 7381 17209
 7282 7382 17210
 7283 7383 17211
 7284 7384 17212
 7285 7385 17213
 7286 7386 17214
 7287 7387 17215
 7288 7388 17216
 7289 7389 17217
 7290 7390 17218
 7291 7391 17219
 7292 7392 17220
 7293 7393 17221
 7294 7394 17222
 7295 7395 17223
 7296 7396 17224
 7297 7397 17225
 7298 7398 17226
 7300 7400 17227
 7301 7401 17228
 7302 7402 17229
 7303 7403 17230
 7304 7404 17231
 7305 7405 17232
 7306 7406 17233
 7307 7407 17234
 7308 7408 17235
 7309 7409 17236
 7310 7410 17237
 7311 7411 17238
 7312 7412 17239
 7313 7413 17240
 7314 7414 17241
 7315 7415 17242
 7316 7416 17243
 7317 7417 17244
 7318 7418 17245
 7319 7419 17246
 7320 7420 17247
 7321 7421 17248
 7322 7422 17249
 7323 7423 17250
 7324 7424 17251
 7325 7425 17252
 7326 7426 17253
 7327 7427 17254
 7328 7428 17255
 7329 7429 17256
 7330 7430 17257
 7331 7431 17258
 7332 7432 17259
 7333 7433 17260
 7334 7434 17261
 7335 7435 17262
 7336 7436 17263
 7337 7437 17264
 7338 7438 17265
 7339 7439 17266
 7340 7440 17267
 7341 7441 17268
 7342 7442 17269
 7343 7443 17270
 7344 7444 17271
 7345 7445 17272
 7346 7446 17273
 7347 7447 17274
 7348 7448 17275
 7349 7449 17276
 7350 7450 17277
 7351 7451 17278
 7352 7452 17279
 7353 7453 17280
 7354 7454 17281
 7355 7455 17282
 7356 7456 17283
 7357 7457 17284
 7358 7458 17285
 7359 7459 17286
 7360 7460 17287
 7361 7461 17288
 7362 7462 17289
 7363 7463 17290
 7364 7464 17291
 7365 7465 17292
 7366 7466 17293
 7367 7467 17294
 7368 7468 17295
 7369 7469 17296
 7370 7470 17297
 7371 7471 17298
 7372 7472 17299
 7373 7473 17300
 7374 7474 17301
 7375 7475 17302
 7376 7476 17303
 7377 7477 17304
 7378 7478 17305
 7379 7479 17306
 7380 7480 17307
 7381 7481 17308
 7382 7482 17309
 7383 7483 17310
 7384 7484 17311
 7385 7485 17312
 7386 7486 17313
 7387 7487 17314
 7388 7488 17315
 7389 7489 17316
 7390 7490 17317
 7391 7491 17318
 7392 7492 17319
 7393 7493 17320
 7394 7494 17321
 7395 7495 17322
 7396 7496 17323
 7397 7497 17324
 7398 7498 17325
 7400 7500 17326
 7401 7501 17327
 7402 7502 17328
 7403 7503 17329
 7404 7504 17330
 7405 7505 17331
 7406 7506 17332
 7407 7507 17333
 7408 7508 17334
 7409 7509 17335
 7410 7510 17336
 7411 7511 17337
 7412 7512 17338
 7413 7513 17339
 7414 7514 17340
 7415 7515 17341
 7416 7516 17342
 7417 7517 17343
 7418 7518 17344
 7419 7519 17345
 7420 7520 17346
 7421 7521 17347
 7422 7522 17348
 7423 7523 17349
 7424 7524 17350
 7425 7525 17351
 7426 7526 17352
 7427 7527 17353
 7428 7528 17354
 7429 7529 17355
 7430 7530 17356
 7431 7531 17357
 7432 7532 17358
 7433 7533 17359
 7434 7534 17360
 7435 7535 17361
 7436 7536 17362
 7437 7537 17363
 7438 7538 17364
 7439 7539 17365
 7440 7540 17366
 7441 7541 17367
 7442 7542 17368
 7443 7543 17369
 7444 7544 17370
 7445 7545 17371
 7446 7546 17372
 7447 7547 17373
 7448 7548 17374
 7449 7549 17375
 7450 7550 17376
 7451 7551 17377
 7452 7552 17378
 7453 7553 17379
 7454 7554 17380
 7455 7555 17381
 7456 7556 17382
 7457 7557 17383
 7458 7558 17384
 7459 7559 17385
 7460 7560 17386
 7461 7561 17387
 7462 7562 17388
 7463 7563 17389
 7464 7564 17390
 7465 7565 17391
 7466 7566 17392
 7467 7567 17393
 7468 7568 17394
 7469 7569 17395
 7470 7570 17396
 7471 7571 17397
 7472 7572 17398
 7473 7573 17399
 7474 7574 17400
 7475 7575 17401
 7476 7576 17402
 7477 7577 17403
 7478 7578 17404
 7479 7579 17405
 7480 7580 17406
 7481 7581 17407
 7482 7582 17408
 7483 7583 17409
 7484 7584 17410
 7485 7585 17411
 7486 7586 17412
 7487 7587 17413
 7488 7588 17414
 7489 7589 17415
 7490 7590 17416
 7491 7591 17417
 7492 7592 17418
 7493 7593 17419
 7494 7594 17420
 7495 7595 17421
 7496 7596 17422
 7497 7597 17423
 7498 7598 17424
 7500 7600 17425
 7501 7601 17426
 7502 7602 17427
 7503 7603 17428
 7504 7604 17429
 7505 7605 17430
 7506 7606 17431
 7507 7607 17432
 7508 7608 17433
 7509 7609 17434
 7510 7610 17435
 7511 7611 17436
 7512 7612 17437
 7513 7613 17438
 7514 7614 17439
 7515 7615 17440
 7516 7616 17441
 7517 7617 17442
 7518 7618 17443
 7519 7619 17444
 7520 7620 17445
 7521 7621 17446
 7522 7622 17447
 7523 7623 17448
 7524 7624 17449
 7525 7625 17450
 7526 7626 17451
 7527 7627 17452
 7528 7628 17453
 7529 7629 17454
 7530 7630 17455
 7531 7631 17456
 7532 7632 17457
 7533 7633 17458
 7534 7634 17459
 7535 7635 17460
 7536 7636 17461
 7537 7637 17462
 7538 7638 17463
 7539 7639 17464
 7540 7640 17465
 7541 7641 17466
 7542 7642 17467
 7543 7643 17468
 7544 7644 17469
 7545 7645 17470
 7546 7646 17471
 7547 7647 17472
 7548 7648 17473
 7549 7649 17474
 7550 7650 17475
 7551 7651 17476
 7552 7652 17477
 7553 7653 17478
 7554 7654 17479
 7555 7655 17480
 7556 7656 17481
 7557 7657 17482
 7558 7658 17483
 7559 7659 17484
 7560 7660 17485
 7561 7661 17486
 7562 7662 17487
 7563 7663 17488
 7564 7664 17489
 7565 7665 17490
 7566 7666 17491
 7567 7667 17492
 7568 7668 17493
 7569 7669 17494
 7570 7670 17495
 7571 7671 17496
 7572 7672 17497
 7573 7673 17498
 7574 7674 17499
 7575 7675 17500
 7576 7676 17501
 7577 7677 17502
 7578 7678 17503
 7579 7679 17504
 7580 7680 17505
 7581 7681 17506
 7582 7682 17507
 7583 7683 17508
 7584 7684 17509
 7585 7685 17510
 7586 7686 17511
 7587 7687 17512
 7588 7688 17513
 7589 7689 17514
 7590 7690 17515
 7591 7691 17516
 7592 7692 17517
 7593 7693 17518
 7594 7694 17519
 7595 7695 17520
 7596 7696 17521
 7597 7697 17522
 7598 7698 17523
 7600 7700 17524
 7601 7701 17525
 7602 7702 17526
 7603 7703 17527
 7604 7704 17528
 7605 7705 17529
 7606 7706 17530
 7607 7707 17531
 7608 7708 17532
 7609 7709 17533
 7610 7710 17534
 7611 7711 17535
 7612 7712 17536
 7613 7713 17537
 7614 7714 17538
 7615 7715 17539
 7616 7716 17540
 7617 7717 17541
 7618 7718 17542
 7619 7719 17543
 7620 7720 17544
 7621 7721 17545
 7622 7722 17546
 7623 7723 17547
 7624 7724 17548
 7625 7725 17549
 7626 7726 17550
 7627 7727 17551
 7628 7728 17552
 7629 7729 17553
 7630 7730 17554
 7631 7731 17555
 7632 7732 17556
 7633 7733 17557
 7634 7734 17558
 7635 7735 17559
 7636 7736 17560
 7637 7737 17561
 7638 7738 17562
 7639 7739 17563
 7640 7740 17564
 7641 7741 17565
 7642 7742 17566
 7643 7743 17567
 7644 7744 17568
 7645 7745 17569
 7646 7746 17570
 7647 7747 17571
 7648 7748 17572
 7649 7749 17573
 7650 7750 17574
 7651 7751 17575
 7652 7752 17576
 7653 7753 17577
 7654 7754 17578
 7655 7755 17579
 7656 7756 17580
 7657 7757 17581
 7658 7758 17582
 7659 7759 17583
 7660 7760 17584
 7661 7761 17585
 7662 7762 17586
 7663 7763 17587
 7664 7764 17588
 7665 7765 17589
 7666 7766 17590
 7667 7767 17591
 7668 7768 17592
 7669 7769 17593
 7670 7770 17594
 7671 7771 17595
 7672 7772 17596
 7673 7773 17597
 7674 7774 17598
 7675 7775 17599
 7676 7776 17600
 7677 7777 17601
 7678 7778 17602
 7679 7779 17603
 7680 7780 17604
 7681 7781 17605
 7682 7782 17606
 7683 7783 17607
 7684 7784 17608
 7685 7785 17609
 7686 7786 17610
 7687 7787 17611
 7688 7788 17612
 7689 7789 17613
 7690 7790 17614
 7691 7791 17615
 7692 7792 17616
 7693 7793 17617
 7694 7794 17618
 7695 7795 17619
 7696 7796 17620
 7697 7797 17621
 7698 7798 17622
 7700 7800 17623
 7701 7801 17624
 7702 7802 17625
 7703 7803 17626
 7704 7804 17627
 7705 7805 17628
 7706 7806 17629
 7707 7807 17630
 7708 7808 17631
 7709 7809 17632
 7710 7810 17633
 7711 7811 17634
 7712 7812 17635
 7713 7813 17636
 7714 7814 17637
 7715 7815 17638
 7716 7816 17639
 7717 7817 17640
 7718 7818 17641
 7719 7819 17642
 7720 7820 17643
 7721 7821 17644
 7722 7822 17645
 7723 7823 17646
 7724 7824 17647
 7725 7825 17648
 7726 7826 17649
 7727 7827 17650
 7728 7828 17651
 7729 7829 17652
 7730 7830 17653
 7731 7831 17654
 7732 7832 17655
 7733 7833 17656
 7734 7834 17657
 7735 7835 17658
 7736 7836 17659
 7737 7837 17660
 7738 7838 17661
 7739 7839 17662
 7740 7840 17663
 7741 7841 17664
 7742 7842 17665
 7743 7843 17666
 7744 7844 17667
 7745 7845 17668
 7746 7846 17669
 7747 7847 17670
 7748 7848 17671
 7749 7849 17672
 7750 7850 17673
 7751 7851 17674
 7752 7852 17675
 7753 7853 17676
 7754 7854 17677
 7755 7855 17678
 7756 7856 17679
 7757 7857 17680
 7758 7858 17681
 7759 7859 17682
 7760 7860 17683
 7761 7861 17684
 7762 7862 17685
 7763 7863 17686
 7764 7864 17687
 7765 7865 17688
 7766 7866 17689
 7767 7867 17690
 7768 7868 17691
 7769 7869 17692
 7770 7870 17693
 7771 7871 17694
 7772 7872 17695
 7773 7873 17696
 7774 7874 17697
 7775 7875 17698
 7776 7876 17699
 7777 7877 17700
 7778 7878 17701
 7779 7879 17702
 7780 7880 17703
 7781 7881 17704
 7782 7882 17705
 7783 7883 17706
 7784 7884 17707
 7785 7885 17708
 7786 7886 17709
 7787 7887 17710
 7788 7888 17711
 7789 7889 17712
 7790 7890 17713
 7791 7891 17714
 7792 7892 17715
 7793 7893 17716
 7794 7894 17717
 7795 7895 17718
 7796 7896 17719
 7797 7897 17720
 7798 7898 17721
 7800 7900 17722
 7801 7901 17723
 7802 7902 17724
 7803 7903 17725
 7804 7904 17726
 7805 7905 17727
 7806 7906 17728
 7807 7907 17729
 7808 7908 17730
 7809 7909 17731
 7810 7910 17732
 7811 7911 17733
 7812 7912 17734
 7813 7913 17735
 7814 7914 17736
 7815 7915 17737
 7816 7916 17738
 7817 7917 17739
 7818 7918 17740
 7819 7919 17741
 7820 7920 17742
 7821 7921 17743
 7822 7922 17744
 7823 7923 17745
 7824 7924 17746
 7825 7925 17747
 7826 7926 17748
 7827 7927 17749
 7828 7928 17750
 7829 7929 17751
 7830 7930 17752
 7831 7931 17753
 7832 7932 17754
 7833 7933 17755
 7834 7934 17756
 7835 7935 17757
 7836 7936 17758
 7837 7937 17759
 7838 7938 17760
 7839 7939 17761
 7840 7940 17762
 7841 7941 17763
 7842 7942 17764
 7843 7943 17765
 7844 7944 17766
 7845 7945 17767
 7846 7946 17768
 7847 7947 17769
 7848 7948 17770
 7849 7949 17771
 7850 7950 17772
 7851 7951 17773
 7852 7952 17774
 7853 7953 17775
 7854 7954 17776
 7855 7955 17777
 7856 7956 17778
 7857 7957 17779
 7858 7958 17780
 7859 7959 17781
 7860 7960 17782
 7861 7961 17783
 7862 7962 17784
 7863 7963 17785
 7864 7964 17786
 7865 7965 17787
 7866 7966 17788
 7867 7967 17789
 7868 7968 17790
 7869 7969 17791
 7870 7970 17792
 7871 7971 17793
 7872 7972 17794
 7873 7973 17795
 7874 7974 17796
 7875 7975 17797
 7876 7976 17798
 7877 7977 17799
 7878 7978 17800
 7879 7979 17801
 7880 7980 17802
 7881 7981 17803
 7882 7982 17804
 7883 7983 17805
 7884 7984 17806
 7885 7985 17807
 7886 7986 17808
 7887 7987 17809
 7888 7988 17810
 7889 7989 17811
 7890 7990 17812
 7891 7991 17813
 7892 7992 17814
 7893 7993 17815
 7894 7994 17816
 7895 7995 17817
 7896 7996 17818
 7897 7997 17819
 7898 7998 17820
 7900 8000 17821
 7901 8001 17822
 7902 8002 17823
 7903 8003 17824
 7904 8004 17825
 7905 8005 17826
 7906 8006 17827
 7907 8007 17828
 7908 8008 17829
 7909 8009 17830
 7910 8010 17831
 7911 8011 17832
 7912 8012 17833
 7913 8013 17834
 7914 8014 17835
 7915 8015 17836
 7916 8016 17837
 7917 8017 17838
 7918 8018 17839
 7919 8019 17840
 7920 8020 17841
 7921 8021 17842
 7922 8022 17843
 7923 8023 17844
 7924 8024 17845
 7925 8025 17846
 7926 8026 17847
 7927 8027 17848
 7928 8028 17849
 7929 8029 17850
 7930 8030 17851
 7931 8031 17852
 7932 8032 17853
 7933 8033 17854
 7934 8034 17855
 7935 8035 17856
 7936 8036 17857
 7937 8037 17858
 7938 8038 17859
 7939 8039 17860
 7940 8040 17861
 7941 8041 17862
 7942 8042 17863
 7943 8043 17864
 7944 8044 17865
 7945 8045 17866
 7946 8046 17867
 7947 8047 17868
 7948 8048 17869
 7949 8049 17870
 7950 8050 17871
 7951 8051 17872
 7952 8052 17873
 7953 8053 17874
 7954 8054 17875
 7955 8055 17876
 7956 8056 17877
 7957 8057 17878
 7958 8058 17879
 7959 8059 17880
 7960 8060 17881
 7961 8061 17882
 7962 8062 17883
 7963 8063 17884
 7964 8064 17885
 7965 8065 17886
 7966 8066 17887
 7967 8067 17888
 7968 8068 17889
 7969 8069 17890
 7970 8070 17891
 7971 8071 17892
 7972 8072 17893
 7973 8073 17894
 7974 8074 17895
 7975 8075 17896
 7976 8076 17897
 7977 8077 17898
 7978 8078 17899
 7979 8079 17900
 7980 8080 17901
 7981 8081 17902
 7982 8082 17903
 7983 8083 17904
 7984 8084 17905
 7985 8085 17906
 7986 8086 17907
 7987 8087 17908
 7988 8088 17909
 7989 8089 17910
 7990 8090 17911
 7991 8091 17912
 7992 8092 17913
 7993 8093 17914
 7994 8094 17915
 7995 8095 17916
 7996 8096 17917
 7997 8097 17918
 7998 8098 17919
 8000 8100 17920
 8001 8101 17921
 8002 8102 17922
 8003 8103 17923
 8004 8104 17924
 8005 8105 17925
 8006 8106 17926
 8007 8107 17927
 8008 8108 17928
 8009 8109 17929
 8010 8110 17930
 8011 8111 17931
 8012 8112 17932
 8013 8113 17933
 8014 8114 17934
 8015 8115 17935
 8016 8116 17936
 8017 8117 17937
 8018 8118 17938
 8019 8119 17939
 8020 8120 17940
 8021 8121 17941
 8022 8122 17942
 8023 8123 17943
 8024 8124 17944
 8025 8125 17945
 8026 8126 17946
 8027 8127 17947
 8028 8128 17948
 8029 8129 17949
 8030 8130 17950
 8031 8131 17951
 8032 8132 17952
 8033 8133 17953
 8034 8134 17954
 8035 8135 17955
 8036 8136 17956
 8037 8137 17957
 8038 8138 17958
 8039 8139 17959
 8040 8140 17960
 8041 8141 17961
 8042 8142 17962
 8043 8143 17963
 8044 8144 17964
 8045 8145 17965
 8046 8146 17966
 8047 8147 17967
 8048 8148 17968
 8049 8149 17969
 8050 8150 17970
 8051 8151 17971
 8052 8152 17972
 8053 8153 17973
 8054 8154 17974
 8055 8155 17975
 8056 8156 17976
 8057 8157 17977
 8058 8158 17978
 8059 8159 17979
 8060 8160 17980
 8061 8161 17981
 8062 8162 17982
 8063 8163 17983
 8064 8164 17984
 8065 8165 17985
 8066 8166 17986
 8067 8167 17987
 8068 8168 17988
 8069 8169 17989
 8070 8170 17990
 8071 8171 17991
 8072 8172 17992
 8073 8173 17993
 8074 8174 17994
 8075 8175 17995
 8076 8176 17996
 8077 8177 17997
 8078 8178 17998
 8079 8179 17999
 8080 8180 18000
 8081 8181 18001
 8082 8182 18002
 8083 8183 18003
 8084 8184 18004
 8085 8185 18005
 8086 8186 18006
 8087 8187 18007
 8088 8188 18008
 8089 8189 18009
 8090 8190 18010
 8091 8191 18011
 8092 8192 18012
 8093 8193 18013
 8094 8194 18014
 8095 8195 18015
 8096 8196 18016
 8097 8197 18017
 8098 8198 18018
 8100 8200 18019
 8101 8201 18020
 8102 8202 18021
 8103 8203 18022
 8104 8204 18023
 8105 8205 18024
 8106 8206 18025
 8107 8207 18026
 8108 8208 18027
 8109 8209 18028
 8110 8210 18029
 8111 8211 18030
 8112 8212 18031
 8113 8213 18032
 8114 8214 18033
 8115 8215 18034
 8116 8216 18035
 8117 8217 18036
 8118 8218 18037
 8119 8219 18038
 8120 8220 18039
 8121 8221 18040
 8122 8222 18041
 8123 8223 18042
 8124 8224 18043
 8125 8225 18044
 8126 8226 18045
 8127 8227 18046
 8128 8228 18047
 8129 8229 18048
 8130 8230 18049
 8131 8231 18050
 8132 8232 18051
 8133 8233 18052
 8134 8234 18053
 8135 8235 18054
 8136 8236 18055
 8137 8237 18056
 8138 8238 18057
 8139 8239 18058
 8140 8240 18059
 8141 8241 18060
 8142 8242 18061
 8143 8243 18062
 8144 8244 18063
 8145 8245 18064
 8146 8246 18065
 8147 8247 18066
 8148 8248 18067
 8149 8249 18068
 8150 8250 18069
 8151 8251 18070
 8152 8252 18071
 8153 8253 18072
 8154 8254 18073
 8155 8255 18074
 8156 8256 18075
 8157 8257 18076
 8158 8258 18077
 8159 8259 18078
 8160 8260 18079
 8161 8261 18080
 8162 8262 18081
 8163 8263 18082
 8164 8264 18083
 8165 8265 18084
 8166 8266 18085
 8167 8267 18086
 8168 8268 18087
 8169 8269 18088
 8170 8270 18089
 8171 8271 18090
 8172 8272 18091
 8173 8273 18092
 8174 8274 18093
 8175 8275 18094
 8176 8276 18095
 8177 8277 18096
 8178 8278 18097
 8179 8279 18098
 8180 8280 18099
 8181 8281 18100
 8182 8282 18101
 8183 8283 18102
 8184 8284 18103
 8185 8285 18104
 8186 8286 18105
 8187 8287 18106
 8188 8288 18107
 8189 8289 18108
 8190 8290 18109
 8191 8291 18110
 8192 8292 18111
 8193 8293 18112
 8194 8294 18113
 8195 8295 18114
 8196 8296 18115
 8197 8297 18116
 8198 8298 18117
 8200 8300 18118
 8201 8301 18119
 8202 8302 18120
 8203 8303 18121
 8204 8304 18122
 8205 8305 18123
 8206 8306 18124
 8207 8307 18125
 8208 8308 18126
 8209 8309 18127
 8210 8310 18128
 8211 8311 18129
 8212 8312 18130
 8213 8313 18131
 8214 8314 18132
 8215 8315 18133
 8216 8316 18134
 8217 8317 18135
 8218 8318 18136
 8219 8319 18137
 8220 8320 18138
 8221 8321 18139
 8222 8322 18140
 8223 8323 18141
 8224 8324 18142
 8225 8325 18143
 8226 8326 18144
 8227 8327 18145
 8228 8328 18146
 8229 8329 18147
 8230 8330 18148
 8231 8331 18149
 8232 8332 18150
 8233 8333 18151
 8234 8334 18152
 8235 8335 18153
 8236 8336 18154
 8237 8337 18155
 8238 8338 18156
 8239 8339 18157
 8240 8340 18158
 8241 8341 18159
 8242 8342 18160
 8243 8343 18161
 8244 8344 18162
 8245 8345 18163
 8246 8346 18164
 8247 8347 18165
 8248 8348 18166
 8249 8349 18167
 8250 8350 18168
 8251 8351 18169
 8252 8352 18170
 8253 8353 18171
 8254 8354 18172
 8255 8355 18173
 8256 8356 18174
 8257 8357 18175
 8258 8358 18176
 8259 8359 18177
 8260 8360 18178
 8261 8361 18179
 8262 8362 18180
 8263 8363 18181
 8264 8364 18182
 8265 8365 18183
 8266 8366 18184
 8267 8367 18185
 8268 8368 18186
 8269 8369 18187
 8270 8370 18188
 8271 8371 18189
 8272 8372 18190
 8273 8373 18191
 8274 8374 18192
 8275 8375 18193
 8276 8376 18194
 8277 8377 18195
 8278 8378 18196
 8279 8379 18197
 8280 8380 18198
 8281 8381 18199
 8282 8382 18200
 8283 8383 18201
 8284 8384 18202
 8285 8385 18203
 8286 8386 18204
 8287 8387 18205
 8288 8388 18206
 8289 8389 18207
 8290 8390 18208
 8291 8391 18209
 8292 8392 18210
 8293 8393 18211
 8294 8394 18212
 8295 8395 18213
 8296 8396 18214
 8297 8397 18215
 8298 8398 18216
 8300 8400 18217
 8301 8401 18218
 8302 8402 18219
 8303 8403 18220
 8304 8404 18221
 8305 8405 18222
 8306 8406 18223
 8307 8407 18224
 8308 8408 18225
 8309 8409 18226
 8310 8410 18227
 8311 8411 18228
 8312 8412 18229
 8313 8413 18230
 8314 8414 18231
 8315 8415 18232
 8316 8416 18233
 8317 8417 18234
 8318 8418 18235
 8319 8419 18236
 8320 8420 18237
 8321 8421 18238
 8322 8422 18239
 8323 8423 18240
 8324 8424 18241
 8325 8425 18242
 8326 8426 18243
 8327 8427 18244
 8328 8428 18245
 8329 8429 18246
 8330 8430 18247
 8331 8431 18248
 8332 8432 18249
 8333 8433 18250
 8334 8434 18251
 8335 8435 18252
 8336 8436 18253
 8337 8437 18254
 8338 8438 18255
 8339 8439 18256
 8340 8440 18257
 8341 8441 18258
 8342 8442 18259
 8343 8443 18260
 8344 8444 18261
 8345 8445 18262
 8346 8446 18263
 8347 8447 18264
 8348 8448 18265
 8349 8449 18266
 8350 8450 18267
 8351 8451 18268
 8352 8452 18269
 8353 8453 18270
 8354 8454 18271
 8355 8455 18272
 8356 8456 18273
 8357 8457 18274
 8358 8458 18275
 8359 8459 18276
 8360 8460 18277
 8361 8461 18278
 8362 8462 18279
 8363 8463 18280
 8364 8464 18281
 8365 8465 18282
 8366 8466 18283
 8367 8467 18284
 8368 8468 18285
 8369 8469 18286
 8370 8470 18287
 8371 8471 18288
 8372 8472 18289
 8373 8473 18290
 8374 8474 18291
 8375 8475 18292
 8376 8476 18293
 8377 8477 18294
 8378 8478 18295
 8379 8479 18296
 8380 8480 18297
 8381 8481 18298
 8382 8482 18299
 8383 8483 18300
 8384 8484 18301
 8385 8485 18302
 8386 8486 18303
 8387 8487 18304
 8388 8488 18305
 8389 8489 18306
 8390 8490 18307
 8391 8491 18308
 8392 8492 18309
 8393 8493 18310
 8394 8494 18311
 8395 8495 18312
 8396 8496 18313
 8397 8497 18314
 8398 8498 18315
 8400 8500 18316
 8401 8501 18317
 8402 8502 18318
 8403 8503 18319
 8404 8504 18320
 8405 8505 18321
 8406 8506 18322
 8407 8507 18323
 8408 8508 18324
 8409 8509 18325
 8410 8510 18326
 8411 8511 18327
 8412 8512 18328
 8413 8513 18329
 8414 8514 18330
 8415 8515 18331
 8416 8516 18332
 8417 8517 18333
 8418 8518 18334
 8419 8519 18335
 8420 8520 18336
 8421 8521 18337
 8422 8522 18338
 8423 8523 18339
 8424 8524 18340
 8425 8525 18341
 8426 8526 18342
 8427 8527 18343
 8428 8528 18344
 8429 8529 18345
 8430 8530 18346
 8431 8531 18347
 8432 8532 18348
 8433 8533 18349
 8434 8534 18350
 8435 8535 18351
 8436 8536 18352
 8437 8537 18353
 8438 8538 18354
 8439 8539 18355
 8440 8540 18356
 8441 8541 18357
 8442 8542 18358
 8443 8543 18359
 8444 8544 18360
 8445 8545 18361
 8446 8546 18362
 8447 8547 18363
 8448 8548 18364
 8449 8549 18365
 8450 8550 18366
 8451 8551 18367
 8452 8552 18368
 8453 8553 18369
 8454 8554 18370
 8455 8555 18371
 8456 8556 18372
 8457 8557 18373
 8458 8558 18374
 8459 8559 18375
 8460 8560 18376
 8461 8561 18377
 8462 8562 18378
 8463 8563 18379
 8464 8564 18380
 8465 8565 18381
 8466 8566 18382
 8467 8567 18383
 8468 8568 18384
 8469 8569 18385
 8470 8570 18386
 8471 8571 18387
 8472 8572 18388
 8473 8573 18389
 8474 8574 18390
 8475 8575 18391
 8476 8576 18392
 8477 8577 18393
 8478 8578 18394
 8479 8579 18395
 8480 8580 18396
 8481 8581 18397
 8482 8582 18398
 8483 8583 18399
 8484 8584 18400
 8485 8585 18401
 8486 8586 18402
 8487 8587 18403
 8488 8588 18404
 8489 8589 18405
 8490 8590 18406
 8491 8591 18407
 8492 8592 18408
 8493 8593 18409
 8494 8594 18410
 8495 8595 18411
 8496 8596 18412
 8497 8597 18413
 8498 8598 18414
 8500 8600 18415
 8501 8601 18416
 8502 8602 18417
 8503 8603 18418
 8504 8604 18419
 8505 8605 18420
 8506 8606 18421
 8507 8607 18422
 8508 8608 18423
 8509 8609 18424
 8510 8610 18425
 8511 8611 18426
 8512 8612 18427
 8513 8613 18428
 8514 8614 18429
 8515 8615 18430
 8516 8616 18431
 8517 8617 18432
 8518 8618 18433
 8519 8619 18434
 8520 8620 18435
 8521 8621 18436
 8522 8622 18437
 8523 8623 18438
 8524 8624 18439
 8525 8625 18440
 8526 8626 18441
 8527 8627 18442
 8528 8628 18443
 8529 8629 18444
 8530 8630 18445
 8531 8631 18446
 8532 8632 18447
 8533 8633 18448
 8534 8634 18449
 8535 8635 18450
 8536 8636 18451
 8537 8637 18452
 8538 8638 18453
 8539 8639 18454
 8540 8640 18455
 8541 8641 18456
 8542 8642 18457
 8543 8643 18458
 8544 8644 18459
 8545 8645 18460
 8546 8646 18461
 8547 8647 18462
 8548 8648 18463
 8549 8649 18464
 8550 8650 18465
 8551 8651 18466
 8552 8652 18467
 8553 8653 18468
 8554 8654 18469
 8555 8655 18470
 8556 8656 18471
 8557 8657 18472
 8558 8658 18473
 8559 8659 18474
 8560 8660 18475
 8561 8661 18476
 8562 8662 18477
 8563 8663 18478
 8564 8664 18479
 8565 8665 18480
 8566 8666 18481
 8567 8667 18482
 8568 8668 18483
 8569 8669 18484
 8570 8670 18485
 8571 8671 18486
 8572 8672 18487
 8573 8673 18488
 8574 8674 18489
 8575 8675 18490
 8576 8676 18491
 8577 8677 18492
 8578 8678 18493
 8579 8679 18494
 8580 8680 18495
 8581 8681 18496
 8582 8682 18497
 8583 8683 18498
 8584 8684 18499
 8585 8685 18500
 8586 8686 18501
 8587 8687 18502
 8588 8688 18503
 8589 8689 18504
 8590 8690 18505
 8591 8691 18506
 8592 8692 18507
 8593 8693 18508
 8594 8694 18509
 8595 8695 18510
 8596 8696 18511
 8597 8697 18512
 8598 8698 18513
 8600 8700 18514
 8601 8701 18515
 8602 8702 18516
 8603 8703 18517
 8604 8704 18518
 8605 8705 18519
 8606 8706 18520
 8607 8707 18521
 8608 8708 18522
 8609 8709 18523
 8610 8710 18524
 8611 8711 18525
 8612 8712 18526
 8613 8713 18527
 8614 8714 18528
 8615 8715 18529
 8616 8716 18530
 8617 8717 18531
 8618 8718 18532
 8619 8719 18533
 8620 8720 18534
 8621 8721 18535
 8622 8722 18536
 8623 8723 18537
 8624 8724 18538
 8625 8725 18539
 8626 8726 18540
 8627 8727 18541
 8628 8728 18542
 8629 8729 18543
 8630 8730 18544
 8631 8731 18545
 8632 8732 18546
 8633 8733 18547
 8634 8734 18548
 8635 8735 18549
 8636 8736 18550
 8637 8737 18551
 8638 8738 18552
 8639 8739 18553
 8640 8740 18554
 8641 8741 18555
 8642 8742 18556
 8643 8743 18557
 8644 8744 18558
 8645 8745 18559
 8646 8746 18560
 8647 8747 18561
 8648 8748 18562
 8649 8749 18563
 8650 8750 18564
 8651 8751 18565
 8652 8752 18566
 8653 8753 18567
 8654 8754 18568
 8655 8755 18569
 8656 8756 18570
 8657 8757 18571
 8658 8758 18572
 8659 8759 18573
 8660 8760 18574
 8661 8761 18575
 8662 8762 18576
 8663 8763 18577
 8664 8764 18578
 8665 8765 18579
 8666 8766 18580
 8667 8767 18581
 8668 8768 18582
 8669 8769 18583
 8670 8770 18584
 8671 8771 18585
 8672 8772 18586
 8673 8773 18587
 8674 8774 18588
 8675 8775 18589
 8676 8776 18590
 8677 8777 18591
 8678 8778 18592
 8679 8779 18593
 8680 8780 18594
 8681 8781 18595
 8682 8782 18596
 8683 8783 18597
 8684 8784 18598
 8685 8785 18599
 8686 8786 18600
 8687 8787 18601
 8688 8788 18602
 8689 8789 18603
 8690 8790 18604
 8691 8791 18605
 8692 8792 18606
 8693 8793 18607
 8694 8794 18608
 8695 8795 18609
 8696 8796 18610
 8697 8797 18611
 8698 8798 18612
 8700 8800 18613
 8701 8801 18614
 8702 8802 18615
 8703 8803 18616
 8704 8804 18617
 8705 8805 18618
 8706 8806 18619
 8707 8807 18620
 8708 8808 18621
 8709 8809 18622
 8710 8810 18623
 8711 8811 18624
 8712 8812 18625
 8713 8813 18626
 8714 8814 18627
 8715 8815 18628
 8716 8816 18629
 8717 8817 18630
 8718 8818 18631
 8719 8819 18632
 8720 8820 18633
 8721 8821 18634
 8722 8822 18635
 8723 8823 18636
 8724 8824 18637
 8725 8825 18638
 8726 8826 18639
 8727 8827 18640
 8728 8828 18641
 8729 8829 18642
 8730 8830 18643
 8731 8831 18644
 8732 8832 18645
 8733 8833 18646
 8734 8834 18647
 8735 8835 18648
 8736 8836 18649
 8737 8837 18650
 8738 8838 18651
 8739 8839 18652
 8740 8840 18653
 8741 8841 18654
 8742 8842 18655
 8743 8843 18656
 8744 8844 18657
 8745 8845 18658
 8746 8846 18659
 8747 8847 18660
 8748 8848 18661
 8749 8849 18662
 8750 8850 18663
 8751 8851 18664
 8752 8852 18665
 8753 8853 18666
 8754 8854 18667
 8755 8855 18668
 8756 8856 18669
 8757 8857 18670
 8758 8858 18671
 8759 8859 18672
 8760 8860 18673
 8761 8861 18674
 8762 8862 18675
 8763 8863 18676
 8764 8864 18677
 8765 8865 18678
 8766 8866 18679
 8767 8867 18680
 8768 8868 18681
 8769 8869 18682
 8770 8870 18683
 8771 8871 18684
 8772 8872 18685
 8773 8873 18686
 8774 8874 18687
 8775 8875 18688
 8776 8876 18689
 8777 8877 18690
 8778 8878 18691
 8779 8879 18692
 8780 8880 18693
 8781 8881 18694
 8782 8882 18695
 8783 8883 18696
 8784 8884 18697
 8785 8885 18698
 8786 8886 18699
 8787 8887 18700
 8788 8888 18701
 8789 8889 18702
 8790 8890 18703
 8791 8891 18704
 8792 8892 18705
 8793 8893 18706
 8794 8894 18707
 8795 8895 18708
 8796 8896 18709
 8797 8897 18710
 8798 8898 18711
 8800 8900 18712
 8801 8901 18713
 8802 8902 18714
 8803 8903 18715
 8804 8904 18716
 8805 8905 18717
 8806 8906 18718
 8807 8907 18719
 8808 8908 18720
 8809 8909 18721
 8810 8910 18722
 8811 8911 18723
 8812 8912 18724
 8813 8913 18725
 8814 8914 18726
 8815 8915 18727
 8816 8916 18728
 8817 8917 18729
 8818 8918 18730
 8819 8919 18731
 8820 8920 18732
 8821 8921 18733
 8822 8922 18734
 8823 8923 18735
 8824 8924 18736
 8825 8925 18737
 8826 8926 18738
 8827 8927 18739
 8828 8928 18740
 8829 8929 18741
 8830 8930 18742
 8831 8931 18743
 8832 8932 18744
 8833 8933 18745
 8834 8934 18746
 8835 8935 18747
 8836 8936 18748
 8837 8937 18749
 8838 8938 18750
 8839 8939 18751
 8840 8940 18752
 8841 8941 18753
 8842 8942 18754
 8843 8943 18755
 8844 8944 18756
 8845 8945 18757
 8846 8946 18758
 8847 8947 18759
 8848 8948 18760
 8849 8949 18761
 8850 8950 18762
 8851 8951 18763
 8852 8952 18764
 8853 8953 18765
 8854 8954 18766
 8855 8955 18767
 8856 8956 18768
 8857 8957 18769
 8858 8958 18770
 8859 8959 18771
 8860 8960 18772
 8861 8961 18773
 8862 8962 18774
 8863 8963 18775
 8864 8964 18776
 8865 8965 18777
 8866 8966 18778
 8867 8967 18779
 8868 8968 18780
 8869 8969 18781
 8870 8970 18782
 8871 8971 18783
 8872 8972 18784
 8873 8973 18785
 8874 8974 18786
 8875 8975 18787
 8876 8976 18788
 8877 8977 18789
 8878 8978 18790
 8879 8979 18791
 8880 8980 18792
 8881 8981 18793
 8882 8982 18794
 8883 8983 18795
 8884 8984 18796
 8885 8985 18797
 8886 8986 18798
 8887 8987 18799
 8888 8988 18800
 8889 8989 18801
 8890 8990 18802
 8891 8991 18803
 8892 8992 18804
 8893 8993 18805
 8894 8994 18806
 8895 8995 18807
 8896 8996 18808
 8897 8997 18809
 8898 8998 18810
 8900 9000 18811
 8901 9001 18812
 8902 9002 18813
 8903 9003 18814
 8904 9004 18815
 8905 9005 18816
 8906 9006 18817
 8907 9007 18818
 8908 9008 18819
 8909 9009 18820
 8910 9010 18821
 8911 9011 18822
 8912 9012 18823
 8913 9013 18824
 8914 9014 18825
 8915 9015 18826
 8916 9016 18827
 8917 9017 18828
 8918 9018 18829
 8919 9019 18830
 8920 9020 18831
 8921 9021 18832
 8922 9022 18833
 8923 9023 18834
 8924 9024 18835
 8925 9025 18836
 8926 9026 18837
 8927 9027 18838
 8928 9028 18839
 8929 9029 18840
 8930 9030 18841
 8931 9031 18842
 8932 9032 18843
 8933 9033 18844
 8934 9034 18845
 8935 9035 18846
 8936 9036 18847
 8937 9037 18848
 8938 9038 18849
 8939 9039 18850
 8940 9040 18851
 8941 9041 18852
 8942 9042 18853
 8943 9043 18854
 8944 9044 18855
 8945 9045 18856
 8946 9046 18857
 8947 9047 18858
 8948 9048 18859
 8949 9049 18860
 8950 9050 18861
 8951 9051 18862
 8952 9052 18863
 8953 9053 18864
 8954 9054 18865
 8955 9055 18866
 8956 9056 18867
 8957 9057 18868
 8958 9058 18869
 8959 9059 18870
 8960 9060 18871
 8961 9061 18872
 8962 9062 18873
 8963 9063 18874
 8964 9064 18875
 8965 9065 18876
 8966 9066 18877
 8967 9067 18878
 8968 9068 18879
 8969 9069 18880
 8970 9070 18881
 8971 9071 18882
 8972 9072 18883
 8973 9073 18884
 8974 9074 18885
 8975 9075 18886
 8976 9076 18887
 8977 9077 18888
 8978 9078 18889
 8979 9079 18890
 8980 9080 18891
 8981 9081 18892
 8982 9082 18893
 8983 9083 18894
 8984 9084 18895
 8985 9085 18896
 8986 9086 18897
 8987 9087 18898
 8988 9088 18899
 8989 9089 18900
 8990 9090 18901
 8991 9091 18902
 8992 9092 18903
 8993 9093 18904
 8994 9094 18905
 8995 9095 18906
 8996 9096 18907
 8997 9097 18908
 8998 9098 18909
 9000 9100 18910
 9001 9101 18911
 9002 9102 18912
 9003 9103 18913
 9004 9104 18914
 9005 9105 18915
 9006 9106 18916
 9007 9107 18917
 9008 9108 18918
 9009 9109 18919
 9010 9110 18920
 9011 9111 18921
 9012 9112 18922
 9013 9113 18923
 9014 9114 18924
 9015 9115 18925
 9016 9116 18926
 9017 9117 18927
 9018 9118 18928
 9019 9119 18929
 9020 9120 18930
 9021 9121 18931
 9022 9122 18932
 9023 9123 18933
 9024 9124 18934
 9025 9125 18935
 9026 9126 18936
 9027 9127 18937
 9028 9128 18938
 9029 9129 18939
 9030 9130 18940
 9031 9131 18941
 9032 9132 18942
 9033 9133 18943
 9034 9134 18944
 9035 9135 18945
 9036 9136 18946
 9037 9137 18947
 9038 9138 18948
 9039 9139 18949
 9040 9140 18950
 9041 9141 18951
 9042 9142 18952
 9043 9143 18953
 9044 9144 18954
 9045 9145 18955
 9046 9146 18956
 9047 9147 18957
 9048 9148 18958
 9049 9149 18959
 9050 9150 18960
 9051 9151 18961
 9052 9152 18962
 9053 9153 18963
 9054 9154 18964
 9055 9155 18965
 9056 9156 18966
 9057 9157 18967
 9058 9158 18968
 9059 9159 18969
 9060 9160 18970
 9061 9161 18971
 9062 9162 18972
 9063 9163 18973
 9064 9164 18974
 9065 9165 18975
 9066 9166 18976
 9067 9167 18977
 9068 9168 18978
 9069 9169 18979
 9070 9170 18980
 9071 9171 18981
 9072 9172 18982
 9073 9173 18983
 9074 9174 18984
 9075 9175 18985
 9076 9176 18986
 9077 9177 18987
 9078 9178 18988
 9079 9179 18989
 9080 9180 18990
 9081 9181 18991
 9082 9182 18992
 9083 9183 18993
 9084 9184 18994
 9085 9185 18995
 9086 9186 18996
 9087 9187 18997
 9088 9188 18998
 9089 9189 18999
 9090 9190 19000
 9091 9191 19001
 9092 9192 19002
 9093 9193 19003
 9094 9194 19004
 9095 9195 19005
 9096 9196 19006
 9097 9197 19007
 9098 9198 19008
 9100 9200 19009
 9101 9201 19010
 9102 9202 19011
 9103 9203 19012
 9104 9204 19013
 9105 9205 19014
 9106 9206 19015
 9107 9207 19016
 9108 9208 19017
 9109 9209 19018
 9110 9210 19019
 9111 9211 19020
 9112 9212 19021
 9113 9213 19022
 9114 9214 19023
 9115 9215 19024
 9116 9216 19025
 9117 9217 19026
 9118 9218 19027
 9119 9219 19028
 9120 9220 19029
 9121 9221 19030
 9122 9222 19031
 9123 9223 19032
 9124 9224 19033
 9125 9225 19034
 9126 9226 19035
 9127 9227 19036
 9128 9228 19037
 9129 9229 19038
 9130 9230 19039
 9131 9231 19040
 9132 9232 19041
 9133 9233 19042
 9134 9234 19043
 9135 9235 19044
 9136 9236 19045
 9137 9237 19046
 9138 9238 19047
 9139 9239 19048
 9140 9240 19049
 9141 9241 19050
 9142 9242 19051
 9143 9243 19052
 9144 9244 19053
 9145 9245 19054
 9146 9246 19055
 9147 9247 19056
 9148 9248 19057
 9149 9249 19058
 9150 9250 19059
 9151 9251 19060
 9152 9252 19061
 9153 9253 19062
 9154 9254 19063
 9155 9255 19064
 9156 9256 19065
 9157 9257 19066
 9158 9258 19067
 9159 9259 19068
 9160 9260 19069
 9161 9261 19070
 9162 9262 19071
 9163 9263 19072
 9164 9264 19073
 9165 9265 19074
 9166 9266 19075
 9167 9267 19076
 9168 9268 19077
 9169 9269 19078
 9170 9270 19079
 9171 9271 19080
 9172 9272 19081
 9173 9273 19082
 9174 9274 19083
 9175 9275 19084
 9176 9276 19085
 9177 9277 19086
 9178 9278 19087
 9179 9279 19088
 9180 9280 19089
 9181 9281 19090
 9182 9282 19091
 9183 9283 19092
 9184 9284 19093
 9185 9285 19094
 9186 9286 19095
 9187 9287 19096
 9188 9288 19097
 9189 9289 19098
 9190 9290 19099
 9191 9291 19100
 9192 9292 19101
 9193 9293 19102
 9194 9294 19103
 9195 9295 19104
 9196 9296 19105
 9197 9297 19106
 9198 9298 19107
 9200 9300 19108
 9201 9301 19109
 9202 9302 19110
 9203 9303 19111
 9204 9304 19112
 9205 9305 19113
 9206 9306 19114
 9207 9307 19115
 9208 9308 19116
 9209 9309 19117
 9210 9310 19118
 9211 9311 19119
 9212 9312 19120
 9213 9313 19121
 9214 9314 19122
 9215 9315 19123
 9216 9316 19124
 9217 9317 19125
 9218 9318 19126
 9219 9319 19127
 9220 9320 19128
 9221 9321 19129
 9222 9322 19130
 9223 9323 19131
 9224 9324 19132
 9225 9325 19133
 9226 9326 19134
 9227 9327 19135
 9228 9328 19136
 9229 9329 19137
 9230 9330 19138
 9231 9331 19139
 9232 9332 19140
 9233 9333 19141
 9234 9334 19142
 9235 9335 19143
 9236 9336 19144
 9237 9337 19145
 9238 9338 19146
 9239 9339 19147
 9240 9340 19148
 9241 9341 19149
 9242 9342 19150
 9243 9343 19151
 9244 9344 19152
 9245 9345 19153
 9246 9346 19154
 9247 9347 19155
 9248 9348 19156
 9249 9349 19157
 9250 9350 19158
 9251 9351 19159
 9252 9352 19160
 9253 9353 19161
 9254 9354 19162
 9255 9355 19163
 9256 9356 19164
 9257 9357 19165
 9258 9358 19166
 9259 9359 19167
 9260 9360 19168
 9261 9361 19169
 9262 9362 19170
 9263 9363 19171
 9264 9364 19172
 9265 9365 19173
 9266 9366 19174
 9267 9367 19175
 9268 9368 19176
 9269 9369 19177
 9270 9370 19178
 9271 9371 19179
 9272 9372 19180
 9273 9373 19181
 9274 9374 19182
 9275 9375 19183
 9276 9376 19184
 9277 9377 19185
 9278 9378 19186
 9279 9379 19187
 9280 9380 19188
 9281 9381 19189
 9282 9382 19190
 9283 9383 19191
 9284 9384 19192
 9285 9385 19193
 9286 9386 19194
 9287 9387 19195
 9288 9388 19196
 9289 9389 19197
 9290 9390 19198
 9291 9391 19199
 9292 9392 19200
 9293 9393 19201
 9294 9394 19202
 9295 9395 19203
 9296 9396 19204
 9297 9397 19205
 9298 9398 19206
 9300 9400 19207
 9301 9401 19208
 9302 9402 19209
 9303 9403 19210
 9304 9404 19211
 9305 9405 19212
 9306 9406 19213
 9307 9407 19214
 9308 9408 19215
 9309 9409 19216
 9310 9410 19217
 9311 9411 19218
 9312 9412 19219
 9313 9413 19220
 9314 9414 19221
 9315 9415 19222
 9316 9416 19223
 9317 9417 19224
 9318 9418 19225
 9319 9419 19226
 9320 9420 19227
 9321 9421 19228
 9322 9422 19229
 9323 9423 19230
 9324 9424 19231
 9325 9425 19232
 9326 9426 19233
 9327 9427 19234
 9328 9428 19235
 9329 9429 19236
 9330 9430 19237
 9331 9431 19238
 9332 9432 19239
 9333 9433 19240
 9334 9434 19241
 9335 9435 19242
 9336 9436 19243
 9337 9437 19244
 9338 9438 19245
 9339 9439 19246
 9340 9440 19247
 9341 9441 19248
 9342 9442 19249
 9343 9443 19250
 9344 9444 19251
 9345 9445 19252
 9346 9446 19253
 9347 9447 19254
 9348 9448 19255
 9349 9449 19256
 9350 9450 19257
 9351 9451 19258
 9352 9452 19259
 9353 9453 19260
 9354 9454 19261
 9355 9455 19262
 9356 9456 19263
 9357 9457 19264
 9358 9458 19265
 9359 9459 19266
 9360 9460 19267
 9361 9461 19268
 9362 9462 19269
 9363 9463 19270
 9364 9464 19271
 9365 9465 19272
 9366 9466 19273
 9367 9467 19274
 9368 9468 19275
 9369 9469 19276
 9370 9470 19277
 9371 9471 19278
 9372 9472 19279
 9373 9473 19280
 9374 9474 19281
 9375 9475 19282
 9376 9476 19283
 9377 9477 19284
 9378 9478 19285
 9379 9479 19286
 9380 9480 19287
 9381 9481 19288
 9382 9482 19289
 9383 9483 19290
 9384 9484 19291
 9385 9485 19292
 9386 9486 19293
 9387 9487 19294
 9388 9488 19295
 9389 9489 19296
 9390 9490 19297
 9391 9491 19298
 9392 9492 19299
 9393 9493 19300
 9394 9494 19301
 9395 9495 19302
 9396 9496 19303
 9397 9497 19304
 9398 9498 19305
 9400 9500 19306
 9401 9501 19307
 9402 9502 19308
 9403 9503 19309
 9404 9504 19310
 9405 9505 19311
 9406 9506 19312
 9407 9507 19313
 9408 9508 19314
 9409 9509 19315
 9410 9510 19316
 9411 9511 19317
 9412 9512 19318
 9413 9513 19319
 9414 9514 19320
 9415 9515 19321
 9416 9516 19322
 9417 9517 19323
 9418 9518 19324
 9419 9519 19325
 9420 9520 19326
 9421 9521 19327
 9422 9522 19328
 9423 9523 19329
 9424 9524 19330
 9425 9525 19331
 9426 9526 19332
 9427 9527 19333
 9428 9528 19334
 9429 9529 19335
 9430 9530 19336
 9431 9531 19337
 9432 9532 19338
 9433 9533 19339
 9434 9534 19340
 9435 9535 19341
 9436 9536 19342
 9437 9537 19343
 9438 9538 19344
 9439 9539 19345
 9440 9540 19346
 9441 9541 19347
 9442 9542 19348
 9443 9543 19349
 9444 9544 19350
 9445 9545 19351
 9446 9546 19352
 9447 9547 19353
 9448 9548 19354
 9449 9549 19355
 9450 9550 19356
 9451 9551 19357
 9452 9552 19358
 9453 9553 19359
 9454 9554 19360
 9455 9555 19361
 9456 9556 19362
 9457 9557 19363
 9458 9558 19364
 9459 9559 19365
 9460 9560 19366
 9461 9561 19367
 9462 9562 19368
 9463 9563 19369
 9464 9564 19370
 9465 9565 19371
 9466 9566 19372
 9467 9567 19373
 9468 9568 19374
 9469 9569 19375
 9470 9570 19376
 9471 9571 19377
 9472 9572 19378
 9473 9573 19379
 9474 9574 19380
 9475 9575 19381
 9476 9576 19382
 9477 9577 19383
 9478 9578 19384
 9479 9579 19385
 9480 9580 19386
 9481 9581 19387
 9482 9582 19388
 9483 9583 19389
 9484 9584 19390
 9485 9585 19391
 9486 9586 19392
 9487 9587 19393
 9488 9588 19394
 9489 9589 19395
 9490 9590 19396
 9491 9591 19397
 9492 9592 19398
 9493 9593 19399
 9494 9594 19400
 9495 9595 19401
 9496 9596 19402
 9497 9597 19403
 9498 9598 19404
 9500 9600 19405
 9501 9601 19406
 9502 9602 19407
 9503 9603 19408
 9504 9604 19409
 9505 9605 19410
 9506 9606 19411
 9507 9607 19412
 9508 9608 19413
 9509 9609 19414
 9510 9610 19415
 9511 9611 19416
 9512 9612 19417
 9513 9613 19418
 9514 9614 19419
 9515 9615 19420
 9516 9616 19421
 9517 9617 19422
 9518 9618 19423
 9519 9619 19424
 9520 9620 19425
 9521 9621 19426
 9522 9622 19427
 9523 9623 19428
 9524 9624 19429
 9525 9625 19430
 9526 9626 19431
 9527 9627 19432
 9528 9628 19433
 9529 9629 19434
 9530 9630 19435
 9531 9631 19436
 9532 9632 19437
 9533 9633 19438
 9534 9634 19439
 9535 9635 19440
 9536 9636 19441
 9537 9637 19442
 9538 9638 19443
 9539 9639 19444
 9540 9640 19445
 9541 9641 19446
 9542 9642 19447
 9543 9643 19448
 9544 9644 19449
 9545 9645 19450
 9546 9646 19451
 9547 9647 19452
 9548 9648 19453
 9549 9649 19454
 9550 9650 19455
 9551 9651 19456
 9552 9652 19457
 9553 9653 19458
 9554 9654 19459
 9555 9655 19460
 9556 9656 19461
 9557 9657 19462
 9558 9658 19463
 9559 9659 19464
 9560 9660 19465
 9561 9661 19466
 9562 9662 19467
 9563 9663 19468
 9564 9664 19469
 9565 9665 19470
 9566 9666 19471
 9567 9667 19472
 9568 9668 19473
 9569 9669 19474
 9570 9670 19475
 9571 9671 19476
 9572 9672 19477
 9573 9673 19478
 9574 9674 19479
 9575 9675 19480
 9576 9676 19481
 9577 9677 19482
 9578 9678 19483
 9579 9679 19484
 9580 9680 19485
 9581 9681 19486
 9582 9682 19487
 9583 9683 19488
 9584 9684 19489
 9585 9685 19490
 9586 9686 19491
 9587 9687 19492
 9588 9688 19493
 9589 9689 19494
 9590 9690 19495
 9591 9691 19496
 9592 9692 19497
 9593 9693 19498
 9594 9694 19499
 9595 9695 19500
 9596 9696 19501
 9597 9697 19502
 9598 9698 19503
 9600 9700 19504
 9601 9701 19505
 9602 9702 19506
 9603 9703 19507
 9604 9704 19508
 9605 9705 19509
 9606 9706 19510
 9607 9707 19511
 9608 9708 19512
 9609 9709 19513
 9610 9710 19514
 9611 9711 19515
 9612 9712 19516
 9613 9713 19517
 9614 9714 19518
 9615 9715 19519
 9616 9716 19520
 9617 9717 19521
 9618 9718 19522
 9619 9719 19523
 9620 9720 19524
 9621 9721 19525
 9622 9722 19526
 9623 9723 19527
 9624 9724 19528
 9625 9725 19529
 9626 9726 19530
 9627 9727 19531
 9628 9728 19532
 9629 9729 19533
 9630 9730 19534
 9631 9731 19535
 9632 9732 19536
 9633 9733 19537
 9634 9734 19538
 9635 9735 19539
 9636 9736 19540
 9637 9737 19541
 9638 9738 19542
 9639 9739 19543
 9640 9740 19544
 9641 9741 19545
 9642 9742 19546
 9643 9743 19547
 9644 9744 19548
 9645 9745 19549
 9646 9746 19550
 9647 9747 19551
 9648 9748 19552
 9649 9749 19553
 9650 9750 19554
 9651 9751 19555
 9652 9752 19556
 9653 9753 19557
 9654 9754 19558
 9655 9755 19559
 9656 9756 19560
 9657 9757 19561
 9658 9758 19562
 9659 9759 19563
 9660 9760 19564
 9661 9761 19565
 9662 9762 19566
 9663 9763 19567
 9664 9764 19568
 9665 9765 19569
 9666 9766 19570
 9667 9767 19571
 9668 9768 19572
 9669 9769 19573
 9670 9770 19574
 9671 9771 19575
 9672 9772 19576
 9673 9773 19577
 9674 9774 19578
 9675 9775 19579
 9676 9776 19580
 9677 9777 19581
 9678 9778 19582
 9679 9779 19583
 9680 9780 19584
 9681 9781 19585
 9682 9782 19586
 9683 9783 19587
 9684 9784 19588
 9685 9785 19589
 9686 9786 19590
 9687 9787 19591
 9688 9788 19592
 9689 9789 19593
 9690 9790 19594
 9691 9791 19595
 9692 9792 19596
 9693 9793 19597
 9694 9794 19598
 9695 9795 19599
 9696 9796 19600
 9697 9797 19601
 9698 9798 19602
 9700 9800 19603
 9701 9801 19604
 9702 9802 19605
 9703 9803 19606
 9704 9804 19607
 9705 9805 19608
 9706 9806 19609
 9707 9807 19610
 9708 9808 19611
 9709 9809 19612
 9710 9810 19613
 9711 9811 19614
 9712 9812 19615
 9713 9813 19616
 9714 9814 19617
 9715 9815 19618
 9716 9816 19619
 9717 9817 19620
 9718 9818 19621
 9719 9819 19622
 9720 9820 19623
 9721 9821 19624
 9722 9822 19625
 9723 9823 19626
 9724 9824 19627
 9725 9825 19628
 9726 9826 19629
 9727 9827 19630
 9728 9828 19631
 9729 9829 19632
 9730 9830 19633
 9731 9831 19634
 9732 9832 19635
 9733 9833 19636
 9734 9834 19637
 9735 9835 19638
 9736 9836 19639
 9737 9837 19640
 9738 9838 19641
 9739 9839 19642
 9740 9840 19643
 9741 9841 19644
 9742 9842 19645
 9743 9843 19646
 9744 9844 19647
 9745 9845 19648
 9746 9846 19649
 9747 9847 19650
 9748 9848 19651
 9749 9849 19652
 9750 9850 19653
 9751 9851 19654
 9752 9852 19655
 9753 9853 19656
 9754 9854 19657
 9755 9855 19658
 9756 9856 19659
 9757 9857 19660
 9758 9858 19661
 9759 9859 19662
 9760 9860 19663
 9761 9861 19664
 9762 9862 19665
 9763 9863 19666
 9764 9864 19667
 9765 9865 19668
 9766 9866 19669
 9767 9867 19670
 9768 9868 19671
 9769 9869 19672
 9770 9870 19673
 9771 9871 19674
 9772 9872 19675
 9773 9873 19676
 9774 9874 19677
 9775 9875 19678
 9776 9876 19679
 9777 9877 19680
 9778 9878 19681
 9779 9879 19682
 9780 9880 19683
 9781 9881 19684
 9782 9882 19685
 9783 9883 19686
 9784 9884 19687
 9785 9885 19688
 9786 9886 19689
 9787 9887 19690
 9788 9888 19691
 9789 9889 19692
 9790 9890 19693
 9791 9891 19694
 9792 9892 19695
 9793 9893 19696
 9794 9894 19697
 9795 9895 19698
 9796 9896 19699
 9797 9897 19700
 9798 9898 19701
 9800 9900 19702
 9801 9901 19703
 9802 9902 19704
 9803 9903 19705
 9804 9904 19706
 9805 9905 19707
 9806 9906 19708
 9807 9907 19709
 9808 9908 19710
 9809 9909 19711
 9810 9910 19712
 9811 9911 19713
 9812 9912 19714
 9813 9913 19715
 9814 9914 19716
 9815 9915 19717
 9816 9916 19718
 9817 9917 19719
 9818 9918 19720
 9819 9919 19721
 9820 9920 19722
 9821 9921 19723
 9822 9922 19724
 9823 9923 19725
 9824 9924 19726
 9825 9925 19727
 9826 9926 19728
 9827 9927 19729
 9828 9928 19730
 9829 9929 19731
 9830 9930 19732
 9831 9931 19733
 9832 9932 19734
 9833 9933 19735
 9834 9934 19736
 9835 9935 19737
 9836 9936 19738
 9837 9937 19739
 9838 9938 19740
 9839 9939 19741
 9840 9940 19742
 9841 9941 19743
 9842 9942 19744
 9843 9943 19745
 9844 9944 19746
 9845 9945 19747
 9846 9946 19748
 9847 9947 19749
 9848 9948 19750
 9849 9949 19751
 9850 9950 19752
 9851 9951 19753
 9852 9952 19754
 9853 9953 19755
 9854 9954 19756
 9855 9955 19757
 9856 9956 19758
 9857 9957 19759
 9858 9958 19760
 9859 9959 19761
 9860 9960 19762
 9861 9961 19763
 9862 9962 19764
 9863 9963 19765
 9864 9964 19766
 9865 9965 19767
 9866 9966 19768
 9867 9967 19769
 9868 9968 19770
 9869 9969 19771
 9870 9970 19772
 9871 9971 19773
 9872 9972 19774
 9873 9973 19775
 9874 9974 19776
 9875 9975 19777
 9876 9976 19778
 9877 9977 19779
 9878 9978 19780
 9879 9979 19781
 9880 9980 19782
 9881 9981 19783
 9882 9982 19784
 9883 9983 19785
 9884 9984 19786
 9885 9985 19787
 9886 9986 19788
 9887 9987 19789
 9888 9988 19790
 9889 9989 19791
 9890 9990 19792
 9891 9991 19793
 9892 9992 19794
 9893 9993 19795
 9894 9994 19796
 9895 9995 19797
 9896 9996 19798
 9897 9997 19799
 9898 9998 19800</DataArray>
            <DataArray Name="offsets" format="ascii" type="Int32">3 6 9 12 15 18 21 24 27 30 33 36 39 42 45 48 51 54 57 60 63 66 69 72 75 78 81 84 87 90 93 96 99 102 105 108 111 114 117 120 123 126 129 132 135 138 141 144 147 150 153 156 159 162 165 168 171 174 177 180 183 186 189 192 195 198 201 204 207 210 213 216 219 222 225 228 231 234 237 240 243 246 249 252 255 258 261 264 267 270 273 276 279 282 285 288 291 294 297 300 303 306 309 312 315 318 321 324 327 330 333 336 339 342 345 348 351 354 357 360 363 366 369 372 375 378 381 384 387 390 393 396 399 402 405 408 411 414 417 420 423 426 429 432 435 438 441 444 447 450 453 456 459 462 465 468 471 474 477 480 483 486 489 492 495 498 501 504 507 510 513 516 519 522 525 528 531 534 537 540 543 546 549 552 555 558 561 564 567 570 573 576 579 582 585 588 591 594 597 600 603 606 609 612 615 618 621 624 627 630 633 636 639 642 645 648 651 654 657 660 663 666 669 672 675 678 681 684 687 690 693 696 699 702 705 708 711 714 717 720 723 726 729 732 735 738 741 744 747 750 753 756 759 762 765 768 771 774 777 780 783 786 789 792 795 798 801 804 807 810 813 816 819 822 825 828 831 834 837 840 843 846 849 852 855 858 861 864 867 870 873 876 879 882 885 888 891 894 897 900 903 906 909 912 915 918 921 924 927 930 933 936 939 942 945 948 951 954 957 960 963 966 969 972 975 978 981 984 987 990 993 996 999 1002 1005 1008 1011 1014 1017 1020 1023 1026 1029 1032 1035 1038 1041 1044 1047 1050 1053 1056 1059 1062 1065 1068 1071 1074 1077 1080 1083 1086 1089 1092 1095 1098 1101 1104 1107 1110 1113 1116 1119 1122 1125 1128 1131 1134 1137 1140 1143 1146 1149 1152 1155 1158 1161 1164 1167 1170 1173 1176 1179 1182 1185 1188 1191 1194 1197 1200 1203 1206 1209 1212 1215 1218 1221 1224 1227 1230 1233 1236 1239 1242 1245 1248 1251 1254 1257 1260 1263 1266 1269 1272 1275 1278 1281 1284 1287 1290 1293 1296 1299 1302 1305 1308 1311 1314 1317 1320 1323 1326 1329 1332 1335 1338 1341 1344 1347 1350 1353 1356 1359 1362 1365 1368 1371 1374 1377 1380 1383 1386 1389 1392 1395 1398 1401 1404 1407 1410 1413 1416 1419 1422 1425 1428 1431 1434 1437 1440 1443 1446 1449 1452 1455 1458 1461 1464 1467 1470 1473 1476 1479 1482 1485 1488 1491 1494 1497 1500 1503 1506 1509 1512 1515 1518 1521 1524 1527 1530 1533 1536 1539 1542 1545 1548 1551 1554 1557 1560 1563 1566 1569 1572 1575 1578 1581 1584 1587 1590 1593 1596 1599 1602 1605 1608 1611 1614 1617 1620 1623 1626 1629 1632 1635 1638 1641 1644 1647 1650 1653 1656 1659 1662 1665 1668 1671 1674 1677 1680 1683 1686 1689 1692 1695 1698 1701 1704 1707 1710 1713 1716 1719 1722 1725 1728 1731 1734 1737 1740 1743 1746 1749 1752 1755 1758 1761 1764 1767 1770 1773 1776 1779 1782 1785 1788 1791 1794 1797 1800 1803 1806 1809 1812 1815 1818 1821 1824 1827 1830 1833 1836 1839 1842 1845 1848 1851 1854 1857 1860 1863 1866 1869 1872 1875 1878 1881 1884 1887 1890 1893 1896 1899 1902 1905 1908 1911 1914 1917 1920 1923 1926 1929 1932 1935 1938 1941 1944 1947 1950 1953 1956 1959 1962 1965 1968 1971 1974 1977 1980 1983 1986 1989 1992 1995 1998 2001 2004 2007 2010 2013 2016 2019 2022 2025 2028 2031 2034 2037 2040 2043 2046 2049 2052 2055 2058 2061 2064 2067 2070 2073 2076 2079 2082 2085 2088 2091 2094 2097 2100 2103 2106 2109 2112 2115 2118 2121 2124 2127 2130 2133 2136 2139 2142 2145 2148 2151 2154 2157 2160 2163 2166 2169 2172 2175 2178 2181 2184 2187 2190 2193 2196 2199 2202 2205 2208 2211 2214 2217 2220 2223 2226 2229 2232 2235 2238 2241 2244 2247 2250 2253 2256 2259 2262 2265 2268 2271 2274 2277 2280 2283 2286 2289 2292 2295 2298 2301 2304 2307 2310 2313 2316 2319 2322 2325 2328 2331 2334 2337 2340 2343 2346 2349 2352 2355 2358 2361 2364 2367 2370 2373 2376 2379 2382 2385 2388 2391 2394 2397 2400 2403 2406 2409 2412 2415 2418 2421 2424 2427 2430 2433 2436 2439 2442 2445 2448 2451 2454 2457 2460 2463 2466 2469 2472 2475 2478 2481 2484 2487 2490 2493 2496 2499 2502 2505 2508 2511 2514 2517 2520 2523 2526 2529 2532 2535 2538 2541 2544 2547 2550 2553 2556 2559 2562 2565 2568 2571 2574 2577 2580 2583 2586 2589 2592 2595 2598 2601 2604 2607 2610 2613 2616 2619 2622 2625 2628 2631 2634 2637 2640 2643 2646 2649 2652 2655 2658 2661 2664 2667 2670 2673 2676 2679 2682 2685 2688 2691 2694 2697 2700 2703 2706 2709 2712 2715 2718 2721 2724 2727 2730 2733 2736 2739 2742 2745 2748 2751 2754 2757 2760 2763 2766 2769 2772 2775 2778 2781 2784 2787 2790 2793 2796 2799 2802 2805 2808 2811 2814 2817 2820 2823 2826 2829 2832 2835 2838 2841 2844 2847 2850 2853 2856 2859 2862 2865 2868 2871 2874 2877 2880 2883 2886 2889 2892 2895 2898 2901 2904 2907 2910 2913 2916 2919 2922 2925 2928 2931 2934 2937 2940 2943 2946 2949 2952 2955 2958 2961 2964 2967 2970 2973 2976 2979 2982 2985 2988 2991 2994 2997 3000 3003 3006 3009 3012 3015 3018 3021 3024 3027 3030 3033 3036 3039 3042 3045 3048 3051 3054 3057 3060 3063 3066 3069 3072 3075 3078 3081 3084 3087 3090 3093 3096 3099 3102 3105 3108 3111 3114 3117 3120 3123 3126 3129 3132 3135 3138 3141 3144 3147 3150 3153 3156 3159 3162 3165 3168 3171 3174 3177 3180 3183 3186 3189 3192 3195 3198 3201 3204 3207 3210 3213 3216 3219 3222 3225 3228 3231 3234 3237 3240 3243 3246 3249 3252 3255 3258 3261 3264 3267 3270 3273 3276 3279 3282 3285 3288 3291 3294 3297 3300 3303 3306 3309 3312 3315 3318 3321 3324 3327 3330 3333 3336 3339 3342 3345 3348 3351 3354 3357 3360 3363 3366 3369 3372 3375 3378 3381 3384 3387 3390 3393 3396 3399 3402 3405 3408 3411 3414 3417 3420 3423 3426 3429 3432 3435 3438 3441 3444 3447 3450 3453 3456 3459 3462 3465 3468 3471 3474 3477 3480 3483 3486 3489 3492 3495 3498 3501 3504 3507 3510 3513 3516 3519 3522 3525 3528 3531 3534 3537 3540 3543 3546 3549 3552 3555 3558 3561 3564 3567 3570 3573 3576 3579 3582 3585 3588 3591 3594 3597 3600 3603 3606 3609 3612 3615 3618 3621 3624 3627 3630 3633 3636 3639 3642 3645 3648 3651 3654 3657 3660 3663 3666 3669 3672 3675 3678 3681 3684 3687 3690 3693 3696 3699 3702 3705 3708 3711 3714 3717 3720 3723 3726 3729 3732 3735 3738 3741 3744 3747 3750 3753 3756 3759 3762 3765 3768 3771 3774 3777 3780 3783 3786 3789 3792 3795 3798 3801 3804 3807 3810 3813 3816 3819 3822 3825 3828 3831 3834 3837 3840 3843 3846 3849 3852 3855 3858 3861 3864 3867 3870 3873 3876 3879 3882 3885 3888 3891 3894 3897 3900 3903 3906 3909 3912 3915 3918 3921 3924 3927 3930 3933 3936 3939 3942 3945 3948 3951 3954 3957 3960 3963 3966 3969 3972 3975 3978 3981 3984 3987 3990 3993 3996 3999 4002 4005 4008 4011 4014 4017 4020 4023 4026 4029 4032 4035 4038 4041 4044 4047 4050 4053 4056 4059 4062 4065 4068 4071 4074 4077 4080 4083 4086 4089 4092 4095 4098 4101 4104 4107 4110 4113 4116 4119 4122 4125 4128 4131 4134 4137 4140 4143 4146 4149 4152 4155 4158 4161 4164 4167 4170 4173 4176 4179 4182 4185 4188 4191 4194 4197 4200 4203 4206 4209 4212 4215 4218 4221 4224 4227 4230 4233 4236 4239 4242 4245 4248 4251 4254 4257 4260 4263 4266 4269 4272 4275 4278 4281 4284 4287 4290 4293 4296 4299 4302 4305 4308 4311 4314 4317 4320 4323 4326 4329 4332 4335 4338 4341 4344 4347 4350 4353 4356 4359 4362 4365 4368 4371 4374 4377 4380 4383 4386 4389 4392 4395 4398 4401 4404 4407 4410 4413 4416 4419 4422 4425 4428 4431 4434 4437 4440 4443 4446 4449 4452 4455 4458 4461 4464 4467 4470 4473 4476 4479 4482 4485 4488 4491 4494 4497 4500 4503 4506 4509 4512 4515 4518 4521 4524 4527 4530 4533 4536 4539 4542 4545 4548 4551 4554 4557 4560 4563 4566 4569 4572 4575 4578 4581 4584 4587 4590 4593 4596 4599 4602 4605 4608 4611 4614 4617 4620 4623 4626 4629 4632 4635 4638 4641 4644 4647 4650 4653 4656 4659 4662 4665 4668 4671 4674 4677 4680 4683 4686 4689 4692 4695 4698 4701 4704 4707 4710 4713 4716 4719 4722 4725 4728 4731 4734 4737 4740 4743 4746 4749 4752 4755 4758 4761 4764 4767 4770 4773 4776 4779 4782 4785 4788 4791 4794 4797 4800 4803 4806 4809 4812 4815 4818 4821 4824 4827 4830 4833 4836 4839 4842 4845 4848 4851 4854 4857 4860 4863 4866 4869 4872 4875 4878 4881 4884 4887 4890 4893 4896 4899 4902 4905 4908 4911 4914 4917 4920 4923 4926 4929 4932 4935 4938 4941 4944 4947 4950 4953 4956 4959 4962 4965 4968 4971 4974 4977 4980 4983 4986 4989 4992 4995 4998 5001 5004 5007 5010 5013 5016 5019 5022 5025 5028 5031 5034 5037 5040 5043 5046 5049 5052 5055 5058 5061 5064 5067 5070 5073 5076 5079 5082 5085 5088 5091 5094 5097 5100 5103 5106 5109 5112 5115 5118 5121 5124 5127 5130 5133 5136 5139 5142 5145 5148 5151 5154 5157 5160 5163 5166 5169 5172 5175 5178 5181 5184 5187 5190 5193 5196 5199 5202 5205 5208 5211 5214 5217 5220 5223 5226 5229 5232 5235 5238 5241 5244 5247 5250 5253 5256 5259 5262 5265 5268 5271 5274 5277 5280 5283 5286 5289 5292 5295 5298 5301 5304 5307 5310 5313 5316 5319 5322 5325 5328 5331 5334 5337 5340 5343 5346 5349 5352 5355 5358 5361 5364 5367 5370 5373 5376 5379 5382 5385 5388 5391 5394 5397 5400 5403 5406 5409 5412 5415 5418 5421 5424 5427 5430 5433 5436 5439 5442 5445 5448 5451 5454 5457 5460 5463 5466 5469 5472 5475 5478 5481 5484 5487 5490 5493 5496 5499 5502 5505 5508 5511 5514 5517 5520 5523 5526 5529 5532 5535 5538 5541 5544 5547 5550 5553 5556 5559 5562 5565 5568 5571 5574 5577 5580 5583 5586 5589 5592 5595 5598 5601 5604 5607 5610 5613 5616 5619 5622 5625 5628 5631 5634 5637 5640 5643 5646 5649 5652 5655 5658 5661 5664 5667 5670 5673 5676 5679 5682 5685 5688 5691 5694 5697 5700 5703 5706 5709 5712 5715 5718 5721 5724 5727 5730 5733 5736 5739 5742 5745 5748 5751 5754 5757 5760 5763 5766 5769 5772 5775 5778 5781 5784 5787 5790 5793 5796 5799 5802 5805 5808 5811 5814 5817 5820 5823 5826 5829 5832 5835 5838 5841 5844 5847 5850 5853 5856 5859 5862 5865 5868 5871 5874 5877 5880 5883 5886 5889 5892 5895 5898 5901 5904 5907 5910 5913 5916 5919 5922 5925 5928 5931 5934 5937 5940 5943 5946 5949 5952 5955 5958 5961 5964 5967 5970 5973 5976 5979 5982 5985 5988 5991 5994 5997 6000 6003 6006 6009 6012 6015 6018 6021 6024 6027 6030 6033 6036 6039 6042 6045 6048 6051 6054 6057 6060 6063 6066 6069 6072 6075 6078 6081 6084 6087 6090 6093 6096 6099 6102 6105 6108 6111 6114 6117 6120 6123 6126 6129 6132 6135 6138 6141 6144 6147 6150 6153 6156 6159 6162 6165 6168 6171 6174 6177 6180 6183 6186 6189 6192 6195 6198 6201 6204 6207 6210 6213 6216 6219 6222 6225 6228 6231 6234 6237 6240 6243 6246 6249 6252 6255 6258 6261 6264 6267 6270 6273 6276 6279 6282 6285 6288 6291 6294 6297 6300 6303 6306 6309 6312 6315 6318 6321 6324 6327 6330 6333 6336 6339 6342 6345 6348 6351 6354 6357 6360 6363 6366 6369 6372 6375 6378 6381 6384 6387 6390 6393 6396 6399 6402 6405 6408 6411 6414 6417 6420 6423 6426 6429 6432 6435 6438 6441 6444 6447 6450 6453 6456 6459 6462 6465 6468 6471 6474 6477 6480 6483 6486 6489 6492 6495 6498 6501 6504 6507 6510 6513 6516 6519 6522 6525 6528 6531 6534 6537 6540 6543 6546 6549 6552 6555 6558 6561 6564 6567 6570 6573 6576 6579 6582 6585 6588 6591 6594 6597 6600 6603 6606 6609 6612 6615 6618 6621 6624 6627 6630 6633 6636 6639 6642 6645 6648 6651 6654 6657 6660 6663 6666 6669 6672 6675 6678 6681 6684 6687 6690 6693 6696 6699 6702 6705 6708 6711 6714 6717 6720 6723 6726 6729 6732 6735 6738 6741 6744 6747 6750 6753 6756 6759 6762 6765 6768 6771 6774 6777 6780 6783 6786 6789 6792 6795 6798 6801 6804 6807 6810 6813 6816 6819 6822 6825 6828 6831 6834 6837 6840 6843 6846 6849 6852 6855 6858 6861 6864 6867 6870 6873 6876 6879 6882 6885 6888 6891 6894 6897 6900 6903 6906 6909 6912 6915 6918 6921 6924 6927 6930 6933 6936 6939 6942 6945 6948 6951 6954 6957 6960 6963 6966 6969 6972 6975 6978 6981 6984 6987 6990 6993 6996 6999 7002 7005 7008 7011 7014 7017 7020 7023 7026 7029 7032 7035 7038 7041 7044 7047 7050 7053 7056 7059 7062 7065 7068 7071 7074 7077 7080 7083 7086 7089 7092 7095 7098 7101 7104 7107 7110 7113 7116 7119 7122 7125 7128 7131 7134 7137 7140 7143 7146 7149 7152 7155 7158 7161 7164 7167 7170 7173 7176 7179 7182 7185 7188 7191 7194 7197 7200 7203 7206 7209 7212 7215 7218 7221 7224 7227 7230 7233 7236 7239 7242 7245 7248 7251 7254 7257 7260 7263 7266 7269 7272 7275 7278 7281 7284 7287 7290 7293 7296 7299 7302 7305 7308 7311 7314 7317 7320 7323 7326 7329 7332 7335 7338 7341 7344 7347 7350 7353 7356 7359 7362 7365 7368 7371 7374 7377 7380 7383 7386 7389 7392 7395 7398 7401 7404 7407 7410 7413 7416 7419 7422 7425 7428 7431 7434 7437 7440 7443 7446 7449 7452 7455 7458 7461 7464 7467 7470 7473 7476 7479 7482 7485 7488 7491 7494 7497 7500 7503 7506 7509 7512 7515 7518 7521 7524 7527 7530 7533 7536 7539 7542 7545 7548 7551 7554 7557 7560 7563 7566 7569 7572 7575 7578 7581 7584 7587 7590 7593 7596 7599 7602 7605 7608 7611 7614 7617 7620 7623 7626 7629 7632 7635 7638 7641 7644 7647 7650 7653 7656 7659 7662 7665 7668 7671 7674 7677 7680 7683 7686 7689 7692 7695 7698 7701 7704 7707 7710 7713 7716 7719 7722 7725 7728 7731 7734 7737 7740 7743 7746 7749 7752 7755 7758 7761 7764 7767 7770 7773 7776 7779 7782 7785 7788 7791 7794 7797 7800 7803 7806 7809 7812 7815 7818 7821 7824 7827 7830 7833 7836 7839 7842 7845 7848 7851 7854 7857 7860 7863 7866 7869 7872 7875 7878 7881 7884 7887 7890 7893 7896 7899 7902 7905 7908 7911 7914 7917 7920 7923 7926 7929 7932 7935 7938 7941 7944 7947 7950 7953 7956 7959 7962 7965 7968 7971 7974 7977 7980 7983 7986 7989 7992 7995 7998 8001 8004 8007 8010 8013 8016 8019 8022 8025 8028 8031 8034 8037 8040 8043 8046 8049 8052 8055 8058 8061 8064 8067 8070 8073 8076 8079 8082 8085 8088 8091 8094 8097 8100 8103 8106 8109 8112 8115 8118 8121 8124 8127 8130 8133 8136 8139 8142 8145 8148 8151 8154 8157 8160 8163 8166 8169 8172 8175 8178 8181 8184 8187 8190 8193 8196 8199 8202 8205 8208 8211 8214 8217 8220 8223 8226 8229 8232 8235 8238 8241 8244 8247 8250 8253 8256 8259 8262 8265 8268 8271 8274 8277 8280 8283 8286 8289 8292 8295 8298 8301 8304 8307 8310 8313 8316 8319 8322 8325 8328 8331 8334 8337 8340 8343 8346 8349 8352 8355 8358 8361 8364 8367 8370 8373 8376 8379 8382 8385 8388 8391 8394 8397 8400 8403 8406 8409 8412 8415 8418 8421 8424 8427 8430 8433 8436 8439 8442 8445 8448 8451 8454 8457 8460 8463 8466 8469 8472 8475 8478 8481 8484 8487 8490 8493 8496 8499 8502 8505 8508 8511 8514 8517 8520 8523 8526 8529 8532 8535 8538 8541 8544 8547 8550 8553 8556 8559 8562 8565 8568 8571 8574 8577 8580 8583 8586 8589 8592 8595 8598 8601 8604 8607 8610 8613 8616 8619 8622 8625 8628 8631 8634 8637 8640 8643 8646 8649 8652 8655 8658 8661 8664 8667 8670 8673 8676 8679 8682 8685 8688 8691 8694 8697 8700 8703 8706 8709 8712 8715 8718 8721 8724 8727 8730 8733 8736 8739 8742 8745 8748 8751 8754 8757 8760 8763 8766 8769 8772 8775 8778 8781 8784 8787 8790 8793 8796 8799 8802 8805 8808 8811 8814 8817 8820 8823 8826 8829 8832 8835 8838 8841 8844 8847 8850 8853 8856 8859 8862 8865 8868 8871 8874 8877 8880 8883 8886 8889 8892 8895 8898 8901 8904 8907 8910 8913 8916 8919 8922 8925 8928 8931 8934 8937 8940 8943 8946 8949 8952 8955 8958 8961 8964 8967 8970 8973 8976 8979 8982 8985 8988 8991 8994 8997 9000 9003 9006 9009 9012 9015 9018 9021 9024 9027 9030 9033 9036 9039 9042 9045 9048 9051 9054 9057 9060 9063 9066 9069 9072 9075 9078 9081 9084 9087 9090 9093 9096 9099 9102 9105 9108 9111 9114 9117 9120 9123 9126 9129 9132 9135 9138 9141 9144 9147 9150 9153 9156 9159 9162 9165 9168 9171 9174 9177 9180 9183 9186 9189 9192 9195 9198 9201 9204 9207 9210 9213 9216 9219 9222 9225 9228 9231 9234 9237 9240 9243 9246 9249 9252 9255 9258 9261 9264 9267 9270 9273 9276 9279 9282 9285 9288 9291 9294 9297 9300 9303 9306 9309 9312 9315 9318 9321 9324 9327 9330 9333 9336 9339 9342 9345 9348 9351 9354 9357 9360 9363 9366 9369 9372 9375 9378 9381 9384 9387 9390 9393 9396 9399 9402 9405 9408 9411 9414 9417 9420 9423 9426 9429 9432 9435 9438 9441 9444 9447 9450 9453 9456 9459 9462 9465 9468 9471 9474 9477 9480 9483 9486 9489 9492 9495 9498 9501 9504 9507 9510 9513 9516 9519 9522 9525 9528 9531 9534 9537 9540 9543 9546 9549 9552 9555 9558 9561 9564 9567 9570 9573 9576 9579 9582 9585 9588 9591 9594 9597 9600 9603 9606 9609 9612 9615 9618 9621 9624 9627 9630 9633 9636 9639 9642 9645 9648 9651 9654 9657 9660 9663 9666 9669 9672 9675 9678 9681 9684 9687 9690 9693 9696 9699 9702 9705 9708 9711 9714 9717 9720 9723 9726 9729 9732 9735 9738 9741 9744 9747 9750 9753 9756 9759 9762 9765 9768 9771 9774 9777 9780 9783 9786 9789 9792 9795 9798 9801 9804 9807 9810 9813 9816 9819 9822 9825 9828 9831 9834 9837 9840 9843 9846 9849 9852 9855 9858 9861 9864 9867 9870 9873 9876 9879 9882 9885 9888 9891 9894 9897 9900 9903 9906 9909 9912 9915 9918 9921 9924 9927 9930 9933 9936 9939 9942 9945 9948 9951 9954 9957 9960 9963 9966 9969 9972 9975 9978 9981 9984 9987 9990 9993 9996 9999 10002 10005 10008 10011 10014 10017 10020 10023 10026 10029 10032 10035 10038 10041 10044 10047 10050 10053 10056 10059 10062 10065 10068 10071 10074 10077 10080 10083 10086 10089 10092 10095 10098 10101 10104 10107 10110 10113 10116 10119 10122 10125 10128 10131 10134 10137 10140 10143 10146 10149 10152 10155 10158 10161 10164 10167 10170 10173 10176 10179 10182 10185 10188 10191 10194 10197 10200 10203 10206 10209 10212 10215 10218 10221 10224 10227 10230 10233 10236 10239 10242 10245 10248 10251 10254 10257 10260 10263 10266 10269 10272 10275 10278 10281 10284 10287 10290 10293 10296 10299 10302 10305 10308 10311 10314 10317 10320 10323 10326 10329 10332 10335 10338 10341 10344 10347 10350 10353 10356 10359 10362 10365 10368 10371 10374 10377 10380 10383 10386 10389 10392 10395 10398 10401 10404 10407 10410 10413 10416 10419 10422 10425 10428 10431 10434 10437 10440 10443 10446 10449 10452 10455 10458 10461 10464 10467 10470 10473 10476 10479 10482 10485 10488 10491 10494 10497 10500 10503 10506 10509 10512 10515 10518 10521 10524 10527 10530 10533 10536 10539 10542 10545 10548 10551 10554 10557 10560 10563 10566 10569 10572 10575 10578 10581 10584 10587 10590 10593 10596 10599 10602 10605 10608 10611 10614 10617 10620 10623 10626 10629 10632 10635 10638 10641 10644 10647 10650 10653 10656 10659 10662 10665 10668 10671 10674 10677 10680 10683 10686 10689 10692 10695 10698 10701 10704 10707 10710 10713 10716 10719 10722 10725 10728 10731 10734 10737 10740 10743 10746 10749 10752 10755 10758 10761 10764 10767 10770 10773 10776 10779 10782 10785 10788 10791 10794 10797 10800 10803 10806 10809 10812 10815 10818 10821 10824 10827 10830 10833 10836 10839 10842 10845 10848 10851 10854 10857 10860 10863 10866 10869 10872 10875 10878 10881 10884 10887 10890 10893 10896 10899 10902 10905 10908 10911 10914 10917 10920 10923 10926 10929 10932 10935 10938 10941 10944 10947 10950 10953 10956 10959 10962 10965 10968 10971 10974 10977 10980 10983 10986 10989 10992 10995 10998 11001 11004 11007 11010 11013 11016 11019 11022 11025 11028 11031 11034 11037 11040 11043 11046 11049 11052 11055 11058 11061 11064 11067 11070 11073 11076 11079 11082 11085 11088 11091 11094 11097 11100 11103 11106 11109 11112 11115 11118 11121 11124 11127 11130 11133 11136 11139 11142 11145 11148 11151 11154 11157 11160 11163 11166 11169 11172 11175 11178 11181 11184 11187 11190 11193 11196 11199 11202 11205 11208 11211 11214 11217 11220 11223 11226 11229 11232 11235 11238 11241 11244 11247 11250 11253 11256 11259 11262 11265 11268 11271 11274 11277 11280 11283 11286 11289 11292 11295 11298 11301 11304 11307 11310 11313 11316 11319 11322 11325 11328 11331 11334 11337 11340 11343 11346 11349 11352 11355 11358 11361 11364 11367 11370 11373 11376 11379 11382 11385 11388 11391 11394 11397 11400 11403 11406 11409 11412 11415 11418 11421 11424 11427 11430 11433 11436 11439 11442 11445 11448 11451 11454 11457 11460 11463 11466 11469 11472 11475 11478 11481 11484 11487 11490 11493 11496 11499 11502 11505 11508 11511 11514 11517 11520 11523 11526 11529 11532 11535 11538 11541 11544 11547 11550 11553 11556 11559 11562 11565 11568 11571 11574 11577 11580 11583 11586 11589 11592 11595 11598 11601 11604 11607 11610 11613 11616 11619 11622 11625 11628 11631 11634 11637 11640 11643 11646 11649 11652 11655 11658 11661 11664 11667 11670 11673 11676 11679 11682 11685 11688 11691 11694 11697 11700 11703 11706 11709 11712 11715 11718 11721 11724 11727 11730 11733 11736 11739 11742 11745 11748 11751 11754 11757 11760 11763 11766 11769 11772 11775 11778 11781 11784 11787 11790 11793 11796 11799 11802 11805 11808 11811 11814 11817 11820 11823 11826 11829 11832 11835 11838 11841 11844 11847 11850 11853 11856 11859 11862 11865 11868 11871 11874 11877 11880 11883 11886 11889 11892 11895 11898 11901 11904 11907 11910 11913 11916 11919 11922 11925 11928 11931 11934 11937 11940 11943 11946 11949 11952 11955 11958 11961 11964 11967 11970 11973 11976 11979 11982 11985 11988 11991 11994 11997 12000 12003 12006 12009 12012 12015 12018 12021 12024 12027 12030 12033 12036 12039 12042 12045 12048 12051 12054 12057 12060 12063 12066 12069 12072 12075 12078 12081 12084 12087 12090 12093 12096 12099 12102 12105 12108 12111 12114 12117 12120 12123 12126 12129 12132 12135 12138 12141 12144 12147 12150 12153 12156 12159 12162 12165 12168 12171 12174 12177 12180 12183 12186 12189 12192 12195 12198 12201 12204 12207 12210 12213 12216 12219 12222 12225 12228 12231 12234 12237 12240 12243 12246 12249 12252 12255 12258 12261 12264 12267 12270 12273 12276 12279 12282 12285 12288 12291 12294 12297 12300 12303 12306 12309 12312 12315 12318 12321 12324 12327 12330 12333 12336 12339 12342 12345 12348 12351 12354 12357 12360 12363 12366 12369 12372 12375 12378 12381 12384 12387 12390 12393 12396 12399 12402 12405 12408 12411 12414 12417 12420 12423 12426 12429 12432 12435 12438 12441 12444 12447 12450 12453 12456 12459 12462 12465 12468 12471 12474 12477 12480 12483 12486 12489 12492 12495 12498 12501 12504 12507 12510 12513 12516 12519 12522 12525 12528 12531 12534 12537 12540 12543 12546 12549 12552 12555 12558 12561 12564 12567 12570 12573 12576 12579 12582 12585 12588 12591 12594 12597 12600 12603 12606 12609 12612 12615 12618 12621 12624 12627 12630 12633 12636 12639 12642 12645 12648 12651 12654 12657 12660 12663 12666 12669 12672 12675 12678 12681 12684 12687 12690 12693 12696 12699 12702 12705 12708 12711 12714 12717 12720 12723 12726 12729 12732 12735 12738 12741 12744 12747 12750 12753 12756 12759 12762 12765 12768 12771 12774 12777 12780 12783 12786 12789 12792 12795 12798 12801 12804 12807 12810 12813 12816 12819 12822 12825 12828 12831 12834 12837 12840 12843 12846 12849 12852 12855 12858 12861 12864 12867 12870 12873 12876 12879 12882 12885 12888 12891 12894 12897 12900 12903 12906 12909 12912 12915 12918 12921 12924 12927 12930 12933 12936 12939 12942 12945 12948 12951 12954 12957 12960 12963 12966 12969 12972 12975 12978 12981 12984 12987 12990 12993 12996 12999 13002 13005 13008 13011 13014 13017 13020 13023 13026 13029 13032 13035 13038 13041 13044 13047 13050 13053 13056 13059 13062 13065 13068 13071 13074 13077 13080 13083 13086 13089 13092 13095 13098 13101 13104 13107 13110 13113 13116 13119 13122 13125 13128 13131 13134 13137 13140 13143 13146 13149 13152 13155 13158 13161 13164 13167 13170 13173 13176 13179 13182 13185 13188 13191 13194 13197 13200 13203 13206 13209 13212 13215 13218 13221 13224 13227 13230 13233 13236 13239 13242 13245 13248 13251 13254 13257 13260 13263 13266 13269 13272 13275 13278 13281 13284 13287 13290 13293 13296 13299 13302 13305 13308 13311 13314 13317 13320 13323 13326 13329 13332 13335 13338 13341 13344 13347 13350 13353 13356 13359 13362 13365 13368 13371 13374 13377 13380 13383 13386 13389 13392 13395 13398 13401 13404 13407 13410 13413 13416 13419 13422 13425 13428 13431 13434 13437 13440 13443 13446 13449 13452 13455 13458 13461 13464 13467 13470 13473 13476 13479 13482 13485 13488 13491 13494 13497 13500 13503 13506 13509 13512 13515 13518 13521 13524 13527 13530 13533 13536 13539 13542 13545 13548 13551 13554 13557 13560 13563 13566 13569 13572 13575 13578 13581 13584 13587 13590 13593 13596 13599 13602 13605 13608 13611 13614 13617 13620 13623 13626 13629 13632 13635 13638 13641 13644 13647 13650 13653 13656 13659 13662 13665 13668 13671 13674 13677 13680 13683 13686 13689 13692 13695 13698 13701 13704 13707 13710 13713 13716 13719 13722 13725 13728 13731 13734 13737 13740 13743 13746 13749 13752 13755 13758 13761 13764 13767 13770 13773 13776 13779 13782 13785 13788 13791 13794 13797 13800 13803 13806 13809 13812 13815 13818 13821 13824 13827 13830 13833 13836 13839 13842 13845 13848 13851 13854 13857 13860 13863 13866 13869 13872 13875 13878 13881 13884 13887 13890 13893 13896 13899 13902 13905 13908 13911 13914 13917 13920 13923 13926 13929 13932 13935 13938 13941 13944 13947 13950 13953 13956 13959 13962 13965 13968 13971 13974 13977 13980 13983 13986 13989 13992 13995 13998 14001 14004 14007 14010 14013 14016 14019 14022 14025 14028 14031 14034 14037 14040 14043 14046 14049 14052 14055 14058 14061 14064 14067 14070 14073 14076 14079 14082 14085 14088 14091 14094 14097 14100 14103 14106 14109 14112 14115 14118 14121 14124 14127 14130 14133 14136 14139 14142 14145 14148 14151 14154 14157 14160 14163 14166 14169 14172 14175 14178 14181 14184 14187 14190 14193 14196 14199 14202 14205 14208 14211 14214 14217 14220 14223 14226 14229 14232 14235 14238 14241 14244 14247 14250 14253 14256 14259 14262 14265 14268 14271 14274 14277 14280 14283 14286 14289 14292 14295 14298 14301 14304 14307 14310 14313 14316 14319 14322 14325 14328 14331 14334 14337 14340 14343 14346 14349 14352 14355 14358 14361 14364 14367 14370 14373 14376 14379 14382 14385 14388 14391 14394 14397 14400 14403 14406 14409 14412 14415 14418 14421 14424 14427 14430 14433 14436 14439 14442 14445 14448 14451 14454 14457 14460 14463 14466 14469 14472 14475 14478 14481 14484 14487 14490 14493 14496 14499 14502 14505 14508 14511 14514 14517 14520 14523 14526 14529 14532 14535 14538 14541 14544 14547 14550 14553 14556 14559 14562 14565 14568 14571 14574 14577 14580 14583 14586 14589 14592 14595 14598 14601 14604 14607 14610 14613 14616 14619 14622 14625 14628 14631 14634 14637 14640 14643 14646 14649 14652 14655 14658 14661 14664 14667 14670 14673 14676 14679 14682 14685 14688 14691 14694 14697 14700 14703 14706 14709 14712 14715 14718 14721 14724 14727 14730 14733 14736 14739 14742 14745 14748 14751 14754 14757 14760 14763 14766 14769 14772 14775 14778 14781 14784 14787 14790 14793 14796 14799 14802 14805 14808 14811 14814 14817 14820 14823 14826 14829 14832 14835 14838 14841 14844 14847 14850 14853 14856 14859 14862 14865 14868 14871 14874 14877 14880 14883 14886 14889 14892 14895 14898 14901 14904 14907 14910 14913 14916 14919 14922 14925 14928 14931 14934 14937 14940 14943 14946 14949 14952 14955 14958 14961 14964 14967 14970 14973 14976 14979 14982 14985 14988 14991 14994 14997 15000 15003 15006 15009 15012 15015 15018 15021 15024 15027 15030 15033 15036 15039 15042 15045 15048 15051 15054 15057 15060 15063 15066 15069 15072 15075 15078 15081 15084 15087 15090 15093 15096 15099 15102 15105 15108 15111 15114 15117 15120 15123 15126 15129 15132 15135 15138 15141 15144 15147 15150 15153 15156 15159 15162 15165 15168 15171 15174 15177 15180 15183 15186 15189 15192 15195 15198 15201 15204 15207 15210 15213 15216 15219 15222 15225 15228 15231 15234 15237 15240 15243 15246 15249 15252 15255 15258 15261 15264 15267 15270 15273 15276 15279 15282 15285 15288 15291 15294 15297 15300 15303 15306 15309 15312 15315 15318 15321 15324 15327 15330 15333 15336 15339 15342 15345 15348 15351 15354 15357 15360 15363 15366 15369 15372 15375 15378 15381 15384 15387 15390 15393 15396 15399 15402 15405 15408 15411 15414 15417 15420 15423 15426 15429 15432 15435 15438 15441 15444 15447 15450 15453 15456 15459 15462 15465 15468 15471 15474 15477 15480 15483 15486 15489 15492 15495 15498 15501 15504 15507 15510 15513 15516 15519 15522 15525 15528 15531 15534 15537 15540 15543 15546 15549 15552 15555 15558 15561 15564 15567 15570 15573 15576 15579 15582 15585 15588 15591 15594 15597 15600 15603 15606 15609 15612 15615 15618 15621 15624 15627 15630 15633 15636 15639 15642 15645 15648 15651 15654 15657 15660 15663 15666 15669 15672 15675 15678 15681 15684 15687 15690 15693 15696 15699 15702 15705 15708 15711 15714 15717 15720 15723 15726 15729 15732 15735 15738 15741 15744 15747 15750 15753 15756 15759 15762 15765 15768 15771 15774 15777 15780 15783 15786 15789 15792 15795 15798 15801 15804 15807 15810 15813 15816 15819 15822 15825 15828 15831 15834 15837 15840 15843 15846 15849 15852 15855 15858 15861 15864 15867 15870 15873 15876 15879 15882 15885 15888 15891 15894 15897 15900 15903 15906 15909 15912 15915 15918 15921 15924 15927 15930 15933 15936 15939 15942 15945 15948 15951 15954 15957 15960 15963 15966 15969 15972 15975 15978 15981 15984 15987 15990 15993 15996 15999 16002 16005 16008 16011 16014 16017 16020 16023 16026 16029 16032 16035 16038 16041 16044 16047 16050 16053 16056 16059 16062 16065 16068 16071 16074 16077 16080 16083 16086 16089 16092 16095 16098 16101 16104 16107 16110 16113 16116 16119 16122 16125 16128 16131 16134 16137 16140 16143 16146 16149 16152 16155 16158 16161 16164 16167 16170 16173 16176 16179 16182 16185 16188 16191 16194 16197 16200 16203 16206 16209 16212 16215 16218 16221 16224 16227 16230 16233 16236 16239 16242 16245 16248 16251 16254 16257 16260 16263 16266 16269 16272 16275 16278 16281 16284 16287 16290 16293 16296 16299 16302 16305 16308 16311 16314 16317 16320 16323 16326 16329 16332 16335 16338 16341 16344 16347 16350 16353 16356 16359 16362 16365 16368 16371 16374 16377 16380 16383 16386 16389 16392 16395 16398 16401 16404 16407 16410 16413 16416 16419 16422 16425 16428 16431 16434 16437 16440 16443 16446 16449 16452 16455 16458 16461 16464 16467 16470 16473 16476 16479 16482 16485 16488 16491 16494 16497 16500 16503 16506 16509 16512 16515 16518 16521 16524 16527 16530 16533 16536 16539 16542 16545 16548 16551 16554 16557 16560 16563 16566 16569 16572 16575 16578 16581 16584 16587 16590 16593 16596 16599 16602 16605 16608 16611 16614 16617 16620 16623 16626 16629 16632 16635 16638 16641 16644 16647 16650 16653 16656 16659 16662 16665 16668 16671 16674 16677 16680 16683 16686 16689 16692 16695 16698 16701 16704 16707 16710 16713 16716 16719 16722 16725 16728 16731 16734 16737 16740 16743 16746 16749 16752 16755 16758 16761 16764 16767 16770 16773 16776 16779 16782 16785 16788 16791 16794 16797 16800 16803 16806 16809 16812 16815 16818 16821 16824 16827 16830 16833 16836 16839 16842 16845 16848 16851 16854 16857 16860 16863 16866 16869 16872 16875 16878 16881 16884 16887 16890 16893 16896 16899 16902 16905 16908 16911 16914 16917 16920 16923 16926 16929 16932 16935 16938 16941 16944 16947 16950 16953 16956 16959 16962 16965 16968 16971 16974 16977 16980 16983 16986 16989 16992 16995 16998 17001 17004 17007 17010 17013 17016 17019 17022 17025 17028 17031 17034 17037 17040 17043 17046 17049 17052 17055 17058 17061 17064 17067 17070 17073 17076 17079 17082 17085 17088 17091 17094 17097 17100 17103 17106 17109 17112 17115 17118 17121 17124 17127 17130 17133 17136 17139 17142 17145 17148 17151 17154 17157 17160 17163 17166 17169 17172 17175 17178 17181 17184 17187 17190 17193 17196 17199 17202 17205 17208 17211 17214 17217 17220 17223 17226 17229 17232 17235 17238 17241 17244 17247 17250 17253 17256 17259 17262 17265 17268 17271 17274 17277 17280 17283 17286 17289 17292 17295 17298 17301 17304 17307 17310 17313 17316 17319 17322 17325 17328 17331 17334 17337 17340 17343 17346 17349 17352 17355 17358 17361 17364 17367 17370 17373 17376 17379 17382 17385 17388 17391 17394 17397 17400 17403 17406 17409 17412 17415 17418 17421 17424 17427 17430 17433 17436 17439 17442 17445 17448 17451 17454 17457 17460 17463 17466 17469 17472 17475 17478 17481 17484 17487 17490 17493 17496 17499 17502 17505 17508 17511 17514 17517 17520 17523 17526 17529 17532 17535 17538 17541 17544 17547 17550 17553 17556 17559 17562 17565 17568 17571 17574 17577 17580 17583 17586 17589 17592 17595 17598 17601 17604 17607 17610 17613 17616 17619 17622 17625 17628 17631 17634 17637 17640 17643 17646 17649 17652 17655 17658 17661 17664 17667 17670 17673 17676 17679 17682 17685 17688 17691 17694 17697 17700 17703 17706 17709 17712 17715 17718 17721 17724 17727 17730 17733 17736 17739 17742 17745 17748 17751 17754 17757 17760 17763 17766 17769 17772 17775 17778 17781 17784 17787 17790 17793 17796 17799 17802 17805 17808 17811 17814 17817 17820 17823 17826 17829 17832 17835 17838 17841 17844 17847 17850 17853 17856 17859 17862 17865 17868 17871 17874 17877 17880 17883 17886 17889 17892 17895 17898 17901 17904 17907 17910 17913 17916 17919 17922 17925 17928 17931 17934 17937 17940 17943 17946 17949 17952 17955 17958 17961 17964 17967 17970 17973 17976 17979 17982 17985 17988 17991 17994 17997 18000 18003 18006 18009 18012 18015 18018 18021 18024 18027 18030 18033 18036 18039 18042 18045 18048 18051 18054 18057 18060 18063 18066 18069 18072 18075 18078 18081 18084 18087 18090 18093 18096 18099 18102 18105 18108 18111 18114 18117 18120 18123 18126 18129 18132 18135 18138 18141 18144 18147 18150 18153 18156 18159 18162 18165 18168 18171 18174 18177 18180 18183 18186 18189 18192 18195 18198 18201 18204 18207 18210 18213 18216 18219 18222 18225 18228 18231 18234 18237 18240 18243 18246 18249 18252 18255 18258 18261 18264 18267 18270 18273 18276 18279 18282 18285 18288 18291 18294 18297 18300 18303 18306 18309 18312 18315 18318 18321 18324 18327 18330 18333 18336 18339 18342 18345 18348 18351 18354 18357 18360 18363 18366 18369 18372 18375 18378 18381 18384 18387 18390 18393 18396 18399 18402 18405 18408 18411 18414 18417 18420 18423 18426 18429 18432 18435 18438 18441 18444 18447 18450 18453 18456 18459 18462 18465 18468 18471 18474 18477 18480 18483 18486 18489 18492 18495 18498 18501 18504 18507 18510 18513 18516 18519 18522 18525 18528 18531 18534 18537 18540 18543 18546 18549 18552 18555 18558 18561 18564 18567 18570 18573 18576 18579 18582 18585 18588 18591 18594 18597 18600 18603 18606 18609 18612 18615 18618 18621 18624 18627 18630 18633 18636 18639 18642 18645 18648 18651 18654 18657 18660 18663 18666 18669 18672 18675 18678 18681 18684 18687 18690 18693 18696 18699 18702 18705 18708 18711 18714 18717 18720 18723 18726 18729 18732 18735 18738 18741 18744 18747 18750 18753 18756 18759 18762 18765 18768 18771 18774 18777 18780 18783 18786 18789 18792 18795 18798 18801 18804 18807 18810 18813 18816 18819 18822 18825 18828 18831 18834 18837 18840 18843 18846 18849 18852 18855 18858 18861 18864 18867 18870 18873 18876 18879 18882 18885 18888 18891 18894 18897 18900 18903 18906 18909 18912 18915 18918 18921 18924 18927 18930 18933 18936 18939 18942 18945 18948 18951 18954 18957 18960 18963 18966 18969 18972 18975 18978 18981 18984 18987 18990 18993 18996 18999 19002 19005 19008 19011 19014 19017 19020 19023 19026 19029 19032 19035 19038 19041 19044 19047 19050 19053 19056 19059 19062 19065 19068 19071 19074 19077 19080 19083 19086 19089 19092 19095 19098 19101 19104 19107 19110 19113 19116 19119 19122 19125 19128 19131 19134 19137 19140 19143 19146 19149 19152 19155 19158 19161 19164 19167 19170 19173 19176 19179 19182 19185 19188 19191 19194 19197 19200 19203 19206 19209 19212 19215 19218 19221 19224 19227 19230 19233 19236 19239 19242 19245 19248 19251 19254 19257 19260 19263 19266 19269 19272 19275 19278 19281 19284 19287 19290 19293 19296 19299 19302 19305 19308 19311 19314 19317 19320 19323 19326 19329 19332 19335 19338 19341 19344 19347 19350 19353 19356 19359 19362 19365 19368 19371 19374 19377 19380 19383 19386 19389 19392 19395 19398 19401 19404 19407 19410 19413 19416 19419 19422 19425 19428 19431 19434 19437 19440 19443 19446 19449 19452 19455 19458 19461 19464 19467 19470 19473 19476 19479 19482 19485 19488 19491 19494 19497 19500 19503 19506 19509 19512 19515 19518 19521 19524 19527 19530 19533 19536 19539 19542 19545 19548 19551 19554 19557 19560 19563 19566 19569 19572 19575 19578 19581 19584 19587 19590 19593 19596 19599 19602 19605 19608 19611 19614 19617 19620 19623 19626 19629 19632 19635 19638 19641 19644 19647 19650 19653 19656 19659 19662 19665 19668 19671 19674 19677 19680 19683 19686 19689 19692 19695 19698 19701 19704 19707 19710 19713 19716 19719 19722 19725 19728 19731 19734 19737 19740 19743 19746 19749 19752 19755 19758 19761 19764 19767 19770 19773 19776 19779 19782 19785 19788 19791 19794 19797 19800 19803 19806 19809 19812 19815 19818 19821 19824 19827 19830 19833 19836 19839 19842 19845 19848 19851 19854 19857 19860 19863 19866 19869 19872 19875 19878 19881 19884 19887 19890 19893 19896 19899 19902 19905 19908 19911 19914 19917 19920 19923 19926 19929 19932 19935 19938 19941 19944 19947 19950 19953 19956 19959 19962 19965 19968 19971 19974 19977 19980 19983 19986 19989 19992 19995 19998 20001 20004 20007 20010 20013 20016 20019 20022 20025 20028 20031 20034 20037 20040 20043 20046 20049 20052 20055 20058 20061 20064 20067 20070 20073 20076 20079 20082 20085 20088 20091 20094 20097 20100 20103 20106 20109 20112 20115 20118 20121 20124 20127 20130 20133 20136 20139 20142 20145 20148 20151 20154 20157 20160 20163 20166 20169 20172 20175 20178 20181 20184 20187 20190 20193 20196 20199 20202 20205 20208 20211 20214 20217 20220 20223 20226 20229 20232 20235 20238 20241 20244 20247 20250 20253 20256 20259 20262 20265 20268 20271 20274 20277 20280 20283 20286 20289 20292 20295 20298 20301 20304 20307 20310 20313 20316 20319 20322 20325 20328 20331 20334 20337 20340 20343 20346 20349 20352 20355 20358 20361 20364 20367 20370 20373 20376 20379 20382 20385 20388 20391 20394 20397 20400 20403 20406 20409 20412 20415 20418 20421 20424 20427 20430 20433 20436 20439 20442 20445 20448 20451 20454 20457 20460 20463 20466 20469 20472 20475 20478 20481 20484 20487 20490 20493 20496 20499 20502 20505 20508 20511 20514 20517 20520 20523 20526 20529 20532 20535 20538 20541 20544 20547 20550 20553 20556 20559 20562 20565 20568 20571 20574 20577 20580 20583 20586 20589 20592 20595 20598 20601 20604 20607 20610 20613 20616 20619 20622 20625 20628 20631 20634 20637 20640 20643 20646 20649 20652 20655 20658 20661 20664 20667 20670 20673 20676 20679 20682 20685 20688 20691 20694 20697 20700 20703 20706 20709 20712 20715 20718 20721 20724 20727 20730 20733 20736 20739 20742 20745 20748 20751 20754 20757 20760 20763 20766 20769 20772 20775 20778 20781 20784 20787 20790 20793 20796 20799 20802 20805 20808 20811 20814 20817 20820 20823 20826 20829 20832 20835 20838 20841 20844 20847 20850 20853 20856 20859 20862 20865 20868 20871 20874 20877 20880 20883 20886 20889 20892 20895 20898 20901 20904 20907 20910 20913 20916 20919 20922 20925 20928 20931 20934 20937 20940 20943 20946 20949 20952 20955 20958 20961 20964 20967 20970 20973 20976 20979 20982 20985 20988 20991 20994 20997 21000 21003 21006 21009 21012 21015 21018 21021 21024 21027 21030 21033 21036 21039 21042 21045 21048 21051 21054 21057 21060 21063 21066 21069 21072 21075 21078 21081 21084 21087 21090 21093 21096 21099 21102 21105 21108 21111 21114 21117 21120 21123 21126 21129 21132 21135 21138 21141 21144 21147 21150 21153 21156 21159 21162 21165 21168 21171 21174 21177 21180 21183 21186 21189 21192 21195 21198 21201 21204 21207 21210 21213 21216 21219 21222 21225 21228 21231 21234 21237 21240 21243 21246 21249 21252 21255 21258 21261 21264 21267 21270 21273 21276 21279 21282 21285 21288 21291 21294 21297 21300 21303 21306 21309 21312 21315 21318 21321 21324 21327 21330 21333 21336 21339 21342 21345 21348 21351 21354 21357 21360 21363 21366 21369 21372 21375 21378 21381 21384 21387 21390 21393 21396 21399 21402 21405 21408 21411 21414 21417 21420 21423 21426 21429 21432 21435 21438 21441 21444 21447 21450 21453 21456 21459 21462 21465 21468 21471 21474 21477 21480 21483 21486 21489 21492 21495 21498 21501 21504 21507 21510 21513 21516 21519 21522 21525 21528 21531 21534 21537 21540 21543 21546 21549 21552 21555 21558 21561 21564 21567 21570 21573 21576 21579 21582 21585 21588 21591 21594 21597 21600 21603 21606 21609 21612 21615 21618 21621 21624 21627 21630 21633 21636 21639 21642 21645 21648 21651 21654 21657 21660 21663 21666 21669 21672 21675 21678 21681 21684 21687 21690 21693 21696 21699 21702 21705 21708 21711 21714 21717 21720 21723 21726 21729 21732 21735 21738 21741 21744 21747 21750 21753 21756 21759 21762 21765 21768 21771 21774 21777 21780 21783 21786 21789 21792 21795 21798 21801 21804 21807 21810 21813 21816 21819 21822 21825 21828 21831 21834 21837 21840 21843 21846 21849 21852 21855 21858 21861 21864 21867 21870 21873 21876 21879 21882 21885 21888 21891 21894 21897 21900 21903 21906 21909 21912 21915 21918 21921 21924 21927 21930 21933 21936 21939 21942 21945 21948 21951 21954 21957 21960 21963 21966 21969 21972 21975 21978 21981 21984 21987 21990 21993 21996 21999 22002 22005 22008 22011 22014 22017 22020 22023 22026 22029 22032 22035 22038 22041 22044 22047 22050 22053 22056 22059 22062 22065 22068 22071 22074 22077 22080 22083 22086 22089 22092 22095 22098 22101 22104 22107 22110 22113 22116 22119 22122 22125 22128 22131 22134 22137 22140 22143 22146 22149 22152 22155 22158 22161 22164 22167 22170 22173 22176 22179 22182 22185 22188 22191 22194 22197 22200 22203 22206 22209 22212 22215 22218 22221 22224 22227 22230 22233 22236 22239 22242 22245 22248 22251 22254 22257 22260 22263 22266 22269 22272 22275 22278 22281 22284 22287 22290 22293 22296 22299 22302 22305 22308 22311 22314 22317 22320 22323 22326 22329 22332 22335 22338 22341 22344 22347 22350 22353 22356 22359 22362 22365 22368 22371 22374 22377 22380 22383 22386 22389 22392 22395 22398 22401 22404 22407 22410 22413 22416 22419 22422 22425 22428 22431 22434 22437 22440 22443 22446 22449 22452 22455 22458 22461 22464 22467 22470 22473 22476 22479 22482 22485 22488 22491 22494 22497 22500 22503 22506 22509 22512 22515 22518 22521 22524 22527 22530 22533 22536 22539 22542 22545 22548 22551 22554 22557 22560 22563 22566 22569 22572 22575 22578 22581 22584 22587 22590 22593 22596 22599 22602 22605 22608 22611 22614 22617 22620 22623 22626 22629 22632 22635 22638 22641 22644 22647 22650 22653 22656 22659 22662 22665 22668 22671 22674 22677 22680 22683 22686 22689 22692 22695 22698 22701 22704 22707 22710 22713 22716 22719 22722 22725 22728 22731 22734 22737 22740 22743 22746 22749 22752 22755 22758 22761 22764 22767 22770 22773 22776 22779 22782 22785 22788 22791 22794 22797 22800 22803 22806 22809 22812 22815 22818 22821 22824 22827 22830 22833 22836 22839 22842 22845 22848 22851 22854 22857 22860 22863 22866 22869 22872 22875 22878 22881 22884 22887 22890 22893 22896 22899 22902 22905 22908 22911 22914 22917 22920 22923 22926 22929 22932 22935 22938 22941 22944 22947 22950 22953 22956 22959 22962 22965 22968 22971 22974 22977 22980 22983 22986 22989 22992 22995 22998 23001 23004 23007 23010 23013 23016 23019 23022 23025 23028 23031 23034 23037 23040 23043 23046 23049 23052 23055 23058 23061 23064 23067 23070 23073 23076 23079 23082 23085 23088 23091 23094 23097 23100 23103 23106 23109 23112 23115 23118 23121 23124 23127 23130 23133 23136 23139 23142 23145 23148 23151 23154 23157 23160 23163 23166 23169 23172 23175 23178 23181 23184 23187 23190 23193 23196 23199 23202 23205 23208 23211 23214 23217 23220 23223 23226 23229 23232 23235 23238 23241 23244 23247 23250 23253 23256 23259 23262 23265 23268 23271 23274 23277 23280 23283 23286 23289 23292 23295 23298 23301 23304 23307 23310 23313 23316 23319 23322 23325 23328 23331 23334 23337 23340 23343 23346 23349 23352 23355 23358 23361 23364 23367 23370 23373 23376 23379 23382 23385 23388 23391 23394 23397 23400 23403 23406 23409 23412 23415 23418 23421 23424 23427 23430 23433 23436 23439 23442 23445 23448 23451 23454 23457 23460 23463 23466 23469 23472 23475 23478 23481 23484 23487 23490 23493 23496 23499 23502 23505 23508 23511 23514 23517 23520 23523 23526 23529 23532 23535 23538 23541 23544 23547 23550 23553 23556 23559 23562 23565 23568 23571 23574 23577 23580 23583 23586 23589 23592 23595 23598 23601 23604 23607 23610 23613 23616 23619 23622 23625 23628 23631 23634 23637 23640 23643 23646 23649 23652 23655 23658 23661 23664 23667 23670 23673 23676 23679 23682 23685 23688 23691 23694 23697 23700 23703 23706 23709 23712 23715 23718 23721 23724 23727 23730 23733 23736 23739 23742 23745 23748 23751 23754 23757 23760 23763 23766 23769 23772 23775 23778 23781 23784 23787 23790 23793 23796 23799 23802 23805 23808 23811 23814 23817 23820 23823 23826 23829 23832 23835 23838 23841 23844 23847 23850 23853 23856 23859 23862 23865 23868 23871 23874 23877 23880 23883 23886 23889 23892 23895 23898 23901 23904 23907 23910 23913 23916 23919 23922 23925 23928 23931 23934 23937 23940 23943 23946 23949 23952 23955 23958 23961 23964 23967 23970 23973 23976 23979 23982 23985 23988 23991 23994 23997 24000 24003 24006 24009 24012 24015 24018 24021 24024 24027 24030 24033 24036 24039 24042 24045 24048 24051 24054 24057 24060 24063 24066 24069 24072 24075 24078 24081 24084 24087 24090 24093 24096 24099 24102 24105 24108 24111 24114 24117 24120 24123 24126 24129 24132 24135 24138 24141 24144 24147 24150 24153 24156 24159 24162 24165 24168 24171 24174 24177 24180 24183 24186 24189 24192 24195 24198 24201 24204 24207 24210 24213 24216 24219 24222 24225 24228 24231 24234 24237 24240 24243 24246 24249 24252 24255 24258 24261 24264 24267 24270 24273 24276 24279 24282 24285 24288 24291 24294 24297 24300 24303 24306 24309 24312 24315 24318 24321 24324 24327 24330 24333 24336 24339 24342 24345 24348 24351 24354 24357 24360 24363 24366 24369 24372 24375 24378 24381 24384 24387 24390 24393 24396 24399 24402 24405 24408 24411 24414 24417 24420 24423 24426 24429 24432 24435 24438 24441 24444 24447 24450 24453 24456 24459 24462 24465 24468 24471 24474 24477 24480 24483 24486 24489 24492 24495 24498 24501 24504 24507 24510 24513 24516 24519 24522 24525 24528 24531 24534 24537 24540 24543 24546 24549 24552 24555 24558 24561 24564 24567 24570 24573 24576 24579 24582 24585 24588 24591 24594 24597 24600 24603 24606 24609 24612 24615 24618 24621 24624 24627 24630 24633 24636 24639 24642 24645 24648 24651 24654 24657 24660 24663 24666 24669 24672 24675 24678 24681 24684 24687 24690 24693 24696 24699 24702 24705 24708 24711 24714 24717 24720 24723 24726 24729 24732 24735 24738 24741 24744 24747 24750 24753 24756 24759 24762 24765 24768 24771 24774 24777 24780 24783 24786 24789 24792 24795 24798 24801 24804 24807 24810 24813 24816 24819 24822 24825 24828 24831 24834 24837 24840 24843 24846 24849 24852 24855 24858 24861 24864 24867 24870 24873 24876 24879 24882 24885 24888 24891 24894 24897 24900 24903 24906 24909 24912 24915 24918 24921 24924 24927 24930 24933 24936 24939 24942 24945 24948 24951 24954 24957 24960 24963 24966 24969 24972 24975 24978 24981 24984 24987 24990 24993 24996 24999 25002 25005 25008 25011 25014 25017 25020 25023 25026 25029 25032 25035 25038 25041 25044 25047 25050 25053 25056 25059 25062 25065 25068 25071 25074 25077 25080 25083 25086 25089 25092 25095 25098 25101 25104 25107 25110 25113 25116 25119 25122 25125 25128 25131 25134 25137 25140 25143 25146 25149 25152 25155 25158 25161 25164 25167 25170 25173 25176 25179 25182 25185 25188 25191 25194 25197 25200 25203 25206 25209 25212 25215 25218 25221 25224 25227 25230 25233 25236 25239 25242 25245 25248 25251 25254 25257 25260 25263 25266 25269 25272 25275 25278 25281 25284 25287 25290 25293 25296 25299 25302 25305 25308 25311 25314 25317 25320 25323 25326 25329 25332 25335 25338 25341 25344 25347 25350 25353 25356 25359 25362 25365 25368 25371 25374 25377 25380 25383 25386 25389 25392 25395 25398 25401 25404 25407 25410 25413 25416 25419 25422 25425 25428 25431 25434 25437 25440 25443 25446 25449 25452 25455 25458 25461 25464 25467 25470 25473 25476 25479 25482 25485 25488 25491 25494 25497 25500 25503 25506 25509 25512 25515 25518 25521 25524 25527 25530 25533 25536 25539 25542 25545 25548 25551 25554 25557 25560 25563 25566 25569 25572 25575 25578 25581 25584 25587 25590 25593 25596 25599 25602 25605 25608 25611 25614 25617 25620 25623 25626 25629 25632 25635 25638 25641 25644 25647 25650 25653 25656 25659 25662 25665 25668 25671 25674 25677 25680 25683 25686 25689 25692 25695 25698 25701 25704 25707 25710 25713 25716 25719 25722 25725 25728 25731 25734 25737 25740 25743 25746 25749 25752 25755 25758 25761 25764 25767 25770 25773 25776 25779 25782 25785 25788 25791 25794 25797 25800 25803 25806 25809 25812 25815 25818 25821 25824 25827 25830 25833 25836 25839 25842 25845 25848 25851 25854 25857 25860 25863 25866 25869 25872 25875 25878 25881 25884 25887 25890 25893 25896 25899 25902 25905 25908 25911 25914 25917 25920 25923 25926 25929 25932 25935 25938 25941 25944 25947 25950 25953 25956 25959 25962 25965 25968 25971 25974 25977 25980 25983 25986 25989 25992 25995 25998 26001 26004 26007 26010 26013 26016 26019 26022 26025 26028 26031 26034 26037 26040 26043 26046 26049 26052 26055 26058 26061 26064 26067 26070 26073 26076 26079 26082 26085 26088 26091 26094 26097 26100 26103 26106 26109 26112 26115 26118 26121 26124 26127 26130 26133 26136 26139 26142 26145 26148 26151 26154 26157 26160 26163 26166 26169 26172 26175 26178 26181 26184 26187 26190 26193 26196 26199 26202 26205 26208 26211 26214 26217 26220 26223 26226 26229 26232 26235 26238 26241 26244 26247 26250 26253 26256 26259 26262 26265 26268 26271 26274 26277 26280 26283 26286 26289 26292 26295 26298 26301 26304 26307 26310 26313 26316 26319 26322 26325 26328 26331 26334 26337 26340 26343 26346 26349 26352 26355 26358 26361 26364 26367 26370 26373 26376 26379 26382 26385 26388 26391 26394 26397 26400 26403 26406 26409 26412 26415 26418 26421 26424 26427 26430 26433 26436 26439 26442 26445 26448 26451 26454 26457 26460 26463 26466 26469 26472 26475 26478 26481 26484 26487 26490 26493 26496 26499 26502 26505 26508 26511 26514 26517 26520 26523 26526 26529 26532 26535 26538 26541 26544 26547 26550 26553 26556 26559 26562 26565 26568 26571 26574 26577 26580 26583 26586 26589 26592 26595 26598 26601 26604 26607 26610 26613 26616 26619 26622 26625 26628 26631 26634 26637 26640 26643 26646 26649 26652 26655 26658 26661 26664 26667 26670 26673 26676 26679 26682 26685 26688 26691 26694 26697 26700 26703 26706 26709 26712 26715 26718 26721 26724 26727 26730 26733 26736 26739 26742 26745 26748 26751 26754 26757 26760 26763 26766 26769 26772 26775 26778 26781 26784 26787 26790 26793 26796 26799 26802 26805 26808 26811 26814 26817 26820 26823 26826 26829 26832 26835 26838 26841 26844 26847 26850 26853 26856 26859 26862 26865 26868 26871 26874 26877 26880 26883 26886 26889 26892 26895 26898 26901 26904 26907 26910 26913 26916 26919 26922 26925 26928 26931 26934 26937 26940 26943 26946 26949 26952 26955 26958 26961 26964 26967 26970 26973 26976 26979 26982 26985 26988 26991 26994 26997 27000 27003 27006 27009 27012 27015 27018 27021 27024 27027 27030 27033 27036 27039 27042 27045 27048 27051 27054 27057 27060 27063 27066 27069 27072 27075 27078 27081 27084 27087 27090 27093 27096 27099 27102 27105 27108 27111 27114 27117 27120 27123 27126 27129 27132 27135 27138 27141 27144 27147 27150 27153 27156 27159 27162 27165 27168 27171 27174 27177 27180 27183 27186 27189 27192 27195 27198 27201 27204 27207 27210 27213 27216 27219 27222 27225 27228 27231 27234 27237 27240 27243 27246 27249 27252 27255 27258 27261 27264 27267 27270 27273 27276 27279 27282 27285 27288 27291 27294 27297 27300 27303 27306 27309 27312 27315 27318 27321 27324 27327 27330 27333 27336 27339 27342 27345 27348 27351 27354 27357 27360 27363 27366 27369 27372 27375 27378 27381 27384 27387 27390 27393 27396 27399 27402 27405 27408 27411 27414 27417 27420 27423 27426 27429 27432 27435 27438 27441 27444 27447 27450 27453 27456 27459 27462 27465 27468 27471 27474 27477 27480 27483 27486 27489 27492 27495 27498 27501 27504 27507 27510 27513 27516 27519 27522 27525 27528 27531 27534 27537 27540 27543 27546 27549 27552 27555 27558 27561 27564 27567 27570 27573 27576 27579 27582 27585 27588 27591 27594 27597 27600 27603 27606 27609 27612 27615 27618 27621 27624 27627 27630 27633 27636 27639 27642 27645 27648 27651 27654 27657 27660 27663 27666 27669 27672 27675 27678 27681 27684 27687 27690 27693 27696 27699 27702 27705 27708 27711 27714 27717 27720 27723 27726 27729 27732 27735 27738 27741 27744 27747 27750 27753 27756 27759 27762 27765 27768 27771 27774 27777 27780 27783 27786 27789 27792 27795 27798 27801 27804 27807 27810 27813 27816 27819 27822 27825 27828 27831 27834 27837 27840 27843 27846 27849 27852 27855 27858 27861 27864 27867 27870 27873 27876 27879 27882 27885 27888 27891 27894 27897 27900 27903 27906 27909 27912 27915 27918 27921 27924 27927 27930 27933 27936 27939 27942 27945 27948 27951 27954 27957 27960 27963 27966 27969 27972 27975 27978 27981 27984 27987 27990 27993 27996 27999 28002 28005 28008 28011 28014 28017 28020 28023 28026 28029 28032 28035 28038 28041 28044 28047 28050 28053 28056 28059 28062 28065 28068 28071 28074 28077 28080 28083 28086 28089 28092 28095 28098 28101 28104 28107 28110 28113 28116 28119 28122 28125 28128 28131 28134 28137 28140 28143 28146 28149 28152 28155 28158 28161 28164 28167 28170 28173 28176 28179 28182 28185 28188 28191 28194 28197 28200 28203 28206 28209 28212 28215 28218 28221 28224 28227 28230 28233 28236 28239 28242 28245 28248 28251 28254 28257 28260 28263 28266 28269 28272 28275 28278 28281 28284 28287 28290 28293 28296 28299 28302 28305 28308 28311 28314 28317 28320 28323 28326 28329 28332 28335 28338 28341 28344 28347 28350 28353 28356 28359 28362 28365 28368 28371 28374 28377 28380 28383 28386 28389 28392 28395 28398 28401 28404 28407 28410 28413 28416 28419 28422 28425 28428 28431 28434 28437 28440 28443 28446 28449 28452 28455 28458 28461 28464 28467 28470 28473 28476 28479 28482 28485 28488 28491 28494 28497 28500 28503 28506 28509 28512 28515 28518 28521 28524 28527 28530 28533 28536 28539 28542 28545 28548 28551 28554 28557 28560 28563 28566 28569 28572 28575 28578 28581 28584 28587 28590 28593 28596 28599 28602 28605 28608 28611 28614 28617 28620 28623 28626 28629 28632 28635 28638 28641 28644 28647 28650 28653 28656 28659 28662 28665 28668 28671 28674 28677 28680 28683 28686 28689 28692 28695 28698 28701 28704 28707 28710 28713 28716 28719 28722 28725 28728 28731 28734 28737 28740 28743 28746 28749 28752 28755 28758 28761 28764 28767 28770 28773 28776 28779 28782 28785 28788 28791 28794 28797 28800 28803 28806 28809 28812 28815 28818 28821 28824 28827 28830 28833 28836 28839 28842 28845 28848 28851 28854 28857 28860 28863 28866 28869 28872 28875 28878 28881 28884 28887 28890 28893 28896 28899 28902 28905 28908 28911 28914 28917 28920 28923 28926 28929 28932 28935 28938 28941 28944 28947 28950 28953 28956 28959 28962 28965 28968 28971 28974 28977 28980 28983 28986 28989 28992 28995 28998 29001 29004 29007 29010 29013 29016 29019 29022 29025 29028 29031 29034 29037 29040 29043 29046 29049 29052 29055 29058 29061 29064 29067 29070 29073 29076 29079 29082 29085 29088 29091 29094 29097 29100 29103 29106 29109 29112 29115 29118 29121 29124 29127 29130 29133 29136 29139 29142 29145 29148 29151 29154 29157 29160 29163 29166 29169 29172 29175 29178 29181 29184 29187 29190 29193 29196 29199 29202 29205 29208 29211 29214 29217 29220 29223 29226 29229 29232 29235 29238 29241 29244 29247 29250 29253 29256 29259 29262 29265 29268 29271 29274 29277 29280 29283 29286 29289 29292 29295 29298 29301 29304 29307 29310 29313 29316 29319 29322 29325 29328 29331 29334 29337 29340 29343 29346 29349 29352 29355 29358 29361 29364 29367 29370 29373 29376 29379 29382 29385 29388 29391 29394 29397 29400 29403 29406 29409 29412 29415 29418 29421 29424 29427 29430 29433 29436 29439 29442 29445 29448 29451 29454 29457 29460 29463 29466 29469 29472 29475 29478 29481 29484 29487 29490 29493 29496 29499 29502 29505 29508 29511 29514 29517 29520 29523 29526 29529 29532 29535 29538 29541 29544 29547 29550 29553 29556 29559 29562 29565 29568 29571 29574 29577 29580 29583 29586 29589 29592 29595 29598 29601 29604 29607 29610 29613 29616 29619 29622 29625 29628 29631 29634 29637 29640 29643 29646 29649 29652 29655 29658 29661 29664 29667 29670 29673 29676 29679 29682 29685 29688 29691 29694 29697 29700 29703 29706 29709 29712 29715 29718 29721 29724 29727 29730 29733 29736 29739 29742 29745 29748 29751 29754 29757 29760 29763 29766 29769 29772 29775 29778 29781 29784 29787 29790 29793 29796 29799 29802 29805 29808 29811 29814 29817 29820 29823 29826 29829 29832 29835 29838 29841 29844 29847 29850 29853 29856 29859 29862 29865 29868 29871 29874 29877 29880 29883 29886 29889 29892 29895 29898 29901 29904 29907 29910 29913 29916 29919 29922 29925 29928 29931 29934 29937 29940 29943 29946 29949 29952 29955 29958 29961 29964 29967 29970 29973 29976 29979 29982 29985 29988 29991 29994 29997 30000 30003 30006 30009 30012 30015 30018 30021 30024 30027 30030 30033 30036 30039 30042 30045 30048 30051 30054 30057 30060 30063 30066 30069 30072 30075 30078 30081 30084 30087 30090 30093 30096 30099 30102 30105 30108 30111 30114 30117 30120 30123 30126 30129 30132 30135 30138 30141 30144 30147 30150 30153 30156 30159 30162 30165 30168 30171 30174 30177 30180 30183 30186 30189 30192 30195 30198 30201 30204 30207 30210 30213 30216 30219 30222 30225 30228 30231 30234 30237 30240 30243 30246 30249 30252 30255 30258 30261 30264 30267 30270 30273 30276 30279 30282 30285 30288 30291 30294 30297 30300 30303 30306 30309 30312 30315 30318 30321 30324 30327 30330 30333 30336 30339 30342 30345 30348 30351 30354 30357 30360 30363 30366 30369 30372 30375 30378 30381 30384 30387 30390 30393 30396 30399 30402 30405 30408 30411 30414 30417 30420 30423 30426 30429 30432 30435 30438 30441 30444 30447 30450 30453 30456 30459 30462 30465 30468 30471 30474 30477 30480 30483 30486 30489 30492 30495 30498 30501 30504 30507 30510 30513 30516 30519 30522 30525 30528 30531 30534 30537 30540 30543 30546 30549 30552 30555 30558 30561 30564 30567 30570 30573 30576 30579 30582 30585 30588 30591 30594 30597 30600 30603 30606 30609 30612 30615 30618 30621 30624 30627 30630 30633 30636 30639 30642 30645 30648 30651 30654 30657 30660 30663 30666 30669 30672 30675 30678 30681 30684 30687 30690 30693 30696 30699 30702 30705 30708 30711 30714 30717 30720 30723 30726 30729 30732 30735 30738 30741 30744 30747 30750 30753 30756 30759 30762 30765 30768 30771 30774 30777 30780 30783 30786 30789 30792 30795 30798 30801 30804 30807 30810 30813 30816 30819 30822 30825 30828 30831 30834 30837 30840 30843 30846 30849 30852 30855 30858 30861 30864 30867 30870 30873 30876 30879 30882 30885 30888 30891 30894 30897 30900 30903 30906 30909 30912 30915 30918 30921 30924 30927 30930 30933 30936 30939 30942 30945 30948 30951 30954 30957 30960 30963 30966 30969 30972 30975 30978 30981 30984 30987 30990 30993 30996 30999 31002 31005 31008 31011 31014 31017 31020 31023 31026 31029 31032 31035 31038 31041 31044 31047 31050 31053 31056 31059 31062 31065 31068 31071 31074 31077 31080 31083 31086 31089 31092 31095 31098 31101 31104 31107 31110 31113 31116 31119 31122 31125 31128 31131 31134 31137 31140 31143 31146 31149 31152 31155 31158 31161 31164 31167 31170 31173 31176 31179 31182 31185 31188 31191 31194 31197 31200 31203 31206 31209 31212 31215 31218 31221 31224 31227 31230 31233 31236 31239 31242 31245 31248 31251 31254 31257 31260 31263 31266 31269 31272 31275 31278 31281 31284 31287 31290 31293 31296 31299 31302 31305 31308 31311 31314 31317 31320 31323 31326 31329 31332 31335 31338 31341 31344 31347 31350 31353 31356 31359 31362 31365 31368 31371 31374 31377 31380 31383 31386 31389 31392 31395 31398 31401 31404 31407 31410 31413 31416 31419 31422 31425 31428 31431 31434 31437 31440 31443 31446 31449 31452 31455 31458 31461 31464 31467 31470 31473 31476 31479 31482 31485 31488 31491 31494 31497 31500 31503 31506 31509 31512 31515 31518 31521 31524 31527 31530 31533 31536 31539 31542 31545 31548 31551 31554 31557 31560 31563 31566 31569 31572 31575 31578 31581 31584 31587 31590 31593 31596 31599 31602 31605 31608 31611 31614 31617 31620 31623 31626 31629 31632 31635 31638 31641 31644 31647 31650 31653 31656 31659 31662 31665 31668 31671 31674 31677 31680 31683 31686 31689 31692 31695 31698 31701 31704 31707 31710 31713 31716 31719 31722 31725 31728 31731 31734 31737 31740 31743 31746 31749 31752 31755 31758 31761 31764 31767 31770 31773 31776 31779 31782 31785 31788 31791 31794 31797 31800 31803 31806 31809 31812 31815 31818 31821 31824 31827 31830 31833 31836 31839 31842 31845 31848 31851 31854 31857 31860 31863 31866 31869 31872 31875 31878 31881 31884 31887 31890 31893 31896 31899 31902 31905 31908 31911 31914 31917 31920 31923 31926 31929 31932 31935 31938 31941 31944 31947 31950 31953 31956 31959 31962 31965 31968 31971 31974 31977 31980 31983 31986 31989 31992 31995 31998 32001 32004 32007 32010 32013 32016 32019 32022 32025 32028 32031 32034 32037 32040 32043 32046 32049 32052 32055 32058 32061 32064 32067 32070 32073 32076 32079 32082 32085 32088 32091 32094 32097 32100 32103 32106 32109 32112 32115 32118 32121 32124 32127 32130 32133 32136 32139 32142 32145 32148 32151 32154 32157 32160 32163 32166 32169 32172 32175 32178 32181 32184 32187 32190 32193 32196 32199 32202 32205 32208 32211 32214 32217 32220 32223 32226 32229 32232 32235 32238 32241 32244 32247 32250 32253 32256 32259 32262 32265 32268 32271 32274 32277 32280 32283 32286 32289 32292 32295 32298 32301 32304 32307 32310 32313 32316 32319 32322 32325 32328 32331 32334 32337 32340 32343 32346 32349 32352 32355 32358 32361 32364 32367 32370 32373 32376 32379 32382 32385 32388 32391 32394 32397 32400 32403 32406 32409 32412 32415 32418 32421 32424 32427 32430 32433 32436 32439 32442 32445 32448 32451 32454 32457 32460 32463 32466 32469 32472 32475 32478 32481 32484 32487 32490 32493 32496 32499 32502 32505 32508 32511 32514 32517 32520 32523 32526 32529 32532 32535 32538 32541 32544 32547 32550 32553 32556 32559 32562 32565 32568 32571 32574 32577 32580 32583 32586 32589 32592 32595 32598 32601 32604 32607 32610 32613 32616 32619 32622 32625 32628 32631 32634 32637 32640 32643 32646 32649 32652 32655 32658 32661 32664 32667 32670 32673 32676 32679 32682 32685 32688 32691 32694 32697 32700 32703 32706 32709 32712 32715 32718 32721 32724 32727 32730 32733 32736 32739 32742 32745 32748 32751 32754 32757 32760 32763 32766 32769 32772 32775 32778 32781 32784 32787 32790 32793 32796 32799 32802 32805 32808 32811 32814 32817 32820 32823 32826 32829 32832 32835 32838 32841 32844 32847 32850 32853 32856 32859 32862 32865 32868 32871 32874 32877 32880 32883 32886 32889 32892 32895 32898 32901 32904 32907 32910 32913 32916 32919 32922 32925 32928 32931 32934 32937 32940 32943 32946 32949 32952 32955 32958 32961 32964 32967 32970 32973 32976 32979 32982 32985 32988 32991 32994 32997 33000 33003 33006 33009 33012 33015 33018 33021 33024 33027 33030 33033 33036 33039 33042 33045 33048 33051 33054 33057 33060 33063 33066 33069 33072 33075 33078 33081 33084 33087 33090 33093 33096 33099 33102 33105 33108 33111 33114 33117 33120 33123 33126 33129 33132 33135 33138 33141 33144 33147 33150 33153 33156 33159 33162 33165 33168 33171 33174 33177 33180 33183 33186 33189 33192 33195 33198 33201 33204 33207 33210 33213 33216 33219 33222 33225 33228 33231 33234 33237 33240 33243 33246 33249 33252 33255 33258 33261 33264 33267 33270 33273 33276 33279 33282 33285 33288 33291 33294 33297 33300 33303 33306 33309 33312 33315 33318 33321 33324 33327 33330 33333 33336 33339 33342 33345 33348 33351 33354 33357 33360 33363 33366 33369 33372 33375 33378 33381 33384 33387 33390 33393 33396 33399 33402 33405 33408 33411 33414 33417 33420 33423 33426 33429 33432 33435 33438 33441 33444 33447 33450 33453 33456 33459 33462 33465 33468 33471 33474 33477 33480 33483 33486 33489 33492 33495 33498 33501 33504 33507 33510 33513 33516 33519 33522 33525 33528 33531 33534 33537 33540 33543 33546 33549 33552 33555 33558 33561 33564 33567 33570 33573 33576 33579 33582 33585 33588 33591 33594 33597 33600 33603 33606 33609 33612 33615 33618 33621 33624 33627 33630 33633 33636 33639 33642 33645 33648 33651 33654 33657 33660 33663 33666 33669 33672 33675 33678 33681 33684 33687 33690 33693 33696 33699 33702 33705 33708 33711 33714 33717 33720 33723 33726 33729 33732 33735 33738 33741 33744 33747 33750 33753 33756 33759 33762 33765 33768 33771 33774 33777 33780 33783 33786 33789 33792 33795 33798 33801 33804 33807 33810 33813 33816 33819 33822 33825 33828 33831 33834 33837 33840 33843 33846 33849 33852 33855 33858 33861 33864 33867 33870 33873 33876 33879 33882 33885 33888 33891 33894 33897 33900 33903 33906 33909 33912 33915 33918 33921 33924 33927 33930 33933 33936 33939 33942 33945 33948 33951 33954 33957 33960 33963 33966 33969 33972 33975 33978 33981 33984 33987 33990 33993 33996 33999 34002 34005 34008 34011 34014 34017 34020 34023 34026 34029 34032 34035 34038 34041 34044 34047 34050 34053 34056 34059 34062 34065 34068 34071 34074 34077 34080 34083 34086 34089 34092 34095 34098 34101 34104 34107 34110 34113 34116 34119 34122 34125 34128 34131 34134 34137 34140 34143 34146 34149 34152 34155 34158 34161 34164 34167 34170 34173 34176 34179 34182 34185 34188 34191 34194 34197 34200 34203 34206 34209 34212 34215 34218 34221 34224 34227 34230 34233 34236 34239 34242 34245 34248 34251 34254 34257 34260 34263 34266 34269 34272 34275 34278 34281 34284 34287 34290 34293 34296 34299 34302 34305 34308 34311 34314 34317 34320 34323 34326 34329 34332 34335 34338 34341 34344 34347 34350 34353 34356 34359 34362 34365 34368 34371 34374 34377 34380 34383 34386 34389 34392 34395 34398 34401 34404 34407 34410 34413 34416 34419 34422 34425 34428 34431 34434 34437 34440 34443 34446 34449 34452 34455 34458 34461 34464 34467 34470 34473 34476 34479 34482 34485 34488 34491 34494 34497 34500 34503 34506 34509 34512 34515 34518 34521 34524 34527 34530 34533 34536 34539 34542 34545 34548 34551 34554 34557 34560 34563 34566 34569 34572 34575 34578 34581 34584 34587 34590 34593 34596 34599 34602 34605 34608 34611 34614 34617 34620 34623 34626 34629 34632 34635 34638 34641 34644 34647 34650 34653 34656 34659 34662 34665 34668 34671 34674 34677 34680 34683 34686 34689 34692 34695 34698 34701 34704 34707 34710 34713 34716 34719 34722 34725 34728 34731 34734 34737 34740 34743 34746 34749 34752 34755 34758 34761 34764 34767 34770 34773 34776 34779 34782 34785 34788 34791 34794 34797 34800 34803 34806 34809 34812 34815 34818 34821 34824 34827 34830 34833 34836 34839 34842 34845 34848 34851 34854 34857 34860 34863 34866 34869 34872 34875 34878 34881 34884 34887 34890 34893 34896 34899 34902 34905 34908 34911 34914 34917 34920 34923 34926 34929 34932 34935 34938 34941 34944 34947 34950 34953 34956 34959 34962 34965 34968 34971 34974 34977 34980 34983 34986 34989 34992 34995 34998 35001 35004 35007 35010 35013 35016 35019 35022 35025 35028 35031 35034 35037 35040 35043 35046 35049 35052 35055 35058 35061 35064 35067 35070 35073 35076 35079 35082 35085 35088 35091 35094 35097 35100 35103 35106 35109 35112 35115 35118 35121 35124 35127 35130 35133 35136 35139 35142 35145 35148 35151 35154 35157 35160 35163 35166 35169 35172 35175 35178 35181 35184 35187 35190 35193 35196 35199 35202 35205 35208 35211 35214 35217 35220 35223 35226 35229 35232 35235 35238 35241 35244 35247 35250 35253 35256 35259 35262 35265 35268 35271 35274 35277 35280 35283 35286 35289 35292 35295 35298 35301 35304 35307 35310 35313 35316 35319 35322 35325 35328 35331 35334 35337 35340 35343 35346 35349 35352 35355 35358 35361 35364 35367 35370 35373 35376 35379 35382 35385 35388 35391 35394 35397 35400 35403 35406 35409 35412 35415 35418 35421 35424 35427 35430 35433 35436 35439 35442 35445 35448 35451 35454 35457 35460 35463 35466 35469 35472 35475 35478 35481 35484 35487 35490 35493 35496 35499 35502 35505 35508 35511 35514 35517 35520 35523 35526 35529 35532 35535 35538 35541 35544 35547 35550 35553 35556 35559 35562 35565 35568 35571 35574 35577 35580 35583 35586 35589 35592 35595 35598 35601 35604 35607 35610 35613 35616 35619 35622 35625 35628 35631 35634 35637 35640 35643 35646 35649 35652 35655 35658 35661 35664 35667 35670 35673 35676 35679 35682 35685 35688 35691 35694 35697 35700 35703 35706 35709 35712 35715 35718 35721 35724 35727 35730 35733 35736 35739 35742 35745 35748 35751 35754 35757 35760 35763 35766 35769 35772 35775 35778 35781 35784 35787 35790 35793 35796 35799 35802 35805 35808 35811 35814 35817 35820 35823 35826 35829 35832 35835 35838 35841 35844 35847 35850 35853 35856 35859 35862 35865 35868 35871 35874 35877 35880 35883 35886 35889 35892 35895 35898 35901 35904 35907 35910 35913 35916 35919 35922 35925 35928 35931 35934 35937 35940 35943 35946 35949 35952 35955 35958 35961 35964 35967 35970 35973 35976 35979 35982 35985 35988 35991 35994 35997 36000 36003 36006 36009 36012 36015 36018 36021 36024 36027 36030 36033 36036 36039 36042 36045 36048 36051 36054 36057 36060 36063 36066 36069 36072 36075 36078 36081 36084 36087 36090 36093 36096 36099 36102 36105 36108 36111 36114 36117 36120 36123 36126 36129 36132 36135 36138 36141 36144 36147 36150 36153 36156 36159 36162 36165 36168 36171 36174 36177 36180 36183 36186 36189 36192 36195 36198 36201 36204 36207 36210 36213 36216 36219 36222 36225 36228 36231 36234 36237 36240 36243 36246 36249 36252 36255 36258 36261 36264 36267 36270 36273 36276 36279 36282 36285 36288 36291 36294 36297 36300 36303 36306 36309 36312 36315 36318 36321 36324 36327 36330 36333 36336 36339 36342 36345 36348 36351 36354 36357 36360 36363 36366 36369 36372 36375 36378 36381 36384 36387 36390 36393 36396 36399 36402 36405 36408 36411 36414 36417 36420 36423 36426 36429 36432 36435 36438 36441 36444 36447 36450 36453 36456 36459 36462 36465 36468 36471 36474 36477 36480 36483 36486 36489 36492 36495 36498 36501 36504 36507 36510 36513 36516 36519 36522 36525 36528 36531 36534 36537 36540 36543 36546 36549 36552 36555 36558 36561 36564 36567 36570 36573 36576 36579 36582 36585 36588 36591 36594 36597 36600 36603 36606 36609 36612 36615 36618 36621 36624 36627 36630 36633 36636 36639 36642 36645 36648 36651 36654 36657 36660 36663 36666 36669 36672 36675 36678 36681 36684 36687 36690 36693 36696 36699 36702 36705 36708 36711 36714 36717 36720 36723 36726 36729 36732 36735 36738 36741 36744 36747 36750 36753 36756 36759 36762 36765 36768 36771 36774 36777 36780 36783 36786 36789 36792 36795 36798 36801 36804 36807 36810 36813 36816 36819 36822 36825 36828 36831 36834 36837 36840 36843 36846 36849 36852 36855 36858 36861 36864 36867 36870 36873 36876 36879 36882 36885 36888 36891 36894 36897 36900 36903 36906 36909 36912 36915 36918 36921 36924 36927 36930 36933 36936 36939 36942 36945 36948 36951 36954 36957 36960 36963 36966 36969 36972 36975 36978 36981 36984 36987 36990 36993 36996 36999 37002 37005 37008 37011 37014 37017 37020 37023 37026 37029 37032 37035 37038 37041 37044 37047 37050 37053 37056 37059 37062 37065 37068 37071 37074 37077 37080 37083 37086 37089 37092 37095 37098 37101 37104 37107 37110 37113 37116 37119 37122 37125 37128 37131 37134 37137 37140 37143 37146 37149 37152 37155 37158 37161 37164 37167 37170 37173 37176 37179 37182 37185 37188 37191 37194 37197 37200 37203 37206 37209 37212 37215 37218 37221 37224 37227 37230 37233 37236 37239 37242 37245 37248 37251 37254 37257 37260 37263 37266 37269 37272 37275 37278 37281 37284 37287 37290 37293 37296 37299 37302 37305 37308 37311 37314 37317 37320 37323 37326 37329 37332 37335 37338 37341 37344 37347 37350 37353 37356 37359 37362 37365 37368 37371 37374 37377 37380 37383 37386 37389 37392 37395 37398 37401 37404 37407 37410 37413 37416 37419 37422 37425 37428 37431 37434 37437 37440 37443 37446 37449 37452 37455 37458 37461 37464 37467 37470 37473 37476 37479 37482 37485 37488 37491 37494 37497 37500 37503 37506 37509 37512 37515 37518 37521 37524 37527 37530 37533 37536 37539 37542 37545 37548 37551 37554 37557 37560 37563 37566 37569 37572 37575 37578 37581 37584 37587 37590 37593 37596 37599 37602 37605 37608 37611 37614 37617 37620 37623 37626 37629 37632 37635 37638 37641 37644 37647 37650 37653 37656 37659 37662 37665 37668 37671 37674 37677 37680 37683 37686 37689 37692 37695 37698 37701 37704 37707 37710 37713 37716 37719 37722 37725 37728 37731 37734 37737 37740 37743 37746 37749 37752 37755 37758 37761 37764 37767 37770 37773 37776 37779 37782 37785 37788 37791 37794 37797 37800 37803 37806 37809 37812 37815 37818 37821 37824 37827 37830 37833 37836 37839 37842 37845 37848 37851 37854 37857 37860 37863 37866 37869 37872 37875 37878 37881 37884 37887 37890 37893 37896 37899 37902 37905 37908 37911 37914 37917 37920 37923 37926 37929 37932 37935 37938 37941 37944 37947 37950 37953 37956 37959 37962 37965 37968 37971 37974 37977 37980 37983 37986 37989 37992 37995 37998 38001 38004 38007 38010 38013 38016 38019 38022 38025 38028 38031 38034 38037 38040 38043 38046 38049 38052 38055 38058 38061 38064 38067 38070 38073 38076 38079 38082 38085 38088 38091 38094 38097 38100 38103 38106 38109 38112 38115 38118 38121 38124 38127 38130 38133 38136 38139 38142 38145 38148 38151 38154 38157 38160 38163 38166 38169 38172 38175 38178 38181 38184 38187 38190 38193 38196 38199 38202 38205 38208 38211 38214 38217 38220 38223 38226 38229 38232 38235 38238 38241 38244 38247 38250 38253 38256 38259 38262 38265 38268 38271 38274 38277 38280 38283 38286 38289 38292 38295 38298 38301 38304 38307 38310 38313 38316 38319 38322 38325 38328 38331 38334 38337 38340 38343 38346 38349 38352 38355 38358 38361 38364 38367 38370 38373 38376 38379 38382 38385 38388 38391 38394 38397 38400 38403 38406 38409 38412 38415 38418 38421 38424 38427 38430 38433 38436 38439 38442 38445 38448 38451 38454 38457 38460 38463 38466 38469 38472 38475 38478 38481 38484 38487 38490 38493 38496 38499 38502 38505 38508 38511 38514 38517 38520 38523 38526 38529 38532 38535 38538 38541 38544 38547 38550 38553 38556 38559 38562 38565 38568 38571 38574 38577 38580 38583 38586 38589 38592 38595 38598 38601 38604 38607 38610 38613 38616 38619 38622 38625 38628 38631 38634 38637 38640 38643 38646 38649 38652 38655 38658 38661 38664 38667 38670 38673 38676 38679 38682 38685 38688 38691 38694 38697 38700 38703 38706 38709 38712 38715 38718 38721 38724 38727 38730 38733 38736 38739 38742 38745 38748 38751 38754 38757 38760 38763 38766 38769 38772 38775 38778 38781 38784 38787 38790 38793 38796 38799 38802 38805 38808 38811 38814 38817 38820 38823 38826 38829 38832 38835 38838 38841 38844 38847 38850 38853 38856 38859 38862 38865 38868 38871 38874 38877 38880 38883 38886 38889 38892 38895 38898 38901 38904 38907 38910 38913 38916 38919 38922 38925 38928 38931 38934 38937 38940 38943 38946 38949 38952 38955 38958 38961 38964 38967 38970 38973 38976 38979 38982 38985 38988 38991 38994 38997 39000 39003 39006 39009 39012 39015 39018 39021 39024 39027 39030 39033 39036 39039 39042 39045 39048 39051 39054 39057 39060 39063 39066 39069 39072 39075 39078 39081 39084 39087 39090 39093 39096 39099 39102 39105 39108 39111 39114 39117 39120 39123 39126 39129 39132 39135 39138 39141 39144 39147 39150 39153 39156 39159 39162 39165 39168 39171 39174 39177 39180 39183 39186 39189 39192 39195 39198 39201 39204 39207 39210 39213 39216 39219 39222 39225 39228 39231 39234 39237 39240 39243 39246 39249 39252 39255 39258 39261 39264 39267 39270 39273 39276 39279 39282 39285 39288 39291 39294 39297 39300 39303 39306 39309 39312 39315 39318 39321 39324 39327 39330 39333 39336 39339 39342 39345 39348 39351 39354 39357 39360 39363 39366 39369 39372 39375 39378 39381 39384 39387 39390 39393 39396 39399 39402 39405 39408 39411 39414 39417 39420 39423 39426 39429 39432 39435 39438 39441 39444 39447 39450 39453 39456 39459 39462 39465 39468 39471 39474 39477 39480 39483 39486 39489 39492 39495 39498 39501 39504 39507 39510 39513 39516 39519 39522 39525 39528 39531 39534 39537 39540 39543 39546 39549 39552 39555 39558 39561 39564 39567 39570 39573 39576 39579 39582 39585 39588 39591 39594 39597 39600 39603 39606 39609 39612 39615 39618 39621 39624 39627 39630 39633 39636 39639 39642 39645 39648 39651 39654 39657 39660 39663 39666 39669 39672 39675 39678 39681 39684 39687 39690 39693 39696 39699 39702 39705 39708 39711 39714 39717 39720 39723 39726 39729 39732 39735 39738 39741 39744 39747 39750 39753 39756 39759 39762 39765 39768 39771 39774 39777 39780 39783 39786 39789 39792 39795 39798 39801 39804 39807 39810 39813 39816 39819 39822 39825 39828 39831 39834 39837 39840 39843 39846 39849 39852 39855 39858 39861 39864 39867 39870 39873 39876 39879 39882 39885 39888 39891 39894 39897 39900 39903 39906 39909 39912 39915 39918 39921 39924 39927 39930 39933 39936 39939 39942 39945 39948 39951 39954 39957 39960 39963 39966 39969 39972 39975 39978 39981 39984 39987 39990 39993 39996 39999 40002 40005 40008 40011 40014 40017 40020 40023 40026 40029 40032 40035 40038 40041 40044 40047 40050 40053 40056 40059 40062 40065 40068 40071 40074 40077 40080 40083 40086 40089 40092 40095 40098 40101 40104 40107 40110 40113 40116 40119 40122 40125 40128 40131 40134 40137 40140 40143 40146 40149 40152 40155 40158 40161 40164 40167 40170 40173 40176 40179 40182 40185 40188 40191 40194 40197 40200 40203 40206 40209 40212 40215 40218 40221 40224 40227 40230 40233 40236 40239 40242 40245 40248 40251 40254 40257 40260 40263 40266 40269 40272 40275 40278 40281 40284 40287 40290 40293 40296 40299 40302 40305 40308 40311 40314 40317 40320 40323 40326 40329 40332 40335 40338 40341 40344 40347 40350 40353 40356 40359 40362 40365 40368 40371 40374 40377 40380 40383 40386 40389 40392 40395 40398 40401 40404 40407 40410 40413 40416 40419 40422 40425 40428 40431 40434 40437 40440 40443 40446 40449 40452 40455 40458 40461 40464 40467 40470 40473 40476 40479 40482 40485 40488 40491 40494 40497 40500 40503 40506 40509 40512 40515 40518 40521 40524 40527 40530 40533 40536 40539 40542 40545 40548 40551 40554 40557 40560 40563 40566 40569 40572 40575 40578 40581 40584 40587 40590 40593 40596 40599 40602 40605 40608 40611 40614 40617 40620 40623 40626 40629 40632 40635 40638 40641 40644 40647 40650 40653 40656 40659 40662 40665 40668 40671 40674 40677 40680 40683 40686 40689 40692 40695 40698 40701 40704 40707 40710 40713 40716 40719 40722 40725 40728 40731 40734 40737 40740 40743 40746 40749 40752 40755 40758 40761 40764 40767 40770 40773 40776 40779 40782 40785 40788 40791 40794 40797 40800 40803 40806 40809 40812 40815 40818 40821 40824 40827 40830 40833 40836 40839 40842 40845 40848 40851 40854 40857 40860 40863 40866 40869 40872 40875 40878 40881 40884 40887 40890 40893 40896 40899 40902 40905 40908 40911 40914 40917 40920 40923 40926 40929 40932 40935 40938 40941 40944 40947 40950 40953 40956 40959 40962 40965 40968 40971 40974 40977 40980 40983 40986 40989 40992 40995 40998 41001 41004 41007 41010 41013 41016 41019 41022 41025 41028 41031 41034 41037 41040 41043 41046 41049 41052 41055 41058 41061 41064 41067 41070 41073 41076 41079 41082 41085 41088 41091 41094 41097 41100 41103 41106 41109 41112 41115 41118 41121 41124 41127 41130 41133 41136 41139 41142 41145 41148 41151 41154 41157 41160 41163 41166 41169 41172 41175 41178 41181 41184 41187 41190 41193 41196 41199 41202 41205 41208 41211 41214 41217 41220 41223 41226 41229 41232 41235 41238 41241 41244 41247 41250 41253 41256 41259 41262 41265 41268 41271 41274 41277 41280 41283 41286 41289 41292 41295 41298 41301 41304 41307 41310 41313 41316 41319 41322 41325 41328 41331 41334 41337 41340 41343 41346 41349 41352 41355 41358 41361 41364 41367 41370 41373 41376 41379 41382 41385 41388 41391 41394 41397 41400 41403 41406 41409 41412 41415 41418 41421 41424 41427 41430 41433 41436 41439 41442 41445 41448 41451 41454 41457 41460 41463 41466 41469 41472 41475 41478 41481 41484 41487 41490 41493 41496 41499 41502 41505 41508 41511 41514 41517 41520 41523 41526 41529 41532 41535 41538 41541 41544 41547 41550 41553 41556 41559 41562 41565 41568 41571 41574 41577 41580 41583 41586 41589 41592 41595 41598 41601 41604 41607 41610 41613 41616 41619 41622 41625 41628 41631 41634 41637 41640 41643 41646 41649 41652 41655 41658 41661 41664 41667 41670 41673 41676 41679 41682 41685 41688 41691 41694 41697 41700 41703 41706 41709 41712 41715 41718 41721 41724 41727 41730 41733 41736 41739 41742 41745 41748 41751 41754 41757 41760 41763 41766 41769 41772 41775 41778 41781 41784 41787 41790 41793 41796 41799 41802 41805 41808 41811 41814 41817 41820 41823 41826 41829 41832 41835 41838 41841 41844 41847 41850 41853 41856 41859 41862 41865 41868 41871 41874 41877 41880 41883 41886 41889 41892 41895 41898 41901 41904 41907 41910 41913 41916 41919 41922 41925 41928 41931 41934 41937 41940 41943 41946 41949 41952 41955 41958 41961 41964 41967 41970 41973 41976 41979 41982 41985 41988 41991 41994 41997 42000 42003 42006 42009 42012 42015 42018 42021 42024 42027 42030 42033 42036 42039 42042 42045 42048 42051 42054 42057 42060 42063 42066 42069 42072 42075 42078 42081 42084 42087 42090 42093 42096 42099 42102 42105 42108 42111 42114 42117 42120 42123 42126 42129 42132 42135 42138 42141 42144 42147 42150 42153 42156 42159 42162 42165 42168 42171 42174 42177 42180 42183 42186 42189 42192 42195 42198 42201 42204 42207 42210 42213 42216 42219 42222 42225 42228 42231 42234 42237 42240 42243 42246 42249 42252 42255 42258 42261 42264 42267 42270 42273 42276 42279 42282 42285 42288 42291 42294 42297 42300 42303 42306 42309 42312 42315 42318 42321 42324 42327 42330 42333 42336 42339 42342 42345 42348 42351 42354 42357 42360 42363 42366 42369 42372 42375 42378 42381 42384 42387 42390 42393 42396 42399 42402 42405 42408 42411 42414 42417 42420 42423 42426 42429 42432 42435 42438 42441 42444 42447 42450 42453 42456 42459 42462 42465 42468 42471 42474 42477 42480 42483 42486 42489 42492 42495 42498 42501 42504 42507 42510 42513 42516 42519 42522 42525 42528 42531 42534 42537 42540 42543 42546 42549 42552 42555 42558 42561 42564 42567 42570 42573 42576 42579 42582 42585 42588 42591 42594 42597 42600 42603 42606 42609 42612 42615 42618 42621 42624 42627 42630 42633 42636 42639 42642 42645 42648 42651 42654 42657 42660 42663 42666 42669 42672 42675 42678 42681 42684 42687 42690 42693 42696 42699 42702 42705 42708 42711 42714 42717 42720 42723 42726 42729 42732 42735 42738 42741 42744 42747 42750 42753 42756 42759 42762 42765 42768 42771 42774 42777 42780 42783 42786 42789 42792 42795 42798 42801 42804 42807 42810 42813 42816 42819 42822 42825 42828 42831 42834 42837 42840 42843 42846 42849 42852 42855 42858 42861 42864 42867 42870 42873 42876 42879 42882 42885 42888 42891 42894 42897 42900 42903 42906 42909 42912 42915 42918 42921 42924 42927 42930 42933 42936 42939 42942 42945 42948 42951 42954 42957 42960 42963 42966 42969 42972 42975 42978 42981 42984 42987 42990 42993 42996 42999 43002 43005 43008 43011 43014 43017 43020 43023 43026 43029 43032 43035 43038 43041 43044 43047 43050 43053 43056 43059 43062 43065 43068 43071 43074 43077 43080 43083 43086 43089 43092 43095 43098 43101 43104 43107 43110 43113 43116 43119 43122 43125 43128 43131 43134 43137 43140 43143 43146 43149 43152 43155 43158 43161 43164 43167 43170 43173 43176 43179 43182 43185 43188 43191 43194 43197 43200 43203 43206 43209 43212 43215 43218 43221 43224 43227 43230 43233 43236 43239 43242 43245 43248 43251 43254 43257 43260 43263 43266 43269 43272 43275 43278 43281 43284 43287 43290 43293 43296 43299 43302 43305 43308 43311 43314 43317 43320 43323 43326 43329 43332 43335 43338 43341 43344 43347 43350 43353 43356 43359 43362 43365 43368 43371 43374 43377 43380 43383 43386 43389 43392 43395 43398 43401 43404 43407 43410 43413 43416 43419 43422 43425 43428 43431 43434 43437 43440 43443 43446 43449 43452 43455 43458 43461 43464 43467 43470 43473 43476 43479 43482 43485 43488 43491 43494 43497 43500 43503 43506 43509 43512 43515 43518 43521 43524 43527 43530 43533 43536 43539 43542 43545 43548 43551 43554 43557 43560 43563 43566 43569 43572 43575 43578 43581 43584 43587 43590 43593 43596 43599 43602 43605 43608 43611 43614 43617 43620 43623 43626 43629 43632 43635 43638 43641 43644 43647 43650 43653 43656 43659 43662 43665 43668 43671 43674 43677 43680 43683 43686 43689 43692 43695 43698 43701 43704 43707 43710 43713 43716 43719 43722 43725 43728 43731 43734 43737 43740 43743 43746 43749 43752 43755 43758 43761 43764 43767 43770 43773 43776 43779 43782 43785 43788 43791 43794 43797 43800 43803 43806 43809 43812 43815 43818 43821 43824 43827 43830 43833 43836 43839 43842 43845 43848 43851 43854 43857 43860 43863 43866 43869 43872 43875 43878 43881 43884 43887 43890 43893 43896 43899 43902 43905 43908 43911 43914 43917 43920 43923 43926 43929 43932 43935 43938 43941 43944 43947 43950 43953 43956 43959 43962 43965 43968 43971 43974 43977 43980 43983 43986 43989 43992 43995 43998 44001 44004 44007 44010 44013 44016 44019 44022 44025 44028 44031 44034 44037 44040 44043 44046 44049 44052 44055 44058 44061 44064 44067 44070 44073 44076 44079 44082 44085 44088 44091 44094 44097 44100 44103 44106 44109 44112 44115 44118 44121 44124 44127 44130 44133 44136 44139 44142 44145 44148 44151 44154 44157 44160 44163 44166 44169 44172 44175 44178 44181 44184 44187 44190 44193 44196 44199 44202 44205 44208 44211 44214 44217 44220 44223 44226 44229 44232 44235 44238 44241 44244 44247 44250 44253 44256 44259 44262 44265 44268 44271 44274 44277 44280 44283 44286 44289 44292 44295 44298 44301 44304 44307 44310 44313 44316 44319 44322 44325 44328 44331 44334 44337 44340 44343 44346 44349 44352 44355 44358 44361 44364 44367 44370 44373 44376 44379 44382 44385 44388 44391 44394 44397 44400 44403 44406 44409 44412 44415 44418 44421 44424 44427 44430 44433 44436 44439 44442 44445 44448 44451 44454 44457 44460 44463 44466 44469 44472 44475 44478 44481 44484 44487 44490 44493 44496 44499 44502 44505 44508 44511 44514 44517 44520 44523 44526 44529 44532 44535 44538 44541 44544 44547 44550 44553 44556 44559 44562 44565 44568 44571 44574 44577 44580 44583 44586 44589 44592 44595 44598 44601 44604 44607 44610 44613 44616 44619 44622 44625 44628 44631 44634 44637 44640 44643 44646 44649 44652 44655 44658 44661 44664 44667 44670 44673 44676 44679 44682 44685 44688 44691 44694 44697 44700 44703 44706 44709 44712 44715 44718 44721 44724 44727 44730 44733 44736 44739 44742 44745 44748 44751 44754 44757 44760 44763 44766 44769 44772 44775 44778 44781 44784 44787 44790 44793 44796 44799 44802 44805 44808 44811 44814 44817 44820 44823 44826 44829 44832 44835 44838 44841 44844 44847 44850 44853 44856 44859 44862 44865 44868 44871 44874 44877 44880 44883 44886 44889 44892 44895 44898 44901 44904 44907 44910 44913 44916 44919 44922 44925 44928 44931 44934 44937 44940 44943 44946 44949 44952 44955 44958 44961 44964 44967 44970 44973 44976 44979 44982 44985 44988 44991 44994 44997 45000 45003 45006 45009 45012 45015 45018 45021 45024 45027 45030 45033 45036 45039 45042 45045 45048 45051 45054 45057 45060 45063 45066 45069 45072 45075 45078 45081 45084 45087 45090 45093 45096 45099 45102 45105 45108 45111 45114 45117 45120 45123 45126 45129 45132 45135 45138 45141 45144 45147 45150 45153 45156 45159 45162 45165 45168 45171 45174 45177 45180 45183 45186 45189 45192 45195 45198 45201 45204 45207 45210 45213 45216 45219 45222 45225 45228 45231 45234 45237 45240 45243 45246 45249 45252 45255 45258 45261 45264 45267 45270 45273 45276 45279 45282 45285 45288 45291 45294 45297 45300 45303 45306 45309 45312 45315 45318 45321 45324 45327 45330 45333 45336 45339 45342 45345 45348 45351 45354 45357 45360 45363 45366 45369 45372 45375 45378 45381 45384 45387 45390 45393 45396 45399 45402 45405 45408 45411 45414 45417 45420 45423 45426 45429 45432 45435 45438 45441 45444 45447 45450 45453 45456 45459 45462 45465 45468 45471 45474 45477 45480 45483 45486 45489 45492 45495 45498 45501 45504 45507 45510 45513 45516 45519 45522 45525 45528 45531 45534 45537 45540 45543 45546 45549 45552 45555 45558 45561 45564 45567 45570 45573 45576 45579 45582 45585 45588 45591 45594 45597 45600 45603 45606 45609 45612 45615 45618 45621 45624 45627 45630 45633 45636 45639 45642 45645 45648 45651 45654 45657 45660 45663 45666 45669 45672 45675 45678 45681 45684 45687 45690 45693 45696 45699 45702 45705 45708 45711 45714 45717 45720 45723 45726 45729 45732 45735 45738 45741 45744 45747 45750 45753 45756 45759 45762 45765 45768 45771 45774 45777 45780 45783 45786 45789 45792 45795 45798 45801 45804 45807 45810 45813 45816 45819 45822 45825 45828 45831 45834 45837 45840 45843 45846 45849 45852 45855 45858 45861 45864 45867 45870 45873 45876 45879 45882 45885 45888 45891 45894 45897 45900 45903 45906 45909 45912 45915 45918 45921 45924 45927 45930 45933 45936 45939 45942 45945 45948 45951 45954 45957 45960 45963 45966 45969 45972 45975 45978 45981 45984 45987 45990 45993 45996 45999 46002 46005 46008 46011 46014 46017 46020 46023 46026 46029 46032 46035 46038 46041 46044 46047 46050 46053 46056 46059 46062 46065 46068 46071 46074 46077 46080 46083 46086 46089 46092 46095 46098 46101 46104 46107 46110 46113 46116 46119 46122 46125 46128 46131 46134 46137 46140 46143 46146 46149 46152 46155 46158 46161 46164 46167 46170 46173 46176 46179 46182 46185 46188 46191 46194 46197 46200 46203 46206 46209 46212 46215 46218 46221 46224 46227 46230 46233 46236 46239 46242 46245 46248 46251 46254 46257 46260 46263 46266 46269 46272 46275 46278 46281 46284 46287 46290 46293 46296 46299 46302 46305 46308 46311 46314 46317 46320 46323 46326 46329 46332 46335 46338 46341 46344 46347 46350 46353 46356 46359 46362 46365 46368 46371 46374 46377 46380 46383 46386 46389 46392 46395 46398 46401 46404 46407 46410 46413 46416 46419 46422 46425 46428 46431 46434 46437 46440 46443 46446 46449 46452 46455 46458 46461 46464 46467 46470 46473 46476 46479 46482 46485 46488 46491 46494 46497 46500 46503 46506 46509 46512 46515 46518 46521 46524 46527 46530 46533 46536 46539 46542 46545 46548 46551 46554 46557 46560 46563 46566 46569 46572 46575 46578 46581 46584 46587 46590 46593 46596 46599 46602 46605 46608 46611 46614 46617 46620 46623 46626 46629 46632 46635 46638 46641 46644 46647 46650 46653 46656 46659 46662 46665 46668 46671 46674 46677 46680 46683 46686 46689 46692 46695 46698 46701 46704 46707 46710 46713 46716 46719 46722 46725 46728 46731 46734 46737 46740 46743 46746 46749 46752 46755 46758 46761 46764 46767 46770 46773 46776 46779 46782 46785 46788 46791 46794 46797 46800 46803 46806 46809 46812 46815 46818 46821 46824 46827 46830 46833 46836 46839 46842 46845 46848 46851 46854 46857 46860 46863 46866 46869 46872 46875 46878 46881 46884 46887 46890 46893 46896 46899 46902 46905 46908 46911 46914 46917 46920 46923 46926 46929 46932 46935 46938 46941 46944 46947 46950 46953 46956 46959 46962 46965 46968 46971 46974 46977 46980 46983 46986 46989 46992 46995 46998 47001 47004 47007 47010 47013 47016 47019 47022 47025 47028 47031 47034 47037 47040 47043 47046 47049 47052 47055 47058 47061 47064 47067 47070 47073 47076 47079 47082 47085 47088 47091 47094 47097 47100 47103 47106 47109 47112 47115 47118 47121 47124 47127 47130 47133 47136 47139 47142 47145 47148 47151 47154 47157 47160 47163 47166 47169 47172 47175 47178 47181 47184 47187 47190 47193 47196 47199 47202 47205 47208 47211 47214 47217 47220 47223 47226 47229 47232 47235 47238 47241 47244 47247 47250 47253 47256 47259 47262 47265 47268 47271 47274 47277 47280 47283 47286 47289 47292 47295 47298 47301 47304 47307 47310 47313 47316 47319 47322 47325 47328 47331 47334 47337 47340 47343 47346 47349 47352 47355 47358 47361 47364 47367 47370 47373 47376 47379 47382 47385 47388 47391 47394 47397 47400 47403 47406 47409 47412 47415 47418 47421 47424 47427 47430 47433 47436 47439 47442 47445 47448 47451 47454 47457 47460 47463 47466 47469 47472 47475 47478 47481 47484 47487 47490 47493 47496 47499 47502 47505 47508 47511 47514 47517 47520 47523 47526 47529 47532 47535 47538 47541 47544 47547 47550 47553 47556 47559 47562 47565 47568 47571 47574 47577 47580 47583 47586 47589 47592 47595 47598 47601 47604 47607 47610 47613 47616 47619 47622 47625 47628 47631 47634 47637 47640 47643 47646 47649 47652 47655 47658 47661 47664 47667 47670 47673 47676 47679 47682 47685 47688 47691 47694 47697 47700 47703 47706 47709 47712 47715 47718 47721 47724 47727 47730 47733 47736 47739 47742 47745 47748 47751 47754 47757 47760 47763 47766 47769 47772 47775 47778 47781 47784 47787 47790 47793 47796 47799 47802 47805 47808 47811 47814 47817 47820 47823 47826 47829 47832 47835 47838 47841 47844 47847 47850 47853 47856 47859 47862 47865 47868 47871 47874 47877 47880 47883 47886 47889 47892 47895 47898 47901 47904 47907 47910 47913 47916 47919 47922 47925 47928 47931 47934 47937 47940 47943 47946 47949 47952 47955 47958 47961 47964 47967 47970 47973 47976 47979 47982 47985 47988 47991 47994 47997 48000 48003 48006 48009 48012 48015 48018 48021 48024 48027 48030 48033 48036 48039 48042 48045 48048 48051 48054 48057 48060 48063 48066 48069 48072 48075 48078 48081 48084 48087 48090 48093 48096 48099 48102 48105 48108 48111 48114 48117 48120 48123 48126 48129 48132 48135 48138 48141 48144 48147 48150 48153 48156 48159 48162 48165 48168 48171 48174 48177 48180 48183 48186 48189 48192 48195 48198 48201 48204 48207 48210 48213 48216 48219 48222 48225 48228 48231 48234 48237 48240 48243 48246 48249 48252 48255 48258 48261 48264 48267 48270 48273 48276 48279 48282 48285 48288 48291 48294 48297 48300 48303 48306 48309 48312 48315 48318 48321 48324 48327 48330 48333 48336 48339 48342 48345 48348 48351 48354 48357 48360 48363 48366 48369 48372 48375 48378 48381 48384 48387 48390 48393 48396 48399 48402 48405 48408 48411 48414 48417 48420 48423 48426 48429 48432 48435 48438 48441 48444 48447 48450 48453 48456 48459 48462 48465 48468 48471 48474 48477 48480 48483 48486 48489 48492 48495 48498 48501 48504 48507 48510 48513 48516 48519 48522 48525 48528 48531 48534 48537 48540 48543 48546 48549 48552 48555 48558 48561 48564 48567 48570 48573 48576 48579 48582 48585 48588 48591 48594 48597 48600 48603 48606 48609 48612 48615 48618 48621 48624 48627 48630 48633 48636 48639 48642 48645 48648 48651 48654 48657 48660 48663 48666 48669 48672 48675 48678 48681 48684 48687 48690 48693 48696 48699 48702 48705 48708 48711 48714 48717 48720 48723 48726 48729 48732 48735 48738 48741 48744 48747 48750 48753 48756 48759 48762 48765 48768 48771 48774 48777 48780 48783 48786 48789 48792 48795 48798 48801 48804 48807 48810 48813 48816 48819 48822 48825 48828 48831 48834 48837 48840 48843 48846 48849 48852 48855 48858 48861 48864 48867 48870 48873 48876 48879 48882 48885 48888 48891 48894 48897 48900 48903 48906 48909 48912 48915 48918 48921 48924 48927 48930 48933 48936 48939 48942 48945 48948 48951 48954 48957 48960 48963 48966 48969 48972 48975 48978 48981 48984 48987 48990 48993 48996 48999 49002 49005 49008 49011 49014 49017 49020 49023 49026 49029 49032 49035 49038 49041 49044 49047 49050 49053 49056 49059 49062 49065 49068 49071 49074 49077 49080 49083 49086 49089 49092 49095 49098 49101 49104 49107 49110 49113 49116 49119 49122 49125 49128 49131 49134 49137 49140 49143 49146 49149 49152 49155 49158 49161 49164 49167 49170 49173 49176 49179 49182 49185 49188 49191 49194 49197 49200 49203 49206 49209 49212 49215 49218 49221 49224 49227 49230 49233 49236 49239 49242 49245 49248 49251 49254 49257 49260 49263 49266 49269 49272 49275 49278 49281 49284 49287 49290 49293 49296 49299 49302 49305 49308 49311 49314 49317 49320 49323 49326 49329 49332 49335 49338 49341 49344 49347 49350 49353 49356 49359 49362 49365 49368 49371 49374 49377 49380 49383 49386 49389 49392 49395 49398 49401 49404 49407 49410 49413 49416 49419 49422 49425 49428 49431 49434 49437 49440 49443 49446 49449 49452 49455 49458 49461 49464 49467 49470 49473 49476 49479 49482 49485 49488 49491 49494 49497 49500 49503 49506 49509 49512 49515 49518 49521 49524 49527 49530 49533 49536 49539 49542 49545 49548 49551 49554 49557 49560 49563 49566 49569 49572 49575 49578 49581 49584 49587 49590 49593 49596 49599 49602 49605 49608 49611 49614 49617 49620 49623 49626 49629 49632 49635 49638 49641 49644 49647 49650 49653 49656 49659 49662 49665 49668 49671 49674 49677 49680 49683 49686 49689 49692 49695 49698 49701 49704 49707 49710 49713 49716 49719 49722 49725 49728 49731 49734 49737 49740 49743 49746 49749 49752 49755 49758 49761 49764 49767 49770 49773 49776 49779 49782 49785 49788 49791 49794 49797 49800 49803 49806 49809 49812 49815 49818 49821 49824 49827 49830 49833 49836 49839 49842 49845 49848 49851 49854 49857 49860 49863 49866 49869 49872 49875 49878 49881 49884 49887 49890 49893 49896 49899 49902 49905 49908 49911 49914 49917 49920 49923 49926 49929 49932 49935 49938 49941 49944 49947 49950 49953 49956 49959 49962 49965 49968 49971 49974 49977 49980 49983 49986 49989 49992 49995 49998 50001 50004 50007 50010 50013 50016 50019 50022 50025 50028 50031 50034 50037 50040 50043 50046 50049 50052 50055 50058 50061 50064 50067 50070 50073 50076 50079 50082 50085 50088 50091 50094 50097 50100 50103 50106 50109 50112 50115 50118 50121 50124 50127 50130 50133 50136 50139 50142 50145 50148 50151 50154 50157 50160 50163 50166 50169 50172 50175 50178 50181 50184 50187 50190 50193 50196 50199 50202 50205 50208 50211 50214 50217 50220 50223 50226 50229 50232 50235 50238 50241 50244 50247 50250 50253 50256 50259 50262 50265 50268 50271 50274 50277 50280 50283 50286 50289 50292 50295 50298 50301 50304 50307 50310 50313 50316 50319 50322 50325 50328 50331 50334 50337 50340 50343 50346 50349 50352 50355 50358 50361 50364 50367 50370 50373 50376 50379 50382 50385 50388 50391 50394 50397 50400 50403 50406 50409 50412 50415 50418 50421 50424 50427 50430 50433 50436 50439 50442 50445 50448 50451 50454 50457 50460 50463 50466 50469 50472 50475 50478 50481 50484 50487 50490 50493 50496 50499 50502 50505 50508 50511 50514 50517 50520 50523 50526 50529 50532 50535 50538 50541 50544 50547 50550 50553 50556 50559 50562 50565 50568 50571 50574 50577 50580 50583 50586 50589 50592 50595 50598 50601 50604 50607 50610 50613 50616 50619 50622 50625 50628 50631 50634 50637 50640 50643 50646 50649 50652 50655 50658 50661 50664 50667 50670 50673 50676 50679 50682 50685 50688 50691 50694 50697 50700 50703 50706 50709 50712 50715 50718 50721 50724 50727 50730 50733 50736 50739 50742 50745 50748 50751 50754 50757 50760 50763 50766 50769 50772 50775 50778 50781 50784 50787 50790 50793 50796 50799 50802 50805 50808 50811 50814 50817 50820 50823 50826 50829 50832 50835 50838 50841 50844 50847 50850 50853 50856 50859 50862 50865 50868 50871 50874 50877 50880 50883 50886 50889 50892 50895 50898 50901 50904 50907 50910 50913 50916 50919 50922 50925 50928 50931 50934 50937 50940 50943 50946 50949 50952 50955 50958 50961 50964 50967 50970 50973 50976 50979 50982 50985 50988 50991 50994 50997 51000 51003 51006 51009 51012 51015 51018 51021 51024 51027 51030 51033 51036 51039 51042 51045 51048 51051 51054 51057 51060 51063 51066 51069 51072 51075 51078 51081 51084 51087 51090 51093 51096 51099 51102 51105 51108 51111 51114 51117 51120 51123 51126 51129 51132 51135 51138 51141 51144 51147 51150 51153 51156 51159 51162 51165 51168 51171 51174 51177 51180 51183 51186 51189 51192 51195 51198 51201 51204 51207 51210 51213 51216 51219 51222 51225 51228 51231 51234 51237 51240 51243 51246 51249 51252 51255 51258 51261 51264 51267 51270 51273 51276 51279 51282 51285 51288 51291 51294 51297 51300 51303 51306 51309 51312 51315 51318 51321 51324 51327 51330 51333 51336 51339 51342 51345 51348 51351 51354 51357 51360 51363 51366 51369 51372 51375 51378 51381 51384 51387 51390 51393 51396 51399 51402 51405 51408 51411 51414 51417 51420 51423 51426 51429 51432 51435 51438 51441 51444 51447 51450 51453 51456 51459 51462 51465 51468 51471 51474 51477 51480 51483 51486 51489 51492 51495 51498 51501 51504 51507 51510 51513 51516 51519 51522 51525 51528 51531 51534 51537 51540 51543 51546 51549 51552 51555 51558 51561 51564 51567 51570 51573 51576 51579 51582 51585 51588 51591 51594 51597 51600 51603 51606 51609 51612 51615 51618 51621 51624 51627 51630 51633 51636 51639 51642 51645 51648 51651 51654 51657 51660 51663 51666 51669 51672 51675 51678 51681 51684 51687 51690 51693 51696 51699 51702 51705 51708 51711 51714 51717 51720 51723 51726 51729 51732 51735 51738 51741 51744 51747 51750 51753 51756 51759 51762 51765 51768 51771 51774 51777 51780 51783 51786 51789 51792 51795 51798 51801 51804 51807 51810 51813 51816 51819 51822 51825 51828 51831 51834 51837 51840 51843 51846 51849 51852 51855 51858 51861 51864 51867 51870 51873 51876 51879 51882 51885 51888 51891 51894 51897 51900 51903 51906 51909 51912 51915 51918 51921 51924 51927 51930 51933 51936 51939 51942 51945 51948 51951 51954 51957 51960 51963 51966 51969 51972 51975 51978 51981 51984 51987 51990 51993 51996 51999 52002 52005 52008 52011 52014 52017 52020 52023 52026 52029 52032 52035 52038 52041 52044 52047 52050 52053 52056 52059 52062 52065 52068 52071 52074 52077 52080 52083 52086 52089 52092 52095 52098 52101 52104 52107 52110 52113 52116 52119 52122 52125 52128 52131 52134 52137 52140 52143 52146 52149 52152 52155 52158 52161 52164 52167 52170 52173 52176 52179 52182 52185 52188 52191 52194 52197 52200 52203 52206 52209 52212 52215 52218 52221 52224 52227 52230 52233 52236 52239 52242 52245 52248 52251 52254 52257 52260 52263 52266 52269 52272 52275 52278 52281 52284 52287 52290 52293 52296 52299 52302 52305 52308 52311 52314 52317 52320 52323 52326 52329 52332 52335 52338 52341 52344 52347 52350 52353 52356 52359 52362 52365 52368 52371 52374 52377 52380 52383 52386 52389 52392 52395 52398 52401 52404 52407 52410 52413 52416 52419 52422 52425 52428 52431 52434 52437 52440 52443 52446 52449 52452 52455 52458 52461 52464 52467 52470 52473 52476 52479 52482 52485 52488 52491 52494 52497 52500 52503 52506 52509 52512 52515 52518 52521 52524 52527 52530 52533 52536 52539 52542 52545 52548 52551 52554 52557 52560 52563 52566 52569 52572 52575 52578 52581 52584 52587 52590 52593 52596 52599 52602 52605 52608 52611 52614 52617 52620 52623 52626 52629 52632 52635 52638 52641 52644 52647 52650 52653 52656 52659 52662 52665 52668 52671 52674 52677 52680 52683 52686 52689 52692 52695 52698 52701 52704 52707 52710 52713 52716 52719 52722 52725 52728 52731 52734 52737 52740 52743 52746 52749 52752 52755 52758 52761 52764 52767 52770 52773 52776 52779 52782 52785 52788 52791 52794 52797 52800 52803 52806 52809 52812 52815 52818 52821 52824 52827 52830 52833 52836 52839 52842 52845 52848 52851 52854 52857 52860 52863 52866 52869 52872 52875 52878 52881 52884 52887 52890 52893 52896 52899 52902 52905 52908 52911 52914 52917 52920 52923 52926 52929 52932 52935 52938 52941 52944 52947 52950 52953 52956 52959 52962 52965 52968 52971 52974 52977 52980 52983 52986 52989 52992 52995 52998 53001 53004 53007 53010 53013 53016 53019 53022 53025 53028 53031 53034 53037 53040 53043 53046 53049 53052 53055 53058 53061 53064 53067 53070 53073 53076 53079 53082 53085 53088 53091 53094 53097 53100 53103 53106 53109 53112 53115 53118 53121 53124 53127 53130 53133 53136 53139 53142 53145 53148 53151 53154 53157 53160 53163 53166 53169 53172 53175 53178 53181 53184 53187 53190 53193 53196 53199 53202 53205 53208 53211 53214 53217 53220 53223 53226 53229 53232 53235 53238 53241 53244 53247 53250 53253 53256 53259 53262 53265 53268 53271 53274 53277 53280 53283 53286 53289 53292 53295 53298 53301 53304 53307 53310 53313 53316 53319 53322 53325 53328 53331 53334 53337 53340 53343 53346 53349 53352 53355 53358 53361 53364 53367 53370 53373 53376 53379 53382 53385 53388 53391 53394 53397 53400 53403 53406 53409 53412 53415 53418 53421 53424 53427 53430 53433 53436 53439 53442 53445 53448 53451 53454 53457 53460 53463 53466 53469 53472 53475 53478 53481 53484 53487 53490 53493 53496 53499 53502 53505 53508 53511 53514 53517 53520 53523 53526 53529 53532 53535 53538 53541 53544 53547 53550 53553 53556 53559 53562 53565 53568 53571 53574 53577 53580 53583 53586 53589 53592 53595 53598 53601 53604 53607 53610 53613 53616 53619 53622 53625 53628 53631 53634 53637 53640 53643 53646 53649 53652 53655 53658 53661 53664 53667 53670 53673 53676 53679 53682 53685 53688 53691 53694 53697 53700 53703 53706 53709 53712 53715 53718 53721 53724 53727 53730 53733 53736 53739 53742 53745 53748 53751 53754 53757 53760 53763 53766 53769 53772 53775 53778 53781 53784 53787 53790 53793 53796 53799 53802 53805 53808 53811 53814 53817 53820 53823 53826 53829 53832 53835 53838 53841 53844 53847 53850 53853 53856 53859 53862 53865 53868 53871 53874 53877 53880 53883 53886 53889 53892 53895 53898 53901 53904 53907 53910 53913 53916 53919 53922 53925 53928 53931 53934 53937 53940 53943 53946 53949 53952 53955 53958 53961 53964 53967 53970 53973 53976 53979 53982 53985 53988 53991 53994 53997 54000 54003 54006 54009 54012 54015 54018 54021 54024 54027 54030 54033 54036 54039 54042 54045 54048 54051 54054 54057 54060 54063 54066 54069 54072 54075 54078 54081 54084 54087 54090 54093 54096 54099 54102 54105 54108 54111 54114 54117 54120 54123 54126 54129 54132 54135 54138 54141 54144 54147 54150 54153 54156 54159 54162 54165 54168 54171 54174 54177 54180 54183 54186 54189 54192 54195 54198 54201 54204 54207 54210 54213 54216 54219 54222 54225 54228 54231 54234 54237 54240 54243 54246 54249 54252 54255 54258 54261 54264 54267 54270 54273 54276 54279 54282 54285 54288 54291 54294 54297 54300 54303 54306 54309 54312 54315 54318 54321 54324 54327 54330 54333 54336 54339 54342 54345 54348 54351 54354 54357 54360 54363 54366 54369 54372 54375 54378 54381 54384 54387 54390 54393 54396 54399 54402 54405 54408 54411 54414 54417 54420 54423 54426 54429 54432 54435 54438 54441 54444 54447 54450 54453 54456 54459 54462 54465 54468 54471 54474 54477 54480 54483 54486 54489 54492 54495 54498 54501 54504 54507 54510 54513 54516 54519 54522 54525 54528 54531 54534 54537 54540 54543 54546 54549 54552 54555 54558 54561 54564 54567 54570 54573 54576 54579 54582 54585 54588 54591 54594 54597 54600 54603 54606 54609 54612 54615 54618 54621 54624 54627 54630 54633 54636 54639 54642 54645 54648 54651 54654 54657 54660 54663 54666 54669 54672 54675 54678 54681 54684 54687 54690 54693 54696 54699 54702 54705 54708 54711 54714 54717 54720 54723 54726 54729 54732 54735 54738 54741 54744 54747 54750 54753 54756 54759 54762 54765 54768 54771 54774 54777 54780 54783 54786 54789 54792 54795 54798 54801 54804 54807 54810 54813 54816 54819 54822 54825 54828 54831 54834 54837 54840 54843 54846 54849 54852 54855 54858 54861 54864 54867 54870 54873 54876 54879 54882 54885 54888 54891 54894 54897 54900 54903 54906 54909 54912 54915 54918 54921 54924 54927 54930 54933 54936 54939 54942 54945 54948 54951 54954 54957 54960 54963 54966 54969 54972 54975 54978 54981 54984 54987 54990 54993 54996 54999 55002 55005 55008 55011 55014 55017 55020 55023 55026 55029 55032 55035 55038 55041 55044 55047 55050 55053 55056 55059 55062 55065 55068 55071 55074 55077 55080 55083 55086 55089 55092 55095 55098 55101 55104 55107 55110 55113 55116 55119 55122 55125 55128 55131 55134 55137 55140 55143 55146 55149 55152 55155 55158 55161 55164 55167 55170 55173 55176 55179 55182 55185 55188 55191 55194 55197 55200 55203 55206 55209 55212 55215 55218 55221 55224 55227 55230 55233 55236 55239 55242 55245 55248 55251 55254 55257 55260 55263 55266 55269 55272 55275 55278 55281 55284 55287 55290 55293 55296 55299 55302 55305 55308 55311 55314 55317 55320 55323 55326 55329 55332 55335 55338 55341 55344 55347 55350 55353 55356 55359 55362 55365 55368 55371 55374 55377 55380 55383 55386 55389 55392 55395 55398 55401 55404 55407 55410 55413 55416 55419 55422 55425 55428 55431 55434 55437 55440 55443 55446 55449 55452 55455 55458 55461 55464 55467 55470 55473 55476 55479 55482 55485 55488 55491 55494 55497 55500 55503 55506 55509 55512 55515 55518 55521 55524 55527 55530 55533 55536 55539 55542 55545 55548 55551 55554 55557 55560 55563 55566 55569 55572 55575 55578 55581 55584 55587 55590 55593 55596 55599 55602 55605 55608 55611 55614 55617 55620 55623 55626 55629 55632 55635 55638 55641 55644 55647 55650 55653 55656 55659 55662 55665 55668 55671 55674 55677 55680 55683 55686 55689 55692 55695 55698 55701 55704 55707 55710 55713 55716 55719 55722 55725 55728 55731 55734 55737 55740 55743 55746 55749 55752 55755 55758 55761 55764 55767 55770 55773 55776 55779 55782 55785 55788 55791 55794 55797 55800 55803 55806 55809 55812 55815 55818 55821 55824 55827 55830 55833 55836 55839 55842 55845 55848 55851 55854 55857 55860 55863 55866 55869 55872 55875 55878 55881 55884 55887 55890 55893 55896 55899 55902 55905 55908 55911 55914 55917 55920 55923 55926 55929 55932 55935 55938 55941 55944 55947 55950 55953 55956 55959 55962 55965 55968 55971 55974 55977 55980 55983 55986 55989 55992 55995 55998 56001 56004 56007 56010 56013 56016 56019 56022 56025 56028 56031 56034 56037 56040 56043 56046 56049 56052 56055 56058 56061 56064 56067 56070 56073 56076 56079 56082 56085 56088 56091 56094 56097 56100 56103 56106 56109 56112 56115 56118 56121 56124 56127 56130 56133 56136 56139 56142 56145 56148 56151 56154 56157 56160 56163 56166 56169 56172 56175 56178 56181 56184 56187 56190 56193 56196 56199 56202 56205 56208 56211 56214 56217 56220 56223 56226 56229 56232 56235 56238 56241 56244 56247 56250 56253 56256 56259 56262 56265 56268 56271 56274 56277 56280 56283 56286 56289 56292 56295 56298 56301 56304 56307 56310 56313 56316 56319 56322 56325 56328 56331 56334 56337 56340 56343 56346 56349 56352 56355 56358 56361 56364 56367 56370 56373 56376 56379 56382 56385 56388 56391 56394 56397 56400 56403 56406 56409 56412 56415 56418 56421 56424 56427 56430 56433 56436 56439 56442 56445 56448 56451 56454 56457 56460 56463 56466 56469 56472 56475 56478 56481 56484 56487 56490 56493 56496 56499 56502 56505 56508 56511 56514 56517 56520 56523 56526 56529 56532 56535 56538 56541 56544 56547 56550 56553 56556 56559 56562 56565 56568 56571 56574 56577 56580 56583 56586 56589 56592 56595 56598 56601 56604 56607 56610 56613 56616 56619 56622 56625 56628 56631 56634 56637 56640 56643 56646 56649 56652 56655 56658 56661 56664 56667 56670 56673 56676 56679 56682 56685 56688 56691 56694 56697 56700 56703 56706 56709 56712 56715 56718 56721 56724 56727 56730 56733 56736 56739 56742 56745 56748 56751 56754 56757 56760 56763 56766 56769 56772 56775 56778 56781 56784 56787 56790 56793 56796 56799 56802 56805 56808 56811 56814 56817 56820 56823 56826 56829 56832 56835 56838 56841 56844 56847 56850 56853 56856 56859 56862 56865 56868 56871 56874 56877 56880 56883 56886 56889 56892 56895 56898 56901 56904 56907 56910 56913 56916 56919 56922 56925 56928 56931 56934 56937 56940 56943 56946 56949 56952 56955 56958 56961 56964 56967 56970 56973 56976 56979 56982 56985 56988 56991 56994 56997 57000 57003 57006 57009 57012 57015 57018 57021 57024 57027 57030 57033 57036 57039 57042 57045 57048 57051 57054 57057 57060 57063 57066 57069 57072 57075 57078 57081 57084 57087 57090 57093 57096 57099 57102 57105 57108 57111 57114 57117 57120 57123 57126 57129 57132 57135 57138 57141 57144 57147 57150 57153 57156 57159 57162 57165 57168 57171 57174 57177 57180 57183 57186 57189 57192 57195 57198 57201 57204 57207 57210 57213 57216 57219 57222 57225 57228 57231 57234 57237 57240 57243 57246 57249 57252 57255 57258 57261 57264 57267 57270 57273 57276 57279 57282 57285 57288 57291 57294 57297 57300 57303 57306 57309 57312 57315 57318 57321 57324 57327 57330 57333 57336 57339 57342 57345 57348 57351 57354 57357 57360 57363 57366 57369 57372 57375 57378 57381 57384 57387 57390 57393 57396 57399 57402 57405 57408 57411 57414 57417 57420 57423 57426 57429 57432 57435 57438 57441 57444 57447 57450 57453 57456 57459 57462 57465 57468 57471 57474 57477 57480 57483 57486 57489 57492 57495 57498 57501 57504 57507 57510 57513 57516 57519 57522 57525 57528 57531 57534 57537 57540 57543 57546 57549 57552 57555 57558 57561 57564 57567 57570 57573 57576 57579 57582 57585 57588 57591 57594 57597 57600 57603 57606 57609 57612 57615 57618 57621 57624 57627 57630 57633 57636 57639 57642 57645 57648 57651 57654 57657 57660 57663 57666 57669 57672 57675 57678 57681 57684 57687 57690 57693 57696 57699 57702 57705 57708 57711 57714 57717 57720 57723 57726 57729 57732 57735 57738 57741 57744 57747 57750 57753 57756 57759 57762 57765 57768 57771 57774 57777 57780 57783 57786 57789 57792 57795 57798 57801 57804 57807 57810 57813 57816 57819 57822 57825 57828 57831 57834 57837 57840 57843 57846 57849 57852 57855 57858 57861 57864 57867 57870 57873 57876 57879 57882 57885 57888 57891 57894 57897 57900 57903 57906 57909 57912 57915 57918 57921 57924 57927 57930 57933 57936 57939 57942 57945 57948 57951 57954 57957 57960 57963 57966 57969 57972 57975 57978 57981 57984 57987 57990 57993 57996 57999 58002 58005 58008 58011 58014 58017 58020 58023 58026 58029 58032 58035 58038 58041 58044 58047 58050 58053 58056 58059 58062 58065 58068 58071 58074 58077 58080 58083 58086 58089 58092 58095 58098 58101 58104 58107 58110 58113 58116 58119 58122 58125 58128 58131 58134 58137 58140 58143 58146 58149 58152 58155 58158 58161 58164 58167 58170 58173 58176 58179 58182 58185 58188 58191 58194 58197 58200 58203 58206 58209 58212 58215 58218 58221 58224 58227 58230 58233 58236 58239 58242 58245 58248 58251 58254 58257 58260 58263 58266 58269 58272 58275 58278 58281 58284 58287 58290 58293 58296 58299 58302 58305 58308 58311 58314 58317 58320 58323 58326 58329 58332 58335 58338 58341 58344 58347 58350 58353 58356 58359 58362 58365 58368 58371 58374 58377 58380 58383 58386 58389 58392 58395 58398 58401 58404 58407 58410 58413 58416 58419 58422 58425 58428 58431 58434 58437 58440 58443 58446 58449 58452 58455 58458 58461 58464 58467 58470 58473 58476 58479 58482 58485 58488 58491 58494 58497 58500 58503 58506 58509 58512 58515 58518 58521 58524 58527 58530 58533 58536 58539 58542 58545 58548 58551 58554 58557 58560 58563 58566 58569 58572 58575 58578 58581 58584 58587 58590 58593 58596 58599 58602 58605 58608 58611 58614 58617 58620 58623 58626 58629 58632 58635 58638 58641 58644 58647 58650 58653 58656 58659 58662 58665 58668 58671 58674 58677 58680 58683 58686 58689 58692 58695 58698 58701 58704 58707 58710 58713 58716 58719 58722 58725 58728 58731 58734 58737 58740 58743 58746 58749 58752 58755 58758 58761 58764 58767 58770 58773 58776 58779 58782 58785 58788 58791 58794 58797 58800 58803 58806 58809 58812 58815 58818 58821 58824 58827 58830 58833 58836 58839 58842 58845 58848 58851 58854 58857 58860 58863 58866 58869 58872 58875 58878 58881 58884 58887 58890 58893 58896 58899 58902 58905 58908 58911 58914 58917 58920 58923 58926 58929 58932 58935 58938 58941 58944 58947 58950 58953 58956 58959 58962 58965 58968 58971 58974 58977 58980 58983 58986 58989 58992 58995 58998 59001 59004 59007 59010 59013 59016 59019 59022 59025 59028 59031 59034 59037 59040 59043 59046 59049 59052 59055 59058 59061 59064 59067 59070 59073 59076 59079 59082 59085 59088 59091 59094 59097 59100 59103 59106 59109 59112 59115 59118 59121 59124 59127 59130 59133 59136 59139 59142 59145 59148 59151 59154 59157 59160 59163 59166 59169 59172 59175 59178 59181 59184 59187 59190 59193 59196 59199 59202 59205 59208 59211 59214 59217 59220 59223 59226 59229 59232 59235 59238 59241 59244 59247 59250 59253 59256 59259 59262 59265 59268 59271 59274 59277 59280 59283 59286 59289 59292 59295 59298 59301 59304 59307 59310 59313 59316 59319 59322 59325 59328 59331 59334 59337 59340 59343 59346 59349 59352 59355 59358 59361 59364 59367 59370 59373 59376 59379 59382 59385 59388 59391 59394 59397 59400 59403 59406 59409 59412 59415 59418 59421 59424 59427 59430 59433 59436 59439 59442 59445 59448 59451 59454 59457 59460 59463 59466 59469 59472 59475 59478 59481 59484 59487 59490 59493 59496 59499 59502 59505 59508 59511 59514 59517 59520 59523 59526 59529 59532 59535 59538 59541 59544 59547 59550 59553 59556 59559 59562 59565 59568 59571 59574 59577 59580 59583 59586 59589 59592 59595 59598 59601 59604 59607 59610 59613 59616 59619 59622 59625 59628 59631 59634 59637 59640 59643 59646 59649 59652 59655 59658 59661 59664 59667 59670 59673 59676 59679 59682 59685 59688 59691 59694 59697 59700 59703 59706 59709 59712 59715 59718 59721 59724 59727 59730 59733 59736 59739 59742 59745 59748 59751 59754 59757 59760 59763 59766 59769 59772 59775 59778 59781 59784 59787 59790 59793 59796 59799 59802 59805 59808 59811 59814 59817 59820 59823 59826 59829 59832 59835 59838 59841 59844 59847 59850 59853 59856 59859 59862 59865 59868 59871 59874 59877 59880 59883 59886 59889 59892 59895 59898 59901 59904 59907 59910 59913 59916 59919 59922 59925 59928 59931 59934 59937 59940 59943 59946 59949 59952 59955 59958 59961 59964 59967 59970 59973 59976 59979 59982 59985 59988 59991 59994 59997 60000 60003 60006 60009 60012 60015 60018 60021 60024 60027 60030 60033 60036 60039 60042 60045 60048 60051 60054 60057 60060 60063 60066 60069 60072 60075 60078 60081 60084 60087 60090 60093 60096 60099 60102 60105 60108 60111 60114 60117 60120 60123 60126 60129 60132 60135 60138 60141 60144 60147 60150 60153 60156 60159 60162 60165 60168 60171 60174 60177 60180 60183 60186 60189 60192 60195 60198 60201 60204 60207 60210 60213 60216 60219 60222 60225 60228 60231 60234 60237 60240 60243 60246 60249 60252 60255 60258 60261 60264 60267 60270 60273 60276 60279 60282 60285 60288 60291 60294 60297 60300 60303 60306 60309 60312 60315 60318 60321 60324 60327 60330 60333 60336 60339 60342 60345 60348 60351 60354 60357 60360 60363 60366 60369 60372 60375 60378 60381 60384 60387 60390 60393 60396 60399 60402 60405 60408 60411 60414 60417 60420 60423 60426 60429 60432 60435 60438 60441 60444 60447 60450 60453 60456 60459 60462 60465 60468 60471 60474 60477 60480 60483 60486 60489 60492 60495 60498 60501 60504 60507 60510 60513 60516 60519 60522 60525 60528 60531 60534 60537 60540 60543 60546 60549 60552 60555 60558 60561 60564 60567 60570 60573 60576 60579 60582 60585 60588 60591 60594 60597 60600 60603 60606 60609 60612 60615 60618 60621 60624 60627 60630 60633 60636 60639 60642 60645 60648 60651 60654 60657 60660 60663 60666 60669 60672 60675 60678 60681 60684 60687 60690 60693 60696 60699 60702 60705 60708 60711 60714 60717 60720 60723 60726 60729 60732 60735 60738 60741 60744 60747 60750 60753 60756 60759 60762 60765 60768 60771 60774 60777 60780 60783 60786 60789 60792 60795 60798 60801 60804 60807 60810 60813 60816 60819 60822 60825 60828 60831 60834 60837 60840 60843 60846 60849 60852 60855 60858 60861 60864 60867 60870 60873 60876 60879 60882 60885 60888 60891 60894 60897 60900 60903 60906 60909 60912 60915 60918 60921 60924 60927 60930 60933 60936 60939 60942 60945 60948 60951 60954 60957 60960 60963 60966 60969 60972 60975 60978 60981 60984 60987 60990 60993 60996 60999 61002 61005 61008 61011 61014 61017 61020 61023 61026 61029 61032 61035 61038 61041 61044 61047 61050 61053 61056 61059 61062 61065 61068 61071 61074 61077 61080 61083 61086 61089 61092 61095 61098 61101 61104 61107 61110 61113 61116 61119 61122 61125 61128 61131 61134 61137 61140 61143 61146 61149 61152 61155 61158 61161 61164 61167 61170 61173 61176 61179 61182 61185 61188 61191 61194 61197 61200 61203 61206 61209 61212 61215 61218 61221 61224 61227 61230 61233 61236 61239 61242 61245 61248 61251 61254 61257 61260 61263 61266 61269 61272 61275 61278 61281 61284 61287 61290 61293 61296 61299 61302 61305 61308 61311 61314 61317 61320 61323 61326 61329 61332 61335 61338 61341 61344 61347 61350 61353 61356 61359 61362 61365 61368 61371 61374 61377 61380 61383 61386 61389 61392 61395 61398 61401 61404 61407 61410 61413 61416 61419 61422 61425 61428 61431 61434 61437 61440 61443 61446 61449 61452 61455 61458 61461 61464 61467 61470 61473 61476 61479 61482 61485 61488 61491 61494 61497 61500 61503 61506 61509 61512 61515 61518 61521 61524 61527 61530 61533 61536 61539 61542 61545 61548 61551 61554 61557 61560 61563 61566 61569 61572 61575 61578 61581 61584 61587 61590 61593 61596 61599 61602 61605 61608 61611 61614 61617 61620 61623 61626 61629 61632 61635 61638 61641 61644 61647 61650 61653 61656 61659 61662 61665 61668 61671 61674 61677 61680 61683 61686 61689 61692 61695 61698 61701 61704 61707 61710 61713 61716 61719 61722 61725 61728 61731 61734 61737 61740 61743 61746 61749 61752 61755 61758 61761 61764 61767 61770 61773 61776 61779 61782 61785 61788 61791 61794 61797 61800 61803 61806 61809 61812 61815 61818 61821 61824 61827 61830 61833 61836 61839 61842 61845 61848 61851 61854 61857 61860 61863 61866 61869 61872 61875 61878 61881 61884 61887 61890 61893 61896 61899 61902 61905 61908 61911 61914 61917 61920 61923 61926 61929 61932 61935 61938 61941 61944 61947 61950 61953 61956 61959 61962 61965 61968 61971 61974 61977 61980 61983 61986 61989 61992 61995 61998 62001 62004 62007 62010 62013 62016 62019 62022 62025 62028 62031 62034 62037 62040 62043 62046 62049 62052 62055 62058 62061 62064 62067 62070 62073 62076 62079 62082 62085 62088 62091 62094 62097 62100 62103 62106 62109 62112 62115 62118 62121 62124 62127 62130 62133 62136 62139 62142 62145 62148 62151 62154 62157 62160 62163 62166 62169 62172 62175 62178 62181 62184 62187 62190 62193 62196 62199 62202 62205 62208 62211 62214 62217 62220 62223 62226 62229 62232 62235 62238 62241 62244 62247 62250 62253 62256 62259 62262 62265 62268 62271 62274 62277 62280 62283 62286 62289 62292 62295 62298 62301 62304 62307 62310 62313 62316 62319 62322 62325 62328 62331 62334 62337 62340 62343 62346 62349 62352 62355 62358 62361 62364 62367 62370 62373 62376 62379 62382 62385 62388 62391 62394 62397 62400 62403 62406 62409 62412 62415 62418 62421 62424 62427 62430 62433 62436 62439 62442 62445 62448 62451 62454 62457 62460 62463 62466 62469 62472 62475 62478 62481 62484 62487 62490 62493 62496 62499 62502 62505 62508 62511 62514 62517 62520 62523 62526 62529 62532 62535 62538 62541 62544 62547 62550 62553 62556 62559 62562 62565 62568 62571 62574 62577 62580 62583 62586 62589 62592 62595 62598 62601 62604 62607 62610 62613 62616 62619 62622 62625 62628 62631 62634 62637 62640 62643 62646 62649 62652 62655 62658 62661 62664 62667 62670 62673 62676 62679 62682 62685 62688 62691 62694 62697 62700 62703 62706 62709 62712 62715 62718 62721 62724 62727 62730 62733 62736 62739 62742 62745 62748 62751 62754 62757 62760 62763 62766 62769 62772 62775 62778 62781 62784 62787 62790 62793 62796 62799 62802 62805 62808 62811 62814 62817 62820 62823 62826 62829 62832 62835 62838 62841 62844 62847 62850 62853 62856 62859 62862 62865 62868 62871 62874 62877 62880 62883 62886 62889 62892 62895 62898 62901 62904 62907 62910 62913 62916 62919 62922 62925 62928 62931 62934 62937 62940 62943 62946 62949 62952 62955 62958 62961 62964 62967 62970 62973 62976 62979 62982 62985 62988 62991 62994 62997 63000 63003 63006 63009 63012 63015 63018 63021 63024 63027 63030 63033 63036 63039 63042 63045 63048 63051 63054 63057 63060 63063 63066 63069 63072 63075 63078 63081 63084 63087 63090 63093 63096 63099 63102 63105 63108 63111 63114 63117 63120 63123 63126 63129 63132 63135 63138 63141 63144 63147 63150 63153 63156 63159 63162 63165 63168 63171 63174 63177 63180 63183 63186 63189 63192 63195 63198 63201 63204 63207 63210 63213 63216 63219 63222 63225 63228 63231 63234 63237 63240 63243 63246 63249 63252 63255 63258 63261 63264 63267 63270 63273 63276 63279 63282 63285 63288 63291 63294 63297 63300 63303 63306 63309 63312 63315 63318 63321 63324 63327 63330 63333 63336 63339 63342 63345 63348 63351 63354 63357 63360 63363 63366 63369 63372 63375 63378 63381 63384 63387 63390 63393 63396 63399 63402 63405 63408 63411 63414 63417 63420 63423 63426 63429 63432 63435 63438 63441 63444 63447 63450 63453 63456 63459 63462 63465 63468 63471 63474 63477 63480 63483 63486 63489 63492 63495 63498 63501 63504 63507 63510 63513 63516 63519 63522 63525 63528 63531 63534 63537 63540 63543 63546 63549 63552 63555 63558 63561 63564 63567 63570 63573 63576 63579 63582 63585 63588 63591 63594 63597 63600 63603 63606 63609 63612 63615 63618 63621 63624 63627 63630 63633 63636 63639 63642 63645 63648 63651 63654 63657 63660 63663 63666 63669 63672 63675 63678 63681 63684 63687 63690 63693 63696 63699 63702 63705 63708 63711 63714 63717 63720 63723 63726 63729 63732 63735 63738 63741 63744 63747 63750 63753 63756 63759 63762 63765 63768 63771 63774 63777 63780 63783 63786 63789 63792 63795 63798 63801 63804 63807 63810 63813 63816 63819 63822 63825 63828 63831 63834 63837 63840 63843 63846 63849 63852 63855 63858 63861 63864 63867 63870 63873 63876 63879 63882 63885 63888 63891 63894 63897 63900 63903 63906 63909 63912 63915 63918 63921 63924 63927 63930 63933 63936 63939 63942 63945 63948 63951 63954 63957 63960 63963 63966 63969 63972 63975 63978 63981 63984 63987 63990 63993 63996 63999 64002 64005 64008 64011 64014 64017 64020 64023 64026 64029 64032 64035 64038 64041 64044 64047 64050 64053 64056 64059 64062 64065 64068 64071 64074 64077 64080 64083 64086 64089 64092 64095 64098 64101 64104 64107 64110 64113 64116 64119 64122 64125 64128 64131 64134 64137 64140 64143 64146 64149 64152 64155 64158 64161 64164 64167 64170 64173 64176 64179 64182 64185 64188 64191 64194 64197 64200 64203 64206 64209 64212 64215 64218 64221 64224 64227 64230 64233 64236 64239 64242 64245 64248 64251 64254 64257 64260 64263 64266 64269 64272 64275 64278 64281 64284 64287 64290 64293 64296 64299 64302 64305 64308 64311 64314 64317 64320 64323 64326 64329 64332 64335 64338 64341 64344 64347 64350 64353 64356 64359 64362 64365 64368 64371 64374 64377 64380 64383 64386 64389 64392 64395 64398 64401 64404 64407 64410 64413 64416 64419 64422 64425 64428 64431 64434 64437 64440 64443 64446 64449 64452 64455 64458 64461 64464 64467 64470 64473 64476 64479 64482 64485 64488 64491 64494 64497 64500 64503 64506 64509 64512 64515 64518 64521 64524 64527 64530 64533 64536 64539 64542 64545 64548 64551 64554 64557 64560 64563 64566 64569 64572 64575 64578 64581 64584 64587 64590 64593 64596 64599 64602 64605 64608 64611 64614 64617 64620 64623 64626 64629 64632 64635 64638 64641 64644 64647 64650 64653 64656 64659 64662 64665 64668 64671 64674 64677 64680 64683 64686 64689 64692 64695 64698 64701 64704 64707 64710 64713 64716 64719 64722 64725 64728 64731 64734 64737 64740 64743 64746 64749 64752 64755 64758 64761 64764 64767 64770 64773 64776 64779 64782 64785 64788 64791 64794 64797 64800 64803 64806 64809 64812 64815 64818 64821 64824 64827 64830 64833 64836 64839 64842 64845 64848 64851 64854 64857 64860 64863 64866 64869 64872 64875 64878 64881 64884 64887 64890 64893 64896 64899 64902 64905 64908 64911 64914 64917 64920 64923 64926 64929 64932 64935 64938 64941 64944 64947 64950 64953 64956 64959 64962 64965 64968 64971 64974 64977 64980 64983 64986 64989 64992 64995 64998 65001 65004 65007 65010 65013 65016 65019 65022 65025 65028 65031 65034 65037 65040 65043 65046 65049 65052 65055 65058 65061 65064 65067 65070 65073 65076 65079 65082 65085 65088 65091 65094 65097 65100 65103 65106 65109 65112 65115 65118 65121 65124 65127 65130 65133 65136 65139 65142 65145 65148 65151 65154 65157 65160 65163 65166 65169 65172 65175 65178 65181 65184 65187 65190 65193 65196 65199 65202 65205 65208 65211 65214 65217 65220 65223 65226 65229 65232 65235 65238 65241 65244 65247 65250 65253 65256 65259 65262 65265 65268 65271 65274 65277 65280 65283 65286 65289 65292 65295 65298 65301 65304 65307 65310 65313 65316 65319 65322 65325 65328 65331 65334 65337 65340 65343 65346 65349 65352 65355 65358 65361 65364 65367 65370 65373 65376 65379 65382 65385 65388 65391 65394 65397 65400 65403 65406 65409 65412 65415 65418 65421 65424 65427 65430 65433 65436 65439 65442 65445 65448 65451 65454 65457 65460 65463 65466 65469 65472 65475 65478 65481 65484 65487 65490 65493 65496 65499 65502 65505 65508 65511 65514 65517 65520 65523 65526 65529 65532 65535 65538 65541 65544 65547 65550 65553 65556 65559 65562 65565 65568 65571 65574 65577 65580 65583 65586 65589 65592 65595 65598 65601 65604 65607 65610 65613 65616 65619 65622 65625 65628 65631 65634 65637 65640 65643 65646 65649 65652 65655 65658 65661 65664 65667 65670 65673 65676 65679 65682 65685 65688 65691 65694 65697 65700 65703 65706 65709 65712 65715 65718 65721 65724 65727 65730 65733 65736 65739 65742 65745 65748 65751 65754 65757 65760 65763 65766 65769 65772 65775 65778 65781 65784 65787 65790 65793 65796 65799 65802 65805 65808 65811 65814 65817 65820 65823 65826 65829 65832 65835 65838 65841 65844 65847 65850 65853 65856 65859 65862 65865 65868 65871 65874 65877 65880 65883 65886 65889 65892 65895 65898 65901 65904 65907 65910 65913 65916 65919 65922 65925 65928 65931 65934 65937 65940 65943 65946 65949 65952 65955 65958 65961 65964 65967 65970 65973 65976 65979 65982 65985 65988 65991 65994 65997 66000 66003 66006 66009 66012 66015 66018 66021 66024 66027 66030 66033 66036 66039 66042 66045 66048 66051 66054 66057 66060 66063 66066 66069 66072 66075 66078 66081 66084 66087 66090 66093 66096 66099 66102 66105 66108 66111 66114 66117 66120 66123 66126 66129 66132 66135 66138 66141 66144 66147 66150 66153 66156 66159 66162 66165 66168 66171 66174 66177 66180 66183 66186 66189 66192 66195 66198 66201 66204 66207 66210 66213 66216 66219 66222 66225 66228 66231 66234 66237 66240 66243 66246 66249 66252 66255 66258 66261 66264 66267 66270 66273 66276 66279 66282 66285 66288 66291 66294 66297 66300 66303 66306 66309 66312 66315 66318 66321 66324 66327 66330 66333 66336 66339 66342 66345 66348 66351 66354 66357 66360 66363 66366 66369 66372 66375 66378 66381 66384 66387 66390 66393 66396 66399 66402 66405 66408 66411 66414 66417 66420 66423 66426 66429 66432 66435 66438 66441 66444 66447 66450 66453 66456 66459 66462 66465 66468 66471 66474 66477 66480 66483 66486 66489 66492 66495 66498 66501 66504 66507 66510 66513 66516 66519 66522 66525 66528 66531 66534 66537 66540 66543 66546 66549 66552 66555 66558 66561 66564 66567 66570 66573 66576 66579 66582 66585 66588 66591 66594 66597 66600 66603 66606 66609 66612 66615 66618 66621 66624 66627 66630 66633 66636 66639 66642 66645 66648 66651 66654 66657 66660 66663 66666 66669 66672 66675 66678 66681 66684 66687 66690 66693 66696 66699 66702 66705 66708 66711 66714 66717 66720 66723 66726 66729 66732 66735 66738 66741 66744 66747 66750 66753 66756 66759 66762 66765 66768 66771 66774 66777 66780 66783 66786 66789 66792 66795 66798 66801 66804 66807 66810 66813 66816 66819 66822 66825 66828 66831 66834 66837 66840 66843 66846 66849 66852 66855 66858 66861 66864 66867 66870 66873 66876 66879 66882 66885 66888 66891 66894 66897 66900 66903 66906 66909 66912 66915 66918 66921 66924 66927 66930 66933 66936 66939 66942 66945 66948 66951 66954 66957 66960 66963 66966 66969 66972 66975 66978 66981 66984 66987 66990 66993 66996 66999 67002 67005 67008 67011 67014 67017 67020 67023 67026 67029 67032 67035 67038 67041 67044 67047 67050 67053 67056 67059 67062 67065 67068 67071 67074 67077 67080 67083 67086 67089 67092 67095 67098 67101 67104 67107 67110 67113 67116 67119 67122 67125 67128 67131 67134 67137 67140 67143 67146 67149 67152 67155 67158 67161 67164 67167 67170 67173 67176 67179 67182 67185 67188 67191 67194 67197 67200 67203 67206 67209 67212 67215 67218 67221 67224 67227 67230 67233 67236 67239 67242 67245 67248 67251 67254 67257 67260 67263 67266 67269 67272 67275 67278 67281 67284 67287 67290 67293 67296 67299 67302 67305 67308 67311 67314 67317 67320 67323 67326 67329 67332 67335 67338 67341 67344 67347 67350 67353 67356 67359 67362 67365 67368 67371 67374 67377 67380 67383 67386 67389 67392 67395 67398 67401 67404 67407 67410 67413 67416 67419 67422 67425 67428 67431 67434 67437 67440 67443 67446 67449 67452 67455 67458 67461 67464 67467 67470 67473 67476 67479 67482 67485 67488 67491 67494 67497 67500 67503 67506 67509 67512 67515 67518 67521 67524 67527 67530 67533 67536 67539 67542 67545 67548 67551 67554 67557 67560 67563 67566 67569 67572 67575 67578 67581 67584 67587 67590 67593 67596 67599 67602 67605 67608 67611 67614 67617 67620 67623 67626 67629 67632 67635 67638 67641 67644 67647 67650 67653 67656 67659 67662 67665 67668 67671 67674 67677 67680 67683 67686 67689 67692 67695 67698 67701 67704 67707 67710 67713 67716 67719 67722 67725 67728 67731 67734 67737 67740 67743 67746 67749 67752 67755 67758 67761 67764 67767 67770 67773 67776 67779 67782 67785 67788 67791 67794 67797 67800 67803 67806 67809 67812 67815 67818 67821 67824 67827 67830 67833 67836 67839 67842 67845 67848 67851 67854 67857 67860 67863 67866 67869 67872 67875 67878 67881 67884 67887 67890 67893 67896 67899 67902 67905 67908 67911 67914 67917 67920 67923 67926 67929 67932 67935 67938 67941 67944 67947 67950 67953 67956 67959 67962 67965 67968 67971 67974 67977 67980 67983 67986 67989 67992 67995 67998 68001 68004 68007 68010 68013 68016 68019 68022 68025 68028 68031 68034 68037 68040 68043 68046 68049 68052 68055 68058 68061 68064 68067 68070 68073 68076 68079 68082 68085 68088 68091 68094 68097 68100 68103 68106 68109 68112 68115 68118 68121 68124 68127 68130 68133 68136 68139 68142 68145 68148 68151 68154 68157 68160 68163 68166 68169 68172 68175 68178 68181 68184 68187 68190 68193 68196 68199 68202 68205 68208 68211 68214 68217 68220 68223 68226 68229 68232 68235 68238 68241 68244 68247 68250 68253 68256 68259 68262 68265 68268 68271 68274 68277 68280 68283 68286 68289 68292 68295 68298 68301 68304 68307 68310 68313 68316 68319 68322 68325 68328 68331 68334 68337 68340 68343 68346 68349 68352 68355 68358 68361 68364 68367 68370 68373 68376 68379 68382 68385 68388 68391 68394 68397 68400 68403 68406 68409 68412 68415 68418 68421 68424 68427 68430 68433 68436 68439 68442 68445 68448 68451 68454 68457 68460 68463 68466 68469 68472 68475 68478 68481 68484 68487 68490 68493 68496 68499 68502 68505 68508 68511 68514 68517 68520 68523 68526 68529 68532 68535 68538 68541 68544 68547 68550 68553 68556 68559 68562 68565 68568 68571 68574 68577 68580 68583 68586 68589 68592 68595 68598 68601 68604 68607 68610 68613 68616 68619 68622 68625 68628 68631 68634 68637 68640 68643 68646 68649 68652 68655 68658 68661 68664 68667 68670 68673 68676 68679 68682 68685 68688 68691 68694 68697 68700 68703 68706 68709 68712 68715 68718 68721 68724 68727 68730 68733 68736 68739 68742 68745 68748 68751 68754 68757 68760 68763 68766 68769 68772 68775 68778 68781 68784 68787 68790 68793 68796 68799 68802 68805 68808 68811 68814 68817 68820 68823 68826 68829 68832 68835 68838 68841 68844 68847 68850 68853 68856 68859 68862 68865 68868 68871 68874 68877 68880 68883 68886 68889 68892 68895 68898 68901 68904 68907 68910 68913 68916 68919 68922 68925 68928 68931 68934 68937 68940 68943 68946 68949 68952 68955 68958 68961 68964 68967 68970 68973 68976 68979 68982 68985 68988 68991 68994 68997 69000 69003 69006 69009 69012 69015 69018 69021 69024 69027 69030 69033 69036 69039 69042 69045 69048 69051 69054 69057 69060 69063 69066 69069 69072 69075 69078 69081 69084 69087 69090 69093 69096 69099 69102 69105 69108 69111 69114 69117 69120 69123 69126 69129 69132 69135 69138 69141 69144 69147 69150 69153 69156 69159 69162 69165 69168 69171 69174 69177 69180 69183 69186 69189 69192 69195 69198 69201 69204 69207 69210 69213 69216 69219 69222 69225 69228 69231 69234 69237 69240 69243 69246 69249 69252 69255 69258 69261 69264 69267 69270 69273 69276 69279 69282 69285 69288 69291 69294 69297 69300 69303 69306 69309 69312 69315 69318 69321 69324 69327 69330 69333 69336 69339 69342 69345 69348 69351 69354 69357 69360 69363 69366 69369 69372 69375 69378 69381 69384 69387 69390 69393 69396 69399 69402 69405 69408 69411 69414 69417 69420 69423 69426 69429 69432 69435 69438 69441 69444 69447 69450 69453 69456 69459 69462 69465 69468 69471 69474 69477 69480 69483 69486 69489 69492 69495 69498 69501 69504 69507 69510 69513 69516 69519 69522 69525 69528 69531 69534 69537 69540 69543 69546 69549 69552 69555 69558 69561 69564 69567 69570 69573 69576 69579 69582 69585 69588 69591 69594 69597 69600 69603 69606 69609 69612 69615 69618 69621 69624 69627 69630 69633 69636 69639 69642 69645 69648 69651 69654 69657 69660 69663 69666 69669 69672 69675 69678 69681 69684 69687 69690 69693 69696 69699 69702 69705 69708 69711 69714 69717 69720 69723 69726 69729 69732 69735 69738 69741 69744 69747 69750 69753 69756 69759 69762 69765 69768 69771 69774 69777 69780 69783 69786 69789 69792 69795 69798 69801 69804 69807 69810 69813 69816 69819 69822 69825 69828 69831 69834 69837 69840 69843 69846 69849 69852 69855 69858 69861 69864 69867 69870 69873 69876 69879 69882 69885 69888 69891 69894 69897 69900 69903 69906 69909 69912 69915 69918 69921 69924 69927 69930 69933 69936 69939 69942 69945 69948 69951 69954 69957 69960 69963 69966 69969 69972 69975 69978 69981 69984 69987 69990 69993 69996 69999 70002 70005 70008 70011 70014 70017 70020 70023 70026 70029 70032 70035 70038 70041 70044 70047 70050 70053 70056 70059 70062 70065 70068 70071 70074 70077 70080 70083 70086 70089 70092 70095 70098 70101 70104 70107 70110 70113 70116 70119 70122 70125 70128 70131 70134 70137 70140 70143 70146 70149 70152 70155 70158 70161 70164 70167 70170 70173 70176 70179 70182 70185 70188 70191 70194 70197 70200 70203 70206 70209 70212 70215 70218 70221 70224 70227 70230 70233 70236 70239 70242 70245 70248 70251 70254 70257 70260 70263 70266 70269 70272 70275 70278 70281 70284 70287 70290 70293 70296 70299 70302 70305 70308 70311 70314 70317 70320 70323 70326 70329 70332 70335 70338 70341 70344 70347 70350 70353 70356 70359 70362 70365 70368 70371 70374 70377 70380 70383 70386 70389 70392 70395 70398 70401 70404 70407 70410 70413 70416 70419 70422 70425 70428 70431 70434 70437 70440 70443 70446 70449 70452 70455 70458 70461 70464 70467 70470 70473 70476 70479 70482 70485 70488 70491 70494 70497 70500 70503 70506 70509 70512 70515 70518 70521 70524 70527 70530 70533 70536 70539 70542 70545 70548 70551 70554 70557 70560 70563 70566 70569 70572 70575 70578 70581 70584 70587 70590 70593 70596 70599 70602 70605 70608 70611 70614 70617 70620 70623 70626 70629 70632 70635 70638 70641 70644 70647 70650 70653 70656 70659 70662 70665 70668 70671 70674 70677 70680 70683 70686 70689 70692 70695 70698 70701 70704 70707 70710 70713 70716 70719 70722 70725 70728 70731 70734 70737 70740 70743 70746 70749 70752 70755 70758 70761 70764 70767 70770 70773 70776 70779 70782 70785 70788 70791 70794 70797 70800 70803 70806 70809 70812 70815 70818 70821 70824 70827 70830 70833 70836 70839 70842 70845 70848 70851 70854 70857 70860 70863 70866 70869 70872 70875 70878 70881 70884 70887 70890 70893 70896 70899 70902 70905 70908 70911 70914 70917 70920 70923 70926 70929 70932 70935 70938 70941 70944 70947 70950 70953 70956 70959 70962 70965 70968 70971 70974 70977 70980 70983 70986 70989 70992 70995 70998 71001 71004 71007 71010 71013 71016 71019 71022 71025 71028 71031 71034 71037 71040 71043 71046 71049 71052 71055 71058 71061 71064 71067 71070 71073 71076 71079 71082 71085 71088 71091 71094 71097 71100 71103 71106 71109 71112 71115 71118 71121 71124 71127 71130 71133 71136 71139 71142 71145 71148 71151 71154 71157 71160 71163 71166 71169 71172 71175 71178 71181 71184 71187 71190 71193 71196 71199 71202 71205 71208 71211 71214 71217 71220 71223 71226 71229 71232 71235 71238 71241 71244 71247 71250 71253 71256 71259 71262 71265 71268 71271 71274 71277 71280 71283 71286 71289 71292 71295 71298 71301 71304 71307 71310 71313 71316 71319 71322 71325 71328 71331 71334 71337 71340 71343 71346 71349 71352 71355 71358 71361 71364 71367 71370 71373 71376 71379 71382 71385 71388 71391 71394 71397 71400 71403 71406 71409 71412 71415 71418 71421 71424 71427 71430 71433 71436 71439 71442 71445 71448 71451 71454 71457 71460 71463 71466 71469 71472 71475 71478 71481 71484 71487 71490 71493 71496 71499 71502 71505 71508 71511 71514 71517 71520 71523 71526 71529 71532 71535 71538 71541 71544 71547 71550 71553 71556 71559 71562 71565 71568 71571 71574 71577 71580 71583 71586 71589 71592 71595 71598 71601 71604 71607 71610 71613 71616 71619 71622 71625 71628 71631 71634 71637 71640 71643 71646 71649 71652 71655 71658 71661 71664 71667 71670 71673 71676 71679 71682 71685 71688 71691 71694 71697 71700 71703 71706 71709 71712 71715 71718 71721 71724 71727 71730 71733 71736 71739 71742 71745 71748 71751 71754 71757 71760 71763 71766 71769 71772 71775 71778 71781 71784 71787 71790 71793 71796 71799 71802 71805 71808 71811 71814 71817 71820 71823 71826 71829 71832 71835 71838 71841 71844 71847 71850 71853 71856 71859 71862 71865 71868 71871 71874 71877 71880 71883 71886 71889 71892 71895 71898 71901 71904 71907 71910 71913 71916 71919 71922 71925 71928 71931 71934 71937 71940 71943 71946 71949 71952 71955 71958 71961 71964 71967 71970 71973 71976 71979 71982 71985 71988 71991 71994 71997 72000 72003 72006 72009 72012 72015 72018 72021 72024 72027 72030 72033 72036 72039 72042 72045 72048 72051 72054 72057 72060 72063 72066 72069 72072 72075 72078 72081 72084 72087 72090 72093 72096 72099 72102 72105 72108 72111 72114 72117 72120 72123 72126 72129 72132 72135 72138 72141 72144 72147 72150 72153 72156 72159 72162 72165 72168 72171 72174 72177 72180 72183 72186 72189 72192 72195 72198 72201 72204 72207 72210 72213 72216 72219 72222 72225 72228 72231 72234 72237 72240 72243 72246 72249 72252 72255 72258 72261 72264 72267 72270 72273 72276 72279 72282 72285 72288 72291 72294 72297 72300 72303 72306 72309 72312 72315 72318 72321 72324 72327 72330 72333 72336 72339 72342 72345 72348 72351 72354 72357 72360 72363 72366 72369 72372 72375 72378 72381 72384 72387 72390 72393 72396 72399 72402 72405 72408 72411 72414 72417 72420 72423 72426 72429 72432 72435 72438 72441 72444 72447 72450 72453 72456 72459 72462 72465 72468 72471 72474 72477 72480 72483 72486 72489 72492 72495 72498 72501 72504 72507 72510 72513 72516 72519 72522 72525 72528 72531 72534 72537 72540 72543 72546 72549 72552 72555 72558 72561 72564 72567 72570 72573 72576 72579 72582 72585 72588 72591 72594 72597 72600 72603 72606 72609 72612 72615 72618 72621 72624 72627 72630 72633 72636 72639 72642 72645 72648 72651 72654 72657 72660 72663 72666 72669 72672 72675 72678 72681 72684 72687 72690 72693 72696 72699 72702 72705 72708 72711 72714 72717 72720 72723 72726 72729 72732 72735 72738 72741 72744 72747 72750 72753 72756 72759 72762 72765 72768 72771 72774 72777 72780 72783 72786 72789 72792 72795 72798 72801 72804 72807 72810 72813 72816 72819 72822 72825 72828 72831 72834 72837 72840 72843 72846 72849 72852 72855 72858 72861 72864 72867 72870 72873 72876 72879 72882 72885 72888 72891 72894 72897 72900 72903 72906 72909 72912 72915 72918 72921 72924 72927 72930 72933 72936 72939 72942 72945 72948 72951 72954 72957 72960 72963 72966 72969 72972 72975 72978 72981 72984 72987 72990 72993 72996 72999 73002 73005 73008 73011 73014 73017 73020 73023 73026 73029 73032 73035 73038 73041 73044 73047 73050 73053 73056 73059 73062 73065 73068 73071 73074 73077 73080 73083 73086 73089 73092 73095 73098 73101 73104 73107 73110 73113 73116 73119 73122 73125 73128 73131 73134 73137 73140 73143 73146 73149 73152 73155 73158 73161 73164 73167 73170 73173 73176 73179 73182 73185 73188 73191 73194 73197 73200 73203 73206 73209 73212 73215 73218 73221 73224 73227 73230 73233 73236 73239 73242 73245 73248 73251 73254 73257 73260 73263 73266 73269 73272 73275 73278 73281 73284 73287 73290 73293 73296 73299 73302 73305 73308 73311 73314 73317 73320 73323 73326 73329 73332 73335 73338 73341 73344 73347 73350 73353 73356 73359 73362 73365 73368 73371 73374 73377 73380 73383 73386 73389 73392 73395 73398 73401 73404 73407 73410 73413 73416 73419 73422 73425 73428 73431 73434 73437 73440 73443 73446 73449 73452 73455 73458 73461 73464 73467 73470 73473 73476 73479 73482 73485 73488 73491 73494 73497 73500 73503 73506 73509 73512 73515 73518 73521 73524 73527 73530 73533 73536 73539 73542 73545 73548 73551 73554 73557 73560 73563 73566 73569 73572 73575 73578 73581 73584 73587 73590 73593 73596 73599 73602 73605 73608 73611 73614 73617 73620 73623 73626 73629 73632 73635 73638 73641 73644 73647 73650 73653 73656 73659 73662 73665 73668 73671 73674 73677 73680 73683 73686 73689 73692 73695 73698 73701 73704 73707 73710 73713 73716 73719 73722 73725 73728 73731 73734 73737 73740 73743 73746 73749 73752 73755 73758 73761 73764 73767 73770 73773 73776 73779 73782 73785 73788 73791 73794 73797 73800 73803 73806 73809 73812 73815 73818 73821 73824 73827 73830 73833 73836 73839 73842 73845 73848 73851 73854 73857 73860 73863 73866 73869 73872 73875 73878 73881 73884 73887 73890 73893 73896 73899 73902 73905 73908 73911 73914 73917 73920 73923 73926 73929 73932 73935 73938 73941 73944 73947 73950 73953 73956 73959 73962 73965 73968 73971 73974 73977 73980 73983 73986 73989 73992 73995 73998 74001 74004 74007 74010 74013 74016 74019 74022 74025 74028 74031 74034 74037 74040 74043 74046 74049 74052 74055 74058 74061 74064 74067 74070 74073 74076 74079 74082 74085 74088 74091 74094 74097 74100 74103 74106 74109 74112 74115 74118 74121 74124 74127 74130 74133 74136 74139 74142 74145 74148 74151 74154 74157 74160 74163 74166 74169 74172 74175 74178 74181 74184 74187 74190 74193 74196 74199 74202 74205 74208 74211 74214 74217 74220 74223 74226 74229 74232 74235 74238 74241 74244 74247 74250 74253 74256 74259 74262 74265 74268 74271 74274 74277 74280 74283 74286 74289 74292 74295 74298 74301 74304 74307 74310 74313 74316 74319 74322 74325 74328 74331 74334 74337 74340 74343 74346 74349 74352 74355 74358 74361 74364 74367 74370 74373 74376 74379 74382 74385 74388 74391 74394 74397 74400 74403 74406 74409 74412 74415 74418 74421 74424 74427 74430 74433 74436 74439 74442 74445 74448 74451 74454 74457 74460 74463 74466 74469 74472 74475 74478 74481 74484 74487 74490 74493 74496 74499 74502 74505 74508 74511 74514 74517 74520 74523 74526 74529 74532 74535 74538 74541 74544 74547 74550 74553 74556 74559 74562 74565 74568 74571 74574 74577 74580 74583 74586 74589 74592 74595 74598 74601 74604 74607 74610 74613 74616 74619 74622 74625 74628 74631 74634 74637 74640 74643 74646 74649 74652 74655 74658 74661 74664 74667 74670 74673 74676 74679 74682 74685 74688 74691 74694 74697 74700 74703 74706 74709 74712 74715 74718 74721 74724 74727 74730 74733 74736 74739 74742 74745 74748 74751 74754 74757 74760 74763 74766 74769 74772 74775 74778 74781 74784 74787 74790 74793 74796 74799 74802 74805 74808 74811 74814 74817 74820 74823 74826 74829 74832 74835 74838 74841 74844 74847 74850 74853 74856 74859 74862 74865 74868 74871 74874 74877 74880 74883 74886 74889 74892 74895 74898 74901 74904 74907 74910 74913 74916 74919 74922 74925 74928 74931 74934 74937 74940 74943 74946 74949 74952 74955 74958 74961 74964 74967 74970 74973 74976 74979 74982 74985 74988 74991 74994 74997 75000 75003 75006 75009 75012 75015 75018 75021 75024 75027 75030 75033 75036 75039 75042 75045 75048 75051 75054 75057 75060 75063 75066 75069 75072 75075 75078 75081 75084 75087 75090 75093 75096 75099 75102 75105 75108 75111 75114 75117 75120 75123 75126 75129 75132 75135 75138 75141 75144 75147 75150 75153 75156 75159 75162 75165 75168 75171 75174 75177 75180 75183 75186 75189 75192 75195 75198 75201 75204 75207 75210 75213 75216 75219 75222 75225 75228 75231 75234 75237 75240 75243 75246 75249 75252 75255 75258 75261 75264 75267 75270 75273 75276 75279 75282 75285 75288 75291 75294 75297 75300 75303 75306 75309 75312 75315 75318 75321 75324 75327 75330 75333 75336 75339 75342 75345 75348 75351 75354 75357 75360 75363 75366 75369 75372 75375 75378 75381 75384 75387 75390 75393 75396 75399 75402 75405 75408 75411 75414 75417 75420 75423 75426 75429 75432 75435 75438 75441 75444 75447 75450 75453 75456 75459 75462 75465 75468 75471 75474 75477 75480 75483 75486 75489 75492 75495 75498 75501 75504 75507 75510 75513 75516 75519 75522 75525 75528 75531 75534 75537 75540 75543 75546 75549 75552 75555 75558 75561 75564 75567 75570 75573 75576 75579 75582 75585 75588 75591 75594 75597 75600 75603 75606 75609 75612 75615 75618 75621 75624 75627 75630 75633 75636 75639 75642 75645 75648 75651 75654 75657 75660 75663 75666 75669 75672 75675 75678 75681 75684 75687 75690 75693 75696 75699 75702 75705 75708 75711 75714 75717 75720 75723 75726 75729 75732 75735 75738 75741 75744 75747 75750 75753 75756 75759 75762 75765 75768 75771 75774 75777 75780 75783 75786 75789 75792 75795 75798 75801 75804 75807 75810 75813 75816 75819 75822 75825 75828 75831 75834 75837 75840 75843 75846 75849 75852 75855 75858 75861 75864 75867 75870 75873 75876 75879 75882 75885 75888 75891 75894 75897 75900 75903 75906 75909 75912 75915 75918 75921 75924 75927 75930 75933 75936 75939 75942 75945 75948 75951 75954 75957 75960 75963 75966 75969 75972 75975 75978 75981 75984 75987 75990 75993 75996 75999 76002 76005 76008 76011 76014 76017 76020 76023 76026 76029 76032 76035 76038 76041 76044 76047 76050 76053 76056 76059 76062 76065 76068 76071 76074 76077 76080 76083 76086 76089 76092 76095 76098 76101 76104 76107 76110 76113 76116 76119 76122 76125 76128 76131 76134 76137 76140 76143 76146 76149 76152 76155 76158 76161 76164 76167 76170 76173 76176 76179 76182 76185 76188 76191 76194 76197 76200 76203 76206 76209 76212 76215 76218 76221 76224 76227 76230 76233 76236 76239 76242 76245 76248 76251 76254 76257 76260 76263 76266 76269 76272 76275 76278 76281 76284 76287 76290 76293 76296 76299 76302 76305 76308 76311 76314 76317 76320 76323 76326 76329 76332 76335 76338 76341 76344 76347 76350 76353 76356 76359 76362 76365 76368 76371 76374 76377 76380 76383 76386 76389 76392 76395 76398 76401 76404 76407 76410 76413 76416 76419 76422 76425 76428 76431 76434 76437 76440 76443 76446 76449 76452 76455 76458 76461 76464 76467 76470 76473 76476 76479 76482 76485 76488 76491 76494 76497 76500 76503 76506 76509 76512 76515 76518 76521 76524 76527 76530 76533 76536 76539 76542 76545 76548 76551 76554 76557 76560 76563 76566 76569 76572 76575 76578 76581 76584 76587 76590 76593 76596 76599 76602 76605 76608 76611 76614 76617 76620 76623 76626 76629 76632 76635 76638 76641 76644 76647 76650 76653 76656 76659 76662 76665 76668 76671 76674 76677 76680 76683 76686 76689 76692 76695 76698 76701 76704 76707 76710 76713 76716 76719 76722 76725 76728 76731 76734 76737 76740 76743 76746 76749 76752 76755 76758 76761 76764 76767 76770 76773 76776 76779 76782 76785 76788 76791 76794 76797 76800 76803 76806 76809 76812 76815 76818 76821 76824 76827 76830 76833 76836 76839 76842 76845 76848 76851 76854 76857 76860 76863 76866 76869 76872 76875 76878 76881 76884 76887 76890 76893 76896 76899 76902 76905 76908 76911 76914 76917 76920 76923 76926 76929 76932 76935 76938 76941 76944 76947 76950 76953 76956 76959 76962 76965 76968 76971 76974 76977 76980 76983 76986 76989 76992 76995 76998 77001 77004 77007 77010 77013 77016 77019 77022 77025 77028 77031 77034 77037 77040 77043 77046 77049 77052 77055 77058 77061 77064 77067 77070 77073 77076 77079 77082 77085 77088 77091 77094 77097 77100 77103 77106 77109 77112 77115 77118 77121 77124 77127 77130 77133 77136 77139 77142 77145 77148 77151 77154 77157 77160 77163 77166 77169 77172 77175 77178 77181 77184 77187 77190 77193 77196 77199 77202 77205 77208 77211 77214 77217 77220 77223 77226 77229 77232 77235 77238 77241 77244 77247 77250 77253 77256 77259 77262 77265 77268 77271 77274 77277 77280 77283 77286 77289 77292 77295 77298 77301 77304 77307 77310 77313 77316 77319 77322 77325 77328 77331 77334 77337 77340 77343 77346 77349 77352 77355 77358 77361 77364 77367 77370 77373 77376 77379 77382 77385 77388 77391 77394 77397 77400 77403 77406 77409 77412 77415 77418 77421 77424 77427 77430 77433 77436 77439 77442 77445 77448 77451 77454 77457 77460 77463 77466 77469 77472 77475 77478 77481 77484 77487 77490 77493 77496 77499 77502 77505 77508 77511 77514 77517 77520 77523 77526 77529 77532 77535 77538 77541 77544 77547 77550 77553 77556 77559 77562 77565 77568 77571 77574 77577 77580 77583 77586 77589 77592 77595 77598 77601 77604 77607 77610 77613 77616 77619 77622 77625 77628 77631 77634 77637 77640 77643 77646 77649 77652 77655 77658 77661 77664 77667 77670 77673 77676 77679 77682 77685 77688 77691 77694 77697 77700 77703 77706 77709 77712 77715 77718 77721 77724 77727 77730 77733 77736 77739 77742 77745 77748 77751 77754 77757 77760 77763 77766 77769 77772 77775 77778 77781 77784 77787 77790 77793 77796 77799 77802 77805 77808 77811 77814 77817 77820 77823 77826 77829 77832 77835 77838 77841 77844 77847 77850 77853 77856 77859 77862 77865 77868 77871 77874 77877 77880 77883 77886 77889 77892 77895 77898 77901 77904 77907 77910 77913 77916 77919 77922 77925 77928 77931 77934 77937 77940 77943 77946 77949 77952 77955 77958 77961 77964 77967 77970 77973 77976 77979 77982 77985 77988 77991 77994 77997 78000 78003 78006 78009 78012 78015 78018 78021 78024 78027 78030 78033 78036 78039 78042 78045 78048 78051 78054 78057 78060 78063 78066 78069 78072 78075 78078 78081 78084 78087 78090 78093 78096 78099 78102 78105 78108 78111 78114 78117 78120 78123 78126 78129 78132 78135 78138 78141 78144 78147 78150 78153 78156 78159 78162 78165 78168 78171 78174 78177 78180 78183 78186 78189 78192 78195 78198 78201 78204 78207 78210 78213 78216 78219 78222 78225 78228 78231 78234 78237 78240 78243 78246 78249 78252 78255 78258 78261 78264 78267 78270 78273 78276 78279 78282 78285 78288 78291 78294 78297 78300 78303 78306 78309 78312 78315 78318 78321 78324 78327 78330 78333 78336 78339 78342 78345 78348 78351 78354 78357 78360 78363 78366 78369 78372 78375 78378 78381 78384 78387 78390 78393 78396 78399 78402 78405 78408 78411 78414 78417 78420 78423 78426 78429 78432 78435 78438 78441 78444 78447 78450 78453 78456 78459 78462 78465 78468 78471 78474 78477 78480 78483 78486 78489 78492 78495 78498 78501 78504 78507 78510 78513 78516 78519 78522 78525 78528 78531 78534 78537 78540 78543 78546 78549 78552 78555 78558 78561 78564 78567 78570 78573 78576 78579 78582 78585 78588 78591 78594 78597 78600 78603 78606 78609 78612 78615 78618 78621 78624 78627 78630 78633 78636 78639 78642 78645 78648 78651 78654 78657 78660 78663 78666 78669 78672 78675 78678 78681 78684 78687 78690 78693 78696 78699 78702 78705 78708 78711 78714 78717 78720 78723 78726 78729 78732 78735 78738 78741 78744 78747 78750 78753 78756 78759 78762 78765 78768 78771 78774 78777 78780 78783 78786 78789 78792 78795 78798 78801 78804 78807 78810 78813 78816 78819 78822 78825 78828 78831 78834 78837 78840 78843 78846 78849 78852 78855 78858 78861 78864 78867 78870 78873 78876 78879 78882 78885 78888 78891 78894 78897 78900 78903 78906 78909 78912 78915 78918 78921 78924 78927 78930 78933 78936 78939 78942 78945 78948 78951 78954 78957 78960 78963 78966 78969 78972 78975 78978 78981 78984 78987 78990 78993 78996 78999 79002 79005 79008 79011 79014 79017 79020 79023 79026 79029 79032 79035 79038 79041 79044 79047 79050 79053 79056 79059 79062 79065 79068 79071 79074 79077 79080 79083 79086 79089 79092 79095 79098 79101 79104 79107 79110 79113 79116 79119 79122 79125 79128 79131 79134 79137 79140 79143 79146 79149 79152 79155 79158 79161 79164 79167 79170 79173 79176 79179 79182 79185 79188 79191 79194 79197 79200 79203 79206 79209 79212 79215 79218 79221 79224 79227 79230 79233 79236 79239 79242 79245 79248 79251 79254 79257 79260 79263 79266 79269 79272 79275 79278 79281 79284 79287 79290 79293 79296 79299 79302 79305 79308 79311 79314 79317 79320 79323 79326 79329 79332 79335 79338 79341 79344 79347 79350 79353 79356 79359 79362 79365 79368 79371 79374 79377 79380 79383 79386 79389 79392 79395 79398 79401 79404 79407 79410 79413 79416 79419 79422 79425 79428 79431 79434 79437 79440 79443 79446 79449 79452 79455 79458 79461 79464 79467 79470 79473 79476 79479 79482 79485 79488 79491 79494 79497 79500 79503 79506 79509 79512 79515 79518 79521 79524 79527 79530 79533 79536 79539 79542 79545 79548 79551 79554 79557 79560 79563 79566 79569 79572 79575 79578 79581 79584 79587 79590 79593 79596 79599 79602 79605 79608 79611 79614 79617 79620 79623 79626 79629 79632 79635 79638 79641 79644 79647 79650 79653 79656 79659 79662 79665 79668 79671 79674 79677 79680 79683 79686 79689 79692 79695 79698 79701 79704 79707 79710 79713 79716 79719 79722 79725 79728 79731 79734 79737 79740 79743 79746 79749 79752 79755 79758 79761 79764 79767 79770 79773 79776 79779 79782 79785 79788 79791 79794 79797 79800 79803 79806 79809 79812 79815 79818 79821 79824 79827 79830 79833 79836 79839 79842 79845 79848 79851 79854 79857 79860 79863 79866 79869 79872 79875 79878 79881 79884 79887 79890 79893 79896 79899 79902 79905 79908 79911 79914 79917 79920 79923 79926 79929 79932 79935 79938 79941 79944 79947 79950 79953 79956 79959 79962 79965 79968 79971 79974 79977 79980 79983 79986 79989 79992 79995 79998 80001 80004 80007 80010 80013 80016 80019 80022 80025 80028 80031 80034 80037 80040 80043 80046 80049 80052 80055 80058 80061 80064 80067 80070 80073 80076 80079 80082 80085 80088 80091 80094 80097 80100 80103 80106 80109 80112 80115 80118 80121 80124 80127 80130 80133 80136 80139 80142 80145 80148 80151 80154 80157 80160 80163 80166 80169 80172 80175 80178 80181 80184 80187 80190 80193 80196 80199 80202 80205 80208 80211 80214 80217 80220 80223 80226 80229 80232 80235 80238 80241 80244 80247 80250 80253 80256 80259 80262 80265 80268 80271 80274 80277 80280 80283 80286 80289 80292 80295 80298 80301 80304 80307 80310 80313 80316 80319 80322 80325 80328 80331 80334 80337 80340 80343 80346 80349 80352 80355 80358 80361 80364 80367 80370 80373 80376 80379 80382 80385 80388 80391 80394 80397 80400 80403 80406 80409 80412 80415 80418 80421 80424 80427 80430 80433 80436 80439 80442 80445 80448 80451 80454 80457 80460 80463 80466 80469 80472 80475 80478 80481 80484 80487 80490 80493 80496 80499 80502 80505 80508 80511 80514 80517 80520 80523 80526 80529 80532 80535 80538 80541 80544 80547 80550 80553 80556 80559 80562 80565 80568 80571 80574 80577 80580 80583 80586 80589 80592 80595 80598 80601 80604 80607 80610 80613 80616 80619 80622 80625 80628 80631 80634 80637 80640 80643 80646 80649 80652 80655 80658 80661 80664 80667 80670 80673 80676 80679 80682 80685 80688 80691 80694 80697 80700 80703 80706 80709 80712 80715 80718 80721 80724 80727 80730 80733 80736 80739 80742 80745 80748 80751 80754 80757 80760 80763 80766 80769 80772 80775 80778 80781 80784 80787 80790 80793 80796 80799 80802 80805 80808 80811 80814 80817 80820 80823 80826 80829 80832 80835 80838 80841 80844 80847 80850 80853 80856 80859 80862 80865 80868 80871 80874 80877 80880 80883 80886 80889 80892 80895 80898 80901 80904 80907 80910 80913 80916 80919 80922 80925 80928 80931 80934 80937 80940 80943 80946 80949 80952 80955 80958 80961 80964 80967 80970 80973 80976 80979 80982 80985 80988 80991 80994 80997 81000 81003 81006 81009 81012 81015 81018 81021 81024 81027 81030 81033 81036 81039 81042 81045 81048 81051 81054 81057 81060 81063 81066 81069 81072 81075 81078 81081 81084 81087 81090 81093 81096 81099 81102 81105 81108 81111 81114 81117 81120 81123 81126 81129 81132 81135 81138 81141 81144 81147 81150 81153 81156 81159 81162 81165 81168 81171 81174 81177 81180 81183 81186 81189 81192 81195 81198 81201 81204 81207 81210 81213 81216 81219 81222 81225 81228 81231 81234 81237 81240 81243 81246 81249 81252 81255 81258 81261 81264 81267 81270 81273 81276 81279 81282 81285 81288 81291 81294 81297 81300 81303 81306 81309 81312 81315 81318 81321 81324 81327 81330 81333 81336 81339 81342 81345 81348 81351 81354 81357 81360 81363 81366 81369 81372 81375 81378 81381 81384 81387 81390 81393 81396 81399 81402 81405 81408 81411 81414 81417 81420 81423 81426 81429 81432 81435 81438 81441 81444 81447 81450 81453 81456 81459 81462 81465 81468 81471 81474 81477 81480 81483 81486 81489 81492 81495 81498 81501 81504 81507 81510 81513 81516 81519 81522 81525 81528 81531 81534 81537 81540 81543 81546 81549 81552 81555 81558 81561 81564 81567 81570 81573 81576 81579 81582 81585 81588 81591 81594 81597 81600 81603 81606 81609 81612 81615 81618 81621 81624 81627 81630 81633 81636 81639 81642 81645 81648 81651 81654 81657 81660 81663 81666 81669 81672 81675 81678 81681 81684 81687 81690 81693 81696 81699 81702 81705 81708 81711 81714 81717 81720 81723 81726 81729 81732 81735 81738 81741 81744 81747 81750 81753 81756 81759 81762 81765 81768 81771 81774 81777 81780 81783 81786 81789 81792 81795 81798 81801 81804 81807 81810 81813 81816 81819 81822 81825 81828 81831 81834 81837 81840 81843 81846 81849 81852 81855 81858 81861 81864 81867 81870 81873 81876 81879 81882 81885 81888 81891 81894 81897 81900 81903 81906 81909 81912 81915 81918 81921 81924 81927 81930 81933 81936 81939 81942 81945 81948 81951 81954 81957 81960 81963 81966 81969 81972 81975 81978 81981 81984 81987 81990 81993 81996 81999 82002 82005 82008 82011 82014 82017 82020 82023 82026 82029 82032 82035 82038 82041 82044 82047 82050 82053 82056 82059 82062 82065 82068 82071 82074 82077 82080 82083 82086 82089 82092 82095 82098 82101 82104 82107 82110 82113 82116 82119 82122 82125 82128 82131 82134 82137 82140 82143 82146 82149 82152 82155 82158 82161 82164 82167 82170 82173 82176 82179 82182 82185 82188 82191 82194 82197 82200 82203 82206 82209 82212 82215 82218 82221 82224 82227 82230 82233 82236 82239 82242 82245 82248 82251 82254 82257 82260 82263 82266 82269 82272 82275 82278 82281 82284 82287 82290 82293 82296 82299 82302 82305 82308 82311 82314 82317 82320 82323 82326 82329 82332 82335 82338 82341 82344 82347 82350 82353 82356 82359 82362 82365 82368 82371 82374 82377 82380 82383 82386 82389 82392 82395 82398 82401 82404 82407 82410 82413 82416 82419 82422 82425 82428 82431 82434 82437 82440 82443 82446 82449 82452 82455 82458 82461 82464 82467 82470 82473 82476 82479 82482 82485 82488 82491 82494 82497 82500 82503 82506 82509 82512 82515 82518 82521 82524 82527 82530 82533 82536 82539 82542 82545 82548 82551 82554 82557 82560 82563 82566 82569 82572 82575 82578 82581 82584 82587 82590 82593 82596 82599 82602 82605 82608 82611 82614 82617 82620 82623 82626 82629 82632 82635 82638 82641 82644 82647 82650 82653 82656 82659 82662 82665 82668 82671 82674 82677 82680 82683 82686 82689 82692 82695 82698 82701 82704 82707 82710 82713 82716 82719 82722 82725 82728 82731 82734 82737 82740 82743 82746 82749 82752 82755 82758 82761 82764 82767 82770 82773 82776 82779 82782 82785 82788 82791 82794 82797 82800 82803 82806 82809 82812 82815 82818 82821 82824 82827 82830 82833 82836 82839 82842 82845 82848 82851 82854 82857 82860 82863 82866 82869 82872 82875 82878 82881 82884 82887 82890 82893 82896 82899 82902 82905 82908 82911 82914 82917 82920 82923 82926 82929 82932 82935 82938 82941 82944 82947 82950 82953 82956 82959 82962 82965 82968 82971 82974 82977 82980 82983 82986 82989 82992 82995 82998 83001 83004 83007 83010 83013 83016 83019 83022 83025 83028 83031 83034 83037 83040 83043 83046 83049 83052 83055 83058 83061 83064 83067 83070 83073 83076 83079 83082 83085 83088 83091 83094 83097 83100 83103 83106 83109 83112 83115 83118 83121 83124 83127 83130 83133 83136 83139 83142 83145 83148 83151 83154 83157 83160 83163 83166 83169 83172 83175 83178 83181 83184 83187 83190 83193 83196 83199 83202 83205 83208 83211 83214 83217 83220 83223 83226 83229 83232 83235 83238 83241 83244 83247 83250 83253 83256 83259 83262 83265 83268 83271 83274 83277 83280 83283 83286 83289 83292 83295 83298 83301 83304 83307 83310 83313 83316 83319 83322 83325 83328 83331 83334 83337 83340 83343 83346 83349 83352 83355 83358 83361 83364 83367 83370 83373 83376 83379 83382 83385 83388 83391 83394 83397 83400 83403 83406 83409 83412 83415 83418 83421 83424 83427 83430 83433 83436 83439 83442 83445 83448 83451 83454 83457 83460 83463 83466 83469 83472 83475 83478 83481 83484 83487 83490 83493 83496 83499 83502 83505 83508 83511 83514 83517 83520 83523 83526 83529 83532 83535 83538 83541 83544 83547 83550 83553 83556 83559 83562 83565 83568 83571 83574 83577 83580 83583 83586 83589 83592 83595 83598 83601 83604 83607 83610 83613 83616 83619 83622 83625 83628 83631 83634 83637 83640 83643 83646 83649 83652 83655 83658 83661 83664 83667 83670 83673 83676 83679 83682 83685 83688 83691 83694 83697 83700 83703 83706 83709 83712 83715 83718 83721 83724 83727 83730 83733 83736 83739 83742 83745 83748 83751 83754 83757 83760 83763 83766 83769 83772 83775 83778 83781 83784 83787 83790 83793 83796 83799 83802 83805 83808 83811 83814 83817 83820 83823 83826 83829 83832 83835 83838 83841 83844 83847 83850 83853 83856 83859 83862 83865 83868 83871 83874 83877 83880 83883 83886 83889 83892 83895 83898 83901 83904 83907 83910 83913 83916 83919 83922 83925 83928 83931 83934 83937 83940 83943 83946 83949 83952 83955 83958 83961 83964 83967 83970 83973 83976 83979 83982 83985 83988 83991 83994 83997 84000 84003 84006 84009 84012 84015 84018 84021 84024 84027 84030 84033 84036 84039 84042 84045 84048 84051 84054 84057 84060 84063 84066 84069 84072 84075 84078 84081 84084 84087 84090 84093 84096 84099 84102 84105 84108 84111 84114 84117 84120 84123 84126 84129 84132 84135 84138 84141 84144 84147 84150 84153 84156 84159 84162 84165 84168 84171 84174 84177 84180 84183 84186 84189 84192 84195 84198 84201 84204 84207 84210 84213 84216 84219 84222 84225 84228 84231 84234 84237 84240 84243 84246 84249 84252 84255 84258 84261 84264 84267 84270 84273 84276 84279 84282 84285 84288 84291 84294 84297 84300 84303 84306 84309 84312 84315 84318 84321 84324 84327 84330 84333 84336 84339 84342 84345 84348 84351 84354 84357 84360 84363 84366 84369 84372 84375 84378 84381 84384 84387 84390 84393 84396 84399 84402 84405 84408 84411 84414 84417 84420 84423 84426 84429 84432 84435 84438 84441 84444 84447 84450 84453 84456 84459 84462 84465 84468 84471 84474 84477 84480 84483 84486 84489 84492 84495 84498 84501 84504 84507 84510 84513 84516 84519 84522 84525 84528 84531 84534 84537 84540 84543 84546 84549 84552 84555 84558 84561 84564 84567 84570 84573 84576 84579 84582 84585 84588 84591 84594 84597 84600 84603 84606 84609 84612 84615 84618 84621 84624 84627 84630 84633 84636 84639 84642 84645 84648 84651 84654 84657 84660 84663 84666 84669 84672 84675 84678 84681 84684 84687 84690 84693 84696 84699 84702 84705 84708 84711 84714 84717 84720 84723 84726 84729 84732 84735 84738 84741 84744 84747 84750 84753 84756 84759 84762 84765 84768 84771 84774 84777 84780 84783 84786 84789 84792 84795 84798 84801 84804 84807 84810 84813 84816 84819 84822 84825 84828 84831 84834 84837 84840 84843 84846 84849 84852 84855 84858 84861 84864 84867 84870 84873 84876 84879 84882 84885 84888 84891 84894 84897 84900 84903 84906 84909 84912 84915 84918 84921 84924 84927 84930 84933 84936 84939 84942 84945 84948 84951 84954 84957 84960 84963 84966 84969 84972 84975 84978 84981 84984 84987 84990 84993 84996 84999 85002 85005 85008 85011 85014 85017 85020 85023 85026 85029 85032 85035 85038 85041 85044 85047 85050 85053 85056 85059 85062 85065 85068 85071 85074 85077 85080 85083 85086 85089 85092 85095 85098 85101 85104 85107 85110 85113 85116 85119 85122 85125 85128 85131 85134 85137 85140 85143 85146 85149 85152 85155 85158 85161 85164 85167 85170 85173 85176 85179 85182 85185 85188 85191 85194 85197 85200 85203 85206 85209 85212 85215 85218 85221 85224 85227 85230 85233 85236 85239 85242 85245 85248 85251 85254 85257 85260 85263 85266 85269 85272 85275 85278 85281 85284 85287 85290 85293 85296 85299 85302 85305 85308 85311 85314 85317 85320 85323 85326 85329 85332 85335 85338 85341 85344 85347 85350 85353 85356 85359 85362 85365 85368 85371 85374 85377 85380 85383 85386 85389 85392 85395 85398 85401 85404 85407 85410 85413 85416 85419 85422 85425 85428 85431 85434 85437 85440 85443 85446 85449 85452 85455 85458 85461 85464 85467 85470 85473 85476 85479 85482 85485 85488 85491 85494 85497 85500 85503 85506 85509 85512 85515 85518 85521 85524 85527 85530 85533 85536 85539 85542 85545 85548 85551 85554 85557 85560 85563 85566 85569 85572 85575 85578 85581 85584 85587 85590 85593 85596 85599 85602 85605 85608 85611 85614 85617 85620 85623 85626 85629 85632 85635 85638 85641 85644 85647 85650 85653 85656 85659 85662 85665 85668 85671 85674 85677 85680 85683 85686 85689 85692 85695 85698 85701 85704 85707 85710 85713 85716 85719 85722 85725 85728 85731 85734 85737 85740 85743 85746 85749 85752 85755 85758 85761 85764 85767 85770 85773 85776 85779 85782 85785 85788 85791 85794 85797 85800 85803 85806 85809 85812 85815 85818 85821 85824 85827 85830 85833 85836 85839 85842 85845 85848 85851 85854 85857 85860 85863 85866 85869 85872 85875 85878 85881 85884 85887 85890 85893 85896 85899 85902 85905 85908 85911 85914 85917 85920 85923 85926 85929 85932 85935 85938 85941 85944 85947 85950 85953 85956 85959 85962 85965 85968 85971 85974 85977 85980 85983 85986 85989 85992 85995 85998 86001 86004 86007 86010 86013 86016 86019 86022 86025 86028 86031 86034 86037 86040 86043 86046 86049 86052 86055 86058 86061 86064 86067 86070 86073 86076 86079 86082 86085 86088 86091 86094 86097 86100 86103 86106 86109 86112 86115 86118 86121 86124 86127 86130 86133 86136 86139 86142 86145 86148 86151 86154 86157 86160 86163 86166 86169 86172 86175 86178 86181 86184 86187 86190 86193 86196 86199 86202 86205 86208 86211 86214 86217 86220 86223 86226 86229 86232 86235 86238 86241 86244 86247 86250 86253 86256 86259 86262 86265 86268 86271 86274 86277 86280 86283 86286 86289 86292 86295 86298 86301 86304 86307 86310 86313 86316 86319 86322 86325 86328 86331 86334 86337 86340 86343 86346 86349 86352 86355 86358 86361 86364 86367 86370 86373 86376 86379 86382 86385 86388 86391 86394 86397 86400 86403 86406 86409 86412 86415 86418 86421 86424 86427 86430 86433 86436 86439 86442 86445 86448 86451 86454 86457 86460 86463 86466 86469 86472 86475 86478 86481 86484 86487 86490 86493 86496 86499 86502 86505 86508 86511 86514 86517 86520 86523 86526 86529 86532 86535 86538 86541 86544 86547 86550 86553 86556 86559 86562 86565 86568 86571 86574 86577 86580 86583 86586 86589 86592 86595 86598 86601 86604 86607 86610 86613 86616 86619 86622 86625 86628 86631 86634 86637 86640 86643 86646 86649 86652 86655 86658 86661 86664 86667 86670 86673 86676 86679 86682 86685 86688 86691 86694 86697 86700 86703 86706 86709 86712 86715 86718 86721 86724 86727 86730 86733 86736 86739 86742 86745 86748 86751 86754 86757 86760 86763 86766 86769 86772 86775 86778 86781 86784 86787 86790 86793 86796 86799 86802 86805 86808 86811 86814 86817 86820 86823 86826 86829 86832 86835 86838 86841 86844 86847 86850 86853 86856 86859 86862 86865 86868 86871 86874 86877 86880 86883 86886 86889 86892 86895 86898 86901 86904 86907 86910 86913 86916 86919 86922 86925 86928 86931 86934 86937 86940 86943 86946 86949 86952 86955 86958 86961 86964 86967 86970 86973 86976 86979 86982 86985 86988 86991 86994 86997 87000 87003 87006 87009 87012 87015 87018 87021 87024 87027 87030 87033 87036 87039 87042 87045 87048 87051 87054 87057 87060 87063 87066 87069 87072 87075 87078 87081 87084 87087 87090 87093 87096 87099 87102 87105 87108 87111 87114 87117 87120 87123 87126 87129 87132 87135 87138 87141 87144 87147 87150 87153 87156 87159 87162 87165 87168 87171 87174 87177 87180 87183 87186 87189 87192 87195 87198 87201 87204 87207 87210 87213 87216 87219 87222 87225 87228 87231 87234 87237 87240 87243 87246 87249 87252 87255 87258 87261 87264 87267 87270 87273 87276 87279 87282 87285 87288 87291 87294 87297 87300 87303 87306 87309 87312 87315 87318 87321 87324 87327 87330 87333 87336 87339 87342 87345 87348 87351 87354 87357 87360 87363 87366 87369 87372 87375 87378 87381 87384 87387 87390 87393 87396 87399 87402 87405 87408 87411 87414 87417 87420 87423 87426 87429 87432 87435 87438 87441 87444 87447 87450 87453 87456 87459 87462 87465 87468 87471 87474 87477 87480 87483 87486 87489 87492 87495 87498 87501 87504 87507 87510 87513 87516 87519 87522 87525 87528 87531 87534 87537 87540 87543 87546 87549 87552 87555 87558 87561 87564 87567 87570 87573 87576 87579 87582 87585 87588 87591 87594 87597 87600 87603 87606 87609 87612 87615 87618 87621 87624 87627 87630 87633 87636 87639 87642 87645 87648 87651 87654 87657 87660 87663 87666 87669 87672 87675 87678 87681 87684 87687 87690 87693 87696 87699 87702 87705 87708 87711 87714 87717 87720 87723 87726 87729 87732 87735 87738 87741 87744 87747 87750 87753 87756 87759 87762 87765 87768 87771 87774 87777 87780 87783 87786 87789 87792 87795 87798 87801 87804 87807 87810 87813 87816 87819 87822 87825 87828 87831 87834 87837 87840 87843 87846 87849 87852 87855 87858 87861 87864 87867 87870 87873 87876 87879 87882 87885 87888 87891 87894 87897 87900 87903 87906 87909 87912 87915 87918 87921 87924 87927 87930 87933 87936 87939 87942 87945 87948 87951 87954 87957 87960 87963 87966 87969 87972 87975 87978 87981 87984 87987 87990 87993 87996 87999 88002 88005 88008 88011 88014 88017 88020 88023 88026 88029 88032 88035 88038 88041 88044 88047 88050 88053 88056 88059 88062 88065 88068 88071 88074 88077 88080 88083 88086 88089 88092 88095 88098 88101 88104 88107 88110 88113 88116 88119 88122 88125 88128 88131 88134 88137 88140 88143 88146 88149 88152 88155 88158 88161 88164 88167 88170 88173 88176 88179 88182 88185 88188 88191 88194 88197 88200 88203 88206 88209 88212 88215 88218 88221 88224 88227 88230 88233 88236 88239 88242 88245 88248 88251 88254 88257 88260 88263 88266 88269 88272 88275 88278 88281 88284 88287 88290 88293 88296 88299 88302 88305 88308 88311 88314 88317 88320 88323 88326 88329 88332 88335 88338 88341 88344 88347 88350 88353 88356 88359 88362 88365 88368 88371 88374 88377 88380 88383 88386 88389 88392 88395 88398 88401 88404 88407 88410 88413 88416 88419 88422 88425 88428 88431 88434 88437 88440 88443 88446 88449 88452 88455 88458 88461 88464 88467 88470 88473 88476 88479 88482 88485 88488 88491 88494 88497 88500 88503 88506 88509 88512 88515 88518 88521 88524 88527 88530 88533 88536 88539 88542 88545 88548 88551 88554 88557 88560 88563 88566 88569 88572 88575 88578 88581 88584 88587 88590 88593 88596 88599 88602 88605 88608 88611 88614 88617 88620 88623 88626 88629 88632 88635 88638 88641 88644 88647 88650 88653 88656 88659 88662 88665 88668 88671 88674 88677 88680 88683 88686 88689 88692 88695 88698 88701 88704 88707 88710 88713 88716 88719 88722 88725 88728 88731 88734 88737 88740 88743 88746 88749 88752 88755 88758 88761 88764 88767 88770 88773 88776 88779 88782 88785 88788 88791 88794 88797 88800 88803 88806 88809 88812 88815 88818 88821 88824 88827 88830 88833 88836 88839 88842 88845 88848 88851 88854 88857 88860 88863 88866 88869 88872 88875 88878 88881 88884 88887 88890 88893 88896 88899 88902 88905 88908 88911 88914 88917 88920 88923 88926 88929 88932 88935 88938 88941 88944 88947 88950 88953 88956 88959 88962 88965 88968 88971 88974 88977 88980 88983 88986 88989 88992 88995 88998 89001 89004 89007 89010 89013 89016 89019 89022 89025 89028 89031 89034 89037 89040 89043 89046 89049 89052 89055 89058 89061 89064 89067 89070 89073 89076 89079 89082 89085 89088 89091 89094 89097 89100 89103 89106 89109 89112 89115 89118 89121 89124 89127 89130 89133 89136 89139 89142 89145 89148 89151 89154 89157 89160 89163 89166 89169 89172 89175 89178 89181 89184 89187 89190 89193 89196 89199 89202 89205 89208 89211 89214 89217 89220 89223 89226 89229 89232 89235 89238 89241 89244 89247 89250 89253 89256 89259 89262 89265 89268 89271 89274 89277 89280 89283 89286 89289 89292 89295 89298 89301 89304 89307 89310 89313 89316 89319 89322 89325 89328 89331 89334 89337 89340 89343 89346 89349 89352 89355 89358 89361 89364 89367 89370 89373 89376 89379 89382 89385 89388 89391 89394 89397 89400 89403 89406 89409 89412 89415 89418 89421 89424 89427 89430 89433 89436 89439 89442 89445 89448 89451 89454 89457 89460 89463 89466 89469 89472 89475 89478 89481 89484 89487 89490 89493 89496 89499 89502 89505 89508 89511 89514 89517 89520 89523 89526 89529 89532 89535 89538 89541 89544 89547 89550 89553 89556 89559 89562 89565 89568 89571 89574 89577 89580 89583 89586 89589 89592 89595 89598 89601 89604 89607 89610 89613 89616 89619 89622 89625 89628 89631 89634 89637 89640 89643 89646 89649 89652 89655 89658 89661 89664 89667 89670 89673 89676 89679 89682 89685 89688 89691 89694 89697 89700 89703 89706 89709 89712 89715 89718 89721 89724 89727 89730 89733 89736 89739 89742 89745 89748 89751 89754 89757 89760 89763 89766 89769 89772 89775 89778 89781 89784 89787 89790 89793 89796 89799 89802 89805 89808 89811 89814 89817 89820 89823 89826 89829 89832 89835 89838 89841 89844 89847 89850 89853 89856 89859 89862 89865 89868 89871 89874 89877 89880 89883 89886 89889 89892 89895 89898 89901 89904 89907 89910 89913 89916 89919 89922 89925 89928 89931 89934 89937 89940 89943 89946 89949 89952 89955 89958 89961 89964 89967 89970 89973 89976 89979 89982 89985 89988 89991 89994 89997 90000 90003 90006 90009 90012 90015 90018 90021 90024 90027 90030 90033 90036 90039 90042 90045 90048 90051 90054 90057 90060 90063 90066 90069 90072 90075 90078 90081 90084 90087 90090 90093 90096 90099 90102 90105 90108 90111 90114 90117 90120 90123 90126 90129 90132 90135 90138 90141 90144 90147 90150 90153 90156 90159 90162 90165 90168 90171 90174 90177 90180 90183 90186 90189 90192 90195 90198 90201 90204 90207 90210 90213 90216 90219 90222 90225 90228 90231 90234 90237 90240 90243 90246 90249 90252 90255 90258 90261 90264 90267 90270 90273 90276 90279 90282 90285 90288 90291 90294 90297 90300 90303 90306 90309 90312 90315 90318 90321 90324 90327 90330 90333 90336 90339 90342 90345 90348 90351 90354 90357 90360 90363 90366 90369 90372 90375 90378 90381 90384 90387 90390 90393 90396 90399 90402 90405 90408 90411 90414 90417 90420 90423 90426 90429 90432 90435 90438 90441 90444 90447 90450 90453 90456 90459 90462 90465 90468 90471 90474 90477 90480 90483 90486 90489 90492 90495 90498 90501 90504 90507 90510 90513 90516 90519 90522 90525 90528 90531 90534 90537 90540 90543 90546 90549 90552 90555 90558 90561 90564 90567 90570 90573 90576 90579 90582 90585 90588 90591 90594 90597 90600 90603 90606 90609 90612 90615 90618 90621 90624 90627 90630 90633 90636 90639 90642 90645 90648 90651 90654 90657 90660 90663 90666 90669 90672 90675 90678 90681 90684 90687 90690 90693 90696 90699 90702 90705 90708 90711 90714 90717 90720 90723 90726 90729 90732 90735 90738 90741 90744 90747 90750 90753 90756 90759 90762 90765 90768 90771 90774 90777 90780 90783 90786 90789 90792 90795 90798 90801 90804 90807 90810 90813 90816 90819 90822 90825 90828 90831 90834 90837 90840 90843 90846 90849 90852 90855 90858 90861 90864 90867 90870 90873 90876 90879 90882 90885 90888 90891 90894 90897 90900 90903 90906 90909 90912 90915 90918 90921 90924 90927 90930 90933 90936 90939 90942 90945 90948 90951 90954 90957 90960 90963 90966 90969 90972 90975 90978 90981 90984 90987 90990 90993 90996 90999 91002 91005 91008 91011 91014 91017 91020 91023 91026 91029 91032 91035 91038 91041 91044 91047 91050 91053 91056 91059 91062 91065 91068 91071 91074 91077 91080 91083 91086 91089 91092 91095 91098 91101 91104 91107 91110 91113 91116 91119 91122 91125 91128 91131 91134 91137 91140 91143 91146 91149 91152 91155 91158 91161 91164 91167 91170 91173 91176 91179 91182 91185 91188 91191 91194 91197 91200 91203 91206 91209 91212 91215 91218 91221 91224 91227 91230 91233 91236 91239 91242 91245 91248 91251 91254 91257 91260 91263 91266 91269 91272 91275 91278 91281 91284 91287 91290 91293 91296 91299 91302 91305 91308 91311 91314 91317 91320 91323 91326 91329 91332 91335 91338 91341 91344 91347 91350 91353 91356 91359 91362 91365 91368 91371 91374 91377 91380 91383 91386 91389 91392 91395 91398 91401 91404 91407 91410 91413 91416 91419 91422 91425 91428 91431 91434 91437 91440 91443 91446 91449 91452 91455 91458 91461 91464 91467 91470 91473 91476 91479 91482 91485 91488 91491 91494 91497 91500 91503 91506 91509 91512 91515 91518 91521 91524 91527 91530 91533 91536 91539 91542 91545 91548 91551 91554 91557 91560 91563 91566 91569 91572 91575 91578 91581 91584 91587 91590 91593 91596 91599 91602 91605 91608 91611 91614 91617 91620 91623 91626 91629 91632 91635 91638 91641 91644 91647 91650 91653 91656 91659 91662 91665 91668 91671 91674 91677 91680 91683 91686 91689 91692 91695 91698 91701 91704 91707 91710 91713 91716 91719 91722 91725 91728 91731 91734 91737 91740 91743 91746 91749 91752 91755 91758 91761 91764 91767 91770 91773 91776 91779 91782 91785 91788 91791 91794 91797 91800 91803 91806 91809 91812 91815 91818 91821 91824 91827 91830 91833 91836 91839 91842 91845 91848 91851 91854 91857 91860 91863 91866 91869 91872 91875 91878 91881 91884 91887 91890 91893 91896 91899 91902 91905 91908 91911 91914 91917 91920 91923 91926 91929 91932 91935 91938 91941 91944 91947 91950 91953 91956 91959 91962 91965 91968 91971 91974 91977 91980 91983 91986 91989 91992 91995 91998 92001 92004 92007 92010 92013 92016 92019 92022 92025 92028 92031 92034 92037 92040 92043 92046 92049 92052 92055 92058 92061 92064 92067 92070 92073 92076 92079 92082 92085 92088 92091 92094 92097 92100 92103 92106 92109 92112 92115 92118 92121 92124 92127 92130 92133 92136 92139 92142 92145 92148 92151 92154 92157 92160 92163 92166 92169 92172 92175 92178 92181 92184 92187 92190 92193 92196 92199 92202 92205 92208 92211 92214 92217 92220 92223 92226 92229 92232 92235 92238 92241 92244 92247 92250 92253 92256 92259 92262 92265 92268 92271 92274 92277 92280 92283 92286 92289 92292 92295 92298 92301 92304 92307 92310 92313 92316 92319 92322 92325 92328 92331 92334 92337 92340 92343 92346 92349 92352 92355 92358 92361 92364 92367 92370 92373 92376 92379 92382 92385 92388 92391 92394 92397 92400 92403 92406 92409 92412 92415 92418 92421 92424 92427 92430 92433 92436 92439 92442 92445 92448 92451 92454 92457 92460 92463 92466 92469 92472 92475 92478 92481 92484 92487 92490 92493 92496 92499 92502 92505 92508 92511 92514 92517 92520 92523 92526 92529 92532 92535 92538 92541 92544 92547 92550 92553 92556 92559 92562 92565 92568 92571 92574 92577 92580 92583 92586 92589 92592 92595 92598 92601 92604 92607 92610 92613 92616 92619 92622 92625 92628 92631 92634 92637 92640 92643 92646 92649 92652 92655 92658 92661 92664 92667 92670 92673 92676 92679 92682 92685 92688 92691 92694 92697 92700 92703 92706 92709 92712 92715 92718 92721 92724 92727 92730 92733 92736 92739 92742 92745 92748 92751 92754 92757 92760 92763 92766 92769 92772 92775 92778 92781 92784 92787 92790 92793 92796 92799 92802 92805 92808 92811 92814 92817 92820 92823 92826 92829 92832 92835 92838 92841 92844 92847 92850 92853 92856 92859 92862 92865 92868 92871 92874 92877 92880 92883 92886 92889 92892 92895 92898 92901 92904 92907 92910 92913 92916 92919 92922 92925 92928 92931 92934 92937 92940 92943 92946 92949 92952 92955 92958 92961 92964 92967 92970 92973 92976 92979 92982 92985 92988 92991 92994 92997 93000 93003 93006 93009 93012 93015 93018 93021 93024 93027 93030 93033 93036 93039 93042 93045 93048 93051 93054 93057 93060 93063 93066 93069 93072 93075 93078 93081 93084 93087 93090 93093 93096 93099 93102 93105 93108 93111 93114 93117 93120 93123 93126 93129 93132 93135 93138 93141 93144 93147 93150 93153 93156 93159 93162 93165 93168 93171 93174 93177 93180 93183 93186 93189 93192 93195 93198 93201 93204 93207 93210 93213 93216 93219 93222 93225 93228 93231 93234 93237 93240 93243 93246 93249 93252 93255 93258 93261 93264 93267 93270 93273 93276 93279 93282 93285 93288 93291 93294 93297 93300 93303 93306 93309 93312 93315 93318 93321 93324 93327 93330 93333 93336 93339 93342 93345 93348 93351 93354 93357 93360 93363 93366 93369 93372 93375 93378 93381 93384 93387 93390 93393 93396 93399 93402 93405 93408 93411 93414 93417 93420 93423 93426 93429 93432 93435 93438 93441 93444 93447 93450 93453 93456 93459 93462 93465 93468 93471 93474 93477 93480 93483 93486 93489 93492 93495 93498 93501 93504 93507 93510 93513 93516 93519 93522 93525 93528 93531 93534 93537 93540 93543 93546 93549 93552 93555 93558 93561 93564 93567 93570 93573 93576 93579 93582 93585 93588 93591 93594 93597 93600 93603 93606 93609 93612 93615 93618 93621 93624 93627 93630 93633 93636 93639 93642 93645 93648 93651 93654 93657 93660 93663 93666 93669 93672 93675 93678 93681 93684 93687 93690 93693 93696 93699 93702 93705 93708 93711 93714 93717 93720 93723 93726 93729 93732 93735 93738 93741 93744 93747 93750 93753 93756 93759 93762 93765 93768 93771 93774 93777 93780 93783 93786 93789 93792 93795 93798 93801 93804 93807 93810 93813 93816 93819 93822 93825 93828 93831 93834 93837 93840 93843 93846 93849 93852 93855 93858 93861 93864 93867 93870 93873 93876 93879 93882 93885 93888 93891 93894 93897 93900 93903 93906 93909 93912 93915 93918 93921 93924 93927 93930 93933 93936 93939 93942 93945 93948 93951 93954 93957 93960 93963 93966 93969 93972 93975 93978 93981 93984 93987 93990 93993 93996 93999 94002 94005 94008 94011 94014 94017 94020 94023 94026 94029 94032 94035 94038 94041 94044 94047 94050 94053 94056 94059 94062 94065 94068 94071 94074 94077 94080 94083 94086 94089 94092 94095 94098 94101 94104 94107 94110 94113 94116 94119 94122 94125 94128 94131 94134 94137 94140 94143 94146 94149 94152 94155 94158 94161 94164 94167 94170 94173 94176 94179 94182 94185 94188 94191 94194 94197 94200 94203 94206 94209 94212 94215 94218 94221 94224 94227 94230 94233 94236 94239 94242 94245 94248 94251 94254 94257 94260 94263 94266 94269 94272 94275 94278 94281 94284 94287 94290 94293 94296 94299 94302 94305 94308 94311 94314 94317 94320 94323 94326 94329 94332 94335 94338 94341 94344 94347 94350 94353 94356 94359 94362 94365 94368 94371 94374 94377 94380 94383 94386 94389 94392 94395 94398 94401 94404 94407 94410 94413 94416 94419 94422 94425 94428 94431 94434 94437 94440 94443 94446 94449 94452 94455 94458 94461 94464 94467 94470 94473 94476 94479 94482 94485 94488 94491 94494 94497 94500 94503 94506 94509 94512 94515 94518 94521 94524 94527 94530 94533 94536 94539 94542 94545 94548 94551 94554 94557 94560 94563 94566 94569 94572 94575 94578 94581 94584 94587 94590 94593 94596 94599 94602 94605 94608 94611 94614 94617 94620 94623 94626 94629 94632 94635 94638 94641 94644 94647 94650 94653 94656 94659 94662 94665 94668 94671 94674 94677 94680 94683 94686 94689 94692 94695 94698 94701 94704 94707 94710 94713 94716 94719 94722 94725 94728 94731 94734 94737 94740 94743 94746 94749 94752 94755 94758 94761 94764 94767 94770 94773 94776 94779 94782 94785 94788 94791 94794 94797 94800 94803 94806 94809 94812 94815 94818 94821 94824 94827 94830 94833 94836 94839 94842 94845 94848 94851 94854 94857 94860 94863 94866 94869 94872 94875 94878 94881 94884 94887 94890 94893 94896 94899 94902 94905 94908 94911 94914 94917 94920 94923 94926 94929 94932 94935 94938 94941 94944 94947 94950 94953 94956 94959 94962 94965 94968 94971 94974 94977 94980 94983 94986 94989 94992 94995 94998 95001 95004 95007 95010 95013 95016 95019 95022 95025 95028 95031 95034 95037 95040 95043 95046 95049 95052 95055 95058 95061 95064 95067 95070 95073 95076 95079 95082 95085 95088 95091 95094 95097 95100 95103 95106 95109 95112 95115 95118 95121 95124 95127 95130 95133 95136 95139 95142 95145 95148 95151 95154 95157 95160 95163 95166 95169 95172 95175 95178 95181 95184 95187 95190 95193 95196 95199 95202 95205 95208 95211 95214 95217 95220 95223 95226 95229 95232 95235 95238 95241 95244 95247 95250 95253 95256 95259 95262 95265 95268 95271 95274 95277 95280 95283 95286 95289 95292 95295 95298 95301 95304 95307 95310 95313 95316 95319 95322 95325 95328 95331 95334 95337 95340 95343 95346 95349 95352 95355 95358 95361 95364 95367 95370 95373 95376 95379 95382 95385 95388 95391 95394 95397 95400 95403 95406 95409 95412 95415 95418 95421 95424 95427 95430 95433 95436 95439 95442 95445 95448 95451 95454 95457 95460 95463 95466 95469 95472 95475 95478 95481 95484 95487 95490 95493 95496 95499 95502 95505 95508 95511 95514 95517 95520 95523 95526 95529 95532 95535 95538 95541 95544 95547 95550 95553 95556 95559 95562 95565 95568 95571 95574 95577 95580 95583 95586 95589 95592 95595 95598 95601 95604 95607 95610 95613 95616 95619 95622 95625 95628 95631 95634 95637 95640 95643 95646 95649 95652 95655 95658 95661 95664 95667 95670 95673 95676 95679 95682 95685 95688 95691 95694 95697 95700 95703 95706 95709 95712 95715 95718 95721 95724 95727 95730 95733 95736 95739 95742 95745 95748 95751 95754 95757 95760 95763 95766 95769 95772 95775 95778 95781 95784 95787 95790 95793 95796 95799 95802 95805 95808 95811 95814 95817 95820 95823 95826 95829 95832 95835 95838 95841 95844 95847 95850 95853 95856 95859 95862 95865 95868 95871 95874 95877 95880 95883 95886 95889 95892 95895 95898 95901 95904 95907 95910 95913 95916 95919 95922 95925 95928 95931 95934 95937 95940 95943 95946 95949 95952 95955 95958 95961 95964 95967 95970 95973 95976 95979 95982 95985 95988 95991 95994 95997 96000 96003 96006 96009 96012 96015 96018 96021 96024 96027 96030 96033 96036 96039 96042 96045 96048 96051 96054 96057 96060 96063 96066 96069 96072 96075 96078 96081 96084 96087 96090 96093 96096 96099 96102 96105 96108 96111 96114 96117 96120 96123 96126 96129 96132 96135 96138 96141 96144 96147 96150 96153 96156 96159 96162 96165 96168 96171 96174 96177 96180 96183 96186 96189 96192 96195 96198 96201 96204 96207 96210 96213 96216 96219 96222 96225 96228 96231 96234 96237 96240 96243 96246 96249 96252 96255 96258 96261 96264 96267 96270 96273 96276 96279 96282 96285 96288 96291 96294 96297 96300 96303 96306 96309 96312 96315 96318 96321 96324 96327 96330 96333 96336 96339 96342 96345 96348 96351 96354 96357 96360 96363 96366 96369 96372 96375 96378 96381 96384 96387 96390 96393 96396 96399 96402 96405 96408 96411 96414 96417 96420 96423 96426 96429 96432 96435 96438 96441 96444 96447 96450 96453 96456 96459 96462 96465 96468 96471 96474 96477 96480 96483 96486 96489 96492 96495 96498 96501 96504 96507 96510 96513 96516 96519 96522 96525 96528 96531 96534 96537 96540 96543 96546 96549 96552 96555 96558 96561 96564 96567 96570 96573 96576 96579 96582 96585 96588 96591 96594 96597 96600 96603 96606 96609 96612 96615 96618 96621 96624 96627 96630 96633 96636 96639 96642 96645 96648 96651 96654 96657 96660 96663 96666 96669 96672 96675 96678 96681 96684 96687 96690 96693 96696 96699 96702 96705 96708 96711 96714 96717 96720 96723 96726 96729 96732 96735 96738 96741 96744 96747 96750 96753 96756 96759 96762 96765 96768 96771 96774 96777 96780 96783 96786 96789 96792 96795 96798 96801 96804 96807 96810 96813 96816 96819 96822 96825 96828 96831 96834 96837 96840 96843 96846 96849 96852 96855 96858 96861 96864 96867 96870 96873 96876 96879 96882 96885 96888 96891 96894 96897 96900 96903 96906 96909 96912 96915 96918 96921 96924 96927 96930 96933 96936 96939 96942 96945 96948 96951 96954 96957 96960 96963 96966 96969 96972 96975 96978 96981 96984 96987 96990 96993 96996 96999 97002 97005 97008 97011 97014 97017 97020 97023 97026 97029 97032 97035 97038 97041 97044 97047 97050 97053 97056 97059 97062 97065 97068 97071 97074 97077 97080 97083 97086 97089 97092 97095 97098 97101 97104 97107 97110 97113 97116 97119 97122 97125 97128 97131 97134 97137 97140 97143 97146 97149 97152 97155 97158 97161 97164 97167 97170 97173 97176 97179 97182 97185 97188 97191 97194 97197 97200 97203 97206 97209 97212 97215 97218 97221 97224 97227 97230 97233 97236 97239 97242 97245 97248 97251 97254 97257 97260 97263 97266 97269 97272 97275 97278 97281 97284 97287 97290 97293 97296 97299 97302 97305 97308 97311 97314 97317 97320 97323 97326 97329 97332 97335 97338 97341 97344 97347 97350 97353 97356 97359 97362 97365 97368 97371 97374 97377 97380 97383 97386 97389 97392 97395 97398 97401 97404 97407 97410 97413 97416 97419 97422 97425 97428 97431 97434 97437 97440 97443 97446 97449 97452 97455 97458 97461 97464 97467 97470 97473 97476 97479 97482 97485 97488 97491 97494 97497 97500 97503 97506 97509 97512 97515 97518 97521 97524 97527 97530 97533 97536 97539 97542 97545 97548 97551 97554 97557 97560 97563 97566 97569 97572 97575 97578 97581 97584 97587 97590 97593 97596 97599 97602 97605 97608 97611 97614 97617 97620 97623 97626 97629 97632 97635 97638 97641 97644 97647 97650 97653 97656 97659 97662 97665 97668 97671 97674 97677 97680 97683 97686 97689 97692 97695 97698 97701 97704 97707 97710 97713 97716 97719 97722 97725 97728 97731 97734 97737 97740 97743 97746 97749 97752 97755 97758 97761 97764 97767 97770 97773 97776 97779 97782 97785 97788 97791 97794 97797 97800 97803 97806 97809 97812 97815 97818 97821 97824 97827 97830 97833 97836 97839 97842 97845 97848 97851 97854 97857 97860 97863 97866 97869 97872 97875 97878 97881 97884 97887 97890 97893 97896 97899 97902 97905 97908 97911 97914 97917 97920 97923 97926 97929 97932 97935 97938 97941 97944 97947 97950 97953 97956 97959 97962 97965 97968 97971 97974 97977 97980 97983 97986 97989 97992 97995 97998 98001 98004 98007 98010 98013 98016 98019 98022 98025 98028 98031 98034 98037 98040 98043 98046 98049 98052 98055 98058 98061 98064 98067 98070 98073 98076 98079 98082 98085 98088 98091 98094 98097 98100 98103 98106 98109 98112 98115 98118 98121 98124 98127 98130 98133 98136 98139 98142 98145 98148 98151 98154 98157 98160 98163 98166 98169 98172 98175 98178 98181 98184 98187 98190 98193 98196 98199 98202 98205 98208 98211 98214 98217 98220 98223 98226 98229 98232 98235 98238 98241 98244 98247 98250 98253 98256 98259 98262 98265 98268 98271 98274 98277 98280 98283 98286 98289 98292 98295 98298 98301 98304 98307 98310 98313 98316 98319 98322 98325 98328 98331 98334 98337 98340 98343 98346 98349 98352 98355 98358 98361 98364 98367 98370 98373 98376 98379 98382 98385 98388 98391 98394 98397 98400 98403 98406 98409 98412 98415 98418 98421 98424 98427 98430 98433 98436 98439 98442 98445 98448 98451 98454 98457 98460 98463 98466 98469 98472 98475 98478 98481 98484 98487 98490 98493 98496 98499 98502 98505 98508 98511 98514 98517 98520 98523 98526 98529 98532 98535 98538 98541 98544 98547 98550 98553 98556 98559 98562 98565 98568 98571 98574 98577 98580 98583 98586 98589 98592 98595 98598 98601 98604 98607 98610 98613 98616 98619 98622 98625 98628 98631 98634 98637 98640 98643 98646 98649 98652 98655 98658 98661 98664 98667 98670 98673 98676 98679 98682 98685 98688 98691 98694 98697 98700 98703 98706 98709 98712 98715 98718 98721 98724 98727 98730 98733 98736 98739 98742 98745 98748 98751 98754 98757 98760 98763 98766 98769 98772 98775 98778 98781 98784 98787 98790 98793 98796 98799 98802 98805 98808 98811 98814 98817 98820 98823 98826 98829 98832 98835 98838 98841 98844 98847 98850 98853 98856 98859 98862 98865 98868 98871 98874 98877 98880 98883 98886 98889 98892 98895 98898 98901 98904 98907 98910 98913 98916 98919 98922 98925 98928 98931 98934 98937 98940 98943 98946 98949 98952 98955 98958 98961 98964 98967 98970 98973 98976 98979 98982 98985 98988 98991 98994 98997 99000 99003 99006 99009 99012 99015 99018 99021 99024 99027 99030 99033 99036 99039 99042 99045 99048 99051 99054 99057 99060 99063 99066 99069 99072 99075 99078 99081 99084 99087 99090 99093 99096 99099 99102 99105 99108 99111 99114 99117 99120 99123 99126 99129 99132 99135 99138 99141 99144 99147 99150 99153 99156 99159 99162 99165 99168 99171 99174 99177 99180 99183 99186 99189 99192 99195 99198 99201 99204 99207 99210 99213 99216 99219 99222 99225 99228 99231 99234 99237 99240 99243 99246 99249 99252 99255 99258 99261 99264 99267 99270 99273 99276 99279 99282 99285 99288 99291 99294 99297 99300 99303 99306 99309 99312 99315 99318 99321 99324 99327 99330 99333 99336 99339 99342 99345 99348 99351 99354 99357 99360 99363 99366 99369 99372 99375 99378 99381 99384 99387 99390 99393 99396 99399 99402 99405 99408 99411 99414 99417 99420 99423 99426 99429 99432 99435 99438 99441 99444 99447 99450 99453 99456 99459 99462 99465 99468 99471 99474 99477 99480 99483 99486 99489 99492 99495 99498 99501 99504 99507 99510 99513 99516 99519 99522 99525 99528 99531 99534 99537 99540 99543 99546 99549 99552 99555 99558 99561 99564 99567 99570 99573 99576 99579 99582 99585 99588 99591 99594 99597 99600 99603 99606 99609 99612 99615 99618 99621 99624 99627 99630 99633 99636 99639 99642 99645 99648 99651 99654 99657 99660 99663 99666 99669 99672 99675 99678 99681 99684 99687 99690 99693 99696 99699 99702 99705 99708 99711 99714 99717 99720 99723 99726 99729 99732 99735 99738 99741 99744 99747 99750 99753 99756 99759 99762 99765 99768 99771 99774 99777 99780 99783 99786 99789 99792 99795 99798 99801 99804 99807 99810 99813 99816 99819 99822 99825 99828 99831 99834 99837 99840 99843 99846 99849 99852 99855 99858 99861 99864 99867 99870 99873 99876 99879 99882 99885 99888 99891 99894 99897 99900 99903 99906 99909 99912 99915 99918 99921 99924 99927 99930 99933 99936 99939 99942 99945 99948 99951 99954 99957 99960 99963 99966 99969 99972 99975 99978 99981 99984 99987 99990 99993 99996 99999 100002 100005 100008 100011 100014 100017 100020 100023 100026 100029 100032 100035 100038 100041 100044 100047 100050 100053 100056 100059 100062 100065 100068 100071 100074 100077 100080 100083 100086 100089 100092 100095 100098 100101 100104 100107 100110 100113 100116 100119 100122 100125 100128 100131 100134 100137 100140 100143 100146 100149 100152 100155 100158 100161 100164 100167 100170 100173 100176 100179 100182 100185 100188 100191 100194 100197 100200 100203 100206 100209 100212 100215 100218 100221 100224 100227 100230 100233 100236 100239 100242 100245 100248 100251 100254 100257 100260 100263 100266 100269 100272 100275 100278 100281 100284 100287 100290 100293 100296 100299 100302 100305 100308 100311 100314 100317 100320 100323 100326 100329 100332 100335 100338 100341 100344 100347 100350 100353 100356 100359 100362 100365 100368 100371 100374 100377 100380 100383 100386 100389 100392 100395 100398 100401 100404 100407 100410 100413 100416 100419 100422 100425 100428 100431 100434 100437 100440 100443 100446 100449 100452 100455 100458 100461 100464 100467 100470 100473 100476 100479 100482 100485 100488 100491 100494 100497 100500 100503 100506 100509 100512 100515 100518 100521 100524 100527 100530 100533 100536 100539 100542 100545 100548 100551 100554 100557 100560 100563 100566 100569 100572 100575 100578 100581 100584 100587 100590 100593 100596 100599 100602 100605 100608 100611 100614 100617 100620 100623 100626 100629 100632 100635 100638 100641 100644 100647 100650 100653 100656 100659 100662 100665 100668 100671 100674 100677 100680 100683 100686 100689 100692 100695 100698 100701 100704 100707 100710 100713 100716 100719 100722 100725 100728 100731 100734 100737 100740 100743 100746 100749 100752 100755 100758 100761 100764 100767 100770 100773 100776 100779 100782 100785 100788 100791 100794 100797 100800 100803 100806 100809 100812 100815 100818 100821 100824 100827 100830 100833 100836 100839 100842 100845 100848 100851 100854 100857 100860 100863 100866 100869 100872 100875 100878 100881 100884 100887 100890 100893 100896 100899 100902 100905 100908 100911 100914 100917 100920 100923 100926 100929 100932 100935 100938 100941 100944 100947 100950 100953 100956 100959 100962 100965 100968 100971 100974 100977 100980 100983 100986 100989 100992 100995 100998 101001 101004 101007 101010 101013 101016 101019 101022 101025 101028 101031 101034 101037 101040 101043 101046 101049 101052 101055 101058 101061 101064 101067 101070 101073 101076 101079 101082 101085 101088 101091 101094 101097 101100 101103 101106 101109 101112 101115 101118 101121 101124 101127 101130 101133 101136 101139 101142 101145 101148 101151 101154 101157 101160 101163 101166 101169 101172 101175 101178 101181 101184 101187 101190 101193 101196 101199 101202 101205 101208 101211 101214 101217 101220 101223 101226 101229 101232 101235 101238 101241 101244 101247 101250 101253 101256 101259 101262 101265 101268 101271 101274 101277 101280 101283 101286 101289 101292 101295 101298 101301 101304 101307 101310 101313 101316 101319 101322 101325 101328 101331 101334 101337 101340 101343 101346 101349 101352 101355 101358 101361 101364 101367 101370 101373 101376 101379 101382 101385 101388 101391 101394 101397 101400 101403 101406 101409 101412 101415 101418 101421 101424 101427 101430 101433 101436 101439 101442 101445 101448 101451 101454 101457 101460 101463 101466 101469 101472 101475 101478 101481 101484 101487 101490 101493 101496 101499 101502 101505 101508 101511 101514 101517 101520 101523 101526 101529 101532 101535 101538 101541 101544 101547 101550 101553 101556 101559 101562 101565 101568 101571 101574 101577 101580 101583 101586 101589 101592 101595 101598 101601 101604 101607 101610 101613 101616 101619 101622 101625 101628 101631 101634 101637 101640 101643 101646 101649 101652 101655 101658 101661 101664 101667 101670 101673 101676 101679 101682 101685 101688 101691 101694 101697 101700 101703 101706 101709 101712 101715 101718 101721 101724 101727 101730 101733 101736 101739 101742 101745 101748 101751 101754 101757 101760 101763 101766 101769 101772 101775 101778 101781 101784 101787 101790 101793 101796 101799 101802 101805 101808 101811 101814 101817 101820 101823 101826 101829 101832 101835 101838 101841 101844 101847 101850 101853 101856 101859 101862 101865 101868 101871 101874 101877 101880 101883 101886 101889 101892 101895 101898 101901 101904 101907 101910 101913 101916 101919 101922 101925 101928 101931 101934 101937 101940 101943 101946 101949 101952 101955 101958 101961 101964 101967 101970 101973 101976 101979 101982 101985 101988 101991 101994 101997 102000 102003 102006 102009 102012 102015 102018 102021 102024 102027 102030 102033 102036 102039 102042 102045 102048 102051 102054 102057 102060 102063 102066 102069 102072 102075 102078 102081 102084 102087 102090 102093 102096 102099 102102 102105 102108 102111 102114 102117 102120 102123 102126 102129 102132 102135 102138 102141 102144 102147 102150 102153 102156 102159 102162 102165 102168 102171 102174 102177 102180 102183 102186 102189 102192 102195 102198 102201 102204 102207 102210 102213 102216 102219 102222 102225 102228 102231 102234 102237 102240 102243 102246 102249 102252 102255 102258 102261 102264 102267 102270 102273 102276 102279 102282 102285 102288 102291 102294 102297 102300 102303 102306 102309 102312 102315 102318 102321 102324 102327 102330 102333 102336 102339 102342 102345 102348 102351 102354 102357 102360 102363 102366 102369 102372 102375 102378 102381 102384 102387 102390 102393 102396 102399 102402 102405 102408 102411 102414 102417 102420 102423 102426 102429 102432 102435 102438 102441 102444 102447 102450 102453 102456 102459 102462 102465 102468 102471 102474 102477 102480 102483 102486 102489 102492 102495 102498 102501 102504 102507 102510 102513 102516 102519 102522 102525 102528 102531 102534 102537 102540 102543 102546 102549 102552 102555 102558 102561 102564 102567 102570 102573 102576 102579 102582 102585 102588 102591 102594 102597 102600 102603 102606 102609 102612 102615 102618 102621 102624 102627 102630 102633 102636 102639 102642 102645 102648 102651 102654 102657 102660 102663 102666 102669 102672 102675 102678 102681 102684 102687 102690 102693 102696 102699 102702 102705 102708 102711 102714 102717 102720 102723 102726 102729 102732 102735 102738 102741 102744 102747 102750 102753 102756 102759 102762 102765 102768 102771 102774 102777 102780 102783 102786 102789 102792 102795 102798 102801 102804 102807 102810 102813 102816 102819 102822 102825 102828 102831 102834 102837 102840 102843 102846 102849 102852 102855 102858 102861 102864 102867 102870 102873 102876 102879 102882 102885 102888 102891 102894 102897 102900 102903 102906 102909 102912 102915 102918 102921 102924 102927 102930 102933 102936 102939 102942 102945 102948 102951 102954 102957 102960 102963 102966 102969 102972 102975 102978 102981 102984 102987 102990 102993 102996 102999 103002 103005 103008 103011 103014 103017 103020 103023 103026 103029 103032 103035 103038 103041 103044 103047 103050 103053 103056 103059 103062 103065 103068 103071 103074 103077 103080 103083 103086 103089 103092 103095 103098 103101 103104 103107 103110 103113 103116 103119 103122 103125 103128 103131 103134 103137 103140 103143 103146 103149 103152 103155 103158 103161 103164 103167 103170 103173 103176 103179 103182 103185 103188 103191 103194 103197 103200 103203 103206 103209 103212 103215 103218 103221 103224 103227 103230 103233 103236 103239 103242 103245 103248 103251 103254 103257 103260 103263 103266 103269 103272 103275 103278 103281 103284 103287 103290 103293 103296 103299 103302 103305 103308 103311 103314 103317 103320 103323 103326 103329 103332 103335 103338 103341 103344 103347 103350 103353 103356 103359 103362 103365 103368 103371 103374 103377 103380 103383 103386 103389 103392 103395 103398 103401 103404 103407 103410 103413 103416 103419 103422 103425 103428 103431 103434 103437 103440 103443 103446 103449 103452 103455 103458 103461 103464 103467 103470 103473 103476 103479 103482 103485 103488 103491 103494 103497 103500 103503 103506 103509 103512 103515 103518 103521 103524 103527 103530 103533 103536 103539 103542 103545 103548 103551 103554 103557 103560 103563 103566 103569 103572 103575 103578 103581 103584 103587 103590 103593 103596 103599 103602 103605 103608 103611 103614 103617 103620 103623 103626 103629 103632 103635 103638 103641 103644 103647 103650 103653 103656 103659 103662 103665 103668 103671 103674 103677 103680 103683 103686 103689 103692 103695 103698 103701 103704 103707 103710 103713 103716 103719 103722 103725 103728 103731 103734 103737 103740 103743 103746 103749 103752 103755 103758 103761 103764 103767 103770 103773 103776 103779 103782 103785 103788 103791 103794 103797 103800 103803 103806 103809 103812 103815 103818 103821 103824 103827 103830 103833 103836 103839 103842 103845 103848 103851 103854 103857 103860 103863 103866 103869 103872 103875 103878 103881 103884 103887 103890 103893 103896 103899 103902 103905 103908 103911 103914 103917 103920 103923 103926 103929 103932 103935 103938 103941 103944 103947 103950 103953 103956 103959 103962 103965 103968 103971 103974 103977 103980 103983 103986 103989 103992 103995 103998 104001 104004 104007 104010 104013 104016 104019 104022 104025 104028 104031 104034 104037 104040 104043 104046 104049 104052 104055 104058 104061 104064 104067 104070 104073 104076 104079 104082 104085 104088 104091 104094 104097 104100 104103 104106 104109 104112 104115 104118 104121 104124 104127 104130 104133 104136 104139 104142 104145 104148 104151 104154 104157 104160 104163 104166 104169 104172 104175 104178 104181 104184 104187 104190 104193 104196 104199 104202 104205 104208 104211 104214 104217 104220 104223 104226 104229 104232 104235 104238 104241 104244 104247 104250 104253 104256 104259 104262 104265 104268 104271 104274 104277 104280 104283 104286 104289 104292 104295 104298 104301 104304 104307 104310 104313 104316 104319 104322 104325 104328 104331 104334 104337 104340 104343 104346 104349 104352 104355 104358 104361 104364 104367 104370 104373 104376 104379 104382 104385 104388 104391 104394 104397 104400 104403 104406 104409 104412 104415 104418 104421 104424 104427 104430 104433 104436 104439 104442 104445 104448 104451 104454 104457 104460 104463 104466 104469 104472 104475 104478 104481 104484 104487 104490 104493 104496 104499 104502 104505 104508 104511 104514 104517 104520 104523 104526 104529 104532 104535 104538 104541 104544 104547 104550 104553 104556 104559 104562 104565 104568 104571 104574 104577 104580 104583 104586 104589 104592 104595 104598 104601 104604 104607 104610 104613 104616 104619 104622 104625 104628 104631 104634 104637 104640 104643 104646 104649 104652 104655 104658 104661 104664 104667 104670 104673 104676 104679 104682 104685 104688 104691 104694 104697 104700 104703 104706 104709 104712 104715 104718 104721 104724 104727 104730 104733 104736 104739 104742 104745 104748 104751 104754 104757 104760 104763 104766 104769 104772 104775 104778 104781 104784 104787 104790 104793 104796 104799 104802 104805 104808 104811 104814 104817 104820 104823 104826 104829 104832 104835 104838 104841 104844 104847 104850 104853 104856 104859 104862 104865 104868 104871 104874 104877 104880 104883 104886 104889 104892 104895 104898 104901 104904 104907 104910 104913 104916 104919 104922 104925 104928 104931 104934 104937 104940 104943 104946 104949 104952 104955 104958 104961 104964 104967 104970 104973 104976 104979 104982 104985 104988 104991 104994 104997 105000 105003 105006 105009 105012 105015 105018 105021 105024 105027 105030 105033 105036 105039 105042 105045 105048 105051 105054 105057 105060 105063 105066 105069 105072 105075 105078 105081 105084 105087 105090 105093 105096 105099 105102 105105 105108 105111 105114 105117 105120 105123 105126 105129 105132 105135 105138 105141 105144 105147 105150 105153 105156 105159 105162 105165 105168 105171 105174 105177 105180 105183 105186 105189 105192 105195 105198 105201 105204 105207 105210 105213 105216 105219 105222 105225 105228 105231 105234 105237 105240 105243 105246 105249 105252 105255 105258 105261 105264 105267 105270 105273 105276 105279 105282 105285 105288 105291 105294 105297 105300 105303 105306 105309 105312 105315 105318 105321 105324 105327 105330 105333 105336 105339 105342 105345 105348 105351 105354 105357 105360 105363 105366 105369 105372 105375 105378 105381 105384 105387 105390 105393 105396 105399 105402 105405 105408 105411 105414 105417 105420 105423 105426 105429 105432 105435 105438 105441 105444 105447 105450 105453 105456 105459 105462 105465 105468 105471 105474 105477 105480 105483 105486 105489 105492 105495 105498 105501 105504 105507 105510 105513 105516 105519 105522 105525 105528 105531 105534 105537 105540 105543 105546 105549 105552 105555 105558 105561 105564 105567 105570 105573 105576 105579 105582 105585 105588 105591 105594 105597 105600 105603 105606 105609 105612 105615 105618 105621 105624 105627 105630 105633 105636 105639 105642 105645 105648 105651 105654 105657 105660 105663 105666 105669 105672 105675 105678 105681 105684 105687 105690 105693 105696 105699 105702 105705 105708 105711 105714 105717 105720 105723 105726 105729 105732 105735 105738 105741 105744 105747 105750 105753 105756 105759 105762 105765 105768 105771 105774 105777 105780 105783 105786 105789 105792 105795 105798 105801 105804 105807 105810 105813 105816 105819 105822 105825 105828 105831 105834 105837 105840 105843 105846 105849 105852 105855 105858 105861 105864 105867 105870 105873 105876 105879 105882 105885 105888 105891 105894 105897 105900 105903 105906 105909 105912 105915 105918 105921 105924 105927 105930 105933 105936 105939 105942 105945 105948 105951 105954 105957 105960 105963 105966 105969 105972 105975 105978 105981 105984 105987 105990 105993 105996 105999 106002 106005 106008 106011 106014 106017 106020 106023 106026 106029 106032 106035 106038 106041 106044 106047 106050 106053 106056 106059 106062 106065 106068 106071 106074 106077 106080 106083 106086 106089 106092 106095 106098 106101 106104 106107 106110 106113 106116 106119 106122 106125 106128 106131 106134 106137 106140 106143 106146 106149 106152 106155 106158 106161 106164 106167 106170 106173 106176 106179 106182 106185 106188 106191 106194 106197 106200 106203 106206 106209 106212 106215 106218 106221 106224 106227 106230 106233 106236 106239 106242 106245 106248 106251 106254 106257 106260 106263 106266 106269 106272 106275 106278 106281 106284 106287 106290 106293 106296 106299 106302 106305 106308 106311 106314 106317 106320 106323 106326 106329 106332 106335 106338 106341 106344 106347 106350 106353 106356 106359 106362 106365 106368 106371 106374 106377 106380 106383 106386 106389 106392 106395 106398 106401 106404 106407 106410 106413 106416 106419 106422 106425 106428 106431 106434 106437 106440 106443 106446 106449 106452 106455 106458 106461 106464 106467 106470 106473 106476 106479 106482 106485 106488 106491 106494 106497 106500 106503 106506 106509 106512 106515 106518 106521 106524 106527 106530 106533 106536 106539 106542 106545 106548 106551 106554 106557 106560 106563 106566 106569 106572 106575 106578 106581 106584 106587 106590 106593 106596 106599 106602 106605 106608 106611 106614 106617 106620 106623 106626 106629 106632 106635 106638 106641 106644 106647 106650 106653 106656 106659 106662 106665 106668 106671 106674 106677 106680 106683 106686 106689 106692 106695 106698 106701 106704 106707 106710 106713 106716 106719 106722 106725 106728 106731 106734 106737 106740 106743 106746 106749 106752 106755 106758 106761 106764 106767 106770 106773 106776 106779 106782 106785 106788 106791 106794 106797 106800 106803 106806 106809 106812 106815 106818 106821 106824 106827 106830 106833 106836 106839 106842 106845 106848 106851 106854 106857 106860 106863 106866 106869 106872 106875 106878 106881 106884 106887 106890 106893 106896 106899 106902 106905 106908 106911 106914 106917 106920 106923 106926 106929 106932 106935 106938 106941 106944 106947 106950 106953 106956 106959 106962 106965 106968 106971 106974 106977 106980 106983 106986 106989 106992 106995 106998 107001 107004 107007 107010 107013 107016 107019 107022 107025 107028 107031 107034 107037 107040 107043 107046 107049 107052 107055 107058 107061 107064 107067 107070 107073 107076 107079 107082 107085 107088 107091 107094 107097 107100 107103 107106 107109 107112 107115 107118 107121 107124 107127 107130 107133 107136 107139 107142 107145 107148 107151 107154 107157 107160 107163 107166 107169 107172 107175 107178 107181 107184 107187 107190 107193 107196 107199 107202 107205 107208 107211 107214 107217 107220 107223 107226 107229 107232 107235 107238 107241 107244 107247 107250 107253 107256 107259 107262 107265 107268 107271 107274 107277 107280 107283 107286 107289 107292 107295 107298 107301 107304 107307 107310 107313 107316 107319 107322 107325 107328 107331 107334 107337 107340 107343 107346 107349 107352 107355 107358 107361 107364 107367 107370 107373 107376 107379 107382 107385 107388 107391 107394 107397 107400 107403 107406 107409 107412 107415 107418 107421 107424 107427 107430 107433 107436 107439 107442 107445 107448 107451 107454 107457 107460 107463 107466 107469 107472 107475 107478 107481 107484 107487 107490 107493 107496 107499 107502 107505 107508 107511 107514 107517 107520 107523 107526 107529 107532 107535 107538 107541 107544 107547 107550 107553 107556 107559 107562 107565 107568 107571 107574 107577 107580 107583 107586 107589 107592 107595 107598 107601 107604 107607 107610 107613 107616 107619 107622 107625 107628 107631 107634 107637 107640 107643 107646 107649 107652 107655 107658 107661 107664 107667 107670 107673 107676 107679 107682 107685 107688 107691 107694 107697 107700 107703 107706 107709 107712 107715 107718 107721 107724 107727 107730 107733 107736 107739 107742 107745 107748 107751 107754 107757 107760 107763 107766 107769 107772 107775 107778 107781 107784 107787 107790 107793 107796 107799 107802 107805 107808 107811 107814 107817 107820 107823 107826 107829 107832 107835 107838 107841 107844 107847 107850 107853 107856 107859 107862 107865 107868 107871 107874 107877 107880 107883 107886 107889 107892 107895 107898 107901 107904 107907 107910 107913 107916 107919 107922 107925 107928 107931 107934 107937 107940 107943 107946 107949 107952 107955 107958 107961 107964 107967 107970 107973 107976 107979 107982 107985 107988 107991 107994 107997 108000 108003 108006 108009 108012 108015 108018 108021 108024 108027 108030 108033 108036 108039 108042 108045 108048 108051 108054 108057 108060 108063 108066 108069 108072 108075 108078 108081 108084 108087 108090 108093 108096 108099 108102 108105 108108 108111 108114 108117 108120 108123 108126 108129 108132 108135 108138 108141 108144 108147 108150 108153 108156 108159 108162 108165 108168 108171 108174 108177 108180 108183 108186 108189 108192 108195 108198 108201 108204 108207 108210 108213 108216 108219 108222 108225 108228 108231 108234 108237 108240 108243 108246 108249 108252 108255 108258 108261 108264 108267 108270 108273 108276 108279 108282 108285 108288 108291 108294 108297 108300 108303 108306 108309 108312 108315 108318 108321 108324 108327 108330 108333 108336 108339 108342 108345 108348 108351 108354 108357 108360 108363 108366 108369 108372 108375 108378 108381 108384 108387 108390 108393 108396 108399 108402 108405 108408 108411 108414 108417 108420 108423 108426 108429 108432 108435 108438 108441 108444 108447 108450 108453 108456 108459 108462 108465 108468 108471 108474 108477 108480 108483 108486 108489 108492 108495 108498 108501 108504 108507 108510 108513 108516 108519 108522 108525 108528 108531 108534 108537 108540 108543 108546 108549 108552 108555 108558 108561 108564 108567 108570 108573 108576 108579 108582 108585 108588 108591 108594 108597 108600 108603 108606 108609 108612 108615 108618 108621 108624 108627 108630 108633 108636 108639 108642 108645 108648 108651 108654 108657 108660 108663 108666 108669 108672 108675 108678 108681 108684 108687 108690 108693 108696 108699 108702 108705 108708 108711 108714 108717 108720 108723 108726 108729 108732 108735 108738 108741 108744 108747 108750 108753 108756 108759 108762 108765 108768 108771 108774 108777 108780 108783 108786 108789 108792 108795 108798 108801 108804 108807 108810 108813 108816 108819 108822 108825 108828 108831 108834 108837 108840 108843 108846 108849 108852 108855 108858 108861 108864 108867 108870 108873 108876 108879 108882 108885 108888 108891 108894 108897 108900 108903 108906 108909 108912 108915 108918 108921 108924 108927 108930 108933 108936 108939 108942 108945 108948 108951 108954 108957 108960 108963 108966 108969 108972 108975 108978 108981 108984 108987 108990 108993 108996 108999 109002 109005 109008 109011 109014 109017 109020 109023 109026 109029 109032 109035 109038 109041 109044 109047 109050 109053 109056 109059 109062 109065 109068 109071 109074 109077 109080 109083 109086 109089 109092 109095 109098 109101 109104 109107 109110 109113 109116 109119 109122 109125 109128 109131 109134 109137 109140 109143 109146 109149 109152 109155 109158 109161 109164 109167 109170 109173 109176 109179 109182 109185 109188 109191 109194 109197 109200 109203 109206 109209 109212 109215 109218 109221 109224 109227 109230 109233 109236 109239 109242 109245 109248 109251 109254 109257 109260 109263 109266 109269 109272 109275 109278 109281 109284 109287 109290 109293 109296 109299 109302 109305 109308 109311 109314 109317 109320 109323 109326 109329 109332 109335 109338 109341 109344 109347 109350 109353 109356 109359 109362 109365 109368 109371 109374 109377 109380 109383 109386 109389 109392 109395 109398 109401 109404 109407 109410 109413 109416 109419 109422 109425 109428 109431 109434 109437 109440 109443 109446 109449 109452 109455 109458 109461 109464 109467 109470 109473 109476 109479 109482 109485 109488 109491 109494 109497 109500 109503 109506 109509 109512 109515 109518 109521 109524 109527 109530 109533 109536 109539 109542 109545 109548 109551 109554 109557 109560 109563 109566 109569 109572 109575 109578 109581 109584 109587 109590 109593 109596 109599 109602 109605 109608 109611 109614 109617 109620 109623 109626 109629 109632 109635 109638 109641 109644 109647 109650 109653 109656 109659 109662 109665 109668 109671 109674 109677 109680 109683 109686 109689 109692 109695 109698 109701 109704 109707 109710 109713 109716 109719 109722 109725 109728 109731 109734 109737 109740 109743 109746 109749 109752 109755 109758 109761 109764 109767 109770 109773 109776 109779 109782 109785 109788 109791 109794 109797 109800 109803 109806 109809 109812 109815 109818 109821 109824 109827 109830 109833 109836 109839 109842 109845 109848 109851 109854 109857 109860 109863 109866 109869 109872 109875 109878 109881 109884 109887 109890 109893 109896 109899 109902 109905 109908 109911 109914 109917 109920 109923 109926 109929 109932 109935 109938 109941 109944 109947 109950 109953 109956 109959 109962 109965 109968 109971 109974 109977 109980 109983 109986 109989 109992 109995 109998 110001 110004 110007 110010 110013 110016 110019 110022 110025 110028 110031 110034 110037 110040 110043 110046 110049 110052 110055 110058 110061 110064 110067 110070 110073 110076 110079 110082 110085 110088 110091 110094 110097 110100 110103 110106 110109 110112 110115 110118 110121 110124 110127 110130 110133 110136 110139 110142 110145 110148 110151 110154 110157 110160 110163 110166 110169 110172 110175 110178 110181 110184 110187 110190 110193 110196 110199 110202 110205 110208 110211 110214 110217 110220 110223 110226 110229 110232 110235 110238 110241 110244 110247 110250 110253 110256 110259 110262 110265 110268 110271 110274 110277 110280 110283 110286 110289 110292 110295 110298 110301 110304 110307 110310 110313 110316 110319 110322 110325 110328 110331 110334 110337 110340 110343 110346 110349 110352 110355 110358 110361 110364 110367 110370 110373 110376 110379 110382 110385 110388 110391 110394 110397 110400 110403 110406 110409 110412 110415 110418 110421 110424 110427 110430 110433 110436 110439 110442 110445 110448 110451 110454 110457 110460 110463 110466 110469 110472 110475 110478 110481 110484 110487 110490 110493 110496 110499 110502 110505 110508 110511 110514 110517 110520 110523 110526 110529 110532 110535 110538 110541 110544 110547 110550 110553 110556 110559 110562 110565 110568 110571 110574 110577 110580 110583 110586 110589 110592 110595 110598 110601 110604 110607 110610 110613 110616 110619 110622 110625 110628 110631 110634 110637 110640 110643 110646 110649 110652 110655 110658 110661 110664 110667 110670 110673 110676 110679 110682 110685 110688 110691 110694 110697 110700 110703 110706 110709 110712 110715 110718 110721 110724 110727 110730 110733 110736 110739 110742 110745 110748 110751 110754 110757 110760 110763 110766 110769 110772 110775 110778 110781 110784 110787 110790 110793 110796 110799 110802 110805 110808 110811 110814 110817 110820 110823 110826 110829 110832 110835 110838 110841 110844 110847 110850 110853 110856 110859 110862 110865 110868 110871 110874 110877 110880 110883 110886 110889 110892 110895 110898 110901 110904 110907 110910 110913 110916 110919 110922 110925 110928 110931 110934 110937 110940 110943 110946 110949 110952 110955 110958 110961 110964 110967 110970 110973 110976 110979 110982 110985 110988 110991 110994 110997 111000 111003 111006 111009 111012 111015 111018 111021 111024 111027 111030 111033 111036 111039 111042 111045 111048 111051 111054 111057 111060 111063 111066 111069 111072 111075 111078 111081 111084 111087 111090 111093 111096 111099 111102 111105 111108 111111 111114 111117 111120 111123 111126 111129 111132 111135 111138 111141 111144 111147 111150 111153 111156 111159 111162 111165 111168 111171 111174 111177 111180 111183 111186 111189 111192 111195 111198 111201 111204 111207 111210 111213 111216 111219 111222 111225 111228 111231 111234 111237 111240 111243 111246 111249 111252 111255 111258 111261 111264 111267 111270 111273 111276 111279 111282 111285 111288 111291 111294 111297 111300 111303 111306 111309 111312 111315 111318 111321 111324 111327 111330 111333 111336 111339 111342 111345 111348 111351 111354 111357 111360 111363 111366 111369 111372 111375 111378 111381 111384 111387 111390 111393 111396 111399 111402 111405 111408 111411 111414 111417 111420 111423 111426 111429 111432 111435 111438 111441 111444 111447 111450 111453 111456 111459 111462 111465 111468 111471 111474 111477 111480 111483 111486 111489 111492 111495 111498 111501 111504 111507 111510 111513 111516 111519 111522 111525 111528 111531 111534 111537 111540 111543 111546 111549 111552 111555 111558 111561 111564 111567 111570 111573 111576 111579 111582 111585 111588 111591 111594 111597 111600 111603 111606 111609 111612 111615 111618 111621 111624 111627 111630 111633 111636 111639 111642 111645 111648 111651 111654 111657 111660 111663 111666 111669 111672 111675 111678 111681 111684 111687 111690 111693 111696 111699 111702 111705 111708 111711 111714 111717 111720 111723 111726 111729 111732 111735 111738 111741 111744 111747 111750 111753 111756 111759 111762 111765 111768 111771 111774 111777 111780 111783 111786 111789 111792 111795 111798 111801 111804 111807 111810 111813 111816 111819 111822 111825 111828 111831 111834 111837 111840 111843 111846 111849 111852 111855 111858 111861 111864 111867 111870 111873 111876 111879 111882 111885 111888 111891 111894 111897 111900 111903 111906 111909 111912 111915 111918 111921 111924 111927 111930 111933 111936 111939 111942 111945 111948 111951 111954 111957 111960 111963 111966 111969 111972 111975 111978 111981 111984 111987 111990 111993 111996 111999 112002 112005 112008 112011 112014 112017 112020 112023 112026 112029 112032 112035 112038 112041 112044 112047 112050 112053 112056 112059 112062 112065 112068 112071 112074 112077 112080 112083 112086 112089 112092 112095 112098 112101 112104 112107 112110 112113 112116 112119 112122 112125 112128 112131 112134 112137 112140 112143 112146 112149 112152 112155 112158 112161 112164 112167 112170 112173 112176 112179 112182 112185 112188 112191 112194 112197 112200 112203 112206 112209 112212 112215 112218 112221 112224 112227 112230 112233 112236 112239 112242 112245 112248 112251 112254 112257 112260 112263 112266 112269 112272 112275 112278 112281 112284 112287 112290 112293 112296 112299 112302 112305 112308 112311 112314 112317 112320 112323 112326 112329 112332 112335 112338 112341 112344 112347 112350 112353 112356 112359 112362 112365 112368 112371 112374 112377 112380 112383 112386 112389 112392 112395 112398 112401 112404 112407 112410 112413 112416 112419 112422 112425 112428 112431 112434 112437 112440 112443 112446 112449 112452 112455 112458 112461 112464 112467 112470 112473 112476 112479 112482 112485 112488 112491 112494 112497 112500 112503 112506 112509 112512 112515 112518 112521 112524 112527 112530 112533 112536 112539 112542 112545 112548 112551 112554 112557 112560 112563 112566 112569 112572 112575 112578 112581 112584 112587 112590 112593 112596 112599 112602 112605 112608 112611 112614 112617 112620 112623 112626 112629 112632 112635 112638 112641 112644 112647 112650 112653 112656 112659 112662 112665 112668 112671 112674 112677 112680 112683 112686 112689 112692 112695 112698 112701 112704 112707 112710 112713 112716 112719 112722 112725 112728 112731 112734 112737 112740 112743 112746 112749 112752 112755 112758 112761 112764 112767 112770 112773 112776 112779 112782 112785 112788 112791 112794 112797 112800 112803 112806 112809 112812 112815 112818 112821 112824 112827 112830 112833 112836 112839 112842 112845 112848 112851 112854 112857 112860 112863 112866 112869 112872 112875 112878 112881 112884 112887 112890 112893 112896 112899 112902 112905 112908 112911 112914 112917 112920 112923 112926 112929 112932 112935 112938 112941 112944 112947 112950 112953 112956 112959 112962 112965 112968 112971 112974 112977 112980 112983 112986 112989 112992 112995 112998 113001 113004 113007 113010 113013 113016 113019 113022 113025 113028 113031 113034 113037 113040 113043 113046 113049 113052 113055 113058 113061 113064 113067 113070 113073 113076 113079 113082 113085 113088 113091 113094 113097 113100 113103 113106 113109 113112 113115 113118 113121 113124 113127 113130 113133 113136 113139 113142 113145 113148 113151 113154 113157 113160 113163 113166 113169 113172 113175 113178 113181 113184 113187 113190 113193 113196 113199 113202 113205 113208 113211 113214 113217 113220 113223 113226 113229 113232 113235 113238 113241 113244 113247 113250 113253 113256 113259 113262 113265 113268 113271 113274 113277 113280 113283 113286 113289 113292 113295 113298 113301 113304 113307 113310 113313 113316 113319 113322 113325 113328 113331 113334 113337 113340 113343 113346 113349 113352 113355 113358 113361 113364 113367 113370 113373 113376 113379 113382 113385 113388 113391 113394 113397 113400 113403 113406 113409 113412 113415 113418 113421 113424 113427 113430 113433 113436 113439 113442 113445 113448 113451 113454 113457 113460 113463 113466 113469 113472 113475 113478 113481 113484 113487 113490 113493 113496 113499 113502 113505 113508 113511 113514 113517 113520 113523 113526 113529 113532 113535 113538 113541 113544 113547 113550 113553 113556 113559 113562 113565 113568 113571 113574 113577 113580 113583 113586 113589 113592 113595 113598 113601 113604 113607 113610 113613 113616 113619 113622 113625 113628 113631 113634 113637 113640 113643 113646 113649 113652 113655 113658 113661 113664 113667 113670 113673 113676 113679 113682 113685 113688 113691 113694 113697 113700 113703 113706 113709 113712 113715 113718 113721 113724 113727 113730 113733 113736 113739 113742 113745 113748 113751 113754 113757 113760 113763 113766 113769 113772 113775 113778 113781 113784 113787 113790 113793 113796 113799 113802 113805 113808 113811 113814 113817 113820 113823 113826 113829 113832 113835 113838 113841 113844 113847 113850 113853 113856 113859 113862 113865 113868 113871 113874 113877 113880 113883 113886 113889 113892 113895 113898 113901 113904 113907 113910 113913 113916 113919 113922 113925 113928 113931 113934 113937 113940 113943 113946 113949 113952 113955 113958 113961 113964 113967 113970 113973 113976 113979 113982 113985 113988 113991 113994 113997 114000 114003 114006 114009 114012 114015 114018 114021 114024 114027 114030 114033 114036 114039 114042 114045 114048 114051 114054 114057 114060 114063 114066 114069 114072 114075 114078 114081 114084 114087 114090 114093 114096 114099 114102 114105 114108 114111 114114 114117 114120 114123 114126 114129 114132 114135 114138 114141 114144 114147 114150 114153 114156 114159 114162 114165 114168 114171 114174 114177 114180 114183 114186 114189 114192 114195 114198 114201 114204 114207 114210 114213 114216 114219 114222 114225 114228 114231 114234 114237 114240 114243 114246 114249 114252 114255 114258 114261 114264 114267 114270 114273 114276 114279 114282 114285 114288 114291 114294 114297 114300 114303 114306 114309 114312 114315 114318 114321 114324 114327 114330 114333 114336 114339 114342 114345 114348 114351 114354 114357 114360 114363 114366 114369 114372 114375 114378 114381 114384 114387 114390 114393 114396 114399 114402 114405 114408 114411 114414 114417 114420 114423 114426 114429 114432 114435 114438 114441 114444 114447 114450 114453 114456 114459 114462 114465 114468 114471 114474 114477 114480 114483 114486 114489 114492 114495 114498 114501 114504 114507 114510 114513 114516 114519 114522 114525 114528 114531 114534 114537 114540 114543 114546 114549 114552 114555 114558 114561 114564 114567 114570 114573 114576 114579 114582 114585 114588 114591 114594 114597 114600 114603 114606 114609 114612 114615 114618 114621 114624 114627 114630 114633 114636 114639 114642 114645 114648 114651 114654 114657 114660 114663 114666 114669 114672 114675 114678 114681 114684 114687 114690 114693 114696 114699 114702 114705 114708 114711 114714 114717 114720 114723 114726 114729 114732 114735 114738 114741 114744 114747 114750 114753 114756 114759 114762 114765 114768 114771 114774 114777 114780 114783 114786 114789 114792 114795 114798 114801 114804 114807 114810 114813 114816 114819 114822 114825 114828 114831 114834 114837 114840 114843 114846 114849 114852 114855 114858 114861 114864 114867 114870 114873 114876 114879 114882 114885 114888 114891 114894 114897 114900 114903 114906 114909 114912 114915 114918 114921 114924 114927 114930 114933 114936 114939 114942 114945 114948 114951 114954 114957 114960 114963 114966 114969 114972 114975 114978 114981 114984 114987 114990 114993 114996 114999 115002 115005 115008 115011 115014 115017 115020 115023 115026 115029 115032 115035 115038 115041 115044 115047 115050 115053 115056 115059 115062 115065 115068 115071 115074 115077 115080 115083 115086 115089 115092 115095 115098 115101 115104 115107 115110 115113 115116 115119 115122 115125 115128 115131 115134 115137 115140 115143 115146 115149 115152 115155 115158 115161 115164 115167 115170 115173 115176 115179 115182 115185 115188 115191 115194 115197 115200 115203 115206 115209 115212 115215 115218 115221 115224 115227 115230 115233 115236 115239 115242 115245 115248 115251 115254 115257 115260 115263 115266 115269 115272 115275 115278 115281 115284 115287 115290 115293 115296 115299 115302 115305 115308 115311 115314 115317 115320 115323 115326 115329 115332 115335 115338 115341 115344 115347 115350 115353 115356 115359 115362 115365 115368 115371 115374 115377 115380 115383 115386 115389 115392 115395 115398 115401 115404 115407 115410 115413 115416 115419 115422 115425 115428 115431 115434 115437 115440 115443 115446 115449 115452 115455 115458 115461 115464 115467 115470 115473 115476 115479 115482 115485 115488 115491 115494 115497 115500 115503 115506 115509 115512 115515 115518 115521 115524 115527 115530 115533 115536 115539 115542 115545 115548 115551 115554 115557 115560 115563 115566 115569 115572 115575 115578 115581 115584 115587 115590 115593 115596 115599 115602 115605 115608 115611 115614 115617 115620 115623 115626 115629 115632 115635 115638 115641 115644 115647 115650 115653 115656 115659 115662 115665 115668 115671 115674 115677 115680 115683 115686 115689 115692 115695 115698 115701 115704 115707 115710 115713 115716 115719 115722 115725 115728 115731 115734 115737 115740 115743 115746 115749 115752 115755 115758 115761 115764 115767 115770 115773 115776 115779 115782 115785 115788 115791 115794 115797 115800 115803 115806 115809 115812 115815 115818 115821 115824 115827 115830 115833 115836 115839 115842 115845 115848 115851 115854 115857 115860 115863 115866 115869 115872 115875 115878 115881 115884 115887 115890 115893 115896 115899 115902 115905 115908 115911 115914 115917 115920 115923 115926 115929 115932 115935 115938 115941 115944 115947 115950 115953 115956 115959 115962 115965 115968 115971 115974 115977 115980 115983 115986 115989 115992 115995 115998 116001 116004 116007 116010 116013 116016 116019 116022 116025 116028 116031 116034 116037 116040 116043 116046 116049 116052 116055 116058 116061 116064 116067 116070 116073 116076 116079 116082 116085 116088 116091 116094 116097 116100 116103 116106 116109 116112 116115 116118 116121 116124 116127 116130 116133 116136 116139 116142 116145 116148 116151 116154 116157 116160 116163 116166 116169 116172 116175 116178 116181 116184 116187 116190 116193 116196 116199 116202 116205 116208 116211 116214 116217 116220 116223 116226 116229 116232 116235 116238 116241 116244 116247 116250 116253 116256 116259 116262 116265 116268 116271 116274 116277 116280 116283 116286 116289 116292 116295 116298 116301 116304 116307 116310 116313 116316 116319 116322 116325 116328 116331 116334 116337 116340 116343 116346 116349 116352 116355 116358 116361 116364 116367 116370 116373 116376 116379 116382 116385 116388 116391 116394 116397 116400 116403 116406 116409 116412 116415 116418 116421 116424 116427 116430 116433 116436 116439 116442 116445 116448 116451 116454 116457 116460 116463 116466 116469 116472 116475 116478 116481 116484 116487 116490 116493 116496 116499 116502 116505 116508 116511 116514 116517 116520 116523 116526 116529 116532 116535 116538 116541 116544 116547 116550 116553 116556 116559 116562 116565 116568 116571 116574 116577 116580 116583 116586 116589 116592 116595 116598 116601 116604 116607 116610 116613 116616 116619 116622 116625 116628 116631 116634 116637 116640 116643 116646 116649 116652 116655 116658 116661 116664 116667 116670 116673 116676 116679 116682 116685 116688 116691 116694 116697 116700 116703 116706 116709 116712 116715 116718 116721 116724 116727 116730 116733 116736 116739 116742 116745 116748 116751 116754 116757 116760 116763 116766 116769 116772 116775 116778 116781 116784 116787 116790 116793 116796 116799 116802 116805 116808 116811 116814 116817 116820 116823 116826 116829 116832 116835 116838 116841 116844 116847 116850 116853 116856 116859 116862 116865 116868 116871 116874 116877 116880 116883 116886 116889 116892 116895 116898 116901 116904 116907 116910 116913 116916 116919 116922 116925 116928 116931 116934 116937 116940 116943 116946 116949 116952 116955 116958 116961 116964 116967 116970 116973 116976 116979 116982 116985 116988 116991 116994 116997 117000 117003 117006 117009 117012 117015 117018 117021 117024 117027 117030 117033 117036 117039 117042 117045 117048 117051 117054 117057 117060 117063 117066 117069 117072 117075 117078 117081 117084 117087 117090 117093 117096 117099 117102 117105 117108 117111 117114 117117 117120 117123 117126 117129 117132 117135 117138 117141 117144 117147 117150 117153 117156 117159 117162 117165 117168 117171 117174 117177 117180 117183 117186 117189 117192 117195 117198 117201 117204 117207 117210 117213 117216 117219 117222 117225 117228 117231 117234 117237 117240 117243 117246 117249 117252 117255 117258 117261 117264 117267 117270 117273 117276 117279 117282 117285 117288 117291 117294 117297 117300 117303 117306 117309 117312 117315 117318 117321 117324 117327 117330 117333 117336 117339 117342 117345 117348 117351 117354 117357 117360 117363 117366 117369 117372 117375 117378 117381 117384 117387 117390 117393 117396 117399 117402 117405 117408 117411 117414 117417 117420 117423 117426 117429 117432 117435 117438 117441 117444 117447 117450 117453 117456 117459 117462 117465 117468 117471 117474 117477 117480 117483 117486 117489 117492 117495 117498 117501 117504 117507 117510 117513 117516 117519 117522 117525 117528 117531 117534 117537 117540 117543 117546 117549 117552 117555 117558 117561 117564 117567 117570 117573 117576 117579 117582 117585 117588 117591 117594 117597 117600 117603 117606 117609 117612 </DataArray>
            <DataArray Name="types" format="ascii" type="UInt8">5 5 5 5 5 5 5 5 5 5 5 5 5 5 5 5 5 5 5 5 5 5 5 5 5 5 5 5 5 5 5 5 5 5 5 5 5 5 5 5 5 5 5 5 5 5 5 5 5 5 5 5 5 5 5 5 5 5 5 5 5 5 5 5 5 5 5 5 5 5 5 5 5 5 5 5 5 5 5 5 5 5 5 5 5 5 5 5 5 5 5 5 5 5 5 5 5 5 5 5 5 5 5 5 5 5 5 5 5 5 5 5 5 5 5 5 5 5 5 5 5 5 5 5 5 5 5 5 5 5 5 5 5 5 5 5 5 5 5 5 5 5 5 5 5 5 5 5 5 5 5 5 5 5 5 5 5 5 5 5 5 5 5 5 5 5 5 5 5 5 5 5 5 5 5 5 5 5 5 5 5 5 5 5 5 5 5 5 5 5 5 5 5 5 5 5 5 5 5 5 5 5 5 5 5 5 5 5 5 5 5 5 5 5 5 5 5 5 5 5 5 5 5 5 5 5 5 5 5 5 5 5 5 5 5 5 5 5 5 5 5 5 5 5 5 5 5 5 5 5 5 5 5 5 5 5 5 5 5 5 5 5 5 5 5 5 5 5 5 5 5 5 5 5 5 5 5 5 5 5 5 5 5 5 5 5 5 5 5 5 5 5 5 5 5 5 5 5 5 5 5 5 5 5 5 5 5 5 5 5 5 5 5 5 5 5 5 5 5 5 5 5 5 5 5 5 5 5 5 5 5 5 5 5 5 5 5 5 5 5 5 5 5 5 5 5 5 5 5 5 5 5 5 5 5 5 5 5 5 5 5 5 5 5 5 5 5 5 5 5 5 5 5 5 5 5 5 5 5 5 5 5 5 5 5 5 5 5 5 5 5 5 5 5 5 5 5 5 5 5 5 5 5 5 5 5 5 5 5 5 5 5 5 5 5 5 5 5 5 5 5 5 5 5 5 5 5 5 5 5 5 5 5 5 5 5 5 5 5 5 5 5 5 5 5 5 5 5 5 5 5 5 5 5 5 5 5 5 5 5 5 5 5 5 5 5 5 5 5 5 5 5 5 5 5 5 5 5 5 5 5 5 5 5 5 5 5 5 5 5 5 5 5 5 5 5 5 5 5 5 5 5 5 5 5 5 5 5 5 5 5 5 5 5 5 5 5 5 5 5 5 5 5 5 5 5 5 5 5 5 5 5 5 5 5 5 5 5 5 5 5 5 5 5 5 5 5 5 5 5 5 5 5 5 5 5 5 5 5 5 5 5 5 5 5 5 5 5 5 5 5 5 5 5 5 5 5 5 5 5 5 5 5 5 5 5 5 5 5 5 5 5 5 5 5 5 5 5 5 5 5 5 5 5 5 5 5 5 5 5 5 5 5 5 5 5 5 5 5 5 5 5 5 5 5 5 5 5 5 5 5 5 5 5 5 5 5 5 5 5 5 5 5 5 5 5 5 5 5 5 5 5 5 5 5 5 5 5 5 5 5 5 5 5 5 5 5 5 5 5 5 5 5 5 5 5 5 5 5 5 5 5 5 5 5 5 5 5 5 5 5 5 5 5 5 5 5 5 5 5 5 5 5 5 5 5 5 5 5 5 5 5 5 5 5 5 5 5 5 5 5 5 5 5 5 5 5 5 5 5 5 5 5 5 5 5 5 5 5 5 5 5 5 5 5 5 5 5 5 5 5 5 5 5 5 5 5 5 5 5 5 5 5 5 5 5 5 5 5 5 5 5 5 5 5 5 5 5 5 5 5 5 5 5 5 5 5 5 5 5 5 5 5 5 5 5 5 5 5 5 5 5 5 5 5 5 5 5 5 5 5 5 5 5 5 5 5 5 5 5 5 5 5 5 5 5 5 5 5 5 5 5 5 5 5 5 5 5 5 5 5 5 5 5 5 5 5 5 5 5 5 5 5 5 5 5 5 5 5 5 5 5 5 5 5 5 5 5 5 5 5 5 5 5 5 5 5 5 5 5 5 5 5 5 5 5 5 5 5 5 5 5 5 5 5 5 5 5 5 5 5 5 5 5 5 5 5 5 5 5 5 5 5 5 5 5 5 5 5 5 5 5 5 5 5 5 5 5 5 5 5 5 5 5 5 5 5 5 5 5 5 5 5 5 5 5 5 5 5 5 5 5 5 5 5 5 5 5 5 5 5 5 5 5 5 5 5 5 5 5 5 5 5 5 5 5 5 5 5 5 5 5 5 5 5 5 5 5 5 5 5 5 5 5 5 5 5 5 5 5 5 5 5 5 5 5 5 5 5 5 5 5 5 5 5 5 5 5 5 5 5 5 5 5 5 5 5 5 5 5 5 5 5 5 5 5 5 5 5 5 5 5 5 5 5 5 5 5 5 5 5 5 5 5 5 5 5 5 5 5 5 5 5 5 5 5 5 5 5 5 5 5 5 5 5 5 5 5 5 5 5 5 5 5 5 5 5 5 5 5 5 5 5 5 5 5 5 5 5 5 5 5 5 5 5 5 5 5 5 5 5 5 5 5 5 5 5 5 5 5 5 5 5 5 5 5 5 5 5 5 5 5 5 5 5 5 5 5 5 5 5 5 5 5 5 5 5 5 5 5 5 5 5 5 5 5 5 5 5 5 5 5 5 5 5 5 5 5 5 5 5 5 5 5 5 5 5 5 5 5 5 5 5 5 5 5 5 5 5 5 5 5 5 5 5 5 5 5 5 5 5 5 5 5 5 5 5 5 5 5 5 5 5 5 5 5 5 5 5 5 5 5 5 5 5 5 5 5 5 5 5 5 5 5 5 5 5 5 5 5 5 5 5 5 5 5 5 5 5 5 5 5 5 5 5 5 5 5 5 5 5 5 5 5 5 5 5 5 5 5 5 5 5 5 5 5 5 5 5 5 5 5 5 5 5 5 5 5 5 5 5 5 5 5 5 5 5 5 5 5 5 5 5 5 5 5 5 5 5 5 5 5 5 5 5 5 5 5 5 5 5 5 5 5 5 5 5 5 5 5 5 5 5 5 5 5 5 5 5 5 5 5 5 5 5 5 5 5 5 5 5 5 5 5 5 5 5 5 5 5 5 5 5 5 5 5 5 5 5 5 5 5 5 5 5 5 5 5 5 5 5 5 5 5 5 5 5 5 5 5 5 5 5 5 5 5 5 5 5 5 5 5 5 5 5 5 5 5 5 5 5 5 5 5 5 5 5 5 5 5 5 5 5 5 5 5 5 5 5 5 5 5 5 5 5 5 5 5 5 5 5 5 5 5 5 5 5 5 5 5 5 5 5 5 5 5 5 5 5 5 5 5 5 5 5 5 5 5 5 5 5 5 5 5 5 5 5 5 5 5 5 5 5 5 5 5 5 5 5 5 5 5 5 5 5 5 5 5 5 5 5 5 5 5 5 5 5 5 5 5 5 5 5 5 5 5 5 5 5 5 5 5 5 5 5 5 5 5 5 5 5 5 5 5 5 5 5 5 5 5 5 5 5 5 5 5 5 5 5 5 5 5 5 5 5 5 5 5 5 5 5 5 5 5 5 5 5 5 5 5 5 5 5 5 5 5 5 5 5 5 5 5 5 5 5 5 5 5 5 5 5 5 5 5 5 5 5 5 5 5 5 5 5 5 5 5 5 5 5 5 5 5 5 5 5 5 5 5 5 5 5 5 5 5 5 5 5 5 5 5 5 5 5 5 5 5 5 5 5 5 5 5 5 5 5 5 5 5 5 5 5 5 5 5 5 5 5 5 5 5 5 5 5 5 5 5 5 5 5 5 5 5 5 5 5 5 5 5 5 5 5 5 5 5 5 5 5 5 5 5 5 5 5 5 5 5 5 5 5 5 5 5 5 5 5 5 5 5 5 5 5 5 5 5 5 5 5 5 5 5 5 5 5 5 5 5 5 5 5 5 5 5 5 5 5 5 5 5 5 5 5 5 5 5 5 5 5 5 5 5 5 5 5 5 5 5 5 5 5 5 5 5 5 5 5 5 5 5 5 5 5 5 5 5 5 5 5 5 5 5 5 5 5 5 5 5 5 5 5 5 5 5 5 5 5 5 5 5 5 5 5 5 5 5 5 5 5 5 5 5 5 5 5 5 5 5 5 5 5 5 5 5 5 5 5 5 5 5 5 5 5 5 5 5 5 5 5 5 5 5 5 5 5 5 5 5 5 5 5 5 5 5 5 5 5 5 5 5 5 5 5 5 5 5 5 5 5 5 5 5 5 5 5 5 5 5 5 5 5 5 5 5 5 5 5 5 5 5 5 5 5 5 5 5 5 5 5 5 5 5 5 5 5 5 5 5 5 5 5 5 5 5 5 5 5 5 5 5 5 5 5 5 5 5 5 5 5 5 5 5 5 5 5 5 5 5 5 5 5 5 5 5 5 5 5 5 5 5 5 5 5 5 5 5 5 5 5 5 5 5 5 5 5 5 5 5 5 5 5 5 5 5 5 5 5 5 5 5 5 5 5 5 5 5 5 5 5 5 5 5 5 5 5 5 5 5 5 5 5 5 5 5 5 5 5 5 5 5 5 5 5 5 5 5 5 5 5 5 5 5 5 5 5 5 5 5 5 5 5 5 5 5 5 5 5 5 5 5 5 5 5 5 5 5 5 5 5 5 5 5 5 5 5 5 5 5 5 5 5 5 5 5 5 5 5 5 5 5 5 5 5 5 5 5 5 5 5 5 5 5 5 5 5 5 5 5 5 5 5 5 5 5 5 5 5 5 5 5 5 5 5 5 5 5 5 5 5 5 5 5 5 5 5 5 5 5 5 5 5 5 5 5 5 5 5 5 5 5 5 5 5 5 5 5 5 5 5 5 5 5 5 5 5 5 5 5 5 5 5 5 5 5 5 5 5 5 5 5 5 5 5 5 5 5 5 5 5 5 5 5 5 5 5 5 5 5 5 5 5 5 5 5 5 5 5 5 5 5 5 5 5 5 5 5 5 5 5 5 5 5 5 5 5 5 5 5 5 5 5 5 5 5 5 5 5 5 5 5 5 5 5 5 5 5 5 5 5 5 5 5 5 5 5 5 5 5 5 5 5 5 5 5 5 5 5 5 5 5 5 5 5 5 5 5 5 5 5 5 5 5 5 5 5 5 5 5 5 5 5 5 5 5 5 5 5 5 5 5 5 5 5 5 5 5 5 5 5 5 5 5 5 5 5 5 5 5 5 5 5 5 5 5 5 5 5 5 5 5 5 5 5 5 5 5 5 5 5 5 5 5 5 5 5 5 5 5 5 5 5 5 5 5 5 5 5 5 5 5 5 5 5 5 5 5 5 5 5 5 5 5 5 5 5 5 5 5 5 5 5 5 5 5 5 5 5 5 5 5 5 5 5 5 5 5 5 5 5 5 5 5 5 5 5 5 5 5 5 5 5 5 5 5 5 5 5 5 5 5 5 5 5 5 5 5 5 5 5 5 5 5 5 5 5 5 5 5 5 5 5 5 5 5 5 5 5 5 5 5 5 5 5 5 5 5 5 5 5 5 5 5 5 5 5 5 5 5 5 5 5 5 5 5 5 5 5 5 5 5 5 5 5 5 5 5 5 5 5 5 5 5 5 5 5 5 5 5 5 5 5 5 5 5 5 5 5 5 5 5 5 5 5 5 5 5 5 5 5 5 5 5 5 5 5 5 5 5 5 5 5 5 5 5 5 5 5 5 5 5 5 5 5 5 5 5 5 5 5 5 5 5 5 5 5 5 5 5 5 5 5 5 5 5 5 5 5 5 5 5 5 5 5 5 5 5 5 5 5 5 5 5 5 5 5 5 5 5 5 5 5 5 5 5 5 5 5 5 5 5 5 5 5 5 5 5 5 5 5 5 5 5 5 5 5 5 5 5 5 5 5 5 5 5 5 5 5 5 5 5 5 5 5 5 5 5 5 5 5 5 5 5 5 5 5 5 5 5 5 5 5 5 5 5 5 5 5 5 5 5 5 5 5 5 5 5 5 5 5 5 5 5 5 5 5 5 5 5 5 5 5 5 5 5 5 5 5 5 5 5 5 5 5 5 5 5 5 5 5 5 5 5 5 5 5 5 5 5 5 5 5 5 5 5 5 5 5 5 5 5 5 5 5 5 5 5 5 5 5 5 5 5 5 5 5 5 5 5 5 5 5 5 5 5 5 5 5 5 5 5 5 5 5 5 5 5 5 5 5 5 5 5 5 5 5 5 5 5 5 5 5 5 5 5 5 5 5 5 5 5 5 5 5 5 5 5 5 5 5 5 5 5 5 5 5 5 5 5 5 5 5 5 5 5 5 5 5 5 5 5 5 5 5 5 5 5 5 5 5 5 5 5 5 5 5 5 5 5 5 5 5 5 5 5 5 5 5 5 5 5 5 5 5 5 5 5 5 5 5 5 5 5 5 5 5 5 5 5 5 5 5 5 5 5 5 5 5 5 5 5 5 5 5 5 5 5 5 5 5 5 5 5 5 5 5 5 5 5 5 5 5 5 5 5 5 5 5 5 5 5 5 5 5 5 5 5 5 5 5 5 5 5 5 5 5 5 5 5 5 5 5 5 5 5 5 5 5 5 5 5 5 5 5 5 5 5 5 5 5 5 5 5 5 5 5 5 5 5 5 5 5 5 5 5 5 5 5 5 5 5 5 5 5 5 5 5 5 5 5 5 5 5 5 5 5 5 5 5 5 5 5 5 5 5 5 5 5 5 5 5 5 5 5 5 5 5 5 5 5 5 5 5 5 5 5 5 5 5 5 5 5 5 5 5 5 5 5 5 5 5 5 5 5 5 5 5 5 5 5 5 5 5 5 5 5 5 5 5 5 5 5 5 5 5 5 5 5 5 5 5 5 5 5 5 5 5 5 5 5 5 5 5 5 5 5 5 5 5 5 5 5 5 5 5 5 5 5 5 5 5 5 5 5 5 5 5 5 5 5 5 5 5 5 5 5 5 5 5 5 5 5 5 5 5 5 5 5 5 5 5 5 5 5 5 5 5 5 5 5 5 5 5 5 5 5 5 5 5 5 5 5 5 5 5 5 5 5 5 5 5 5 5 5 5 5 5 5 5 5 5 5 5 5 5 5 5 5 5 5 5 5 5 5 5 5 5 5 5 5 5 5 5 5 5 5 5 5 5 5 5 5 5 5 5 5 5 5 5 5 5 5 5 5 5 5 5 5 5 5 5 5 5 5 5 5 5 5 5 5 5 5 5 5 5 5 5 5 5 5 5 5 5 5 5 5 5 5 5 5 5 5 5 5 5 5 5 5 5 5 5 5 5 5 5 5 5 5 5 5 5 5 5 5 5 5 5 5 5 5 5 5 5 5 5 5 5 5 5 5 5 5 5 5 5 5 5 5 5 5 5 5 5 5 5 5 5 5 5 5 5 5 5 5 5 5 5 5 5 5 5 5 5 5 5 5 5 5 5 5 5 5 5 5 5 5 5 5 5 5 5 5 5 5 5 5 5 5 5 5 5 5 5 5 5 5 5 5 5 5 5 5 5 5 5 5 5 5 5 5 5 5 5 5 5 5 5 5 5 5 5 5 5 5 5 5 5 5 5 5 5 5 5 5 5 5 5 5 5 5 5 5 5 5 5 5 5 5 5 5 5 5 5 5 5 5 5 5 5 5 5 5 5 5 5 5 5 5 5 5 5 5 5 5 5 5 5 5 5 5 5 5 5 5 5 5 5 5 5 5 5 5 5 5 5 5 5 5 5 5 5 5 5 5 5 5 5 5 5 5 5 5 5 5 5 5 5 5 5 5 5 5 5 5 5 5 5 5 5 5 5 5 5 5 5 5 5 5 5 5 5 5 5 5 5 5 5 5 5 5 5 5 5 5 5 5 5 5 5 5 5 5 5 5 5 5 5 5 5 5 5 5 5 5 5 5 5 5 5 5 5 5 5 5 5 5 5 5 5 5 5 5 5 5 5 5 5 5 5 5 5 5 5 5 5 5 5 5 5 5 5 5 5 5 5 5 5 5 5 5 5 5 5 5 5 5 5 5 5 5 5 5 5 5 5 5 5 5 5 5 5 5 5 5 5 5 5 5 5 5 5 5 5 5 5 5 5 5 5 5 5 5 5 5 5 5 5 5 5 5 5 5 5 5 5 5 5 5 5 5 5 5 5 5 5 5 5 5 5 5 5 5 5 5 5 5 5 5 5 5 5 5 5 5 5 5 5 5 5 5 5 5 5 5 5 5 5 5 5 5 5 5 5 5 5 5 5 5 5 5 5 5 5 5 5 5 5 5 5 5 5 5 5 5 5 5 5 5 5 5 5 5 5 5 5 5 5 5 5 5 5 5 5 5 5 5 5 5 5 5 5 5 5 5 5 5 5 5 5 5 5 5 5 5 5 5 5 5 5 5 5 5 5 5 5 5 5 5 5 5 5 5 5 5 5 5 5 5 5 5 5 5 5 5 5 5 5 5 5 5 5 5 5 5 5 5 5 5 5 5 5 5 5 5 5 5 5 5 5 5 5 5 5 5 5 5 5 5 5 5 5 5 5 5 5 5 5 5 5 5 5 5 5 5 5 5 5 5 5 5 5 5 5 5 5 5 5 5 5 5 5 5 5 5 5 5 5 5 5 5 5 5 5 5 5 5 5 5 5 5 5 5 5 5 5 5 5 5 5 5 5 5 5 5 5 5 5 5 5 5 5 5 5 5 5 5 5 5 5 5 5 5 5 5 5 5 5 5 5 5 5 5 5 5 5 5 5 5 5 5 5 5 5 5 5 5 5 5 5 5 5 5 5 5 5 5 5 5 5 5 5 5 5 5 5 5 5 5 5 5 5 5 5 5 5 5 5 5 5 5 5 5 5 5 5 5 5 5 5 5 5 5 5 5 5 5 5 5 5 5 5 5 5 5 5 5 5 5 5 5 5 5 5 5 5 5 5 5 5 5 5 5 5 5 5 5 5 5 5 5 5 5 5 5 5 5 5 5 5 5 5 5 5 5 5 5 5 5 5 5 5 5 5 5 5 5 5 5 5 5 5 5 5 5 5 5 5 5 5 5 5 5 5 5 5 5 5 5 5 5 5 5 5 5 5 5 5 5 5 5 5 5 5 5 5 5 5 5 5 5 5 5 5 5 5 5 5 5 5 5 5 5 5 5 5 5 5 5 5 5 5 5 5 5 5 5 5 5 5 5 5 5 5 5 5 5 5 5 5 5 5 5 5 5 5 5 5 5 5 5 5 5 5 5 5 5 5 5 5 5 5 5 5 5 5 5 5 5 5 5 5 5 5 5 5 5 5 5 5 5 5 5 5 5 5 5 5 5 5 5 5 5 5 5 5 5 5 5 5 5 5 5 5 5 5 5 5 5 5 5 5 5 5 5 5 5 5 5 5 5 5 5 5 5 5 5 5 5 5 5 5 5 5 5 5 5 5 5 5 5 5 5 5 5 5 5 5 5 5 5 5 5 5 5 5 5 5 5 5 5 5 5 5 5 5 5 5 5 5 5 5 5 5 5 5 5 5 5 5 5 5 5 5 5 5 5 5 5 5 5 5 5 5 5 5 5 5 5 5 5 5 5 5 5 5 5 5 5 5 5 5 5 5 5 5 5 5 5 5 5 5 5 5 5 5 5 5 5 5 5 5 5 5 5 5 5 5 5 5 5 5 5 5 5 5 5 5 5 5 5 5 5 5 5 5 5 5 5 5 5 5 5 5 5 5 5 5 5 5 5 5 5 5 5 5 5 5 5 5 5 5 5 5 5 5 5 5 5 5 5 5 5 5 5 5 5 5 5 5 5 5 5 5 5 5 5 5 5 5 5 5 5 5 5 5 5 5 5 5 5 5 5 5 5 5 5 5 5 5 5 5 5 5 5 5 5 5 5 5 5 5 5 5 5 5 5 5 5 5 5 5 5 5 5 5 5 5 5 5 5 5 5 5 5 5 5 5 5 5 5 5 5 5 5 5 5 5 5 5 5 5 5 5 5 5 5 5 5 5 5 5 5 5 5 5 5 5 5 5 5 5 5 5 5 5 5 5 5 5 5 5 5 5 5 5 5 5 5 5 5 5 5 5 5 5 5 5 5 5 5 5 5 5 5 5 5 5 5 5 5 5 5 5 5 5 5 5 5 5 5 5 5 5 5 5 5 5 5 5 5 5 5 5 5 5 5 5 5 5 5 5 5 5 5 5 5 5 5 5 5 5 5 5 5 5 5 5 5 5 5 5 5 5 5 5 5 5 5 5 5 5 5 5 5 5 5 5 5 5 5 5 5 5 5 5 5 5 5 5 5 5 5 5 5 5 5 5 5 5 5 5 5 5 5 5 5 5 5 5 5 5 5 5 5 5 5 5 5 5 5 5 5 5 5 5 5 5 5 5 5 5 5 5 5 5 5 5 5 5 5 5 5 5 5 5 5 5 5 5 5 5 5 5 5 5 5 5 5 5 5 5 5 5 5 5 5 5 5 5 5 5 5 5 5 5 5 5 5 5 5 5 5 5 5 5 5 5 5 5 5 5 5 5 5 5 5 5 5 5 5 5 5 5 5 5 5 5 5 5 5 5 5 5 5 5 5 5 5 5 5 5 5 5 5 5 5 5 5 5 5 5 5 5 5 5 5 5 5 5 5 5 5 5 5 5 5 5 5 5 5 5 5 5 5 5 5 5 5 5 5 5 5 5 5 5 5 5 5 5 5 5 5 5 5 5 5 5 5 5 5 5 5 5 5 5 5 5 5 5 5 5 5 5 5 5 5 5 5 5 5 5 5 5 5 5 5 5 5 5 5 5 5 5 5 5 5 5 5 5 5 5 5 5 5 5 5 5 5 5 5 5 5 5 5 5 5 5 5 5 5 5 5 5 5 5 5 5 5 5 5 5 5 5 5 5 5 5 5 5 5 5 5 5 5 5 5 5 5 5 5 5 5 5 5 5 5 5 5 5 5 5 5 5 5 5 5 5 5 5 5 5 5 5 5 5 5 5 5 5 5 5 5 5 5 5 5 5 5 5 5 5 5 5 5 5 5 5 5 5 5 5 5 5 5 5 5 5 5 5 5 5 5 5 5 5 5 5 5 5 5 5 5 5 5 5 5 5 5 5 5 5 5 5 5 5 5 5 5 5 5 5 5 5 5 5 5 5 5 5 5 5 5 5 5 5 5 5 5 5 5 5 5 5 5 5 5 5 5 5 5 5 5 5 5 5 5 5 5 5 5 5 5 5 5 5 5 5 5 5 5 5 5 5 5 5 5 5 5 5 5 5 5 5 5 5 5 5 5 5 5 5 5 5 5 5 5 5 5 5 5 5 5 5 5 5 5 5 5 5 5 5 5 5 5 5 5 5 5 5 5 5 5 5 5 5 5 5 5 5 5 5 5 5 5 5 5 5 5 5 5 5 5 5 5 5 5 5 5 5 5 5 5 5 5 5 5 5 5 5 5 5 5 5 5 5 5 5 5 5 5 5 5 5 5 5 5 5 5 5 5 5 5 5 5 5 5 5 5 5 5 5 5 5 5 5 5 5 5 5 5 5 5 5 5 5 5 5 5 5 5 5 5 5 5 5 5 5 5 5 5 5 5 5 5 5 5 5 5 5 5 5 5 5 5 5 5 5 5 5 5 5 5 5 5 5 5 5 5 5 5 5 5 5 5 5 5 5 5 5 5 5 5 5 5 5 5 5 5 5 5 5 5 5 5 5 5 5 5 5 5 5 5 5 5 5 5 5 5 5 5 5 5 5 5 5 5 5 5 5 5 5 5 5 5 5 5 5 5 5 5 5 5 5 5 5 5 5 5 5 5 5 5 5 5 5 5 5 5 5 5 5 5 5 5 5 5 5 5 5 5 5 5 5 5 5 5 5 5 5 5 5 5 5 5 5 5 5 5 5 5 5 5 5 5 5 5 5 5 5 5 5 5 5 5 5 5 5 5 5 5 5 5 5 5 5 5 5 5 5 5 5 5 5 5 5 5 5 5 5 5 5 5 5 5 5 5 5 5 5 5 5 5 5 5 5 5 5 5 5 5 5 5 5 5 5 5 5 5 5 5 5 5 5 5 5 5 5 5 5 5 5 5 5 5 5 5 5 5 5 5 5 5 5 5 5 5 5 5 5 5 5 5 5 5 5 5 5 5 5 5 5 5 5 5 5 5 5 5 5 5 5 5 5 5 5 5 5 5 5 5 5 5 5 5 5 5 5 5 5 5 5 5 5 5 5 5 5 5 5 5 5 5 5 5 5 5 5 5 5 5 5 5 5 5 5 5 5 5 5 5 5 5 5 5 5 5 5 5 5 5 5 5 5 5 5 5 5 5 5 5 5 5 5 5 5 5 5 5 5 5 5 5 5 5 5 5 5 5 5 5 5 5 5 5 5 5 5 5 5 5 5 5 5 5 5 5 5 5 5 5 5 5 5 5 5 5 5 5 5 5 5 5 5 5 5 5 5 5 5 5 5 5 5 5 5 5 5 5 5 5 5 5 5 5 5 5 5 5 5 5 5 5 5 5 5 5 5 5 5 5 5 5 5 5 5 5 5 5 5 5 5 5 5 5 5 5 5 5 5 5 5 5 5 5 5 5 5 5 5 5 5 5 5 5 5 5 5 5 5 5 5 5 5 5 5 5 5 5 5 5 5 5 5 5 5 5 5 5 5 5 5 5 5 5 5 5 5 5 5 5 5 5 5 5 5 5 5 5 5 5 5 5 5 5 5 5 5 5 5 5 5 5 5 5 5 5 5 5 5 5 5 5 5 5 5 5 5 5 5 5 5 5 5 5 5 5 5 5 5 5 5 5 5 5 5 5 5 5 5 5 5 5 5 5 5 5 5 5 5 5 5 5 5 5 5 5 5 5 5 5 5 5 5 5 5 5 5 5 5 5 5 5 5 5 5 5 5 5 5 5 5 5 5 5 5 5 5 5 5 5 5 5 5 5 5 5 5 5 5 5 5 5 5 5 5 5 5 5 5 5 5 5 5 5 5 5 5 5 5 5 5 5 5 5 5 5 5 5 5 5 5 5 5 5 5 5 5 5 5 5 5 5 5 5 5 5 5 5 5 5 5 5 5 5 5 5 5 5 5 5 5 5 5 5 5 5 5 5 5 5 5 5 5 5 5 5 5 5 5 5 5 5 5 5 5 5 5 5 5 5 5 5 5 5 5 5 5 5 5 5 5 5 5 5 5 5 5 5 5 5 5 5 5 5 5 5 5 5 5 5 5 5 5 5 5 5 5 5 5 5 5 5 5 5 5 5 5 5 5 5 5 5 5 5 5 5 5 5 5 5 5 5 5 5 5 5 5 5 5 5 5 5 5 5 5 5 5 5 5 5 5 5 5 5 5 5 5 5 5 5 5 5 5 5 5 5 5 5 5 5 5 5 5 5 5 5 5 5 5 5 5 5 5 5 5 5 5 5 5 5 5 5 5 5 5 5 5 5 5 5 5 5 5 5 5 5 5 5 5 5 5 5 5 5 5 5 5 5 5 5 5 5 5 5 5 5 5 5 5 5 5 5 5 5 5 5 5 5 5 5 5 5 5 5 5 5 5 5 5 5 5 5 5 5 5 5 5 5 5 5 5 5 5 5 5 5 5 5 5 5 5 5 5 5 5 5 5 5 5 5 5 5 5 5 5 5 5 5 5 5 5 5 5 5 5 5 5 5 5 5 5 5 5 5 5 5 5 5 5 5 5 5 5 5 5 5 5 5 5 5 5 5 5 5 5 5 5 5 5 5 5 5 5 5 5 5 5 5 5 5 5 5 5 5 5 5 5 5 5 5 5 5 5 5 5 5 5 5 5 5 5 5 5 5 5 5 5 5 5 5 5 5 5 5 5 5 5 5 5 5 5 5 5 5 5 5 5 5 5 5 5 5 5 5 5 5 5 5 5 5 5 5 5 5 5 5 5 5 5 5 5 5 5 5 5 5 5 5 5 5 5 5 5 5 5 5 5 5 5 5 5 5 5 5 5 5 5 5 5 5 5 5 5 5 5 5 5 5 5 5 5 5 5 5 5 5 5 5 5 5 5 5 5 5 5 5 5 5 5 5 5 5 5 5 5 5 5 5 5 5 5 5 5 5 5 5 5 5 5 5 5 5 5 5 5 5 5 5 5 5 5 5 5 5 5 5 5 5 5 5 5 5 5 5 5 5 5 5 5 5 5 5 5 5 5 5 5 5 5 5 5 5 5 5 5 5 5 5 5 5 5 5 5 5 5 5 5 5 5 5 5 5 5 5 5 5 5 5 5 5 5 5 5 5 5 5 5 5 5 5 5 5 5 5 5 5 5 5 5 5 5 5 5 5 5 5 5 5 5 5 5 5 5 5 5 5 5 5 5 5 5 5 5 5 5 5 5 5 5 5 5 5 5 5 5 5 5 5 5 5 5 5 5 5 5 5 5 5 5 5 5 5 5 5 5 5 5 5 5 5 5 5 5 5 5 5 5 5 5 5 5 5 5 5 5 5 5 5 5 5 5 5 5 5 5 5 5 5 5 5 5 5 5 5 5 5 5 5 5 5 5 5 5 5 5 5 5 5 5 5 5 5 5 5 5 5 5 5 5 5 5 5 5 5 5 5 5 5 5 5 5 5 5 5 5 5 5 5 5 5 5 5 5 5 5 5 5 5 5 5 5 5 5 5 5 5 5 5 5 5 5 5 5 5 5 5 5 5 5 5 5 5 5 5 5 5 5 5 5 5 5 5 5 5 5 5 5 5 5 5 5 5 5 5 5 5 5 5 5 5 5 5 5 5 5 5 5 5 5 5 5 5 5 5 5 5 5 5 5 5 5 5 5 5 5 5 5 5 5 5 5 5 5 5 5 5 5 5 5 5 5 5 5 5 5 5 5 5 5 5 5 5 5 5 5 5 5 5 5 5 5 5 5 5 5 5 5 5 5 5 5 5 5 5 5 5 5 5 5 5 5 5 5 5 5 5 5 5 5 5 5 5 5 5 5 5 5 5 5 5 5 5 5 5 5 5 5 5 5 5 5 5 5 5 5 5 5 5 5 5 5 5 5 5 5 5 5 5 5 5 5 5 5 5 5 5 5 5 5 5 5 5 5 5 5 5 5 5 5 5 5 5 5 5 5 5 5 5 5 5 5 5 5 5 5 5 5 5 5 5 5 5 5 5 5 5 5 5 5 5 5 5 5 5 5 5 5 5 5 5 5 5 5 5 5 5 5 5 5 5 5 5 5 5 5 5 5 5 5 5 5 5 5 5 5 5 5 5 5 5 5 5 5 5 5 5 5 5 5 5 5 5 5 5 5 5 5 5 5 5 5 5 5 5 5 5 5 5 5 5 5 5 5 5 5 5 5 5 5 5 5 5 5 5 5 5 5 5 5 5 5 5 5 5 5 5 5 5 5 5 5 5 5 5 5 5 5 5 5 5 5 5 5 5 5 5 5 5 5 5 5 5 5 5 5 5 5 5 5 5 5 5 5 5 5 5 5 5 5 5 5 5 5 5 5 5 5 5 5 5 5 5 5 5 5 5 5 5 5 5 5 5 5 5 5 5 5 5 5 5 5 5 5 5 5 5 5 5 5 5 5 5 5 5 5 5 5 5 5 5 5 5 5 5 5 5 5 5 5 5 5 5 5 5 5 5 5 5 5 5 5 5 5 5 5 5 5 5 5 5 5 5 5 5 5 5 5 5 5 5 5 5 5 5 5 5 5 5 5 5 5 5 5 5 5 5 5 5 5 5 5 5 5 5 5 5 5 5 5 5 5 5 5 5 5 5 5 5 5 5 5 5 5 5 5 5 5 5 5 5 5 5 5 5 5 5 5 5 5 5 5 5 5 5 5 5 5 5 5 5 5 5 5 5 5 5 5 5 5 5 5 5 5 5 5 5 5 5 5 5 5 5 5 5 5 5 5 5 5 5 5 5 5 5 5 5 5 5 5 5 5 5 5 5 5 5 5 5 5 5 5 5 5 5 5 5 5 5 5 5 5 5 5 5 5 5 5 5 5 5 5 5 5 5 5 5 5 5 5 5 5 5 5 5 5 5 5 5 5 5 5 5 5 5 5 5 5 5 5 5 5 5 5 5 5 5 5 5 5 5 5 5 5 5 5 5 5 5 5 5 5 5 5 5 5 5 5 5 5 5 5 5 5 5 5 5 5 5 5 5 5 5 5 5 5 5 5 5 5 5 5 5 5 5 5 5 5 5 5 5 5 5 5 5 5 5 5 5 5 5 5 5 5 5 5 5 5 5 5 5 5 5 5 5 5 5 5 5 5 5 5 5 5 5 5 5 5 5 5 5 5 5 5 5 5 5 5 5 5 5 5 5 5 5 5 5 5 5 5 5 5 5 5 5 5 5 5 5 5 5 5 5 5 5 5 5 5 5 5 5 5 5 5 5 5 5 5 5 5 5 5 5 5 5 5 5 5 5 5 5 5 5 5 5 5 5 5 5 5 5 5 5 5 5 5 5 5 5 5 5 5 5 5 5 5 5 5 5 5 5 5 5 5 5 5 5 5 5 5 5 5 5 5 5 5 5 5 5 5 5 5 5 5 5 5 5 5 5 5 5 5 5 5 5 5 5 5 5 5 5 5 5 5 5 5 5 5 5 5 5 5 5 5 5 5 5 5 5 5 5 5 5 5 5 5 5 5 5 5 5 5 5 5 5 5 5 5 5 5 5 5 5 5 5 5 5 5 5 5 5 5 5 5 5 5 5 5 5 5 5 5 5 5 5 5 5 5 5 5 5 5 5 5 5 5 5 5 5 5 5 5 5 5 5 5 5 5 5 5 5 5 5 5 5 5 5 5 5 5 5 5 5 5 5 5 5 5 5 5 5 5 5 5 5 5 5 5 5 5 5 5 5 5 5 5 5 5 5 5 5 5 5 5 5 5 5 5 5 5 5 5 5 5 5 5 5 5 5 5 5 5 5 5 5 5 5 5 5 5 5 5 5 5 5 5 5 5 5 5 5 5 5 5 5 5 5 5 5 5 5 5 5 5 5 5 5 5 5 5 5 5 5 5 5 5 5 5 5 5 5 5 5 5 5 5 5 5 5 5 5 5 5 5 5 5 5 5 5 5 5 5 5 5 5 5 5 5 5 5 5 5 5 5 5 5 5 5 5 5 5 5 5 5 5 5 5 5 5 5 5 5 5 5 5 5 5 5 5 5 5 5 5 5 5 5 5 5 5 5 5 5 5 5 5 5 5 5 5 5 5 5 5 5 5 5 5 5 5 5 5 5 5 5 5 5 5 5 5 5 5 5 5 5 5 5 5 5 5 5 5 5 5 5 5 5 5 5 5 5 5 5 5 5 5 5 5 5 5 5 5 5 5 5 5 5 5 5 5 5 5 5 5 5 5 5 5 5 5 5 5 5 5 5 5 5 5 5 5 5 5 5 5 5 5 5 5 5 5 5 5 5 5 5 5 5 5 5 5 5 5 5 5 5 5 5 5 5 5 5 5 5 5 5 5 5 5 5 5 5 5 5 5 5 5 5 5 5 5 5 5 5 5 5 5 5 5 5 5 5 5 5 5 5 5 5 5 5 5 5 5 5 5 5 5 5 5 5 5 5 5 5 5 5 5 5 5 5 5 5 5 5 5 5 5 5 5 5 5 5 5 5 5 5 5 5 5 5 5 5 5 5 5 5 5 5 5 5 5 5 5 5 5 5 5 5 5 5 5 5 5 5 5 5 5 5 5 5 5 5 5 5 5 5 5 5 5 5 5 5 5 5 5 5 5 5 5 5 5 5 5 5 5 5 5 5 5 5 5 5 5 5 5 5 5 5 5 5 5 5 5 5 5 5 5 5 5 5 5 5 5 5 5 5 5 5 5 5 5 5 5 5 5 5 5 5 5 5 5 5 5 5 5 5 5 5 5 5 5 5 5 5 5 5 5 5 5 5 5 5 5 5 5 5 5 5 5 5 5 5 5 5 5 5 5 5 5 5 5 5 5 5 5 5 5 5 5 5 5 5 5 5 5 5 5 5 5 5 5 5 5 5 5 5 5 5 5 5 5 5 5 5 5 5 5 5 5 5 5 5 5 5 5 5 5 5 5 5 5 5 5 5 5 5 5 5 5 5 5 5 5 5 5 5 5 5 5 5 5 5 5 5 5 5 5 5 5 5 5 5 5 5 5 5 5 5 5 5 5 5 5 5 5 5 5 5 5 5 5 5 5 5 5 5 5 5 5 5 5 5 5 5 5 5 5 5 5 5 5 5 5 5 5 5 5 5 5 5 5 5 5 5 5 5 5 5 5 5 5 5 5 5 5 5 5 5 5 5 5 5 5 5 5 5 5 5 5 5 5 5 5 5 5 5 5 5 5 5 5 5 5 5 5 5 5 5 5 5 5 5 5 5 5 5 5 5 5 5 5 5 5 5 5 5 5 5 5 5 5 5 5 5 5 5 5 5 5 5 5 5 5 5 5 5 5 5 5 5 5 5 5 5 5 5 5 5 5 5 5 5 5 5 5 5 5 5 5 5 5 5 5 5 5 5 5 5 5 5 5 5 5 5 5 5 5 5 5 5 5 5 5 5 5 5 5 5 5 5 5 5 5 5 5 5 5 5 5 5 5 5 5 5 5 5 5 5 5 5 5 5 5 5 5 5 5 5 5 5 5 5 5 5 5 5 5 5 5 5 5 5 5 5 5 5 5 5 5 5 5 5 5 5 5 5 5 5 5 5 5 5 5 5 5 5 5 5 5 5 5 5 5 5 5 5 5 5 5 5 5 5 5 5 5 5 5 5 5 5 5 5 5 5 5 5 5 5 5 5 5 5 5 5 5 5 5 5 5 5 5 5 5 5 5 5 5 5 5 5 5 5 5 5 5 5 5 5 5 5 5 5 5 5 5 5 5 5 5 5 5 5 5 5 5 5 5 5 5 5 5 5 5 5 5 5 5 5 5 5 5 5 5 5 5 5 5 5 5 5 5 5 5 5 5 5 5 5 5 5 5 5 5 5 5 5 5 5 5 5 5 5 5 5 5 5 5 5 5 5 5 5 5 5 5 5 5 5 5 5 5 5 5 5 5 5 5 5 5 5 5 5 5 5 5 5 5 5 5 5 5 5 5 5 5 5 5 5 5 5 5 5 5 5 5 5 5 5 5 5 5 5 5 5 5 5 5 5 5 5 5 5 5 5 5 5 5 5 5 5 5 5 5 5 5 5 5 5 5 5 5 5 5 5 5 5 5 5 5 5 5 5 5 5 5 5 5 5 5 5 5 5 5 5 5 5 5 5 5 5 5 5 5 5 5 5 5 5 5 5 5 5 5 5 5 5 5 5 5 5 5 5 5 5 5 5 5 5 5 5 5 5 5 5 5 5 5 5 5 5 5 5 5 5 5 5 5 5 5 5 5 5 5 5 5 5 5 5 5 5 5 5 5 5 5 5 5 5 5 5 5 5 5 5 5 5 5 5 5 5 5 5 5 5 5 5 5 5 5 5 5 5 5 5 5 5 5 5 5 5 5 5 5 5 5 5 5 5 5 5 5 5 5 5 5 5 5 5 5 5 5 5 5 5 5 5 5 5 5 5 5 5 5 5 5 5 5 5 5 5 5 5 5 5 5 5 5 5 5 5 5 5 5 5 5 5 5 5 5 5 5 5 5 5 5 5 5 5 5 5 5 5 5 5 5 5 5 5 5 5 5 5 5 5 5 5 5 5 5 5 5 5 5 5 5 5 5 5 5 5 5 5 5 5 5 5 5 5 5 5 5 5 5 5 5 5 5 5 5 5 5 5 5 5 5 5 5 5 5 5 5 5 5 5 5 5 5 5 5 5 5 5 5 5 5 5 5 5 5 5 5 5 5 5 5 5 5 5 5 5 5 5 5 5 5 5 5 5 5 5 5 5 5 5 5 5 5 5 5 5 5 5 5 5 5 5 5 5 5 5 5 5 5 5 5 5 5 5 5 5 5 5 5 5 5 5 5 5 5 5 5 5 5 5 5 5 5 5 5 5 5 5 5 5 5 5 5 5 5 5 5 5 5 5 5 5 5 5 5 5 5 5 5 5 5 5 5 5 5 5 5 5 5 5 5 5 5 5 5 5 5 5 5 5 5 5 5 5 5 5 5 5 5 5 5 5 5 5 5 5 5 5 5 5 5 5 5 5 5 5 5 5 5 5 5 5 5 5 5 5 5 5 5 5 5 5 5 5 5 5 5 5 5 5 5 5 5 5 5 5 5 5 5 5 5 5 5 5 5 5 5 5 5 5 5 5 5 5 5 5 5 5 5 5 5 5 5 5 5 5 5 5 5 5 5 5 5 5 5 5 5 5 5 5 5 5 5 5 5 5 5 5 5 5 5 5 5 5 5 5 5 5 5 5 5 5 5 5 5 5 5 5 5 5 5 5 5 5 5 5 5 5 5 5 5 5 5 5 5 5 5 5 5 5 5 5 5 5 5 5 5 5 5 5 5 5 5 5 5 5 5 5 5 5 5 5 5 5 5 5 5 5 5 5 5 5 5 5 5 5 5 5 5 5 5 5 5 5 5 5 5 5 5 5 5 5 5 5 5 5 5 5 5 5 5 5 5 5 5 5 5 5 5 5 5 5 5 5 5 5 5 5 5 5 5 5 5 5 5 5 5 5 5 5 5 5 5 5 5 5 5 5 5 5 5 5 5 5 5 5 5 5 5 5 5 5 5 5 5 5 5 5 5 5 5 5 5 5 5 5 5 5 5 5 5 5 5 5 5 5 5 5 5 5 5 5 5 5 5 5 5 5 5 5 5 5 5 5 5 5 5 5 5 5 5 5 5 5 5 5 5 5 5 5 5 5 5 5 5 5 5 5 5 5 5 5 5 5 5 5 5 5 5 5 5 5 5 5 5 5 5 5 5 5 5 5 5 5 5 5 5 5 5 5 5 5 5 5 5 5 5 5 5 5 5 5 5 5 5 5 5 5 5 5 5 5 5 5 5 5 5 5 5 5 5 5 5 5 5 5 5 5 5 5 5 5 5 5 5 5 5 5 5 5 5 5 5 5 5 5 5 5 5 5 5 5 5 5 5 5 5 5 5 5 5 5 5 5 5 5 5 5 5 5 5 5 5 5 5 5 5 5 5 5 5 5 5 5 5 5 5 5 5 5 5 5 5 5 5 5 5 5 5 5 5 5 5 5 5 5 5 5 5 5 5 5 5 5 5 5 5 5 5 5 5 5 5 5 5 5 5 5 5 5 5 5 5 5 5 5 5 5 5 5 5 5 5 5 5 5 5 5 5 5 5 5 5 5 5 5 5 5 5 5 5 5 5 5 5 5 5 5 5 5 5 5 5 5 5 5 5 5 5 5 5 5 5 5 5 5 5 5 5 5 5 5 5 5 5 5 5 5 5 5 5 5 5 5 5 5 5 5 5 5 5 5 5 5 5 5 5 5 5 5 5 5 5 5 5 5 5 5 5 5 5 5 5 5 5 5 5 5 5 5 5 5 5 5 5 5 5 5 5 5 5 5 5 5 5 5 5 5 5 5 5 5 5 5 5 5 5 5 5 5 5 5 5 5 5 5 5 5 5 5 5 5 5 5 5 5 5 5 5 5 5 5 5 5 5 5 5 5 5 5 5 5 5 5 5 5 5 5 5 5 5 5 5 5 5 5 5 5 5 5 5 5 5 5 5 5 5 5 5 5 5 5 5 5 5 5 5 5 5 5 5 5 5 5 5 5 5 5 5 5 5 5 5 5 5 5 5 5 5 5 5 5 5 5 5 5 5 5 5 5 5 5 5 5 5 5 5 5 5 5 5 5 5 5 5 5 5 5 5 5 5 5 5 5 5 5 5 5 5 5 5 5 5 5 5 5 5 5 5 5 5 5 5 5 5 5 5 5 5 5 5 5 5 5 5 5 5 5 5 5 5 5 5 5 5 5 5 5 5 5 5 5 5 5 5 5 5 5 5 5 5 5 5 5 5 5 5 5 5 5 5 5 5 5 5 5 5 5 5 5 5 5 5 5 5 5 5 5 5 5 5 5 5 5 5 5 5 5 5 5 5 5 5 5 5 5 5 5 5 5 5 5 5 5 5 5 5 5 5 5 5 5 5 5 5 5 5 5 5 5 5 5 5 5 5 5 5 5 5 5 5 5 5 5 5 5 5 5 5 5 5 5 5 5 5 5 5 5 5 5 5 5 5 5 5 5 5 5 5 5 5 5 5 5 5 5 5 5 5 5 5 5 5 5 5 5 5 5 5 5 5 5 5 5 5 5 5 5 5 5 5 5 5 5 5 5 5 5 5 5 5 5 5 5 5 5 5 5 5 5 5 5 5 5 5 5 5 5 5 5 5 5 5 5 5 5 5 5 5 5 5 5 5 5 5 5 5 5 5 5 5 5 5 5 5 5 5 5 5 5 5 5 5 5 5 5 5 5 5 5 5 5 5 5 5 5 5 5 5 5 5 5 5 5 5 5 5 5 5 5 5 5 5 5 5 5 5 5 5 5 5 5 5 5 5 5 5 5 5 5 5 5 5 5 5 5 5 5 5 5 5 5 5 5 5 5 5 5 5 5 5 5 5 5 5 5 5 5 5 5 5 5 5 5 5 5 5 5 5 5 5 5 5 5 5 5 5 5 5 5 5 5 5 5 5 5 5 5 5 5 5 5 5 5 5 5 5 5 5 5 5 5 5 5 5 5 5 5 5 5 5 5 5 5 5 5 5 5 5 5 5 5 5 5 5 5 5 5 5 5 5 5 5 5 5 5 5 5 5 5 5 5 5 5 5 5 5 5 5 5 5 5 5 5 5 5 5 5 5 5 5 5 5 5 5 5 5 5 5 5 5 5 5 5 5 5 5 5 5 5 5 5 5 5 5 5 5 5 5 5 5 5 5 5 5 5 5 5 5 5 5 5 5 5 5 5 5 5 5 5 5 5 5 5 5 5 5 5 5 5 5 5 5 5 5 5 5 5 5 5 5 5 5 5 5 5 5 5 5 5 5 5 5 5 5 5 5 5 5 5 5 5 5 5 5 5 5 5 5 5 5 5 5 5 5 5 5 5 5 5 5 5 5 5 5 5 5 5 5 5 5 5 5 5 5 5 5 5 5 5 5 5 5 5 5 5 5 5 5 5 5 5 5 5 5 5 5 5 5 5 5 5 5 5 5 5 5 5 5 5 5 5 5 5 5 5 5 5 5 5 5 5 5 5 5 5 5 5 5 5 5 5 5 5 5 5 5 5 5 5 5 5 5 5 5 5 5 5 5 5 5 5 5 5 5 5 5 5 5 5 5 5 5 5 5 5 5 5 5 5 5 5 5 5 5 5 5 5 5 5 5 5 5 5 5 5 5 5 5 5 5 5 5 5 5 5 5 5 5 5 5 5 5 5 5 5 5 5 5 5 5 5 5 5 5 5 5 5 5 5 5 5 5 5 5 5 5 5 5 5 5 5 5 5 5 5 5 5 5 5 5 5 5 5 5 5 5 5 5 5 5 5 5 5 5 5 5 5 5 5 5 5 5 5 5 5 5 5 5 5 5 5 5 5 5 5 5 5 5 5 5 5 5 5 5 5 5 5 5 5 5 5 5 5 5 5 5 5 5 5 5 5 5 5 5 5 5 5 5 5 5 5 5 5 5 5 5 5 5 5 5 5 5 5 5 5 5 5 5 5 5 5 5 5 5 5 5 5 5 5 5 5 5 5 5 5 5 5 5 5 5 5 5 5 5 5 5 5 5 5 5 5 5 5 5 5 5 5 5 5 5 5 5 5 5 5 5 5 5 5 5 5 5 5 5 5 5 5 5 5 5 5 5 5 5 5 5 5 5 5 5 5 5 5 5 5 5 5 5 5 5 5 5 5 5 5 5 5 5 5 5 5 5 5 5 5 5 5 5 5 5 5 5 5 5 5 5 5 5 5 5 5 5 5 5 5 5 5 5 5 5 5 5 5 5 5 5 5 5 5 5 5 5 5 5 5 5 5 5 5 5 5 5 5 5 5 5 5 5 5 5 5 5 5 5 5 5 5 5 5 5 5 5 5 5 5 5 5 5 5 5 5 5 5 5 5 5 5 5 5 5 5 5 5 5 5 5 5 5 5 5 5 5 5 5 5 5 5 5 5 5 5 5 5 5 5 5 5 5 5 5 5 5 5 5 5 5 5 5 5 5 5 5 5 5 5 5 5 5 5 5 5 5 5 5 5 5 5 5 5 5 5 5 5 5 5 5 5 5 5 5 5 5 5 5 5 5 5 5 5 5 5 5 5 5 5 5 5 5 5 5 5 5 5 5 5 5 5 5 5 5 5 5 5 5 5 5 5 5 5 5 5 5 5 5 5 5 5 5 5 5 5 5 5 5 5 5 5 5 5 5 5 5 5 5 5 5 5 5 5 5 5 5 5 5 5 5 5 5 5 5 5 5 5 5 5 5 5 5 5 5 5 5 5 5 5 5 5 5 5 5 5 5 5 5 5 5 5 5 5 5 5 5 5 5 5 5 5 5 5 5 5 5 5 5 5 5 5 5 5 5 5 5 5 5 5 5 5 5 5 5 5 5 5 5 5 5 5 5 5 5 5 5 5 5 5 5 5 5 5 5 5 5 5 5 5 5 5 5 5 5 5 5 5 5 5 5 5 5 5 5 5 5 5 5 5 5 5 5 5 5 5 5 5 5 5 5 5 5 5 5 5 5 5 5 5 5 5 5 5 5 5 5 5 5 5 5 5 5 5 5 5 5 5 5 5 5 5 5 5 5 5 5 5 5 5 5 5 5 5 5 5 5 5 5 5 5 5 5 5 5 5 5 5 5 5 5 5 5 5 5 5 5 5 5 5 5 5 5 5 5 5 5 5 5 5 5 5 5 5 5 5 5 5 5 5 5 5 5 5 5 5 5 5 5 5 5 5 5 5 5 5 5 5 5 5 5 5 5 5 5 5 5 5 5 5 5 5 5 5 5 5 5 5 5 5 5 5 5 5 5 5 5 5 5 5 5 5 5 5 5 5 5 5 5 5 5 5 5 5 5 5 5 5 5 5 5 5 5 5 5 5 5 5 5 5 5 5 5 5 5 5 5 5 5 5 5 5 5 5 5 5 5 5 5 5 5 5 5 5 5 5 5 5 5 5 5 5 5 5 5 5 5 5 5 5 5 5 5 5 5 5 5 5 5 5 5 5 5 5 5 5 5 5 5 5 5 5 5 5 5 5 5 5 5 5 5 5 5 5 5 5 5 5 5 5 5 5 5 5 5 5 5 5 5 5 5 5 5 5 5 5 5 5 5 5 5 5 5 5 5 5 5 5 5 5 5 5 5 5 5 5 5 5 5 5 5 5 5 5 5 5 5 5 5 5 5 5 5 5 5 5 5 5 5 5 5 5 5 5 5 5 5 5 5 5 5 5 5 5 5 5 5 5 5 5 5 5 5 5 5 5 5 5 5 5 5 5 5 5 5 5 5 5 5 5 5 5 5 5 5 5 5 5 5 5 5 5 5 5 5 5 5 5 5 5 5 5 5 5 5 5 5 5 5 5 5 5 5 5 5 5 5 5 5 5 5 5 5 5 5 5 5 5 5 5 5 5 5 5 5 5 5 5 5 5 5 5 5 5 5 5 5 5 5 5 5 5 5 5 5 5 5 5 5 5 5 5 5 5 5 5 5 5 5 5 5 5 5 5 5 5 5 5 5 5 5 5 5 5 5 5 5 5 5 5 5 5 5 5 5 5 5 5 5 5 5 5 5 5 5 5 5 5 5 5 5 5 5 5 5 5 5 5 5 5 5 5 5 5 5 5 5 5 5 5 5 5 5 5 5 5 5 5 5 5 5 5 5 5 5 5 5 5 5 5 5 5 5 5 5 5 5 5 5 5 5 5 5 5 5 5 5 5 5 5 5 5 5 5 5 5 5 5 5 5 5 5 5 5 5 5 5 5 5 5 5 5 5 5 5 5 5 5 5 5 5 5 5 5 5 5 5 5 5 5 5 5 5 5 5 5 5 5 5 5 5 5 5 5 5 5 5 5 5 5 5 5 5 5 5 5 5 5 5 5 5 5 5 5 5 5 5 5 5 5 5 5 5 5 5 5 5 5 5 5 5 5 5 5 5 5 5 5 5 5 5 5 5 5 5 5 5 5 5 5 5 5 5 5 5 5 5 5 5 5 5 5 5 5 5 5 5 5 5 5 5 5 5 5 5 5 5 5 5 5 5 5 5 5 5 5 5 5 5 5 5 5 5 5 5 5 5 5 5 5 5 5 5 5 5 5 5 5 5 5 5 5 5 5 5 5 5 5 5 5 5 5 5 5 5 5 5 5 5 5 5 5 5 5 5 5 5 5 5 5 5 5 5 5 5 5 5 5 5 5 5 5 5 5 5 5 5 5 5 5 5 5 5 5 5 5 5 5 5 5 5 5 5 5 5 5 5 5 5 5 5 5 5 5 5 5 5 5 5 5 5 5 5 5 5 5 5 5 5 5 5 5 5 5 5 5 5 5 5 5 5 5 5 5 5 5 5 5 5 5 5 5 5 5 5 5 5 5 5 5 5 5 5 5 5 5 5 5 5 5 5 5 5 5 5 5 5 5 5 5 5 5 5 5 5 5 5 5 5 5 5 5 5 5 5 5 5 5 5 5 5 5 5 5 5 5 5 5 5 5 5 5 5 5 5 5 5 5 5 5 5 5 5 5 5 5 5 5 5 5 5 5 5 5 5 5 5 5 5 5 5 5 5 5 5 5 5 5 5 5 5 5 5 5 5 5 5 5 5 5 5 5 5 5 5 5 5 5 5 5 5 5 5 5 5 5 5 5 5 5 5 5 5 5 5 5 5 5 5 5 5 5 5 5 5 5 5 5 5 5 5 5 5 5 5 5 5 5 5 5 5 5 5 5 5 5 5 5 5 5 5 5 5 5 5 5 5 5 5 5 5 5 5 5 5 5 5 5 5 5 5 5 5 5 5 5 5 5 5 5 5 5 5 5 5 5 5 5 5 5 5 5 5 5 5 5 5 5 5 5 5 5 5 5 5 5 5 5 5 5 5 5 5 5 5 5 5 5 5 5 5 5 5 5 5 5 5 5 5 5 5 5 5 5 5 5 5 5 5 5 5 5 5 5 5 5 5 5 5 5 5 5 5 5 5 5 5 5 5 5 5 5 5 5 5 5 5 5 5 5 5 5 5 5 5 5 5 5 5 5 5 5 5 5 5 5 5 5 5 5 5 5 5 5 5 5 5 5 5 5 5 5 5 5 5 5 5 5 5 5 5 5 5 5 5 5 5 5 5 5 5 5 5 5 5 5 5 5 5 5 5 5 5 5 5 5 5 5 5 5 5 5 5 5 5 5 5 5 5 5 5 5 5 5 5 5 5 5 5 5 5 5 5 5 5 5 5 5 5 5 5 5 5 5 5 5 5 5 5 5 5 5 5 5 5 5 5 5 5 5 5 5 5 5 5 5 5 5 5 5 5 5 5 5 5 5 5 5 5 5 5 5 5 5 5 5 5 5 5 5 5 5 5 5 5 5 5 5 5 5 5 5 5 5 5 5 5 5 5 5 5 5 5 5 5 5 5 5 5 5 5 5 5 5 5 5 5 5 5 5 5 5 5 5 5 5 5 5 5 5 5 5 5 5 5 5 5 5 5 5 5 5 5 5 5 5 5 5 5 5 5 5 5 5 5 5 5 5 5 5 5 5 5 5 5 5 5 5 5 5 5 5 5 5 5 5 5 5 5 5 5 5 5 5 5 5 5 5 5 5 5 5 5 5 5 5 5 5 5 5 5 5 5 5 5 5 5 5 5 5 5 5 5 5 5 5 5 5 5 5 5 5 5 5 5 5 5 5 5 5 5 5 5 5 5 5 5 5 5 5 5 5 5 5 5 5 5 5 5 5 5 5 5 5 5 5 5 5 5 5 5 5 5 5 5 5 5 5 5 5 5 5 5 5 5 5 5 5 5 5 5 5 5 5 5 5 5 5 5 5 5 5 5 5 5 5 5 5 5 5 5 5 5 5 5 5 5 5 5 5 5 5 5 5 5 5 5 5 5 5 5 5 5 5 5 5 5 5 5 5 5 5 5 5 5 5 5 5 5 5 5 5 5 5 5 5 5 5 5 5 5 5 5 5 5 5 5 5 5 5 5 5 5 5 5 5 5 5 5 5 5 5 5 5 5 5 5 5 5 5 5 5 5 5 5 5 5 5 5 5 5 5 5 5 5 5 5 5 5 5 5 5 5 5 5 5 5 5 5 5 5 5 5 5 5 5 5 5 5 5 5 5 5 5 5 5 5 5 5 5 5 5 5 5 5 5 5 5 5 5 5 5 5 5 5 5 5 5 5 5 5 5 5 5 5 5 5 5 5 5 5 5 5 5 5 5 5 5 5 5 5 5 5 5 5 5 5 5 5 5 5 5 5 5 5 5 5 5 5 5 5 5 5 5 5 5 5 5 5 5 5 5 5 5 5 5 5 5 5 5 5 5 5 5 5 5 5 5 5 5 5 5 5 5 5 5 5 5 5 5 5 5 5 5 5 5 5 5 5 5 5 5 5 5 5 5 5 5 5 5 5 5 5 5 5 5 5 5 5 5 5 5 5 5 5 5 5 5 5 5 5 5 5 5 5 5 5 5 5 5 5 5 5 5 5 5 5 5 5 5 5 5 5 5 5 5 5 5 5 5 5 5 5 5 5 5 5 5 5 5 5 5 5 5 5 5 5 5 5 5 5 5 5 5 5 5 5 5 5 5 5 5 5 5 5 5 5 5 5 5 5 5 5 5 5 5 5 5 5 5 5 5 5 5 5 5 5 5 5 5 5 5 5 5 5 5 5 5 5 5 5 5 5 5 5 5 5 5 5 5 5 5 5 5 5 5 5 5 5 5 5 5 5 5 5 5 5 5 5 5 5 5 5 5 5 5 5 5 5 5 5 5 5 5 5 5 5 5 5 5 5 5 5 5 5 5 5 5 5 5 5 5 5 5 5 5 5 5 5 5 5 5 5 5 5 5 5 5 5 5 5 5 5 5 5 5 5 5 5 5 5 5 5 5 5 5 5 5 5 5 5 5 5 5 5 5 5 5 5 5 5 5 5 5 5 5 5 5 5 5 5 5 5 5 5 5 5 5 5 5 5 5 5 5 5 5 5 5 5 5 5 5 5 5 5 5 5 5 5 5 5 5 5 5 5 5 5 5 5 5 5 5 5 5 5 5 5 5 5 5 5 5 5 5 5 5 5 5 5 5 5 5 5 5 5 5 5 5 5 5 5 5 5 5 5 5 5 5 5 5 5 5 5 5 5 5 5 5 5 5 5 5 5 5 5 5 5 5 5 5 5 5 5 5 5 5 5 5 5 5 5 5 5 5 5 5 5 5 5 5 5 5 5 5 5 5 5 5 5 5 5 5 5 5 5 5 5 5 5 5 5 5 5 5 5 5 5 5 5 5 5 5 5 5 5 5 5 5 5 5 5 5 5 5 5 5 5 5 5 5 5 5 5 5 5 5 5 5 5 5 5 5 5 5 5 5 5 5 5 5 5 5 5 5 5 5 5 5 5 5 5 5 5 5 5 5 5 5 5 5 5 5 5 5 5 5 5 5 5 5 5 5 5 5 5 5 5 5 5 5 5 5 5 5 5 5 5 5 5 5 5 5 5 5 5 5 5 5 5 5 5 5 5 5 5 5 5 5 5 5 5 5 5 5 5 5 5 5 5 5 5 5 5 5 5 5 5 5 5 5 5 5 5 5 5 5 5 5 5 5 5 5 5 5 5 5 5 5 5 5 5 5 5 5 5 5 5 5 5 5 5 5 5 5 5 5 5 5 5 5 5 5 5 5 5 5 5 5 5 5 5 5 5 5 5 5 5 5 5 5 5 5 5 5 5 5 5 5 5 5 5 5 5 5 5 5 5 5 5 5 5 5 5 5 5 5 5 5 5 5 5 5 5 5 5 5 5 5 5 5 5 5 5 5 5 5 5 5 5 5 5 5 5 5 5 5 5 5 5 5 5 5 5 5 5 5 5 5 5 5 5 5 5 5 5 5 5 5 5 5 5 5 5 5 5 5 5 5 5 5 5 5 5 5 5 5 5 5 5 5 5 5 5 5 5 5 5 5 5 5 5 5 5 5 5 5 5 5 5 5 5 5 5 5 5 5 5 5 5 5 5 5 5 5 5 5 5 5 5 5 5 5 5 5 5 5 5 5 5 5 5 5 5 5 5 5 5 5 5 5 5 5 5 5 5 5 5 5 5 5 5 5 5 5 5 5 5 5 5 5 5 5 5 5 5 5 5 5 5 5 5 5 5 5 5 5 5 5 5 5 5 5 5 5 5 5 5 5 5 5 5 5 5 5 5 5 5 5 5 5 5 5 5 5 5 5 5 5 5 5 5 5 5 5 5 5 5 5 5 5 5 5 5 5 5 5 5 5 5 5 5 5 5 5 5 5 5 5 5 5 5 5 5 5 5 5 5 5 5 5 5 5 5 5 5 5 5 5 5 5 5 5 5 5 5 5 5 5 5 5 5 5 5 5 5 5 5 5 5 5 5 5 5 5 5 5 5 5 5 5 5 5 5 5 5 5 5 5 5 5 5 5 5 5 5 5 5 5 5 5 5 5 5 5 5 5 5 5 5 5 5 5 5 5 5 5 5 5 5 5 5 5 5 5 5 5 5 5 5 5 5 5 5 5 5 5 5 5 5 5 5 5 5 5 5 5 5 5 5 5 5 5 5 5 5 5 5 5 5 5 5 5 5 5 5 5 5 5 5 5 5 5 5 5 5 5 5 5 5 5 5 5 5 5 5 5 5 5 5 5 5 5 5 5 5 5 5 5 5 5 5 5 5 5 5 5 5 5 5 5 5 5 5 5 5 5 5 5 5 5 5 5 5 5 5 5 5 5 5 5 5 5 5 5 5 5 5 5 5 5 5 5 5 5 5 5 5 5 5 5 5 5 5 5 5 5 5 5 5 5 5 5 5 5 5 5 5 5 5 5 5 5 5 5 5 5 5 5 5 5 5 5 5 5 5 5 5 5 5 5 5 5 5 5 5 5 5 5 5 5 5 5 5 5 5 5 5 5 5 5 5 5 5 5 5 5 5 5 5 5 5 5 5 5 5 5 5 5 5 5 5 5 5 5 5 5 5 5 5 5 5 5 5 5 5 5 5 5 5 5 5 5 5 5 5 5 5 5 5 5 5 5 5 5 5 5 5 5 5 5 5 5 5 5 5 5 5 5 5 5 5 5 5 5 5 5 5 5 5 5 5 5 5 5 5 5 5 5 5 5 5 5 5 5 5 5 5 5 5 5 5 5 5 5 5 5 5 5 5 5 5 5 5 5 5 5 5 5 5 5 5 5 5 5 5 5 5 5 5 5 5 5 5 5 5 5 5 5 5 5 5 5 5 5 5 5 5 5 5 5 5 5 5 5 5 5 5 5 5 5 5 5 5 5 5 5 5 5 5 5 5 5 5 5 5 5 5 5 5 5 5 5 5 5 5 5 5 5 5 5 5 5 5 5 5 5 5 5 5 5 5 5 5 5 5 5 5 5 5 5 5 5 5 5 5 5 5 5 5 5 5 5 5 5 5 5 5 5 5 5 5 5 5 5 5 5 5 5 5 5 5 5 5 5 5 5 5 5 5 5 5 5 5 5 5 5 5 5 5 5 5 5 5 5 5 5 5 5 5 5 5 5 5 5 5 5 5 5 5 5 5 5 5 5 5 5 5 5 5 5 5 5 5 5 5 5 5 5 5 5 5 5 5 5 5 5 5 5 5 5 5 5 5 5 5 5 5 5 5 5 5 5 5 5 5 5 5 5 5 5 5 5 5 5 5 5 5 5 5 5 5 5 5 5 5 5 5 5 5 5 5 5 5 5 5 5 5 5 5 5 5 5 5 5 5 5 5 5 5 5 5 5 5 5 5 5 5 5 5 5 5 5 5 5 5 5 5 5 5 5 5 5 5 5 5 5 5 5 5 5 5 5 5 5 5 5 5 5 5 5 5 5 5 5 5 5 5 5 5 5 5 5 5 5 5 5 5 5 5 5 5 5 5 5 5 5 5 5 5 5 5 5 5 5 5 5 5 5 5 5 5 5 5 5 5 5 5 5 5 5 5 5 5 5 5 5 5 5 5 5 5 5 5 5 5 5 5 5 5 5 5 5 5 5 5 5 5 5 5 5 5 5 5 5 5 5 5 5 5 5 5 5 5 5 5 5 5 5 5 5 5 5 5 5 5 5 5 5 5 5 5 5 5 5 5 5 5 5 5 5 5 5 5 5 5 5 5 5 5 5 5 5 5 5 5 5 5 5 5 5 5 5 5 5 5 5 5 5 5 5 5 5 5 5 5 5 5 5 5 5 5 5 5 5 5 5 5 5 5 5 5 5 5 5 5 5 5 5 5 5 5 5 5 5 5 5 5 5 5 5 5 5 5 5 5 5 5 5 5 5 5 5 5 5 5 5 5 5 5 5 5 5 5 5 5 5 5 5 5 5 5 5 5 5 5 5 5 5 5 5 5 5 5 5 5 5 5 5 5 5 5 5 5 5 5 5 5 5 5 5 5 5 5 5 5 5 5 5 5 5 5 5 5 5 5 5 5 5 5 5 5 5 5 5 5 5 5 5 5 5 5 5 5 5 5 5 5 5 5 5 5 5 5 5 5 5 5 5 5 5 5 5 5 5 5 5 5 5 5 5 5 5 5 5 5 5 5 5 5 5 5 5 5 5 5 5 5 5 5 5 5 5 5 5 5 5 5 5 5 5 5 5 5 5 5 5 5 5 5 5 5 5 5 5 5 5 5 5 5 5 5 5 5 5 5 5 5 5 5 5 5 5 5 5 5 5 5 5 5 5 5 5 5 5 5 5 5 5 5 5 5 5 5 5 5 5 5 5 5 5 5 5 5 5 5 5 5 5 5 5 5 5 5 5 5 5 5 5 5 5 5 5 5 5 5 5 5 5 5 5 5 5 5 5 5 5 5 5 5 5 5 5 5 5 5 5 5 5 5 5 5 5 5 5 5 5 5 5 5 5 5 5 5 5 5 5 5 5 5 5 5 5 5 5 5 5 5 5 5 5 5 5 5 5 5 5 5 5 5 5 5 5 5 5 5 5 5 5 5 5 5 5 5 5 5 5 5 5 5 5 5 5 5 5 5 5 5 5 5 5 5 5 5 5 5 5 5 5 5 5 5 5 5 5 5 5 5 5 5 5 5 5 5 5 5 5 5 5 5 5 5 5 5 5 5 5 5 5 5 5 5 5 5 5 5 5 5 5 5 5 5 5 5 5 5 5 5 5 5 5 5 5 5 5 5 5 5 5 5 5 5 5 5 5 5 5 5 5 5 5 5 5 5 5 5 5 5 5 5 5 5 5 5 5 5 5 5 5 5 5 5 5 5 5 5 5 5 5 5 5 5 5 5 5 5 5 5 5 5 5 5 5 5 5 5 5 5 5 5 5 5 5 5 5 5 5 5 5 5 5 5 5 5 5 5 5 5 5 5 5 5 5 5 5 5 5 5 5 5 5 5 5 5 5 5 5 5 5 5 5 5 5 5 5 5 5 5 5 5 5 5 5 5 5 5 5 5 5 5 5 5 5 5 5 5 5 5 5 5 5 5 5 5 5 5 5 5 5 5 5 5 5 5 5 5 5 5 5 5 5 5 5 5 5 5 5 5 5 5 5 5 5 5 5 5 5 5 5 5 5 5 5 5 5 5 5 5 5 5 5 5 5 5 5 5 5 5 5 5 5 5 5 5 5 5 5 5 5 5 5 5 5 5 5 5 5 5 5 5 5 5 5 5 5 5 5 5 5 5 5 5 5 5 5 5 5 5 5 5 5 5 5 5 5 5 5 5 5 5 5 5 5 5 5 5 5 5 5 5 5 5 5 5 5 5 5 5 5 5 5 5 5 5 5 5 5 5 5 5 5 5 5 5 5 5 5 5 5 5 5 5 5 5 5 5 5 5 5 5 5 5 5 5 5 5 5 5 5 5 5 5 5 5 5 5 5 5 5 5 5 5 5 5 5 5 5 5 5 5 5 5 5 5 5 5 5 5 5 5 5 5 5 5 5 5 5 5 5 5 5 5 5 5 5 5 5 5 5 5 5 5 5 5 5 5 5 5 5 5 5 5 5 5 5 5 5 5 5 5 5 5 5 5 5 5 5 5 5 5 5 5 5 5 5 5 5 5 5 5 5 5 5 5 5 5 5 5 5 5 5 5 5 5 5 5 5 5 5 5 5 5 5 5 5 5 5 5 5 5 5 5 5 5 5 5 5 5 5 5 5 5 5 5 5 5 5 5 5 5 5 5 5 5 5 5 5 5 5 5 5 5 5 5 5 5 5 5 5 5 5 5 5 5 5 5 5 5 5 5 5 5 5 5 5 5 5 5 5 5 5 5 5 5 5 5 5 5 5 5 5 5 5 5 5 5 5 5 5 5 5 5 5 5 5 5 5 5 5 5 5 5 5 5 5 5 5 5 5 5 5 5 5 5 5 5 5 5 5 5 5 5 5 5 5 5 5 5 5 5 5 5 5 5 5 5 5 5 5 5 5 5 5 5 5 5 5 5 5 5 5 5 5 5 5 5 5 5 5 5 5 5 5 5 5 5 5 5 5 5 5 5 5 5 5 5 5 5 5 5 5 5 5 5 5 5 5 5 5 5 5 5 5 5 5 5 5 5 5 5 5 5 5 5 5 5 5 5 5 5 5 5 5 5 5 5 5 5 5 5 5 5 5 5 5 5 5 5 5 5 5 5 5 5 5 5 5 5 5 5 5 5 5 5 5 5 5 5 5 5 5 5 5 5 5 5 5 5 5 5 5 5 5 5 5 5 5 5 5 5 5 5 5 5 5 5 5 5 5 5 5 5 5 5 5 5 5 5 5 5 5 5 5 5 5 5 5 5 5 5 5 5 5 5 5 5 5 5 5 5 5 5 5 5 5 5 5 5 5 5 5 5 5 5 5 5 5 5 5 5 5 5 5 5 5 5 5 5 5 5 5 5 5 5 5 5 5 5 5 5 5 5 5 5 5 5 5 5 5 5 5 5 5 5 5 5 5 5 5 5 5 5 5 5 5 5 5 5 5 5 5 5 5 5 5 5 5 5 5 5 5 5 5 5 5 5 5 5 5 5 5 5 5 5 5 5 5 5 5 5 5 5 5 5 5 5 5 5 5 5 5 5 5 5 5 5 5 5 5 5 5 5 5 5 5 5 5 5 5 5 5 5 5 5 5 5 5 5 5 5 5 5 5 5 5 5 5 5 5 5 5 5 5 5 5 5 5 5 5 5 5 5 5 5 5 5 5 5 5 5 5 5 5 5 5 5 5 5 5 5 5 5 5 5 5 5 5 5 5 5 5 5 5 5 5 5 5 5 5 5 5 5 5 5 5 5 5 5 5 5 5 5 5 5 5 5 5 5 5 5 5 5 5 5 5 5 5 5 5 5 5 5 5 5 5 5 5 5 5 5 5 5 5 5 5 5 5 5 5 5 5 5 5 5 5 5 5 5 5 5 5 5 5 5 5 5 5 5 5 5 5 5 5 5 5 5 5 5 5 5 5 5 5 5 5 5 5 5 5 5 5 5 5 5 5 5 5 5 5 5 5 5 5 5 5 5 5 5 5 5 5 5 5 5 5 5 5 5 5 5 5 5 5 5 5 5 5 5 5 5 5 5 5 5 5 5 5 5 5 5 5 5 5 5 5 5 5 5 5 5 5 5 5 5 5 5 5 5 5 5 5 5 5 5 5 5 5 5 5 5 5 5 5 5 5 5 5 5 5 5 5 5 5 5 5 5 5 5 5 5 5 5 5 5 5 5 5 5 5 5 5 5 5 5 5 5 5 5 5 5 5 5 5 5 5 5 5 5 5 5 5 5 5 5 5 5 5 5 5 5 5 5 5 5 5 5 5 5 5 5 5 5 5 5 5 5 5 5 5 5 5 5 5 5 5 5 5 5 5 5 5 5 5 5 5 5 5 5 5 5 5 5 5 5 5 5 5 5 5 5 5 5 5 5 5 5 5 5 5 5 5 5 5 5 5 5 5 5 5 5 5 5 5 5 5 5 5 5 5 5 5 5 5 5 5 5 5 5 5 5 5 5 5 5 5 5 5 5 5 5 5 5 5 5 5 5 5 5 5 5 5 5 5 5 5 5 5 5 5 5 5 5 5 5 5 5 5 5 5 5 5 5 5 5 5 5 5 5 5 5 5 5 5 5 5 5 5 5 5 5 5 5 5 5 5 5 5 5 5 5 5 5 5 5 5 5 5 5 5 5 5 5 5 5 5 5 5 5 5 5 5 5 5 5 5 5 5 5 5 5 5 5 5 5 5 5 5 5 5 5 5 5 5 5 5 5 5 5 5 5 5 5 5 5 5 5 5 5 5 5 5 5 5 5 5 5 5 5 5 5 5 5 5 5 5 5 5 5 5 5 5 5 5 5 5 5 5 5 5 5 5 5 5 5 5 5 5 5 5 5 5 5 5 5 5 5 5 5 5 5 5 5 5 5 5 5 5 5 5 5 5 5 5 5 5 5 5 5 5 5 5 5 5 5 5 5 5 5 5 5 5 5 5 5 5 5 5 5 5 5 5 5 5 5 5 5 5 5 5 5 5 5 5 5 5 5 5 5 5 5 5 5 5 5 5 5 5 5 5 5 5 5 5 5 5 5 5 5 5 5 5 5 5 5 5 5 5 5 5 5 5 5 5 5 5 5 5 5 5 5 5 5 5 5 5 5 5 5 5 5 5 5 5 5 5 5 5 5 5 5 5 5 5 5 5 5 5 5 5 5 5 5 5 5 5 5 5 5 5 5 5 5 5 5 5 5 5 5 5 5 5 5 5 5 5 5 5 5 5 5 5 5 5 5 5 5 5 5 5 5 5 5 5 5 5 5 5 5 5 5 5 5 5 5 5 5 5 5 5 5 5 5 5 5 5 5 5 5 5 5 5 5 5 5 5 5 5 5 5 5 5 5 5 5 5 5 5 5 5 5 5 5 5 5 5 5 5 5 5 5 5 5 5 5 5 5 5 5 5 5 5 5 5 5 5 5 5 5 5 5 5 5 5 5 5 5 5 5 5 5 5 5 5 5 5 5 5 5 5 5 5 5 5 5 5 5 5 5 5 5 5 5 5 5 5 5 5 5 5 5 5 5 5 5 5 5 5 5 5 5 5 5 5 5 5 5 5 5 5 5 5 5 5 5 5 5 5 5 5 5 5 5 5 5 5 5 5 5 5 5 5 5 5 5 5 5 5 5 5 5 5 5 5 5 5 5 5 5 5 5 5 5 5 5 5 5 5 5 5 5 5 5 5 5 5 5 5 5 5 5 5 5 5 5 5 5 5 5 5 5 5 5 5 5 5 5 5 5 5 5 5 5 5 5 5 5 5 5 5 5 5 5 5 5 5 5 5 5 5 5 5 5 5 5 5 5 5 5 5 5 5 5 5 5 5 5 5 5 5 5 5 5 5 5 5 5 5 5 5 5 5 5 5 5 5 5 5 5 5 5 5 5 5 5 5 5 5 5 5 5 5 5 5 5 5 5 5 5 5 5 5 5 5 5 5 5 5 5 5 5 5 5 5 5 5 5 5 5 5 5 5 5 5 5 5 5 5 5 5 5 5 5 5 5 5 5 5 5 5 5 5 5 5 5 5 5 5 5 5 5 5 5 5 5 5 5 5 5 5 5 5 5 5 5 5 5 5 5 5 5 5 5 5 5 5 5 5 5 5 5 5 5 5 5 5 5 5 5 5 5 5 5 5 5 5 5 5 5 5 5 5 5 5 5 5 5 5 5 5 5 5 5 5 5 5 5 5 5 5 5 5 5 5 5 5 5 5 5 5 5 5 5 5 5 5 5 5 5 5 5 5 5 5 5 5 5 5 5 5 5 5 5 5 5 5 5 5 5 5 5 5 5 5 5 5 5 5 5 5 5 5 5 5 5 5 5 5 5 5 5 5 5 5 5 5 5 5 5 5 5 5 5 5 5 5 5 5 5 5 5 5 5 5 5 5 5 5 5 5 5 5 5 5 5 5 5 5 5 5 5 5 5 5 5 5 5 5 5 5 5 5 5 5 5 5 5 5 5 5 5 5 5 5 5 5 5 5 5 5 5 5 5 5 5 5 5 5 5 5 5 5 5 5 5 5 5 5 5 5 5 5 5 5 5 5 5 5 5 5 5 5 5 5 5 5 5 5 5 5 5 5 5 5 5 5 5 5 5 5 5 5 5 5 5 5 5 5 5 5 5 5 5 5 5 5 5 5 5 5 5 5 5 5 5 5 5 5 5 5 5 5 5 5 5 5 5 5 5 5 5 5 5 5 5 5 5 5 5 5 5 5 5 5 5 5 5 5 5 5 5 5 5 5 5 5 5 5 5 5 5 5 5 5 5 5 5 5 5 5 5 5 5 5 5 5 5 5 5 5 5 5 5 5 5 5 5 5 5 5 5 5 5 5 5 5 5 5 5 5 5 5 5 5 5 5 5 5 5 5 5 5 5 5 5 5 5 5 5 5 5 5 5 5 5 5 5 5 5 5 5 5 5 5 5 5 5 5 5 5 5 5 5 5 5 5 5 5 5 5 5 5 5 5 5 5 5 5 5 5 5 5 5 5 5 5 5 5 5 5 5 5 5 5 5 5 5 5 5 5 5 5 5 5 5 5 5 5 5 5 5 5 5 5 5 5 5 5 5 5 5 5 5 5 5 5 5 5 5 5 5 5 5 5 5 5 5 5 5 5 5 5 5 5 5 5 5 5 5 5 5 5 5 5 5 5 5 5 5 5 5 5 5 5 5 5 5 5 5 5 5 5 5 5 5 5 5 5 5 5 5 5 5 5 5 5 5 5 5 5 5 5 5 5 5 5 5 5 5 5 5 5 5 5 5 5 5 5 5 5 5 5 5 5 5 5 5 5 5 5 5 5 5 5 5 5 5 5 5 5 5 5 5 5 5 5 5 5 5 5 5 5 5 5 5 5 5 5 5 5 5 5 5 5 5 5 5 5 5 5 5 5 5 5 5 5 5 5 5 5 5 5 5 5 5 5 5 5 5 5 5 5 5 5 5 5 5 5 5 5 5 5 5 5 5 5 5 5 5 5 5 5 5 5 5 5 5 5 5 5 5 5 5 5 5 5 5 5 5 5 5 5 5 5 5 5 5 5 5 5 5 5 5 5 5 5 5 5 5 5 5 5 5 5 5 5 5 5 5 5 5 5 5 5 5 5 5 5 5 5 5 5 5 5 5 5 5 5 5 5 5 5 5 5 5 5 5 5 5 5 5 5 5 5 5 5 5 5 5 5 5 5 5 5 5 5 5 5 5 5 5 5 5 5 5 5 5 5 5 5 5 5 5 5 5 5 5 5 5 5 5 5 5 5 5 5 5 5 5 5 5 5 5 5 5 5 5 5 5 5 5 5 5 5 5 5 5 5 5 5 5 5 5 5 5 5 5 5 5 5 5 5 5 5 5 5 5 5 5 5 5 5 5 5 5 5 5 5 5 5 5 5 5 5 5 5 5 5 5 5 5 5 5 5 5 5 5 5 5 5 5 5 5 5 5 5 5 5 5 5 5 5 5 5 5 5 5 5 5 5 5 5 5 5 5 5 5 5 5 5 5 5 5 5 5 5 5 5 5 5 5 5 5 5 5 5 5 5 5 5 5 5 5 5 5 5 5 5 5 5 5 5 5 5 5 5 5 5 5 5 5 5 5 5 5 5 5 5 5 5 5 5 5 5 5 5 5 5 5 5 5 5 5 5 5 5 5 5 5 5 5 5 5 5 5 5 5 5 5 5 5 5 5 5 5 5 5 5 5 5 5 5 5 5 5 5 5 5 5 5 5 5 5 5 5 5 5 5 5 5 5 5 5 5 5 5 5 5 5 5 5 5 5 5 5 5 5 5 5 5 5 5 5 5 5 5 5 5 5 5 5 5 5 5 5 5 5 5 5 5 5 5 5 5 5 5 5 5 5 5 5 5 5 5 5 5 5 5 5 5 5 5 5 5 5 5 5 5 5 5 5 5 5 5 5 5 5 5 5 5 5 5 5 5 5 5 5 5 5 5 5 5 5 5 5 5 5 5 5 5 5 5 5 5 5 5 5 5 5 5 5 5 5 5 5 5 5 5 5 5 5 5 5 5 5 5 5 5 5 5 5 5 5 5 5 5 5 5 5 5 5 5 5 5 5 5 5 5 5 5 5 5 5 5 5 5 5 5 5 5 5 5 5 5 5 5 5 5 5 5 5 5 5 5 5 5 5 5 5 5 5 5 5 5 5 5 5 5 5 5 5 5 5 5 5 5 5 5 5 5 5 5 5 5 5 5 5 5 5 5 5 5 5 5 5 5 5 5 5 5 5 5 5 5 5 5 5 5 5 5 5 5 5 5 5 5 5 5 5 5 5 5 5 5 5 5 5 5 5 5 5 5 5 5 5 5 5 5 5 5 5 5 5 5 5 5 5 5 5 5 5 5 5 5 5 5 5 5 5 5 5 5 5 5 5 5 5 5 5 5 5 5 5 5 5 5 5 5 5 5 5 5 5 5 5 5 5 5 5 5 5 5 5 5 5 5 5 5 5 5 5 5 5 5 5 5 5 5 5 5 5 5 5 5 5 5 5 5 5 5 5 5 5 5 5 5 5 5 5 5 5 5 5 5 5 5 5 5 5 5 5 5 5 5 5 5 5 5 5 5 5 5 5 5 5 5 5 5 5 5 5 5 5 5 5 5 5 5 5 5 5 5 5 5 5 5 5 5 5 5 5 5 5 5 5 5 5 5 5 5 5 5 5 5 5 5 5 5 5 5 5 5 5 5 5 5 5 5 5 5 5 5 5 5 5 5 5 5 5 5 5 5 5 5 5 5 5 5 5 5 5 5 5 5 5 5 5 5 5 5 5 5 5 5 5 5 5 5 5 5 5 5 5 5 5 5 5 5 5 5 5 5 5 5 5 5 5 5 5 5 5 5 5 5 5 5 5 5 5 5 5 5 5 5 5 5 5 5 5 5 5 5 5 5 5 5 5 5 5 5 5 5 5 5 5 5 5 5 5 5 5 5 5 5 5 5 5 5 5 5 5 5 5 5 5 5 5 5 5 5 5 5 5 5 5 5 5 5 5 5 5 5 5 5 5 5 5 5 5 5 5 5 5 5 5 5 5 5 5 5 5 5 5 5 5 5 5 5 5 5 5 5 5 5 5 5 5 5 5 5 5 5 5 5 5 5 5 5 5 5 5 5 5 5 5 5 5 5 5 5 5 5 5 5 5 5 5 5 5 5 5 5 5 5 5 5 5 5 5 5 5 5 5 5 5 5 5 5 5 5 5 5 5 5 5 5 5 5 5 5 5 5 5 5 5 5 5 5 5 5 5 5 5 5 5 5 5 5 5 5 5 5 5 5 5 5 5 5 5 5 5 5 5 5 5 5 5 5 5 5 5 5 5 5 5 5 5 5 5 5 5 5 5 5 5 5 5 5 5 5 5 5 5 5 5 5 5 5 5 5 5 5 5 5 5 5 5 5 5 5 5 5 5 5 5 5 5 5 5 5 5 5 5 5 5 5 5 5 5 5 5 5 5 5 5 5 5 5 5 5 5 5 5 5 5 5 5 5 5 5 5 5 5 5 5 5 5 5 5 5 5 5 5 5 5 5 5 5 5 5 5 5 5 5 5 5 5 5 5 5 5 5 5 5 5 5 5 5 5 5 5 5 5 5 5 5 5 5 5 5 5 5 5 5 5 5 5 5 5 5 5 5 5 5 5 5 5 5 5 5 5 5 5 5 5 5 5 5 5 5 5 5 5 5 5 5 5 5 5 5 5 5 5 5 5 5 5 5 5 5 5 5 5 5 5 5 5 5 5 5 5 5 5 5 5 5 5 5 5 5 5 5 5 5 5 5 5 5 5 5 5 5 5 5 5 5 5 5 5 5 5 5 5 5 5 5 5 5 5 5 5 5 5 5 5 5 5 5 5 5 5 5 5 5 5 5 5 5 5 5 5 5 5 5 5 5 5 5 5 5 5 5 5 5 5 5 5 5 5 5 5 5 5 5 5 5 5 5 5 5 5 5 5 5 5 5 5 5 5 5 5 5 5 5 5 5 5 5 5 5 5 5 5 5 5 5 5 5 5 5 5 5 5 5 5 5 5 5 5 5 5 5 5 5 5 5 5 5 5 5 5 5 5 5 5 5 5 5 5 5 5 5 5 5 5 5 5 5 5 5 5 5 5 5 5 5 5 5 5 5 5 5 5 5 5 5 5 5 5 5 5 5 5 5 5 5 5 5 5 5 5 5 5 5 5 5 5 5 5 5 5 5 5 5 5 5 5 5 5 5 5 5 5 5 5 5 5 5 5 5 5 5 5 5 5 5 5 5 5 5 5 5 5 5 5 5 5 5 5 5 5 5 5 5 5 5 5 5 5 5 5 5 5 5 5 5 5 5 5 5 5 5 5 5 5 5 5 5 5 5 5 5 5 5 5 5 5 5 5 5 5 5 5 5 5 5 5 5 5 5 5 5 5 5 5 5 5 5 5 5 5 5 5 5 5 5 5 5 5 5 5 5 5 5 5 5 5 5 5 5 5 5 5 5 5 5 5 5 5 5 5 5 5 5 5 5 5 5 5 5 5 5 5 5 5 5 5 5 5 5 5 5 5 5 5 5 5 5 5 5 5 5 5 5 5 5 5 5 5 5 5 5 5 5 5 5 5 5 5 5 5 5 5 5 5 5 5 5 5 5 5 5 5 5 5 5 5 5 5 5 5 5 5 5 5 5 5 5 5 5 5 5 5 5 5 5 5 5 5 5 5 5 5 5 5 5 5 5 5 5 5 5 5 5 5 5 5 5 5 5 5 5 5 5 5 5 5 5 5 5 5 5 5 5 5 5 5 5 5 5 5 5 5 5 5 5 5 5 5 5 5 5 5 5 5 5 5 5 5 5 5 5 5 5 5 5 5 5 5 5 5 5 5 5 5 5 5 5 5 5 5 5 5 5 5 5 5 5 5 5 5 5 5 5 5 5 5 5 5 5 5 5 5 5 5 5 5 5 5 5 5 5 5 5 5 5 5 5 5 5 5 5 5 5 5 5 5 5 5 5 5 5 5 5 5 5 5 5 5 5 5 5 5 5 5 5 5 5 5 5 5 5 5 5 5 5 5 5 5 5 5 5 5 5 5 5 5 5 5 5 5 5 5 5 5 5 5 5 5 5 5 5 5 5 5 5 5 5 5 5 5 5 5 5 5 5 5 5 5 5 5 5 5 5 5 5 5 5 5 5 5 5 5 5 5 5 5 5 5 5 5 5 5 5 5 5 5 5 5 5 5 5 5 5 5 5 5 5 5 5 5 5 5 5 5 5 5 5 5 5 5 5 5 5 5 5 5 5 5 5 5 5 5 5 5 5 5 5 5 5 5 5 5 5 5 5 5 5 5 5 5 5 5 5 5 5 5 5 5 5 5 5 5 5 5 5 5 5 5 5 5 5 5 5 5 5 5 5 5 5 5 5 5 5 5 5 5 5 5 5 5 5 5 5 5 5 5 5 5 5 5 5 5 5 5 5 5 5 5 5 5 5 5 5 5 5 5 5 5 5 5 5 5 5 5 5 5 5 5 5 5 5 5 5 5 5 5 5 5 5 5 5 5 5 5 5 5 5 5 5 5 5 5 5 5 5 5 5 5 5 5 5 5 5 5 5 5 5 5 5 5 5 5 5 5 5 5 5 5 5 5 5 5 5 5 5 5 5 5 5 5 5 5 5 5 5 5 5 5 5 5 5 5 5 5 5 5 5 5 5 5 5 5 5 5 5 5 5 5 5 5 5 5 5 5 5 5 5 5 5 5 5 5 5 5 5 5 5 5 5 5 5 5 5 5 5 5 5 5 5 5 5 5 5 5 5 5 5 5 5 5 5 5 5 5 5 5 5 5 5 5 5 5 5 5 5 5 5 5 5 5 5 5 5 5 5 5 5 5 5 5 5 5 5 5 5 5 5 5 5 5 5 5 5 5 5 5 5 5 5 5 5 5 5 5 5 5 5 5 5 5 5 5 5 5 5 5 5 5 5 5 5 5 5 5 5 5 5 5 5 5 5 5 5 5 5 5 5 5 5 5 5 5 5 5 5 5 5 5 5 5 5 5 5 5 5 5 5 5 5 5 5 5 5 5 5 5 5 5 5 5 5 5 5 5 5 5 5 5 5 5 5 5 5 5 5 5 5 5 5 5 5 5 5 5 5 5 5 5 5 5 5 5 5 5 5 5 5 5 5 5 5 5 5 5 5 5 5 5 5 5 5 5 5 5 5 5 5 5 5 5 5 5 5 5 5 5 5 5 5 5 5 5 5 5 5 5 5 5 5 5 5 5 5 5 5 5 5 5 5 5 5 5 5 5 5 5 5 5 5 5 5 5 5 5 5 5 5 5 5 5 5 5 5 5 5 5 5 5 5 5 5 5 5 5 5 5 5 5 5 5 5 5 5 5 5 5 5 5 5 5 5 5 5 5 5 5 5 5 5 5 5 5 5 5 5 5 5 5 5 5 5 5 5 5 5 5 5 5 5 5 5 5 5 5 5 5 5 5 5 5 5 5 5 5 5 5 5 5 5 5 5 5 5 5 5 5 5 5 5 5 5 5 5 5 5 5 5 5 5 5 5 5 5 5 5 5 5 5 5 5 5 5 5 5 5 5 5 5 5 5 5 5 5 5 5 5 5 5 5 5 5 5 5 5 5 5 5 5 5 5 5 5 5 5 5 5 5 5 5 5 5 5 5 5 5 5 5 5 5 5 5 5 5 5 5 5 5 5 5 5 5 5 5 5 5 5 5 5 5 5 5 5 5 5 5 5 5 5 5 5 5 5 5 5 5 5 5 5 5 5 5 5 5 5 5 5 5 5 5 5 5 5 5 5 5 5 5 5 5 5 5 5 5 5 5 5 5 5 5 5 5 5 5 5 5 5 5 5 5 5 5 5 5 5 5 5 5 5 5 5 5 5 5 5 5 5 5 5 5 5 5 5 5 5 5 5 5 5 5 5 5 5 5 5 5 5 5 5 5 5 5 5 5 5 5 5 5 5 5 5 5 5 5 5 5 5 5 5 5 5 5 5 5 5 5 5 5 5 5 5 5 5 5 5 5 5 5 5 5 5 5 5 5 5 5 5 5 5 5 5 5 5 5 5 5 5 5 5 5 5 5 5 5 5 5 5 5 5 5 5 5 5 5 5 5 5 5 5 5 5 5 5 5 5 5 5 5 5 5 5 5 5 5 5 5 5 5 5 5 5 5 5 5 5 5 5 5 5 5 5 5 5 5 5 5 5 5 5 5 5 5 5 5 5 5 5 5 5 5 5 5 5 5 5 5 5 5 5 5 5 5 5 5 5 5 5 5 5 5 5 5 5 5 5 5 5 5 5 5 5 5 5 5 5 5 5 5 5 5 5 5 5 5 5 5 5 5 5 5 5 5 5 5 5 5 5 5 5 5 5 5 5 5 5 5 5 5 5 5 5 5 5 5 5 5 5 5 5 5 5 5 5 5 5 5 5 5 5 5 5 5 5 5 5 5 5 5 5 5 5 5 5 5 5 5 5 5 5 5 5 5 5 5 5 5 5 5 5 5 5 5 5 5 5 5 5 5 5 5 5 5 5 5 5 5 5 5 5 5 5 5 5 5 5 5 5 5 5 5 5 5 5 5 5 5 5 5 5 5 5 5 5 5 5 5 5 5 5 5 5 5 5 5 5 5 5 5 5 5 5 5 5 5 5 5 5 5 5 5 5 5 5 5 5 5 5 5 5 5 5 5 5 5 5 5 5 5 5 5 5 5 5 5 5 5 5 5 5 5 5 5 5 5 5 5 5 5 5 5 5 5 5 5 5 5 5 5 5 5 5 5 5 5 5 5 5 5 5 5 5 5 5 5 5 5 5 5 5 5 5 5 5 5 5 5 5 5 5 5 5 5 5 5 5 5 5 5 5 5 5 5 5 5 5 5 5 5 5 5 5 5 5 5 5 5 5 5 5 5 5 5 5 5 5 5 5 5 5 5 5 5 5 5 5 5 5 5 5 5 5 5 5 5 5 5 5 5 5 5 5 5 5 5 5 5 5 5 5 5 5 5 5 5 5 5 5 5 5 5 5 5 5 5 5 5 5 5 5 5 5 5 5 5 5 5 5 5 5 5 5 5 5 5 5 5 5 5 5 5 5 5 5 5 5 5 5 5 5 5 5 5 5 5 5 5 5 5 5 5 5 5 5 5 5 5 5 5 5 5 5 5 5 5 5 5 5 5 5 5 5 5 5 5 5 5 5 5 5 5 5 5 5 5 5 5 5 5 5 5 5 5 5 5 5 5 5 5 5 5 5 5 5 5 5 5 5 5 5 5 5 5 5 5 5 5 5 5 5 5 5 5 5 5 5 5 5 5 5 5 5 5 5 5 5 5 5 5 5 5 5 5 5 5 5 5 5 5 5 5 5 5 5 5 5 5 5 5 5 5 5 5 5 5 5 5 5 5 5 5 5 5 5 5 5 5 5 5 5 5 5 5 5 5 5 5 5 5 5 5 5 5 5 5 5 5 5 5 5 5 5 5 5 5 5 5 5 5 5 5 5 5 5 5 5 5 5 5 5 5 5 5 5 5 5 5 5 5 5 5 5 5 5 5 5 5 5 5 5 5 5 5 5 5 5 5 5 5 5 5 5 5 5 5 5 5 5 5 5 5 5 5 5 5 5 5 5 5 5 5 5 5 5 5 5 5 5 5 5 5 5 5 5 5 5 5 5 5 5 5 5 5 5 5 5 5 5 5 5 5 5 5 5 5 5 5 5 5 5 5 5 5 5 5 5 5 5 5 5 5 5 5 5 5 5 5 5 5 5 5 5 5 5 5 5 5 5 5 5 5 5 5 5 5 5 5 5 5 5 5 5 5 5 5 5 5 5 5 5 5 5 5 5 5 5 5 5 5 5 5 5 5 5 5 5 5 5 5 5 5 5 5 5 5 5 5 5 5 5 5 5 5 5 5 5 5 5 5 5 5 5 5 5 5 5 5 5 5 5 5 5 5 5 5 5 5 5 5 5 5 5 5 5 5 5 5 5 5 5 5 5 5 5 5 5 5 5 5 5 5 5 5 5 5 5 5 5 5 5 5 5 5 5 5 5 5 5 5 5 5 5 5 5 5 5 5 5 5 5 5 5 5 5 5 5 5 5 5 5 5 5 5 5 5 5 5 5 5 5 5 5 5 5 5 5 5 5 5 5 5 5 5 5 5 5 5 5 5 5 5 5 5 5 5 5 5 5 5 5 5 5 5 5 5 5 5 5 5 5 5 5 5 5 5 5 5 5 5 5 5 5 5 5 5 5 5 5 5 5 5 5 5 5 5 5 5 5 5 5 5 5 5 5 5 5 5 5 5 5 5 5 5 5 5 5 5 5 5 5 5 5 5 5 5 5 5 5 5 5 5 5 5 5 5 5 5 5 5 5 5 5 5 5 5 5 5 5 5 5 5 5 5 5 5 5 5 5 5 5 5 5 5 5 5 5 5 5 5 5 5 5 5 5 5 5 5 5 5 5 5 5 5 5 5 5 5 5 5 5 5 5 5 5 5 5 5 5 5 5 5 5 5 5 5 5 5 5 5 5 5 5 5 5 5 5 5 5 5 5 5 5 5 5 5 5 5 5 5 5 5 5 5 5 5 5 5 5 5 5 5 5 5 5 5 5 5 5 5 5 5 5 5 5 5 5 5 5 5 5 5 5 5 5 5 5 5 5 5 5 5 5 5 5 5 5 5 5 5 5 5 5 5 5 5 5 5 5 5 5 5 5 5 5 5 5 5 5 5 5 5 5 5 5 5 5 5 5 5 5 5 5 5 5 5 5 5 5 5 5 5 5 5 5 5 5 5 5 5 5 5 5 5 5 5 5 5 5 5 5 5 5 5 5 5 5 5 5 5 5 5 5 5 5 5 5 5 5 5 5 5 5 5 5 5 5 5 5 5 5 5 5 5 5 5 5 5 5 5 5 5 5 5 5 5 5 5 5 5 5 5 5 5 5 5 5 5 5 5 5 5 5 5 5 5 5 5 5 5 5 5 5 5 5 5 5 5 5 5 5 5 5 5 5 5 5 5 5 5 5 5 5 5 5 5 5 5 5 5 5 5 5 5 5 5 5 5 5 5 5 5 5 5 5 5 5 5 5 5 5 5 5 5 5 5 5 5 5 5 5 5 5 5 5 5 5 5 5 5 5 5 5 5 5 5 5 5 5 5 5 5 5 5 5 5 5 5 5 5 5 5 5 5 5 5 5 5 5 5 5 5 5 5 5 5 5 5 5 5 5 5 5 5 5 5 5 5 5 5 5 5 5 5 5 5 5 5 5 5 5 5 5 5 5 5 5 5 5 5 5 5 5 5 5 5 5 5 5 5 5 5 5 5 5 5 5 5 5 5 5 5 5 5 5 5 5 5 5 5 5 5 5 5 5 5 5 5 5 5 5 5 5 5 5 5 5 5 5 5 5 5 5 5 5 5 5 5 5 5 5 5 5 5 5 5 5 5 5 5 5 5 5 5 5 5 5 5 5 5 5 5 5 5 5 5 5 5 5 5 5 5 5 5 5 5 5 5 5 5 5 5 5 5 5 5 5 5 5 5 5 5 5 5 5 5 5 5 5 5 5 5 5 5 5 5 5 5 5 5 5 5 5 5 5 5 5 5 5 5 5 5 5 5 5 5 5 5 5 5 5 5 5 5 5 5 5 5 5 5 5 5 5 5 5 5 5 5 5 5 5 5 5 5 5 5 5 5 5 5 5 5 5 5 5 5 5 5 5 5 5 5 5 5 5 5 5 5 5 5 5 5 5 5 5 5 5 5 5 5 5 5 5 5 5 5 5 5 5 5 5 5 5 5 5 5 5 5 5 5 5 5 5 5 5 5 5 5 5 5 5 5 5 5 5 5 5 5 5 5 5 5 5 5 5 5 5 5 5 5 5 5 5 5 5 5 5 5 5 5 5 5 5 5 5 5 5 5 5 5 5 5 5 5 5 5 5 5 5 5 5 5 5 5 5 5 5 5 5 5 5 5 5 5 5 5 5 5 5 5 5 5 5 5 5 5 5 5 5 5 5 5 5 5 5 5 5 5 5 5 5 5 5 5 5 5 5 5 5 5 5 5 5 5 5 5 5 5 5 5 5 5 5 5 5 5 5 5 5 5 5 5 5 5 5 5 5 5 5 5 5 5 5 5 5 5 5 5 5 5 5 5 5 5 5 5 5 5 5 5 5 5 5 5 5 5 5 5 5 5 5 5 5 5 5 5 5 5 5 5 5 5 5 5 5 5 5 5 5 5 5 5 5 5 5 5 5 5 5 5 5 5 5 5 5 5 5 5 5 5 5 5 5 5 5 5 5 5 5 5 5 5 5 5 5 5 5 5 5 5 5 5 5 5 5 5 5 5 5 5 5 5 5 5 5 5 5 5 5 5 5 5 5 5 5 5 5 5 5 5 5 5 5 5 5 5 5 5 5 5 5 5 5 5 5 5 5 5 5 5 5 5 5 5 5 5 5 5 5 5 5 5 5 5 5 5 5 5 5 5 5 5 5 5 5 5 5 5 5 5 5 5 5 5 5 5 5 5 5 5 5 5 5 5 5 5 5 5 5 5 5 5 5 5 5 5 5 5 5 5 5 5 5 5 5 5 5 5 5 5 5 5 5 5 5 5 5 5 5 5 5 5 5 5 5 5 5 5 5 5 5 5 5 5 5 5 5 5 5 5 5 5 5 5 5 5 5 5 5 5 5 5 5 5 5 5 5 5 5 5 5 5 5 5 5 5 5 5 5 5 5 5 5 5 5 5 5 5 5 5 5 5 5 5 5 5 5 5 5 5 5 5 5 5 5 5 5 5 5 5 5 5 5 5 5 5 5 5 5 5 5 5 5 5 5 5 5 5 5 5 5 5 5 5 5 5 5 5 5 5 5 5 5 5 5 5 5 5 5 5 5 5 5 5 5 5 5 5 5 5 5 5 5 5 5 5 5 5 5 5 5 5 5 5 5 5 5 5 5 5 5 5 5 5 5 5 5 5 5 5 5 5 5 5 5 5 5 5 5 5 5 5 5 5 5 5 5 5 5 5 5 5 5 5 5 5 5 5 5 5 5 5 5 5 5 5 5 5 5 5 5 5 5 5 5 5 5 5 5 5 5 5 5 5 5 5 5 5 5 5 5 5 5 5 5 5 5 5 5 5 5 5 5 5 5 5 5 5 5 5 5 5 5 5 5 5 5 5 5 5 5 5 5 5 5 5 5 5 5 5 5 5 5 5 5 5 5 5 5 5 5 5 5 5 5 5 5 5 5 5 5 5 5 5 5 5 5 5 5 5 5 5 5 5 5 5 5 5 5 5 5 5 5 5 5 5 5 5 5 5 5 5 5 5 5 5 5 5 5 5 5 5 5 5 5 5 5 5 5 5 5 5 5 5 5 5 5 5 5 5 5 5 5 5 5 5 5 5 5 5 5 5 5 5 5 5 5 5 5 5 5 5 5 5 5 5 5 5 5 5 5 5 5 5 5 5 5 5 5 5 5 5 5 5 5 5 5 5 5 5 5 5 5 5 5 5 5 5 5 5 5 5 5 5 5 5 5 5 5 5 5 5 5 5 5 5 5 5 5 5 5 5 5 5 5 5 5 5 5 5 5 5 5 5 5 5 5 5 5 5 5 5 5 5 5 5 5 5 5 5 5 5 5 5 5 5 5 5 5 5 5 5 5 5 5 5 5 5 5 5 5 5 5 5 5 5 5 5 5 5 5 5 5 5 5 5 5 5 5 5 5 5 5 5 5 5 5 5 5 5 5 5 5 5 5 5 5 5 5 5 5 5 5 5 5 5 5 5 5 5 5 5 5 5 5 5 5 5 5 5 5 5 5 5 5 5 5 5 5 5 5 5 5 5 5 5 5 5 5 5 5 5 5 5 5 5 5 5 5 5 5 5 5 5 5 5 5 5 5 5 5 5 5 5 5 5 5 5 5 5 5 5 5 5 5 5 5 5 5 5 5 5 5 5 5 5 5 5 5 5 5 5 5 5 5 5 5 5 5 5 5 5 5 5 5 5 5 5 5 5 5 5 5 5 5 5 5 5 5 5 5 5 5 5 5 5 5 5 5 5 5 5 5 5 5 5 5 5 5 5 5 5 5 5 5 5 5 5 5 5 5 5 5 5 5 5 5 5 5 5 5 5 5 5 5 5 5 5 5 5 5 5 5 5 5 5 5 5 5 5 5 5 5 5 5 5 5 5 5 5 5 5 5 5 5 5 5 5 5 5 5 5 5 5 5 5 5 5 5 5 5 5 5 5 5 5 5 5 5 5 5 5 5 5 5 5 5 5 5 5 5 5 5 5 5 5 5 5 5 5 5 5 5 5 5 5 5 5 5 5 5 5 5 5 5 5 5 5 5 5 5 5 5 5 5 5 5 5 5 5 5 5 5 5 5 5 5 5 5 5 5 5 5 5 5 5 5 5 5 5 5 5 5 5 5 5 5 5 5 5 5 5 5 5 5 5 5 5 5 5 5 5 5 5 5 5 5 5 5 5 5 5 5 5 5 5 5 5 5 5 5 5 5 5 5 5 5 5 5 5 5 5 5 5 5 5 5 5 5 5 5 5 5 5 5 5 5 5 5 5 5 5 5 5 5 5 5 5 5 5 5 5 5 5 5 5 5 5 5 5 5 5 5 5 5 5 5 5 5 5 5 5 5 5 5 5 5 5 5 5 5 5 5 5 5 5 5 5 5 5 5 5 5 5 5 5 5 5 5 5 5 5 5 5 5 5 5 5 5 5 5 5 5 5 5 5 5 5 5 5 5 5 5 5 5 5 5 5 5 5 5 5 5 5 5 5 5 5 5 5 5 5 5 5 5 5 5 5 5 5 5 5 5 5 5 5 5 5 5 5 5 5 5 5 5 5 5 5 5 5 5 5 5 5 5 5 5 5 5 5 5 5 5 5 5 5 5 5 5 5 5 5 5 5 5 5 5 5 5 5 5 5 5 5 5 5 5 5 5 5 5 5 5 5 5 5 5 5 5 5 5 5 5 5 5 5 5 5 5 5 5 5 5 5 5 5 5 5 5 5 5 5 5 5 5 5 5 5 5 5 5 5 5 5 5 5 5 5 5 5 5 5 5 5 5 5 5 5 5 5 5 5 5 5 5 5 5 5 5 5 5 5 5 5 5 5 5 5 5 5 5 5 5 5 5 5 5 5 5 5 5 5 5 5 5 5 5 5 5 5 5 5 5 5 5 5 5 5 5 5 5 5 5 5 5 5 5 5 5 5 5 5 5 5 5 5 5 5 5 5 5 5 5 5 5 5 5 5 5 5 5 5 5 5 5 5 5 5 5 5 5 5 5 5 5 5 5 5 5 5 5 5 5 5 5 5 5 5 5 5 5 5 5 5 5 5 5 5 5 5 5 5 5 5 5 5 5 5 5 5 5 5 5 5 5 5 5 5 5 5 5 5 5 5 5 5 5 5 5 5 5 5 5 5 5 5 5 5 5 5 5 5 5 5 5 5 5 5 5 5 5 5 5 5 5 5 5 5 5 5 5 5 5 5 5 5 5 5 5 5 5 5 5 5 5 5 5 5 5 5 5 5 5 5 5 5 5 5 5 5 5 5 5 5 5 5 5 5 5 5 5 5 5 5 5 5 5 5 5 5 5 5 5 5 5 5 5 5 5 5 5 5 5 5 5 5 5 5 5 5 5 5 5 5 5 5 5 5 5 5 5 5 5 5 5 5 5 5 5 5 5 5 5 5 5 5 5 5 5 5 5 5 5 5 5 5 5 5 5 5 5 5 5 5 5 5 5 5 5 5 5 5 5 5 5 5 5 5 5 5 5 5 5 5 5 5 5 5 5 5 5 5 5 5 5 5 5 5 5 5 5 5 5 5 5 5 5 5 5 5 5 5 5 5 5 5 5 5 5 5 5 5 5 5 5 5 5 5 5 5 5 5 5 5 5 5 5 5 5 5 5 5 5 5 5 5 5 5 5 5 5 5 5 5 5 5 5 5 5 5 5 5 5 5 5 5 5 5 5 5 5 5 5 5 5 5 5 5 5 5 5 5 5 5 5 5 5 5 5 5 5 5 5 5 5 5 5 5 5 5 5 5 5 5 5 5 5 5 5 5 5 5 5 5 5 5 5 5 5 5 5 5 5 5 5 5 5 5 5 5 5 5 5 5 5 5 5 5 5 5 5 5 5 5 5 5 5 5 5 5 5 5 5 5 5 5 5 5 5 5 5 5 5 5 5 5 5 5 5 5 5 5 5 5 5 5 5 5 5 5 5 5 5 5 5 5 5 5 5 5 5 5 5 5 5 5 5 5 5 5 5 5 5 5 5 5 5 5 5 5 5 5 5 5 5 5 5 5 5 5 5 5 5 5 5 5 5 5 5 5 5 5 5 5 5 5 5 5 5 5 5 5 5 5 5 5 5 5 5 5 5 5 5 5 5 5 5 5 5 5 5 5 5 5 5 5 5 5 5 5 5 5 5 5 5 5 5 5 5 5 5 5 5 5 5 5 5 5 5 5 5 5 5 5 5 5 5 5 5 5 5 5 5 5 5 5 5 5 5 5 5 5 5 5 5 5 5 5 5 5 5 5 5 5 5 5 5 5 5 5 5 5 5 5 5 5 5 5 5 5 5 5 5 5 5 5 5 5 5 5 5 5 5 5 5 5 5 5 5 5 5 5 5 5 5 5 5 5 5 5 5 5 5 5 5 5 5 5 5 5 5 5 5 5 5 5 5 5 5 5 5 5 5 5 5 5 5 5 5 5 5 5 5 5 5 5 5 5 5 5 5 5 5 5 5 5 5 5 5 5 5 5 5 5 5 5 5 5 5 5 5 5 5 5 5 5 5 5 5 5 5 5 5 5 5 5 5 5 5 5 5 5 5 5 5 5 5 5 5 5 5 5 5 5 5 5 5 5 5 5 5 5 5 5 5 5 5 5 5 5 5 5 5 5 5 5 5 5 5 5 5 5 5 5 5 5 5 5 5 5 5 5 5 5 5 5 5 5 5 5 5 5 5 5 5 5 5 5 5 5 5 5 5 5 5 5 5 5 5 5 5 5 5 5 5 5 5 5 5 5 5 5 5 5 5 5 5 5 5 5 5 5 5 5 5 5 5 5 5 5 5 5 5 5 5 5 5 5 5 5 5 5 5 5 5 5 5 5 5 5 5 5 5 5 5 5 5 5 5 5 5 5 5 5 5 5 5 5 5 5 5 5 5 5 5 5 5 5 5 5 5 5 5 5 5 5 5 5 5 5 5 5 5 5 5 5 5 5 5 5 5 5 5 5 5 5 5 5 5 5 5 5 5 5 5 5 5 5 5 5 5 5 5 5 5 5 5 5 5 5 5 5 5 5 5 5 5 5 5 5 5 5 5 5 5 5 5 5 5 5 5 5 5 5 5 5 5 5 5 5 5 5 5 5 5 5 5 5 5 5 5 5 5 5 5 5 5 5 5 5 5 5 5 5 5 5 5 5 5 5 5 5 5 5 5 5 5 5 5 5 5 5 5 5 5 5 5 5 5 5 5 5 5 5 5 5 5 5 5 5 5 5 5 5 5 5 5 5 5 5 5 5 5 5 5 5 5 5 5 5 5 5 5 5 5 5 5 5 5 5 5 5 5 5 5 5 5 5 5 5 5 5 5 5 5 5 5 5 5 5 5 5 5 5 5 5 5 5 5 5 5 5 5 5 5 5 5 5 5 5 5 5 5 5 5 5 5 5 5 5 5 5 5 5 5 5 5 5 5 5 5 5 5 5 5 5 5 5 5 5 5 5 5 5 5 5 5 5 5 5 5 5 5 5 5 5 5 5 5 5 5 5 5 5 5 5 5 5 5 5 5 5 5 5 5 5 5 5 5 5 5 5 5 5 5 5 5 5 5 5 5 5 5 5 5 5 5 5 5 5 5 5 5 5 5 5 5 5 5 5 5 5 5 5 5 5 5 5 5 5 5 5 5 5 5 5 5 5 5 5 5 5 5 5 5 5 5 5 5 5 5 5 5 5 5 5 5 5 5 5 5 5 5 5 5 5 5 5 5 5 5 5 5 5 5 5 5 5 5 5 5 5 5 5 5 5 5 5 5 5 5 5 5 5 5 5 5 5 5 5 5 5 5 5 5 5 5 5 5 5 5 5 5 5 5 5 5 5 5 5 5 5 5 5 5 5 5 5 5 5 5 5 5 5 5 5 5 5 5 5 5 5 5 5 5 5 5 5 5 5 5 5 5 5 5 5 5 5 5 5 5 5 5 5 5 5 5 5 5 5 5 5 5 5 5 5 5 5 5 5 5 5 5 5 5 5 5 5 5 5 5 5 5 5 5 5 5 5 5 5 5 5 5 5 5 5 5 5 5 5 5 5 5 5 5 5 5 5 5 5 5 5 5 5 5 5 5 5 5 5 5 5 5 5 5 5 5 5 5 5 5 5 5 5 5 5 5 5 5 5 5 5 5 5 5 5 5 5 5 5 5 5 5 5 5 5 5 5 5 5 5 5 5 5 5 5 5 5 5 5 5 5 5 5 5 5 5 5 5 5 5 5 5 5 5 5 5 5 5 5 5 5 5 5 5 5 5 5 5 5 5 5 5 5 5 5 5 5 5 5 5 5 5 5 5 5 5 5 5 5 5 5 5 5 5 5 5 5 5 5 5 5 5 5 5 5 5 5 5 5 5 5 5 5 5 5 5 5 5 5 5 5 5 5 5 5 5 5 5 5 5 5 5 5 5 5 5 5 5 5 5 5 5 5 5 5 5 5 5 5 5 5 5 5 5 5 5 5 5 5 5 5 5 5 5 5 5 5 5 5 5 5 5 5 5 5 5 5 5 5 5 5 5 5 5 5 5 5 5 5 5 5 5 5 5 5 5 5 5 5 5 5 5 5 5 5 5 5 5 5 5 5 5 5 5 5 5 5 5 5 5 5 5 5 5 5 5 5 5 5 5 5 5 5 5 5 5 5 5 5 5 5 5 5 5 5 5 5 5 5 5 5 5 5 5 5 5 5 5 5 5 5 5 5 5 5 5 5 5 5 5 5 5 5 5 5 5 5 5 5 5 5 5 5 5 5 5 5 5 5 5 5 5 5 5 5 5 5 5 5 5 5 5 5 5 5 5 5 5 5 5 5 5 5 5 5 5 5 5 5 5 5 5 5 5 5 5 5 5 5 5 5 5 5 5 5 5 5 5 5 5 5 5 5 5 5 5 5 5 5 5 5 5 5 5 5 5 5 5 5 5 5 5 5 5 5 5 5 5 5 5 5 5 5 5 5 5 5 5 5 5 5 5 5 5 5 5 5 5 5 5 5 5 5 5 5 5 5 5 5 5 5 5 5 5 5 5 5 5 5 5 5 5 5 5 5 5 5 5 5 5 5 5 5 5 5 5 5 5 5 5 5 5 5 5 5 5 5 5 5 5 5 5 5 5 5 5 5 5 5 5 5 5 5 5 5 5 5 5 5 5 5 5 5 5 5 5 5 5 5 5 5 5 5 5 5 5 5 5 5 5 5 5 5 5 5 5 5 5 5 5 5 5 5 5 5 5 5 5 5 5 5 5 5 5 5 5 5 5 5 5 5 5 5 5 5 5 5 5 5 5 5 5 5 5 5 5 5 5 5 5 5 5 5 5 5 5 5 5 5 5 5 5 5 5 5 5 5 5 5 5 5 5 5 5 5 5 5 5 5 5 5 5 5 5 5 5 5 5 5 5 5 5 5 5 5 5 5 5 5 5 5 5 5 5 5 5 5 5 5 5 5 5 5 5 5 5 5 5 5 5 5 5 5 5 5 5 5 5 5 5 5 5 5 5 5 5 5 5 5 5 5 5 5 5 5 5 5 5 5 5 5 5 5 5 5 5 5 5 5 5 5 5 5 5 5 5 5 5 5 5 5 5 5 5 5 5 5 5 5 5 5 5 5 5 5 5 5 5 5 5 5 5 5 5 5 5 5 5 5 5 5 5 5 5 5 5 5 5 5 5 5 5 5 5 5 5 5 5 5 5 5 5 5 5 5 5 5 5 5 5 5 5 5 5 5 5 5 5 5 5 5 5 5 5 5 5 5 5 5 5 5 5 5 5 5 5 5 5 5 5 5 5 5 5 5 5 5 5 5 5 5 5 5 5 5 5 5 5 5 5 5 5 5 5 5 5 5 5 5 5 5 5 5 5 5 5 5 5 5 5 5 5 5 5 5 5 5 5 5 5 5 5 5 5 5 5 5 5 5 5 5 5 5 5 5 5 5 5 5 5 5 5 5 5 5 5 5 5 5 5 5 5 5 5 5 5 5 5 5 5 5 5 5 5 5 5 5 5 5 5 5 5 5 5 5 5 5 5 5 5 5 5 5 5 5 5 5 5 5 5 5 5 5 5 5 5 5 5 5 5 5 5 5 5 5 5 5 5 5 5 5 5 5 5 5 5 5 5 5 5 5 5 5 5 5 5 5 5 5 5 5 5 5 5 5 5 5 5 5 5 5 5 5 5 5 5 5 5 5 5 5 5 5 5 5 5 5 5 5 5 5 5 5 5 5 5 5 5 5 5 5 5 5 5 5 5 5 5 5 5 5 5 5 5 5 5 5 5 5 5 5 5 5 5 5 5 5 5 5 5 5 5 5 5 5 5 5 5 5 5 5 5 5 5 5 5 5 5 5 5 5 5 5 5 5 5 5 5 5 5 5 5 5 5 5 5 5 5 5 5 5 5 5 5 5 5 5 5 5 5 5 5 5 5 5 5 5 5 5 5 5 5 5 5 5 5 5 5 5 5 5 5 5 5 5 5 5 5 5 5 5 5 5 5 5 5 5 5 5 5 5 5 5 5 5 5 5 5 5 5 5 5 5 5 5 5 5 5 5 5 5 5 5 5 5 5 5 5 5 5 5 5 5 5 5 5 5 5 5 5 5 5 5 5 5 5 5 5 5 5 5 5 5 5 5 5 5 5 5 5 5 5 5 5 5 5 5 5 5 5 5 5 5 5 5 5 5 5 5 5 5 5 5 5 5 5 5 5 5 5 5 5 5 5 5 5 5 5 5 5 5 5 5 5 5 5 5 5 5 5 5 5 5 5 5 5 5 5 5 5 5 5 5 5 5 5 5 5 5 5 5 5 5 5 5 5 5 5 5 5 5 5 5 5 5 5 5 5 5 5 5 5 5 5 5 5 5 5 5 5 5 5 5 5 5 5 5 5 5 5 5 5 5 5 5 5 5 5 5 5 5 5 5 5 5 5 5 5 5 5 5 5 5 5 5 5 5 5 5 5 5 5 5 5 5 5 5 5 5 5 5 5 5 5 5 5 5 5 5 5 5 5 5 5 5 5 5 5 5 5 5 5 5 5 5 5 5 5 5 5 5 5 5 5 5 5 5 5 5 5 5 5 5 5 5 5 5 5 5 5 5 5 5 5 5 5 5 5 5 5 5 5 5 5 5 5 5 5 5 5 5 5 5 5 5 5 5 5 5 5 5 5 5 5 5 5 5 5 5 5 5 5 5 5 5 5 5 5 5 5 5 5 5 5 5 5 5 5 5 5 5 5 5 5 5 5 5 5 5 5 5 5 5 5 5 5 5 5 5 5 5 5 5 5 5 5 5 5 5 5 5 5 5 5 5 5 5 5 5 5 5 5 5 5 5 5 5 5 5 5 5 5 5 5 5 5 5 5 5 5 5 5 5 5 5 5 5 5 5 5 5 5 5 5 5 5 5 5 5 5 5 5 5 5 5 5 5 5 5 5 5 5 5 5 5 5 5 5 5 5 5 5 5 5 5 5 5 5 5 5 5 5 5 5 5 5 5 5 5 5 5 5 5 5 5 5 5 5 5 5 5 5 5 5 5 5 5 5 5 5 5 5 5 5 5 5 5 5 5 5 5 5 5 5 5 5 5 5 5 5 5 5 5 5 5 5 5 5 5 5 5 5 5 5 5 5 5 5 5 5 5 5 5 5 5 5 5 5 5 5 5 5 5 5 5 5 5 5 5 5 5 5 5 5 5 5 5 5 5 5 5 5 5 5 5 5 5 5 5 5 5 5 5 5 5 5 5 5 5 5 5 5 5 5 5 5 5 5 5 5 5 5 5 5 5 5 5 5 5 5 5 5 5 5 5 5 5 5 5 5 5 5 5 5 5 5 5 5 5 5 5 5 5 5 5 5 5 5 5 5 5 5 5 5 5 5 5 5 5 5 5 5 5 5 5 5 5 5 5 5 5 5 5 5 5 5 5 5 5 5 5 5 5 5 5 5 5 5 5 5 5 5 5 5 5 5 5 5 5 5 5 5 5 5 5 5 5 5 5 5 5 5 5 5 5 5 5 5 5 5 5 5 5 5 5 5 5 5 5 5 5 5 5 5 5 5 5 5 5 5 5 5 5 5 5 5 5 5 5 5 5 5 5 5 5 5 5 5 5 5 5 5 5 5 5 5 5 5 5 5 5 5 5 5 5 5 5 5 5 5 5 5 5 5 5 5 5 5 5 5 5 5 5 5 5 5 5 5 5 5 5 5 5 5 5 5 5 5 5 5 5 5 5 5 5 5 5 5 5 5 5 5 5 5 5 5 5 5 5 5 5 5 5 5 5 5 5 5 5 5 5 5 5 5 5 5 5 5 5 5 5 5 5 5 5 5 5 5 5 5 5 5 5 5 5 5 5 5 5 5 5 5 5 5 5 5 5 5 5 5 5 5 5 5 5 5 5 5 5 5 5 5 5 5 5 5 5 5 5 5 5 5 5 5 5 5 5 5 5 5 5 5 5 5 5 5 5 5 5 5 5 5 5 5 5 5 5 5 5 5 5 5 5 5 5 5 5 5 5 5 5 5 5 5 5 5 5 5 5 5 5 5 5 5 5 5 5 5 5 5 5 5 5 5 5 5 5 5 5 5 5 5 5 5 5 5 5 5 5 5 5 5 5 5 5 5 5 5 5 5 5 5 5 5 5 5 5 5 5 5 5 5 5 5 5 5 5 5 5 5 5 5 5 5 5 5 5 5 5 5 5 5 5 5 5 5 5 5 5 5 5 5 5 5 5 5 5 5 5 5 5 5 5 5 5 5 5 5 5 5 5 5 5 5 5 5 5 5 5 5 5 5 5 5 5 5 5 5 5 5 5 5 5 5 5 5 5 5 5 5 5 5 5 5 5 5 5 5 5 5 5 5 5 5 5 5 5 5 5 5 5 5 5 5 5 5 5 5 5 5 5 5 5 5 5 5 5 5 5 5 5 5 5 5 5 5 5 5 5 5 5 5 5 5 5 5 5 5 5 5 5 5 5 5 5 5 5 5 5 5 5 5 5 5 5 5 5 5 5 5 5 5 5 5 5 5 5 5 5 5 5 5 5 5 5 5 5 5 5 5 5 5 5 5 5 5 5 5 5 5 5 5 5 5 5 5 5 5 5 5 5 5 5 5 5 5 5 5 5 5 5 5 5 5 5 5 5 5 5 5 5 5 5 5 5 5 5 5 5 5 5 5 5 5 5 5 5 5 5 5 5 5 5 5 5 5 5 5 5 5 5 5 5 5 5 5 5 5 5 5 5 5 5 5 5 5 5 5 5 5 5 5 5 5 5 5 5 5 5 5 5 5 5 5 5 5 5 5 5 5 5 5 5 5 5 5 5 5 5 5 5 5 5 5 5 5 5 5 5 5 5 5 5 5 5 5 5 5 5 5 5 5 5 5 5 5 5 5 5 5 5 5 5 5 5 5 5 5 5 5 5 5 5 5 5 5 5 5 5 5 5 5 5 5 5 5 5 5 5 5 5 5 5 5 5 5 5 5 5 5 5 5 5 5 5 5 5 5 5 5 5 5 5 5 5 5 5 5 5 5 5 5 5 5 5 5 5 5 5 5 5 5 5 5 5 5 5 5 5 5 5 5 5 5 5 5 5 5 5 5 5 5 5 5 5 5 5 5 5 5 5 5 5 5 5 5 5 5 5 5 5 5 5 5 5 5 5 5 5 5 5 5 5 5 5 5 5 5 5 5 5 5 5 5 5 5 5 5 5 5 5 5 5 5 5 5 5 5 5 5 5 5 5 5 5 5 5 5 5 5 5 5 5 5 5 5 5 5 5 5 5 5 5 5 5 5 5 5 5 5 5 5 5 5 5 5 5 5 5 5 5 5 5 5 5 5 5 5 5 5 5 5 5 5 5 5 5 5 5 5 5 5 5 5 5 5 5 5 5 5 5 5 5 5 5 5 5 5 5 5 5 5 5 5 5 5 5 5 5 5 5 5 5 5 5 5 5 5 5 5 5 5 5 5 5 5 5 5 5 5 5 5 5 5 5 5 5 5 5 5 5 5 5 5 5 5 5 5 5 5 5 5 5 5 5 5 5 5 5 5 5 5 5 5 5 5 5 5 5 5 5 5 5 5 5 5 5 5 5 5 5 5 5 5 5 5 5 5 5 5 5 5 5 5 5 5 5 5 5 5 5 5 5 5 5 5 5 5 5 5 5 5 5 5 5 5 5 5 5 5 5 5 5 5 5 5 5 5 5 5 5 5 5 5 5 5 5 5 5 5 5 5 5 5 5 5 5 5 5 5 5 5 5 5 5 5 5 5 5 5 5 5 5 5 5 5 5 5 5 5 5 5 5 5 5 5 5 5 5 5 5 5 5 5 5 5 5 5 5 5 5 5 5 5 5 5 5 5 5 5 5 5 5 5 5 5 5 5 5 5 5 5 5 5 5 5 5 5 5 5 5 5 5 5 5 5 5 5 5 5 5 5 5 5 5 5 5 5 5 5 5 5 5 5 5 5 5 5 5 5 5 5 5 5 5 5 5 5 5 5 5 5 5 5 5 5 5 5 5 5 5 5 5 5 5 5 5 5 5 5 5 5 5 5 5 5 5 5 5 5 5 5 5 5 5 5 5 5 5 5 5 5 5 5 5 5 5 5 5 5 5 5 5 5 5 5 5 5 5 5 5 5 5 5 5 5 5 5 5 5 5 5 5 5 5 5 5 5 5 5 5 5 5 5 5 5 5 5 5 5 5 5 5 5 5 5 5 5 5 5 5 5 5 5 5 5 5 5 5 5 5 5 5 5 5 5 5 5 5 5 5 5 5 5 5 5 5 5 5 5 5 5 5 5 5 5 5 5 5 5 5 5 5 5 5 5 5 5 5 5 5 5 5 5 5 5 5 5 5 5 5 5 5 5 5 5 5 5 5 5 5 5 5 5 5 5 5 5 5 5 5 5 5 5 5 5 5 5 5 5 5 5 5 5 5 5 5 5 5 5 5 5 5 5 5 5 5 5 5 5 5 5 5 5 5 5 5 5 5 5 5 5 5 5 5 5 5 5 5 5 5 5 5 5 5 5 5 5 5 5 5 5 5 5 5 5 5 5 5 5 5 5 5 5 5 5 5 5 5 5 5 5 5 5 5 5 5 5 5 5 5 5 5 5 5 5 5 5 5 5 5 5 5 5 5 5 5 5 5 5 5 5 5 5 5 5 5 5 5 5 5 5 5 5 5 5 5 5 5 5 5 5 5 5 5 5 5 5 5 5 5 5 5 5 5 5 5 5 5 5 5 5 5 5 5 5 5 5 5 5 5 5 5 5 5 5 5 5 5 5 5 5 5 5 5 5 5 5 5 5 5 5 5 5 5 5 5 5 5 5 5 5 5 5 5 5 5 5 5 5 5 5 5 5 5 5 5 5 5 5 5 5 5 5 5 5 5 5 5 5 5 5 5 5 5 5 5 5 5 5 5 5 5 5 5 5 5 5 5 5 5 5 5 5 5 5 5 5 5 5 5 5 5 5 5 5 5 5 5 5 5 5 5 5 5 5 5 5 5 5 5 5 5 5 5 5 5 5 5 5 5 5 5 5 5 5 5 5 5 5 5 5 5 5 5 5 5 5 5 5 5 5 5 5 5 5 5 5 5 5 5 5 5 5 5 5 5 5 5 5 5 5 5 5 5 5 5 5 5 5 5 5 5 5 5 5 5 5 5 5 5 5 5 5 5 5 5 5 5 5 5 5 5 5 5 5 5 5 5 5 5 5 5 5 5 5 5 5 5 5 5 5 5 5 5 5 5 5 5 5 5 5 5 5 5 5 5 5 5 5 5 5 5 5 5 5 5 5 5 5 5 5 5 5 5 5 5 5 5 5 5 5 5 5 5 5 5 5 5 5 5 5 5 5 5 5 5 5 5 5 5 5 5 5 5 5 5 5 5 5 5 5 5 5 5 5 5 5 5 5 5 5 5 5 5 5 5 5 5 5 5 5 5 5 5 5 5 5 5 5 5 5 5 5 5 5 5 5 5 5 5 5 5 5 5 5 5 5 5 5 5 5 5 5 5 5 5 5 5 5 5 5 5 5 5 5 5 5 5 5 5 5 5 5 5 5 5 5 5 5 5 5 5 5 5 5 5 5 5 5 5 5 5 5 5 5 5 5 5 5 5 5 5 5 5 5 5 5 5 5 5 5 5 5 5 5 5 5 5 5 5 5 5 5 5 5 5 5 5 5 5 5 5 5 5 5 5 5 5 5 5 5 5 5 5 5 5 5 5 5 5 5 5 5 5 5 5 5 5 5 5 5 5 5 5 5 5 5 5 5 5 5 5 5 5 5 5 5 5 5 5 5 5 5 5 5 5 5 5 5 5 5 5 5 5 5 5 5 5 5 5 5 5 5 5 5 5 5 5 5 5 5 5 5 5 5 5 5 5 5 5 5 5 5 5 5 5 5 5 5 5 5 5 5 5 5 5 5 5 5 5 5 5 5 5 5 5 5 5 5 5 5 5 5 5 5 5 5 5 5 5 5 5 5 5 5 5 5 5 5 5 5 5 5 5 5 5 5 5 5 5 5 5 5 5 5 5 5 5 5 5 5 5 5 5 5 5 5 5 5 5 5 5 5 5 5 5 5 5 5 5 5 5 5 5 5 5 5 5 5 5 5 5 5 5 5 5 5 5 5 5 5 5 5 5 5 5 5 5 5 5 5 5 5 5 5 5 5 5 5 5 5 5 5 5 5 5 5 5 5 5 5 5 5 5 5 5 5 5 5 5 5 5 5 5 5 5 5 5 5 5 5 5 5 5 5 5 5 5 5 5 5 5 5 5 5 5 5 5 5 5 5 5 5 5 5 5 5 5 5 5 5 5 5 5 5 5 5 5 5 5 5 5 5 5 5 5 5 5 5 5 5 5 5 5 5 5 5 5 5 5 5 5 5 5 5 5 5 5 5 5 5 5 5 5 5 5 5 5 5 5 5 5 5 5 5 5 5 5 5 5 5 5 5 5 5 5 5 5 5 5 5 5 5 5 5 5 5 5 5 5 5 5 5 5 5 5 5 5 5 5 5 5 5 5 5 5 5 5 5 5 5 5 5 5 5 5 5 5 5 5 5 5 5 5 5 5 5 5 5 5 5 5 5 5 5 5 5 5 5 5 5 5 5 5 5 5 5 5 5 5 5 5 5 5 5 5 5 5 5 5 5 5 5 5 5 5 5 5 5 5 5 5 5 5 5 5 5 5 5 5 5 5 5 5 5 5 5 5 5 5 5 5 5 5 5 5 5 5 5 5 5 5 5 5 5 5 5 5 5 5 5 5 5 5 5 5 5 5 5 5 5 5 5 5 5 5 5 5 5 5 5 5 5 5 5 5 5 5 5 5 5 5 5 5 5 5 5 5 5 5 5 5 5 5 5 5 5 5 5 5 5 5 5 5 5 5 5 5 5 5 5 5 5 5 5 5 5 5 5 5 5 5 5 5 5 5 5 5 5 5 5 5 5 5 5 5 5 5 5 5 5 5 5 5 5 5 5 5 5 5 5 5 5 5 5 5 5 5 5 5 5 5 5 5 5 5 5 5 5 5 5 5 5 5 5 5 5 5 5 5 5 5 5 5 5 5 5 5 5 5 5 5 5 5 5 5 5 5 5 5 5 5 5 5 5 5 5 5 5 5 5 5 5 5 5 5 5 5 5 5 5 5 5 5 5 5 5 5 5 5 5 5 5 5 5 5 5 5 5 5 5 5 5 5 5 5 5 5 5 5 5 5 5 5 5 5 5 5 5 5 5 5 5 5 5 5 5 5 5 5 5 5 5 5 5 5 5 5 5 5 5 5 5 5 5 5 5 5 5 5 5 5 5 5 5 5 5 5 5 5 5 5 5 5 5 5 5 5 5 5 5 5 5 5 5 5 5 5 5 5 5 5 5 5 5 5 5 5 5 5 5 5 5 5 5 5 5 5 5 5 5 5 5 5 5 5 5 5 5 5 5 5 5 5 5 5 5 5 5 5 5 5 5 5 5 5 5 5 5 5 5 5 5 5 5 5 5 5 5 5 5 5 5 5 5 5 5 5 5 5 5 5 5 5 5 5 5 5 5 5 5 5 5 5 5 5 5 5 5 5 5 5 5 5 5 5 5 5 5 5 5 5 5 5 5 5 5 5 5 5 5 5 5 5 5 5 5 5 5 5 5 5 5 5 5 5 5 5 5 5 5 5 5 5 5 5 5 5 5 5 5 5 5 5 5 5 5 5 5 5 5 5 5 5 5 5 5 5 5 5 5 5 5 5 5 5 5 5 5 5 5 5 5 5 5 5 5 5 5 5 5 5 5 5 5 5 5 5 5 5 5 5 5 5 5 5 5 5 5 5 5 5 5 5 5 5 5 5 5 5 5 5 5 5 5 5 5 5 5 5 5 5 5 5 5 5 5 5 5 5 5 5 5 5 5 5 5 5 5 5 5 5 5 5 5 5 5 5 5 5 5 5 5 5 5 5 5 5 5 5 5 5 5 5 5 5 5 5 5 5 5 5 5 5 5 5 5 5 5 5 5 5 5 5 5 5 5 5 5 5 5 5 5 5 5 5 5 5 5 5 5 5 5 5 5 5 5 5 5 5 5 5 5 5 5 5 5 5 5 5 5 5 5 5 5 5 5 5 5 5 5 5 5 5 5 5 5 5 5 5 5 5 5 5 5 5 5 5 5 5 5 5 5 5 5 5 5 5 5 5 5 5 5 5 5 5 5 5 5 5 5 5 5 5 5 5 5 5 5 5 5 5 5 5 5 5 5 5 5 5 5 5 5 5 5 5 5 5 5 5 5 5 5 5 5 5 5 5 5 5 5 5 5 5 5 5 5 5 5 5 5 5 5 5 5 5 5 5 5 5 5 5 5 5 5 5 5 5 5 5 5 5 5 5 5 5 5 5 5 5 5 5 5 5 5 5 5 5 5 5 5 5 5 5 5 5 5 5 5 5 5 5 5 5 5 5 5 5 5 5 5 5 5 5 5 5 5 5 5 5 5 5 5 5 5 5 5 5 5 5 5 5 5 5 5 5 5 5 5 5 5 5 5 5 5 5 5 5 5 5 5 5 5 5 5 5 5 5 5 5 5 5 5 5 5 5 5 5 5 5 5 5 5 5 5 5 5 5 5 5 5 5 5 5 5 5 5 5 5 5 5 5 5 5 5 5 5 5 5 5 5 5 5 5 5 5 5 5 5 5 5 5 5 5 5 5 5 5 5 5 5 5 5 5 5 5 5 5 5 5 5 5 5 5 5 5 5 5 5 5 5 5 5 5 5 5 5 5 5 5 5 5 5 5 5 5 5 5 5 5 5 5 5 5 5 5 5 5 5 5 5 5 5 5 5 5 5 5 5 5 5 5 5 5 5 5 5 5 5 5 5 5 5 5 5 5 5 5 5 5 5 5 5 5 5 5 5 5 5 5 5 5 5 5 5 5 5 5 5 5 5 5 5 5 5 5 5 5 5 5 5 5 5 5 5 5 5 5 5 5 5 5 5 5 5 5 5 5 5 5 5 5 5 5 5 5 5 5 5 5 5 5 5 5 5 5 5 5 5 5 5 5 5 5 5 5 5 5 5 5 5 5 5 5 5 5 5 5 5 5 5 5 5 5 5 5 5 5 5 5 5 5 5 5 5 5 5 5 5 5 5 5 5 5 5 5 5 5 5 5 5 5 5 5 5 5 5 5 5 5 5 5 5 5 5 5 5 5 5 5 5 5 5 5 5 5 5 5 5 5 5 5 5 5 5 5 5 5 5 5 5 5 5 5 5 5 5 5 5 5 5 5 5 5 5 5 5 5 5 5 5 5 5 5 5 5 5 5 5 5 5 5 5 5 5 5 5 5 5 5 5 5 5 5 5 5 5 5 5 5 5 5 5 5 5 5 5 5 5 5 5 5 5 5 5 5 5 5 5 5 5 5 5 5 5 5 5 5 5 5 5 5 5 5 5 5 5 5 5 5 5 5 5 5 5 5 5 5 5 5 5 5 5 5 5 5 5 5 5 5 5 5 5 5 5 5 5 5 5 5 5 5 5 5 5 5 5 5 5 5 5 5 5 5 5 5 5 5 5 5 5 5 5 5 5 5 5 5 5 5 5 5 5 5 5 5 5 5 5 5 5 5 5 5 5 5 5 5 5 5 5 5 5 5 5 5 5 5 5 5 5 5 5 5 5 5 5 5 5 5 5 5 5 5 5 5 5 5 5 5 5 5 5 5 5 5 5 5 5 5 5 5 5 5 5 5 5 5 5 5 5 5 5 5 5 5 5 5 5 5 5 5 5 5 5 5 5 5 5 5 5 5 5 5 5 5 5 5 5 5 5 5 5 5 5 5 5 5 5 5 5 5 5 5 5 5 5 5 5 5 5 5 5 5 5 5 5 5 5 5 5 5 5 5 5 5 5 5 5 5 5 5 5 5 5 5 5 5 5 5 5 5 5 5 5 5 5 5 5 5 5 5 5 5 5 5 5 5 5 5 5 5 5 5 5 5 5 5 5 5 5 5 5 5 5 5 5 5 5 5 5 5 5 5 5 5 5 5 5 5 5 5 5 5 5 5 5 5 5 5 5 5 5 5 5 5 5 5 5 5 5 5 5 5 5 5 5 5 5 5 5 5 5 5 5 5 5 5 5 5 5 5 5 5 5 5 5 5 5 5 5 5 5 5 5 5 5 5 5 5 5 5 5 5 5 5 5 5 5 5 5 5 5 5 5 5 5 5 5 5 5 5 5 5 5 5 5 5 5 5 5 5 5 5 5 5 5 5 5 5 5 5 5 5 5 5 5 5 5 5 5 5 5 5 5 5 5 5 5 5 5 5 5 5 5 5 5 5 5 5 5 5 5 5 5 5 5 5 5 5 5 5 5 5 5 5 5 5 5 5 5 5 5 5 5 5 5 5 5 5 5 5 5 5 5 5 5 5 5 5 5 5 5 5 5 5 5 5 5 5 5 5 5 5 5 5 5 5 5 5 5 5 5 5 5 5 5 5 5 5 5 5 5 5 5 5 5 5 5 5 5 5 5 5 5 5 5 5 5 5 5 5 5 5 5 5 5 5 5 5 5 5 5 5 5 5 5 5 5 5 5 5 5 5 5 5 5 5 5 5 5 5 5 5 5 5 5 5 5 5 5 5 5 5 5 5 5 5 5 5 5 5 5 5 5 5 5 5 5 5 5 5 5 5 5 5 5 5 5 5 5 5 5 5 5 5 5 5 5 5 5 5 5 5 5 5 5 5 5 5 5 5 5 5 5 5 5 5 5 5 5 5 5 5 5 5 5 5 5 5 5 5 5 5 5 5 5 5 5 5 5 5 5 5 5 5 5 5 5 5 5 5 5 5 5 5 5 5 5 5 5 5 5 5 5 5 5 5 5 5 5 5 5 5 5 5 5 5 5 5 5 5 5 5 5 5 5 5 5 5 5 5 5 5 5 5 5 5 5 5 5 5 5 5 5 5 5 5 5 5 5 5 5 5 5 5 5 5 5 5 5 5 5 5 5 5 5 5 5 5 5 5 5 5 5 5 5 5 5 5 5 5 5 5 5 5 5 5 5 5 5 5 5 5 5 5 5 5 5 5 5 5 5 5 5 5 5 5 5 5 5 5 5 5 5 5 5 5 5 5 5 5 5 5 5 5 5 5 5 5 5 5 5 5 5 5 5 5 5 5 5 5 5 5 5 5 5 5 5 5 5 5 5 5 5 5 5 5 5 5 5 5 5 5 5 5 5 5 5 5 5 5 5 5 5 5 5 5 5 5 5 5 5 5 5 5 5 5 5 5 5 5 5 5 5 5 5 5 5 5 5 5 5 5 5 5 5 5 5 5 5 5 5 5 5 5 5 5 5 5 5 5 5 5 5 5 5 5 5 5 5 5 5 5 5 5 5 5 5 5 5 5 5 5 5 5 5 5 5 5 5 5 5 5 5 5 5 5 5 5 5 5 5 5 5 5 5 5 5 5 5 5 5 5 5 5 5 5 5 5 5 5 5 5 5 5 5 5 5 5 5 5 5 5 5 5 5 5 5 5 5 5 5 5 5 5 5 5 5 5 5 5 5 5 5 5 5 5 5 5 5 5 5 5 5 5 5 5 5 5 5 5 5 5 5 5 5 5 5 5 5 5 5 5 5 5 5 5 5 5 5 5 5 5 5 5 5 5 5 5 5 5 5 5 5 5 5 5 5 5 5 5 5 5 5 5 5 5 5 5 5 5 5 5 5 5 5 5 5 5 5 5 5 5 5 5 5 5 5 5 5 5 5 5 5 5 5 5 5 5 5 5 5 5 5 5 5 5 5 5 5 5 5 5 5 5 5 5 5 5 5 5 5 5 5 5 5 5 5 5 5 5 5 5 5 5 5 5 5 5 5 5 5 5 5 5 5 5 5 5 5 5 5 5 5 5 5 5 5 5 5 5 5 5 5 5 5 5 5 5 5 5 5 5 5 5 5 5 5 5 5 5 5 5 5 5 5 5 5 5 5 5 5 5 5 5 5 5 5 5 5 5 5 5 5 5 5 5 5 5 5 5 5 5 5 5 5 5 5 5 5 5 5 5 5 5 5 5 5 5 5 5 5 5 5 5 5 5 5 5 5 5 5 5 5 5 5 5 5 5 5 5 5 5 5 5 5 5 5 5 5 5 5 5 5 5 5 5 5 5 5 5 5 5 5 5 5 5 5 5 5 5 5 5 5 5 5 5 5 5 5 5 5 5 5 5 5 5 5 5 5 5 5 5 5 5 5 5 5 5 5 5 5 5 5 5 5 5 5 5 5 5 5 5 5 5 5 5 5 5 5 5 5 5 5 5 5 5 5 5 5 5 5 5 5 5 5 5 5 5 5 5 5 5 5 5 5 5 5 5 5 5 5 5 5 5 5 5 5 5 5 5 5 5 5 5 5 5 5 5 5 5 5 5 5 5 5 5 5 5 5 5 5 5 5 5 5 5 5 5 5 5 5 5 5 5 5 5 5 5 5 5 5 5 5 5 5 5 5 5 5 5 5 5 5 5 5 5 5 5 5 5 5 5 5 5 5 5 5 5 5 5 5 5 5 5 5 5 5 5 5 5 5 5 5 5 5 5 5 5 5 5 5 5 5 5 5 5 5 5 5 5 5 5 5 5 5 5 5 5 5 5 5 5 5 5 5 5 5 5 5 5 5 5 5 5 5 5 5 5 5 5 5 5 5 5 5 5 5 5 5 5 5 5 5 5 5 5 5 5 5 5 5 5 5 5 5 5 5 5 5 5 5 5 5 5 5 5 5 5 5 5 5 5 5 5 5 5 5 5 5 5 5 5 5 5 5 5 5 5 5 5 5 5 5 5 5 5 5 5 5 5 5 5 5 5 5 5 5 5 5 5 5 5 5 5 5 5 5 5 5 5 5 5 5 5 5 5 5 5 5 5 5 5 5 5 5 5 5 5 5 5 5 5 5 5 5 5 5 5 5 5 5 5 5 5 5 5 5 5 5 5 5 5 5 5 5 5 5 5 5 5 5 5 5 5 5 5 5 5 5 5 5 5 5 5 5 5 5 5 5 5 5 5 5 5 5 5 5 5 5 5 5 5 5 5 5 5 5 5 5 5 5 5 5 5 5 5 5 5 5 5 5 5 5 5 5 5 5 5 5 5 5 5 5 5 5 5 5 5 5 5 5 5 5 5 5 5 5 5 5 5 5 5 5 5 5 5 5 5 5 5 5 5 5 5 5 5 5 5 5 5 5 5 5 5 5 5 5 5 5 5 5 5 5 5 5 5 5 5 5 5 5 5 5 5 5 5 5 5 5 5 5 5 5 5 5 5 5 5 5 5 5 5 5 5 5 5 5 5 5 5 5 5 5 5 5 5 5 5 5 5 5 5 5 5 5 5 5 5 5 5 5 5 5 5 5 5 5 5 5 5 5 5 5 5 5 5 5 5 5 5 5 5 5 5 5 5 5 5 5 5 5 5 5 5 5 5 5 5 5 5 5 5 5 5 5 5 5 5 5 5 5 5 5 5 5 5 5 5 5 5 5 5 5 5 5 5 5 5 5 5 5 5 5 5 5 5 5 5 5 5 5 5 5 5 5 5 5 5 5 5 5 5 5 5 5 5 5 5 5 5 5 5 5 5 5 5 5 5 5 5 5 5 5 5 5 5 5 5 5 5 5 5 5 5 5 5 5 5 5 5 5 5 5 5 5 5 5 5 5 5 5 5 5 5 5 5 5 5 5 5 5 5 5 5 5 5 5 5 5 5 5 5 5 5 5 5 5 5 5 5 5 5 5 5 5 5 5 5 5 5 5 5 5 5 5 5 5 5 5 5 5 5 5 5 5 5 5 5 5 5 5 5 5 5 5 5 5 5 5 5 5 5 5 5 5 5 5 5 5 5 5 5 5 5 5 5 5 5 5 5 5 5 5 5 5 5 5 5 5 5 5 5 5 5 5 5 5 5 5 5 5 5 5 5 5 5 5 5 5 5 5 5 5 5 5 5 5 5 5 5 5 5 5 5 5 5 5 5 5 5 5 5 5 5 5 5 5 5 5 5 5 5 5 5 5 5 5 5 5 5 5 5 5 5 5 5 5 5 5 5 5 5 5 5 5 5 5 5 5 5 5 5 5 5 5 5 5 5 5 5 5 5 5 5 5 5 5 5 5 5 5 5 5 5 5 5 5 5 5 5 5 5 5 5 5 5 5 5 5 5 5 5 5 5 5 5 5 5 5 5 5 5 5 5 5 5 5 5 5 5 5 5 5 5 5 5 5 5 5 5 5 5 5 5 5 5 5 5 5 5 5 5 5 5 5 5 5 5 5 5 5 5 5 5 5 5 5 5 5 5 5 5 5 5 5 5 5 5 5 5 5 5 5 5 5 5 5 5 5 5 5 5 5 5 5 5 5 5 5 5 5 5 5 5 5 5 5 5 5 5 5 5 5 5 5 5 5 5 5 5 5 5 5 5 5 5 5 5 5 5 5 5 5 5 5 5 5 5 5 5 5 5 5 5 5 5 5 5 5 5 5 5 5 5 5 5 5 5 5 5 5 5 5 5 5 5 5 5 5 5 5 5 5 5 5 5 5 5 5 5 5 5 5 5 5 5 5 5 5 5 5 5 5 5 5 5 5 5 5 5 5 5 5 5 5 5 5 5 5 5 5 5 5 5 5 5 5 5 5 5 5 5 5 5 5 5 5 5 5 5 5 5 5 5 5 5 5 5 5 5 5 5 5 5 5 5 5 5 5 5 5 5 5 5 5 5 5 5 5 5 5 5 5 5 5 5 5 5 5 5 5 5 5 5 5 5 5 5 5 5 5 5 5 5 5 5 5 5 5 5 5 5 5 5 5 5 5 5 5 5 5 5 5 5 5 5 5 5 5 5 5 5 5 5 5 5 5 5 5 5 5 5 5 5 5 5 5 5 5 5 5 5 5 5 5 5 5 5 5 5 5 5 5 5 5 5 5 5 5 5 5 5 5 5 5 5 5 5 5 5 5 5 5 5 5 5 5 5 5 5 5 5 5 5 5 5 5 5 5 5 5 5 5 5 5 5 5 5 5 5 5 5 5 5 5 5 5 5 5 5 5 5 5 5 5 5 5 5 5 5 5 5 5 5 5 5 5 5 5 5 5 5 5 5 5 5 5 5 5 5 5 5 5 5 5 5 5 5 5 5 5 5 5 5 5 5 5 5 5 5 5 5 5 5 5 5 5 5 5 5 5 5 5 5 5 5 5 5 5 5 5 5 5 5 5 5 5 5 5 5 5 5 5 5 5 5 5 5 5 5 5 5 5 5 5 5 5 5 5 5 5 5 5 5 5 5 5 5 5 5 5 5 5 5 5 5 5 5 5 5 5 5 5 5 5 5 5 5 5 5 5 5 5 5 5 5 5 5 5 5 5 5 5 5 5 5 5 5 5 5 5 5 5 5 5 5 5 5 5 5 5 5 5 5 5 5 5 5 5 5 5 5 5 5 5 5 5 5 5 5 5 5 5 5 5 5 5 5 5 5 5 5 5 5 5 5 5 5 5 5 5 5 5 5 5 5 5 5 5 5 5 5 5 5 5 5 5 5 5 5 5 5 5 5 5 5 5 5 5 5 5 5 5 5 5 5 5 5 5 5 5 5 5 5 5 5 5 5 5 5 5 5 5 5 5 5 5 5 5 5 5 5 5 5 5 5 5 5 5 5 5 5 5 5 5 5 5 5 5 5 5 5 5 5 5 5 5 5 5 5 5 5 5 5 5 5 5 5 5 5 5 5 5 5 5 5 5 5 5 5 5 5 5 5 5 5 5 5 5 5 5 5 5 5 5 5 5 5 5 5 5 5 5 5 5 5 5 5 5 5 5 5 5 5 5 5 5 5 5 5 5 5 5 5 5 5 5 5 5 5 5 5 5 5 5 5 5 5 5 5 5 5 5 5 5 5 5 5 5 5 5 5 5 5 5 5 5 5 5 5 5 5 5 5 5 5 5 5 5 5 5 5 5 5 5 5 5 5 5 5 5 5 5 5 5 5 5 5 5 5 5 5 5 5 5 5 5 5 5 5 5 5 5 5 5 5 5 5 5 5 5 5 5 5 5 5 5 5 5 5 5 5 5 5 5 5 5 5 5 5 5 5 5 5 5 5 5 5 5 5 5 5 5 5 5 5 5 5 5 5 5 5 5 5 5 5 5 5 5 5 5 5 5 5 5 5 5 5 5 5 5 5 5 5 5 5 5 5 5 5 5 5 5 5 5 5 5 5 5 5 5 5 5 5 5 5 5 5 5 5 5 5 5 5 5 5 5 5 5 5 5 5 5 5 5 5 5 5 5 5 5 5 5 5 5 5 5 5 5 5 5 5 5 5 5 5 5 5 5 5 5 5 5 5 5 5 5 5 5 5 5 5 5 5 5 5 5 5 5 5 5 5 5 5 5 5 5 5 5 5 5 5 5 5 5 5 5 5 5 5 5 5 5 5 5 5 5 5 5 5 5 5 5 5 5 5 5 5 5 5 5 5 5 5 5 5 5 5 5 5 5 5 5 5 5 5 5 5 5 5 5 5 5 5 5 5 5 5 5 5 5 5 5 5 5 5 5 5 5 5 5 5 5 5 5 5 5 5 5 5 5 5 5 5 5 5 5 5 5 5 5 5 5 5 5 5 5 5 5 5 5 5 5 5 5 5 5 5 5 5 5 5 5 5 5 5 5 5 5 5 5 5 5 5 5 5 5 5 5 5 5 5 5 5 5 5 5 5 5 5 5 5 5 5 5 5 5 5 5 5 5 5 5 5 5 5 5 5 5 5 5 5 5 5 5 5 5 5 5 5 5 5 5 5 5 5 5 5 5 5 5 5 5 5 5 5 5 5 5 5 5 5 5 5 5 5 5 5 5 5 5 5 5 5 5 5 5 5 5 5 5 5 5 5 5 5 5 5 5 5 5 5 5 5 5 5 5 5 5 5 5 5 5 5 5 5 5 5 5 5 5 5 5 5 5 5 5 5 5 5 5 5 5 5 5 5 5 5 5 5 5 5 5 5 5 5 5 5 5 5 5 5 5 5 5 5 5 5 5 5 5 5 5 5 5 5 5 5 5 5 5 5 5 5 5 5 5 5 5 5 5 5 5 5 5 5 5 5 5 5 5 5 5 5 5 5 5 5 5 5 5 5 5 5 5 5 5 5 5 5 5 5 5 5 5 5 5 5 5 5 5 5 5 5 5 5 5 5 5 5 5 5 5 5 5 5 5 5 5 5 5 5 5 5 5 5 5 5 5 5 5 5 5 5 5 5 5 5 5 5 5 5 5 5 5 5 5 5 5 5 5 5 5 5 5 5 5 5 5 5 5 5 5 5 5 5 5 5 5 5 5 5 5 5 5 5 5 5 5 5 5 5 5 5 5 5 5 5 5 5 5 5 5 5 5 5 5 5 5 5 5 5 5 5 5 5 5 5 5 5 5 5 5 5 5 5 5 5 5 5 5 5 5 5 5 5 5 5 5 5 5 5 5 5 5 5 5 5 5 5 5 5 5 5 5 5 5 5 5 5 5 5 5 5 5 5 5 5 5 5 5 5 5 5 5 5 5 5 5 5 5 5 5 5 5 5 5 5 5 5 5 5 5 5 5 5 5 5 5 5 5 5 5 5 5 5 5 5 5 5 5 5 5 5 5 5 5 5 5 5 5 5 5 5 5 5 5 5 5 5 5 5 5 5 5 5 5 5 5 5 5 5 5 5 5 5 5 5 5 5 5 5 5 5 5 5 5 5 5 5 5 5 5 5 5 5 5 5 5 5 5 5 5 5 5 5 5 5 5 5 5 5 5 5 5 5 5 5 5 5 5 5 5 5 5 5 5 5 5 5 5 5 5 5 5 5 5 5 5 5 5 5 5 5 5 5 5 5 5 5 5 5 5 5 5 5 5 5 5 5 5 5 5 5 5 5 5 5 5 5 5 5 5 5 5 5 5 5 5 5 5 5 5 5 5 5 5 5 5 5 5 5 5 5 5 5 5 5 5 5 5 5 5 5 5 5 5 5 5 5 5 5 5 5 5 5 5 5 5 5 5 5 5 5 5 5 5 5 5 5 5 5 5 5 5 5 5 5 5 5 5 5 5 5 5 5 5 5 5 5 5 5 5 5 5 5 5 5 5 5 5 5 5 5 5 5 5 5 5 5 5 5 5 5 5 5 5 5 5 5 5 5 5 5 5 5 5 5 5 5 5 5 5 5 5 5 5 5 5 5 5 5 5 5 5 5 5 5 5 5 5 5 5 5 5 5 5 5 5 5 5 5 5 5 5 5 5 5 5 5 5 5 5 5 5 5 5 5 5 5 5 5 5 5 5 5 5 5 5 5 5 5 5 5 5 5 5 5 5 5 5 5 5 5 5 5 5 5 5 5 5 5 5 5 5 5 5 5 5 5 5 5 5 5 5 5 5 5 5 5 5 5 5 5 5 5 5 5 5 5 5 5 5 5 5 5 5 5 5 5 5 5 5 5 5 5 5 5 5 5 5 5 5 5 5 5 5 5 5 5 5 5 5 5 5 5 5 5 5 5 5 5 5 5 5 5 5 5 5 5 5 5 5 5 5 5 5 5 5 5 5 5 5 5 5 5 5 5 5 5 5 5 5 5 5 5 5 5 5 5 5 5 5 5 5 5 5 5 5 5 5 5 5 5 5 5 5 5 5 5 5 5 5 5 5 5 5 5 5 5 5 5 5 5 5 5 5 5 5 5 5 5 5 5 5 5 5 5 5 5 5 5 5 5 5 5 5 5 5 5 5 5 5 5 5 5 5 5 5 5 5 5 5 5 5 5 5 5 5 5 5 5 5 5 5 5 5 5 5 5 5 5 5 5 5 5 5 5 5 5 5 5 5 5 5 5 5 5 5 5 5 5 5 5 5 5 5 5 5 5 5 5 5 5 5 5 5 5 5 5 5 5 5 5 5 5 5 5 5 5 5 5 5 5 5 5 5 5 5 5 5 5 5 5 5 5 5 5 5 5 5 5 5 5 5 5 5 5 5 5 5 5 5 5 5 5 5 5 5 5 5 5 5 5 5 5 5 5 5 5 5 5 5 5 5 5 5 5 5 5 5 5 5 5 5 5 5 5 5 5 5 5 5 5 5 5 5 5 5 5 5 5 5 5 5 5 5 5 5 5 5 5 5 5 5 5 5 5 5 5 5 5 5 5 5 5 5 5 5 5 5 5 5 5 5 5 5 5 5 5 5 5 5 5 5 5 5 5 5 5 5 5 5 5 5 5 5 5 5 5 5 5 5 5 5 5 5 5 5 5 5 5 5 5 5 5 5 5 5 5 5 5 5 5 5 5 5 5 5 5 5 5 5 5 5 5 5 5 5 5 5 5 5 5 5 5 5 5 5 5 5 5 5 5 5 5 5 5 5 5 5 5 5 5 5 5 5 5 5 5 5 5 5 5 5 5 5 5 5 5 5 5 5 5 5 5 5 5 5 5 5 5 5 5 5 5 5 5 5 5 5 5 5 5 5 5 5 5 5 5 5 5 5 5 5 5 5 5 5 5 5 5 5 5 5 5 5 5 5 5 5 5 5 5 5 5 5 5 5 5 5 5 5 5 5 5 5 5 5 5 5 5 5 5 5 5 5 5 5 5 5 5 5 5 5 5 5 5 5 5 5 5 5 5 5 5 5 5 5 5 5 5 5 5 5 5 5 5 5 5 5 5 5 5 5 5 5 5 5 5 5 5 5 5 5 5 5 5 5 5 5 5 5 5 5 5 5 5 5 5 5 5 5 5 5 5 5 5 5 5 5 5 5 5 5 5 5 5 5 5 5 5 5 5 5 5 5 5 5 5 5 5 5 5 5 5 5 5 5 5 5 5 5 5 5 5 5 5 5 5 5 5 5 5 5 5 5 5 5 5 5 5 5 5 5 5 5 5 5 5 5 5 5 5 5 5 5 5 5 5 5 5 5 5 5 5 5 5 5 5 5 5 5 5 5 5 5 5 5 5 5 5 5 5 5 5 5 5 5 5 5 5 5 5 5 5 5 5 5 5 5 5 5 5 5 5 5 5 5 5 5 5 5 5 5 5 5 5 5 5 5 5 5 5 5 5 5 5 5 5 5 5 5 5 5 5 5 5 5 5 5 5 5 5 5 5 5 5 5 5 5 5 5 5 5 5 5 5 5 5 5 5 5 5 5 5 5 5 5 5 5 5 5 5 5 5 5 5 5 5 5 5 5 5 5 5 5 5 5 5 5 5 5 5 5 5 5 5 5 5 5 5 5 5 5 5 5 5 5 5 5 5 5 5 5 5 5 5 5 5 5 5 5 5 5 5 5 5 5 5 5 5 5 5 5 5 5 5 5 5 5 5 5 5 5 5 5 5 5 5 5 5 5 5 5 5 5 5 5 5 5 5 5 5 5 5 5 5 5 5 5 5 5 5 5 5 5 5 5 5 5 5 5 5 5 5 5 5 5 5 5 5 5 5 5 5 5 5 5 5 5 5 5 5 5 5 5 5 5 5 5 5 5 5 5 5 5 5 5 5 5 5 5 5 5 5 5 5 5 5 5 5 5 5 5 5 5 5 5 5 5 5 5 5 5 5 5 5 5 5 5 5 5 5 5 5 5 5 5 5 5 5 5 5 5 5 5 5 5 5 5 5 5 5 5 5 5 5 5 5 5 5 5 5 5 5 5 5 5 5 5 5 5 5 5 5 5 5 5 5 5 5 5 5 5 5 5 5 5 5 5 5 5 5 5 5 5 5 5 5 5 5 5 5 5 5 5 5 5 5 5 5 5 5 5 5 5 5 5 5 5 5 5 5 5 5 5 5 5 5 5 5 5 5 5 5 5 5 5 5 5 5 5 5 5 5 5 5 5 5 5 5 5 5 5 5 5 5 5 5 5 5 5 5 5 5 5 5 5 5 5 5 5 5 5 5 5 5 5 5 5 5 5 5 5 5 5 5 5 5 5 5 5 5 5 5 5 5 5 5 5 5 5 5 5 5 5 5 5 5 5 5 5 5 5 5 5 5 5 5 5 5 5 5 5 5 5 5 5 5 5 5 5 5 5 5 5 5 5 5 5 5 5 5 5 5 5 5 5 5 5 5 5 5 5 5 5 5 5 5 5 5 5 5 5 5 5 5 5 5 5 5 5 5 5 5 5 5 5 5 5 5 5 5 5 5 5 5 5 5 5 5 5 5 5 5 5 5 5 5 5 5 5 5 5 5 5 5 5 5 5 5 5 5 5 5 5 5 5 5 5 5 5 5 5 5 5 5 5 5 5 5 5 5 5 5 5 5 5 5 5 5 5 5 5 5 5 5 5 5 5 5 5 5 5 5 5 5 5 5 5 5 5 5 5 5 5 5 5 5 5 5 5 5 5 5 5 5 5 5 5 5 5 5 5 5 5 5 5 5 5 5 5 5 5 5 5 5 5 5 5 5 5 5 5 5 5 5 5 5 5 5 5 5 5 5 5 5 5 5 5 5 5 5 5 5 5 5 5 5 5 5 5 5 5 5 5 5 5 5 5 5 5 5 5 5 5 5 5 5 5 5 5 5 5 5 5 5 5 5 5 5 5 5 5 5 5 5 5 5 5 5 5 5 5 5 5 5 5 5 5 5 5 5 5 5 5 5 5 5 5 5 5 5 5 5 5 5 5 5 5 5 5 5 5 5 5 5 5 5 5 5 5 5 5 5 5 5 5 5 5 5 5 5 5 5 5 5 5 5 5 5 5 5 5 5 5 5 5 5 5 5 5 5 5 5 5 5 5 5 5 5 5 5 5 5 5 5 5 5 5 5 5 5 5 5 5 5 5 5 5 5 5 5 5 5 5 5 5 5 5 5 5 5 5 5 5 5 5 5 5 5 5 5 5 5 5 5 5 5 5 5 5 5 5 5 5 5 5 5 5 5 5 5 5 5 5 5 5 5 5 5 5 5 5 5 5 5 5 5 5 5 5 5 5 5 5 5 5 5 5 5 5 5 5 5 5 5 5 5 5 5 5 5 5 5 5 5 5 5 5 5 5 5 5 5 5 5 5 5 5 5 5 5 5 5 5 5 5 5 5 5 5 5 5 5 5 5 5 5 5 5 5 5 5 5 5 5 5 5 5 5 5 5 5 5 5 5 5 5 5 5 5 5 5 5 5 5 5 5 5 5 5 5 5 5 5 5 5 5 5 5 5 5 5 5 5 5 5 5 5 5 5 5 5 5 5 5 5 5 5 5 5 5 5 5 5 5 5 5 5 5 5 5 5 5 5 5 5 5 5 5 5 5 5 5 5 5 5 5 5 5 5 5 5 5 5 5 5 5 5 5 5 5 5 5 5 5 5 5 5 5 5 5 5 5 5 5 5 5 5 5 5 5 5 5 5 5 5 5 5 5 5 5 5 5 5 5 5 5 5 5 5 5 5 5 5 5 5 5 5 5 5 5 5 5 5 5 5 5 5 5 5 5 5 5 5 5 5 5 5 5 5 5 5 5 5 5 5 5 5 5 5 5 5 5 5 5 5 5 5 5 5 5 5 5 5 5 5 5 5 5 5 5 5 5 5 5 5 5 5 5 5 5 5 5 5 5 5 5 5 5 5 5 5 5 5 5 5 5 5 5 5 5 5 5 5 5 5 5 5 5 5 5 5 5 5 5 5 5 5 5 5 5 5 5 5 5 5 5 5 5 5 5 5 5 5 5 5 5 5 5 5 5 5 5 5 5 5 5 5 5 5 5 5 5 5 5 5 5 5 5 5 5 5 5 5 5 5 5 5 5 5 5 5 5 5 5 5 5 5 5 5 5 5 5 5 5 5 5 5 5 5 5 5 5 5 5 5 5 5 5 5 5 5 5 5 5 5 5 5 5 5 5 5 5 5 5 5 5 5 5 5 5 5 5 5 5 5 5 5 5 5 5 5 5 5 5 5 5 5 5 5 5 5 5 5 5 5 5 5 5 5 5 5 5 5 5 5 5 5 5 5 5 5 5 5 5 5 5 5 5 5 5 5 5 5 5 5 5 5 5 5 5 5 5 5 5 5 5 5 5 5 5 5 5 5 5 5 5 5 5 5 5 5 5 5 5 5 5 5 5 5 5 5 5 5 5 5 5 5 5 5 5 5 5 5 5 5 5 5 5 5 5 5 5 5 5 5 5 5 5 5 5 5 5 5 5 5 5 5 5 5 5 5 5 5 5 5 5 5 5 5 5 5 5 5 5 5 5 5 5 5 5 5 5 5 5 5 5 5 5 5 5 5 5 5 5 5 5 5 5 5 5 5 5 5 5 5 5 5 5 5 5 5 5 5 5 5 5 5 5 5 5 5 5 5 5 5 5 5 5 5 5 5 5 5 5 5 5 5 5 5 5 5 5 5 5 5 5 5 5 5 5 5 5 5 5 5 5 5 5 5 5 5 5 5 5 5 5 5 5 5 5 5 5 5 5 5 5 5 5 5 5 5 5 5 5 5 5 5 5 5 5 5 5 5 5 5 5 5 5 5 5 5 5 5 5 5 5 5 5 5 5 5 5 5 5 5 5 5 5 5 5 5 5 5 5 5 5 5 5 5 5 5 5 5 5 5 5 5 5 5 5 5 5 5 5 5 5 5 5 5 5 5 5 5 5 5 5 5 5 5 5 5 5 5 5 5 5 5 5 5 5 5 5 5 5 5 5 5 5 5 5 5 5 5 5 5 5 5 5 5 5 5 5 5 5 5 5 5 5 5 5 5 5 5 5 5 5 5 5 5 5 5 5 5 5 5 5 5 5 5 5 5 5 5 5 5 5 5 5 5 5 5 5 5 5 5 5 5 5 5 5 5 5 5 5 5 5 5 5 5 5 5 5 5 5 5 5 5 5 5 5 5 5 5 5 5 5 5 5 5 5 5 5 5 5 5 5 5 5 5 5 5 5 5 5 5 5 5 5 5 5 5 5 5 5 5 5 5 5 5 5 5 5 5 5 5 5 5 5 5 5 5 5 5 5 5 5 5 5 5 5 5 5 5 5 5 5 5 5 5 5 5 5 5 5 5 5 5 5 5 5 5 5 5 5 5 5 5 5 5 5 5 5 5 5 5 5 5 5 5 5 5 5 5 5 5 5 5 5 5 5 5 5 5 5 5 5 5 5 5 5 5 5 5 5 5 5 5 5 5 5 5 5 5 5 5 5 5 5 5 5 5 5 5 5 5 5 5 5 5 5 5 5 5 5 5 5 5 5 5 5 5 5 5 5 5 5 5 5 5 5 5 5 5 5 5 5 5 5 5 5 5 5 5 5 5 5 5 5 5 5 5 5 5 5 5 5 5 5 5 5 5 5 5 5 5 5 5 5 5 5 5 5 5 5 5 5 5 5 5 5 5 5 5 5 5 5 5 5 5 5 5 5 5 5 5 5 5 5 5 5 5 5 5 5 5 5 5 5 5 5 5 5 5 5 5 5 5 5 5 5 5 5 5 5 5 5 5 5 5 5 5 5 5 5 5 5 5 5 5 5 5 5 5 5 5 5 5 5 5 5 5 5 5 5 5 5 5 5 5 5 5 5 5 5 5 5 5 5 5 5 5 5 5 5 5 5 5 5 5 5 5 5 5 5 5 5 5 5 5 5 5 5 5 5 5 5 5 5 5 5 5 5 5 5 5 5 5 5 5 5 5 5 5 5 5 5 5 5 5 5 5 5 5 5 5 5 5 5 5 5 5 5 5 5 5 5 5 5 5 5 5 5 5 5 5 5 5 5 5 5 5 5 5 5 5 5 5 5 5 5 5 5 5 5 5 5 5 5 5 5 5 5 5 5 5 5 5 5 5 5 5 5 5 5 5 5 5 5 5 5 5 5 5 5 5 5 5 5 5 5 5 5 5 5 5 5 5 5 5 5 5 5 5 5 5 5 5 5 5 5 5 5 5 5 5 5 5 5 5 5 5 5 5 5 5 5 5 5 5 5 5 5 5 5 5 5 5 5 5 5 5 5 5 5 5 5 5 5 5 5 5 5 5 5 5 5 5 5 5 5 5 5 5 5 5 5 5 5 5 5 5 5 5 5 5 5 5 5 5 5 5 5 5 5 5 5 5 5 5 5 5 5 5 5 5 5 5 5 5 5 5 5 5 5 5 5 5 5 5 5 5 5 5 5 5 5 5 5 5 5 5 5 5 5 5 5 5 5 5 5 5 5 5 5 5 5 5 5 5 5 5 5 5 5 5 5 5 5 5 5 5 5 5 5 5 5 5 5 5 5 5 5 5 5 5 5 5 5 5 5 5 5 5 5 5 5 5 5 5 5 5 5 5 5 5 5 5 5 5 5 5 5 5 5 5 5 5 5 5 5 5 5 5 5 5 5 5 5 5 5 5 5 5 5 5 5 5 5 5 5 5 5 5 5 5 5 5 5 5 5 5 5 5 5 5 5 5 5 5 5 5 5 5 5 5 5 5 5 5 5 5 5 5 5 5 5 5 5 5 5 5 5 5 5 5 5 5 5 5 5 5 5 5 5 5 5 5 5 5 5 5 5 5 5 5 5 5 5 5 5 5 5 5 5 5 5 5 5 5 5 5 5 5 5 5 5 5 5 5 5 5 5 5 5 5 5 5 5 5 5 5 5 5 5 5 5 5 5 5 5 5 5 5 5 5 5 5 5 5 5 5 5 5 5 5 5 5 5 5 5 5 5 5 5 5 5 5 5 5 5 5 5 5 5 5 5 5 5 5 5 5 5 5 5 5 5 5 5 5 5 5 5 5 5 5 5 5 5 5 5 5 5 5 5 5 5 5 5 5 5 5 5 5 5 5 5 5 5 5 5 5 5 5 5 5 5 5 5 5 5 5 5 5 5 5 5 5 5 5 5 5 5 5 5 5 5 5 5 5 5 5 5 5 5 5 5 5 5 5 5 5 5 5 5 5 5 5 5 5 5 5 5 5 5 5 5 5 5 5 5 5 5 5 5 5 5 5 5 5 5 5 5 5 5 5 5 5 5 5 5 5 5 5 5 5 5 5 5 5 5 5 5 5 5 5 5 5 5 5 5 5 5 5 5 5 5 5 5 5 5 5 5 5 5 5 5 5 5 5 5 5 5 5 5 5 5 5 5 5 5 5 5 5 5 5 5 5 5 5 5 5 5 5 5 5 5 5 5 5 5 5 5 5 5 5 5 5 5 5 5 5 5 5 5 5 5 5 5 5 5 5 5 5 5 5 5 5 5 5 5 5 5 5 5 5 5 5 5 5 5 5 5 5 5 5 5 5 5 5 5 5 5 5 5 5 5 5 5 5 5 5 5 5 5 5 5 5 5 5 5 5 5 5 5 5 5 5 5 5 5 5 5 5 5 5 5 5 5 5 5 5 5 5 5 5 5 5 5 5 5 5 5 5 5 5 5 5 5 5 5 5 5 5 5 5 5 5 5 5 5 5 5 5 5 5 5 5 5 5 5 5 5 5 5 5 5 5 5 5 5 5 5 5 5 5 5 5 5 5 5 5 5 5 5 5 5 5 5 5 5 5 5 5 5 5 5 5 5 5 5 5 5 5 5 5 5 5 5 5 5 5 5 5 5 5 5 5 5 5 5 5 5 5 5 5 5 5 5 5 5 5 5 5 5 5 5 5 5 5 5 5 5 5 5 5 5 5 5 5 5 5 5 5 5 5 5 5 5 5 5 5 5 5 5 5 5 5 5 5 5 5 5 5 5 5 5 5 5 5 5 5 5 5 5 5 5 5 5 5 5 5 5 5 5 5 5 5 5 5 5 5 5 5 5 5 5 5 5 5 5 5 5 5 5 5 5 5 5 5 5 5 5 5 5 5 5 5 5 5 5 5 5 5 5 5 5 5 5 5 5 5 5 5 5 5 5 5 5 5 5 5 5 5 5 5 5 5 5 5 5 5 5 5 5 5 5 5 5 5 5 5 5 5 5 5 5 5 5 5 5 5 5 5 5 5 5 5 5 5 5 5 5 5 5 5 5 5 5 5 5 5 5 5 5 5 5 5 5 5 5 5 5 5 5 5 5 5 5 5 5 5 5 5 5 5 5 5 5 5 5 5 5 5 5 5 5 5 5 5 5 5 5 5 5 5 5 5 5 5 5 5 5 5 5 5 5 5 5 5 5 5 5 5 5 5 5 5 5 5 5 5 5 5 5 5 5 5 5 5 5 5 5 5 5 5 5 5 5 5 5 5 5 5 5 5 5 5 5 5 5 5 5 5 5 5 5 5 5 5 5 5 5 5 5 5 5 5 5 5 5 5 5 5 5 5 5 5 5 5 5 5 5 5 5 5 5 5 5 5 5 5 5 5 5 5 5 5 5 5 5 5 5 5 5 5 5 5 5 5 5 5 5 5 5 5 5 5 5 5 5 5 5 5 5 5 5 5 5 5 5 5 5 5 5 5 5 5 5 5 5 5 5 5 5 5 5 5 5 5 5 5 5 5 5 5 5 5 5 5 5 5 5 5 5 5 5 5 5 5 5 5 5 5 5 5 5 5 5 5 5 5 5 5 5 5 5 5 5 5 5 5 5 5 5 5 5 5 5 5 5 5 5 5 5 5 5 5 5 5 5 5 5 5 5 5 5 5 5 5 5 5 5 5 5 5 5 5 5 5 5 5 5 5 5 5 5 5 5 5 5 5 5 5 5 5 5 5 5 5 5 5 5 5 5 5 5 5 5 5 5 5 5 5 5 5 5 5 5 5 5 5 5 5 5 5 5 5 5 5 5 5 5 5 5 5 5 5 5 5 5 5 5 5 5 5 5 5 5 5 5 5 5 5 5 5 5 5 5 5 5 5 5 5 5 5 5 5 5 5 5 5 5 5 5 5 5 5 5 5 5 5 5 5 5 5 5 5 5 5 5 5 5 5 5 5 5 5 5 5 5 5 5 5 5 5 5 5 5 5 5 5 5 5 5 5 5 5 5 5 5 5 5 5 5 5 5 5 5 5 5 5 5 5 5 5 5 5 5 5 5 5 5 5 5 5 5 5 5 5 5 5 5 5 5 5 5 5 5 5 5 5 5 5 5 5 5 5 5 5 5 5 5 5 5 5 5 5 5 5 5 5 5 5 5 5 5 5 5 5 5 5 5 5 5 5 5 5 5 5 5 5 5 5 5 5 5 5 5 5 5 5 5 5 5 5 5 5 5 5 5 5 5 5 5 5 5 5 5 5 5 5 5 5 5 5 5 5 5 5 5 5 5 5 5 5 5 5 5 5 5 5 5 5 5 5 5 5 5 5 5 5 5 5 5 5 5 5 5 5 5 5 5 5 5 5 5 5 5 5 5 5 5 5 5 5 5 5 5 5 5 5 5 5 5 5 5 5 5 5 5 5 5 5 5 5 5 5 5 5 5 5 5 5 5 5 5 5 5 5 5 5 5 5 5 5 5 5 5 5 5 5 5 5 5 5 5 5 5 5 5 5 5 5 5 5 5 5 5 5 5 5 5 5 5 5 5 5 5 5 5 5 5 5 5 5 5 5 5 5 5 5 5 5 5 5 5 5 5 5 5 5 5 5 5 5 5 5 5 5 5 5 5 5 5 5 5 5 5 5 5 5 5 5 5 5 5 5 5 5 5 5 5 5 5 5 5 5 5 5 5 5 5 5 5 5 5 5 5 5 5 5 5 5 5 5 5 5 5 5 5 5 5 5 5 5 5 5 5 5 5 5 5 5 5 5 5 5 5 5 5 5 5 5 5 5 5 5 5 5 5 5 5 5 5 5 5 5 5 5 5 5 5 5 5 5 5 5 5 5 5 5 5 5 5 5 5 5 5 5 5 5 5 5 5 5 5 5 5 5 5 5 5 5 5 5 5 5 5 5 5 5 5 5 5 5 5 5 5 5 5 5 5 5 5 5 5 5 5 5 5 5 5 5 5 5 5 5 5 5 5 5 5 5 5 5 5 5 5 5 5 5 5 5 5 5 5 5 5 5 5 5 5 5 5 5 5 5 5 5 5 5 5 5 5 5 5 5 5 5 5 5 5 5 5 5 5 5 5 5 5 5 5 5 5 5 5 5 5 5 5 5 5 5 5 5 5 5 5 5 5 5 5 5 5 5 5 5 5 5 5 5 5 5 5 5 5 5 5 5 5 5 5 5 5 5 5 5 5 5 5 5 5 5 5 5 5 5 5 5 5 5 5 5 5 5 5 5 5 5 5 5 5 5 5 5 5 5 5 5 5 5 5 5 5 5 5 5 5 5 5 5 5 5 5 5 5 5 5 5 5 5 5 5 5 5 5 5 5 5 5 5 5 5 5 5 5 5 5 5 5 5 5 5 5 5 5 5 5 5 5 5 5 5 5 5 5 5 5 5 5 5 5 5 5 5 5 5 5 5 5 5 5 5 5 5 5 5 5 5 5 5 5 5 5 5 5 5 5 5 5 5 5 5 5 5 5 5 5 5 5 5 5 5 5 5 5 5 5 5 5 5 5 5 5 5 5 5 5 5 5 5 5 5 5 5 5 5 5 5 5 5 5 5 5 5 5 5 5 5 5 5 5 5 5 5 5 5 5 5 5 5 5 5 5 5 5 5 5 5 5 5 5 5 5 5 5 5 5 5 5 5 5 5 5 5 5 5 5 5 5 5 5 5 5 5 5 5 5 5 5 5 5 5 5 5 5 5 5 5 5 5 5 5 5 5 5 5 5 5 5 5 5 5 5 5 5 5 5 5 5 5 5 5 5 5 5 5 5 5 5 5 5 5 5 5 5 5 5 5 5 5 5 5 5 5 5 5 5 5 5 5 5 5 5 5 5 5 5 5 5 5 5 5 5 5 5 5 5 5 5 5 5 5 5 5 5 5 5 5 5 5 5 5 5 5 5 5 5 5 5 5 5 5 5 5 5 5 5 5 5 5 5 5 5 5 5 5 5 5 5 5 5 5 5 5 5 5 5 5 5 5 5 5 5 5 5 5 5 5 5 5 5 5 5 5 5 5 5 5 5 5 5 5 5 5 5 5 5 5 5 5 5 5 5 5 5 5 5 5 5 5 5 5 5 5 5 5 5 5 5 5 5 5 5 5 5 5 5 5 5 5 5 5 5 5 5 5 5 5 5 5 5 5 5 5 5 5 5 5 5 5 5 5 5 5 5 5 5 5 5 5 5 5 5 5 5 5 5 5 5 5 5 5 5 5 5 5 5 5 5 5 5 5 5 5 5 5 5 5 5 5 5 5 5 5 5 5 5 5 5 5 5 5 5 5 5 5 5 5 5 5 5 5 5 5 5 5 5 5 5 5 5 5 5 5 5 5 5 5 5 5 5 5 5 5 5 5 5 5 5 5 5 5 5 5 5 5 5 5 5 5 5 5 5 5 5 5 5 5 5 5 5 5 5 5 5 5 5 5 5 5 5 5 5 5 5 5 5 5 5 5 5 5 5 5 5 5 5 5 5 5 5 5 5 5 5 5 5 5 5 5 5 5 5 5 5 5 5 5 5 5 5 5 5 5 5 </DataArray>
         </Cells>
         <PointData>
            <DataArray Name="displacement" NumberOfComponents="3" format="ascii" type="Float64">
-3.94368e-17  7.88737e-17        00000 
-9.28450e-18 -6.80919e-17        00000 
-2.62409e-17  2.23591e-17        00000 
-1.49821e-17 -2.49702e-17        00000 
-1.13348e-17 -3.57125e-18        00000 
-4.06840e-17 -1.87953e-17        00000 
-2.98389e-17  2.18563e-18        00000 
-8.08537e-18  5.44479e-18        00000 
 3.06188e-18  1.57594e-17        00000 
-3.56327e-17 -5.65597e-17        00000 
       00000  1.24217e-17        00000 
 1.74791e-17  4.99403e-18        00000 
-2.83046e-17 -3.43304e-18        00000 
 1.75423e-17  1.75423e-17        00000 
-2.59991e-17 -3.93758e-18        00000 
-1.06643e-18 -6.72752e-18        00000 
-1.23456e-17 -1.38272e-18        00000 
-2.75664e-17  3.75906e-18        00000 
 1.49061e-17  1.24217e-18        00000 
 2.49702e-18 -4.99403e-18        00000 
-1.03474e-17 -6.35567e-19        00000 
 7.51812e-18        00000        00000 
-5.78637e-18 -2.43640e-18        00000 
-8.13033e-18  2.87034e-18        00000 
 5.80738e-19  2.27932e-18        00000 
-2.34128e-18 -4.40341e-18        00000 
-1.61483e-17 -1.24217e-18        00000 
 1.49821e-17  6.24254e-19        00000 
-1.97604e-17 -1.32679e-18        00000 
-2.50604e-18 -5.63859e-18        00000 
-9.77967e-18  3.42068e-19        00000 
 1.29446e-17 -5.66330e-18        00000 
-5.89331e-18  2.57833e-18        00000 
-8.77114e-18 -5.01208e-18        00000 
       00000 -6.21087e-19        00000 
 1.87276e-18  1.56064e-18        00000 
 1.77741e-18 -2.73411e-18        00000 
-5.01208e-18  1.87953e-18        00000 
-4.47430e-18 -1.73509e-18        00000 
 1.81797e-18  2.10049e-18        00000 
-3.23529e-18 -4.49764e-18        00000 
 1.87953e-18        00000        00000 
-6.21087e-19  3.10544e-19        00000 
 9.36381e-19  6.24254e-19        00000 
 4.43890e-19 -1.00776e-18        00000 
 6.26510e-19  1.87953e-18        00000 
-2.15353e-18 -1.32201e-18        00000 
 8.20837e-19  2.41036e-18        00000 
-4.04276e-22 -1.72489e-18        00000 
 5.27676e-20  3.06970e-18        00000 
       00000 -3.41583e-18        00000 
-1.17053e-19  1.24856e-18        00000 
 4.12671e-19 -1.84197e-18        00000 
-3.13268e-19  1.25307e-18        00000 
-6.86987e-19 -3.62434e-18        00000 
-3.51598e-19  1.55174e-18        00000 
 2.81989e-18 -2.28454e-18        00000 
-3.21851e-18  1.52773e-18        00000 
 9.31591e-18 -9.31591e-19        00000 
-6.86709e-18  1.71677e-18        00000 
 4.36224e-20 -6.08426e-19        00000 
 1.25307e-18 -2.50615e-18        00000 
 2.52772e-18 -1.67447e-18        00000 
-7.65986e-18  6.64574e-19        00000 
 8.62088e-18  5.73595e-19        00000 
-1.62899e-17  6.26536e-19        00000 
 1.73897e-17 -1.24212e-18        00000 
-1.49827e-17        00000        00000 
 4.88164e-19  1.10505e-18        00000 
 1.25307e-18  6.26536e-19        00000 
-7.28618e-18 -1.89597e-18        00000 
 8.22147e-19 -3.10125e-18        00000 
 1.17414e-17 -2.26274e-18        00000 
-2.25553e-17  2.50615e-18        00000 
 1.98739e-17  1.24212e-18        00000 
-1.62313e-17  1.87284e-18        00000 
 1.40245e-17  6.86231e-19        00000 
-7.51844e-18  5.01229e-18        00000 
 1.05447e-17 -4.14240e-18        00000 
 3.45200e-18 -2.22991e-18        00000 
-2.46550e-19 -3.56710e-18        00000 
 1.62082e-17  6.82171e-18        00000 
 9.93697e-18 -1.11791e-17        00000 
 6.24281e-18  9.36421e-18        00000 
 2.40229e-17 -2.13898e-18        00000 
-5.01229e-18 -1.00246e-17        00000 
-9.98673e-18  7.06436e-18        00000 
 1.60391e-17  2.71777e-18        00000 
-1.23246e-17 -5.16260e-18        00000 
-1.52225e-17  3.67836e-18        00000 
 2.60101e-17  3.70971e-18        00000 
 2.03815e-17  1.84769e-17        00000 
 3.51279e-18  8.61730e-18        00000 
-5.01229e-18  5.01229e-18        00000 
 6.30800e-18 -2.97707e-18        00000 
-2.83348e-17 -1.44113e-17        00000 
 6.99223e-18  1.84190e-17        00000 
 9.39872e-19 -3.32088e-17        00000 
 1.25278e-17 -7.76722e-17        00000 
 1.31456e-17  3.94368e-17        00000 
-3.99662e-01 -3.72120e-01        00000 
-2.89040e-01 -2.92734e-01        00000 
-2.43624e-01 -2.41748e-01        00000 
-2.17193e-01 -2.06840e-01        00000 
-1.99359e-01 -1.81228e-01        00000 
-1.86106e-01 -1.61398e-01        00000 
-1.75574e-01 -1.45417e-01        00000 
-1.66778e-01 -1.32131e-01        00000 
-1.59161e-01 -1.20830e-01        00000 
-1.52377e-01 -1.11039e-01        00000 
-1.46209e-01 -1.02441e-01        00000 
-1.40508e-01 -9.48036e-02        00000 
-1.35173e-01 -8.79622e-02        00000 
-1.30130e-01 -8.17873e-02        00000 
-1.25326e-01 -7.61832e-02        00000 
-1.20719e-01 -7.10704e-02        00000 
-1.16279e-01 -6.63886e-02        00000 
-1.11980e-01 -6.20852e-02        00000 
-1.07804e-01 -5.81199e-02        00000 
-1.03733e-01 -5.44559e-02        00000 
-9.97559e-02 -5.10649e-02        00000 
-9.58607e-02 -4.79201e-02        00000 
-9.20397e-02 -4.50010e-02        00000 
-8.82835e-02 -4.22874e-02        00000 
-8.45872e-02 -3.97639e-02        00000 
-8.09434e-02 -3.74149e-02        00000 
-7.73487e-02 -3.52286e-02        00000 
-7.37973e-02 -3.31930e-02        00000 
-7.02866e-02 -3.12986e-02        00000 
-6.68118e-02 -2.95359e-02        00000 
-6.33712e-02 -2.78976e-02        00000 
-5.99606e-02 -2.63758e-02        00000 
-5.65787e-02 -2.49647e-02        00000 
-5.32219e-02 -2.36581e-02        00000 
-4.98893e-02 -2.24513e-02        00000 
-4.65776e-02 -2.13391e-02        00000 
-4.32861e-02 -2.03178e-02        00000 
-4.00119e-02 -1.93832e-02        00000 
-3.67546e-02 -1.85324e-02        00000 
-3.35113e-02 -1.77621e-02        00000 
-3.02818e-02 -1.70698e-02        00000 
-2.70634e-02 -1.64529e-02        00000 
-2.38560e-02 -1.59097e-02        00000 
-2.06569e-02 -1.54381e-02        00000 
-1.74663e-02 -1.50367e-02        00000 
-1.42816e-02 -1.47041e-02        00000 
-1.11027e-02 -1.44393e-02        00000 
-7.92734e-03 -1.42414e-02        00000 
-4.75550e-03 -1.41099e-02        00000 
-1.58476e-03 -1.40442e-02        00000 
 1.58476e-03 -1.40442e-02        00000 
 4.75550e-03 -1.41099e-02        00000 
 7.92734e-03 -1.42414e-02        00000 
 1.11027e-02 -1.44393e-02        00000 
 1.42816e-02 -1.47041e-02        00000 
 1.74663e-02 -1.50367e-02        00000 
 2.06569e-02 -1.54381e-02        00000 
 2.38560e-02 -1.59097e-02        00000 
 2.70634e-02 -1.64529e-02        00000 
 3.02818e-02 -1.70698e-02        00000 
 3.35113e-02 -1.77621e-02        00000 
 3.67546e-02 -1.85324e-02        00000 
 4.00119e-02 -1.93832e-02        00000 
 4.32861e-02 -2.03178e-02        00000 
 4.65776e-02 -2.13391e-02        00000 
 4.98893e-02 -2.24513e-02        00000 
 5.32219e-02 -2.36581e-02        00000 
 5.65787e-02 -2.49647e-02        00000 
 5.99606e-02 -2.63758e-02        00000 
 6.33712e-02 -2.78976e-02        00000 
 6.68118e-02 -2.95359e-02        00000 
 7.02866e-02 -3.12986e-02        00000 
 7.37973e-02 -3.31930e-02        00000 
 7.73487e-02 -3.52286e-02        00000 
 8.09434e-02 -3.74149e-02        00000 
 8.45872e-02 -3.97639e-02        00000 
 8.82835e-02 -4.22874e-02        00000 
 9.20397e-02 -4.50010e-02        00000 
 9.58607e-02 -4.79201e-02        00000 
 9.97559e-02 -5.10649e-02        00000 
 1.03733e-01 -5.44559e-02        00000 
 1.07804e-01 -5.81199e-02        00000 
 1.11980e-01 -6.20852e-02        00000 
 1.16279e-01 -6.63886e-02        00000 
 1.20719e-01 -7.10704e-02        00000 
 1.25326e-01 -7.61832e-02        00000 
 1.30130e-01 -8.17873e-02        00000 
 1.35173e-01 -8.79622e-02        00000 
 1.40508e-01 -9.48036e-02        00000 
 1.46209e-01 -1.02441e-01        00000 
 1.52377e-01 -1.11039e-01        00000 
 1.59161e-01 -1.20830e-01        00000 
 1.66778e-01 -1.32131e-01        00000 
 1.75574e-01 -1.45417e-01        00000 
 1.86106e-01 -1.61398e-01        00000 
 1.99359e-01 -1.81228e-01        00000 
 2.17193e-01 -2.06840e-01        00000 
 2.43624e-01 -2.41748e-01        00000 
 2.89040e-01 -2.92734e-01        00000 
 3.99662e-01 -3.72120e-01        00000 
-6.76831e-01 -5.88582e-01        00000 
-5.85012e-01 -5.31307e-01        00000 
-5.11686e-01 -4.72046e-01        00000 
-4.60316e-01 -4.20740e-01        00000 
-4.22513e-01 -3.77792e-01        00000 
-3.93253e-01 -3.41818e-01        00000 
-3.69605e-01 -3.11404e-01        00000 
-3.49778e-01 -2.85364e-01        00000 
-3.32657e-01 -2.62810e-01        00000 
-3.17503e-01 -2.43051e-01        00000 
-3.03831e-01 -2.25578e-01        00000 
-2.91294e-01 -2.09991e-01        00000 
-2.79653e-01 -1.95992e-01        00000 
-2.68726e-01 -1.83335e-01        00000 
-2.58385e-01 -1.71838e-01        00000 
-2.48527e-01 -1.61341e-01        00000 
-2.39077e-01 -1.51727e-01        00000 
-2.29970e-01 -1.42887e-01        00000 
-2.21162e-01 -1.34741e-01        00000 
-2.12608e-01 -1.27214e-01        00000 
-2.04282e-01 -1.20247e-01        00000 
-1.96151e-01 -1.13786e-01        00000 
-1.88198e-01 -1.07788e-01        00000 
-1.80399e-01 -1.02212e-01        00000 
-1.72742e-01 -9.70262e-02        00000 
-1.65209e-01 -9.21989e-02        00000 
-1.57792e-01 -8.77057e-02        00000 
-1.50476e-01 -8.35216e-02        00000 
-1.43256e-01 -7.96277e-02        00000 
-1.36120e-01 -7.60040e-02        00000 
-1.29063e-01 -7.26356e-02        00000 
-1.22075e-01 -6.95065e-02        00000 
-1.15154e-01 -6.66048e-02        00000 
-1.08291e-01 -6.39176e-02        00000 
-1.01483e-01 -6.14352e-02        00000 
-9.47238e-02 -5.91473e-02        00000 
-8.80107e-02 -5.70462e-02        00000 
-8.13371e-02 -5.51233e-02        00000 
-7.47019e-02 -5.33726e-02        00000 
-6.80989e-02 -5.17872e-02        00000 
-6.15271e-02 -5.03624e-02        00000 
-5.49806e-02 -4.90928e-02        00000 
-4.84590e-02 -4.79746e-02        00000 
-4.19566e-02 -4.70037e-02        00000 
-3.54731e-02 -4.61773e-02        00000 
-2.90030e-02 -4.54925e-02        00000 
-2.25462e-02 -4.49474e-02        00000 
-1.60973e-02 -4.45399e-02        00000 
-9.65626e-03 -4.42691e-02        00000 
-3.21789e-03 -4.41338e-02        00000 
 3.21789e-03 -4.41338e-02        00000 
 9.65626e-03 -4.42691e-02        00000 
 1.60973e-02 -4.45399e-02        00000 
 2.25462e-02 -4.49474e-02        00000 
 2.90030e-02 -4.54925e-02        00000 
 3.54731e-02 -4.61773e-02        00000 
 4.19566e-02 -4.70037e-02        00000 
 4.84590e-02 -4.79746e-02        00000 
 5.49806e-02 -4.90928e-02        00000 
 6.15271e-02 -5.03624e-02        00000 
 6.80989e-02 -5.17872e-02        00000 
 7.47019e-02 -5.33726e-02        00000 
 8.13371e-02 -5.51233e-02        00000 
 8.80107e-02 -5.70462e-02        00000 
 9.47238e-02 -5.91473e-02        00000 
 1.01483e-01 -6.14352e-02        00000 
 1.08291e-01 -6.39176e-02        00000 
 1.15154e-01 -6.66048e-02        00000 
 1.22075e-01 -6.95065e-02        00000 
 1.29063e-01 -7.26356e-02        00000 
 1.36120e-01 -7.60040e-02        00000 
 1.43256e-01 -7.96277e-02        00000 
 1.50476e-01 -8.35216e-02        00000 
 1.57792e-01 -8.77057e-02        00000 
 1.65209e-01 -9.21989e-02        00000 
 1.72742e-01 -9.70262e-02        00000 
 1.80399e-01 -1.02212e-01        00000 
 1.88198e-01 -1.07788e-01        00000 
 1.96151e-01 -1.13786e-01        00000 
 2.04282e-01 -1.20247e-01        00000 
 2.12608e-01 -1.27214e-01        00000 
 2.21162e-01 -1.34741e-01        00000 
 2.29970e-01 -1.42887e-01        00000 
 2.39077e-01 -1.51727e-01        00000 
 2.48527e-01 -1.61341e-01        00000 
 2.58385e-01 -1.71838e-01        00000 
 2.68726e-01 -1.83335e-01        00000 
 2.79653e-01 -1.95992e-01        00000 
 2.91294e-01 -2.09991e-01        00000 
 3.03831e-01 -2.25578e-01        00000 
 3.17503e-01 -2.43051e-01        00000 
 3.32657e-01 -2.62810e-01        00000 
 3.49778e-01 -2.85364e-01        00000 
 3.69605e-01 -3.11404e-01        00000 
 3.93253e-01 -3.41818e-01        00000 
 4.22513e-01 -3.77792e-01        00000 
 4.60316e-01 -4.20740e-01        00000 
 5.11686e-01 -4.72046e-01        00000 
 5.85012e-01 -5.31307e-01        00000 
 6.76831e-01 -5.88582e-01        00000 
-9.23380e-01 -7.74155e-01        00000 
-8.40655e-01 -7.19313e-01        00000 
-7.67881e-01 -6.64956e-01        00000 
-7.05815e-01 -6.12325e-01        00000 
-6.54546e-01 -5.63756e-01        00000 
-6.11930e-01 -5.19963e-01        00000 
-5.75937e-01 -4.80864e-01        00000 
-5.44947e-01 -4.46015e-01        00000 
-5.17776e-01 -4.14918e-01        00000 
-4.93539e-01 -3.87064e-01        00000 
-4.71602e-01 -3.62021e-01        00000 
-4.51480e-01 -3.39399e-01        00000 
-4.32825e-01 -3.18885e-01        00000 
-4.15359e-01 -3.00201e-01        00000 
-3.98880e-01 -2.83130e-01        00000 
-3.83220e-01 -2.67474e-01        00000 
-3.68258e-01 -2.53080e-01        00000 
-3.53885e-01 -2.39807e-01        00000 
-3.40025e-01 -2.27545e-01        00000 
-3.26605e-01 -2.16191e-01        00000 
-3.13576e-01 -2.05664e-01        00000 
-3.00884e-01 -1.95887e-01        00000 
-2.88498e-01 -1.86799e-01        00000 
-2.76378e-01 -1.78341e-01        00000 
-2.64502e-01 -1.70467e-01        00000 
-2.52839e-01 -1.63131e-01        00000 
-2.41375e-01 -1.56297e-01        00000 
-2.30084e-01 -1.49929e-01        00000 
-2.18956e-01 -1.43999e-01        00000 
-2.07971e-01 -1.38476e-01        00000 
-1.97121e-01 -1.33341e-01        00000 
-1.86390e-01 -1.28567e-01        00000 
-1.75771e-01 -1.24139e-01        00000 
-1.65250e-01 -1.20036e-01        00000 
-1.54823e-01 -1.16244e-01        00000 
-1.44478e-01 -1.12748e-01        00000 
-1.34211e-01 -1.09537e-01        00000 
-1.24010e-01 -1.06597e-01        00000 
-1.13874e-01 -1.03919e-01        00000 
-1.03792e-01 -1.01494e-01        00000 
-9.37628e-02 -9.93142e-02        00000 
-8.37761e-02 -9.73711e-02        00000 
-7.38307e-02 -9.56595e-02        00000 
-6.39178e-02 -9.41732e-02        00000 
-5.40362e-02 -9.29080e-02        00000 
-4.41774e-02 -9.18594e-02        00000 
-3.43405e-02 -9.10245e-02        00000 
-2.45171e-02 -9.04005e-02        00000 
-1.47066e-02 -8.99856e-02        00000 
-4.90084e-03 -8.97785e-02        00000 
 4.90084e-03 -8.97785e-02        00000 
 1.47066e-02 -8.99856e-02        00000 
 2.45171e-02 -9.04005e-02        00000 
 3.43405e-02 -9.10245e-02        00000 
 4.41774e-02 -9.18594e-02        00000 
 5.40362e-02 -9.29080e-02        00000 
 6.39178e-02 -9.41732e-02        00000 
 7.38307e-02 -9.56595e-02        00000 
 8.37761e-02 -9.73711e-02        00000 
 9.37628e-02 -9.93142e-02        00000 
 1.03792e-01 -1.01494e-01        00000 
 1.13874e-01 -1.03919e-01        00000 
 1.24010e-01 -1.06597e-01        00000 
 1.34211e-01 -1.09537e-01        00000 
 1.44478e-01 -1.12748e-01        00000 
 1.54823e-01 -1.16244e-01        00000 
 1.65250e-01 -1.20036e-01        00000 
 1.75771e-01 -1.24139e-01        00000 
 1.86390e-01 -1.28567e-01        00000 
 1.97121e-01 -1.33341e-01        00000 
 2.07971e-01 -1.38476e-01        00000 
 2.18956e-01 -1.43999e-01        00000 
 2.30084e-01 -1.49929e-01        00000 
 2.41375e-01 -1.56297e-01        00000 
 2.52839e-01 -1.63131e-01        00000 
 2.64502e-01 -1.70467e-01        00000 
 2.76378e-01 -1.78341e-01        00000 
 2.88498e-01 -1.86799e-01        00000 
 3.00884e-01 -1.95887e-01        00000 
 3.13576e-01 -2.05664e-01        00000 
 3.26605e-01 -2.16191e-01        00000 
 3.40025e-01 -2.27545e-01        00000 
 3.53885e-01 -2.39807e-01        00000 
 3.68258e-01 -2.53080e-01        00000 
 3.83220e-01 -2.67474e-01        00000 
 3.98880e-01 -2.83130e-01        00000 
 4.15359e-01 -3.00201e-01        00000 
 4.32825e-01 -3.18885e-01        00000 
 4.51480e-01 -3.39399e-01        00000 
 4.71602e-01 -3.62021e-01        00000 
 4.93539e-01 -3.87064e-01        00000 
 5.17776e-01 -4.14918e-01        00000 
 5.44947e-01 -4.46015e-01        00000 
 5.75937e-01 -4.80864e-01        00000 
 6.11930e-01 -5.19963e-01        00000 
 6.54546e-01 -5.63756e-01        00000 
 7.05815e-01 -6.12325e-01        00000 
 7.67881e-01 -6.64956e-01        00000 
 8.40655e-01 -7.19313e-01        00000 
 9.23380e-01 -7.74155e-01        00000 
-1.15760e+00 -9.40328e-01        00000 
-1.07946e+00 -8.88277e-01        00000 
-1.00727e+00 -8.36086e-01        00000 
-9.41963e-01 -7.84962e-01        00000 
-8.83722e-01 -7.35823e-01        00000 
-8.32235e-01 -6.89487e-01        00000 
-7.86712e-01 -6.46408e-01        00000 
-7.46198e-01 -6.06671e-01        00000 
-7.09843e-01 -5.70191e-01        00000 
-6.76893e-01 -5.36749e-01        00000 
-6.46753e-01 -5.06110e-01        00000 
-6.18922e-01 -4.78003e-01        00000 
-5.93016e-01 -4.52194e-01        00000 
-5.68713e-01 -4.28445e-01        00000 
-5.45767e-01 -4.06560e-01        00000 
-5.23967e-01 -3.86349e-01        00000 
-5.03155e-01 -3.67657e-01        00000 
-4.83186e-01 -3.50336e-01        00000 
-4.63957e-01 -3.34267e-01        00000 
-4.45368e-01 -3.19334e-01        00000 
-4.27348e-01 -3.05447e-01        00000 
-4.09824e-01 -2.92513e-01        00000 
-3.92747e-01 -2.80464e-01        00000 
-3.76063e-01 -2.69227e-01        00000 
-3.59737e-01 -2.58748e-01        00000 
-3.43728e-01 -2.48968e-01        00000 
-3.28009e-01 -2.39845e-01        00000 
-3.12549e-01 -2.31332e-01        00000 
-2.97328e-01 -2.23396e-01        00000 
-2.82319e-01 -2.15998e-01        00000 
-2.67509e-01 -2.09111e-01        00000 
-2.52875e-01 -2.02705e-01        00000 
-2.38405e-01 -1.96757e-01        00000 
-2.24082e-01 -1.91242e-01        00000 
-2.09896e-01 -1.86143e-01        00000 
-1.95830e-01 -1.81438e-01        00000 
-1.81879e-01 -1.77114e-01        00000 
-1.68026e-01 -1.73154e-01        00000 
-1.54268e-01 -1.69545e-01        00000 
-1.40590e-01 -1.66275e-01        00000 
-1.26989e-01 -1.63335e-01        00000 
-1.13450e-01 -1.60714e-01        00000 
-9.99719e-02 -1.58404e-01        00000 
-8.65415e-02 -1.56397e-01        00000 
-7.31570e-02 -1.54689e-01        00000 
-5.98059e-02 -1.53273e-01        00000 
-4.64867e-02 -1.52145e-01        00000 
-3.31876e-02 -1.51302e-01        00000 
-1.99072e-02 -1.50742e-01        00000 
-6.63378e-03 -1.50462e-01        00000 
 6.63378e-03 -1.50462e-01        00000 
 1.99072e-02 -1.50742e-01        00000 
 3.31876e-02 -1.51302e-01        00000 
 4.64867e-02 -1.52145e-01        00000 
 5.98059e-02 -1.53273e-01        00000 
 7.31570e-02 -1.54689e-01        00000 
 8.65415e-02 -1.56397e-01        00000 
 9.99719e-02 -1.58404e-01        00000 
 1.13450e-01 -1.60714e-01        00000 
 1.26989e-01 -1.63335e-01        00000 
 1.40590e-01 -1.66275e-01        00000 
 1.54268e-01 -1.69545e-01        00000 
 1.68026e-01 -1.73154e-01        00000 
 1.81879e-01 -1.77114e-01        00000 
 1.95830e-01 -1.81438e-01        00000 
 2.09896e-01 -1.86143e-01        00000 
 2.24082e-01 -1.91242e-01        00000 
 2.38405e-01 -1.96757e-01        00000 
 2.52875e-01 -2.02705e-01        00000 
 2.67509e-01 -2.09111e-01        00000 
 2.82319e-01 -2.15998e-01        00000 
 2.97328e-01 -2.23396e-01        00000 
 3.12549e-01 -2.31332e-01        00000 
 3.28009e-01 -2.39845e-01        00000 
 3.43728e-01 -2.48968e-01        00000 
 3.59737e-01 -2.58748e-01        00000 
 3.76063e-01 -2.69227e-01        00000 
 3.92747e-01 -2.80464e-01        00000 
 4.09824e-01 -2.92513e-01        00000 
 4.27348e-01 -3.05447e-01        00000 
 4.45368e-01 -3.19334e-01        00000 
 4.63957e-01 -3.34267e-01        00000 
 4.83186e-01 -3.50336e-01        00000 
 5.03155e-01 -3.67657e-01        00000 
 5.23967e-01 -3.86349e-01        00000 
 5.45767e-01 -4.06560e-01        00000 
 5.68713e-01 -4.28445e-01        00000 
 5.93016e-01 -4.52194e-01        00000 
 6.18922e-01 -4.78003e-01        00000 
 6.46753e-01 -5.06110e-01        00000 
 6.76893e-01 -5.36749e-01        00000 
 7.09843e-01 -5.70191e-01        00000 
 7.46198e-01 -6.06671e-01        00000 
 7.86712e-01 -6.46408e-01        00000 
 8.32235e-01 -6.89487e-01        00000 
 8.83722e-01 -7.35823e-01        00000 
 9.41963e-01 -7.84962e-01        00000 
 1.00727e+00 -8.36086e-01        00000 
 1.07946e+00 -8.88277e-01        00000 
 1.15760e+00 -9.40328e-01        00000 
-1.38409e+00 -1.09794e+00        00000 
-1.30813e+00 -1.04737e+00        00000 
-1.23614e+00 -9.96913e-01        00000 
-1.16878e+00 -9.47091e-01        00000 
-1.10647e+00 -8.98557e-01        00000 
-1.04919e+00 -8.51818e-01        00000 
-9.96744e-01 -8.07308e-01        00000 
-9.48712e-01 -7.65266e-01        00000 
-9.04615e-01 -7.25818e-01        00000 
-8.63936e-01 -6.88942e-01        00000 
-8.26229e-01 -6.54575e-01        00000 
-7.91064e-01 -6.22582e-01        00000 
-7.58100e-01 -5.92829e-01        00000 
-7.27018e-01 -5.65152e-01        00000 
-6.97574e-01 -5.39408e-01        00000 
-6.69537e-01 -5.15440e-01        00000 
-6.42737e-01 -4.93121e-01        00000 
-6.17008e-01 -4.72314e-01        00000 
-5.92229e-01 -4.52911e-01        00000 
-5.68280e-01 -4.34797e-01        00000 
-5.45074e-01 -4.17885e-01        00000 
-5.22522e-01 -4.02080e-01        00000 
-5.00563e-01 -3.87310e-01        00000 
-4.79126e-01 -3.73498e-01        00000 
-4.58167e-01 -3.60586e-01        00000 
-4.37632e-01 -3.48510e-01        00000 
-4.17488e-01 -3.37223e-01        00000 
-3.97692e-01 -3.26673e-01        00000 
-3.78218e-01 -3.16821e-01        00000 
-3.59030e-01 -3.07625e-01        00000 
-3.40111e-01 -2.99053e-01        00000 
-3.21429e-01 -2.91069e-01        00000 
-3.02971e-01 -2.83649e-01        00000 
-2.84709e-01 -2.76763e-01        00000 
-2.66635e-01 -2.70390e-01        00000 
-2.48723e-01 -2.64505e-01        00000 
-2.30966e-01 -2.59093e-01        00000 
-2.13343e-01 -2.54132e-01        00000 
-1.95848e-01 -2.49610e-01        00000 
-1.78461e-01 -2.45510e-01        00000 
-1.61177e-01 -2.41821e-01        00000 
-1.43979e-01 -2.38531e-01        00000 
-1.26863e-01 -2.35631e-01        00000 
-1.09812e-01 -2.33111e-01        00000 
-9.28222e-02 -2.30965e-01        00000 
-7.58781e-02 -2.29186e-01        00000 
-5.89770e-02 -2.27769e-01        00000 
-4.21032e-02 -2.26709e-01        00000 
-2.52546e-02 -2.26005e-01        00000 
-8.41564e-03 -2.25653e-01        00000 
 8.41564e-03 -2.25653e-01        00000 
 2.52546e-02 -2.26005e-01        00000 
 4.21032e-02 -2.26709e-01        00000 
 5.89770e-02 -2.27769e-01        00000 
 7.58781e-02 -2.29186e-01        00000 
 9.28222e-02 -2.30965e-01        00000 
 1.09812e-01 -2.33111e-01        00000 
 1.26863e-01 -2.35631e-01        00000 
 1.43979e-01 -2.38531e-01        00000 
 1.61177e-01 -2.41821e-01        00000 
 1.78461e-01 -2.45510e-01        00000 
 1.95848e-01 -2.49610e-01        00000 
 2.13343e-01 -2.54132e-01        00000 
 2.30966e-01 -2.59093e-01        00000 
 2.48723e-01 -2.64505e-01        00000 
 2.66635e-01 -2.70390e-01        00000 
 2.84709e-01 -2.76763e-01        00000 
 3.02971e-01 -2.83649e-01        00000 
 3.21429e-01 -2.91069e-01        00000 
 3.40111e-01 -2.99053e-01        00000 
 3.59030e-01 -3.07625e-01        00000 
 3.78218e-01 -3.16821e-01        00000 
 3.97692e-01 -3.26673e-01        00000 
 4.17488e-01 -3.37223e-01        00000 
 4.37632e-01 -3.48510e-01        00000 
 4.58167e-01 -3.60586e-01        00000 
 4.79126e-01 -3.73498e-01        00000 
 5.00563e-01 -3.87310e-01        00000 
 5.22522e-01 -4.02080e-01        00000 
 5.45074e-01 -4.17885e-01        00000 
 5.68280e-01 -4.34797e-01        00000 
 5.92229e-01 -4.52911e-01        00000 
 6.17008e-01 -4.72314e-01        00000 
 6.42737e-01 -4.93121e-01        00000 
 6.69537e-01 -5.15440e-01        00000 
 6.97574e-01 -5.39408e-01        00000 
 7.27018e-01 -5.65152e-01        00000 
 7.58100e-01 -5.92829e-01        00000 
 7.91064e-01 -6.22582e-01        00000 
 8.26229e-01 -6.54575e-01        00000 
 8.63936e-01 -6.88942e-01        00000 
 9.04615e-01 -7.25818e-01        00000 
 9.48712e-01 -7.65266e-01        00000 
 9.96744e-01 -8.07308e-01        00000 
 1.04919e+00 -8.51818e-01        00000 
 1.10647e+00 -8.98557e-01        00000 
 1.16878e+00 -9.47091e-01        00000 
 1.23614e+00 -9.96913e-01        00000 
 1.30813e+00 -1.04737e+00        00000 
 1.38409e+00 -1.09794e+00        00000 
-1.60558e+00 -1.25174e+00        00000 
-1.53017e+00 -1.20227e+00        00000 
-1.45763e+00 -1.15303e+00        00000 
-1.38845e+00 -1.10434e+00        00000 
-1.32301e+00 -1.05661e+00        00000 
-1.26144e+00 -1.01018e+00        00000 
-1.20374e+00 -9.65379e-01        00000 
-1.14976e+00 -9.22437e-01        00000 
-1.09925e+00 -8.81531e-01        00000 
-1.05193e+00 -8.42733e-01        00000 
-1.00749e+00 -8.06079e-01        00000 
-9.65619e-01 -7.71528e-01        00000 
-9.26043e-01 -7.39032e-01        00000 
-8.88488e-01 -7.08497e-01        00000 
-8.52737e-01 -6.79838e-01        00000 
-8.18571e-01 -6.52943e-01        00000 
-7.85823e-01 -6.27720e-01        00000 
-7.54324e-01 -6.04058e-01        00000 
-7.23948e-01 -5.81869e-01        00000 
-6.94564e-01 -5.61053e-01        00000 
-6.66079e-01 -5.41531e-01        00000 
-6.38391e-01 -5.23215e-01        00000 
-6.11431e-01 -5.06038e-01        00000 
-5.85116e-01 -4.89925e-01        00000 
-5.59397e-01 -4.74818e-01        00000 
-5.34206e-01 -4.60654e-01        00000 
-5.09506e-01 -4.47384e-01        00000 
-4.85243e-01 -4.34956e-01        00000 
-4.61388e-01 -4.23327e-01        00000 
-4.37894e-01 -4.12455e-01        00000 
-4.14741e-01 -4.02304e-01        00000 
-3.91890e-01 -3.92837e-01        00000 
-3.69322e-01 -3.84027e-01        00000 
-3.47006e-01 -3.75841e-01        00000 
-3.24927e-01 -3.68256e-01        00000 
-3.03057e-01 -3.61247e-01        00000 
-2.81384e-01 -3.54794e-01        00000 
-2.59883e-01 -3.48875e-01        00000 
-2.38545e-01 -3.43476e-01        00000 
-2.17345e-01 -3.38577e-01        00000 
-1.96278e-01 -3.34167e-01        00000 
-1.75320e-01 -3.30232e-01        00000 
-1.54467e-01 -3.26761e-01        00000 
-1.33697e-01 -3.23745e-01        00000 
-1.13005e-01 -3.21175e-01        00000 
-9.23728e-02 -3.19044e-01        00000 
-7.17951e-02 -3.17346e-01        00000 
-5.12526e-02 -3.16076e-01        00000 
-3.07421e-02 -3.15232e-01        00000 
-1.02441e-02 -3.14810e-01        00000 
 1.02441e-02 -3.14810e-01        00000 
 3.07421e-02 -3.15232e-01        00000 
 5.12526e-02 -3.16076e-01        00000 
 7.17951e-02 -3.17346e-01        00000 
 9.23728e-02 -3.19044e-01        00000 
 1.13005e-01 -3.21175e-01        00000 
 1.33697e-01 -3.23745e-01        00000 
 1.54467e-01 -3.26761e-01        00000 
 1.75320e-01 -3.30232e-01        00000 
 1.96278e-01 -3.34167e-01        00000 
 2.17345e-01 -3.38577e-01        00000 
 2.38545e-01 -3.43476e-01        00000 
 2.59883e-01 -3.48875e-01        00000 
 2.81384e-01 -3.54794e-01        00000 
 3.03057e-01 -3.61247e-01        00000 
 3.24927e-01 -3.68256e-01        00000 
 3.47006e-01 -3.75841e-01        00000 
 3.69322e-01 -3.84027e-01        00000 
 3.91890e-01 -3.92837e-01        00000 
 4.14741e-01 -4.02304e-01        00000 
 4.37894e-01 -4.12455e-01        00000 
 4.61388e-01 -4.23327e-01        00000 
 4.85243e-01 -4.34956e-01        00000 
 5.09506e-01 -4.47384e-01        00000 
 5.34206e-01 -4.60654e-01        00000 
 5.59397e-01 -4.74818e-01        00000 
 5.85116e-01 -4.89925e-01        00000 
 6.11431e-01 -5.06038e-01        00000 
 6.38391e-01 -5.23215e-01        00000 
 6.66079e-01 -5.41531e-01        00000 
 6.94564e-01 -5.61053e-01        00000 
 7.23948e-01 -5.81869e-01        00000 
 7.54324e-01 -6.04058e-01        00000 
 7.85823e-01 -6.27720e-01        00000 
 8.18571e-01 -6.52943e-01        00000 
 8.52737e-01 -6.79838e-01        00000 
 8.88488e-01 -7.08497e-01        00000 
 9.26043e-01 -7.39032e-01        00000 
 9.65619e-01 -7.71528e-01        00000 
 1.00749e+00 -8.06079e-01        00000 
 1.05193e+00 -8.42733e-01        00000 
 1.09925e+00 -8.81531e-01        00000 
 1.14976e+00 -9.22437e-01        00000 
 1.20374e+00 -9.65379e-01        00000 
 1.26144e+00 -1.01018e+00        00000 
 1.32301e+00 -1.05661e+00        00000 
 1.38845e+00 -1.10434e+00        00000 
 1.45763e+00 -1.15303e+00        00000 
 1.53017e+00 -1.20227e+00        00000 
 1.60558e+00 -1.25174e+00        00000 
-1.82342e+00 -1.40497e+00        00000 
-1.74746e+00 -1.35631e+00        00000 
-1.67371e+00 -1.30801e+00        00000 
-1.60255e+00 -1.26026e+00        00000 
-1.53430e+00 -1.21333e+00        00000 
-1.46911e+00 -1.16743e+00        00000 
-1.40706e+00 -1.12282e+00        00000 
-1.34813e+00 -1.07968e+00        00000 
-1.29221e+00 -1.03818e+00        00000 
-1.23915e+00 -9.98416e-01        00000 
-1.18877e+00 -9.60464e-01        00000 
-1.14085e+00 -9.24336e-01        00000 
-1.09519e+00 -8.90041e-01        00000 
-1.05158e+00 -8.57536e-01        00000 
-1.00985e+00 -8.26784e-01        00000 
-9.69787e-01 -7.97715e-01        00000 
-9.31258e-01 -7.70270e-01        00000 
-8.94097e-01 -7.44369e-01        00000 
-8.58186e-01 -7.19946e-01        00000 
-8.23392e-01 -6.96921e-01        00000 
-7.89624e-01 -6.75230e-01        00000 
-7.56771e-01 -6.54796e-01        00000 
-7.24763e-01 -6.35562e-01        00000 
-6.93511e-01 -6.17459e-01        00000 
-6.62959e-01 -6.00434e-01        00000 
-6.33034e-01 -5.84428e-01        00000 
-6.03692e-01 -5.69395e-01        00000 
-5.74872e-01 -5.55283e-01        00000 
-5.46541e-01 -5.42051e-01        00000 
-5.18647e-01 -5.29656e-01        00000 
-4.91163e-01 -5.18064e-01        00000 
-4.64044e-01 -5.07236e-01        00000 
-4.37270e-01 -4.97144e-01        00000 
-4.10802e-01 -4.87755e-01        00000 
-3.84622e-01 -4.79045e-01        00000 
-3.58697e-01 -4.70987e-01        00000 
-3.33014e-01 -4.63561e-01        00000 
-3.07539e-01 -4.56744e-01        00000 
-2.82264e-01 -4.50519e-01        00000 
-2.57159e-01 -4.44868e-01        00000 
-2.32216e-01 -4.39777e-01        00000 
-2.07408e-01 -4.35232e-01        00000 
-1.82728e-01 -4.31221e-01        00000 
-1.58150e-01 -4.27734e-01        00000 
-1.33669e-01 -4.24761e-01        00000 
-1.09259e-01 -4.22296e-01        00000 
-8.49175e-02 -4.20331e-01        00000 
-6.06190e-02 -4.18861e-01        00000 
-3.63596e-02 -4.17884e-01        00000 
-1.21160e-02 -4.17395e-01        00000 
 1.21160e-02 -4.17395e-01        00000 
 3.63596e-02 -4.17884e-01        00000 
 6.06190e-02 -4.18861e-01        00000 
 8.49175e-02 -4.20331e-01        00000 
 1.09259e-01 -4.22296e-01        00000 
 1.33669e-01 -4.24761e-01        00000 
 1.58150e-01 -4.27734e-01        00000 
 1.82728e-01 -4.31221e-01        00000 
 2.07408e-01 -4.35232e-01        00000 
 2.32216e-01 -4.39777e-01        00000 
 2.57159e-01 -4.44868e-01        00000 
 2.82264e-01 -4.50519e-01        00000 
 3.07539e-01 -4.56744e-01        00000 
 3.33014e-01 -4.63561e-01        00000 
 3.58697e-01 -4.70987e-01        00000 
 3.84622e-01 -4.79045e-01        00000 
 4.10802e-01 -4.87755e-01        00000 
 4.37270e-01 -4.97144e-01        00000 
 4.64044e-01 -5.07236e-01        00000 
 4.91163e-01 -5.18064e-01        00000 
 5.18647e-01 -5.29656e-01        00000 
 5.46541e-01 -5.42051e-01        00000 
 5.74872e-01 -5.55283e-01        00000 
 6.03692e-01 -5.69395e-01        00000 
 6.33034e-01 -5.84428e-01        00000 
 6.62959e-01 -6.00434e-01        00000 
 6.93511e-01 -6.17459e-01        00000 
 7.24763e-01 -6.35562e-01        00000 
 7.56771e-01 -6.54796e-01        00000 
 7.89624e-01 -6.75230e-01        00000 
 8.23392e-01 -6.96921e-01        00000 
 8.58186e-01 -7.19946e-01        00000 
 8.94097e-01 -7.44369e-01        00000 
 9.31258e-01 -7.70270e-01        00000 
 9.69787e-01 -7.97715e-01        00000 
 1.00985e+00 -8.26784e-01        00000 
 1.05158e+00 -8.57536e-01        00000 
 1.09519e+00 -8.90041e-01        00000 
 1.14085e+00 -9.24336e-01        00000 
 1.18877e+00 -9.60464e-01        00000 
 1.23915e+00 -9.98416e-01        00000 
 1.29221e+00 -1.03818e+00        00000 
 1.34813e+00 -1.07968e+00        00000 
 1.40706e+00 -1.12282e+00        00000 
 1.46911e+00 -1.16743e+00        00000 
 1.53430e+00 -1.21333e+00        00000 
 1.60255e+00 -1.26026e+00        00000 
 1.67371e+00 -1.30801e+00        00000 
 1.74746e+00 -1.35631e+00        00000 
 1.82342e+00 -1.40497e+00        00000 
-2.03841e+00 -1.55977e+00        00000 
-1.96110e+00 -1.51176e+00        00000 
-1.88561e+00 -1.46422e+00        00000 
-1.81221e+00 -1.41726e+00        00000 
-1.74117e+00 -1.37105e+00        00000 
-1.67264e+00 -1.32575e+00        00000 
-1.60673e+00 -1.28153e+00        00000 
-1.54344e+00 -1.23854e+00        00000 
-1.48279e+00 -1.19692e+00        00000 
-1.42466e+00 -1.15676e+00        00000 
-1.36897e+00 -1.11815e+00        00000 
-1.31557e+00 -1.08113e+00        00000 
-1.26435e+00 -1.04572e+00        00000 
-1.21512e+00 -1.01193e+00        00000 
-1.16776e+00 -9.79746e-01        00000 
-1.12210e+00 -9.49131e-01        00000 
-1.07802e+00 -9.20056e-01        00000 
-1.03538e+00 -8.92465e-01        00000 
-9.94071e-01 -8.66317e-01        00000 
-9.53966e-01 -8.41549e-01        00000 
-9.14978e-01 -8.18116e-01        00000 
-8.76998e-01 -7.95954e-01        00000 
-8.39957e-01 -7.75016e-01        00000 
-8.03763e-01 -7.55244e-01        00000 
-7.68358e-01 -7.36592e-01        00000 
-7.33664e-01 -7.19007e-01        00000 
-6.99637e-01 -7.02448e-01        00000 
-6.66210e-01 -6.86866e-01        00000 
-6.33345e-01 -6.72225e-01        00000 
-6.00986e-01 -6.58481e-01        00000 
-5.69104e-01 -6.45605e-01        00000 
-5.37647e-01 -6.33557e-01        00000 
-5.06593e-01 -6.22310e-01        00000 
-4.75897e-01 -6.11832e-01        00000 
-4.45540e-01 -6.02100e-01        00000 
-4.15482e-01 -5.93085e-01        00000 
-3.85708e-01 -5.84768e-01        00000 
-3.56182e-01 -5.77125e-01        00000 
-3.26891e-01 -5.70141e-01        00000 
-2.97802e-01 -5.63795e-01        00000 
-2.68904e-01 -5.58075e-01        00000 
-2.40166e-01 -5.52964e-01        00000 
-2.11579e-01 -5.48452e-01        00000 
-1.83114e-01 -5.44526e-01        00000 
-1.54764e-01 -5.41179e-01        00000 
-1.26499e-01 -5.38401e-01        00000 
-9.83143e-02 -5.36187e-01        00000 
-7.01814e-02 -5.34530e-01        00000 
-4.20948e-02 -5.33428e-01        00000 
-1.40270e-02 -5.32878e-01        00000 
 1.40270e-02 -5.32878e-01        00000 
 4.20948e-02 -5.33428e-01        00000 
 7.01814e-02 -5.34530e-01        00000 
 9.83143e-02 -5.36187e-01        00000 
 1.26499e-01 -5.38401e-01        00000 
 1.54764e-01 -5.41179e-01        00000 
 1.83114e-01 -5.44526e-01        00000 
 2.11579e-01 -5.48452e-01        00000 
 2.40166e-01 -5.52964e-01        00000 
 2.68904e-01 -5.58075e-01        00000 
 2.97802e-01 -5.63795e-01        00000 
 3.26891e-01 -5.70141e-01        00000 
 3.56182e-01 -5.77125e-01        00000 
 3.85708e-01 -5.84768e-01        00000 
 4.15482e-01 -5.93085e-01        00000 
 4.45540e-01 -6.02100e-01        00000 
 4.75897e-01 -6.11832e-01        00000 
 5.06593e-01 -6.22310e-01        00000 
 5.37647e-01 -6.33557e-01        00000 
 5.69104e-01 -6.45605e-01        00000 
 6.00986e-01 -6.58481e-01        00000 
 6.33345e-01 -6.72225e-01        00000 
 6.66210e-01 -6.86866e-01        00000 
 6.99637e-01 -7.02448e-01        00000 
 7.33664e-01 -7.19007e-01        00000 
 7.68358e-01 -7.36592e-01        00000 
 8.03763e-01 -7.55244e-01        00000 
 8.39957e-01 -7.75016e-01        00000 
 8.76998e-01 -7.95954e-01        00000 
 9.14978e-01 -8.18116e-01        00000 
 9.53966e-01 -8.41549e-01        00000 
 9.94071e-01 -8.66317e-01        00000 
 1.03538e+00 -8.92465e-01        00000 
 1.07802e+00 -9.20056e-01        00000 
 1.12210e+00 -9.49131e-01        00000 
 1.16776e+00 -9.79746e-01        00000 
 1.21512e+00 -1.01193e+00        00000 
 1.26435e+00 -1.04572e+00        00000 
 1.31557e+00 -1.08113e+00        00000 
 1.36897e+00 -1.11815e+00        00000 
 1.42466e+00 -1.15676e+00        00000 
 1.48279e+00 -1.19692e+00        00000 
 1.54344e+00 -1.23854e+00        00000 
 1.60673e+00 -1.28153e+00        00000 
 1.67264e+00 -1.32575e+00        00000 
 1.74117e+00 -1.37105e+00        00000 
 1.81221e+00 -1.41726e+00        00000 
 1.88561e+00 -1.46422e+00        00000 
 1.96110e+00 -1.51176e+00        00000 
 2.03841e+00 -1.55977e+00        00000 
-2.25100e+00 -1.71764e+00        00000 
-2.17176e+00 -1.67019e+00        00000 
-2.09409e+00 -1.62330e+00        00000 
-2.01819e+00 -1.57701e+00        00000 
-1.94430e+00 -1.53146e+00        00000 
-1.87251e+00 -1.48675e+00        00000 
-1.80297e+00 -1.44301e+00        00000 
-1.73569e+00 -1.40034e+00        00000 
-1.67071e+00 -1.35886e+00        00000 
-1.60798e+00 -1.31864e+00        00000 
-1.54746e+00 -1.27978e+00        00000 
-1.48906e+00 -1.24231e+00        00000 
-1.43269e+00 -1.20628e+00        00000 
-1.37823e+00 -1.17170e+00        00000 
-1.32560e+00 -1.13859e+00        00000 
-1.27464e+00 -1.10693e+00        00000 
-1.22528e+00 -1.07670e+00        00000 
-1.17737e+00 -1.04789e+00        00000 
-1.13084e+00 -1.02046e+00        00000 
-1.08557e+00 -9.94361e-01        00000 
-1.04147e+00 -9.69574e-01        00000 
-9.98447e-01 -9.46044e-01        00000 
-9.56434e-01 -9.23739e-01        00000 
-9.15336e-01 -9.02606e-01        00000 
-8.75100e-01 -8.82612e-01        00000 
-8.35646e-01 -8.63709e-01        00000 
-7.96928e-01 -8.45864e-01        00000 
-7.58875e-01 -8.29032e-01        00000 
-7.21452e-01 -8.13182e-01        00000 
-6.84594e-01 -7.98274e-01        00000 
-6.48273e-01 -7.84279e-01        00000 
-6.12433e-01 -7.71163e-01        00000 
-5.77049e-01 -7.58899e-01        00000 
-5.42072e-01 -7.47458e-01        00000 
-5.07481e-01 -7.36816e-01        00000 
-4.73232e-01 -7.26946e-01        00000 
-4.39307e-01 -7.17831e-01        00000 
-4.05666e-01 -7.09446e-01        00000 
-3.72296e-01 -7.01776e-01        00000 
-3.39156e-01 -6.94801e-01        00000 
-3.06237e-01 -6.88510e-01        00000 
-2.73502e-01 -6.82884e-01        00000 
-2.40942e-01 -6.77915e-01        00000 
-2.08523e-01 -6.73589e-01        00000 
-1.76235e-01 -6.69899e-01        00000 
-1.44047e-01 -6.66836e-01        00000 
-1.11951e-01 -6.64394e-01        00000 
-7.99153e-02 -6.62566e-01        00000 
-4.79329e-02 -6.61350e-01        00000 
-1.59724e-02 -6.60743e-01        00000 
 1.59724e-02 -6.60743e-01        00000 
 4.79329e-02 -6.61350e-01        00000 
 7.99153e-02 -6.62566e-01        00000 
 1.11951e-01 -6.64394e-01        00000 
 1.44047e-01 -6.66836e-01        00000 
 1.76235e-01 -6.69899e-01        00000 
 2.08523e-01 -6.73589e-01        00000 
 2.40942e-01 -6.77915e-01        00000 
 2.73502e-01 -6.82884e-01        00000 
 3.06237e-01 -6.88510e-01        00000 
 3.39156e-01 -6.94801e-01        00000 
 3.72296e-01 -7.01776e-01        00000 
 4.05666e-01 -7.09446e-01        00000 
 4.39307e-01 -7.17831e-01        00000 
 4.73232e-01 -7.26946e-01        00000 
 5.07481e-01 -7.36816e-01        00000 
 5.42072e-01 -7.47458e-01        00000 
 5.77049e-01 -7.58899e-01        00000 
 6.12433e-01 -7.71163e-01        00000 
 6.48273e-01 -7.84279e-01        00000 
 6.84594e-01 -7.98274e-01        00000 
 7.21452e-01 -8.13182e-01        00000 
 7.58875e-01 -8.29032e-01        00000 
 7.96928e-01 -8.45864e-01        00000 
 8.35646e-01 -8.63709e-01        00000 
 8.75100e-01 -8.82612e-01        00000 
 9.15336e-01 -9.02606e-01        00000 
 9.56434e-01 -9.23739e-01        00000 
 9.98447e-01 -9.46044e-01        00000 
 1.04147e+00 -9.69574e-01        00000 
 1.08557e+00 -9.94361e-01        00000 
 1.13084e+00 -1.02046e+00        00000 
 1.17737e+00 -1.04789e+00        00000 
 1.22528e+00 -1.07670e+00        00000 
 1.27464e+00 -1.10693e+00        00000 
 1.32560e+00 -1.13859e+00        00000 
 1.37823e+00 -1.17170e+00        00000 
 1.43269e+00 -1.20628e+00        00000 
 1.48906e+00 -1.24231e+00        00000 
 1.54746e+00 -1.27978e+00        00000 
 1.60798e+00 -1.31864e+00        00000 
 1.67071e+00 -1.35886e+00        00000 
 1.73569e+00 -1.40034e+00        00000 
 1.80297e+00 -1.44301e+00        00000 
 1.87251e+00 -1.48675e+00        00000 
 1.94430e+00 -1.53146e+00        00000 
 2.01819e+00 -1.57701e+00        00000 
 2.09409e+00 -1.62330e+00        00000 
 2.17176e+00 -1.67019e+00        00000 
 2.25100e+00 -1.71764e+00        00000 
-2.46146e+00 -1.87969e+00        00000 
-2.37986e+00 -1.83274e+00        00000 
-2.29967e+00 -1.78641e+00        00000 
-2.22104e+00 -1.74072e+00        00000 
-2.14417e+00 -1.69578e+00        00000 
-2.06914e+00 -1.65163e+00        00000 
-1.99607e+00 -1.60839e+00        00000 
-1.92499e+00 -1.56612e+00        00000 
-1.85595e+00 -1.52493e+00        00000 
-1.78893e+00 -1.48486e+00        00000 
-1.72392e+00 -1.44600e+00        00000 
-1.66086e+00 -1.40838e+00        00000 
-1.59970e+00 -1.37206e+00        00000 
-1.54035e+00 -1.33705e+00        00000 
-1.48275e+00 -1.30339e+00        00000 
-1.42678e+00 -1.27106e+00        00000 
-1.37238e+00 -1.24007e+00        00000 
-1.31943e+00 -1.21041e+00        00000 
-1.26787e+00 -1.18206e+00        00000 
-1.21759e+00 -1.15499e+00        00000 
-1.16852e+00 -1.12919e+00        00000 
-1.12056e+00 -1.10461e+00        00000 
-1.07367e+00 -1.08124e+00        00000 
-1.02774e+00 -1.05903e+00        00000 
-9.82724e-01 -1.03796e+00        00000 
-9.38547e-01 -1.01799e+00        00000 
-8.95162e-01 -9.99088e-01        00000 
-8.52497e-01 -9.81220e-01        00000 
-8.10516e-01 -9.64358e-01        00000 
-7.69153e-01 -9.48467e-01        00000 
-7.28378e-01 -9.33523e-01        00000 
-6.88133e-01 -9.19492e-01        00000 
-6.48392e-01 -9.06354e-01        00000 
-6.09101e-01 -8.94078e-01        00000 
-5.70240e-01 -8.82644e-01        00000 
-5.31758e-01 -8.72028e-01        00000 
-4.93639e-01 -8.62211e-01        00000 
-4.55837e-01 -8.53172e-01        00000 
-4.18338e-01 -8.44896e-01        00000 
-3.81099e-01 -8.37363e-01        00000 
-3.44107e-01 -8.30563e-01        00000 
-3.07322e-01 -8.24479e-01        00000 
-2.70734e-01 -8.19101e-01        00000 
-2.34304e-01 -8.14417e-01        00000 
-1.98023e-01 -8.10420e-01        00000 
-1.61855e-01 -8.07101e-01        00000 
-1.25791e-01 -8.04453e-01        00000 
-8.97941e-02 -8.02471e-01        00000 
-5.38580e-02 -8.01153e-01        00000 
-1.79468e-02 -8.00494e-01        00000 
 1.79468e-02 -8.00494e-01        00000 
 5.38580e-02 -8.01153e-01        00000 
 8.97941e-02 -8.02471e-01        00000 
 1.25791e-01 -8.04453e-01        00000 
 1.61855e-01 -8.07101e-01        00000 
 1.98023e-01 -8.10420e-01        00000 
 2.34304e-01 -8.14417e-01        00000 
 2.70734e-01 -8.19101e-01        00000 
 3.07322e-01 -8.24479e-01        00000 
 3.44107e-01 -8.30563e-01        00000 
 3.81099e-01 -8.37363e-01        00000 
 4.18338e-01 -8.44896e-01        00000 
 4.55837e-01 -8.53172e-01        00000 
 4.93639e-01 -8.62211e-01        00000 
 5.31758e-01 -8.72028e-01        00000 
 5.70240e-01 -8.82644e-01        00000 
 6.09101e-01 -8.94078e-01        00000 
 6.48392e-01 -9.06354e-01        00000 
 6.88133e-01 -9.19492e-01        00000 
 7.28378e-01 -9.33523e-01        00000 
 7.69153e-01 -9.48467e-01        00000 
 8.10516e-01 -9.64358e-01        00000 
 8.52497e-01 -9.81220e-01        00000 
 8.95162e-01 -9.99088e-01        00000 
 9.38547e-01 -1.01799e+00        00000 
 9.82724e-01 -1.03796e+00        00000 
 1.02774e+00 -1.05903e+00        00000 
 1.07367e+00 -1.08124e+00        00000 
 1.12056e+00 -1.10461e+00        00000 
 1.16852e+00 -1.12919e+00        00000 
 1.21759e+00 -1.15499e+00        00000 
 1.26787e+00 -1.18206e+00        00000 
 1.31943e+00 -1.21041e+00        00000 
 1.37238e+00 -1.24007e+00        00000 
 1.42678e+00 -1.27106e+00        00000 
 1.48275e+00 -1.30339e+00        00000 
 1.54035e+00 -1.33705e+00        00000 
 1.59970e+00 -1.37206e+00        00000 
 1.66086e+00 -1.40838e+00        00000 
 1.72392e+00 -1.44600e+00        00000 
 1.78893e+00 -1.48486e+00        00000 
 1.85595e+00 -1.52493e+00        00000 
 1.92499e+00 -1.56612e+00        00000 
 1.99607e+00 -1.60839e+00        00000 
 2.06914e+00 -1.65163e+00        00000 
 2.14417e+00 -1.69578e+00        00000 
 2.22104e+00 -1.74072e+00        00000 
 2.29967e+00 -1.78641e+00        00000 
 2.37986e+00 -1.83274e+00        00000 
 2.46146e+00 -1.87969e+00        00000 
-2.66996e+00 -2.04673e+00        00000 
-2.58566e+00 -2.00025e+00        00000 
-2.50268e+00 -1.95443e+00        00000 
-2.42112e+00 -1.90930e+00        00000 
-2.34115e+00 -1.86491e+00        00000 
-2.26283e+00 -1.82131e+00        00000 
-2.18627e+00 -1.77857e+00        00000 
-2.11149e+00 -1.73674e+00        00000 
-2.03856e+00 -1.69591e+00        00000 
-1.96746e+00 -1.65611e+00        00000 
-1.89821e+00 -1.61740e+00        00000 
-1.83075e+00 -1.57984e+00        00000 
-1.76506e+00 -1.54345e+00        00000 
-1.70109e+00 -1.50827e+00        00000 
-1.63877e+00 -1.47433e+00        00000 
-1.57804e+00 -1.44162e+00        00000 
-1.51883e+00 -1.41016e+00        00000 
-1.46105e+00 -1.37994e+00        00000 
-1.40464e+00 -1.35097e+00        00000 
-1.34952e+00 -1.32322e+00        00000 
-1.29563e+00 -1.29668e+00        00000 
-1.24287e+00 -1.27134e+00        00000 
-1.19120e+00 -1.24717e+00        00000 
-1.14053e+00 -1.22413e+00        00000 
-1.09081e+00 -1.20223e+00        00000 
-1.04197e+00 -1.18141e+00        00000 
-9.93967e-01 -1.16167e+00        00000 
-9.46725e-01 -1.14297e+00        00000 
-9.00210e-01 -1.12528e+00        00000 
-8.54357e-01 -1.10858e+00        00000 
-8.09135e-01 -1.09285e+00        00000 
-7.64483e-01 -1.07806e+00        00000 
-7.20377e-01 -1.06418e+00        00000 
-6.76759e-01 -1.05120e+00        00000 
-6.33608e-01 -1.03909e+00        00000 
-5.90871e-01 -1.02784e+00        00000 
-5.48531e-01 -1.01742e+00        00000 
-5.06538e-01 -1.00781e+00        00000 
-4.64877e-01 -9.99013e-01        00000 
-4.23501e-01 -9.90996e-01        00000 
-3.82398e-01 -9.83752e-01        00000 
-3.41523e-01 -9.77267e-01        00000 
-3.00866e-01 -9.71532e-01        00000 
-2.60383e-01 -9.66534e-01        00000 
-2.20065e-01 -9.62267e-01        00000 
-1.79872e-01 -9.58721e-01        00000 
-1.39793e-01 -9.55893e-01        00000 
-9.97898e-02 -9.53775e-01        00000 
-5.98534e-02 -9.52366e-01        00000 
-1.99446e-02 -9.51662e-01        00000 
 1.99446e-02 -9.51662e-01        00000 
 5.98534e-02 -9.52366e-01        00000 
 9.97898e-02 -9.53775e-01        00000 
 1.39793e-01 -9.55893e-01        00000 
 1.79872e-01 -9.58721e-01        00000 
 2.20065e-01 -9.62267e-01        00000 
 2.60383e-01 -9.66534e-01        00000 
 3.00866e-01 -9.71532e-01        00000 
 3.41523e-01 -9.77267e-01        00000 
 3.82398e-01 -9.83752e-01        00000 
 4.23501e-01 -9.90996e-01        00000 
 4.64877e-01 -9.99013e-01        00000 
 5.06538e-01 -1.00781e+00        00000 
 5.48531e-01 -1.01742e+00        00000 
 5.90871e-01 -1.02784e+00        00000 
 6.33608e-01 -1.03909e+00        00000 
 6.76759e-01 -1.05120e+00        00000 
 7.20377e-01 -1.06418e+00        00000 
 7.64483e-01 -1.07806e+00        00000 
 8.09135e-01 -1.09285e+00        00000 
 8.54357e-01 -1.10858e+00        00000 
 9.00210e-01 -1.12528e+00        00000 
 9.46725e-01 -1.14297e+00        00000 
 9.93967e-01 -1.16167e+00        00000 
 1.04197e+00 -1.18141e+00        00000 
 1.09081e+00 -1.20223e+00        00000 
 1.14053e+00 -1.22413e+00        00000 
 1.19120e+00 -1.24717e+00        00000 
 1.24287e+00 -1.27134e+00        00000 
 1.29563e+00 -1.29668e+00        00000 
 1.34952e+00 -1.32322e+00        00000 
 1.40464e+00 -1.35097e+00        00000 
 1.46105e+00 -1.37994e+00        00000 
 1.51883e+00 -1.41016e+00        00000 
 1.57804e+00 -1.44162e+00        00000 
 1.63877e+00 -1.47433e+00        00000 
 1.70109e+00 -1.50827e+00        00000 
 1.76506e+00 -1.54345e+00        00000 
 1.83075e+00 -1.57984e+00        00000 
 1.89821e+00 -1.61740e+00        00000 
 1.96746e+00 -1.65611e+00        00000 
 2.03856e+00 -1.69591e+00        00000 
 2.11149e+00 -1.73674e+00        00000 
 2.18627e+00 -1.77857e+00        00000 
 2.26283e+00 -1.82131e+00        00000 
 2.34115e+00 -1.86491e+00        00000 
 2.42112e+00 -1.90930e+00        00000 
 2.50268e+00 -1.95443e+00        00000 
 2.58566e+00 -2.00025e+00        00000 
 2.66996e+00 -2.04673e+00        00000 
-2.87657e+00 -2.21939e+00        00000 
-2.78932e+00 -2.17335e+00        00000 
-2.70334e+00 -2.12802e+00        00000 
-2.61869e+00 -2.08340e+00        00000 
-2.53550e+00 -2.03954e+00        00000 
-2.45384e+00 -1.99645e+00        00000 
-2.37379e+00 -1.95421e+00        00000 
-2.29537e+00 -1.91285e+00        00000 
-2.21865e+00 -1.87242e+00        00000 
-2.14360e+00 -1.83295e+00        00000 
-2.07026e+00 -1.79451e+00        00000 
-1.99859e+00 -1.75712e+00        00000 
-1.92859e+00 -1.72083e+00        00000 
-1.86020e+00 -1.68565e+00        00000 
-1.79339e+00 -1.65162e+00        00000 
-1.72809e+00 -1.61874e+00        00000 
-1.66428e+00 -1.58703e+00        00000 
-1.60185e+00 -1.55650e+00        00000 
-1.54078e+00 -1.52714e+00        00000 
-1.48098e+00 -1.49894e+00        00000 
-1.42241e+00 -1.47191e+00        00000 
-1.36498e+00 -1.44602e+00        00000 
-1.30865e+00 -1.42127e+00        00000 
-1.25334e+00 -1.39764e+00        00000 
-1.19900e+00 -1.37511e+00        00000 
-1.14557e+00 -1.35365e+00        00000 
-1.09301e+00 -1.33326e+00        00000 
-1.04124e+00 -1.31390e+00        00000 
-9.90235e-01 -1.29556e+00        00000 
-9.39923e-01 -1.27821e+00        00000 
-8.90277e-01 -1.26185e+00        00000 
-8.41235e-01 -1.24643e+00        00000 
-7.92772e-01 -1.23195e+00        00000 
-7.44830e-01 -1.21839e+00        00000 
-6.97386e-01 -1.20572e+00        00000 
-6.50387e-01 -1.19393e+00        00000 
-6.03813e-01 -1.18301e+00        00000 
-5.57613e-01 -1.17293e+00        00000 
-5.11771e-01 -1.16368e+00        00000 
-4.66237e-01 -1.15525e+00        00000 
-4.20998e-01 -1.14763e+00        00000 
-3.76007e-01 -1.14080e+00        00000 
-3.31251e-01 -1.13476e+00        00000 
-2.86684e-01 -1.12949e+00        00000 
-2.42297e-01 -1.12499e+00        00000 
-1.98045e-01 -1.12125e+00        00000 
-1.53919e-01 -1.11827e+00        00000 
-1.09874e-01 -1.11603e+00        00000 
-6.59022e-02 -1.11455e+00        00000 
-2.19602e-02 -1.11380e+00        00000 
 2.19602e-02 -1.11380e+00        00000 
 6.59022e-02 -1.11455e+00        00000 
 1.09874e-01 -1.11603e+00        00000 
 1.53919e-01 -1.11827e+00        00000 
 1.98045e-01 -1.12125e+00        00000 
 2.42297e-01 -1.12499e+00        00000 
 2.86684e-01 -1.12949e+00        00000 
 3.31251e-01 -1.13476e+00        00000 
 3.76007e-01 -1.14080e+00        00000 
 4.20998e-01 -1.14763e+00        00000 
 4.66237e-01 -1.15525e+00        00000 
 5.11771e-01 -1.16368e+00        00000 
 5.57613e-01 -1.17293e+00        00000 
 6.03813e-01 -1.18301e+00        00000 
 6.50387e-01 -1.19393e+00        00000 
 6.97386e-01 -1.20572e+00        00000 
 7.44830e-01 -1.21839e+00        00000 
 7.92772e-01 -1.23195e+00        00000 
 8.41235e-01 -1.24643e+00        00000 
 8.90277e-01 -1.26185e+00        00000 
 9.39923e-01 -1.27821e+00        00000 
 9.90235e-01 -1.29556e+00        00000 
 1.04124e+00 -1.31390e+00        00000 
 1.09301e+00 -1.33326e+00        00000 
 1.14557e+00 -1.35365e+00        00000 
 1.19900e+00 -1.37511e+00        00000 
 1.25334e+00 -1.39764e+00        00000 
 1.30865e+00 -1.42127e+00        00000 
 1.36498e+00 -1.44602e+00        00000 
 1.42241e+00 -1.47191e+00        00000 
 1.48098e+00 -1.49894e+00        00000 
 1.54078e+00 -1.52714e+00        00000 
 1.60185e+00 -1.55650e+00        00000 
 1.66428e+00 -1.58703e+00        00000 
 1.72809e+00 -1.61874e+00        00000 
 1.79339e+00 -1.65162e+00        00000 
 1.86020e+00 -1.68565e+00        00000 
 1.92859e+00 -1.72083e+00        00000 
 1.99859e+00 -1.75712e+00        00000 
 2.07026e+00 -1.79451e+00        00000 
 2.14360e+00 -1.83295e+00        00000 
 2.21865e+00 -1.87242e+00        00000 
 2.29537e+00 -1.91285e+00        00000 
 2.37379e+00 -1.95421e+00        00000 
 2.45384e+00 -1.99645e+00        00000 
 2.53550e+00 -2.03954e+00        00000 
 2.61869e+00 -2.08340e+00        00000 
 2.70334e+00 -2.12802e+00        00000 
 2.78932e+00 -2.17335e+00        00000 
 2.87657e+00 -2.21939e+00        00000 
-3.08134e+00 -2.39813e+00        00000 
-2.99095e+00 -2.35253e+00        00000 
-2.90179e+00 -2.30766e+00        00000 
-2.81391e+00 -2.26353e+00        00000 
-2.72742e+00 -2.22017e+00        00000 
-2.64235e+00 -2.17759e+00        00000 
-2.55879e+00 -2.13584e+00        00000 
-2.47676e+00 -2.09494e+00        00000 
-2.39629e+00 -2.05493e+00        00000 
-2.31740e+00 -2.01585e+00        00000 
-2.24010e+00 -1.97773e+00        00000 
-2.16436e+00 -1.94061e+00        00000 
-2.09019e+00 -1.90451e+00        00000 
-2.01755e+00 -1.86946e+00        00000 
-1.94641e+00 -1.83549e+00        00000 
-1.87673e+00 -1.80259e+00        00000 
-1.80847e+00 -1.77081e+00        00000 
-1.74157e+00 -1.74012e+00        00000 
-1.67599e+00 -1.71056e+00        00000 
-1.61166e+00 -1.68211e+00        00000 
-1.54854e+00 -1.65477e+00        00000 
-1.48657e+00 -1.62853e+00        00000 
-1.42569e+00 -1.60339e+00        00000 
-1.36584e+00 -1.57934e+00        00000 
-1.30699e+00 -1.55636e+00        00000 
-1.24905e+00 -1.53443e+00        00000 
-1.19200e+00 -1.51356e+00        00000 
-1.13577e+00 -1.49371e+00        00000 
-1.08032e+00 -1.47487e+00        00000 
-1.02560e+00 -1.45703e+00        00000 
-9.71563e-01 -1.44016e+00        00000 
-9.18159e-01 -1.42426e+00        00000 
-8.65363e-01 -1.40930e+00        00000 
-8.13112e-01 -1.39527e+00        00000 
-7.61387e-01 -1.38215e+00        00000 
-7.10131e-01 -1.36992e+00        00000 
-6.59325e-01 -1.35859e+00        00000 
-6.08915e-01 -1.34811e+00        00000 
-5.58886e-01 -1.33850e+00        00000 
-5.09185e-01 -1.32973e+00        00000 
-4.59798e-01 -1.32179e+00        00000 
-4.10674e-01 -1.31468e+00        00000 
-3.61803e-01 -1.30838e+00        00000 
-3.13134e-01 -1.30288e+00        00000 
-2.64658e-01 -1.29819e+00        00000 
-2.16326e-01 -1.29428e+00        00000 
-1.68129e-01 -1.29117e+00        00000 
-1.20019e-01 -1.28883e+00        00000 
-7.19875e-02 -1.28728e+00        00000 
-2.39881e-02 -1.28650e+00        00000 
 2.39881e-02 -1.28650e+00        00000 
 7.19875e-02 -1.28728e+00        00000 
 1.20019e-01 -1.28883e+00        00000 
 1.68129e-01 -1.29117e+00        00000 
 2.16326e-01 -1.29428e+00        00000 
 2.64658e-01 -1.29819e+00        00000 
 3.13134e-01 -1.30288e+00        00000 
 3.61803e-01 -1.30838e+00        00000 
 4.10674e-01 -1.31468e+00        00000 
 4.59798e-01 -1.32179e+00        00000 
 5.09185e-01 -1.32973e+00        00000 
 5.58886e-01 -1.33850e+00        00000 
 6.08915e-01 -1.34811e+00        00000 
 6.59325e-01 -1.35859e+00        00000 
 7.10131e-01 -1.36992e+00        00000 
 7.61387e-01 -1.38215e+00        00000 
 8.13112e-01 -1.39527e+00        00000 
 8.65363e-01 -1.40930e+00        00000 
 9.18159e-01 -1.42426e+00        00000 
 9.71563e-01 -1.44016e+00        00000 
 1.02560e+00 -1.45703e+00        00000 
 1.08032e+00 -1.47487e+00        00000 
 1.13577e+00 -1.49371e+00        00000 
 1.19200e+00 -1.51356e+00        00000 
 1.24905e+00 -1.53443e+00        00000 
 1.30699e+00 -1.55636e+00        00000 
 1.36584e+00 -1.57934e+00        00000 
 1.42569e+00 -1.60339e+00        00000 
 1.48657e+00 -1.62853e+00        00000 
 1.54854e+00 -1.65477e+00        00000 
 1.61166e+00 -1.68211e+00        00000 
 1.67599e+00 -1.71056e+00        00000 
 1.74157e+00 -1.74012e+00        00000 
 1.80847e+00 -1.77081e+00        00000 
 1.87673e+00 -1.80259e+00        00000 
 1.94641e+00 -1.83549e+00        00000 
 2.01755e+00 -1.86946e+00        00000 
 2.09019e+00 -1.90451e+00        00000 
 2.16436e+00 -1.94061e+00        00000 
 2.24010e+00 -1.97773e+00        00000 
 2.31740e+00 -2.01585e+00        00000 
 2.39629e+00 -2.05493e+00        00000 
 2.47676e+00 -2.09494e+00        00000 
 2.55879e+00 -2.13584e+00        00000 
 2.64235e+00 -2.17759e+00        00000 
 2.72742e+00 -2.22017e+00        00000 
 2.81391e+00 -2.26353e+00        00000 
 2.90179e+00 -2.30766e+00        00000 
 2.99095e+00 -2.35253e+00        00000 
 3.08134e+00 -2.39813e+00        00000 
-3.28428e+00 -2.58332e+00        00000 
-3.19059e+00 -2.53814e+00        00000 
-3.09812e+00 -2.49373e+00        00000 
-3.00690e+00 -2.45007e+00        00000 
-2.91703e+00 -2.40719e+00        00000 
-2.82850e+00 -2.36510e+00        00000 
-2.74142e+00 -2.32384e+00        00000 
-2.65576e+00 -2.28340e+00        00000 
-2.57160e+00 -2.24383e+00        00000 
-2.48891e+00 -2.20516e+00        00000 
-2.40773e+00 -2.16741e+00        00000 
-2.32802e+00 -2.13060e+00        00000 
-2.24981e+00 -2.09478e+00        00000 
-2.17304e+00 -2.05994e+00        00000 
-2.09772e+00 -2.02612e+00        00000 
-2.02379e+00 -1.99333e+00        00000 
-1.95124e+00 -1.96159e+00        00000 
-1.87999e+00 -1.93090e+00        00000 
-1.81004e+00 -1.90127e+00        00000 
-1.74131e+00 -1.87271e+00        00000 
-1.67379e+00 -1.84521e+00        00000 
-1.60738e+00 -1.81878e+00        00000 
-1.54207e+00 -1.79340e+00        00000 
-1.47779e+00 -1.76908e+00        00000 
-1.41451e+00 -1.74581e+00        00000 
-1.35215e+00 -1.72356e+00        00000 
-1.29069e+00 -1.70235e+00        00000 
-1.23006e+00 -1.68215e+00        00000 
-1.17024e+00 -1.66295e+00        00000 
-1.11115e+00 -1.64474e+00        00000 
-1.05278e+00 -1.62750e+00        00000 
-9.95050e-01 -1.61122e+00        00000 
-9.37954e-01 -1.59590e+00        00000 
-8.81422e-01 -1.58150e+00        00000 
-8.25439e-01 -1.56803e+00        00000 
-7.69942e-01 -1.55546e+00        00000 
-7.14918e-01 -1.54380e+00        00000 
-6.60307e-01 -1.53301e+00        00000 
-6.06096e-01 -1.52310e+00        00000 
-5.52229e-01 -1.51406e+00        00000 
-4.98693e-01 -1.50587e+00        00000 
-4.45434e-01 -1.49852e+00        00000 
-3.92442e-01 -1.49201e+00        00000 
-3.39663e-01 -1.48633e+00        00000 
-2.87088e-01 -1.48147e+00        00000 
-2.34665e-01 -1.47743e+00        00000 
-1.82385e-01 -1.47421e+00        00000 
-1.30198e-01 -1.47179e+00        00000 
-7.80935e-02 -1.47018e+00        00000 
-2.60229e-02 -1.46938e+00        00000 
 2.60229e-02 -1.46938e+00        00000 
 7.80935e-02 -1.47018e+00        00000 
 1.30198e-01 -1.47179e+00        00000 
 1.82385e-01 -1.47421e+00        00000 
 2.34665e-01 -1.47743e+00        00000 
 2.87088e-01 -1.48147e+00        00000 
 3.39663e-01 -1.48633e+00        00000 
 3.92442e-01 -1.49201e+00        00000 
 4.45434e-01 -1.49852e+00        00000 
 4.98693e-01 -1.50587e+00        00000 
 5.52229e-01 -1.51406e+00        00000 
 6.06096e-01 -1.52310e+00        00000 
 6.60307e-01 -1.53301e+00        00000 
 7.14918e-01 -1.54380e+00        00000 
 7.69942e-01 -1.55546e+00        00000 
 8.25439e-01 -1.56803e+00        00000 
 8.81422e-01 -1.58150e+00        00000 
 9.37954e-01 -1.59590e+00        00000 
 9.95050e-01 -1.61122e+00        00000 
 1.05278e+00 -1.62750e+00        00000 
 1.11115e+00 -1.64474e+00        00000 
 1.17024e+00 -1.66295e+00        00000 
 1.23006e+00 -1.68215e+00        00000 
 1.29069e+00 -1.70235e+00        00000 
 1.35215e+00 -1.72356e+00        00000 
 1.41451e+00 -1.74581e+00        00000 
 1.47779e+00 -1.76908e+00        00000 
 1.54207e+00 -1.79340e+00        00000 
 1.60738e+00 -1.81878e+00        00000 
 1.67379e+00 -1.84521e+00        00000 
 1.74131e+00 -1.87271e+00        00000 
 1.81004e+00 -1.90127e+00        00000 
 1.87999e+00 -1.93090e+00        00000 
 1.95124e+00 -1.96159e+00        00000 
 2.02379e+00 -1.99333e+00        00000 
 2.09772e+00 -2.02612e+00        00000 
 2.17304e+00 -2.05994e+00        00000 
 2.24981e+00 -2.09478e+00        00000 
 2.32802e+00 -2.13060e+00        00000 
 2.40773e+00 -2.16741e+00        00000 
 2.48891e+00 -2.20516e+00        00000 
 2.57160e+00 -2.24383e+00        00000 
 2.65576e+00 -2.28340e+00        00000 
 2.74142e+00 -2.32384e+00        00000 
 2.82850e+00 -2.36510e+00        00000 
 2.91703e+00 -2.40719e+00        00000 
 3.00690e+00 -2.45007e+00        00000 
 3.09812e+00 -2.49373e+00        00000 
 3.19059e+00 -2.53814e+00        00000 
 3.28428e+00 -2.58332e+00        00000 
-3.48536e+00 -2.77521e+00        00000 
-3.38827e+00 -2.73046e+00        00000 
-3.29239e+00 -2.68650e+00        00000 
-3.19775e+00 -2.64331e+00        00000 
-3.10442e+00 -2.60091e+00        00000 
-3.01240e+00 -2.55929e+00        00000 
-2.92176e+00 -2.51850e+00        00000 
-2.83249e+00 -2.47853e+00        00000 
-2.74464e+00 -2.43941e+00        00000 
-2.65820e+00 -2.40116e+00        00000 
-2.57320e+00 -2.36381e+00        00000 
-2.48960e+00 -2.32736e+00        00000 
-2.40743e+00 -2.29185e+00        00000 
-2.32664e+00 -2.25729e+00        00000 
-2.24724e+00 -2.22370e+00        00000 
-2.16918e+00 -2.19110e+00        00000 
-2.09245e+00 -2.15949e+00        00000 
-2.01699e+00 -2.12889e+00        00000 
-1.94279e+00 -2.09931e+00        00000 
-1.86978e+00 -2.07075e+00        00000 
-1.79795e+00 -2.04322e+00        00000 
-1.72723e+00 -2.01671e+00        00000 
-1.65759e+00 -1.99123e+00        00000 
-1.58898e+00 -1.96676e+00        00000 
-1.52136e+00 -1.94332e+00        00000 
-1.45466e+00 -1.92088e+00        00000 
-1.38887e+00 -1.89946e+00        00000 
-1.32392e+00 -1.87902e+00        00000 
-1.25978e+00 -1.85958e+00        00000 
-1.19639e+00 -1.84111e+00        00000 
-1.13373e+00 -1.82361e+00        00000 
-1.07173e+00 -1.80706e+00        00000 
-1.01037e+00 -1.79146e+00        00000 
-9.49597e-01 -1.77680e+00        00000 
-8.89386e-01 -1.76306e+00        00000 
-8.29677e-01 -1.75024e+00        00000 
-7.70456e-01 -1.73832e+00        00000 
-7.11663e-01 -1.72730e+00        00000 
-6.53285e-01 -1.71716e+00        00000 
-5.95264e-01 -1.70790e+00        00000 
-5.37588e-01 -1.69951e+00        00000 
-4.80201e-01 -1.69198e+00        00000 
-4.23092e-01 -1.68531e+00        00000 
-3.66206e-01 -1.67948e+00        00000 
-3.09532e-01 -1.67450e+00        00000 
-2.53018e-01 -1.67035e+00        00000 
-1.96654e-01 -1.66704e+00        00000 
-1.40385e-01 -1.66456e+00        00000 
-8.42051e-02 -1.66290e+00        00000 
-2.80596e-02 -1.66208e+00        00000 
 2.80596e-02 -1.66208e+00        00000 
 8.42051e-02 -1.66290e+00        00000 
 1.40385e-01 -1.66456e+00        00000 
 1.96654e-01 -1.66704e+00        00000 
 2.53018e-01 -1.67035e+00        00000 
 3.09532e-01 -1.67450e+00        00000 
 3.66206e-01 -1.67948e+00        00000 
 4.23092e-01 -1.68531e+00        00000 
 4.80201e-01 -1.69198e+00        00000 
 5.37588e-01 -1.69951e+00        00000 
 5.95264e-01 -1.70790e+00        00000 
 6.53285e-01 -1.71716e+00        00000 
 7.11663e-01 -1.72730e+00        00000 
 7.70456e-01 -1.73832e+00        00000 
 8.29677e-01 -1.75024e+00        00000 
 8.89386e-01 -1.76306e+00        00000 
 9.49597e-01 -1.77680e+00        00000 
 1.01037e+00 -1.79146e+00        00000 
 1.07173e+00 -1.80706e+00        00000 
 1.13373e+00 -1.82361e+00        00000 
 1.19639e+00 -1.84111e+00        00000 
 1.25978e+00 -1.85958e+00        00000 
 1.32392e+00 -1.87902e+00        00000 
 1.38887e+00 -1.89946e+00        00000 
 1.45466e+00 -1.92088e+00        00000 
 1.52136e+00 -1.94332e+00        00000 
 1.58898e+00 -1.96676e+00        00000 
 1.65759e+00 -1.99123e+00        00000 
 1.72723e+00 -2.01671e+00        00000 
 1.79795e+00 -2.04322e+00        00000 
 1.86978e+00 -2.07075e+00        00000 
 1.94279e+00 -2.09931e+00        00000 
 2.01699e+00 -2.12889e+00        00000 
 2.09245e+00 -2.15949e+00        00000 
 2.16918e+00 -2.19110e+00        00000 
 2.24724e+00 -2.22370e+00        00000 
 2.32664e+00 -2.25729e+00        00000 
 2.40743e+00 -2.29185e+00        00000 
 2.48960e+00 -2.32736e+00        00000 
 2.57320e+00 -2.36381e+00        00000 
 2.65820e+00 -2.40116e+00        00000 
 2.74464e+00 -2.43941e+00        00000 
 2.83249e+00 -2.47853e+00        00000 
 2.92176e+00 -2.51850e+00        00000 
 3.01240e+00 -2.55929e+00        00000 
 3.10442e+00 -2.60091e+00        00000 
 3.19775e+00 -2.64331e+00        00000 
 3.29239e+00 -2.68650e+00        00000 
 3.38827e+00 -2.73046e+00        00000 
 3.48536e+00 -2.77521e+00        00000 
-3.68456e+00 -2.97401e+00        00000 
-3.58398e+00 -2.92970e+00        00000 
-3.48463e+00 -2.88619e+00        00000 
-3.38650e+00 -2.84346e+00        00000 
-3.28966e+00 -2.80152e+00        00000 
-3.19410e+00 -2.76038e+00        00000 
-3.09988e+00 -2.72006e+00        00000 
-3.00700e+00 -2.68055e+00        00000 
-2.91548e+00 -2.64188e+00        00000 
-2.82532e+00 -2.60406e+00        00000 
-2.73654e+00 -2.56712e+00        00000 
-2.64911e+00 -2.53106e+00        00000 
-2.56305e+00 -2.49590e+00        00000 
-2.47832e+00 -2.46166e+00        00000 
-2.39494e+00 -2.42836e+00        00000 
-2.31284e+00 -2.39600e+00        00000 
-2.23203e+00 -2.36460e+00        00000 
-2.15246e+00 -2.33417e+00        00000 
-2.07411e+00 -2.30472e+00        00000 
-1.99693e+00 -2.27625e+00        00000 
-1.92090e+00 -2.24878e+00        00000 
-1.84596e+00 -2.22229e+00        00000 
-1.77209e+00 -2.19680e+00        00000 
-1.69923e+00 -2.17229e+00        00000 
-1.62736e+00 -2.14879e+00        00000 
-1.55642e+00 -2.12626e+00        00000 
-1.48638e+00 -2.10472e+00        00000 
-1.41717e+00 -2.08415e+00        00000 
-1.34879e+00 -2.06456e+00        00000 
-1.28116e+00 -2.04593e+00        00000 
-1.21426e+00 -2.02827e+00        00000 
-1.14804e+00 -2.01154e+00        00000 
-1.08247e+00 -1.99576e+00        00000 
-1.01750e+00 -1.98091e+00        00000 
-9.53094e-01 -1.96699e+00        00000 
-8.89206e-01 -1.95398e+00        00000 
-8.25819e-01 -1.94189e+00        00000 
-7.62871e-01 -1.93069e+00        00000 
-7.00350e-01 -1.92038e+00        00000 
-6.38196e-01 -1.91096e+00        00000 
-5.76398e-01 -1.90243e+00        00000 
-5.14897e-01 -1.89476e+00        00000 
-4.53685e-01 -1.88796e+00        00000 
-3.92702e-01 -1.88202e+00        00000 
-3.31941e-01 -1.87694e+00        00000 
-2.71343e-01 -1.87271e+00        00000 
-2.10901e-01 -1.86933e+00        00000 
-1.50559e-01 -1.86680e+00        00000 
-9.03086e-02 -1.86511e+00        00000 
-3.00936e-02 -1.86427e+00        00000 
 3.00936e-02 -1.86427e+00        00000 
 9.03086e-02 -1.86511e+00        00000 
 1.50559e-01 -1.86680e+00        00000 
 2.10901e-01 -1.86933e+00        00000 
 2.71343e-01 -1.87271e+00        00000 
 3.31941e-01 -1.87694e+00        00000 
 3.92702e-01 -1.88202e+00        00000 
 4.53685e-01 -1.88796e+00        00000 
 5.14897e-01 -1.89476e+00        00000 
 5.76398e-01 -1.90243e+00        00000 
 6.38196e-01 -1.91096e+00        00000 
 7.00350e-01 -1.92038e+00        00000 
 7.62871e-01 -1.93069e+00        00000 
 8.25819e-01 -1.94189e+00        00000 
 8.89206e-01 -1.95398e+00        00000 
 9.53094e-01 -1.96699e+00        00000 
 1.01750e+00 -1.98091e+00        00000 
 1.08247e+00 -1.99576e+00        00000 
 1.14804e+00 -2.01154e+00        00000 
 1.21426e+00 -2.02827e+00        00000 
 1.28116e+00 -2.04593e+00        00000 
 1.34879e+00 -2.06456e+00        00000 
 1.41717e+00 -2.08415e+00        00000 
 1.48638e+00 -2.10472e+00        00000 
 1.55642e+00 -2.12626e+00        00000 
 1.62736e+00 -2.14879e+00        00000 
 1.69923e+00 -2.17229e+00        00000 
 1.77209e+00 -2.19680e+00        00000 
 1.84596e+00 -2.22229e+00        00000 
 1.92090e+00 -2.24878e+00        00000 
 1.99693e+00 -2.27625e+00        00000 
 2.07411e+00 -2.30472e+00        00000 
 2.15246e+00 -2.33417e+00        00000 
 2.23203e+00 -2.36460e+00        00000 
 2.31284e+00 -2.39600e+00        00000 
 2.39494e+00 -2.42836e+00        00000 
 2.47832e+00 -2.46166e+00        00000 
 2.56305e+00 -2.49590e+00        00000 
 2.64911e+00 -2.53106e+00        00000 
 2.73654e+00 -2.56712e+00        00000 
 2.82532e+00 -2.60406e+00        00000 
 2.91548e+00 -2.64188e+00        00000 
 3.00700e+00 -2.68055e+00        00000 
 3.09988e+00 -2.72006e+00        00000 
 3.19410e+00 -2.76038e+00        00000 
 3.28966e+00 -2.80152e+00        00000 
 3.38650e+00 -2.84346e+00        00000 
 3.48463e+00 -2.88619e+00        00000 
 3.58398e+00 -2.92970e+00        00000 
 3.68456e+00 -2.97401e+00        00000 
-3.88186e+00 -3.17988e+00        00000 
-3.77773e+00 -3.13600e+00        00000 
-3.67484e+00 -3.09294e+00        00000 
-3.57317e+00 -3.05067e+00        00000 
-3.47279e+00 -3.00920e+00        00000 
-3.37366e+00 -2.96853e+00        00000 
-3.27586e+00 -2.92867e+00        00000 
-3.17935e+00 -2.88962e+00        00000 
-3.08418e+00 -2.85141e+00        00000 
-2.99031e+00 -2.81403e+00        00000 
-2.89779e+00 -2.77751e+00        00000 
-2.80658e+00 -2.74184e+00        00000 
-2.71669e+00 -2.70707e+00        00000 
-2.62809e+00 -2.67318e+00        00000 
-2.54079e+00 -2.64020e+00        00000 
-2.45473e+00 -2.60813e+00        00000 
-2.36993e+00 -2.57699e+00        00000 
-2.28633e+00 -2.54678e+00        00000 
-2.20393e+00 -2.51753e+00        00000 
-2.12266e+00 -2.48922e+00        00000 
-2.04252e+00 -2.46188e+00        00000 
-1.96346e+00 -2.43549e+00        00000 
-1.88545e+00 -2.41007e+00        00000 
-1.80843e+00 -2.38561e+00        00000 
-1.73240e+00 -2.36212e+00        00000 
-1.65728e+00 -2.33959e+00        00000 
-1.58306e+00 -2.31802e+00        00000 
-1.50968e+00 -2.29741e+00        00000 
-1.43712e+00 -2.27776e+00        00000 
-1.36531e+00 -2.25905e+00        00000 
-1.29424e+00 -2.24129e+00        00000 
-1.22385e+00 -2.22447e+00        00000 
-1.15412e+00 -2.20858e+00        00000 
-1.08499e+00 -2.19362e+00        00000 
-1.01645e+00 -2.17958e+00        00000 
-9.48419e-01 -2.16645e+00        00000 
-8.80902e-01 -2.15424e+00        00000 
-8.13832e-01 -2.14292e+00        00000 
-7.47198e-01 -2.13250e+00        00000 
-6.80939e-01 -2.12297e+00        00000 
-6.15044e-01 -2.11433e+00        00000 
-5.49454e-01 -2.10657e+00        00000 
-4.84159e-01 -2.09968e+00        00000 
-4.19099e-01 -2.09366e+00        00000 
-3.54267e-01 -2.08851e+00        00000 
-2.89603e-01 -2.08422e+00        00000 
-2.25100e-01 -2.08080e+00        00000 
-1.60698e-01 -2.07823e+00        00000 
-9.63915e-02 -2.07652e+00        00000 
-3.21208e-02 -2.07566e+00        00000 
 3.21208e-02 -2.07566e+00        00000 
 9.63915e-02 -2.07652e+00        00000 
 1.60698e-01 -2.07823e+00        00000 
 2.25100e-01 -2.08080e+00        00000 
 2.89603e-01 -2.08422e+00        00000 
 3.54267e-01 -2.08851e+00        00000 
 4.19099e-01 -2.09366e+00        00000 
 4.84159e-01 -2.09968e+00        00000 
 5.49454e-01 -2.10657e+00        00000 
 6.15044e-01 -2.11433e+00        00000 
 6.80939e-01 -2.12297e+00        00000 
 7.47198e-01 -2.13250e+00        00000 
 8.13832e-01 -2.14292e+00        00000 
 8.80902e-01 -2.15424e+00        00000 
 9.48419e-01 -2.16645e+00        00000 
 1.01645e+00 -2.17958e+00        00000 
 1.08499e+00 -2.19362e+00        00000 
 1.15412e+00 -2.20858e+00        00000 
 1.22385e+00 -2.22447e+00        00000 
 1.29424e+00 -2.24129e+00        00000 
 1.36531e+00 -2.25905e+00        00000 
 1.43712e+00 -2.27776e+00        00000 
 1.50968e+00 -2.29741e+00        00000 
 1.58306e+00 -2.31802e+00        00000 
 1.65728e+00 -2.33959e+00        00000 
 1.73240e+00 -2.36212e+00        00000 
 1.80843e+00 -2.38561e+00        00000 
 1.88545e+00 -2.41007e+00        00000 
 1.96346e+00 -2.43549e+00        00000 
 2.04252e+00 -2.46188e+00        00000 
 2.12266e+00 -2.48922e+00        00000 
 2.20393e+00 -2.51753e+00        00000 
 2.28633e+00 -2.54678e+00        00000 
 2.36993e+00 -2.57699e+00        00000 
 2.45473e+00 -2.60813e+00        00000 
 2.54079e+00 -2.64020e+00        00000 
 2.62809e+00 -2.67318e+00        00000 
 2.71669e+00 -2.70707e+00        00000 
 2.80658e+00 -2.74184e+00        00000 
 2.89779e+00 -2.77751e+00        00000 
 2.99031e+00 -2.81403e+00        00000 
 3.08418e+00 -2.85141e+00        00000 
 3.17935e+00 -2.88962e+00        00000 
 3.27586e+00 -2.92867e+00        00000 
 3.37366e+00 -2.96853e+00        00000 
 3.47279e+00 -3.00920e+00        00000 
 3.57317e+00 -3.05067e+00        00000 
 3.67484e+00 -3.09294e+00        00000 
 3.77773e+00 -3.13600e+00        00000 
 3.88186e+00 -3.17988e+00        00000 
-4.07721e+00 -3.39290e+00        00000 
-3.96949e+00 -3.34948e+00        00000 
-3.86303e+00 -3.30687e+00        00000 
-3.75779e+00 -3.26506e+00        00000 
-3.65383e+00 -3.22405e+00        00000 
-3.55112e+00 -3.18385e+00        00000 
-3.44972e+00 -3.14445e+00        00000 
-3.34958e+00 -3.10587e+00        00000 
-3.25076e+00 -3.06811e+00        00000 
-3.15322e+00 -3.03117e+00        00000 
-3.05699e+00 -2.99507e+00        00000 
-2.96202e+00 -2.95982e+00        00000 
-2.86836e+00 -2.92544e+00        00000 
-2.77593e+00 -2.89192e+00        00000 
-2.68478e+00 -2.85929e+00        00000 
-2.59483e+00 -2.82755e+00        00000 
-2.50612e+00 -2.79671e+00        00000 
-2.41856e+00 -2.76677e+00        00000 
-2.33218e+00 -2.73776e+00        00000 
-2.24691e+00 -2.70967e+00        00000 
-2.16275e+00 -2.68251e+00        00000 
-2.07964e+00 -2.65628e+00        00000 
-1.99757e+00 -2.63100e+00        00000 
-1.91648e+00 -2.60664e+00        00000 
-1.83636e+00 -2.58324e+00        00000 
-1.75714e+00 -2.56077e+00        00000 
-1.67882e+00 -2.53925e+00        00000 
-1.60133e+00 -2.51866e+00        00000 
-1.52466e+00 -2.49901e+00        00000 
-1.44874e+00 -2.48030e+00        00000 
-1.37356e+00 -2.46252e+00        00000 
-1.29906e+00 -2.44566e+00        00000 
-1.22522e+00 -2.42973e+00        00000 
-1.15199e+00 -2.41472e+00        00000 
-1.07934e+00 -2.40062e+00        00000 
-1.00722e+00 -2.38743e+00        00000 
-9.35615e-01 -2.37515e+00        00000 
-8.64462e-01 -2.36377e+00        00000 
-7.93751e-01 -2.35328e+00        00000 
-7.23420e-01 -2.34369e+00        00000 
-6.53461e-01 -2.33498e+00        00000 
-5.83810e-01 -2.32716e+00        00000 
-5.14461e-01 -2.32021e+00        00000 
-4.45350e-01 -2.31414e+00        00000 
-3.76473e-01 -2.30895e+00        00000 
-3.07766e-01 -2.30462e+00        00000 
-2.39223e-01 -2.30117e+00        00000 
-1.70785e-01 -2.29857e+00        00000 
-1.02443e-01 -2.29685e+00        00000 
-3.41375e-02 -2.29598e+00        00000 
 3.41375e-02 -2.29598e+00        00000 
 1.02443e-01 -2.29685e+00        00000 
 1.70785e-01 -2.29857e+00        00000 
 2.39223e-01 -2.30117e+00        00000 
 3.07766e-01 -2.30462e+00        00000 
 3.76473e-01 -2.30895e+00        00000 
 4.45350e-01 -2.31414e+00        00000 
 5.14461e-01 -2.32021e+00        00000 
 5.83810e-01 -2.32716e+00        00000 
 6.53461e-01 -2.33498e+00        00000 
 7.23420e-01 -2.34369e+00        00000 
 7.93751e-01 -2.35328e+00        00000 
 8.64462e-01 -2.36377e+00        00000 
 9.35615e-01 -2.37515e+00        00000 
 1.00722e+00 -2.38743e+00        00000 
 1.07934e+00 -2.40062e+00        00000 
 1.15199e+00 -2.41472e+00        00000 
 1.22522e+00 -2.42973e+00        00000 
 1.29906e+00 -2.44566e+00        00000 
 1.37356e+00 -2.46252e+00        00000 
 1.44874e+00 -2.48030e+00        00000 
 1.52466e+00 -2.49901e+00        00000 
 1.60133e+00 -2.51866e+00        00000 
 1.67882e+00 -2.53925e+00        00000 
 1.75714e+00 -2.56077e+00        00000 
 1.83636e+00 -2.58324e+00        00000 
 1.91648e+00 -2.60664e+00        00000 
 1.99757e+00 -2.63100e+00        00000 
 2.07964e+00 -2.65628e+00        00000 
 2.16275e+00 -2.68251e+00        00000 
 2.24691e+00 -2.70967e+00        00000 
 2.33218e+00 -2.73776e+00        00000 
 2.41856e+00 -2.76677e+00        00000 
 2.50612e+00 -2.79671e+00        00000 
 2.59483e+00 -2.82755e+00        00000 
 2.68478e+00 -2.85929e+00        00000 
 2.77593e+00 -2.89192e+00        00000 
 2.86836e+00 -2.92544e+00        00000 
 2.96202e+00 -2.95982e+00        00000 
 3.05699e+00 -2.99507e+00        00000 
 3.15322e+00 -3.03117e+00        00000 
 3.25076e+00 -3.06811e+00        00000 
 3.34958e+00 -3.10587e+00        00000 
 3.44972e+00 -3.14445e+00        00000 
 3.55112e+00 -3.18385e+00        00000 
 3.65383e+00 -3.22405e+00        00000 
 3.75779e+00 -3.26506e+00        00000 
 3.86303e+00 -3.30687e+00        00000 
 3.96949e+00 -3.34948e+00        00000 
 4.07721e+00 -3.39290e+00        00000 
-4.27058e+00 -3.61317e+00        00000 
-4.15924e+00 -3.57019e+00        00000 
-4.04918e+00 -3.52804e+00        00000 
-3.94034e+00 -3.48669e+00        00000 
-3.83279e+00 -3.44615e+00        00000 
-3.72649e+00 -3.40641e+00        00000 
-3.62149e+00 -3.36748e+00        00000 
-3.51773e+00 -3.32935e+00        00000 
-3.41527e+00 -3.29205e+00        00000 
-3.31407e+00 -3.25555e+00        00000 
-3.21415e+00 -3.21990e+00        00000 
-3.11547e+00 -3.18507e+00        00000 
-3.01806e+00 -3.15109e+00        00000 
-2.92187e+00 -3.11796e+00        00000 
-2.82691e+00 -3.08570e+00        00000 
-2.73314e+00 -3.05430e+00        00000 
-2.64057e+00 -3.02379e+00        00000 
-2.54913e+00 -2.99415e+00        00000 
-2.45884e+00 -2.96542e+00        00000 
-2.36964e+00 -2.93758e+00        00000 
-2.28153e+00 -2.91066e+00        00000 
-2.19444e+00 -2.88464e+00        00000 
-2.10839e+00 -2.85953e+00        00000 
-2.02329e+00 -2.83534e+00        00000 
-1.93916e+00 -2.81208e+00        00000 
-1.85591e+00 -2.78973e+00        00000 
-1.77356e+00 -2.76830e+00        00000 
-1.69203e+00 -2.74780e+00        00000 
-1.61131e+00 -2.72821e+00        00000 
-1.53134e+00 -2.70955e+00        00000 
-1.45212e+00 -2.69180e+00        00000 
-1.37356e+00 -2.67496e+00        00000 
-1.29568e+00 -2.65905e+00        00000 
-1.21839e+00 -2.64403e+00        00000 
-1.14170e+00 -2.62993e+00        00000 
-1.06553e+00 -2.61673e+00        00000 
-9.89881e-01 -2.60443e+00        00000 
-9.14687e-01 -2.59302e+00        00000 
-8.39942e-01 -2.58251e+00        00000 
-7.65578e-01 -2.57289e+00        00000 
-6.91590e-01 -2.56415e+00        00000 
-6.17914e-01 -2.55630e+00        00000 
-5.44543e-01 -2.54933e+00        00000 
-4.71415e-01 -2.54323e+00        00000 
-3.98522e-01 -2.53801e+00        00000 
-3.25802e-01 -2.53367e+00        00000 
-2.53250e-01 -2.53019e+00        00000 
-1.80802e-01 -2.52759e+00        00000 
-1.08453e-01 -2.52585e+00        00000 
-3.61405e-02 -2.52498e+00        00000 
 3.61405e-02 -2.52498e+00        00000 
 1.08453e-01 -2.52585e+00        00000 
 1.80802e-01 -2.52759e+00        00000 
 2.53250e-01 -2.53019e+00        00000 
 3.25802e-01 -2.53367e+00        00000 
 3.98522e-01 -2.53801e+00        00000 
 4.71415e-01 -2.54323e+00        00000 
 5.44543e-01 -2.54933e+00        00000 
 6.17914e-01 -2.55630e+00        00000 
 6.91590e-01 -2.56415e+00        00000 
 7.65578e-01 -2.57289e+00        00000 
 8.39942e-01 -2.58251e+00        00000 
 9.14687e-01 -2.59302e+00        00000 
 9.89881e-01 -2.60443e+00        00000 
 1.06553e+00 -2.61673e+00        00000 
 1.14170e+00 -2.62993e+00        00000 
 1.21839e+00 -2.64403e+00        00000 
 1.29568e+00 -2.65905e+00        00000 
 1.37356e+00 -2.67496e+00        00000 
 1.45212e+00 -2.69180e+00        00000 
 1.53134e+00 -2.70955e+00        00000 
 1.61131e+00 -2.72821e+00        00000 
 1.69203e+00 -2.74780e+00        00000 
 1.77356e+00 -2.76830e+00        00000 
 1.85591e+00 -2.78973e+00        00000 
 1.93916e+00 -2.81208e+00        00000 
 2.02329e+00 -2.83534e+00        00000 
 2.10839e+00 -2.85953e+00        00000 
 2.19444e+00 -2.88464e+00        00000 
 2.28153e+00 -2.91066e+00        00000 
 2.36964e+00 -2.93758e+00        00000 
 2.45884e+00 -2.96542e+00        00000 
 2.54913e+00 -2.99415e+00        00000 
 2.64057e+00 -3.02379e+00        00000 
 2.73314e+00 -3.05430e+00        00000 
 2.82691e+00 -3.08570e+00        00000 
 2.92187e+00 -3.11796e+00        00000 
 3.01806e+00 -3.15109e+00        00000 
 3.11547e+00 -3.18507e+00        00000 
 3.21415e+00 -3.21990e+00        00000 
 3.31407e+00 -3.25555e+00        00000 
 3.41527e+00 -3.29205e+00        00000 
 3.51773e+00 -3.32935e+00        00000 
 3.62149e+00 -3.36748e+00        00000 
 3.72649e+00 -3.40641e+00        00000 
 3.83279e+00 -3.44615e+00        00000 
 3.94034e+00 -3.48669e+00        00000 
 4.04918e+00 -3.52804e+00        00000 
 4.15924e+00 -3.57019e+00        00000 
 4.27058e+00 -3.61317e+00        00000 
-4.46192e+00 -3.84070e+00        00000 
-4.34696e+00 -3.79819e+00        00000 
-4.23328e+00 -3.75650e+00        00000 
-4.12084e+00 -3.71562e+00        00000 
-4.00969e+00 -3.67554e+00        00000 
-3.89979e+00 -3.63627e+00        00000 
-3.79118e+00 -3.59780e+00        00000 
-3.68382e+00 -3.56013e+00        00000 
-3.57773e+00 -3.52328e+00        00000 
-3.47289e+00 -3.48723e+00        00000 
-3.36931e+00 -3.45201e+00        00000 
-3.26694e+00 -3.41761e+00        00000 
-3.16583e+00 -3.38405e+00        00000 
-3.06591e+00 -3.35131e+00        00000 
-2.96720e+00 -3.31944e+00        00000 
-2.86965e+00 -3.28840e+00        00000 
-2.77327e+00 -3.25824e+00        00000 
-2.67801e+00 -3.22893e+00        00000 
-2.58388e+00 -3.20051e+00        00000 
-2.49081e+00 -3.17295e+00        00000 
-2.39881e+00 -3.14629e+00        00000 
-2.30783e+00 -3.12051e+00        00000 
-2.21785e+00 -3.09563e+00        00000 
-2.12882e+00 -3.07165e+00        00000 
-2.04074e+00 -3.04856e+00        00000 
-1.95354e+00 -3.02638e+00        00000 
-1.86722e+00 -3.00510e+00        00000 
-1.78171e+00 -2.98472e+00        00000 
-1.69702e+00 -2.96524e+00        00000 
-1.61306e+00 -2.94667e+00        00000 
-1.52984e+00 -2.92901e+00        00000 
-1.44729e+00 -2.91224e+00        00000 
-1.36541e+00 -2.89638e+00        00000 
-1.28413e+00 -2.88141e+00        00000 
-1.20344e+00 -2.86734e+00        00000 
-1.12328e+00 -2.85417e+00        00000 
-1.04364e+00 -2.84188e+00        00000 
-9.64449e-01 -2.83049e+00        00000 
-8.85712e-01 -2.81999e+00        00000 
-8.07358e-01 -2.81037e+00        00000 
-7.29383e-01 -2.80164e+00        00000 
-6.51721e-01 -2.79378e+00        00000 
-5.74368e-01 -2.78680e+00        00000 
-4.97257e-01 -2.78070e+00        00000 
-4.20386e-01 -2.77548e+00        00000 
-3.43688e-01 -2.77113e+00        00000 
-2.67160e-01 -2.76765e+00        00000 
-1.90736e-01 -2.76504e+00        00000 
-1.14414e-01 -2.76330e+00        00000 
-3.81271e-02 -2.76243e+00        00000 
 3.81271e-02 -2.76243e+00        00000 
 1.14414e-01 -2.76330e+00        00000 
 1.90736e-01 -2.76504e+00        00000 
 2.67160e-01 -2.76765e+00        00000 
 3.43688e-01 -2.77113e+00        00000 
 4.20386e-01 -2.77548e+00        00000 
 4.97257e-01 -2.78070e+00        00000 
 5.74368e-01 -2.78680e+00        00000 
 6.51721e-01 -2.79378e+00        00000 
 7.29383e-01 -2.80164e+00        00000 
 8.07358e-01 -2.81037e+00        00000 
 8.85712e-01 -2.81999e+00        00000 
 9.64449e-01 -2.83049e+00        00000 
 1.04364e+00 -2.84188e+00        00000 
 1.12328e+00 -2.85417e+00        00000 
 1.20344e+00 -2.86734e+00        00000 
 1.28413e+00 -2.88141e+00        00000 
 1.36541e+00 -2.89638e+00        00000 
 1.44729e+00 -2.91224e+00        00000 
 1.52984e+00 -2.92901e+00        00000 
 1.61306e+00 -2.94667e+00        00000 
 1.69702e+00 -2.96524e+00        00000 
 1.78171e+00 -2.98472e+00        00000 
 1.86722e+00 -3.00510e+00        00000 
 1.95354e+00 -3.02638e+00        00000 
 2.04074e+00 -3.04856e+00        00000 
 2.12882e+00 -3.07165e+00        00000 
 2.21785e+00 -3.09563e+00        00000 
 2.30783e+00 -3.12051e+00        00000 
 2.39881e+00 -3.14629e+00        00000 
 2.49081e+00 -3.17295e+00        00000 
 2.58388e+00 -3.20051e+00        00000 
 2.67801e+00 -3.22893e+00        00000 
 2.77327e+00 -3.25824e+00        00000 
 2.86965e+00 -3.28840e+00        00000 
 2.96720e+00 -3.31944e+00        00000 
 3.06591e+00 -3.35131e+00        00000 
 3.16583e+00 -3.38405e+00        00000 
 3.26694e+00 -3.41761e+00        00000 
 3.36931e+00 -3.45201e+00        00000 
 3.47289e+00 -3.48723e+00        00000 
 3.57773e+00 -3.52328e+00        00000 
 3.68382e+00 -3.56013e+00        00000 
 3.79118e+00 -3.59780e+00        00000 
 3.89979e+00 -3.63627e+00        00000 
 4.00969e+00 -3.67554e+00        00000 
 4.12084e+00 -3.71562e+00        00000 
 4.23328e+00 -3.75650e+00        00000 
 4.34696e+00 -3.79819e+00        00000 
 4.46192e+00 -3.84070e+00        00000 
-4.65121e+00 -4.07552e+00        00000 
-4.53260e+00 -4.03348e+00        00000 
-4.41531e+00 -3.99227e+00        00000 
-4.29927e+00 -3.95185e+00        00000 
-4.18452e+00 -3.91224e+00        00000 
-4.07103e+00 -3.87343e+00        00000 
-3.95882e+00 -3.83543e+00        00000 
-3.84785e+00 -3.79822e+00        00000 
-3.73816e+00 -3.76182e+00        00000 
-3.62969e+00 -3.72622e+00        00000 
-3.52247e+00 -3.69144e+00        00000 
-3.41645e+00 -3.65747e+00        00000 
-3.31167e+00 -3.62433e+00        00000 
-3.20806e+00 -3.59200e+00        00000 
-3.10564e+00 -3.56052e+00        00000 
-3.00436e+00 -3.52986e+00        00000 
-2.90423e+00 -3.50006e+00        00000 
-2.80520e+00 -3.47110e+00        00000 
-2.70728e+00 -3.44300e+00        00000 
-2.61041e+00 -3.41576e+00        00000 
-2.51459e+00 -3.38938e+00        00000 
-2.41976e+00 -3.36388e+00        00000 
-2.32593e+00 -3.33925e+00        00000 
-2.23303e+00 -3.31550e+00        00000 
-2.14107e+00 -3.29263e+00        00000 
-2.04997e+00 -3.27064e+00        00000 
-1.95975e+00 -3.24954e+00        00000 
-1.87033e+00 -3.22932e+00        00000 
-1.78171e+00 -3.21000e+00        00000 
-1.69383e+00 -3.19156e+00        00000 
-1.60668e+00 -3.17401e+00        00000 
-1.52020e+00 -3.15735e+00        00000 
-1.43438e+00 -3.14158e+00        00000 
-1.34915e+00 -3.12669e+00        00000 
-1.26452e+00 -3.11270e+00        00000 
-1.18041e+00 -3.09958e+00        00000 
-1.09683e+00 -3.08736e+00        00000 
-1.01370e+00 -3.07601e+00        00000 
-9.31015e-01 -3.06554e+00        00000 
-8.48717e-01 -3.05595e+00        00000 
-7.66799e-01 -3.04725e+00        00000 
-6.85195e-01 -3.03941e+00        00000 
-6.03900e-01 -3.03245e+00        00000 
-5.22849e-01 -3.02637e+00        00000 
-4.42039e-01 -3.02115e+00        00000 
-3.61402e-01 -3.01681e+00        00000 
-2.80937e-01 -3.01334e+00        00000 
-2.00576e-01 -3.01073e+00        00000 
-1.20318e-01 -3.00900e+00        00000 
-4.00949e-02 -3.00813e+00        00000 
 4.00949e-02 -3.00813e+00        00000 
 1.20318e-01 -3.00900e+00        00000 
 2.00576e-01 -3.01073e+00        00000 
 2.80937e-01 -3.01334e+00        00000 
 3.61402e-01 -3.01681e+00        00000 
 4.42039e-01 -3.02115e+00        00000 
 5.22849e-01 -3.02637e+00        00000 
 6.03900e-01 -3.03245e+00        00000 
 6.85195e-01 -3.03941e+00        00000 
 7.66799e-01 -3.04725e+00        00000 
 8.48717e-01 -3.05595e+00        00000 
 9.31015e-01 -3.06554e+00        00000 
 1.01370e+00 -3.07601e+00        00000 
 1.09683e+00 -3.08736e+00        00000 
 1.18041e+00 -3.09958e+00        00000 
 1.26452e+00 -3.11270e+00        00000 
 1.34915e+00 -3.12669e+00        00000 
 1.43438e+00 -3.14158e+00        00000 
 1.52020e+00 -3.15735e+00        00000 
 1.60668e+00 -3.17401e+00        00000 
 1.69383e+00 -3.19156e+00        00000 
 1.78171e+00 -3.21000e+00        00000 
 1.87033e+00 -3.22932e+00        00000 
 1.95975e+00 -3.24954e+00        00000 
 2.04997e+00 -3.27064e+00        00000 
 2.14107e+00 -3.29263e+00        00000 
 2.23303e+00 -3.31550e+00        00000 
 2.32593e+00 -3.33925e+00        00000 
 2.41976e+00 -3.36388e+00        00000 
 2.51459e+00 -3.38938e+00        00000 
 2.61041e+00 -3.41576e+00        00000 
 2.70728e+00 -3.44300e+00        00000 
 2.80520e+00 -3.47110e+00        00000 
 2.90423e+00 -3.50006e+00        00000 
 3.00436e+00 -3.52986e+00        00000 
 3.10564e+00 -3.56052e+00        00000 
 3.20806e+00 -3.59200e+00        00000 
 3.31167e+00 -3.62433e+00        00000 
 3.41645e+00 -3.65747e+00        00000 
 3.52247e+00 -3.69144e+00        00000 
 3.62969e+00 -3.72622e+00        00000 
 3.73816e+00 -3.76182e+00        00000 
 3.84785e+00 -3.79822e+00        00000 
 3.95882e+00 -3.83543e+00        00000 
 4.07103e+00 -3.87343e+00        00000 
 4.18452e+00 -3.91224e+00        00000 
 4.29927e+00 -3.95185e+00        00000 
 4.41531e+00 -3.99227e+00        00000 
 4.53260e+00 -4.03348e+00        00000 
 4.65121e+00 -4.07552e+00        00000 
-4.83839e+00 -4.31763e+00        00000 
-4.71616e+00 -4.27607e+00        00000 
-4.59525e+00 -4.23533e+00        00000 
-4.47561e+00 -4.19538e+00        00000 
-4.35727e+00 -4.15625e+00        00000 
-4.24019e+00 -4.11790e+00        00000 
-4.12440e+00 -4.08036e+00        00000 
-4.00984e+00 -4.04362e+00        00000 
-3.89656e+00 -4.00767e+00        00000 
-3.78448e+00 -3.97253e+00        00000 
-3.67366e+00 -3.93819e+00        00000 
-3.56402e+00 -3.90465e+00        00000 
-3.45559e+00 -3.87193e+00        00000 
-3.34833e+00 -3.84002e+00        00000 
-3.24224e+00 -3.80893e+00        00000 
-3.13728e+00 -3.77866e+00        00000 
-3.03345e+00 -3.74923e+00        00000 
-2.93070e+00 -3.72063e+00        00000 
-2.82904e+00 -3.69287e+00        00000 
-2.72841e+00 -3.66595e+00        00000 
-2.62883e+00 -3.63989e+00        00000 
-2.53022e+00 -3.61468e+00        00000 
-2.43259e+00 -3.59033e+00        00000 
-2.33588e+00 -3.56683e+00        00000 
-2.24010e+00 -3.54421e+00        00000 
-2.14517e+00 -3.52244e+00        00000 
-2.05111e+00 -3.50155e+00        00000 
-1.95783e+00 -3.48153e+00        00000 
-1.86536e+00 -3.46238e+00        00000 
-1.77361e+00 -3.44411e+00        00000 
-1.68259e+00 -3.42671e+00        00000 
-1.59223e+00 -3.41018e+00        00000 
-1.50252e+00 -3.39453e+00        00000 
-1.41341e+00 -3.37976e+00        00000 
-1.32489e+00 -3.36586e+00        00000 
-1.23689e+00 -3.35284e+00        00000 
-1.14942e+00 -3.34069e+00        00000 
-1.06239e+00 -3.32941e+00        00000 
-9.75812e-01 -3.31901e+00        00000 
-8.89618e-01 -3.30947e+00        00000 
-8.03805e-01 -3.30081e+00        00000 
-7.18304e-01 -3.29302e+00        00000 
-6.33114e-01 -3.28609e+00        00000 
-5.48167e-01 -3.28004e+00        00000 
-4.63461e-01 -3.27485e+00        00000 
-3.78929e-01 -3.27052e+00        00000 
-2.94569e-01 -3.26707e+00        00000 
-2.10313e-01 -3.26447e+00        00000 
-1.26160e-01 -3.26275e+00        00000 
-4.20420e-02 -3.26188e+00        00000 
 4.20420e-02 -3.26188e+00        00000 
 1.26160e-01 -3.26275e+00        00000 
 2.10313e-01 -3.26447e+00        00000 
 2.94569e-01 -3.26707e+00        00000 
 3.78929e-01 -3.27052e+00        00000 
 4.63461e-01 -3.27485e+00        00000 
 5.48167e-01 -3.28004e+00        00000 
 6.33114e-01 -3.28609e+00        00000 
 7.18304e-01 -3.29302e+00        00000 
 8.03805e-01 -3.30081e+00        00000 
 8.89618e-01 -3.30947e+00        00000 
 9.75812e-01 -3.31901e+00        00000 
 1.06239e+00 -3.32941e+00        00000 
 1.14942e+00 -3.34069e+00        00000 
 1.23689e+00 -3.35284e+00        00000 
 1.32489e+00 -3.36586e+00        00000 
 1.41341e+00 -3.37976e+00        00000 
 1.50252e+00 -3.39453e+00        00000 
 1.59223e+00 -3.41018e+00        00000 
 1.68259e+00 -3.42671e+00        00000 
 1.77361e+00 -3.44411e+00        00000 
 1.86536e+00 -3.46238e+00        00000 
 1.95783e+00 -3.48153e+00        00000 
 2.05111e+00 -3.50155e+00        00000 
 2.14517e+00 -3.52244e+00        00000 
 2.24010e+00 -3.54421e+00        00000 
 2.33588e+00 -3.56683e+00        00000 
 2.43259e+00 -3.59033e+00        00000 
 2.53022e+00 -3.61468e+00        00000 
 2.62883e+00 -3.63989e+00        00000 
 2.72841e+00 -3.66595e+00        00000 
 2.82904e+00 -3.69287e+00        00000 
 2.93070e+00 -3.72063e+00        00000 
 3.03345e+00 -3.74923e+00        00000 
 3.13728e+00 -3.77866e+00        00000 
 3.24224e+00 -3.80893e+00        00000 
 3.34833e+00 -3.84002e+00        00000 
 3.45559e+00 -3.87193e+00        00000 
 3.56402e+00 -3.90465e+00        00000 
 3.67366e+00 -3.93819e+00        00000 
 3.78448e+00 -3.97253e+00        00000 
 3.89656e+00 -4.00767e+00        00000 
 4.00984e+00 -4.04362e+00        00000 
 4.12440e+00 -4.08036e+00        00000 
 4.24019e+00 -4.11790e+00        00000 
 4.35727e+00 -4.15625e+00        00000 
 4.47561e+00 -4.19538e+00        00000 
 4.59525e+00 -4.23533e+00        00000 
 4.71616e+00 -4.27607e+00        00000 
 4.83839e+00 -4.31763e+00        00000 
-5.02344e+00 -4.56701e+00        00000 
-4.89759e+00 -4.52593e+00        00000 
-4.77308e+00 -4.48567e+00        00000 
-4.64986e+00 -4.44620e+00        00000 
-4.52794e+00 -4.40754e+00        00000 
-4.40729e+00 -4.36966e+00        00000 
-4.28793e+00 -4.33259e+00        00000 
-4.16980e+00 -4.29630e+00        00000 
-4.05294e+00 -4.26082e+00        00000 
-3.93729e+00 -4.22612e+00        00000 
-3.82288e+00 -4.19222e+00        00000 
-3.70965e+00 -4.15912e+00        00000 
-3.59762e+00 -4.12683e+00        00000 
-3.48673e+00 -4.09533e+00        00000 
-3.37702e+00 -4.06465e+00        00000 
-3.26841e+00 -4.03477e+00        00000 
-3.16092e+00 -4.00572e+00        00000 
-3.05450e+00 -3.97749e+00        00000 
-2.94916e+00 -3.95008e+00        00000 
-2.84483e+00 -3.92351e+00        00000 
-2.74153e+00 -3.89777e+00        00000 
-2.63919e+00 -3.87286e+00        00000 
-2.53782e+00 -3.84881e+00        00000 
-2.43736e+00 -3.82559e+00        00000 
-2.33781e+00 -3.80322e+00        00000 
-2.23911e+00 -3.78171e+00        00000 
-2.14126e+00 -3.76105e+00        00000 
-2.04420e+00 -3.74124e+00        00000 
-1.94792e+00 -3.72230e+00        00000 
-1.85236e+00 -3.70421e+00        00000 
-1.75753e+00 -3.68698e+00        00000 
-1.66334e+00 -3.67062e+00        00000 
-1.56982e+00 -3.65511e+00        00000 
-1.47687e+00 -3.64047e+00        00000 
-1.38452e+00 -3.62670e+00        00000 
-1.29268e+00 -3.61379e+00        00000 
-1.20136e+00 -3.60174e+00        00000 
-1.11049e+00 -3.59055e+00        00000 
-1.02007e+00 -3.58023e+00        00000 
-9.30034e-01 -3.57077e+00        00000 
-8.40374e-01 -3.56217e+00        00000 
-7.51025e-01 -3.55444e+00        00000 
-6.61986e-01 -3.54756e+00        00000 
-5.73190e-01 -3.54155e+00        00000 
-4.84635e-01 -3.53640e+00        00000 
-3.96253e-01 -3.53210e+00        00000 
-3.08043e-01 -3.52867e+00        00000 
-2.19937e-01 -3.52609e+00        00000 
-1.31935e-01 -3.52437e+00        00000 
-4.39667e-02 -3.52351e+00        00000 
 4.39667e-02 -3.52351e+00        00000 
 1.31935e-01 -3.52437e+00        00000 
 2.19937e-01 -3.52609e+00        00000 
 3.08043e-01 -3.52867e+00        00000 
 3.96253e-01 -3.53210e+00        00000 
 4.84635e-01 -3.53640e+00        00000 
 5.73190e-01 -3.54155e+00        00000 
 6.61986e-01 -3.54756e+00        00000 
 7.51025e-01 -3.55444e+00        00000 
 8.40374e-01 -3.56217e+00        00000 
 9.30034e-01 -3.57077e+00        00000 
 1.02007e+00 -3.58023e+00        00000 
 1.11049e+00 -3.59055e+00        00000 
 1.20136e+00 -3.60174e+00        00000 
 1.29268e+00 -3.61379e+00        00000 
 1.38452e+00 -3.62670e+00        00000 
 1.47687e+00 -3.64047e+00        00000 
 1.56982e+00 -3.65511e+00        00000 
 1.66334e+00 -3.67062e+00        00000 
 1.75753e+00 -3.68698e+00        00000 
 1.85236e+00 -3.70421e+00        00000 
 1.94792e+00 -3.72230e+00        00000 
 2.04420e+00 -3.74124e+00        00000 
 2.14126e+00 -3.76105e+00        00000 
 2.23911e+00 -3.78171e+00        00000 
 2.33781e+00 -3.80322e+00        00000 
 2.43736e+00 -3.82559e+00        00000 
 2.53782e+00 -3.84881e+00        00000 
 2.63919e+00 -3.87286e+00        00000 
 2.74153e+00 -3.89777e+00        00000 
 2.84483e+00 -3.92351e+00        00000 
 2.94916e+00 -3.95008e+00        00000 
 3.05450e+00 -3.97749e+00        00000 
 3.16092e+00 -4.00572e+00        00000 
 3.26841e+00 -4.03477e+00        00000 
 3.37702e+00 -4.06465e+00        00000 
 3.48673e+00 -4.09533e+00        00000 
 3.59762e+00 -4.12683e+00        00000 
 3.70965e+00 -4.15912e+00        00000 
 3.82288e+00 -4.19222e+00        00000 
 3.93729e+00 -4.22612e+00        00000 
 4.05294e+00 -4.26082e+00        00000 
 4.16980e+00 -4.29630e+00        00000 
 4.28793e+00 -4.33259e+00        00000 
 4.40729e+00 -4.36966e+00        00000 
 4.52794e+00 -4.40754e+00        00000 
 4.64986e+00 -4.44620e+00        00000 
 4.77308e+00 -4.48567e+00        00000 
 4.89759e+00 -4.52593e+00        00000 
 5.02344e+00 -4.56701e+00        00000 
-5.20633e+00 -4.82362e+00        00000 
-5.07688e+00 -4.78303e+00        00000 
-4.94879e+00 -4.74325e+00        00000 
-4.82199e+00 -4.70426e+00        00000 
-4.69652e+00 -4.66608e+00        00000 
-4.57231e+00 -4.62868e+00        00000 
-4.44940e+00 -4.59207e+00        00000 
-4.32773e+00 -4.55625e+00        00000 
-4.20732e+00 -4.52122e+00        00000 
-4.08811e+00 -4.48697e+00        00000 
-3.97015e+00 -4.45352e+00        00000 
-3.85335e+00 -4.42085e+00        00000 
-3.73775e+00 -4.38898e+00        00000 
-3.62328e+00 -4.35791e+00        00000 
-3.50997e+00 -4.32763e+00        00000 
-3.39776e+00 -4.29816e+00        00000 
-3.28666e+00 -4.26949e+00        00000 
-3.17661e+00 -4.24163e+00        00000 
-3.06763e+00 -4.21459e+00        00000 
-2.95965e+00 -4.18836e+00        00000 
-2.85268e+00 -4.16296e+00        00000 
-2.74667e+00 -4.13837e+00        00000 
-2.64162e+00 -4.11462e+00        00000 
-2.53746e+00 -4.09169e+00        00000 
-2.43420e+00 -4.06961e+00        00000 
-2.33178e+00 -4.04835e+00        00000 
-2.23020e+00 -4.02794e+00        00000 
-2.12940e+00 -4.00837e+00        00000 
-2.02938e+00 -3.98964e+00        00000 
-1.93007e+00 -3.97176e+00        00000 
-1.83147e+00 -3.95473e+00        00000 
-1.73352e+00 -3.93854e+00        00000 
-1.63623e+00 -3.92321e+00        00000 
-1.53951e+00 -3.90872e+00        00000 
-1.44337e+00 -3.89509e+00        00000 
-1.34775e+00 -3.88231e+00        00000 
-1.25265e+00 -3.87038e+00        00000 
-1.15799e+00 -3.85930e+00        00000 
-1.06378e+00 -3.84908e+00        00000 
-9.69940e-01 -3.83971e+00        00000 
-8.76484e-01 -3.83119e+00        00000 
-7.83337e-01 -3.82352e+00        00000 
-6.90500e-01 -3.81671e+00        00000 
-5.97903e-01 -3.81075e+00        00000 
-5.05548e-01 -3.80564e+00        00000 
-4.13364e-01 -3.80138e+00        00000 
-3.21353e-01 -3.79797e+00        00000 
-2.29444e-01 -3.79542e+00        00000 
-1.37639e-01 -3.79372e+00        00000 
-4.58679e-02 -3.79287e+00        00000 
 4.58679e-02 -3.79287e+00        00000 
 1.37639e-01 -3.79372e+00        00000 
 2.29444e-01 -3.79542e+00        00000 
 3.21353e-01 -3.79797e+00        00000 
 4.13364e-01 -3.80138e+00        00000 
 5.05548e-01 -3.80564e+00        00000 
 5.97903e-01 -3.81075e+00        00000 
 6.90500e-01 -3.81671e+00        00000 
 7.83337e-01 -3.82352e+00        00000 
 8.76484e-01 -3.83119e+00        00000 
 9.69940e-01 -3.83971e+00        00000 
 1.06378e+00 -3.84908e+00        00000 
 1.15799e+00 -3.85930e+00        00000 
 1.25265e+00 -3.87038e+00        00000 
 1.34775e+00 -3.88231e+00        00000 
 1.44337e+00 -3.89509e+00        00000 
 1.53951e+00 -3.90872e+00        00000 
 1.63623e+00 -3.92321e+00        00000 
 1.73352e+00 -3.93854e+00        00000 
 1.83147e+00 -3.95473e+00        00000 
 1.93007e+00 -3.97176e+00        00000 
 2.02938e+00 -3.98964e+00        00000 
 2.12940e+00 -4.00837e+00        00000 
 2.23020e+00 -4.02794e+00        00000 
 2.33178e+00 -4.04835e+00        00000 
 2.43420e+00 -4.06961e+00        00000 
 2.53746e+00 -4.09169e+00        00000 
 2.64162e+00 -4.11462e+00        00000 
 2.74667e+00 -4.13837e+00        00000 
 2.85268e+00 -4.16296e+00        00000 
 2.95965e+00 -4.18836e+00        00000 
 3.06763e+00 -4.21459e+00        00000 
 3.17661e+00 -4.24163e+00        00000 
 3.28666e+00 -4.26949e+00        00000 
 3.39776e+00 -4.29816e+00        00000 
 3.50997e+00 -4.32763e+00        00000 
 3.62328e+00 -4.35791e+00        00000 
 3.73775e+00 -4.38898e+00        00000 
 3.85335e+00 -4.42085e+00        00000 
 3.97015e+00 -4.45352e+00        00000 
 4.08811e+00 -4.48697e+00        00000 
 4.20732e+00 -4.52122e+00        00000 
 4.32773e+00 -4.55625e+00        00000 
 4.44940e+00 -4.59207e+00        00000 
 4.57231e+00 -4.62868e+00        00000 
 4.69652e+00 -4.66608e+00        00000 
 4.82199e+00 -4.70426e+00        00000 
 4.94879e+00 -4.74325e+00        00000 
 5.07688e+00 -4.78303e+00        00000 
 5.20633e+00 -4.82362e+00        00000 
-5.38702e+00 -5.08742e+00        00000 
-5.25399e+00 -5.04733e+00        00000 
-5.12234e+00 -5.00804e+00        00000 
-4.99200e+00 -4.96953e+00        00000 
-4.86299e+00 -4.93183e+00        00000 
-4.73525e+00 -4.89490e+00        00000 
-4.60882e+00 -4.85877e+00        00000 
-4.48362e+00 -4.82341e+00        00000 
-4.35969e+00 -4.78883e+00        00000 
-4.23696e+00 -4.75504e+00        00000 
-4.11546e+00 -4.72203e+00        00000 
-3.99513e+00 -4.68980e+00        00000 
-3.87599e+00 -4.65836e+00        00000 
-3.75798e+00 -4.62770e+00        00000 
-3.64112e+00 -4.59784e+00        00000 
-3.52534e+00 -4.56876e+00        00000 
-3.41067e+00 -4.54049e+00        00000 
-3.29703e+00 -4.51301e+00        00000 
-3.18446e+00 -4.48633e+00        00000 
-3.07287e+00 -4.46046e+00        00000 
-2.96229e+00 -4.43540e+00        00000 
-2.85265e+00 -4.41114e+00        00000 
-2.74396e+00 -4.38770e+00        00000 
-2.63616e+00 -4.36508e+00        00000 
-2.52925e+00 -4.34328e+00        00000 
-2.42316e+00 -4.32230e+00        00000 
-2.31791e+00 -4.30215e+00        00000 
-2.21343e+00 -4.28283e+00        00000 
-2.10971e+00 -4.26434e+00        00000 
-2.00671e+00 -4.24668e+00        00000 
-1.90441e+00 -4.22985e+00        00000 
-1.80275e+00 -4.21386e+00        00000 
-1.70174e+00 -4.19871e+00        00000 
-1.60130e+00 -4.18439e+00        00000 
-1.50144e+00 -4.17091e+00        00000 
-1.40209e+00 -4.15827e+00        00000 
-1.30325e+00 -4.14648e+00        00000 
-1.20485e+00 -4.13552e+00        00000 
-1.10690e+00 -4.12541e+00        00000 
-1.00932e+00 -4.11614e+00        00000 
-9.12121e-01 -4.10771e+00        00000 
-8.15226e-01 -4.10013e+00        00000 
-7.18642e-01 -4.09338e+00        00000 
-6.22295e-01 -4.08748e+00        00000 
-5.26189e-01 -4.08243e+00        00000 
-4.30253e-01 -4.07821e+00        00000 
-3.34490e-01 -4.07484e+00        00000 
-2.38828e-01 -4.07231e+00        00000 
-1.43270e-01 -4.07063e+00        00000 
-4.77446e-02 -4.06978e+00        00000 
 4.77446e-02 -4.06978e+00        00000 
 1.43270e-01 -4.07063e+00        00000 
 2.38828e-01 -4.07231e+00        00000 
 3.34490e-01 -4.07484e+00        00000 
 4.30253e-01 -4.07821e+00        00000 
 5.26189e-01 -4.08243e+00        00000 
 6.22295e-01 -4.08748e+00        00000 
 7.18642e-01 -4.09338e+00        00000 
 8.15226e-01 -4.10013e+00        00000 
 9.12121e-01 -4.10771e+00        00000 
 1.00932e+00 -4.11614e+00        00000 
 1.10690e+00 -4.12541e+00        00000 
 1.20485e+00 -4.13552e+00        00000 
 1.30325e+00 -4.14648e+00        00000 
 1.40209e+00 -4.15827e+00        00000 
 1.50144e+00 -4.17091e+00        00000 
 1.60130e+00 -4.18439e+00        00000 
 1.70174e+00 -4.19871e+00        00000 
 1.80275e+00 -4.21386e+00        00000 
 1.90441e+00 -4.22985e+00        00000 
 2.00671e+00 -4.24668e+00        00000 
 2.10971e+00 -4.26434e+00        00000 
 2.21343e+00 -4.28283e+00        00000 
 2.31791e+00 -4.30215e+00        00000 
 2.42316e+00 -4.32230e+00        00000 
 2.52925e+00 -4.34328e+00        00000 
 2.63616e+00 -4.36508e+00        00000 
 2.74396e+00 -4.38770e+00        00000 
 2.85265e+00 -4.41114e+00        00000 
 2.96229e+00 -4.43540e+00        00000 
 3.07287e+00 -4.46046e+00        00000 
 3.18446e+00 -4.48633e+00        00000 
 3.29703e+00 -4.51301e+00        00000 
 3.41067e+00 -4.54049e+00        00000 
 3.52534e+00 -4.56876e+00        00000 
 3.64112e+00 -4.59784e+00        00000 
 3.75798e+00 -4.62770e+00        00000 
 3.87599e+00 -4.65836e+00        00000 
 3.99513e+00 -4.68980e+00        00000 
 4.11546e+00 -4.72203e+00        00000 
 4.23696e+00 -4.75504e+00        00000 
 4.35969e+00 -4.78883e+00        00000 
 4.48362e+00 -4.82341e+00        00000 
 4.60882e+00 -4.85877e+00        00000 
 4.73525e+00 -4.89490e+00        00000 
 4.86299e+00 -4.93183e+00        00000 
 4.99200e+00 -4.96953e+00        00000 
 5.12234e+00 -5.00804e+00        00000 
 5.25399e+00 -5.04733e+00        00000 
 5.38702e+00 -5.08742e+00        00000 
-5.56548e+00 -5.35836e+00        00000 
-5.42891e+00 -5.31876e+00        00000 
-5.29373e+00 -5.27997e+00        00000 
-5.15986e+00 -5.24195e+00        00000 
-5.02735e+00 -5.20473e+00        00000 
-4.89610e+00 -5.16828e+00        00000 
-4.76617e+00 -5.13262e+00        00000 
-4.63747e+00 -5.09772e+00        00000 
-4.51005e+00 -5.06361e+00        00000 
-4.38382e+00 -5.03026e+00        00000 
-4.25883e+00 -4.99770e+00        00000 
-4.13500e+00 -4.96591e+00        00000 
-4.01235e+00 -4.93490e+00        00000 
-3.89083e+00 -4.90466e+00        00000 
-3.77045e+00 -4.87521e+00        00000 
-3.65115e+00 -4.84654e+00        00000 
-3.53295e+00 -4.81865e+00        00000 
-3.41577e+00 -4.79155e+00        00000 
-3.29965e+00 -4.76525e+00        00000 
-3.18450e+00 -4.73973e+00        00000 
-3.07036e+00 -4.71502e+00        00000 
-2.95714e+00 -4.69110e+00        00000 
-2.84487e+00 -4.66798e+00        00000 
-2.73346e+00 -4.64567e+00        00000 
-2.62295e+00 -4.62417e+00        00000 
-2.51325e+00 -4.60348e+00        00000 
-2.40438e+00 -4.58360e+00        00000 
-2.29627e+00 -4.56453e+00        00000 
-2.18892e+00 -4.54628e+00        00000 
-2.08227e+00 -4.52885e+00        00000 
-1.97632e+00 -4.51225e+00        00000 
-1.87100e+00 -4.49646e+00        00000 
-1.76633e+00 -4.48150e+00        00000 
-1.66222e+00 -4.46736e+00        00000 
-1.55869e+00 -4.45406e+00        00000 
-1.45567e+00 -4.44157e+00        00000 
-1.35315e+00 -4.42992e+00        00000 
-1.25107e+00 -4.41910e+00        00000 
-1.14943e+00 -4.40911e+00        00000 
-1.04816e+00 -4.39995e+00        00000 
-9.47270e-01 -4.39162e+00        00000 
-8.46681e-01 -4.38413e+00        00000 
-7.46400e-01 -4.37746e+00        00000 
-6.46355e-01 -4.37163e+00        00000 
-5.46550e-01 -4.36663e+00        00000 
-4.46913e-01 -4.36246e+00        00000 
-3.47449e-01 -4.35913e+00        00000 
-2.48084e-01 -4.35663e+00        00000 
-1.48824e-01 -4.35496e+00        00000 
-4.95959e-02 -4.35413e+00        00000 
 4.95959e-02 -4.35413e+00        00000 
 1.48824e-01 -4.35496e+00        00000 
 2.48084e-01 -4.35663e+00        00000 
 3.47449e-01 -4.35913e+00        00000 
 4.46913e-01 -4.36246e+00        00000 
 5.46550e-01 -4.36663e+00        00000 
 6.46355e-01 -4.37163e+00        00000 
 7.46400e-01 -4.37746e+00        00000 
 8.46681e-01 -4.38413e+00        00000 
 9.47270e-01 -4.39162e+00        00000 
 1.04816e+00 -4.39995e+00        00000 
 1.14943e+00 -4.40911e+00        00000 
 1.25107e+00 -4.41910e+00        00000 
 1.35315e+00 -4.42992e+00        00000 
 1.45567e+00 -4.44157e+00        00000 
 1.55869e+00 -4.45406e+00        00000 
 1.66222e+00 -4.46736e+00        00000 
 1.76633e+00 -4.48150e+00        00000 
 1.87100e+00 -4.49646e+00        00000 
 1.97632e+00 -4.51225e+00        00000 
 2.08227e+00 -4.52885e+00        00000 
 2.18892e+00 -4.54628e+00        00000 
 2.29627e+00 -4.56453e+00        00000 
 2.40438e+00 -4.58360e+00        00000 
 2.51325e+00 -4.60348e+00        00000 
 2.62295e+00 -4.62417e+00        00000 
 2.73346e+00 -4.64567e+00        00000 
 2.84487e+00 -4.66798e+00        00000 
 2.95714e+00 -4.69110e+00        00000 
 3.07036e+00 -4.71502e+00        00000 
 3.18450e+00 -4.73973e+00        00000 
 3.29965e+00 -4.76525e+00        00000 
 3.41577e+00 -4.79155e+00        00000 
 3.53295e+00 -4.81865e+00        00000 
 3.65115e+00 -4.84654e+00        00000 
 3.77045e+00 -4.87521e+00        00000 
 3.89083e+00 -4.90466e+00        00000 
 4.01235e+00 -4.93490e+00        00000 
 4.13500e+00 -4.96591e+00        00000 
 4.25883e+00 -4.99770e+00        00000 
 4.38382e+00 -5.03026e+00        00000 
 4.51005e+00 -5.06361e+00        00000 
 4.63747e+00 -5.09772e+00        00000 
 4.76617e+00 -5.13262e+00        00000 
 4.89610e+00 -5.16828e+00        00000 
 5.02735e+00 -5.20473e+00        00000 
 5.15986e+00 -5.24195e+00        00000 
 5.29373e+00 -5.27997e+00        00000 
 5.42891e+00 -5.31876e+00        00000 
 5.56548e+00 -5.35836e+00        00000 
-5.74169e+00 -5.63636e+00        00000 
-5.60161e+00 -5.59728e+00        00000 
-5.46293e+00 -5.55898e+00        00000 
-5.32557e+00 -5.52146e+00        00000 
-5.18957e+00 -5.48472e+00        00000 
-5.05485e+00 -5.44875e+00        00000 
-4.92145e+00 -5.41356e+00        00000 
-4.78929e+00 -5.37913e+00        00000 
-4.65840e+00 -5.34548e+00        00000 
-4.52871e+00 -5.31258e+00        00000 
-4.40026e+00 -5.28047e+00        00000 
-4.27296e+00 -5.24911e+00        00000 
-4.14685e+00 -5.21853e+00        00000 
-4.02185e+00 -5.18872e+00        00000 
-3.89799e+00 -5.15968e+00        00000 
-3.77520e+00 -5.13141e+00        00000 
-3.65351e+00 -5.10392e+00        00000 
-3.53284e+00 -5.07720e+00        00000 
-3.41321e+00 -5.05127e+00        00000 
-3.29455e+00 -5.02612e+00        00000 
-3.17688e+00 -5.00175e+00        00000 
-3.06014e+00 -4.97817e+00        00000 
-2.94432e+00 -4.95538e+00        00000 
-2.82938e+00 -4.93339e+00        00000 
-2.71531e+00 -4.91219e+00        00000 
-2.60205e+00 -4.89178e+00        00000 
-2.48961e+00 -4.87218e+00        00000 
-2.37792e+00 -4.85338e+00        00000 
-2.26699e+00 -4.83539e+00        00000 
-2.15674e+00 -4.81820e+00        00000 
-2.04720e+00 -4.80182e+00        00000 
-1.93828e+00 -4.78625e+00        00000 
-1.83000e+00 -4.77149e+00        00000 
-1.72228e+00 -4.75754e+00        00000 
-1.61513e+00 -4.74441e+00        00000 
-1.50848e+00 -4.73210e+00        00000 
-1.40234e+00 -4.72060e+00        00000 
-1.29663e+00 -4.70992e+00        00000 
-1.19136e+00 -4.70006e+00        00000 
-1.08645e+00 -4.69101e+00        00000 
-9.81923e-01 -4.68279e+00        00000 
-8.77692e-01 -4.67539e+00        00000 
-7.73768e-01 -4.66881e+00        00000 
-6.70077e-01 -4.66305e+00        00000 
-5.66626e-01 -4.65812e+00        00000 
-4.63340e-01 -4.65400e+00        00000 
-3.60227e-01 -4.65071e+00        00000 
-2.57212e-01 -4.64824e+00        00000 
-1.54301e-01 -4.64660e+00        00000 
-5.14213e-02 -4.64577e+00        00000 
 5.14213e-02 -4.64577e+00        00000 
 1.54301e-01 -4.64660e+00        00000 
 2.57212e-01 -4.64824e+00        00000 
 3.60227e-01 -4.65071e+00        00000 
 4.63340e-01 -4.65400e+00        00000 
 5.66626e-01 -4.65812e+00        00000 
 6.70077e-01 -4.66305e+00        00000 
 7.73768e-01 -4.66881e+00        00000 
 8.77692e-01 -4.67539e+00        00000 
 9.81923e-01 -4.68279e+00        00000 
 1.08645e+00 -4.69101e+00        00000 
 1.19136e+00 -4.70006e+00        00000 
 1.29663e+00 -4.70992e+00        00000 
 1.40234e+00 -4.72060e+00        00000 
 1.50848e+00 -4.73210e+00        00000 
 1.61513e+00 -4.74441e+00        00000 
 1.72228e+00 -4.75754e+00        00000 
 1.83000e+00 -4.77149e+00        00000 
 1.93828e+00 -4.78625e+00        00000 
 2.04720e+00 -4.80182e+00        00000 
 2.15674e+00 -4.81820e+00        00000 
 2.26699e+00 -4.83539e+00        00000 
 2.37792e+00 -4.85338e+00        00000 
 2.48961e+00 -4.87218e+00        00000 
 2.60205e+00 -4.89178e+00        00000 
 2.71531e+00 -4.91219e+00        00000 
 2.82938e+00 -4.93339e+00        00000 
 2.94432e+00 -4.95538e+00        00000 
 3.06014e+00 -4.97817e+00        00000 
 3.17688e+00 -5.00175e+00        00000 
 3.29455e+00 -5.02612e+00        00000 
 3.41321e+00 -5.05127e+00        00000 
 3.53284e+00 -5.07720e+00        00000 
 3.65351e+00 -5.10392e+00        00000 
 3.77520e+00 -5.13141e+00        00000 
 3.89799e+00 -5.15968e+00        00000 
 4.02185e+00 -5.18872e+00        00000 
 4.14685e+00 -5.21853e+00        00000 
 4.27296e+00 -5.24911e+00        00000 
 4.40026e+00 -5.28047e+00        00000 
 4.52871e+00 -5.31258e+00        00000 
 4.65840e+00 -5.34548e+00        00000 
 4.78929e+00 -5.37913e+00        00000 
 4.92145e+00 -5.41356e+00        00000 
 5.05485e+00 -5.44875e+00        00000 
 5.18957e+00 -5.48472e+00        00000 
 5.32557e+00 -5.52146e+00        00000 
 5.46293e+00 -5.55898e+00        00000 
 5.60161e+00 -5.59728e+00        00000 
 5.74169e+00 -5.63636e+00        00000 
-5.91563e+00 -5.92138e+00        00000 
-5.77207e+00 -5.88280e+00        00000 
-5.62992e+00 -5.84501e+00        00000 
-5.48911e+00 -5.80798e+00        00000 
-5.34966e+00 -5.77173e+00        00000 
-5.21150e+00 -5.73624e+00        00000 
-5.07466e+00 -5.70153e+00        00000 
-4.93907e+00 -5.66756e+00        00000 
-4.80475e+00 -5.63437e+00        00000 
-4.67163e+00 -5.60193e+00        00000 
-4.53974e+00 -5.57026e+00        00000 
-4.40901e+00 -5.53934e+00        00000 
-4.27947e+00 -5.50919e+00        00000 
-4.15103e+00 -5.47980e+00        00000 
-4.02374e+00 -5.45117e+00        00000 
-3.89751e+00 -5.42330e+00        00000 
-3.77236e+00 -5.39621e+00        00000 
-3.64823e+00 -5.36988e+00        00000 
-3.52514e+00 -5.34432e+00        00000 
-3.40301e+00 -5.31953e+00        00000 
-3.28187e+00 -5.29552e+00        00000 
-3.16164e+00 -5.27228e+00        00000 
-3.04234e+00 -5.24982e+00        00000 
-2.92389e+00 -5.22814e+00        00000 
-2.80632e+00 -5.20725e+00        00000 
-2.68955e+00 -5.18714e+00        00000 
-2.57359e+00 -5.16783e+00        00000 
-2.45838e+00 -5.14929e+00        00000 
-2.34391e+00 -5.13156e+00        00000 
-2.23013e+00 -5.11461e+00        00000 
-2.11705e+00 -5.09847e+00        00000 
-2.00458e+00 -5.08312e+00        00000 
-1.89274e+00 -5.06857e+00        00000 
-1.78146e+00 -5.05482e+00        00000 
-1.67075e+00 -5.04187e+00        00000 
-1.56053e+00 -5.02973e+00        00000 
-1.45082e+00 -5.01839e+00        00000 
-1.34153e+00 -5.00786e+00        00000 
-1.23268e+00 -4.99813e+00        00000 
-1.12419e+00 -4.98921e+00        00000 
-1.01607e+00 -4.98110e+00        00000 
-9.08254e-01 -4.97380e+00        00000 
-8.00741e-01 -4.96731e+00        00000 
-6.93457e-01 -4.96163e+00        00000 
-5.86412e-01 -4.95676e+00        00000 
-4.79530e-01 -4.95270e+00        00000 
-3.72821e-01 -4.94945e+00        00000 
-2.66207e-01 -4.94702e+00        00000 
-1.59699e-01 -4.94539e+00        00000 
-5.32205e-02 -4.94458e+00        00000 
 5.32205e-02 -4.94458e+00        00000 
 1.59699e-01 -4.94539e+00        00000 
 2.66207e-01 -4.94702e+00        00000 
 3.72821e-01 -4.94945e+00        00000 
 4.79530e-01 -4.95270e+00        00000 
 5.86412e-01 -4.95676e+00        00000 
 6.93457e-01 -4.96163e+00        00000 
 8.00741e-01 -4.96731e+00        00000 
 9.08254e-01 -4.97380e+00        00000 
 1.01607e+00 -4.98110e+00        00000 
 1.12419e+00 -4.98921e+00        00000 
 1.23268e+00 -4.99813e+00        00000 
 1.34153e+00 -5.00786e+00        00000 
 1.45082e+00 -5.01839e+00        00000 
 1.56053e+00 -5.02973e+00        00000 
 1.67075e+00 -5.04187e+00        00000 
 1.78146e+00 -5.05482e+00        00000 
 1.89274e+00 -5.06857e+00        00000 
 2.00458e+00 -5.08312e+00        00000 
 2.11705e+00 -5.09847e+00        00000 
 2.23013e+00 -5.11461e+00        00000 
 2.34391e+00 -5.13156e+00        00000 
 2.45838e+00 -5.14929e+00        00000 
 2.57359e+00 -5.16783e+00        00000 
 2.68955e+00 -5.18714e+00        00000 
 2.80632e+00 -5.20725e+00        00000 
 2.92389e+00 -5.22814e+00        00000 
 3.04234e+00 -5.24982e+00        00000 
 3.16164e+00 -5.27228e+00        00000 
 3.28187e+00 -5.29552e+00        00000 
 3.40301e+00 -5.31953e+00        00000 
 3.52514e+00 -5.34432e+00        00000 
 3.64823e+00 -5.36988e+00        00000 
 3.77236e+00 -5.39621e+00        00000 
 3.89751e+00 -5.42330e+00        00000 
 4.02374e+00 -5.45117e+00        00000 
 4.15103e+00 -5.47980e+00        00000 
 4.27947e+00 -5.50919e+00        00000 
 4.40901e+00 -5.53934e+00        00000 
 4.53974e+00 -5.57026e+00        00000 
 4.67163e+00 -5.60193e+00        00000 
 4.80475e+00 -5.63437e+00        00000 
 4.93907e+00 -5.66756e+00        00000 
 5.07466e+00 -5.70153e+00        00000 
 5.21150e+00 -5.73624e+00        00000 
 5.34966e+00 -5.77173e+00        00000 
 5.48911e+00 -5.80798e+00        00000 
 5.62992e+00 -5.84501e+00        00000 
 5.77207e+00 -5.88280e+00        00000 
 5.91563e+00 -5.92138e+00        00000 
-6.08727e+00 -6.21332e+00        00000 
-5.94027e+00 -6.17526e+00        00000 
-5.79469e+00 -6.13797e+00        00000 
-5.65046e+00 -6.10145e+00        00000 
-5.50760e+00 -6.06569e+00        00000 
-5.36603e+00 -6.03068e+00        00000 
-5.22579e+00 -5.99644e+00        00000 
-5.08679e+00 -5.96295e+00        00000 
-4.94908e+00 -5.93021e+00        00000 
-4.81257e+00 -5.89823e+00        00000 
-4.67729e+00 -5.86700e+00        00000 
-4.54317e+00 -5.83652e+00        00000 
-4.41023e+00 -5.80680e+00        00000 
-4.27839e+00 -5.77783e+00        00000 
-4.14770e+00 -5.74962e+00        00000 
-4.01806e+00 -5.72215e+00        00000 
-3.88951e+00 -5.69545e+00        00000 
-3.76196e+00 -5.66950e+00        00000 
-3.63545e+00 -5.64432e+00        00000 
-3.50990e+00 -5.61990e+00        00000 
-3.38533e+00 -5.59624e+00        00000 
-3.26166e+00 -5.57334e+00        00000 
-3.13892e+00 -5.55122e+00        00000 
-3.01702e+00 -5.52986e+00        00000 
-2.89599e+00 -5.50928e+00        00000 
-2.77576e+00 -5.48947e+00        00000 
-2.65633e+00 -5.47044e+00        00000 
-2.53764e+00 -5.45218e+00        00000 
-2.41970e+00 -5.43471e+00        00000 
-2.30243e+00 -5.41801e+00        00000 
-2.18586e+00 -5.40210e+00        00000 
-2.06989e+00 -5.38698e+00        00000 
-1.95456e+00 -5.37264e+00        00000 
-1.83977e+00 -5.35909e+00        00000 
-1.72555e+00 -5.34634e+00        00000 
-1.61181e+00 -5.33437e+00        00000 
-1.49857e+00 -5.32319e+00        00000 
-1.38576e+00 -5.31281e+00        00000 
-1.27339e+00 -5.30323e+00        00000 
-1.16137e+00 -5.29444e+00        00000 
-1.04972e+00 -5.28644e+00        00000 
-9.38364e-01 -5.27925e+00        00000 
-8.27314e-01 -5.27285e+00        00000 
-7.16490e-01 -5.26725e+00        00000 
-6.05905e-01 -5.26245e+00        00000 
-4.95480e-01 -5.25845e+00        00000 
-3.85228e-01 -5.25525e+00        00000 
-2.75070e-01 -5.25284e+00        00000 
-1.65017e-01 -5.25124e+00        00000 
-5.49930e-02 -5.25044e+00        00000 
 5.49930e-02 -5.25044e+00        00000 
 1.65017e-01 -5.25124e+00        00000 
 2.75070e-01 -5.25284e+00        00000 
 3.85228e-01 -5.25525e+00        00000 
 4.95480e-01 -5.25845e+00        00000 
 6.05905e-01 -5.26245e+00        00000 
 7.16490e-01 -5.26725e+00        00000 
 8.27314e-01 -5.27285e+00        00000 
 9.38364e-01 -5.27925e+00        00000 
 1.04972e+00 -5.28644e+00        00000 
 1.16137e+00 -5.29444e+00        00000 
 1.27339e+00 -5.30323e+00        00000 
 1.38576e+00 -5.31281e+00        00000 
 1.49857e+00 -5.32319e+00        00000 
 1.61181e+00 -5.33437e+00        00000 
 1.72555e+00 -5.34634e+00        00000 
 1.83977e+00 -5.35909e+00        00000 
 1.95456e+00 -5.37264e+00        00000 
 2.06989e+00 -5.38698e+00        00000 
 2.18586e+00 -5.40210e+00        00000 
 2.30243e+00 -5.41801e+00        00000 
 2.41970e+00 -5.43471e+00        00000 
 2.53764e+00 -5.45218e+00        00000 
 2.65633e+00 -5.47044e+00        00000 
 2.77576e+00 -5.48947e+00        00000 
 2.89599e+00 -5.50928e+00        00000 
 3.01702e+00 -5.52986e+00        00000 
 3.13892e+00 -5.55122e+00        00000 
 3.26166e+00 -5.57334e+00        00000 
 3.38533e+00 -5.59624e+00        00000 
 3.50990e+00 -5.61990e+00        00000 
 3.63545e+00 -5.64432e+00        00000 
 3.76196e+00 -5.66950e+00        00000 
 3.88951e+00 -5.69545e+00        00000 
 4.01806e+00 -5.72215e+00        00000 
 4.14770e+00 -5.74962e+00        00000 
 4.27839e+00 -5.77783e+00        00000 
 4.41023e+00 -5.80680e+00        00000 
 4.54317e+00 -5.83652e+00        00000 
 4.67729e+00 -5.86700e+00        00000 
 4.81257e+00 -5.89823e+00        00000 
 4.94908e+00 -5.93021e+00        00000 
 5.08679e+00 -5.96295e+00        00000 
 5.22579e+00 -5.99644e+00        00000 
 5.36603e+00 -6.03068e+00        00000 
 5.50760e+00 -6.06569e+00        00000 
 5.65046e+00 -6.10145e+00        00000 
 5.79469e+00 -6.13797e+00        00000 
 5.94027e+00 -6.17526e+00        00000 
 6.08727e+00 -6.21332e+00        00000 
-6.25660e+00 -6.51212e+00        00000 
-6.10620e+00 -6.47457e+00        00000 
-5.95723e+00 -6.43780e+00        00000 
-5.80961e+00 -6.40177e+00        00000 
-5.66337e+00 -6.36651e+00        00000 
-5.51844e+00 -6.33199e+00        00000 
-5.37483e+00 -6.29822e+00        00000 
-5.23247e+00 -6.26520e+00        00000 
-5.09140e+00 -6.23293e+00        00000 
-4.95153e+00 -6.20140e+00        00000 
-4.81290e+00 -6.17062e+00        00000 
-4.67542e+00 -6.14057e+00        00000 
-4.53912e+00 -6.11128e+00        00000 
-4.40393e+00 -6.08273e+00        00000 
-4.26987e+00 -6.05493e+00        00000 
-4.13687e+00 -6.02787e+00        00000 
-4.00495e+00 -6.00156e+00        00000 
-3.87404e+00 -5.97600e+00        00000 
-3.74415e+00 -5.95119e+00        00000 
-3.61522e+00 -5.92713e+00        00000 
-3.48726e+00 -5.90383e+00        00000 
-3.36020e+00 -5.88128e+00        00000 
-3.23406e+00 -5.85949e+00        00000 
-3.10876e+00 -5.83845e+00        00000 
-2.98433e+00 -5.81818e+00        00000 
-2.86068e+00 -5.79867e+00        00000 
-2.73784e+00 -5.77992e+00        00000 
-2.61572e+00 -5.76194e+00        00000 
-2.49435e+00 -5.74473e+00        00000 
-2.37365e+00 -5.72829e+00        00000 
-2.25363e+00 -5.71262e+00        00000 
-2.13422e+00 -5.69773e+00        00000 
-2.01543e+00 -5.68361e+00        00000 
-1.89719e+00 -5.67026e+00        00000 
-1.77951e+00 -5.65770e+00        00000 
-1.66231e+00 -5.64591e+00        00000 
-1.54561e+00 -5.63490e+00        00000 
-1.42933e+00 -5.62468e+00        00000 
-1.31348e+00 -5.61524e+00        00000 
-1.19798e+00 -5.60658e+00        00000 
-1.08286e+00 -5.59870e+00        00000 
-9.68020e-01 -5.59161e+00        00000 
-8.53485e-01 -5.58531e+00        00000 
-7.39176e-01 -5.57979e+00        00000 
-6.25103e-01 -5.57506e+00        00000 
-5.11190e-01 -5.57112e+00        00000 
-3.97448e-01 -5.56797e+00        00000 
-2.83799e-01 -5.56560e+00        00000 
-1.70255e-01 -5.56403e+00        00000 
-5.67388e-02 -5.56324e+00        00000 
 5.67388e-02 -5.56324e+00        00000 
 1.70255e-01 -5.56403e+00        00000 
 2.83799e-01 -5.56560e+00        00000 
 3.97448e-01 -5.56797e+00        00000 
 5.11190e-01 -5.57112e+00        00000 
 6.25103e-01 -5.57506e+00        00000 
 7.39176e-01 -5.57979e+00        00000 
 8.53485e-01 -5.58531e+00        00000 
 9.68020e-01 -5.59161e+00        00000 
 1.08286e+00 -5.59870e+00        00000 
 1.19798e+00 -5.60658e+00        00000 
 1.31348e+00 -5.61524e+00        00000 
 1.42933e+00 -5.62468e+00        00000 
 1.54561e+00 -5.63490e+00        00000 
 1.66231e+00 -5.64591e+00        00000 
 1.77951e+00 -5.65770e+00        00000 
 1.89719e+00 -5.67026e+00        00000 
 2.01543e+00 -5.68361e+00        00000 
 2.13422e+00 -5.69773e+00        00000 
 2.25363e+00 -5.71262e+00        00000 
 2.37365e+00 -5.72829e+00        00000 
 2.49435e+00 -5.74473e+00        00000 
 2.61572e+00 -5.76194e+00        00000 
 2.73784e+00 -5.77992e+00        00000 
 2.86068e+00 -5.79867e+00        00000 
 2.98433e+00 -5.81818e+00        00000 
 3.10876e+00 -5.83845e+00        00000 
 3.23406e+00 -5.85949e+00        00000 
 3.36020e+00 -5.88128e+00        00000 
 3.48726e+00 -5.90383e+00        00000 
 3.61522e+00 -5.92713e+00        00000 
 3.74415e+00 -5.95119e+00        00000 
 3.87404e+00 -5.97600e+00        00000 
 4.00495e+00 -6.00156e+00        00000 
 4.13687e+00 -6.02787e+00        00000 
 4.26987e+00 -6.05493e+00        00000 
 4.40393e+00 -6.08273e+00        00000 
 4.53912e+00 -6.11128e+00        00000 
 4.67542e+00 -6.14057e+00        00000 
 4.81290e+00 -6.17062e+00        00000 
 4.95153e+00 -6.20140e+00        00000 
 5.09140e+00 -6.23293e+00        00000 
 5.23247e+00 -6.26520e+00        00000 
 5.37483e+00 -6.29822e+00        00000 
 5.51844e+00 -6.33199e+00        00000 
 5.66337e+00 -6.36651e+00        00000 
 5.80961e+00 -6.40177e+00        00000 
 5.95723e+00 -6.43780e+00        00000 
 6.10620e+00 -6.47457e+00        00000 
 6.25660e+00 -6.51212e+00        00000 
-6.42360e+00 -6.81768e+00        00000 
-6.26984e+00 -6.78066e+00        00000 
-6.11752e+00 -6.74440e+00        00000 
-5.96656e+00 -6.70888e+00        00000 
-5.81698e+00 -6.67411e+00        00000 
-5.66871e+00 -6.64008e+00        00000 
-5.52178e+00 -6.60679e+00        00000 
-5.37610e+00 -6.57424e+00        00000 
-5.23171e+00 -6.54243e+00        00000 
-5.08852e+00 -6.51135e+00        00000 
-4.94657e+00 -6.48102e+00        00000 
-4.80577e+00 -6.45141e+00        00000 
-4.66616e+00 -6.42255e+00        00000 
-4.52765e+00 -6.39442e+00        00000 
-4.39027e+00 -6.36703e+00        00000 
-4.25395e+00 -6.34037e+00        00000 
-4.11870e+00 -6.31446e+00        00000 
-3.98446e+00 -6.28928e+00        00000 
-3.85124e+00 -6.26485e+00        00000 
-3.71897e+00 -6.24115e+00        00000 
-3.58767e+00 -6.21820e+00        00000 
-3.45727e+00 -6.19599e+00        00000 
-3.32778e+00 -6.17454e+00        00000 
-3.19912e+00 -6.15382e+00        00000 
-3.07133e+00 -6.13386e+00        00000 
-2.94432e+00 -6.11465e+00        00000 
-2.81810e+00 -6.09620e+00        00000 
-2.69261e+00 -6.07849e+00        00000 
-2.56786e+00 -6.06155e+00        00000 
-2.44378e+00 -6.04536e+00        00000 
-2.32037e+00 -6.02994e+00        00000 
-2.19757e+00 -6.01527e+00        00000 
-2.07538e+00 -6.00137e+00        00000 
-1.95374e+00 -5.98823e+00        00000 
-1.83265e+00 -5.97586e+00        00000 
-1.71204e+00 -5.96425e+00        00000 
-1.59192e+00 -5.95342e+00        00000 
-1.47222e+00 -5.94335e+00        00000 
-1.35296e+00 -5.93405e+00        00000 
-1.23404e+00 -5.92553e+00        00000 
-1.11548e+00 -5.91778e+00        00000 
-9.97219e-01 -5.91079e+00        00000 
-8.79255e-01 -5.90459e+00        00000 
-7.61513e-01 -5.89916e+00        00000 
-6.44007e-01 -5.89450e+00        00000 
-5.26658e-01 -5.89062e+00        00000 
-4.09480e-01 -5.88751e+00        00000 
-2.92394e-01 -5.88518e+00        00000 
-1.75413e-01 -5.88363e+00        00000 
-5.84578e-02 -5.88285e+00        00000 
 5.84578e-02 -5.88285e+00        00000 
 1.75413e-01 -5.88363e+00        00000 
 2.92394e-01 -5.88518e+00        00000 
 4.09480e-01 -5.88751e+00        00000 
 5.26658e-01 -5.89062e+00        00000 
 6.44007e-01 -5.89450e+00        00000 
 7.61513e-01 -5.89916e+00        00000 
 8.79255e-01 -5.90459e+00        00000 
 9.97219e-01 -5.91079e+00        00000 
 1.11548e+00 -5.91778e+00        00000 
 1.23404e+00 -5.92553e+00        00000 
 1.35296e+00 -5.93405e+00        00000 
 1.47222e+00 -5.94335e+00        00000 
 1.59192e+00 -5.95342e+00        00000 
 1.71204e+00 -5.96425e+00        00000 
 1.83265e+00 -5.97586e+00        00000 
 1.95374e+00 -5.98823e+00        00000 
 2.07538e+00 -6.00137e+00        00000 
 2.19757e+00 -6.01527e+00        00000 
 2.32037e+00 -6.02994e+00        00000 
 2.44378e+00 -6.04536e+00        00000 
 2.56786e+00 -6.06155e+00        00000 
 2.69261e+00 -6.07849e+00        00000 
 2.81810e+00 -6.09620e+00        00000 
 2.94432e+00 -6.11465e+00        00000 
 3.07133e+00 -6.13386e+00        00000 
 3.19912e+00 -6.15382e+00        00000 
 3.32778e+00 -6.17454e+00        00000 
 3.45727e+00 -6.19599e+00        00000 
 3.58767e+00 -6.21820e+00        00000 
 3.71897e+00 -6.24115e+00        00000 
 3.85124e+00 -6.26485e+00        00000 
 3.98446e+00 -6.28928e+00        00000 
 4.11870e+00 -6.31446e+00        00000 
 4.25395e+00 -6.34037e+00        00000 
 4.39027e+00 -6.36703e+00        00000 
 4.52765e+00 -6.39442e+00        00000 
 4.66616e+00 -6.42255e+00        00000 
 4.80577e+00 -6.45141e+00        00000 
 4.94657e+00 -6.48102e+00        00000 
 5.08852e+00 -6.51135e+00        00000 
 5.23171e+00 -6.54243e+00        00000 
 5.37610e+00 -6.57424e+00        00000 
 5.52178e+00 -6.60679e+00        00000 
 5.66871e+00 -6.64008e+00        00000 
 5.81698e+00 -6.67411e+00        00000 
 5.96656e+00 -6.70888e+00        00000 
 6.11752e+00 -6.74440e+00        00000 
 6.26984e+00 -6.78066e+00        00000 
 6.42360e+00 -6.81768e+00        00000 
-6.58825e+00 -7.12993e+00        00000 
-6.43117e+00 -7.09344e+00        00000 
-6.27555e+00 -7.05769e+00        00000 
-6.12128e+00 -7.02268e+00        00000 
-5.96841e+00 -6.98841e+00        00000 
-5.81685e+00 -6.95486e+00        00000 
-5.66663e+00 -6.92206e+00        00000 
-5.51767e+00 -6.88998e+00        00000 
-5.36999e+00 -6.85863e+00        00000 
-5.22353e+00 -6.82801e+00        00000 
-5.07830e+00 -6.79812e+00        00000 
-4.93422e+00 -6.76895e+00        00000 
-4.79133e+00 -6.74052e+00        00000 
-4.64955e+00 -6.71281e+00        00000 
-4.50889e+00 -6.68583e+00        00000 
-4.36929e+00 -6.65957e+00        00000 
-4.23076e+00 -6.63405e+00        00000 
-4.09323e+00 -6.60926e+00        00000 
-3.95672e+00 -6.58520e+00        00000 
-3.82116e+00 -6.56186e+00        00000 
-3.68657e+00 -6.53927e+00        00000 
-3.55286e+00 -6.51740e+00        00000 
-3.42007e+00 -6.49628e+00        00000 
-3.28811e+00 -6.47589e+00        00000 
-3.15700e+00 -6.45624e+00        00000 
-3.02667e+00 -6.43733e+00        00000 
-2.89714e+00 -6.41916e+00        00000 
-2.76832e+00 -6.40174e+00        00000 
-2.64024e+00 -6.38506e+00        00000 
-2.51282e+00 -6.36913e+00        00000 
-2.38608e+00 -6.35395e+00        00000 
-2.25993e+00 -6.33951e+00        00000 
-2.13440e+00 -6.32583e+00        00000 
-2.00940e+00 -6.31290e+00        00000 
-1.88496e+00 -6.30072e+00        00000 
-1.76099e+00 -6.28930e+00        00000 
-1.63752e+00 -6.27864e+00        00000 
-1.51445e+00 -6.26873e+00        00000 
-1.39182e+00 -6.25958e+00        00000 
-1.26953e+00 -6.25119e+00        00000 
-1.14760e+00 -6.24356e+00        00000 
-1.02596e+00 -6.23669e+00        00000 
-9.04623e-01 -6.23058e+00        00000 
-7.83502e-01 -6.22523e+00        00000 
-6.62616e-01 -6.22065e+00        00000 
-5.41885e-01 -6.21683e+00        00000 
-4.21325e-01 -6.21377e+00        00000 
-3.00855e-01 -6.21148e+00        00000 
-1.80490e-01 -6.20995e+00        00000 
-6.01499e-02 -6.20919e+00        00000 
 6.01499e-02 -6.20919e+00        00000 
 1.80490e-01 -6.20995e+00        00000 
 3.00855e-01 -6.21148e+00        00000 
 4.21325e-01 -6.21377e+00        00000 
 5.41885e-01 -6.21683e+00        00000 
 6.62616e-01 -6.22065e+00        00000 
 7.83502e-01 -6.22523e+00        00000 
 9.04623e-01 -6.23058e+00        00000 
 1.02596e+00 -6.23669e+00        00000 
 1.14760e+00 -6.24356e+00        00000 
 1.26953e+00 -6.25119e+00        00000 
 1.39182e+00 -6.25958e+00        00000 
 1.51445e+00 -6.26873e+00        00000 
 1.63752e+00 -6.27864e+00        00000 
 1.76099e+00 -6.28930e+00        00000 
 1.88496e+00 -6.30072e+00        00000 
 2.00940e+00 -6.31290e+00        00000 
 2.13440e+00 -6.32583e+00        00000 
 2.25993e+00 -6.33951e+00        00000 
 2.38608e+00 -6.35395e+00        00000 
 2.51282e+00 -6.36913e+00        00000 
 2.64024e+00 -6.38506e+00        00000 
 2.76832e+00 -6.40174e+00        00000 
 2.89714e+00 -6.41916e+00        00000 
 3.02667e+00 -6.43733e+00        00000 
 3.15700e+00 -6.45624e+00        00000 
 3.28811e+00 -6.47589e+00        00000 
 3.42007e+00 -6.49628e+00        00000 
 3.55286e+00 -6.51740e+00        00000 
 3.68657e+00 -6.53927e+00        00000 
 3.82116e+00 -6.56186e+00        00000 
 3.95672e+00 -6.58520e+00        00000 
 4.09323e+00 -6.60926e+00        00000 
 4.23076e+00 -6.63405e+00        00000 
 4.36929e+00 -6.65957e+00        00000 
 4.50889e+00 -6.68583e+00        00000 
 4.64955e+00 -6.71281e+00        00000 
 4.79133e+00 -6.74052e+00        00000 
 4.93422e+00 -6.76895e+00        00000 
 5.07830e+00 -6.79812e+00        00000 
 5.22353e+00 -6.82801e+00        00000 
 5.36999e+00 -6.85863e+00        00000 
 5.51767e+00 -6.88998e+00        00000 
 5.66663e+00 -6.92206e+00        00000 
 5.81685e+00 -6.95486e+00        00000 
 5.96841e+00 -6.98841e+00        00000 
 6.12128e+00 -7.02268e+00        00000 
 6.27555e+00 -7.05769e+00        00000 
 6.43117e+00 -7.09344e+00        00000 
 6.58825e+00 -7.12993e+00        00000 
-6.75054e+00 -7.44878e+00        00000 
-6.59019e+00 -7.41281e+00        00000 
-6.43130e+00 -7.37759e+00        00000 
-6.27377e+00 -7.34308e+00        00000 
-6.11765e+00 -7.30931e+00        00000 
-5.96284e+00 -7.27626e+00        00000 
-5.80937e+00 -7.24393e+00        00000 
-5.65717e+00 -7.21232e+00        00000 
-5.50626e+00 -7.18144e+00        00000 
-5.35655e+00 -7.15127e+00        00000 
-5.20809e+00 -7.12183e+00        00000 
-5.06078e+00 -7.09310e+00        00000 
-4.91465e+00 -7.06510e+00        00000 
-4.76963e+00 -7.03780e+00        00000 
-4.62574e+00 -7.01124e+00        00000 
-4.48290e+00 -6.98538e+00        00000 
-4.34113e+00 -6.96025e+00        00000 
-4.20036e+00 -6.93584e+00        00000 
-4.06061e+00 -6.91215e+00        00000 
-3.92180e+00 -6.88918e+00        00000 
-3.78395e+00 -6.86694e+00        00000 
-3.64700e+00 -6.84542e+00        00000 
-3.51095e+00 -6.82462e+00        00000 
-3.37572e+00 -6.80455e+00        00000 
-3.24135e+00 -6.78522e+00        00000 
-3.10775e+00 -6.76661e+00        00000 
-2.97495e+00 -6.74873e+00        00000 
-2.84286e+00 -6.73158e+00        00000 
-2.71150e+00 -6.71517e+00        00000 
-2.58079e+00 -6.69949e+00        00000 
-2.45076e+00 -6.68455e+00        00000 
-2.32132e+00 -6.67035e+00        00000 
-2.19249e+00 -6.65689e+00        00000 
-2.06420e+00 -6.64417e+00        00000 
-1.93645e+00 -6.63219e+00        00000 
-1.80918e+00 -6.62095e+00        00000 
-1.68239e+00 -6.61046e+00        00000 
-1.55602e+00 -6.60071e+00        00000 
-1.43007e+00 -6.59171e+00        00000 
-1.30446e+00 -6.58345e+00        00000 
-1.17922e+00 -6.57594e+00        00000 
-1.05425e+00 -6.56918e+00        00000 
-9.29589e-01 -6.56317e+00        00000 
-8.05142e-01 -6.55791e+00        00000 
-6.80930e-01 -6.55341e+00        00000 
-5.56871e-01 -6.54965e+00        00000 
-4.32982e-01 -6.54664e+00        00000 
-3.09181e-01 -6.54438e+00        00000 
-1.85486e-01 -6.54288e+00        00000 
-6.18152e-02 -6.54213e+00        00000 
 6.18152e-02 -6.54213e+00        00000 
 1.85486e-01 -6.54288e+00        00000 
 3.09181e-01 -6.54438e+00        00000 
 4.32982e-01 -6.54664e+00        00000 
 5.56871e-01 -6.54965e+00        00000 
 6.80930e-01 -6.55341e+00        00000 
 8.05142e-01 -6.55791e+00        00000 
 9.29589e-01 -6.56317e+00        00000 
 1.05425e+00 -6.56918e+00        00000 
 1.17922e+00 -6.57594e+00        00000 
 1.30446e+00 -6.58345e+00        00000 
 1.43007e+00 -6.59171e+00        00000 
 1.55602e+00 -6.60071e+00        00000 
 1.68239e+00 -6.61046e+00        00000 
 1.80918e+00 -6.62095e+00        00000 
 1.93645e+00 -6.63219e+00        00000 
 2.06420e+00 -6.64417e+00        00000 
 2.19249e+00 -6.65689e+00        00000 
 2.32132e+00 -6.67035e+00        00000 
 2.45076e+00 -6.68455e+00        00000 
 2.58079e+00 -6.69949e+00        00000 
 2.71150e+00 -6.71517e+00        00000 
 2.84286e+00 -6.73158e+00        00000 
 2.97495e+00 -6.74873e+00        00000 
 3.10775e+00 -6.76661e+00        00000 
 3.24135e+00 -6.78522e+00        00000 
 3.37572e+00 -6.80455e+00        00000 
 3.51095e+00 -6.82462e+00        00000 
 3.64700e+00 -6.84542e+00        00000 
 3.78395e+00 -6.86694e+00        00000 
 3.92180e+00 -6.88918e+00        00000 
 4.06061e+00 -6.91215e+00        00000 
 4.20036e+00 -6.93584e+00        00000 
 4.34113e+00 -6.96025e+00        00000 
 4.48290e+00 -6.98538e+00        00000 
 4.62574e+00 -7.01124e+00        00000 
 4.76963e+00 -7.03780e+00        00000 
 4.91465e+00 -7.06510e+00        00000 
 5.06078e+00 -7.09310e+00        00000 
 5.20809e+00 -7.12183e+00        00000 
 5.35655e+00 -7.15127e+00        00000 
 5.50626e+00 -7.18144e+00        00000 
 5.65717e+00 -7.21232e+00        00000 
 5.80937e+00 -7.24393e+00        00000 
 5.96284e+00 -7.27626e+00        00000 
 6.11765e+00 -7.30931e+00        00000 
 6.27377e+00 -7.34308e+00        00000 
 6.43130e+00 -7.37759e+00        00000 
 6.59019e+00 -7.41281e+00        00000 
 6.75054e+00 -7.44878e+00        00000 
-6.91046e+00 -7.77413e+00        00000 
-6.74689e+00 -7.73870e+00        00000 
-6.58477e+00 -7.70399e+00        00000 
-6.42403e+00 -7.67000e+00        00000 
-6.26470e+00 -7.63673e+00        00000 
-6.10668e+00 -7.60416e+00        00000 
-5.95001e+00 -7.57232e+00        00000 
-5.79461e+00 -7.54119e+00        00000 
-5.64050e+00 -7.51077e+00        00000 
-5.48760e+00 -7.48106e+00        00000 
-5.33594e+00 -7.45206e+00        00000 
-5.18544e+00 -7.42377e+00        00000 
-5.03612e+00 -7.39619e+00        00000 
-4.88790e+00 -7.36932e+00        00000 
-4.74082e+00 -7.34316e+00        00000 
-4.59478e+00 -7.31771e+00        00000 
-4.44982e+00 -7.29297e+00        00000 
-4.30585e+00 -7.26893e+00        00000 
-4.16290e+00 -7.24562e+00        00000 
-4.02089e+00 -7.22301e+00        00000 
-3.87984e+00 -7.20112e+00        00000 
-3.73967e+00 -7.17994e+00        00000 
-3.60041e+00 -7.15948e+00        00000 
-3.46197e+00 -7.13973e+00        00000 
-3.32439e+00 -7.12070e+00        00000 
-3.18757e+00 -7.10239e+00        00000 
-3.05154e+00 -7.08480e+00        00000 
-2.91622e+00 -7.06793e+00        00000 
-2.78163e+00 -7.05179e+00        00000 
-2.64768e+00 -7.03636e+00        00000 
-2.51441e+00 -7.02167e+00        00000 
-2.38173e+00 -7.00770e+00        00000 
-2.24966e+00 -6.99445e+00        00000 
-2.11812e+00 -6.98194e+00        00000 
-1.98712e+00 -6.97016e+00        00000 
-1.85659e+00 -6.95910e+00        00000 
-1.72655e+00 -6.94878e+00        00000 
-1.59692e+00 -6.93919e+00        00000 
-1.46770e+00 -6.93034e+00        00000 
-1.33883e+00 -6.92222e+00        00000 
-1.21032e+00 -6.91483e+00        00000 
-1.08209e+00 -6.90819e+00        00000 
-9.54155e-01 -6.90228e+00        00000 
-8.26436e-01 -6.89710e+00        00000 
-6.98950e-01 -6.89267e+00        00000 
-5.71616e-01 -6.88897e+00        00000 
-4.44452e-01 -6.88601e+00        00000 
-3.17374e-01 -6.88379e+00        00000 
-1.90403e-01 -6.88232e+00        00000 
-6.34538e-02 -6.88158e+00        00000 
 6.34538e-02 -6.88158e+00        00000 
 1.90403e-01 -6.88232e+00        00000 
 3.17374e-01 -6.88379e+00        00000 
 4.44452e-01 -6.88601e+00        00000 
 5.71616e-01 -6.88897e+00        00000 
 6.98950e-01 -6.89267e+00        00000 
 8.26436e-01 -6.89710e+00        00000 
 9.54155e-01 -6.90228e+00        00000 
 1.08209e+00 -6.90819e+00        00000 
 1.21032e+00 -6.91483e+00        00000 
 1.33883e+00 -6.92222e+00        00000 
 1.46770e+00 -6.93034e+00        00000 
 1.59692e+00 -6.93919e+00        00000 
 1.72655e+00 -6.94878e+00        00000 
 1.85659e+00 -6.95910e+00        00000 
 1.98712e+00 -6.97016e+00        00000 
 2.11812e+00 -6.98194e+00        00000 
 2.24966e+00 -6.99445e+00        00000 
 2.38173e+00 -7.00770e+00        00000 
 2.51441e+00 -7.02167e+00        00000 
 2.64768e+00 -7.03636e+00        00000 
 2.78163e+00 -7.05179e+00        00000 
 2.91622e+00 -7.06793e+00        00000 
 3.05154e+00 -7.08480e+00        00000 
 3.18757e+00 -7.10239e+00        00000 
 3.32439e+00 -7.12070e+00        00000 
 3.46197e+00 -7.13973e+00        00000 
 3.60041e+00 -7.15948e+00        00000 
 3.73967e+00 -7.17994e+00        00000 
 3.87984e+00 -7.20112e+00        00000 
 4.02089e+00 -7.22301e+00        00000 
 4.16290e+00 -7.24562e+00        00000 
 4.30585e+00 -7.26893e+00        00000 
 4.44982e+00 -7.29297e+00        00000 
 4.59478e+00 -7.31771e+00        00000 
 4.74082e+00 -7.34316e+00        00000 
 4.88790e+00 -7.36932e+00        00000 
 5.03612e+00 -7.39619e+00        00000 
 5.18544e+00 -7.42377e+00        00000 
 5.33594e+00 -7.45206e+00        00000 
 5.48760e+00 -7.48106e+00        00000 
 5.64050e+00 -7.51077e+00        00000 
 5.79461e+00 -7.54119e+00        00000 
 5.95001e+00 -7.57232e+00        00000 
 6.10668e+00 -7.60416e+00        00000 
 6.26470e+00 -7.63673e+00        00000 
 6.42403e+00 -7.67000e+00        00000 
 6.58477e+00 -7.70399e+00        00000 
 6.74689e+00 -7.73870e+00        00000 
 6.91046e+00 -7.77413e+00        00000 
-7.06800e+00 -8.10590e+00        00000 
-6.90125e+00 -8.07100e+00        00000 
-6.73596e+00 -8.03681e+00        00000 
-6.57204e+00 -8.00333e+00        00000 
-6.40954e+00 -7.97056e+00        00000 
-6.24836e+00 -7.93850e+00        00000 
-6.08854e+00 -7.90714e+00        00000 
-5.92997e+00 -7.87648e+00        00000 
-5.77271e+00 -7.84652e+00        00000 
-5.61666e+00 -7.81727e+00        00000 
-5.46185e+00 -7.78872e+00        00000 
-5.30819e+00 -7.76086e+00        00000 
-5.15573e+00 -7.73371e+00        00000 
-5.00436e+00 -7.70726e+00        00000 
-4.85413e+00 -7.68151e+00        00000 
-4.70494e+00 -7.65645e+00        00000 
-4.55682e+00 -7.63210e+00        00000 
-4.40970e+00 -7.60845e+00        00000 
-4.26360e+00 -7.58551e+00        00000 
-4.11843e+00 -7.56326e+00        00000 
-3.97422e+00 -7.54172e+00        00000 
-3.83089e+00 -7.52088e+00        00000 
-3.68847e+00 -7.50075e+00        00000 
-3.54686e+00 -7.48132e+00        00000 
-3.40611e+00 -7.46260e+00        00000 
-3.26611e+00 -7.44458e+00        00000 
-3.12691e+00 -7.42728e+00        00000 
-2.98841e+00 -7.41069e+00        00000 
-2.85064e+00 -7.39481e+00        00000 
-2.71351e+00 -7.37964e+00        00000 
-2.57705e+00 -7.36519e+00        00000 
-2.44118e+00 -7.35145e+00        00000 
-2.30591e+00 -7.33842e+00        00000 
-2.17117e+00 -7.32612e+00        00000 
-2.03698e+00 -7.31453e+00        00000 
-1.90325e+00 -7.30366e+00        00000 
-1.77000e+00 -7.29351e+00        00000 
-1.63715e+00 -7.28408e+00        00000 
-1.50473e+00 -7.27537e+00        00000 
-1.37265e+00 -7.26739e+00        00000 
-1.24092e+00 -7.26013e+00        00000 
-1.10947e+00 -7.25359e+00        00000 
-9.78322e-01 -7.24778e+00        00000 
-8.47384e-01 -7.24270e+00        00000 
-7.16678e-01 -7.23833e+00        00000 
-5.86122e-01 -7.23470e+00        00000 
-4.55735e-01 -7.23179e+00        00000 
-3.25434e-01 -7.22961e+00        00000 
-1.95239e-01 -7.22816e+00        00000 
-6.50657e-02 -7.22743e+00        00000 
 6.50657e-02 -7.22743e+00        00000 
 1.95239e-01 -7.22816e+00        00000 
 3.25434e-01 -7.22961e+00        00000 
 4.55735e-01 -7.23179e+00        00000 
 5.86122e-01 -7.23470e+00        00000 
 7.16678e-01 -7.23833e+00        00000 
 8.47384e-01 -7.24270e+00        00000 
 9.78322e-01 -7.24778e+00        00000 
 1.10947e+00 -7.25359e+00        00000 
 1.24092e+00 -7.26013e+00        00000 
 1.37265e+00 -7.26739e+00        00000 
 1.50473e+00 -7.27537e+00        00000 
 1.63715e+00 -7.28408e+00        00000 
 1.77000e+00 -7.29351e+00        00000 
 1.90325e+00 -7.30366e+00        00000 
 2.03698e+00 -7.31453e+00        00000 
 2.17117e+00 -7.32612e+00        00000 
 2.30591e+00 -7.33842e+00        00000 
 2.44118e+00 -7.35145e+00        00000 
 2.57705e+00 -7.36519e+00        00000 
 2.71351e+00 -7.37964e+00        00000 
 2.85064e+00 -7.39481e+00        00000 
 2.98841e+00 -7.41069e+00        00000 
 3.12691e+00 -7.42728e+00        00000 
 3.26611e+00 -7.44458e+00        00000 
 3.40611e+00 -7.46260e+00        00000 
 3.54686e+00 -7.48132e+00        00000 
 3.68847e+00 -7.50075e+00        00000 
 3.83089e+00 -7.52088e+00        00000 
 3.97422e+00 -7.54172e+00        00000 
 4.11843e+00 -7.56326e+00        00000 
 4.26360e+00 -7.58551e+00        00000 
 4.40970e+00 -7.60845e+00        00000 
 4.55682e+00 -7.63210e+00        00000 
 4.70494e+00 -7.65645e+00        00000 
 4.85413e+00 -7.68151e+00        00000 
 5.00436e+00 -7.70726e+00        00000 
 5.15573e+00 -7.73371e+00        00000 
 5.30819e+00 -7.76086e+00        00000 
 5.46185e+00 -7.78872e+00        00000 
 5.61666e+00 -7.81727e+00        00000 
 5.77271e+00 -7.84652e+00        00000 
 5.92997e+00 -7.87648e+00        00000 
 6.08854e+00 -7.90714e+00        00000 
 6.24836e+00 -7.93850e+00        00000 
 6.40954e+00 -7.97056e+00        00000 
 6.57204e+00 -8.00333e+00        00000 
 6.73596e+00 -8.03681e+00        00000 
 6.90125e+00 -8.07100e+00        00000 
 7.06800e+00 -8.10590e+00        00000 
-7.22315e+00 -8.44399e+00        00000 
-7.05326e+00 -8.40962e+00        00000 
-6.88484e+00 -8.37596e+00        00000 
-6.71780e+00 -8.34299e+00        00000 
-6.55218e+00 -8.31073e+00        00000 
-6.38788e+00 -8.27916e+00        00000 
-6.22494e+00 -8.24828e+00        00000 
-6.06327e+00 -8.21810e+00        00000 
-5.90289e+00 -8.18861e+00        00000 
-5.74373e+00 -8.15981e+00        00000 
-5.58581e+00 -8.13170e+00        00000 
-5.42905e+00 -8.10428e+00        00000 
-5.27348e+00 -8.07756e+00        00000 
-5.11901e+00 -8.05153e+00        00000 
-4.96567e+00 -8.02618e+00        00000 
-4.81337e+00 -8.00153e+00        00000 
-4.66215e+00 -7.97757e+00        00000 
-4.51192e+00 -7.95430e+00        00000 
-4.36271e+00 -7.93172e+00        00000 
-4.21443e+00 -7.90983e+00        00000 
-4.06711e+00 -7.88864e+00        00000 
-3.92066e+00 -7.86814e+00        00000 
-3.77512e+00 -7.84834e+00        00000 
-3.63040e+00 -7.82922e+00        00000 
-3.48652e+00 -7.81081e+00        00000 
-3.34340e+00 -7.79310e+00        00000 
-3.20107e+00 -7.77608e+00        00000 
-3.05944e+00 -7.75976e+00        00000 
-2.91853e+00 -7.74415e+00        00000 
-2.77827e+00 -7.72923e+00        00000 
-2.63867e+00 -7.71502e+00        00000 
-2.49966e+00 -7.70151e+00        00000 
-2.36125e+00 -7.68870e+00        00000 
-2.22336e+00 -7.67660e+00        00000 
-2.08602e+00 -7.66521e+00        00000 
-1.94914e+00 -7.65452e+00        00000 
-1.81274e+00 -7.64455e+00        00000 
-1.67673e+00 -7.63528e+00        00000 
-1.54115e+00 -7.62672e+00        00000 
-1.40591e+00 -7.61887e+00        00000 
-1.27102e+00 -7.61173e+00        00000 
-1.13641e+00 -7.60531e+00        00000 
-1.00209e+00 -7.59959e+00        00000 
-8.67987e-01 -7.59459e+00        00000 
-7.34114e-01 -7.59031e+00        00000 
-6.00389e-01 -7.58673e+00        00000 
-4.66833e-01 -7.58388e+00        00000 
-3.33361e-01 -7.58173e+00        00000 
-1.99996e-01 -7.58030e+00        00000 
-6.66511e-02 -7.57959e+00        00000 
 6.66511e-02 -7.57959e+00        00000 
 1.99996e-01 -7.58030e+00        00000 
 3.33361e-01 -7.58173e+00        00000 
 4.66833e-01 -7.58388e+00        00000 
 6.00389e-01 -7.58673e+00        00000 
 7.34114e-01 -7.59031e+00        00000 
 8.67987e-01 -7.59459e+00        00000 
 1.00209e+00 -7.59959e+00        00000 
 1.13641e+00 -7.60531e+00        00000 
 1.27102e+00 -7.61173e+00        00000 
 1.40591e+00 -7.61887e+00        00000 
 1.54115e+00 -7.62672e+00        00000 
 1.67673e+00 -7.63528e+00        00000 
 1.81274e+00 -7.64455e+00        00000 
 1.94914e+00 -7.65452e+00        00000 
 2.08602e+00 -7.66521e+00        00000 
 2.22336e+00 -7.67660e+00        00000 
 2.36125e+00 -7.68870e+00        00000 
 2.49966e+00 -7.70151e+00        00000 
 2.63867e+00 -7.71502e+00        00000 
 2.77827e+00 -7.72923e+00        00000 
 2.91853e+00 -7.74415e+00        00000 
 3.05944e+00 -7.75976e+00        00000 
 3.20107e+00 -7.77608e+00        00000 
 3.34340e+00 -7.79310e+00        00000 
 3.48652e+00 -7.81081e+00        00000 
 3.63040e+00 -7.82922e+00        00000 
 3.77512e+00 -7.84834e+00        00000 
 3.92066e+00 -7.86814e+00        00000 
 4.06711e+00 -7.88864e+00        00000 
 4.21443e+00 -7.90983e+00        00000 
 4.36271e+00 -7.93172e+00        00000 
 4.51192e+00 -7.95430e+00        00000 
 4.66215e+00 -7.97757e+00        00000 
 4.81337e+00 -8.00153e+00        00000 
 4.96567e+00 -8.02618e+00        00000 
 5.11901e+00 -8.05153e+00        00000 
 5.27348e+00 -8.07756e+00        00000 
 5.42905e+00 -8.10428e+00        00000 
 5.58581e+00 -8.13170e+00        00000 
 5.74373e+00 -8.15981e+00        00000 
 5.90289e+00 -8.18861e+00        00000 
 6.06327e+00 -8.21810e+00        00000 
 6.22494e+00 -8.24828e+00        00000 
 6.38788e+00 -8.27916e+00        00000 
 6.55218e+00 -8.31073e+00        00000 
 6.71780e+00 -8.34299e+00        00000 
 6.88484e+00 -8.37596e+00        00000 
 7.05326e+00 -8.40962e+00        00000 
 7.22315e+00 -8.44399e+00        00000 
-7.37590e+00 -8.78830e+00        00000 
-7.20292e+00 -8.75447e+00        00000 
-7.03142e+00 -8.72134e+00        00000 
-6.86130e+00 -8.68888e+00        00000 
-6.69261e+00 -8.65713e+00        00000 
-6.52523e+00 -8.62605e+00        00000 
-6.35922e+00 -8.59566e+00        00000 
-6.19448e+00 -8.56595e+00        00000 
-6.03104e+00 -8.53693e+00        00000 
-5.86882e+00 -8.50858e+00        00000 
-5.70784e+00 -8.48092e+00        00000 
-5.54801e+00 -8.45394e+00        00000 
-5.38938e+00 -8.42765e+00        00000 
-5.23185e+00 -8.40203e+00        00000 
-5.07545e+00 -8.37709e+00        00000 
-4.92009e+00 -8.35284e+00        00000 
-4.76581e+00 -8.32926e+00        00000 
-4.61251e+00 -8.30637e+00        00000 
-4.46024e+00 -8.28416e+00        00000 
-4.30889e+00 -8.26263e+00        00000 
-4.15851e+00 -8.24179e+00        00000 
-4.00899e+00 -8.22162e+00        00000 
-3.86038e+00 -8.20215e+00        00000 
-3.71259e+00 -8.18335e+00        00000 
-3.56563e+00 -8.16525e+00        00000 
-3.41944e+00 -8.14783e+00        00000 
-3.27403e+00 -8.13110e+00        00000 
-3.12931e+00 -8.11505e+00        00000 
-2.98532e+00 -8.09970e+00        00000 
-2.84197e+00 -8.08504e+00        00000 
-2.69929e+00 -8.07106e+00        00000 
-2.55718e+00 -8.05778e+00        00000 
-2.41568e+00 -8.04520e+00        00000 
-2.27469e+00 -8.03330e+00        00000 
-2.13425e+00 -8.02210e+00        00000 
-1.99427e+00 -8.01160e+00        00000 
-1.85477e+00 -8.00179e+00        00000 
-1.71566e+00 -7.99268e+00        00000 
-1.57697e+00 -7.98427e+00        00000 
-1.43862e+00 -7.97655e+00        00000 
-1.30062e+00 -7.96954e+00        00000 
-1.16290e+00 -7.96323e+00        00000 
-1.02547e+00 -7.95761e+00        00000 
-8.88248e-01 -7.95270e+00        00000 
-7.51260e-01 -7.94849e+00        00000 
-6.14418e-01 -7.94497e+00        00000 
-4.77746e-01 -7.94216e+00        00000 
-3.41156e-01 -7.94006e+00        00000 
-2.04673e-01 -7.93865e+00        00000 
-6.82101e-02 -7.93795e+00        00000 
 6.82101e-02 -7.93795e+00        00000 
 2.04673e-01 -7.93865e+00        00000 
 3.41156e-01 -7.94006e+00        00000 
 4.77746e-01 -7.94216e+00        00000 
 6.14418e-01 -7.94497e+00        00000 
 7.51260e-01 -7.94849e+00        00000 
 8.88248e-01 -7.95270e+00        00000 
 1.02547e+00 -7.95761e+00        00000 
 1.16290e+00 -7.96323e+00        00000 
 1.30062e+00 -7.96954e+00        00000 
 1.43862e+00 -7.97655e+00        00000 
 1.57697e+00 -7.98427e+00        00000 
 1.71566e+00 -7.99268e+00        00000 
 1.85477e+00 -8.00179e+00        00000 
 1.99427e+00 -8.01160e+00        00000 
 2.13425e+00 -8.02210e+00        00000 
 2.27469e+00 -8.03330e+00        00000 
 2.41568e+00 -8.04520e+00        00000 
 2.55718e+00 -8.05778e+00        00000 
 2.69929e+00 -8.07106e+00        00000 
 2.84197e+00 -8.08504e+00        00000 
 2.98532e+00 -8.09970e+00        00000 
 3.12931e+00 -8.11505e+00        00000 
 3.27403e+00 -8.13110e+00        00000 
 3.41944e+00 -8.14783e+00        00000 
 3.56563e+00 -8.16525e+00        00000 
 3.71259e+00 -8.18335e+00        00000 
 3.86038e+00 -8.20215e+00        00000 
 4.00899e+00 -8.22162e+00        00000 
 4.15851e+00 -8.24179e+00        00000 
 4.30889e+00 -8.26263e+00        00000 
 4.46024e+00 -8.28416e+00        00000 
 4.61251e+00 -8.30637e+00        00000 
 4.76581e+00 -8.32926e+00        00000 
 4.92009e+00 -8.35284e+00        00000 
 5.07545e+00 -8.37709e+00        00000 
 5.23185e+00 -8.40203e+00        00000 
 5.38938e+00 -8.42765e+00        00000 
 5.54801e+00 -8.45394e+00        00000 
 5.70784e+00 -8.48092e+00        00000 
 5.86882e+00 -8.50858e+00        00000 
 6.03104e+00 -8.53693e+00        00000 
 6.19448e+00 -8.56595e+00        00000 
 6.35922e+00 -8.59566e+00        00000 
 6.52523e+00 -8.62605e+00        00000 
 6.69261e+00 -8.65713e+00        00000 
 6.86130e+00 -8.68888e+00        00000 
 7.03142e+00 -8.72134e+00        00000 
 7.20292e+00 -8.75447e+00        00000 
 7.37590e+00 -8.78830e+00        00000 
-7.52625e+00 -9.13874e+00        00000 
-7.35023e+00 -9.10545e+00        00000 
-7.17569e+00 -9.07285e+00        00000 
-7.00254e+00 -9.04091e+00        00000 
-6.83081e+00 -9.00966e+00        00000 
-6.66041e+00 -8.97908e+00        00000 
-6.49138e+00 -8.94917e+00        00000 
-6.32362e+00 -8.91994e+00        00000 
-6.15716e+00 -8.89138e+00        00000 
-5.99191e+00 -8.86349e+00        00000 
-5.82792e+00 -8.83628e+00        00000 
-5.66508e+00 -8.80974e+00        00000 
-5.50343e+00 -8.78387e+00        00000 
-5.34288e+00 -8.75866e+00        00000 
-5.18346e+00 -8.73414e+00        00000 
-5.02509e+00 -8.71028e+00        00000 
-4.86779e+00 -8.68709e+00        00000 
-4.71148e+00 -8.66458e+00        00000 
-4.55619e+00 -8.64274e+00        00000 
-4.40182e+00 -8.62156e+00        00000 
-4.24842e+00 -8.60107e+00        00000 
-4.09588e+00 -8.58124e+00        00000 
-3.94425e+00 -8.56209e+00        00000 
-3.79342e+00 -8.54361e+00        00000 
-3.64345e+00 -8.52581e+00        00000 
-3.49422e+00 -8.50869e+00        00000 
-3.34578e+00 -8.49224e+00        00000 
-3.19803e+00 -8.47647e+00        00000 
-3.05101e+00 -8.46137e+00        00000 
-2.90462e+00 -8.44696e+00        00000 
-2.75889e+00 -8.43323e+00        00000 
-2.61375e+00 -8.42017e+00        00000 
-2.46920e+00 -8.40780e+00        00000 
-2.32517e+00 -8.39611e+00        00000 
-2.18168e+00 -8.38511e+00        00000 
-2.03865e+00 -8.37479e+00        00000 
-1.89609e+00 -8.36515e+00        00000 
-1.75393e+00 -8.35620e+00        00000 
-1.61219e+00 -8.34793e+00        00000 
-1.47078e+00 -8.34035e+00        00000 
-1.32972e+00 -8.33346e+00        00000 
-1.18894e+00 -8.32725e+00        00000 
-1.04845e+00 -8.32174e+00        00000 
-9.08168e-01 -8.31691e+00        00000 
-7.68117e-01 -8.31277e+00        00000 
-6.28211e-01 -8.30932e+00        00000 
-4.88475e-01 -8.30656e+00        00000 
-3.48820e-01 -8.30449e+00        00000 
-2.09272e-01 -8.30311e+00        00000 
-6.97428e-02 -8.30242e+00        00000 
 6.97428e-02 -8.30242e+00        00000 
 2.09272e-01 -8.30311e+00        00000 
 3.48820e-01 -8.30449e+00        00000 
 4.88475e-01 -8.30656e+00        00000 
 6.28211e-01 -8.30932e+00        00000 
 7.68117e-01 -8.31277e+00        00000 
 9.08168e-01 -8.31691e+00        00000 
 1.04845e+00 -8.32174e+00        00000 
 1.18894e+00 -8.32725e+00        00000 
 1.32972e+00 -8.33346e+00        00000 
 1.47078e+00 -8.34035e+00        00000 
 1.61219e+00 -8.34793e+00        00000 
 1.75393e+00 -8.35620e+00        00000 
 1.89609e+00 -8.36515e+00        00000 
 2.03865e+00 -8.37479e+00        00000 
 2.18168e+00 -8.38511e+00        00000 
 2.32517e+00 -8.39611e+00        00000 
 2.46920e+00 -8.40780e+00        00000 
 2.61375e+00 -8.42017e+00        00000 
 2.75889e+00 -8.43323e+00        00000 
 2.90462e+00 -8.44696e+00        00000 
 3.05101e+00 -8.46137e+00        00000 
 3.19803e+00 -8.47647e+00        00000 
 3.34578e+00 -8.49224e+00        00000 
 3.49422e+00 -8.50869e+00        00000 
 3.64345e+00 -8.52581e+00        00000 
 3.79342e+00 -8.54361e+00        00000 
 3.94425e+00 -8.56209e+00        00000 
 4.09588e+00 -8.58124e+00        00000 
 4.24842e+00 -8.60107e+00        00000 
 4.40182e+00 -8.62156e+00        00000 
 4.55619e+00 -8.64274e+00        00000 
 4.71148e+00 -8.66458e+00        00000 
 4.86779e+00 -8.68709e+00        00000 
 5.02509e+00 -8.71028e+00        00000 
 5.18346e+00 -8.73414e+00        00000 
 5.34288e+00 -8.75866e+00        00000 
 5.50343e+00 -8.78387e+00        00000 
 5.66508e+00 -8.80974e+00        00000 
 5.82792e+00 -8.83628e+00        00000 
 5.99191e+00 -8.86349e+00        00000 
 6.15716e+00 -8.89138e+00        00000 
 6.32362e+00 -8.91994e+00        00000 
 6.49138e+00 -8.94917e+00        00000 
 6.66041e+00 -8.97908e+00        00000 
 6.83081e+00 -9.00966e+00        00000 
 7.00254e+00 -9.04091e+00        00000 
 7.17569e+00 -9.07285e+00        00000 
 7.35023e+00 -9.10545e+00        00000 
 7.52625e+00 -9.13874e+00        00000 
-7.67418e+00 -9.49522e+00        00000 
-7.49517e+00 -9.46247e+00        00000 
-7.31764e+00 -9.43039e+00        00000 
-7.14151e+00 -9.39897e+00        00000 
-6.96680e+00 -9.36823e+00        00000 
-6.79342e+00 -9.33814e+00        00000 
-6.62141e+00 -9.30873e+00        00000 
-6.45067e+00 -9.27997e+00        00000 
-6.28124e+00 -9.25188e+00        00000 
-6.11302e+00 -9.22445e+00        00000 
-5.94605e+00 -9.19768e+00        00000 
-5.78024e+00 -9.17157e+00        00000 
-5.61562e+00 -9.14613e+00        00000 
-5.45210e+00 -9.12134e+00        00000 
-5.28972e+00 -9.09722e+00        00000 
-5.12837e+00 -9.07376e+00        00000 
-4.96811e+00 -9.05096e+00        00000 
-4.80882e+00 -9.02882e+00        00000 
-4.65056e+00 -9.00734e+00        00000 
-4.49322e+00 -8.98653e+00        00000 
-4.33684e+00 -8.96638e+00        00000 
-4.18133e+00 -8.94689e+00        00000 
-4.02672e+00 -8.92806e+00        00000 
-3.87292e+00 -8.90990e+00        00000 
-3.71996e+00 -8.89240e+00        00000 
-3.56776e+00 -8.87557e+00        00000 
-3.41633e+00 -8.85940e+00        00000 
-3.26560e+00 -8.84390e+00        00000 
-3.11559e+00 -8.82907e+00        00000 
-2.96621e+00 -8.81491e+00        00000 
-2.81750e+00 -8.80141e+00        00000 
-2.66936e+00 -8.78858e+00        00000 
-2.52182e+00 -8.77643e+00        00000 
-2.37479e+00 -8.76494e+00        00000 
-2.22831e+00 -8.75413e+00        00000 
-2.08227e+00 -8.74399e+00        00000 
-1.93672e+00 -8.73452e+00        00000 
-1.79156e+00 -8.72573e+00        00000 
-1.64681e+00 -8.71761e+00        00000 
-1.50239e+00 -8.71016e+00        00000 
-1.35833e+00 -8.70339e+00        00000 
-1.21454e+00 -8.69729e+00        00000 
-1.07104e+00 -8.69187e+00        00000 
-9.27749e-01 -8.68713e+00        00000 
-7.84687e-01 -8.68307e+00        00000 
-6.41769e-01 -8.67968e+00        00000 
-4.99021e-01 -8.67697e+00        00000 
-3.56353e-01 -8.67493e+00        00000 
-2.13792e-01 -8.67358e+00        00000 
-7.12493e-02 -8.67290e+00        00000 
 7.12493e-02 -8.67290e+00        00000 
 2.13792e-01 -8.67358e+00        00000 
 3.56353e-01 -8.67493e+00        00000 
 4.99021e-01 -8.67697e+00        00000 
 6.41769e-01 -8.67968e+00        00000 
 7.84687e-01 -8.68307e+00        00000 
 9.27749e-01 -8.68713e+00        00000 
 1.07104e+00 -8.69187e+00        00000 
 1.21454e+00 -8.69729e+00        00000 
 1.35833e+00 -8.70339e+00        00000 
 1.50239e+00 -8.71016e+00        00000 
 1.64681e+00 -8.71761e+00        00000 
 1.79156e+00 -8.72573e+00        00000 
 1.93672e+00 -8.73452e+00        00000 
 2.08227e+00 -8.74399e+00        00000 
 2.22831e+00 -8.75413e+00        00000 
 2.37479e+00 -8.76494e+00        00000 
 2.52182e+00 -8.77643e+00        00000 
 2.66936e+00 -8.78858e+00        00000 
 2.81750e+00 -8.80141e+00        00000 
 2.96621e+00 -8.81491e+00        00000 
 3.11559e+00 -8.82907e+00        00000 
 3.26560e+00 -8.84390e+00        00000 
 3.41633e+00 -8.85940e+00        00000 
 3.56776e+00 -8.87557e+00        00000 
 3.71996e+00 -8.89240e+00        00000 
 3.87292e+00 -8.90990e+00        00000 
 4.02672e+00 -8.92806e+00        00000 
 4.18133e+00 -8.94689e+00        00000 
 4.33684e+00 -8.96638e+00        00000 
 4.49322e+00 -8.98653e+00        00000 
 4.65056e+00 -9.00734e+00        00000 
 4.80882e+00 -9.02882e+00        00000 
 4.96811e+00 -9.05096e+00        00000 
 5.12837e+00 -9.07376e+00        00000 
 5.28972e+00 -9.09722e+00        00000 
 5.45210e+00 -9.12134e+00        00000 
 5.61562e+00 -9.14613e+00        00000 
 5.78024e+00 -9.17157e+00        00000 
 5.94605e+00 -9.19768e+00        00000 
 6.11302e+00 -9.22445e+00        00000 
 6.28124e+00 -9.25188e+00        00000 
 6.45067e+00 -9.27997e+00        00000 
 6.62141e+00 -9.30873e+00        00000 
 6.79342e+00 -9.33814e+00        00000 
 6.96680e+00 -9.36823e+00        00000 
 7.14151e+00 -9.39897e+00        00000 
 7.31764e+00 -9.43039e+00        00000 
 7.49517e+00 -9.46247e+00        00000 
 7.67418e+00 -9.49522e+00        00000 
-7.81969e+00 -9.85763e+00        00000 
-7.63774e+00 -9.82542e+00        00000 
-7.45728e+00 -9.79387e+00        00000 
-7.27820e+00 -9.76297e+00        00000 
-7.10056e+00 -9.73274e+00        00000 
-6.92425e+00 -9.70315e+00        00000 
-6.74930e+00 -9.67422e+00        00000 
-6.57563e+00 -9.64594e+00        00000 
-6.40328e+00 -9.61832e+00        00000 
-6.23213e+00 -9.59134e+00        00000 
-6.06224e+00 -9.56502e+00        00000 
-5.89350e+00 -9.53935e+00        00000 
-5.72596e+00 -9.51433e+00        00000 
-5.55952e+00 -9.48996e+00        00000 
-5.39421e+00 -9.46625e+00        00000 
-5.22994e+00 -9.44318e+00        00000 
-5.06675e+00 -9.42077e+00        00000 
-4.90455e+00 -9.39900e+00        00000 
-4.74336e+00 -9.37789e+00        00000 
-4.58309e+00 -9.35743e+00        00000 
-4.42379e+00 -9.33762e+00        00000 
-4.26535e+00 -9.31847e+00        00000 
-4.10781e+00 -9.29997e+00        00000 
-3.95108e+00 -9.28212e+00        00000 
-3.79519e+00 -9.26492e+00        00000 
-3.64005e+00 -9.24838e+00        00000 
-3.48569e+00 -9.23250e+00        00000 
-3.33203e+00 -9.21727e+00        00000 
-3.17908e+00 -9.20269e+00        00000 
-3.02676e+00 -9.18878e+00        00000 
-2.87511e+00 -9.17552e+00        00000 
-2.72402e+00 -9.16292e+00        00000 
-2.57354e+00 -9.15098e+00        00000 
-2.42357e+00 -9.13969e+00        00000 
-2.27414e+00 -9.12907e+00        00000 
-2.12515e+00 -9.11911e+00        00000 
-1.97665e+00 -9.10981e+00        00000 
-1.82853e+00 -9.10117e+00        00000 
-1.68083e+00 -9.09320e+00        00000 
-1.53346e+00 -9.08588e+00        00000 
-1.38645e+00 -9.07923e+00        00000 
-1.23970e+00 -9.07325e+00        00000 
-1.09324e+00 -9.06792e+00        00000 
-9.46991e-01 -9.06327e+00        00000 
-8.00971e-01 -9.05927e+00        00000 
-6.55093e-01 -9.05595e+00        00000 
-5.09384e-01 -9.05328e+00        00000 
-3.63756e-01 -9.05129e+00        00000 
-2.18234e-01 -9.04996e+00        00000 
-7.27298e-02 -9.04929e+00        00000 
 7.27298e-02 -9.04929e+00        00000 
 2.18234e-01 -9.04996e+00        00000 
 3.63756e-01 -9.05129e+00        00000 
 5.09384e-01 -9.05328e+00        00000 
 6.55093e-01 -9.05595e+00        00000 
 8.00971e-01 -9.05927e+00        00000 
 9.46991e-01 -9.06327e+00        00000 
 1.09324e+00 -9.06792e+00        00000 
 1.23970e+00 -9.07325e+00        00000 
 1.38645e+00 -9.07923e+00        00000 
 1.53346e+00 -9.08588e+00        00000 
 1.68083e+00 -9.09320e+00        00000 
 1.82853e+00 -9.10117e+00        00000 
 1.97665e+00 -9.10981e+00        00000 
 2.12515e+00 -9.11911e+00        00000 
 2.27414e+00 -9.12907e+00        00000 
 2.42357e+00 -9.13969e+00        00000 
 2.57354e+00 -9.15098e+00        00000 
 2.72402e+00 -9.16292e+00        00000 
 2.87511e+00 -9.17552e+00        00000 
 3.02676e+00 -9.18878e+00        00000 
 3.17908e+00 -9.20269e+00        00000 
 3.33203e+00 -9.21727e+00        00000 
 3.48569e+00 -9.23250e+00        00000 
 3.64005e+00 -9.24838e+00        00000 
 3.79519e+00 -9.26492e+00        00000 
 3.95108e+00 -9.28212e+00        00000 
 4.10781e+00 -9.29997e+00        00000 
 4.26535e+00 -9.31847e+00        00000 
 4.42379e+00 -9.33762e+00        00000 
 4.58309e+00 -9.35743e+00        00000 
 4.74336e+00 -9.37789e+00        00000 
 4.90455e+00 -9.39900e+00        00000 
 5.06675e+00 -9.42077e+00        00000 
 5.22994e+00 -9.44318e+00        00000 
 5.39421e+00 -9.46625e+00        00000 
 5.55952e+00 -9.48996e+00        00000 
 5.72596e+00 -9.51433e+00        00000 
 5.89350e+00 -9.53935e+00        00000 
 6.06224e+00 -9.56502e+00        00000 
 6.23213e+00 -9.59134e+00        00000 
 6.40328e+00 -9.61832e+00        00000 
 6.57563e+00 -9.64594e+00        00000 
 6.74930e+00 -9.67422e+00        00000 
 6.92425e+00 -9.70315e+00        00000 
 7.10056e+00 -9.73274e+00        00000 
 7.27820e+00 -9.76297e+00        00000 
 7.45728e+00 -9.79387e+00        00000 
 7.63774e+00 -9.82542e+00        00000 
 7.81969e+00 -9.85763e+00        00000 
-7.96278e+00 -1.02259e+01        00000 
-7.77794e+00 -1.01942e+01        00000 
-7.59458e+00 -1.01632e+01        00000 
-7.41262e+00 -1.01328e+01        00000 
-7.23209e+00 -1.01031e+01        00000 
-7.05289e+00 -1.00740e+01        00000 
-6.87507e+00 -1.00456e+01        00000 
-6.69851e+00 -1.00178e+01        00000 
-6.52328e+00 -9.99060e+00        00000 
-6.34925e+00 -9.96408e+00        00000 
-6.17648e+00 -9.93820e+00        00000 
-6.00487e+00 -9.91297e+00        00000 
-5.83445e+00 -9.88838e+00        00000 
-5.66513e+00 -9.86442e+00        00000 
-5.49694e+00 -9.84111e+00        00000 
-5.32980e+00 -9.81844e+00        00000 
-5.16373e+00 -9.79641e+00        00000 
-4.99865e+00 -9.77502e+00        00000 
-4.83458e+00 -9.75428e+00        00000 
-4.67144e+00 -9.73417e+00        00000 
-4.50925e+00 -9.71471e+00        00000 
-4.34793e+00 -9.69589e+00        00000 
-4.18752e+00 -9.67771e+00        00000 
-4.02790e+00 -9.66017e+00        00000 
-3.86913e+00 -9.64328e+00        00000 
-3.71111e+00 -9.62703e+00        00000 
-3.55386e+00 -9.61142e+00        00000 
-3.39731e+00 -9.59646e+00        00000 
-3.24147e+00 -9.58215e+00        00000 
-3.08627e+00 -9.56848e+00        00000 
-2.93172e+00 -9.55545e+00        00000 
-2.77774e+00 -9.54308e+00        00000 
-2.62437e+00 -9.53135e+00        00000 
-2.47150e+00 -9.52027e+00        00000 
-2.31917e+00 -9.50984e+00        00000 
-2.16729e+00 -9.50005e+00        00000 
-2.01588e+00 -9.49092e+00        00000 
-1.86487e+00 -9.48244e+00        00000 
-1.71427e+00 -9.47461e+00        00000 
-1.56399e+00 -9.46742e+00        00000 
-1.41407e+00 -9.46089e+00        00000 
-1.26442e+00 -9.45502e+00        00000 
-1.11506e+00 -9.44979e+00        00000 
-9.65898e-01 -9.44522e+00        00000 
-8.16970e-01 -9.44130e+00        00000 
-6.68184e-01 -9.43803e+00        00000 
-5.19567e-01 -9.43542e+00        00000 
-3.71029e-01 -9.43345e+00        00000 
-2.22598e-01 -9.43215e+00        00000 
-7.41844e-02 -9.43149e+00        00000 
 7.41844e-02 -9.43149e+00        00000 
 2.22598e-01 -9.43215e+00        00000 
 3.71029e-01 -9.43345e+00        00000 
 5.19567e-01 -9.43542e+00        00000 
 6.68184e-01 -9.43803e+00        00000 
 8.16970e-01 -9.44130e+00        00000 
 9.65898e-01 -9.44522e+00        00000 
 1.11506e+00 -9.44979e+00        00000 
 1.26442e+00 -9.45502e+00        00000 
 1.41407e+00 -9.46089e+00        00000 
 1.56399e+00 -9.46742e+00        00000 
 1.71427e+00 -9.47461e+00        00000 
 1.86487e+00 -9.48244e+00        00000 
 2.01588e+00 -9.49092e+00        00000 
 2.16729e+00 -9.50005e+00        00000 
 2.31917e+00 -9.50984e+00        00000 
 2.47150e+00 -9.52027e+00        00000 
 2.62437e+00 -9.53135e+00        00000 
 2.77774e+00 -9.54308e+00        00000 
 2.93172e+00 -9.55545e+00        00000 
 3.08627e+00 -9.56848e+00        00000 
 3.24147e+00 -9.58215e+00        00000 
 3.39731e+00 -9.59646e+00        00000 
 3.55386e+00 -9.61142e+00        00000 
 3.71111e+00 -9.62703e+00        00000 
 3.86913e+00 -9.64328e+00        00000 
 4.02790e+00 -9.66017e+00        00000 
 4.18752e+00 -9.67771e+00        00000 
 4.34793e+00 -9.69589e+00        00000 
 4.50925e+00 -9.71471e+00        00000 
 4.67144e+00 -9.73417e+00        00000 
 4.83458e+00 -9.75428e+00        00000 
 4.99865e+00 -9.77502e+00        00000 
 5.16373e+00 -9.79641e+00        00000 
 5.32980e+00 -9.81844e+00        00000 
 5.49694e+00 -9.84111e+00        00000 
 5.66513e+00 -9.86442e+00        00000 
 5.83445e+00 -9.88838e+00        00000 
 6.00487e+00 -9.91297e+00        00000 
 6.17648e+00 -9.93820e+00        00000 
 6.34925e+00 -9.96408e+00        00000 
 6.52328e+00 -9.99060e+00        00000 
 6.69851e+00 -1.00178e+01        00000 
 6.87507e+00 -1.00456e+01        00000 
 7.05289e+00 -1.00740e+01        00000 
 7.23209e+00 -1.01031e+01        00000 
 7.41262e+00 -1.01328e+01        00000 
 7.59458e+00 -1.01632e+01        00000 
 7.77794e+00 -1.01942e+01        00000 
 7.96278e+00 -1.02259e+01        00000 
-8.10345e+00 -1.05999e+01        00000 
-7.91576e+00 -1.05687e+01        00000 
-7.72956e+00 -1.05383e+01        00000 
-7.54476e+00 -1.05084e+01        00000 
-7.36139e+00 -1.04792e+01        00000 
-7.17935e+00 -1.04506e+01        00000 
-6.99869e+00 -1.04226e+01        00000 
-6.81931e+00 -1.03953e+01        00000 
-6.64123e+00 -1.03686e+01        00000 
-6.46438e+00 -1.03426e+01        00000 
-6.28878e+00 -1.03171e+01        00000 
-6.11433e+00 -1.02923e+01        00000 
-5.94108e+00 -1.02682e+01        00000 
-5.76893e+00 -1.02446e+01        00000 
-5.59792e+00 -1.02217e+01        00000 
-5.42794e+00 -1.01994e+01        00000 
-5.25905e+00 -1.01778e+01        00000 
-5.09113e+00 -1.01568e+01        00000 
-4.92423e+00 -1.01364e+01        00000 
-4.75826e+00 -1.01167e+01        00000 
-4.59324e+00 -1.00975e+01        00000 
-4.42909e+00 -1.00790e+01        00000 
-4.26584e+00 -1.00612e+01        00000 
-4.10339e+00 -1.00440e+01        00000 
-3.94179e+00 -1.00274e+01        00000 
-3.78093e+00 -1.00114e+01        00000 
-3.62085e+00 -9.99608e+00        00000 
-3.46145e+00 -9.98139e+00        00000 
-3.30278e+00 -9.96733e+00        00000 
-3.14473e+00 -9.95390e+00        00000 
-2.98734e+00 -9.94112e+00        00000 
-2.83052e+00 -9.92896e+00        00000 
-2.67430e+00 -9.91745e+00        00000 
-2.51859e+00 -9.90657e+00        00000 
-2.36341e+00 -9.89633e+00        00000 
-2.20868e+00 -9.88672e+00        00000 
-2.05443e+00 -9.87775e+00        00000 
-1.90056e+00 -9.86942e+00        00000 
-1.74711e+00 -9.86174e+00        00000 
-1.59398e+00 -9.85469e+00        00000 
-1.44121e+00 -9.84828e+00        00000 
-1.28870e+00 -9.84251e+00        00000 
-1.13648e+00 -9.83738e+00        00000 
-9.84469e-01 -9.83289e+00        00000 
-8.32686e-01 -9.82904e+00        00000 
-6.81043e-01 -9.82583e+00        00000 
-5.29569e-01 -9.82326e+00        00000 
-3.78173e-01 -9.82134e+00        00000 
-2.26885e-01 -9.82006e+00        00000 
-7.56132e-02 -9.81941e+00        00000 
 7.56132e-02 -9.81941e+00        00000 
 2.26885e-01 -9.82006e+00        00000 
 3.78173e-01 -9.82134e+00        00000 
 5.29569e-01 -9.82326e+00        00000 
 6.81043e-01 -9.82583e+00        00000 
 8.32686e-01 -9.82904e+00        00000 
 9.84469e-01 -9.83289e+00        00000 
 1.13648e+00 -9.83738e+00        00000 
 1.28870e+00 -9.84251e+00        00000 
 1.44121e+00 -9.84828e+00        00000 
 1.59398e+00 -9.85469e+00        00000 
 1.74711e+00 -9.86174e+00        00000 
 1.90056e+00 -9.86942e+00        00000 
 2.05443e+00 -9.87775e+00        00000 
 2.20868e+00 -9.88672e+00        00000 
 2.36341e+00 -9.89633e+00        00000 
 2.51859e+00 -9.90657e+00        00000 
 2.67430e+00 -9.91745e+00        00000 
 2.83052e+00 -9.92896e+00        00000 
 2.98734e+00 -9.94112e+00        00000 
 3.14473e+00 -9.95390e+00        00000 
 3.30278e+00 -9.96733e+00        00000 
 3.46145e+00 -9.98139e+00        00000 
 3.62085e+00 -9.99608e+00        00000 
 3.78093e+00 -1.00114e+01        00000 
 3.94179e+00 -1.00274e+01        00000 
 4.10339e+00 -1.00440e+01        00000 
 4.26584e+00 -1.00612e+01        00000 
 4.42909e+00 -1.00790e+01        00000 
 4.59324e+00 -1.00975e+01        00000 
 4.75826e+00 -1.01167e+01        00000 
 4.92423e+00 -1.01364e+01        00000 
 5.09113e+00 -1.01568e+01        00000 
 5.25905e+00 -1.01778e+01        00000 
 5.42794e+00 -1.01994e+01        00000 
 5.59792e+00 -1.02217e+01        00000 
 5.76893e+00 -1.02446e+01        00000 
 5.94108e+00 -1.02682e+01        00000 
 6.11433e+00 -1.02923e+01        00000 
 6.28878e+00 -1.03171e+01        00000 
 6.46438e+00 -1.03426e+01        00000 
 6.64123e+00 -1.03686e+01        00000 
 6.81931e+00 -1.03953e+01        00000 
 6.99869e+00 -1.04226e+01        00000 
 7.17935e+00 -1.04506e+01        00000 
 7.36139e+00 -1.04792e+01        00000 
 7.54476e+00 -1.05084e+01        00000 
 7.72956e+00 -1.05383e+01        00000 
 7.91576e+00 -1.05687e+01        00000 
 8.10345e+00 -1.05999e+01        00000 
-8.24168e+00 -1.09795e+01        00000 
-8.05119e+00 -1.09489e+01        00000 
-7.86221e+00 -1.09190e+01        00000 
-7.67461e+00 -1.08896e+01        00000 
-7.48845e+00 -1.08609e+01        00000 
-7.30363e+00 -1.08328e+01        00000 
-7.12018e+00 -1.08054e+01        00000 
-6.93801e+00 -1.07785e+01        00000 
-6.75715e+00 -1.07523e+01        00000 
-6.57751e+00 -1.07267e+01        00000 
-6.39912e+00 -1.07017e+01        00000 
-6.22189e+00 -1.06773e+01        00000 
-6.04586e+00 -1.06536e+01        00000 
-5.87093e+00 -1.06305e+01        00000 
-5.69713e+00 -1.06080e+01        00000 
-5.52438e+00 -1.05861e+01        00000 
-5.35270e+00 -1.05648e+01        00000 
-5.18200e+00 -1.05442e+01        00000 
-5.01232e+00 -1.05242e+01        00000 
-4.84356e+00 -1.05048e+01        00000 
-4.67576e+00 -1.04860e+01        00000 
-4.50883e+00 -1.04678e+01        00000 
-4.34279e+00 -1.04503e+01        00000 
-4.17756e+00 -1.04334e+01        00000 
-4.01316e+00 -1.04171e+01        00000 
-3.84951e+00 -1.04014e+01        00000 
-3.68664e+00 -1.03864e+01        00000 
-3.52446e+00 -1.03719e+01        00000 
-3.36299e+00 -1.03581e+01        00000 
-3.20216e+00 -1.03450e+01        00000 
-3.04198e+00 -1.03324e+01        00000 
-2.88236e+00 -1.03205e+01        00000 
-2.72334e+00 -1.03092e+01        00000 
-2.56483e+00 -1.02985e+01        00000 
-2.40686e+00 -1.02884e+01        00000 
-2.24933e+00 -1.02790e+01        00000 
-2.09228e+00 -1.02702e+01        00000 
-1.93561e+00 -1.02620e+01        00000 
-1.77936e+00 -1.02545e+01        00000 
-1.62343e+00 -1.02476e+01        00000 
-1.46786e+00 -1.02413e+01        00000 
-1.31255e+00 -1.02356e+01        00000 
-1.15753e+00 -1.02306e+01        00000 
-1.00271e+00 -1.02262e+01        00000 
-8.48119e-01 -1.02224e+01        00000 
-6.93670e-01 -1.02193e+01        00000 
-5.39391e-01 -1.02167e+01        00000 
-3.85189e-01 -1.02148e+01        00000 
-2.31095e-01 -1.02136e+01        00000 
-7.70162e-02 -1.02130e+01        00000 
 7.70162e-02 -1.02130e+01        00000 
 2.31095e-01 -1.02136e+01        00000 
 3.85189e-01 -1.02148e+01        00000 
 5.39391e-01 -1.02167e+01        00000 
 6.93670e-01 -1.02193e+01        00000 
 8.48119e-01 -1.02224e+01        00000 
 1.00271e+00 -1.02262e+01        00000 
 1.15753e+00 -1.02306e+01        00000 
 1.31255e+00 -1.02356e+01        00000 
 1.46786e+00 -1.02413e+01        00000 
 1.62343e+00 -1.02476e+01        00000 
 1.77936e+00 -1.02545e+01        00000 
 1.93561e+00 -1.02620e+01        00000 
 2.09228e+00 -1.02702e+01        00000 
 2.24933e+00 -1.02790e+01        00000 
 2.40686e+00 -1.02884e+01        00000 
 2.56483e+00 -1.02985e+01        00000 
 2.72334e+00 -1.03092e+01        00000 
 2.88236e+00 -1.03205e+01        00000 
 3.04198e+00 -1.03324e+01        00000 
 3.20216e+00 -1.03450e+01        00000 
 3.36299e+00 -1.03581e+01        00000 
 3.52446e+00 -1.03719e+01        00000 
 3.68664e+00 -1.03864e+01        00000 
 3.84951e+00 -1.04014e+01        00000 
 4.01316e+00 -1.04171e+01        00000 
 4.17756e+00 -1.04334e+01        00000 
 4.34279e+00 -1.04503e+01        00000 
 4.50883e+00 -1.04678e+01        00000 
 4.67576e+00 -1.04860e+01        00000 
 4.84356e+00 -1.05048e+01        00000 
 5.01232e+00 -1.05242e+01        00000 
 5.18200e+00 -1.05442e+01        00000 
 5.35270e+00 -1.05648e+01        00000 
 5.52438e+00 -1.05861e+01        00000 
 5.69713e+00 -1.06080e+01        00000 
 5.87093e+00 -1.06305e+01        00000 
 6.04586e+00 -1.06536e+01        00000 
 6.22189e+00 -1.06773e+01        00000 
 6.39912e+00 -1.07017e+01        00000 
 6.57751e+00 -1.07267e+01        00000 
 6.75715e+00 -1.07523e+01        00000 
 6.93801e+00 -1.07785e+01        00000 
 7.12018e+00 -1.08054e+01        00000 
 7.30363e+00 -1.08328e+01        00000 
 7.48845e+00 -1.08609e+01        00000 
 7.67461e+00 -1.08896e+01        00000 
 7.86221e+00 -1.09190e+01        00000 
 8.05119e+00 -1.09489e+01        00000 
 8.24168e+00 -1.09795e+01        00000 
-8.37748e+00 -1.13647e+01        00000 
-8.18425e+00 -1.13346e+01        00000 
-7.99252e+00 -1.13052e+01        00000 
-7.80218e+00 -1.12764e+01        00000 
-7.61328e+00 -1.12482e+01        00000 
-7.42571e+00 -1.12206e+01        00000 
-7.23953e+00 -1.11936e+01        00000 
-7.05461e+00 -1.11673e+01        00000 
-6.87102e+00 -1.11415e+01        00000 
-6.68864e+00 -1.11164e+01        00000 
-6.50752e+00 -1.10918e+01        00000 
-6.32756e+00 -1.10679e+01        00000 
-6.14879e+00 -1.10446e+01        00000 
-5.97112e+00 -1.10219e+01        00000 
-5.79459e+00 -1.09998e+01        00000 
-5.61910e+00 -1.09783e+01        00000 
-5.44468e+00 -1.09574e+01        00000 
-5.27125e+00 -1.09371e+01        00000 
-5.09884e+00 -1.09175e+01        00000 
-4.92734e+00 -1.08984e+01        00000 
-4.75681e+00 -1.08800e+01        00000 
-4.58713e+00 -1.08622e+01        00000 
-4.41836e+00 -1.08450e+01        00000 
-4.25039e+00 -1.08284e+01        00000 
-4.08326e+00 -1.08124e+01        00000 
-3.91687e+00 -1.07970e+01        00000 
-3.75126e+00 -1.07822e+01        00000 
-3.58633e+00 -1.07680e+01        00000 
-3.42213e+00 -1.07545e+01        00000 
-3.25855e+00 -1.07416e+01        00000 
-3.09562e+00 -1.07292e+01        00000 
-2.93326e+00 -1.07175e+01        00000 
-2.77150e+00 -1.07064e+01        00000 
-2.61024e+00 -1.06960e+01        00000 
-2.44952e+00 -1.06861e+01        00000 
-2.28925e+00 -1.06768e+01        00000 
-2.12945e+00 -1.06682e+01        00000 
-1.97003e+00 -1.06602e+01        00000 
-1.81103e+00 -1.06528e+01        00000 
-1.65235e+00 -1.06460e+01        00000 
-1.49402e+00 -1.06398e+01        00000 
-1.33596e+00 -1.06343e+01        00000 
-1.17819e+00 -1.06293e+01        00000 
-1.02061e+00 -1.06250e+01        00000 
-8.63271e-01 -1.06213e+01        00000 
-7.06067e-01 -1.06182e+01        00000 
-5.49033e-01 -1.06157e+01        00000 
-3.92076e-01 -1.06139e+01        00000 
-2.35227e-01 -1.06126e+01        00000 
-7.83937e-02 -1.06120e+01        00000 
 7.83937e-02 -1.06120e+01        00000 
 2.35227e-01 -1.06126e+01        00000 
 3.92076e-01 -1.06139e+01        00000 
 5.49033e-01 -1.06157e+01        00000 
 7.06067e-01 -1.06182e+01        00000 
 8.63271e-01 -1.06213e+01        00000 
 1.02061e+00 -1.06250e+01        00000 
 1.17819e+00 -1.06293e+01        00000 
 1.33596e+00 -1.06343e+01        00000 
 1.49402e+00 -1.06398e+01        00000 
 1.65235e+00 -1.06460e+01        00000 
 1.81103e+00 -1.06528e+01        00000 
 1.97003e+00 -1.06602e+01        00000 
 2.12945e+00 -1.06682e+01        00000 
 2.28925e+00 -1.06768e+01        00000 
 2.44952e+00 -1.06861e+01        00000 
 2.61024e+00 -1.06960e+01        00000 
 2.77150e+00 -1.07064e+01        00000 
 2.93326e+00 -1.07175e+01        00000 
 3.09562e+00 -1.07292e+01        00000 
 3.25855e+00 -1.07416e+01        00000 
 3.42213e+00 -1.07545e+01        00000 
 3.58633e+00 -1.07680e+01        00000 
 3.75126e+00 -1.07822e+01        00000 
 3.91687e+00 -1.07970e+01        00000 
 4.08326e+00 -1.08124e+01        00000 
 4.25039e+00 -1.08284e+01        00000 
 4.41836e+00 -1.08450e+01        00000 
 4.58713e+00 -1.08622e+01        00000 
 4.75681e+00 -1.08800e+01        00000 
 4.92734e+00 -1.08984e+01        00000 
 5.09884e+00 -1.09175e+01        00000 
 5.27125e+00 -1.09371e+01        00000 
 5.44468e+00 -1.09574e+01        00000 
 5.61910e+00 -1.09783e+01        00000 
 5.79459e+00 -1.09998e+01        00000 
 5.97112e+00 -1.10219e+01        00000 
 6.14879e+00 -1.10446e+01        00000 
 6.32756e+00 -1.10679e+01        00000 
 6.50752e+00 -1.10918e+01        00000 
 6.68864e+00 -1.11164e+01        00000 
 6.87102e+00 -1.11415e+01        00000 
 7.05461e+00 -1.11673e+01        00000 
 7.23953e+00 -1.11936e+01        00000 
 7.42571e+00 -1.12206e+01        00000 
 7.61328e+00 -1.12482e+01        00000 
 7.80218e+00 -1.12764e+01        00000 
 7.99252e+00 -1.13052e+01        00000 
 8.18425e+00 -1.13346e+01        00000 
 8.37748e+00 -1.13647e+01        00000 
-8.51085e+00 -1.17553e+01        00000 
-8.31492e+00 -1.17258e+01        00000 
-8.12049e+00 -1.16969e+01        00000 
-7.92746e+00 -1.16686e+01        00000 
-7.73587e+00 -1.16409e+01        00000 
-7.54561e+00 -1.16138e+01        00000 
-7.35673e+00 -1.15873e+01        00000 
-7.16913e+00 -1.15615e+01        00000 
-6.98285e+00 -1.15362e+01        00000 
-6.79778e+00 -1.15115e+01        00000 
-6.61397e+00 -1.14874e+01        00000 
-6.43132e+00 -1.14639e+01        00000 
-6.24986e+00 -1.14410e+01        00000 
-6.06951e+00 -1.14187e+01        00000 
-5.89029e+00 -1.13970e+01        00000 
-5.71211e+00 -1.13759e+01        00000 
-5.53501e+00 -1.13554e+01        00000 
-5.35889e+00 -1.13355e+01        00000 
-5.18379e+00 -1.13162e+01        00000 
-5.00960e+00 -1.12975e+01        00000 
-4.83638e+00 -1.12795e+01        00000 
-4.66402e+00 -1.12620e+01        00000 
-4.49256e+00 -1.12451e+01        00000 
-4.32190e+00 -1.12288e+01        00000 
-4.15207e+00 -1.12131e+01        00000 
-3.98300e+00 -1.11980e+01        00000 
-3.81470e+00 -1.11835e+01        00000 
-3.64708e+00 -1.11696e+01        00000 
-3.48018e+00 -1.11563e+01        00000 
-3.31390e+00 -1.11436e+01        00000 
-3.14829e+00 -1.11315e+01        00000 
-2.98323e+00 -1.11200e+01        00000 
-2.81877e+00 -1.11091e+01        00000 
-2.65482e+00 -1.10988e+01        00000 
-2.49140e+00 -1.10892e+01        00000 
-2.32843e+00 -1.10801e+01        00000 
-2.16593e+00 -1.10716e+01        00000 
-2.00381e+00 -1.10637e+01        00000 
-1.84211e+00 -1.10565e+01        00000 
-1.68073e+00 -1.10498e+01        00000 
-1.51970e+00 -1.10438e+01        00000 
-1.35894e+00 -1.10383e+01        00000 
-1.19846e+00 -1.10335e+01        00000 
-1.03819e+00 -1.10292e+01        00000 
-8.78142e-01 -1.10256e+01        00000 
-7.18235e-01 -1.10226e+01        00000 
-5.58498e-01 -1.10201e+01        00000 
-3.98836e-01 -1.10183e+01        00000 
-2.39284e-01 -1.10171e+01        00000 
-7.97456e-02 -1.10165e+01        00000 
 7.97456e-02 -1.10165e+01        00000 
 2.39284e-01 -1.10171e+01        00000 
 3.98836e-01 -1.10183e+01        00000 
 5.58498e-01 -1.10201e+01        00000 
 7.18235e-01 -1.10226e+01        00000 
 8.78142e-01 -1.10256e+01        00000 
 1.03819e+00 -1.10292e+01        00000 
 1.19846e+00 -1.10335e+01        00000 
 1.35894e+00 -1.10383e+01        00000 
 1.51970e+00 -1.10438e+01        00000 
 1.68073e+00 -1.10498e+01        00000 
 1.84211e+00 -1.10565e+01        00000 
 2.00381e+00 -1.10637e+01        00000 
 2.16593e+00 -1.10716e+01        00000 
 2.32843e+00 -1.10801e+01        00000 
 2.49140e+00 -1.10892e+01        00000 
 2.65482e+00 -1.10988e+01        00000 
 2.81877e+00 -1.11091e+01        00000 
 2.98323e+00 -1.11200e+01        00000 
 3.14829e+00 -1.11315e+01        00000 
 3.31390e+00 -1.11436e+01        00000 
 3.48018e+00 -1.11563e+01        00000 
 3.64708e+00 -1.11696e+01        00000 
 3.81470e+00 -1.11835e+01        00000 
 3.98300e+00 -1.11980e+01        00000 
 4.15207e+00 -1.12131e+01        00000 
 4.32190e+00 -1.12288e+01        00000 
 4.49256e+00 -1.12451e+01        00000 
 4.66402e+00 -1.12620e+01        00000 
 4.83638e+00 -1.12795e+01        00000 
 5.00960e+00 -1.12975e+01        00000 
 5.18379e+00 -1.13162e+01        00000 
 5.35889e+00 -1.13355e+01        00000 
 5.53501e+00 -1.13554e+01        00000 
 5.71211e+00 -1.13759e+01        00000 
 5.89029e+00 -1.13970e+01        00000 
 6.06951e+00 -1.14187e+01        00000 
 6.24986e+00 -1.14410e+01        00000 
 6.43132e+00 -1.14639e+01        00000 
 6.61397e+00 -1.14874e+01        00000 
 6.79778e+00 -1.15115e+01        00000 
 6.98285e+00 -1.15362e+01        00000 
 7.16913e+00 -1.15615e+01        00000 
 7.35673e+00 -1.15873e+01        00000 
 7.54561e+00 -1.16138e+01        00000 
 7.73587e+00 -1.16409e+01        00000 
 7.92746e+00 -1.16686e+01        00000 
 8.12049e+00 -1.16969e+01        00000 
 8.31492e+00 -1.17258e+01        00000 
 8.51085e+00 -1.17553e+01        00000 
-8.64178e+00 -1.21513e+01        00000 
-8.44320e+00 -1.21223e+01        00000 
-8.24613e+00 -1.20940e+01        00000 
-8.05045e+00 -1.20662e+01        00000 
-7.85622e+00 -1.20390e+01        00000 
-7.66332e+00 -1.20124e+01        00000 
-7.47180e+00 -1.19864e+01        00000 
-7.28155e+00 -1.19610e+01        00000 
-7.09263e+00 -1.19362e+01        00000 
-6.90492e+00 -1.19119e+01        00000 
-6.71847e+00 -1.18883e+01        00000 
-6.53317e+00 -1.18652e+01        00000 
-6.34908e+00 -1.18428e+01        00000 
-6.16609e+00 -1.18209e+01        00000 
-5.98423e+00 -1.17996e+01        00000 
-5.80341e+00 -1.17789e+01        00000 
-5.62367e+00 -1.17588e+01        00000 
-5.44491e+00 -1.17393e+01        00000 
-5.26717e+00 -1.17203e+01        00000 
-5.09035e+00 -1.17020e+01        00000 
-4.91449e+00 -1.16842e+01        00000 
-4.73948e+00 -1.16671e+01        00000 
-4.56538e+00 -1.16505e+01        00000 
-4.39208e+00 -1.16345e+01        00000 
-4.21962e+00 -1.16191e+01        00000 
-4.04789e+00 -1.16043e+01        00000 
-3.87695e+00 -1.15901e+01        00000 
-3.70669e+00 -1.15764e+01        00000 
-3.53715e+00 -1.15634e+01        00000 
-3.36823e+00 -1.15510e+01        00000 
-3.19997e+00 -1.15391e+01        00000 
-3.03227e+00 -1.15278e+01        00000 
-2.86516e+00 -1.15172e+01        00000 
-2.69856e+00 -1.15071e+01        00000 
-2.53250e+00 -1.14976e+01        00000 
-2.36688e+00 -1.14887e+01        00000 
-2.20173e+00 -1.14804e+01        00000 
-2.03696e+00 -1.14726e+01        00000 
-1.87261e+00 -1.14655e+01        00000 
-1.70858e+00 -1.14590e+01        00000 
-1.54490e+00 -1.14531e+01        00000 
-1.38148e+00 -1.14477e+01        00000 
-1.21836e+00 -1.14430e+01        00000 
-1.05543e+00 -1.14388e+01        00000 
-8.92733e-01 -1.14352e+01        00000 
-7.30173e-01 -1.14323e+01        00000 
-5.67783e-01 -1.14299e+01        00000 
-4.05469e-01 -1.14281e+01        00000 
-2.43264e-01 -1.14269e+01        00000 
-8.10720e-02 -1.14263e+01        00000 
 8.10720e-02 -1.14263e+01        00000 
 2.43264e-01 -1.14269e+01        00000 
 4.05469e-01 -1.14281e+01        00000 
 5.67783e-01 -1.14299e+01        00000 
 7.30173e-01 -1.14323e+01        00000 
 8.92733e-01 -1.14352e+01        00000 
 1.05543e+00 -1.14388e+01        00000 
 1.21836e+00 -1.14430e+01        00000 
 1.38148e+00 -1.14477e+01        00000 
 1.54490e+00 -1.14531e+01        00000 
 1.70858e+00 -1.14590e+01        00000 
 1.87261e+00 -1.14655e+01        00000 
 2.03696e+00 -1.14726e+01        00000 
 2.20173e+00 -1.14804e+01        00000 
 2.36688e+00 -1.14887e+01        00000 
 2.53250e+00 -1.14976e+01        00000 
 2.69856e+00 -1.15071e+01        00000 
 2.86516e+00 -1.15172e+01        00000 
 3.03227e+00 -1.15278e+01        00000 
 3.19997e+00 -1.15391e+01        00000 
 3.36823e+00 -1.15510e+01        00000 
 3.53715e+00 -1.15634e+01        00000 
 3.70669e+00 -1.15764e+01        00000 
 3.87695e+00 -1.15901e+01        00000 
 4.04789e+00 -1.16043e+01        00000 
 4.21962e+00 -1.16191e+01        00000 
 4.39208e+00 -1.16345e+01        00000 
 4.56538e+00 -1.16505e+01        00000 
 4.73948e+00 -1.16671e+01        00000 
 4.91449e+00 -1.16842e+01        00000 
 5.09035e+00 -1.17020e+01        00000 
 5.26717e+00 -1.17203e+01        00000 
 5.44491e+00 -1.17393e+01        00000 
 5.62367e+00 -1.17588e+01        00000 
 5.80341e+00 -1.17789e+01        00000 
 5.98423e+00 -1.17996e+01        00000 
 6.16609e+00 -1.18209e+01        00000 
 6.34908e+00 -1.18428e+01        00000 
 6.53317e+00 -1.18652e+01        00000 
 6.71847e+00 -1.18883e+01        00000 
 6.90492e+00 -1.19119e+01        00000 
 7.09263e+00 -1.19362e+01        00000 
 7.28155e+00 -1.19610e+01        00000 
 7.47180e+00 -1.19864e+01        00000 
 7.66332e+00 -1.20124e+01        00000 
 7.85622e+00 -1.20390e+01        00000 
 8.05045e+00 -1.20662e+01        00000 
 8.24613e+00 -1.20940e+01        00000 
 8.44320e+00 -1.21223e+01        00000 
 8.64178e+00 -1.21513e+01        00000 
-8.77027e+00 -1.25525e+01        00000 
-8.56910e+00 -1.25241e+01        00000 
-8.36943e+00 -1.24962e+01        00000 
-8.17115e+00 -1.24690e+01        00000 
-7.97432e+00 -1.24423e+01        00000 
-7.77883e+00 -1.24162e+01        00000 
-7.58471e+00 -1.23907e+01        00000 
-7.39188e+00 -1.23658e+01        00000 
-7.20036e+00 -1.23414e+01        00000 
-7.01006e+00 -1.23177e+01        00000 
-6.82102e+00 -1.22945e+01        00000 
-6.63313e+00 -1.22718e+01        00000 
-6.44645e+00 -1.22498e+01        00000 
-6.26086e+00 -1.22283e+01        00000 
-6.07641e+00 -1.22075e+01        00000 
-5.89300e+00 -1.21871e+01        00000 
-5.71067e+00 -1.21674e+01        00000 
-5.52932e+00 -1.21483e+01        00000 
-5.34899e+00 -1.21297e+01        00000 
-5.16958e+00 -1.21117e+01        00000 
-4.99112e+00 -1.20943e+01        00000 
-4.81353e+00 -1.20774e+01        00000 
-4.63683e+00 -1.20612e+01        00000 
-4.46094e+00 -1.20455e+01        00000 
-4.28588e+00 -1.20304e+01        00000 
-4.11157e+00 -1.20159e+01        00000 
-3.93803e+00 -1.20019e+01        00000 
-3.76518e+00 -1.19886e+01        00000 
-3.59304e+00 -1.19758e+01        00000 
-3.42153e+00 -1.19636e+01        00000 
-3.25067e+00 -1.19519e+01        00000 
-3.08037e+00 -1.19409e+01        00000 
-2.91067e+00 -1.19304e+01        00000 
-2.74147e+00 -1.19205e+01        00000 
-2.57281e+00 -1.19112e+01        00000 
-2.40459e+00 -1.19025e+01        00000 
-2.23684e+00 -1.18944e+01        00000 
-2.06948e+00 -1.18868e+01        00000 
-1.90253e+00 -1.18798e+01        00000 
-1.73590e+00 -1.18734e+01        00000 
-1.56962e+00 -1.18676e+01        00000 
-1.40360e+00 -1.18623e+01        00000 
-1.23787e+00 -1.18577e+01        00000 
-1.07234e+00 -1.18536e+01        00000 
-9.07045e-01 -1.18501e+01        00000 
-7.41883e-01 -1.18472e+01        00000 
-5.76891e-01 -1.18449e+01        00000 
-4.11975e-01 -1.18431e+01        00000 
-2.47167e-01 -1.18420e+01        00000 
-8.23731e-02 -1.18414e+01        00000 
 8.23731e-02 -1.18414e+01        00000 
 2.47167e-01 -1.18420e+01        00000 
 4.11975e-01 -1.18431e+01        00000 
 5.76891e-01 -1.18449e+01        00000 
 7.41883e-01 -1.18472e+01        00000 
 9.07045e-01 -1.18501e+01        00000 
 1.07234e+00 -1.18536e+01        00000 
 1.23787e+00 -1.18577e+01        00000 
 1.40360e+00 -1.18623e+01        00000 
 1.56962e+00 -1.18676e+01        00000 
 1.73590e+00 -1.18734e+01        00000 
 1.90253e+00 -1.18798e+01        00000 
 2.06948e+00 -1.18868e+01        00000 
 2.23684e+00 -1.18944e+01        00000 
 2.40459e+00 -1.19025e+01        00000 
 2.57281e+00 -1.19112e+01        00000 
 2.74147e+00 -1.19205e+01        00000 
 2.91067e+00 -1.19304e+01        00000 
 3.08037e+00 -1.19409e+01        00000 
 3.25067e+00 -1.19519e+01        00000 
 3.42153e+00 -1.19636e+01        00000 
 3.59304e+00 -1.19758e+01        00000 
 3.76518e+00 -1.19886e+01        00000 
 3.93803e+00 -1.20019e+01        00000 
 4.11157e+00 -1.20159e+01        00000 
 4.28588e+00 -1.20304e+01        00000 
 4.46094e+00 -1.20455e+01        00000 
 4.63683e+00 -1.20612e+01        00000 
 4.81353e+00 -1.20774e+01        00000 
 4.99112e+00 -1.20943e+01        00000 
 5.16958e+00 -1.21117e+01        00000 
 5.34899e+00 -1.21297e+01        00000 
 5.52932e+00 -1.21483e+01        00000 
 5.71067e+00 -1.21674e+01        00000 
 5.89300e+00 -1.21871e+01        00000 
 6.07641e+00 -1.22075e+01        00000 
 6.26086e+00 -1.22283e+01        00000 
 6.44645e+00 -1.22498e+01        00000 
 6.63313e+00 -1.22718e+01        00000 
 6.82102e+00 -1.22945e+01        00000 
 7.01006e+00 -1.23177e+01        00000 
 7.20036e+00 -1.23414e+01        00000 
 7.39188e+00 -1.23658e+01        00000 
 7.58471e+00 -1.23907e+01        00000 
 7.77883e+00 -1.24162e+01        00000 
 7.97432e+00 -1.24423e+01        00000 
 8.17115e+00 -1.24690e+01        00000 
 8.36943e+00 -1.24962e+01        00000 
 8.56910e+00 -1.25241e+01        00000 
 8.77027e+00 -1.25525e+01        00000 
-8.89632e+00 -1.29588e+01        00000 
-8.69260e+00 -1.29310e+01        00000 
-8.49038e+00 -1.29037e+01        00000 
-8.28956e+00 -1.28769e+01        00000 
-8.09019e+00 -1.28508e+01        00000 
-7.89215e+00 -1.28252e+01        00000 
-7.69549e+00 -1.28002e+01        00000 
-7.50011e+00 -1.27757e+01        00000 
-7.30604e+00 -1.27518e+01        00000 
-7.11320e+00 -1.27285e+01        00000 
-6.92162e+00 -1.27058e+01        00000 
-6.73119e+00 -1.26836e+01        00000 
-6.54196e+00 -1.26620e+01        00000 
-6.35383e+00 -1.26409e+01        00000 
-6.16684e+00 -1.26204e+01        00000 
-5.98089e+00 -1.26005e+01        00000 
-5.79602e+00 -1.25812e+01        00000 
-5.61212e+00 -1.25624e+01        00000 
-5.42925e+00 -1.25442e+01        00000 
-5.24729e+00 -1.25265e+01        00000 
-5.06629e+00 -1.25095e+01        00000 
-4.88616e+00 -1.24929e+01        00000 
-4.70692e+00 -1.24770e+01        00000 
-4.52848e+00 -1.24616e+01        00000 
-4.35088e+00 -1.24468e+01        00000 
-4.17402e+00 -1.24326e+01        00000 
-3.99794e+00 -1.24189e+01        00000 
-3.82254e+00 -1.24058e+01        00000 
-3.64786e+00 -1.23933e+01        00000 
-3.47379e+00 -1.23813e+01        00000 
-3.30039e+00 -1.23699e+01        00000 
-3.12754e+00 -1.23591e+01        00000 
-2.95530e+00 -1.23488e+01        00000 
-2.78355e+00 -1.23391e+01        00000 
-2.61234e+00 -1.23300e+01        00000 
-2.44157e+00 -1.23215e+01        00000 
-2.27128e+00 -1.23135e+01        00000 
-2.10136e+00 -1.23061e+01        00000 
-1.93186e+00 -1.22992e+01        00000 
-1.76268e+00 -1.22929e+01        00000 
-1.59385e+00 -1.22872e+01        00000 
-1.42528e+00 -1.22821e+01        00000 
-1.25701e+00 -1.22775e+01        00000 
-1.08893e+00 -1.22736e+01        00000 
-9.21078e-01 -1.22701e+01        00000 
-7.53364e-01 -1.22673e+01        00000 
-5.85822e-01 -1.22650e+01        00000 
-4.18353e-01 -1.22633e+01        00000 
-2.50995e-01 -1.22621e+01        00000 
-8.36487e-02 -1.22616e+01        00000 
 8.36487e-02 -1.22616e+01        00000 
 2.50995e-01 -1.22621e+01        00000 
 4.18353e-01 -1.22633e+01        00000 
 5.85822e-01 -1.22650e+01        00000 
 7.53364e-01 -1.22673e+01        00000 
 9.21078e-01 -1.22701e+01        00000 
 1.08893e+00 -1.22736e+01        00000 
 1.25701e+00 -1.22775e+01        00000 
 1.42528e+00 -1.22821e+01        00000 
 1.59385e+00 -1.22872e+01        00000 
 1.76268e+00 -1.22929e+01        00000 
 1.93186e+00 -1.22992e+01        00000 
 2.10136e+00 -1.23061e+01        00000 
 2.27128e+00 -1.23135e+01        00000 
 2.44157e+00 -1.23215e+01        00000 
 2.61234e+00 -1.23300e+01        00000 
 2.78355e+00 -1.23391e+01        00000 
 2.95530e+00 -1.23488e+01        00000 
 3.12754e+00 -1.23591e+01        00000 
 3.30039e+00 -1.23699e+01        00000 
 3.47379e+00 -1.23813e+01        00000 
 3.64786e+00 -1.23933e+01        00000 
 3.82254e+00 -1.24058e+01        00000 
 3.99794e+00 -1.24189e+01        00000 
 4.17402e+00 -1.24326e+01        00000 
 4.35088e+00 -1.24468e+01        00000 
 4.52848e+00 -1.24616e+01        00000 
 4.70692e+00 -1.24770e+01        00000 
 4.88616e+00 -1.24929e+01        00000 
 5.06629e+00 -1.25095e+01        00000 
 5.24729e+00 -1.25265e+01        00000 
 5.42925e+00 -1.25442e+01        00000 
 5.61212e+00 -1.25624e+01        00000 
 5.79602e+00 -1.25812e+01        00000 
 5.98089e+00 -1.26005e+01        00000 
 6.16684e+00 -1.26204e+01        00000 
 6.35383e+00 -1.26409e+01        00000 
 6.54196e+00 -1.26620e+01        00000 
 6.73119e+00 -1.26836e+01        00000 
 6.92162e+00 -1.27058e+01        00000 
 7.11320e+00 -1.27285e+01        00000 
 7.30604e+00 -1.27518e+01        00000 
 7.50011e+00 -1.27757e+01        00000 
 7.69549e+00 -1.28002e+01        00000 
 7.89215e+00 -1.28252e+01        00000 
 8.09019e+00 -1.28508e+01        00000 
 8.28956e+00 -1.28769e+01        00000 
 8.49038e+00 -1.29037e+01        00000 
 8.69260e+00 -1.29310e+01        00000 
 8.89632e+00 -1.29588e+01        00000 
-9.01993e+00 -1.33702e+01        00000 
-8.81371e+00 -1.33429e+01        00000 
-8.60900e+00 -1.33161e+01        00000 
-8.40568e+00 -1.32899e+01        00000 
-8.20381e+00 -1.32643e+01        00000 
-8.00327e+00 -1.32392e+01        00000 
-7.80412e+00 -1.32147e+01        00000 
-7.60624e+00 -1.31907e+01        00000 
-7.40968e+00 -1.31673e+01        00000 
-7.21434e+00 -1.31444e+01        00000 
-7.02026e+00 -1.31221e+01        00000 
-6.82734e+00 -1.31004e+01        00000 
-6.63562e+00 -1.30792e+01        00000 
-6.44500e+00 -1.30585e+01        00000 
-6.25551e+00 -1.30385e+01        00000 
-6.06707e+00 -1.30189e+01        00000 
-5.87970e+00 -1.30000e+01        00000 
-5.69331e+00 -1.29816e+01        00000 
-5.50794e+00 -1.29637e+01        00000 
-5.32349e+00 -1.29464e+01        00000 
-5.14000e+00 -1.29297e+01        00000 
-4.95736e+00 -1.29135e+01        00000 
-4.77563e+00 -1.28979e+01        00000 
-4.59470e+00 -1.28828e+01        00000 
-4.41460e+00 -1.28683e+01        00000 
-4.23525e+00 -1.28543e+01        00000 
-4.05667e+00 -1.28409e+01        00000 
-3.87877e+00 -1.28281e+01        00000 
-3.70159e+00 -1.28158e+01        00000 
-3.52503e+00 -1.28041e+01        00000 
-3.34913e+00 -1.27929e+01        00000 
-3.17379e+00 -1.27823e+01        00000 
-2.99905e+00 -1.27723e+01        00000 
-2.82480e+00 -1.27628e+01        00000 
-2.65109e+00 -1.27538e+01        00000 
-2.47782e+00 -1.27455e+01        00000 
-2.30503e+00 -1.27376e+01        00000 
-2.13262e+00 -1.27304e+01        00000 
-1.96062e+00 -1.27237e+01        00000 
-1.78894e+00 -1.27175e+01        00000 
-1.61761e+00 -1.27119e+01        00000 
-1.44654e+00 -1.27069e+01        00000 
-1.27576e+00 -1.27024e+01        00000 
-1.10518e+00 -1.26985e+01        00000 
-9.34832e-01 -1.26952e+01        00000 
-7.64618e-01 -1.26924e+01        00000 
-5.94575e-01 -1.26902e+01        00000 
-4.24605e-01 -1.26885e+01        00000 
-2.54746e-01 -1.26874e+01        00000 
-8.48991e-02 -1.26868e+01        00000 
 8.48991e-02 -1.26868e+01        00000 
 2.54746e-01 -1.26874e+01        00000 
 4.24605e-01 -1.26885e+01        00000 
 5.94575e-01 -1.26902e+01        00000 
 7.64618e-01 -1.26924e+01        00000 
 9.34832e-01 -1.26952e+01        00000 
 1.10518e+00 -1.26985e+01        00000 
 1.27576e+00 -1.27024e+01        00000 
 1.44654e+00 -1.27069e+01        00000 
 1.61761e+00 -1.27119e+01        00000 
 1.78894e+00 -1.27175e+01        00000 
 1.96062e+00 -1.27237e+01        00000 
 2.13262e+00 -1.27304e+01        00000 
 2.30503e+00 -1.27376e+01        00000 
 2.47782e+00 -1.27455e+01        00000 
 2.65109e+00 -1.27538e+01        00000 
 2.82480e+00 -1.27628e+01        00000 
 2.99905e+00 -1.27723e+01        00000 
 3.17379e+00 -1.27823e+01        00000 
 3.34913e+00 -1.27929e+01        00000 
 3.52503e+00 -1.28041e+01        00000 
 3.70159e+00 -1.28158e+01        00000 
 3.87877e+00 -1.28281e+01        00000 
 4.05667e+00 -1.28409e+01        00000 
 4.23525e+00 -1.28543e+01        00000 
 4.41460e+00 -1.28683e+01        00000 
 4.59470e+00 -1.28828e+01        00000 
 4.77563e+00 -1.28979e+01        00000 
 4.95736e+00 -1.29135e+01        00000 
 5.14000e+00 -1.29297e+01        00000 
 5.32349e+00 -1.29464e+01        00000 
 5.50794e+00 -1.29637e+01        00000 
 5.69331e+00 -1.29816e+01        00000 
 5.87970e+00 -1.30000e+01        00000 
 6.06707e+00 -1.30189e+01        00000 
 6.25551e+00 -1.30385e+01        00000 
 6.44500e+00 -1.30585e+01        00000 
 6.63562e+00 -1.30792e+01        00000 
 6.82734e+00 -1.31004e+01        00000 
 7.02026e+00 -1.31221e+01        00000 
 7.21434e+00 -1.31444e+01        00000 
 7.40968e+00 -1.31673e+01        00000 
 7.60624e+00 -1.31907e+01        00000 
 7.80412e+00 -1.32147e+01        00000 
 8.00327e+00 -1.32392e+01        00000 
 8.20381e+00 -1.32643e+01        00000 
 8.40568e+00 -1.32899e+01        00000 
 8.60900e+00 -1.33161e+01        00000 
 8.81371e+00 -1.33429e+01        00000 
 9.01993e+00 -1.33702e+01        00000 
-9.14111e+00 -1.37866e+01        00000 
-8.93244e+00 -1.37598e+01        00000 
-8.72528e+00 -1.37336e+01        00000 
-8.51951e+00 -1.37079e+01        00000 
-8.31520e+00 -1.36828e+01        00000 
-8.11221e+00 -1.36582e+01        00000 
-7.91061e+00 -1.36342e+01        00000 
-7.71029e+00 -1.36107e+01        00000 
-7.51128e+00 -1.35877e+01        00000 
-7.31350e+00 -1.35653e+01        00000 
-7.11697e+00 -1.35435e+01        00000 
-6.92160e+00 -1.35221e+01        00000 
-6.72744e+00 -1.35014e+01        00000 
-6.53437e+00 -1.34812e+01        00000 
-6.34244e+00 -1.34615e+01        00000 
-6.15154e+00 -1.34424e+01        00000 
-5.96173e+00 -1.34238e+01        00000 
-5.77289e+00 -1.34057e+01        00000 
-5.58508e+00 -1.33882e+01        00000 
-5.39818e+00 -1.33713e+01        00000 
-5.21224e+00 -1.33549e+01        00000 
-5.02716e+00 -1.33390e+01        00000 
-4.84298e+00 -1.33237e+01        00000 
-4.65960e+00 -1.33090e+01        00000 
-4.47706e+00 -1.32948e+01        00000 
-4.29526e+00 -1.32811e+01        00000 
-4.11423e+00 -1.32680e+01        00000 
-3.93389e+00 -1.32554e+01        00000 
-3.75426e+00 -1.32434e+01        00000 
-3.57525e+00 -1.32319e+01        00000 
-3.39690e+00 -1.32209e+01        00000 
-3.21911e+00 -1.32106e+01        00000 
-3.04192e+00 -1.32007e+01        00000 
-2.86523e+00 -1.31914e+01        00000 
-2.68907e+00 -1.31827e+01        00000 
-2.51335e+00 -1.31745e+01        00000 
-2.33811e+00 -1.31668e+01        00000 
-2.16324e+00 -1.31597e+01        00000 
-1.98880e+00 -1.31531e+01        00000 
-1.81466e+00 -1.31471e+01        00000 
-1.64089e+00 -1.31416e+01        00000 
-1.46737e+00 -1.31367e+01        00000 
-1.29414e+00 -1.31323e+01        00000 
-1.12111e+00 -1.31285e+01        00000 
-9.48310e-01 -1.31252e+01        00000 
-7.75645e-01 -1.31225e+01        00000 
-6.03152e-01 -1.31203e+01        00000 
-4.30732e-01 -1.31187e+01        00000 
-2.58422e-01 -1.31176e+01        00000 
-8.61242e-02 -1.31170e+01        00000 
 8.61242e-02 -1.31170e+01        00000 
 2.58422e-01 -1.31176e+01        00000 
 4.30732e-01 -1.31187e+01        00000 
 6.03152e-01 -1.31203e+01        00000 
 7.75645e-01 -1.31225e+01        00000 
 9.48310e-01 -1.31252e+01        00000 
 1.12111e+00 -1.31285e+01        00000 
 1.29414e+00 -1.31323e+01        00000 
 1.46737e+00 -1.31367e+01        00000 
 1.64089e+00 -1.31416e+01        00000 
 1.81466e+00 -1.31471e+01        00000 
 1.98880e+00 -1.31531e+01        00000 
 2.16324e+00 -1.31597e+01        00000 
 2.33811e+00 -1.31668e+01        00000 
 2.51335e+00 -1.31745e+01        00000 
 2.68907e+00 -1.31827e+01        00000 
 2.86523e+00 -1.31914e+01        00000 
 3.04192e+00 -1.32007e+01        00000 
 3.21911e+00 -1.32106e+01        00000 
 3.39690e+00 -1.32209e+01        00000 
 3.57525e+00 -1.32319e+01        00000 
 3.75426e+00 -1.32434e+01        00000 
 3.93389e+00 -1.32554e+01        00000 
 4.11423e+00 -1.32680e+01        00000 
 4.29526e+00 -1.32811e+01        00000 
 4.47706e+00 -1.32948e+01        00000 
 4.65960e+00 -1.33090e+01        00000 
 4.84298e+00 -1.33237e+01        00000 
 5.02716e+00 -1.33390e+01        00000 
 5.21224e+00 -1.33549e+01        00000 
 5.39818e+00 -1.33713e+01        00000 
 5.58508e+00 -1.33882e+01        00000 
 5.77289e+00 -1.34057e+01        00000 
 5.96173e+00 -1.34238e+01        00000 
 6.15154e+00 -1.34424e+01        00000 
 6.34244e+00 -1.34615e+01        00000 
 6.53437e+00 -1.34812e+01        00000 
 6.72744e+00 -1.35014e+01        00000 
 6.92160e+00 -1.35221e+01        00000 
 7.11697e+00 -1.35435e+01        00000 
 7.31350e+00 -1.35653e+01        00000 
 7.51128e+00 -1.35877e+01        00000 
 7.71029e+00 -1.36107e+01        00000 
 7.91061e+00 -1.36342e+01        00000 
 8.11221e+00 -1.36582e+01        00000 
 8.31520e+00 -1.36828e+01        00000 
 8.51951e+00 -1.37079e+01        00000 
 8.72528e+00 -1.37336e+01        00000 
 8.93244e+00 -1.37598e+01        00000 
 9.14111e+00 -1.37866e+01        00000 
-9.25983e+00 -1.42078e+01        00000 
-9.04877e+00 -1.41816e+01        00000 
-8.83921e+00 -1.41559e+01        00000 
-8.63104e+00 -1.41307e+01        00000 
-8.42433e+00 -1.41061e+01        00000 
-8.21894e+00 -1.40820e+01        00000 
-8.01495e+00 -1.40585e+01        00000 
-7.81222e+00 -1.40354e+01        00000 
-7.61083e+00 -1.40130e+01        00000 
-7.41064e+00 -1.39910e+01        00000 
-7.21172e+00 -1.39696e+01        00000 
-7.01395e+00 -1.39487e+01        00000 
-6.81739e+00 -1.39284e+01        00000 
-6.62192e+00 -1.39086e+01        00000 
-6.42759e+00 -1.38893e+01        00000 
-6.23430e+00 -1.38706e+01        00000 
-6.04209e+00 -1.38524e+01        00000 
-5.85086e+00 -1.38347e+01        00000 
-5.66065e+00 -1.38176e+01        00000 
-5.47135e+00 -1.38010e+01        00000 
-5.28301e+00 -1.37849e+01        00000 
-5.09554e+00 -1.37694e+01        00000 
-4.90896e+00 -1.37544e+01        00000 
-4.72318e+00 -1.37399e+01        00000 
-4.53824e+00 -1.37260e+01        00000 
-4.35404e+00 -1.37126e+01        00000 
-4.17061e+00 -1.36998e+01        00000 
-3.98787e+00 -1.36875e+01        00000 
-3.80585e+00 -1.36757e+01        00000 
-3.62444e+00 -1.36645e+01        00000 
-3.44369e+00 -1.36538e+01        00000 
-3.26350e+00 -1.36436e+01        00000 
-3.08391e+00 -1.36339e+01        00000 
-2.90482e+00 -1.36248e+01        00000 
-2.72626e+00 -1.36163e+01        00000 
-2.54814e+00 -1.36082e+01        00000 
-2.37050e+00 -1.36008e+01        00000 
-2.19324e+00 -1.35938e+01        00000 
-2.01639e+00 -1.35874e+01        00000 
-1.83986e+00 -1.35815e+01        00000 
-1.66368e+00 -1.35761e+01        00000 
-1.48776e+00 -1.35713e+01        00000 
-1.31214e+00 -1.35670e+01        00000 
-1.13671e+00 -1.35633e+01        00000 
-9.61508e-01 -1.35601e+01        00000 
-7.86443e-01 -1.35574e+01        00000 
-6.11551e-01 -1.35552e+01        00000 
-4.36731e-01 -1.35536e+01        00000 
-2.62022e-01 -1.35526e+01        00000 
-8.73240e-02 -1.35520e+01        00000 
 8.73240e-02 -1.35520e+01        00000 
 2.62022e-01 -1.35526e+01        00000 
 4.36731e-01 -1.35536e+01        00000 
 6.11551e-01 -1.35552e+01        00000 
 7.86443e-01 -1.35574e+01        00000 
 9.61508e-01 -1.35601e+01        00000 
 1.13671e+00 -1.35633e+01        00000 
 1.31214e+00 -1.35670e+01        00000 
 1.48776e+00 -1.35713e+01        00000 
 1.66368e+00 -1.35761e+01        00000 
 1.83986e+00 -1.35815e+01        00000 
 2.01639e+00 -1.35874e+01        00000 
 2.19324e+00 -1.35938e+01        00000 
 2.37050e+00 -1.36008e+01        00000 
 2.54814e+00 -1.36082e+01        00000 
 2.72626e+00 -1.36163e+01        00000 
 2.90482e+00 -1.36248e+01        00000 
 3.08391e+00 -1.36339e+01        00000 
 3.26350e+00 -1.36436e+01        00000 
 3.44369e+00 -1.36538e+01        00000 
 3.62444e+00 -1.36645e+01        00000 
 3.80585e+00 -1.36757e+01        00000 
 3.98787e+00 -1.36875e+01        00000 
 4.17061e+00 -1.36998e+01        00000 
 4.35404e+00 -1.37126e+01        00000 
 4.53824e+00 -1.37260e+01        00000 
 4.72318e+00 -1.37399e+01        00000 
 4.90896e+00 -1.37544e+01        00000 
 5.09554e+00 -1.37694e+01        00000 
 5.28301e+00 -1.37849e+01        00000 
 5.47135e+00 -1.38010e+01        00000 
 5.66065e+00 -1.38176e+01        00000 
 5.85086e+00 -1.38347e+01        00000 
 6.04209e+00 -1.38524e+01        00000 
 6.23430e+00 -1.38706e+01        00000 
 6.42759e+00 -1.38893e+01        00000 
 6.62192e+00 -1.39086e+01        00000 
 6.81739e+00 -1.39284e+01        00000 
 7.01395e+00 -1.39487e+01        00000 
 7.21172e+00 -1.39696e+01        00000 
 7.41064e+00 -1.39910e+01        00000 
 7.61083e+00 -1.40130e+01        00000 
 7.81222e+00 -1.40354e+01        00000 
 8.01495e+00 -1.40585e+01        00000 
 8.21894e+00 -1.40820e+01        00000 
 8.42433e+00 -1.41061e+01        00000 
 8.63104e+00 -1.41307e+01        00000 
 8.83921e+00 -1.41559e+01        00000 
 9.04877e+00 -1.41816e+01        00000 
 9.25983e+00 -1.42078e+01        00000 
-9.37611e+00 -1.46337e+01        00000 
-9.16270e+00 -1.46081e+01        00000 
-8.95079e+00 -1.45829e+01        00000 
-8.74028e+00 -1.45583e+01        00000 
-8.53122e+00 -1.45342e+01        00000 
-8.32348e+00 -1.45106e+01        00000 
-8.11714e+00 -1.44875e+01        00000 
-7.91207e+00 -1.44650e+01        00000 
-7.70832e+00 -1.44430e+01        00000 
-7.50579e+00 -1.44215e+01        00000 
-7.30452e+00 -1.44005e+01        00000 
-7.10440e+00 -1.43801e+01        00000 
-6.90549e+00 -1.43601e+01        00000 
-6.70767e+00 -1.43408e+01        00000 
-6.51099e+00 -1.43219e+01        00000 
-6.31535e+00 -1.43035e+01        00000 
-6.12080e+00 -1.42857e+01        00000 
-5.92721e+00 -1.42684e+01        00000 
-5.73465e+00 -1.42517e+01        00000 
-5.54300e+00 -1.42354e+01        00000 
-5.35232e+00 -1.42197e+01        00000 
-5.16249e+00 -1.42045e+01        00000 
-4.97357e+00 -1.41898e+01        00000 
-4.78544e+00 -1.41757e+01        00000 
-4.59815e+00 -1.41620e+01        00000 
-4.41159e+00 -1.41489e+01        00000 
-4.22582e+00 -1.41364e+01        00000 
-4.04073e+00 -1.41243e+01        00000 
-3.85636e+00 -1.41128e+01        00000 
-3.67260e+00 -1.41018e+01        00000 
-3.48950e+00 -1.40913e+01        00000 
-3.30696e+00 -1.40814e+01        00000 
-3.12502e+00 -1.40719e+01        00000 
-2.94358e+00 -1.40630e+01        00000 
-2.76268e+00 -1.40546e+01        00000 
-2.58221e+00 -1.40468e+01        00000 
-2.40222e+00 -1.40395e+01        00000 
-2.22260e+00 -1.40326e+01        00000 
-2.04341e+00 -1.40264e+01        00000 
-1.86453e+00 -1.40206e+01        00000 
-1.68600e+00 -1.40154e+01        00000 
-1.50773e+00 -1.40107e+01        00000 
-1.32976e+00 -1.40065e+01        00000 
-1.15198e+00 -1.40028e+01        00000 
-9.74428e-01 -1.39997e+01        00000 
-7.97014e-01 -1.39970e+01        00000 
-6.19773e-01 -1.39949e+01        00000 
-4.42603e-01 -1.39934e+01        00000 
-2.65545e-01 -1.39923e+01        00000 
-8.84984e-02 -1.39918e+01        00000 
 8.84984e-02 -1.39918e+01        00000 
 2.65545e-01 -1.39923e+01        00000 
 4.42603e-01 -1.39934e+01        00000 
 6.19773e-01 -1.39949e+01        00000 
 7.97014e-01 -1.39970e+01        00000 
 9.74428e-01 -1.39997e+01        00000 
 1.15198e+00 -1.40028e+01        00000 
 1.32976e+00 -1.40065e+01        00000 
 1.50773e+00 -1.40107e+01        00000 
 1.68600e+00 -1.40154e+01        00000 
 1.86453e+00 -1.40206e+01        00000 
 2.04341e+00 -1.40264e+01        00000 
 2.22260e+00 -1.40326e+01        00000 
 2.40222e+00 -1.40395e+01        00000 
 2.58221e+00 -1.40468e+01        00000 
 2.76268e+00 -1.40546e+01        00000 
 2.94358e+00 -1.40630e+01        00000 
 3.12502e+00 -1.40719e+01        00000 
 3.30696e+00 -1.40814e+01        00000 
 3.48950e+00 -1.40913e+01        00000 
 3.67260e+00 -1.41018e+01        00000 
 3.85636e+00 -1.41128e+01        00000 
 4.04073e+00 -1.41243e+01        00000 
 4.22582e+00 -1.41364e+01        00000 
 4.41159e+00 -1.41489e+01        00000 
 4.59815e+00 -1.41620e+01        00000 
 4.78544e+00 -1.41757e+01        00000 
 4.97357e+00 -1.41898e+01        00000 
 5.16249e+00 -1.42045e+01        00000 
 5.35232e+00 -1.42197e+01        00000 
 5.54300e+00 -1.42354e+01        00000 
 5.73465e+00 -1.42517e+01        00000 
 5.92721e+00 -1.42684e+01        00000 
 6.12080e+00 -1.42857e+01        00000 
 6.31535e+00 -1.43035e+01        00000 
 6.51099e+00 -1.43219e+01        00000 
 6.70767e+00 -1.43408e+01        00000 
 6.90549e+00 -1.43601e+01        00000 
 7.10440e+00 -1.43801e+01        00000 
 7.30452e+00 -1.44005e+01        00000 
 7.50579e+00 -1.44215e+01        00000 
 7.70832e+00 -1.44430e+01        00000 
 7.91207e+00 -1.44650e+01        00000 
 8.11714e+00 -1.44875e+01        00000 
 8.32348e+00 -1.45106e+01        00000 
 8.53122e+00 -1.45342e+01        00000 
 8.74028e+00 -1.45583e+01        00000 
 8.95079e+00 -1.45829e+01        00000 
 9.16270e+00 -1.46081e+01        00000 
 9.37611e+00 -1.46337e+01        00000 
-9.48995e+00 -1.50643e+01        00000 
-9.27424e+00 -1.50392e+01        00000 
-9.06003e+00 -1.50146e+01        00000 
-8.84722e+00 -1.49905e+01        00000 
-8.63586e+00 -1.49669e+01        00000 
-8.42583e+00 -1.49438e+01        00000 
-8.21718e+00 -1.49212e+01        00000 
-8.00981e+00 -1.48991e+01        00000 
-7.80377e+00 -1.48776e+01        00000 
-7.59893e+00 -1.48566e+01        00000 
-7.39536e+00 -1.48360e+01        00000 
-7.19295e+00 -1.48160e+01        00000 
-6.99173e+00 -1.47965e+01        00000 
-6.79162e+00 -1.47776e+01        00000 
-6.59264e+00 -1.47591e+01        00000 
-6.39470e+00 -1.47411e+01        00000 
-6.19784e+00 -1.47237e+01        00000 
-6.00195e+00 -1.47068e+01        00000 
-5.80709e+00 -1.46904e+01        00000 
-5.61315e+00 -1.46745e+01        00000 
-5.42016e+00 -1.46591e+01        00000 
-5.22803e+00 -1.46442e+01        00000 
-5.03680e+00 -1.46299e+01        00000 
-4.84637e+00 -1.46160e+01        00000 
-4.65678e+00 -1.46027e+01        00000 
-4.46793e+00 -1.45899e+01        00000 
-4.27986e+00 -1.45776e+01        00000 
-4.09246e+00 -1.45658e+01        00000 
-3.90579e+00 -1.45545e+01        00000 
-3.71973e+00 -1.45438e+01        00000 
-3.53434e+00 -1.45335e+01        00000 
-3.34950e+00 -1.45238e+01        00000 
-3.16526e+00 -1.45146e+01        00000 
-2.98151e+00 -1.45059e+01        00000 
-2.79831e+00 -1.44977e+01        00000 
-2.61554e+00 -1.44900e+01        00000 
-2.43325e+00 -1.44828e+01        00000 
-2.25134e+00 -1.44762e+01        00000 
-2.06984e+00 -1.44700e+01        00000 
-1.88866e+00 -1.44644e+01        00000 
-1.70784e+00 -1.44593e+01        00000 
-1.52727e+00 -1.44547e+01        00000 
-1.34700e+00 -1.44506e+01        00000 
-1.16692e+00 -1.44470e+01        00000 
-9.87071e-01 -1.44439e+01        00000 
-8.07358e-01 -1.44413e+01        00000 
-6.27818e-01 -1.44393e+01        00000 
-4.48350e-01 -1.44378e+01        00000 
-2.68993e-01 -1.44367e+01        00000 
-8.96475e-02 -1.44362e+01        00000 
 8.96475e-02 -1.44362e+01        00000 
 2.68993e-01 -1.44367e+01        00000 
 4.48350e-01 -1.44378e+01        00000 
 6.27818e-01 -1.44393e+01        00000 
 8.07358e-01 -1.44413e+01        00000 
 9.87071e-01 -1.44439e+01        00000 
 1.16692e+00 -1.44470e+01        00000 
 1.34700e+00 -1.44506e+01        00000 
 1.52727e+00 -1.44547e+01        00000 
 1.70784e+00 -1.44593e+01        00000 
 1.88866e+00 -1.44644e+01        00000 
 2.06984e+00 -1.44700e+01        00000 
 2.25134e+00 -1.44762e+01        00000 
 2.43325e+00 -1.44828e+01        00000 
 2.61554e+00 -1.44900e+01        00000 
 2.79831e+00 -1.44977e+01        00000 
 2.98151e+00 -1.45059e+01        00000 
 3.16526e+00 -1.45146e+01        00000 
 3.34950e+00 -1.45238e+01        00000 
 3.53434e+00 -1.45335e+01        00000 
 3.71973e+00 -1.45438e+01        00000 
 3.90579e+00 -1.45545e+01        00000 
 4.09246e+00 -1.45658e+01        00000 
 4.27986e+00 -1.45776e+01        00000 
 4.46793e+00 -1.45899e+01        00000 
 4.65678e+00 -1.46027e+01        00000 
 4.84637e+00 -1.46160e+01        00000 
 5.03680e+00 -1.46299e+01        00000 
 5.22803e+00 -1.46442e+01        00000 
 5.42016e+00 -1.46591e+01        00000 
 5.61315e+00 -1.46745e+01        00000 
 5.80709e+00 -1.46904e+01        00000 
 6.00195e+00 -1.47068e+01        00000 
 6.19784e+00 -1.47237e+01        00000 
 6.39470e+00 -1.47411e+01        00000 
 6.59264e+00 -1.47591e+01        00000 
 6.79162e+00 -1.47776e+01        00000 
 6.99173e+00 -1.47965e+01        00000 
 7.19295e+00 -1.48160e+01        00000 
 7.39536e+00 -1.48360e+01        00000 
 7.59893e+00 -1.48566e+01        00000 
 7.80377e+00 -1.48776e+01        00000 
 8.00981e+00 -1.48991e+01        00000 
 8.21718e+00 -1.49212e+01        00000 
 8.42583e+00 -1.49438e+01        00000 
 8.63586e+00 -1.49669e+01        00000 
 8.84722e+00 -1.49905e+01        00000 
 9.06003e+00 -1.50146e+01        00000 
 9.27424e+00 -1.50392e+01        00000 
 9.48995e+00 -1.50643e+01        00000 
-9.60134e+00 -1.54995e+01        00000 
-9.38338e+00 -1.54749e+01        00000 
-9.16693e+00 -1.54508e+01        00000 
-8.95187e+00 -1.54272e+01        00000 
-8.73826e+00 -1.54041e+01        00000 
-8.52598e+00 -1.53815e+01        00000 
-8.31508e+00 -1.53594e+01        00000 
-8.10546e+00 -1.53379e+01        00000 
-7.89716e+00 -1.53168e+01        00000 
-7.69008e+00 -1.52962e+01        00000 
-7.48426e+00 -1.52761e+01        00000 
-7.27959e+00 -1.52566e+01        00000 
-7.07613e+00 -1.52375e+01        00000 
-6.87376e+00 -1.52189e+01        00000 
-6.67253e+00 -1.52009e+01        00000 
-6.47233e+00 -1.51833e+01        00000 
-6.27322e+00 -1.51663e+01        00000 
-6.07509e+00 -1.51497e+01        00000 
-5.87797e+00 -1.51337e+01        00000 
-5.68177e+00 -1.51181e+01        00000 
-5.48654e+00 -1.51031e+01        00000 
-5.29215e+00 -1.50885e+01        00000 
-5.09867e+00 -1.50745e+01        00000 
-4.90599e+00 -1.50609e+01        00000 
-4.71415e+00 -1.50479e+01        00000 
-4.52304e+00 -1.50354e+01        00000 
-4.33272e+00 -1.50234e+01        00000 
-4.14307e+00 -1.50118e+01        00000 
-3.95415e+00 -1.50008e+01        00000 
-3.76584e+00 -1.49903e+01        00000 
-3.57819e+00 -1.49803e+01        00000 
-3.39110e+00 -1.49708e+01        00000 
-3.20461e+00 -1.49618e+01        00000 
-3.01862e+00 -1.49532e+01        00000 
-2.83316e+00 -1.49452e+01        00000 
-2.64814e+00 -1.49377e+01        00000 
-2.46361e+00 -1.49307e+01        00000 
-2.27944e+00 -1.49242e+01        00000 
-2.09570e+00 -1.49182e+01        00000 
-1.91227e+00 -1.49127e+01        00000 
-1.72920e+00 -1.49077e+01        00000 
-1.54638e+00 -1.49032e+01        00000 
-1.36386e+00 -1.48992e+01        00000 
-1.18153e+00 -1.48957e+01        00000 
-9.99434e-01 -1.48927e+01        00000 
-8.17473e-01 -1.48902e+01        00000 
-6.35685e-01 -1.48882e+01        00000 
-4.53969e-01 -1.48867e+01        00000 
-2.72365e-01 -1.48857e+01        00000 
-9.07713e-02 -1.48852e+01        00000 
 9.07713e-02 -1.48852e+01        00000 
 2.72365e-01 -1.48857e+01        00000 
 4.53969e-01 -1.48867e+01        00000 
 6.35685e-01 -1.48882e+01        00000 
 8.17473e-01 -1.48902e+01        00000 
 9.99434e-01 -1.48927e+01        00000 
 1.18153e+00 -1.48957e+01        00000 
 1.36386e+00 -1.48992e+01        00000 
 1.54638e+00 -1.49032e+01        00000 
 1.72920e+00 -1.49077e+01        00000 
 1.91227e+00 -1.49127e+01        00000 
 2.09570e+00 -1.49182e+01        00000 
 2.27944e+00 -1.49242e+01        00000 
 2.46361e+00 -1.49307e+01        00000 
 2.64814e+00 -1.49377e+01        00000 
 2.83316e+00 -1.49452e+01        00000 
 3.01862e+00 -1.49532e+01        00000 
 3.20461e+00 -1.49618e+01        00000 
 3.39110e+00 -1.49708e+01        00000 
 3.57819e+00 -1.49803e+01        00000 
 3.76584e+00 -1.49903e+01        00000 
 3.95415e+00 -1.50008e+01        00000 
 4.14307e+00 -1.50118e+01        00000 
 4.33272e+00 -1.50234e+01        00000 
 4.52304e+00 -1.50354e+01        00000 
 4.71415e+00 -1.50479e+01        00000 
 4.90599e+00 -1.50609e+01        00000 
 5.09867e+00 -1.50745e+01        00000 
 5.29215e+00 -1.50885e+01        00000 
 5.48654e+00 -1.51031e+01        00000 
 5.68177e+00 -1.51181e+01        00000 
 5.87797e+00 -1.51337e+01        00000 
 6.07509e+00 -1.51497e+01        00000 
 6.27322e+00 -1.51663e+01        00000 
 6.47233e+00 -1.51833e+01        00000 
 6.67253e+00 -1.52009e+01        00000 
 6.87376e+00 -1.52189e+01        00000 
 7.07613e+00 -1.52375e+01        00000 
 7.27959e+00 -1.52566e+01        00000 
 7.48426e+00 -1.52761e+01        00000 
 7.69008e+00 -1.52962e+01        00000 
 7.89716e+00 -1.53168e+01        00000 
 8.10546e+00 -1.53379e+01        00000 
 8.31508e+00 -1.53594e+01        00000 
 8.52598e+00 -1.53815e+01        00000 
 8.73826e+00 -1.54041e+01        00000 
 8.95187e+00 -1.54272e+01        00000 
 9.16693e+00 -1.54508e+01        00000 
 9.38338e+00 -1.54749e+01        00000 
 9.60134e+00 -1.54995e+01        00000 
-9.71030e+00 -1.59390e+01        00000 
-9.49014e+00 -1.59150e+01        00000 
-9.27149e+00 -1.58914e+01        00000 
-9.05423e+00 -1.58684e+01        00000 
-8.83841e+00 -1.58458e+01        00000 
-8.62393e+00 -1.58237e+01        00000 
-8.41084e+00 -1.58021e+01        00000 
-8.19901e+00 -1.57810e+01        00000 
-7.98851e+00 -1.57604e+01        00000 
-7.77923e+00 -1.57403e+01        00000 
-7.57120e+00 -1.57207e+01        00000 
-7.36433e+00 -1.57015e+01        00000 
-7.15867e+00 -1.56829e+01        00000 
-6.95409e+00 -1.56647e+01        00000 
-6.75066e+00 -1.56471e+01        00000 
-6.54826e+00 -1.56299e+01        00000 
-6.34695e+00 -1.56132e+01        00000 
-6.14661e+00 -1.55971e+01        00000 
-5.94729e+00 -1.55814e+01        00000 
-5.74888e+00 -1.55662e+01        00000 
-5.55144e+00 -1.55515e+01        00000 
-5.35486e+00 -1.55373e+01        00000 
-5.15917e+00 -1.55235e+01        00000 
-4.96429e+00 -1.55103e+01        00000 
-4.77024e+00 -1.54976e+01        00000 
-4.57693e+00 -1.54853e+01        00000 
-4.38441e+00 -1.54736e+01        00000 
-4.19256e+00 -1.54623e+01        00000 
-4.00143e+00 -1.54516e+01        00000 
-3.81092e+00 -1.54413e+01        00000 
-3.62107e+00 -1.54315e+01        00000 
-3.43178e+00 -1.54222e+01        00000 
-3.24308e+00 -1.54134e+01        00000 
-3.05489e+00 -1.54051e+01        00000 
-2.86723e+00 -1.53973e+01        00000 
-2.68002e+00 -1.53899e+01        00000 
-2.49328e+00 -1.53831e+01        00000 
-2.30692e+00 -1.53767e+01        00000 
-2.12097e+00 -1.53709e+01        00000 
-1.93534e+00 -1.53655e+01        00000 
-1.75007e+00 -1.53606e+01        00000 
-1.56506e+00 -1.53562e+01        00000 
-1.38034e+00 -1.53523e+01        00000 
-1.19581e+00 -1.53489e+01        00000 
-1.01152e+00 -1.53460e+01        00000 
-8.27360e-01 -1.53435e+01        00000 
-6.43375e-01 -1.53416e+01        00000 
-4.59461e-01 -1.53401e+01        00000 
-2.75661e-01 -1.53391e+01        00000 
-9.18697e-02 -1.53386e+01        00000 
 9.18697e-02 -1.53386e+01        00000 
 2.75661e-01 -1.53391e+01        00000 
 4.59461e-01 -1.53401e+01        00000 
 6.43375e-01 -1.53416e+01        00000 
 8.27360e-01 -1.53435e+01        00000 
 1.01152e+00 -1.53460e+01        00000 
 1.19581e+00 -1.53489e+01        00000 
 1.38034e+00 -1.53523e+01        00000 
 1.56506e+00 -1.53562e+01        00000 
 1.75007e+00 -1.53606e+01        00000 
 1.93534e+00 -1.53655e+01        00000 
 2.12097e+00 -1.53709e+01        00000 
 2.30692e+00 -1.53767e+01        00000 
 2.49328e+00 -1.53831e+01        00000 
 2.68002e+00 -1.53899e+01        00000 
 2.86723e+00 -1.53973e+01        00000 
 3.05489e+00 -1.54051e+01        00000 
 3.24308e+00 -1.54134e+01        00000 
 3.43178e+00 -1.54222e+01        00000 
 3.62107e+00 -1.54315e+01        00000 
 3.81092e+00 -1.54413e+01        00000 
 4.00143e+00 -1.54516e+01        00000 
 4.19256e+00 -1.54623e+01        00000 
 4.38441e+00 -1.54736e+01        00000 
 4.57693e+00 -1.54853e+01        00000 
 4.77024e+00 -1.54976e+01        00000 
 4.96429e+00 -1.55103e+01        00000 
 5.15917e+00 -1.55235e+01        00000 
 5.35486e+00 -1.55373e+01        00000 
 5.55144e+00 -1.55515e+01        00000 
 5.74888e+00 -1.55662e+01        00000 
 5.94729e+00 -1.55814e+01        00000 
 6.14661e+00 -1.55971e+01        00000 
 6.34695e+00 -1.56132e+01        00000 
 6.54826e+00 -1.56299e+01        00000 
 6.75066e+00 -1.56471e+01        00000 
 6.95409e+00 -1.56647e+01        00000 
 7.15867e+00 -1.56829e+01        00000 
 7.36433e+00 -1.57015e+01        00000 
 7.57120e+00 -1.57207e+01        00000 
 7.77923e+00 -1.57403e+01        00000 
 7.98851e+00 -1.57604e+01        00000 
 8.19901e+00 -1.57810e+01        00000 
 8.41084e+00 -1.58021e+01        00000 
 8.62393e+00 -1.58237e+01        00000 
 8.83841e+00 -1.58458e+01        00000 
 9.05423e+00 -1.58684e+01        00000 
 9.27149e+00 -1.58914e+01        00000 
 9.49014e+00 -1.59150e+01        00000 
 9.71030e+00 -1.59390e+01        00000 
-9.81681e+00 -1.63830e+01        00000 
-9.59450e+00 -1.63595e+01        00000 
-9.37370e+00 -1.63364e+01        00000 
-9.15429e+00 -1.63139e+01        00000 
-8.93633e+00 -1.62918e+01        00000 
-8.71969e+00 -1.62702e+01        00000 
-8.50445e+00 -1.62491e+01        00000 
-8.29047e+00 -1.62285e+01        00000 
-8.07782e+00 -1.62084e+01        00000 
-7.86638e+00 -1.61887e+01        00000 
-7.65620e+00 -1.61695e+01        00000 
-7.44717e+00 -1.61508e+01        00000 
-7.23935e+00 -1.61326e+01        00000 
-7.03262e+00 -1.61149e+01        00000 
-6.82704e+00 -1.60976e+01        00000 
-6.62248e+00 -1.60809e+01        00000 
-6.41901e+00 -1.60646e+01        00000 
-6.21651e+00 -1.60488e+01        00000 
-6.01504e+00 -1.60334e+01        00000 
-5.81448e+00 -1.60186e+01        00000 
-5.61488e+00 -1.60042e+01        00000 
-5.41614e+00 -1.59903e+01        00000 
-5.21830e+00 -1.59769e+01        00000 
-5.02126e+00 -1.59640e+01        00000 
-4.82506e+00 -1.59516e+01        00000 
-4.62960e+00 -1.59396e+01        00000 
-4.43492e+00 -1.59282e+01        00000 
-4.24091e+00 -1.59172e+01        00000 
-4.04763e+00 -1.59067e+01        00000 
-3.85497e+00 -1.58966e+01        00000 
-3.66296e+00 -1.58871e+01        00000 
-3.47152e+00 -1.58780e+01        00000 
-3.28068e+00 -1.58694e+01        00000 
-3.09033e+00 -1.58613e+01        00000 
-2.90052e+00 -1.58536e+01        00000 
-2.71116e+00 -1.58465e+01        00000 
-2.52227e+00 -1.58398e+01        00000 
-2.33376e+00 -1.58336e+01        00000 
-2.14566e+00 -1.58279e+01        00000 
-1.95789e+00 -1.58226e+01        00000 
-1.77047e+00 -1.58179e+01        00000 
-1.58330e+00 -1.58136e+01        00000 
-1.39644e+00 -1.58098e+01        00000 
-1.20976e+00 -1.58064e+01        00000 
-1.02332e+00 -1.58036e+01        00000 
-8.37018e-01 -1.58012e+01        00000 
-6.50887e-01 -1.57993e+01        00000 
-4.64827e-01 -1.57979e+01        00000 
-2.78880e-01 -1.57969e+01        00000 
-9.29426e-02 -1.57964e+01        00000 
 9.29426e-02 -1.57964e+01        00000 
 2.78880e-01 -1.57969e+01        00000 
 4.64827e-01 -1.57979e+01        00000 
 6.50887e-01 -1.57993e+01        00000 
 8.37018e-01 -1.58012e+01        00000 
 1.02332e+00 -1.58036e+01        00000 
 1.20976e+00 -1.58064e+01        00000 
 1.39644e+00 -1.58098e+01        00000 
 1.58330e+00 -1.58136e+01        00000 
 1.77047e+00 -1.58179e+01        00000 
 1.95789e+00 -1.58226e+01        00000 
 2.14566e+00 -1.58279e+01        00000 
 2.33376e+00 -1.58336e+01        00000 
 2.52227e+00 -1.58398e+01        00000 
 2.71116e+00 -1.58465e+01        00000 
 2.90052e+00 -1.58536e+01        00000 
 3.09033e+00 -1.58613e+01        00000 
 3.28068e+00 -1.58694e+01        00000 
 3.47152e+00 -1.58780e+01        00000 
 3.66296e+00 -1.58871e+01        00000 
 3.85497e+00 -1.58966e+01        00000 
 4.04763e+00 -1.59067e+01        00000 
 4.24091e+00 -1.59172e+01        00000 
 4.43492e+00 -1.59282e+01        00000 
 4.62960e+00 -1.59396e+01        00000 
 4.82506e+00 -1.59516e+01        00000 
 5.02126e+00 -1.59640e+01        00000 
 5.21830e+00 -1.59769e+01        00000 
 5.41614e+00 -1.59903e+01        00000 
 5.61488e+00 -1.60042e+01        00000 
 5.81448e+00 -1.60186e+01        00000 
 6.01504e+00 -1.60334e+01        00000 
 6.21651e+00 -1.60488e+01        00000 
 6.41901e+00 -1.60646e+01        00000 
 6.62248e+00 -1.60809e+01        00000 
 6.82704e+00 -1.60976e+01        00000 
 7.03262e+00 -1.61149e+01        00000 
 7.23935e+00 -1.61326e+01        00000 
 7.44717e+00 -1.61508e+01        00000 
 7.65620e+00 -1.61695e+01        00000 
 7.86638e+00 -1.61887e+01        00000 
 8.07782e+00 -1.62084e+01        00000 
 8.29047e+00 -1.62285e+01        00000 
 8.50445e+00 -1.62491e+01        00000 
 8.71969e+00 -1.62702e+01        00000 
 8.93633e+00 -1.62918e+01        00000 
 9.15429e+00 -1.63139e+01        00000 
 9.37370e+00 -1.63364e+01        00000 
 9.59450e+00 -1.63595e+01        00000 
 9.81681e+00 -1.63830e+01        00000 
-9.92088e+00 -1.68311e+01        00000 
-9.69647e+00 -1.68082e+01        00000 
-9.47357e+00 -1.67857e+01        00000 
-9.25206e+00 -1.67637e+01        00000 
-9.03200e+00 -1.67421e+01        00000 
-8.81326e+00 -1.67210e+01        00000 
-8.59591e+00 -1.67004e+01        00000 
-8.37983e+00 -1.66803e+01        00000 
-8.16507e+00 -1.66606e+01        00000 
-7.95153e+00 -1.66414e+01        00000 
-7.73925e+00 -1.66227e+01        00000 
-7.52811e+00 -1.66044e+01        00000 
-7.31819e+00 -1.65866e+01        00000 
-7.10935e+00 -1.65693e+01        00000 
-6.90166e+00 -1.65524e+01        00000 
-6.69499e+00 -1.65361e+01        00000 
-6.48941e+00 -1.65201e+01        00000 
-6.28481e+00 -1.65047e+01        00000 
-6.08123e+00 -1.64897e+01        00000 
-5.87856e+00 -1.64753e+01        00000 
-5.67686e+00 -1.64612e+01        00000 
-5.47601e+00 -1.64477e+01        00000 
-5.27606e+00 -1.64346e+01        00000 
-5.07691e+00 -1.64220e+01        00000 
-4.87860e+00 -1.64099e+01        00000 
-4.68103e+00 -1.63982e+01        00000 
-4.48425e+00 -1.63870e+01        00000 
-4.28814e+00 -1.63763e+01        00000 
-4.09275e+00 -1.63660e+01        00000 
-3.89798e+00 -1.63562e+01        00000 
-3.70388e+00 -1.63469e+01        00000 
-3.51033e+00 -1.63380e+01        00000 
-3.31738e+00 -1.63297e+01        00000 
-3.12494e+00 -1.63217e+01        00000 
-2.93303e+00 -1.63143e+01        00000 
-2.74156e+00 -1.63073e+01        00000 
-2.55057e+00 -1.63008e+01        00000 
-2.35996e+00 -1.62948e+01        00000 
-2.16977e+00 -1.62892e+01        00000 
-1.97989e+00 -1.62841e+01        00000 
-1.79038e+00 -1.62794e+01        00000 
-1.60112e+00 -1.62752e+01        00000 
-1.41215e+00 -1.62715e+01        00000 
-1.22338e+00 -1.62683e+01        00000 
-1.03485e+00 -1.62655e+01        00000 
-8.46447e-01 -1.62631e+01        00000 
-6.58220e-01 -1.62613e+01        00000 
-4.70065e-01 -1.62599e+01        00000 
-2.82023e-01 -1.62590e+01        00000 
-9.39901e-02 -1.62585e+01        00000 
 9.39901e-02 -1.62585e+01        00000 
 2.82023e-01 -1.62590e+01        00000 
 4.70065e-01 -1.62599e+01        00000 
 6.58220e-01 -1.62613e+01        00000 
 8.46447e-01 -1.62631e+01        00000 
 1.03485e+00 -1.62655e+01        00000 
 1.22338e+00 -1.62683e+01        00000 
 1.41215e+00 -1.62715e+01        00000 
 1.60112e+00 -1.62752e+01        00000 
 1.79038e+00 -1.62794e+01        00000 
 1.97989e+00 -1.62841e+01        00000 
 2.16977e+00 -1.62892e+01        00000 
 2.35996e+00 -1.62948e+01        00000 
 2.55057e+00 -1.63008e+01        00000 
 2.74156e+00 -1.63073e+01        00000 
 2.93303e+00 -1.63143e+01        00000 
 3.12494e+00 -1.63217e+01        00000 
 3.31738e+00 -1.63297e+01        00000 
 3.51033e+00 -1.63380e+01        00000 
 3.70388e+00 -1.63469e+01        00000 
 3.89798e+00 -1.63562e+01        00000 
 4.09275e+00 -1.63660e+01        00000 
 4.28814e+00 -1.63763e+01        00000 
 4.48425e+00 -1.63870e+01        00000 
 4.68103e+00 -1.63982e+01        00000 
 4.87860e+00 -1.64099e+01        00000 
 5.07691e+00 -1.64220e+01        00000 
 5.27606e+00 -1.64346e+01        00000 
 5.47601e+00 -1.64477e+01        00000 
 5.67686e+00 -1.64612e+01        00000 
 5.87856e+00 -1.64753e+01        00000 
 6.08123e+00 -1.64897e+01        00000 
 6.28481e+00 -1.65047e+01        00000 
 6.48941e+00 -1.65201e+01        00000 
 6.69499e+00 -1.65361e+01        00000 
 6.90166e+00 -1.65524e+01        00000 
 7.10935e+00 -1.65693e+01        00000 
 7.31819e+00 -1.65866e+01        00000 
 7.52811e+00 -1.66044e+01        00000 
 7.73925e+00 -1.66227e+01        00000 
 7.95153e+00 -1.66414e+01        00000 
 8.16507e+00 -1.66606e+01        00000 
 8.37983e+00 -1.66803e+01        00000 
 8.59591e+00 -1.67004e+01        00000 
 8.81326e+00 -1.67210e+01        00000 
 9.03200e+00 -1.67421e+01        00000 
 9.25206e+00 -1.67637e+01        00000 
 9.47357e+00 -1.67857e+01        00000 
 9.69647e+00 -1.68082e+01        00000 
 9.92088e+00 -1.68311e+01        00000 
-1.00225e+01 -1.72835e+01        00000 
-9.79605e+00 -1.72610e+01        00000 
-9.57110e+00 -1.72391e+01        00000 
-9.34754e+00 -1.72176e+01        00000 
-9.12543e+00 -1.71965e+01        00000 
-8.90464e+00 -1.71760e+01        00000 
-8.68523e+00 -1.71558e+01        00000 
-8.46710e+00 -1.71362e+01        00000 
-8.25029e+00 -1.71170e+01        00000 
-8.03468e+00 -1.70982e+01        00000 
-7.82034e+00 -1.70799e+01        00000 
-7.60715e+00 -1.70621e+01        00000 
-7.39517e+00 -1.70447e+01        00000 
-7.18427e+00 -1.70278e+01        00000 
-6.97452e+00 -1.70114e+01        00000 
-6.76579e+00 -1.69954e+01        00000 
-6.55816e+00 -1.69799e+01        00000 
-6.35149e+00 -1.69648e+01        00000 
-6.14585e+00 -1.69502e+01        00000 
-5.94112e+00 -1.69361e+01        00000 
-5.73736e+00 -1.69224e+01        00000 
-5.53445e+00 -1.69092e+01        00000 
-5.33244e+00 -1.68964e+01        00000 
-5.13123e+00 -1.68841e+01        00000 
-4.93087e+00 -1.68723e+01        00000 
-4.73124e+00 -1.68609e+01        00000 
-4.53240e+00 -1.68500e+01        00000 
-4.33423e+00 -1.68395e+01        00000 
-4.13679e+00 -1.68295e+01        00000 
-3.93997e+00 -1.68200e+01        00000 
-3.74381e+00 -1.68109e+01        00000 
-3.54821e+00 -1.68022e+01        00000 
-3.35321e+00 -1.67941e+01        00000 
-3.15871e+00 -1.67864e+01        00000 
-2.96475e+00 -1.67791e+01        00000 
-2.77123e+00 -1.67723e+01        00000 
-2.57819e+00 -1.67660e+01        00000 
-2.38553e+00 -1.67601e+01        00000 
-2.19329e+00 -1.67546e+01        00000 
-2.00137e+00 -1.67496e+01        00000 
-1.80981e+00 -1.67451e+01        00000 
-1.61850e+00 -1.67410e+01        00000 
-1.42749e+00 -1.67374e+01        00000 
-1.23667e+00 -1.67342e+01        00000 
-1.04609e+00 -1.67315e+01        00000 
-8.55645e-01 -1.67293e+01        00000 
-6.65375e-01 -1.67275e+01        00000 
-4.75175e-01 -1.67261e+01        00000 
-2.85089e-01 -1.67252e+01        00000 
-9.50120e-02 -1.67247e+01        00000 
 9.50120e-02 -1.67247e+01        00000 
 2.85089e-01 -1.67252e+01        00000 
 4.75175e-01 -1.67261e+01        00000 
 6.65375e-01 -1.67275e+01        00000 
 8.55645e-01 -1.67293e+01        00000 
 1.04609e+00 -1.67315e+01        00000 
 1.23667e+00 -1.67342e+01        00000 
 1.42749e+00 -1.67374e+01        00000 
 1.61850e+00 -1.67410e+01        00000 
 1.80981e+00 -1.67451e+01        00000 
 2.00137e+00 -1.67496e+01        00000 
 2.19329e+00 -1.67546e+01        00000 
 2.38553e+00 -1.67601e+01        00000 
 2.57819e+00 -1.67660e+01        00000 
 2.77123e+00 -1.67723e+01        00000 
 2.96475e+00 -1.67791e+01        00000 
 3.15871e+00 -1.67864e+01        00000 
 3.35321e+00 -1.67941e+01        00000 
 3.54821e+00 -1.68022e+01        00000 
 3.74381e+00 -1.68109e+01        00000 
 3.93997e+00 -1.68200e+01        00000 
 4.13679e+00 -1.68295e+01        00000 
 4.33423e+00 -1.68395e+01        00000 
 4.53240e+00 -1.68500e+01        00000 
 4.73124e+00 -1.68609e+01        00000 
 4.93087e+00 -1.68723e+01        00000 
 5.13123e+00 -1.68841e+01        00000 
 5.33244e+00 -1.68964e+01        00000 
 5.53445e+00 -1.69092e+01        00000 
 5.73736e+00 -1.69224e+01        00000 
 5.94112e+00 -1.69361e+01        00000 
 6.14585e+00 -1.69502e+01        00000 
 6.35149e+00 -1.69648e+01        00000 
 6.55816e+00 -1.69799e+01        00000 
 6.76579e+00 -1.69954e+01        00000 
 6.97452e+00 -1.70114e+01        00000 
 7.18427e+00 -1.70278e+01        00000 
 7.39517e+00 -1.70447e+01        00000 
 7.60715e+00 -1.70621e+01        00000 
 7.82034e+00 -1.70799e+01        00000 
 8.03468e+00 -1.70982e+01        00000 
 8.25029e+00 -1.71170e+01        00000 
 8.46710e+00 -1.71362e+01        00000 
 8.68523e+00 -1.71558e+01        00000 
 8.90464e+00 -1.71760e+01        00000 
 9.12543e+00 -1.71965e+01        00000 
 9.34754e+00 -1.72176e+01        00000 
 9.57110e+00 -1.72391e+01        00000 
 9.79605e+00 -1.72610e+01        00000 
 1.00225e+01 -1.72835e+01        00000 
-1.01217e+01 -1.77398e+01        00000 
-9.89325e+00 -1.77179e+01        00000 
-9.66630e+00 -1.76965e+01        00000 
-9.44074e+00 -1.76755e+01        00000 
-9.21662e+00 -1.76550e+01        00000 
-8.99382e+00 -1.76349e+01        00000 
-8.77242e+00 -1.76153e+01        00000 
-8.55227e+00 -1.75961e+01        00000 
-8.33345e+00 -1.75774e+01        00000 
-8.11584e+00 -1.75591e+01        00000 
-7.89949e+00 -1.75412e+01        00000 
-7.68429e+00 -1.75238e+01        00000 
-7.47029e+00 -1.75069e+01        00000 
-7.25739e+00 -1.74904e+01        00000 
-7.04562e+00 -1.74744e+01        00000 
-6.83489e+00 -1.74588e+01        00000 
-6.62524e+00 -1.74436e+01        00000 
-6.41656e+00 -1.74290e+01        00000 
-6.20890e+00 -1.74147e+01        00000 
-6.00216e+00 -1.74009e+01        00000 
-5.79639e+00 -1.73876e+01        00000 
-5.59147e+00 -1.73747e+01        00000 
-5.38745e+00 -1.73623e+01        00000 
-5.18423e+00 -1.73503e+01        00000 
-4.98186e+00 -1.73387e+01        00000 
-4.78022e+00 -1.73276e+01        00000 
-4.57937e+00 -1.73170e+01        00000 
-4.37919e+00 -1.73068e+01        00000 
-4.17975e+00 -1.72971e+01        00000 
-3.98092e+00 -1.72878e+01        00000 
-3.78275e+00 -1.72789e+01        00000 
-3.58514e+00 -1.72705e+01        00000 
-3.38814e+00 -1.72626e+01        00000 
-3.19164e+00 -1.72550e+01        00000 
-2.99568e+00 -1.72480e+01        00000 
-2.80016e+00 -1.72414e+01        00000 
-2.60512e+00 -1.72352e+01        00000 
-2.41046e+00 -1.72294e+01        00000 
-2.21623e+00 -1.72241e+01        00000 
-2.02231e+00 -1.72193e+01        00000 
-1.82875e+00 -1.72149e+01        00000 
-1.63544e+00 -1.72109e+01        00000 
-1.44244e+00 -1.72074e+01        00000 
-1.24963e+00 -1.72043e+01        00000 
-1.05705e+00 -1.72017e+01        00000 
-8.64613e-01 -1.71995e+01        00000 
-6.72349e-01 -1.71977e+01        00000 
-4.80156e-01 -1.71964e+01        00000 
-2.88078e-01 -1.71955e+01        00000 
-9.60081e-02 -1.71951e+01        00000 
 9.60081e-02 -1.71951e+01        00000 
 2.88078e-01 -1.71955e+01        00000 
 4.80156e-01 -1.71964e+01        00000 
 6.72349e-01 -1.71977e+01        00000 
 8.64613e-01 -1.71995e+01        00000 
 1.05705e+00 -1.72017e+01        00000 
 1.24963e+00 -1.72043e+01        00000 
 1.44244e+00 -1.72074e+01        00000 
 1.63544e+00 -1.72109e+01        00000 
 1.82875e+00 -1.72149e+01        00000 
 2.02231e+00 -1.72193e+01        00000 
 2.21623e+00 -1.72241e+01        00000 
 2.41046e+00 -1.72294e+01        00000 
 2.60512e+00 -1.72352e+01        00000 
 2.80016e+00 -1.72414e+01        00000 
 2.99568e+00 -1.72480e+01        00000 
 3.19164e+00 -1.72550e+01        00000 
 3.38814e+00 -1.72626e+01        00000 
 3.58514e+00 -1.72705e+01        00000 
 3.78275e+00 -1.72789e+01        00000 
 3.98092e+00 -1.72878e+01        00000 
 4.17975e+00 -1.72971e+01        00000 
 4.37919e+00 -1.73068e+01        00000 
 4.57937e+00 -1.73170e+01        00000 
 4.78022e+00 -1.73276e+01        00000 
 4.98186e+00 -1.73387e+01        00000 
 5.18423e+00 -1.73503e+01        00000 
 5.38745e+00 -1.73623e+01        00000 
 5.59147e+00 -1.73747e+01        00000 
 5.79639e+00 -1.73876e+01        00000 
 6.00216e+00 -1.74009e+01        00000 
 6.20890e+00 -1.74147e+01        00000 
 6.41656e+00 -1.74290e+01        00000 
 6.62524e+00 -1.74436e+01        00000 
 6.83489e+00 -1.74588e+01        00000 
 7.04562e+00 -1.74744e+01        00000 
 7.25739e+00 -1.74904e+01        00000 
 7.47029e+00 -1.75069e+01        00000 
 7.68429e+00 -1.75238e+01        00000 
 7.89949e+00 -1.75412e+01        00000 
 8.11584e+00 -1.75591e+01        00000 
 8.33345e+00 -1.75774e+01        00000 
 8.55227e+00 -1.75961e+01        00000 
 8.77242e+00 -1.76153e+01        00000 
 8.99382e+00 -1.76349e+01        00000 
 9.21662e+00 -1.76550e+01        00000 
 9.44074e+00 -1.76755e+01        00000 
 9.66630e+00 -1.76965e+01        00000 
 9.89325e+00 -1.77179e+01        00000 
 1.01217e+01 -1.77398e+01        00000 
-1.02185e+01 -1.82001e+01        00000 
-9.98806e+00 -1.81788e+01        00000 
-9.75916e+00 -1.81579e+01        00000 
-9.53164e+00 -1.81374e+01        00000 
-9.30557e+00 -1.81174e+01        00000 
-9.08082e+00 -1.80978e+01        00000 
-8.85746e+00 -1.80787e+01        00000 
-8.63536e+00 -1.80600e+01        00000 
-8.41458e+00 -1.80417e+01        00000 
-8.19500e+00 -1.80239e+01        00000 
-7.97669e+00 -1.80065e+01        00000 
-7.75953e+00 -1.79895e+01        00000 
-7.54357e+00 -1.79730e+01        00000 
-7.32870e+00 -1.79569e+01        00000 
-7.11497e+00 -1.79413e+01        00000 
-6.90227e+00 -1.79261e+01        00000 
-6.69065e+00 -1.79114e+01        00000 
-6.48001e+00 -1.78970e+01        00000 
-6.27039e+00 -1.78832e+01        00000 
-6.06169e+00 -1.78697e+01        00000 
-5.85395e+00 -1.78567e+01        00000 
-5.64706e+00 -1.78442e+01        00000 
-5.44108e+00 -1.78321e+01        00000 
-5.23590e+00 -1.78204e+01        00000 
-5.03156e+00 -1.78092e+01        00000 
-4.82796e+00 -1.77984e+01        00000 
-4.62515e+00 -1.77880e+01        00000 
-4.42302e+00 -1.77781e+01        00000 
-4.22161e+00 -1.77686e+01        00000 
-4.02083e+00 -1.77595e+01        00000 
-3.82070e+00 -1.77509e+01        00000 
-3.62114e+00 -1.77427e+01        00000 
-3.42219e+00 -1.77350e+01        00000 
-3.22373e+00 -1.77277e+01        00000 
-3.02582e+00 -1.77208e+01        00000 
-2.82835e+00 -1.77144e+01        00000 
-2.63136e+00 -1.77084e+01        00000 
-2.43476e+00 -1.77028e+01        00000 
-2.23857e+00 -1.76976e+01        00000 
-2.04270e+00 -1.76929e+01        00000 
-1.84720e+00 -1.76886e+01        00000 
-1.65195e+00 -1.76848e+01        00000 
-1.45700e+00 -1.76813e+01        00000 
-1.26225e+00 -1.76783e+01        00000 
-1.06773e+00 -1.76758e+01        00000 
-8.73348e-01 -1.76736e+01        00000 
-6.79143e-01 -1.76719e+01        00000 
-4.85008e-01 -1.76706e+01        00000 
-2.90989e-01 -1.76698e+01        00000 
-9.69785e-02 -1.76694e+01        00000 
 9.69785e-02 -1.76694e+01        00000 
 2.90989e-01 -1.76698e+01        00000 
 4.85008e-01 -1.76706e+01        00000 
 6.79143e-01 -1.76719e+01        00000 
 8.73348e-01 -1.76736e+01        00000 
 1.06773e+00 -1.76758e+01        00000 
 1.26225e+00 -1.76783e+01        00000 
 1.45700e+00 -1.76813e+01        00000 
 1.65195e+00 -1.76848e+01        00000 
 1.84720e+00 -1.76886e+01        00000 
 2.04270e+00 -1.76929e+01        00000 
 2.23857e+00 -1.76976e+01        00000 
 2.43476e+00 -1.77028e+01        00000 
 2.63136e+00 -1.77084e+01        00000 
 2.82835e+00 -1.77144e+01        00000 
 3.02582e+00 -1.77208e+01        00000 
 3.22373e+00 -1.77277e+01        00000 
 3.42219e+00 -1.77350e+01        00000 
 3.62114e+00 -1.77427e+01        00000 
 3.82070e+00 -1.77509e+01        00000 
 4.02083e+00 -1.77595e+01        00000 
 4.22161e+00 -1.77686e+01        00000 
 4.42302e+00 -1.77781e+01        00000 
 4.62515e+00 -1.77880e+01        00000 
 4.82796e+00 -1.77984e+01        00000 
 5.03156e+00 -1.78092e+01        00000 
 5.23590e+00 -1.78204e+01        00000 
 5.44108e+00 -1.78321e+01        00000 
 5.64706e+00 -1.78442e+01        00000 
 5.85395e+00 -1.78567e+01        00000 
 6.06169e+00 -1.78697e+01        00000 
 6.27039e+00 -1.78832e+01        00000 
 6.48001e+00 -1.78970e+01        00000 
 6.69065e+00 -1.79114e+01        00000 
 6.90227e+00 -1.79261e+01        00000 
 7.11497e+00 -1.79413e+01        00000 
 7.32870e+00 -1.79569e+01        00000 
 7.54357e+00 -1.79730e+01        00000 
 7.75953e+00 -1.79895e+01        00000 
 7.97669e+00 -1.80065e+01        00000 
 8.19500e+00 -1.80239e+01        00000 
 8.41458e+00 -1.80417e+01        00000 
 8.63536e+00 -1.80600e+01        00000 
 8.85746e+00 -1.80787e+01        00000 
 9.08082e+00 -1.80978e+01        00000 
 9.30557e+00 -1.81174e+01        00000 
 9.53164e+00 -1.81374e+01        00000 
 9.75916e+00 -1.81579e+01        00000 
 9.98806e+00 -1.81788e+01        00000 
 1.02185e+01 -1.82001e+01        00000 
-1.03128e+01 -1.86643e+01        00000 
-1.00805e+01 -1.86435e+01        00000 
-9.84969e+00 -1.86231e+01        00000 
-9.62027e+00 -1.86032e+01        00000 
-9.39229e+00 -1.85837e+01        00000 
-9.16564e+00 -1.85646e+01        00000 
-8.94036e+00 -1.85459e+01        00000 
-8.71635e+00 -1.85277e+01        00000 
-8.49366e+00 -1.85099e+01        00000 
-8.27217e+00 -1.84925e+01        00000 
-8.05195e+00 -1.84756e+01        00000 
-7.83287e+00 -1.84591e+01        00000 
-7.61499e+00 -1.84430e+01        00000 
-7.39820e+00 -1.84273e+01        00000 
-7.18256e+00 -1.84121e+01        00000 
-6.96794e+00 -1.83973e+01        00000 
-6.75441e+00 -1.83829e+01        00000 
-6.54185e+00 -1.83690e+01        00000 
-6.33031e+00 -1.83555e+01        00000 
-6.11969e+00 -1.83424e+01        00000 
-5.91003e+00 -1.83297e+01        00000 
-5.70123e+00 -1.83175e+01        00000 
-5.49333e+00 -1.83057e+01        00000 
-5.28623e+00 -1.82944e+01        00000 
-5.07999e+00 -1.82834e+01        00000 
-4.87447e+00 -1.82729e+01        00000 
-4.66975e+00 -1.82629e+01        00000 
-4.46570e+00 -1.82532e+01        00000 
-4.26239e+00 -1.82440e+01        00000 
-4.05969e+00 -1.82352e+01        00000 
-3.85766e+00 -1.82268e+01        00000 
-3.65620e+00 -1.82188e+01        00000 
-3.45534e+00 -1.82113e+01        00000 
-3.25498e+00 -1.82042e+01        00000 
-3.05517e+00 -1.81975e+01        00000 
-2.85579e+00 -1.81913e+01        00000 
-2.65691e+00 -1.81854e+01        00000 
-2.45840e+00 -1.81800e+01        00000 
-2.26032e+00 -1.81750e+01        00000 
-2.06256e+00 -1.81704e+01        00000 
-1.86516e+00 -1.81663e+01        00000 
-1.66802e+00 -1.81625e+01        00000 
-1.47118e+00 -1.81592e+01        00000 
-1.27453e+00 -1.81563e+01        00000 
-1.07812e+00 -1.81538e+01        00000 
-8.81850e-01 -1.81517e+01        00000 
-6.85756e-01 -1.81500e+01        00000 
-4.89731e-01 -1.81488e+01        00000 
-2.93823e-01 -1.81480e+01        00000 
-9.79229e-02 -1.81475e+01        00000 
 9.79229e-02 -1.81475e+01        00000 
 2.93823e-01 -1.81480e+01        00000 
 4.89731e-01 -1.81488e+01        00000 
 6.85756e-01 -1.81500e+01        00000 
 8.81850e-01 -1.81517e+01        00000 
 1.07812e+00 -1.81538e+01        00000 
 1.27453e+00 -1.81563e+01        00000 
 1.47118e+00 -1.81592e+01        00000 
 1.66802e+00 -1.81625e+01        00000 
 1.86516e+00 -1.81663e+01        00000 
 2.06256e+00 -1.81704e+01        00000 
 2.26032e+00 -1.81750e+01        00000 
 2.45840e+00 -1.81800e+01        00000 
 2.65691e+00 -1.81854e+01        00000 
 2.85579e+00 -1.81913e+01        00000 
 3.05517e+00 -1.81975e+01        00000 
 3.25498e+00 -1.82042e+01        00000 
 3.45534e+00 -1.82113e+01        00000 
 3.65620e+00 -1.82188e+01        00000 
 3.85766e+00 -1.82268e+01        00000 
 4.05969e+00 -1.82352e+01        00000 
 4.26239e+00 -1.82440e+01        00000 
 4.46570e+00 -1.82532e+01        00000 
 4.66975e+00 -1.82629e+01        00000 
 4.87447e+00 -1.82729e+01        00000 
 5.07999e+00 -1.82834e+01        00000 
 5.28623e+00 -1.82944e+01        00000 
 5.49333e+00 -1.83057e+01        00000 
 5.70123e+00 -1.83175e+01        00000 
 5.91003e+00 -1.83297e+01        00000 
 6.11969e+00 -1.83424e+01        00000 
 6.33031e+00 -1.83555e+01        00000 
 6.54185e+00 -1.83690e+01        00000 
 6.75441e+00 -1.83829e+01        00000 
 6.96794e+00 -1.83973e+01        00000 
 7.18256e+00 -1.84121e+01        00000 
 7.39820e+00 -1.84273e+01        00000 
 7.61499e+00 -1.84430e+01        00000 
 7.83287e+00 -1.84591e+01        00000 
 8.05195e+00 -1.84756e+01        00000 
 8.27217e+00 -1.84925e+01        00000 
 8.49366e+00 -1.85099e+01        00000 
 8.71635e+00 -1.85277e+01        00000 
 8.94036e+00 -1.85459e+01        00000 
 9.16564e+00 -1.85646e+01        00000 
 9.39229e+00 -1.85837e+01        00000 
 9.62027e+00 -1.86032e+01        00000 
 9.84969e+00 -1.86231e+01        00000 
 1.00805e+01 -1.86435e+01        00000 
 1.03128e+01 -1.86643e+01        00000 
-1.04047e+01 -1.91322e+01        00000 
-1.01705e+01 -1.91119e+01        00000 
-9.93789e+00 -1.90921e+01        00000 
-9.70661e+00 -1.90727e+01        00000 
-9.47678e+00 -1.90537e+01        00000 
-9.24826e+00 -1.90351e+01        00000 
-9.02113e+00 -1.90169e+01        00000 
-8.79526e+00 -1.89992e+01        00000 
-8.57070e+00 -1.89818e+01        00000 
-8.34735e+00 -1.89649e+01        00000 
-8.12526e+00 -1.89484e+01        00000 
-7.90431e+00 -1.89323e+01        00000 
-7.68456e+00 -1.89167e+01        00000 
-7.46590e+00 -1.89014e+01        00000 
-7.24839e+00 -1.88866e+01        00000 
-7.03190e+00 -1.88722e+01        00000 
-6.81649e+00 -1.88582e+01        00000 
-6.60206e+00 -1.88447e+01        00000 
-6.38865e+00 -1.88315e+01        00000 
-6.17616e+00 -1.88188e+01        00000 
-5.96463e+00 -1.88065e+01        00000 
-5.75396e+00 -1.87946e+01        00000 
-5.54420e+00 -1.87832e+01        00000 
-5.33523e+00 -1.87721e+01        00000 
-5.12712e+00 -1.87615e+01        00000 
-4.91974e+00 -1.87513e+01        00000 
-4.71315e+00 -1.87415e+01        00000 
-4.50725e+00 -1.87321e+01        00000 
-4.30207e+00 -1.87231e+01        00000 
-4.09751e+00 -1.87146e+01        00000 
-3.89363e+00 -1.87064e+01        00000 
-3.69030e+00 -1.86987e+01        00000 
-3.48759e+00 -1.86914e+01        00000 
-3.28538e+00 -1.86845e+01        00000 
-3.08371e+00 -1.86780e+01        00000 
-2.88249e+00 -1.86719e+01        00000 
-2.68176e+00 -1.86663e+01        00000 
-2.48140e+00 -1.86610e+01        00000 
-2.28148e+00 -1.86562e+01        00000 
-2.08187e+00 -1.86517e+01        00000 
-1.88263e+00 -1.86477e+01        00000 
-1.68364e+00 -1.86440e+01        00000 
-1.48496e+00 -1.86408e+01        00000 
-1.28647e+00 -1.86380e+01        00000 
-1.08823e+00 -1.86356e+01        00000 
-8.90117e-01 -1.86335e+01        00000 
-6.92185e-01 -1.86319e+01        00000 
-4.94323e-01 -1.86307e+01        00000 
-2.96578e-01 -1.86299e+01        00000 
-9.88411e-02 -1.86295e+01        00000 
 9.88411e-02 -1.86295e+01        00000 
 2.96578e-01 -1.86299e+01        00000 
 4.94323e-01 -1.86307e+01        00000 
 6.92185e-01 -1.86319e+01        00000 
 8.90117e-01 -1.86335e+01        00000 
 1.08823e+00 -1.86356e+01        00000 
 1.28647e+00 -1.86380e+01        00000 
 1.48496e+00 -1.86408e+01        00000 
 1.68364e+00 -1.86440e+01        00000 
 1.88263e+00 -1.86477e+01        00000 
 2.08187e+00 -1.86517e+01        00000 
 2.28148e+00 -1.86562e+01        00000 
 2.48140e+00 -1.86610e+01        00000 
 2.68176e+00 -1.86663e+01        00000 
 2.88249e+00 -1.86719e+01        00000 
 3.08371e+00 -1.86780e+01        00000 
 3.28538e+00 -1.86845e+01        00000 
 3.48759e+00 -1.86914e+01        00000 
 3.69030e+00 -1.86987e+01        00000 
 3.89363e+00 -1.87064e+01        00000 
 4.09751e+00 -1.87146e+01        00000 
 4.30207e+00 -1.87231e+01        00000 
 4.50725e+00 -1.87321e+01        00000 
 4.71315e+00 -1.87415e+01        00000 
 4.91974e+00 -1.87513e+01        00000 
 5.12712e+00 -1.87615e+01        00000 
 5.33523e+00 -1.87721e+01        00000 
 5.54420e+00 -1.87832e+01        00000 
 5.75396e+00 -1.87946e+01        00000 
 5.96463e+00 -1.88065e+01        00000 
 6.17616e+00 -1.88188e+01        00000 
 6.38865e+00 -1.88315e+01        00000 
 6.60206e+00 -1.88447e+01        00000 
 6.81649e+00 -1.88582e+01        00000 
 7.03190e+00 -1.88722e+01        00000 
 7.24839e+00 -1.88866e+01        00000 
 7.46590e+00 -1.89014e+01        00000 
 7.68456e+00 -1.89167e+01        00000 
 7.90431e+00 -1.89323e+01        00000 
 8.12526e+00 -1.89484e+01        00000 
 8.34735e+00 -1.89649e+01        00000 
 8.57070e+00 -1.89818e+01        00000 
 8.79526e+00 -1.89992e+01        00000 
 9.02113e+00 -1.90169e+01        00000 
 9.24826e+00 -1.90351e+01        00000 
 9.47678e+00 -1.90537e+01        00000 
 9.70661e+00 -1.90727e+01        00000 
 9.93789e+00 -1.90921e+01        00000 
 1.01705e+01 -1.91119e+01        00000 
 1.04047e+01 -1.91322e+01        00000 
-1.04942e+01 -1.96037e+01        00000 
-1.02582e+01 -1.95840e+01        00000 
-1.00238e+01 -1.95647e+01        00000 
-9.79068e+00 -1.95458e+01        00000 
-9.55904e+00 -1.95273e+01        00000 
-9.32871e+00 -1.95092e+01        00000 
-9.09977e+00 -1.94916e+01        00000 
-8.87208e+00 -1.94743e+01        00000 
-8.64570e+00 -1.94574e+01        00000 
-8.42053e+00 -1.94409e+01        00000 
-8.19662e+00 -1.94249e+01        00000 
-7.97385e+00 -1.94092e+01        00000 
-7.75228e+00 -1.93940e+01        00000 
-7.53180e+00 -1.93792e+01        00000 
-7.31246e+00 -1.93648e+01        00000 
-7.09414e+00 -1.93508e+01        00000 
-6.87692e+00 -1.93372e+01        00000 
-6.66066e+00 -1.93240e+01        00000 
-6.44543e+00 -1.93112e+01        00000 
-6.23111e+00 -1.92989e+01        00000 
-6.01776e+00 -1.92869e+01        00000 
-5.80526e+00 -1.92754e+01        00000 
-5.59368e+00 -1.92642e+01        00000 
-5.38289e+00 -1.92535e+01        00000 
-5.17296e+00 -1.92432e+01        00000 
-4.96376e+00 -1.92333e+01        00000 
-4.75536e+00 -1.92237e+01        00000 
-4.54764e+00 -1.92146e+01        00000 
-4.34065e+00 -1.92059e+01        00000 
-4.13428e+00 -1.91976e+01        00000 
-3.92859e+00 -1.91898e+01        00000 
-3.72346e+00 -1.91823e+01        00000 
-3.51894e+00 -1.91752e+01        00000 
-3.31492e+00 -1.91685e+01        00000 
-3.11146e+00 -1.91622e+01        00000 
-2.90843e+00 -1.91563e+01        00000 
-2.70590e+00 -1.91508e+01        00000 
-2.50375e+00 -1.91457e+01        00000 
-2.30203e+00 -1.91410e+01        00000 
-2.10063e+00 -1.91367e+01        00000 
-1.89960e+00 -1.91328e+01        00000 
-1.69882e+00 -1.91292e+01        00000 
-1.49835e+00 -1.91261e+01        00000 
-1.29808e+00 -1.91234e+01        00000 
-1.09805e+00 -1.91210e+01        00000 
-8.98148e-01 -1.91191e+01        00000 
-6.98430e-01 -1.91175e+01        00000 
-4.98783e-01 -1.91164e+01        00000 
-2.99254e-01 -1.91156e+01        00000 
-9.97331e-02 -1.91152e+01        00000 
 9.97331e-02 -1.91152e+01        00000 
 2.99254e-01 -1.91156e+01        00000 
 4.98783e-01 -1.91164e+01        00000 
 6.98430e-01 -1.91175e+01        00000 
 8.98148e-01 -1.91191e+01        00000 
 1.09805e+00 -1.91210e+01        00000 
 1.29808e+00 -1.91234e+01        00000 
 1.49835e+00 -1.91261e+01        00000 
 1.69882e+00 -1.91292e+01        00000 
 1.89960e+00 -1.91328e+01        00000 
 2.10063e+00 -1.91367e+01        00000 
 2.30203e+00 -1.91410e+01        00000 
 2.50375e+00 -1.91457e+01        00000 
 2.70590e+00 -1.91508e+01        00000 
 2.90843e+00 -1.91563e+01        00000 
 3.11146e+00 -1.91622e+01        00000 
 3.31492e+00 -1.91685e+01        00000 
 3.51894e+00 -1.91752e+01        00000 
 3.72346e+00 -1.91823e+01        00000 
 3.92859e+00 -1.91898e+01        00000 
 4.13428e+00 -1.91976e+01        00000 
 4.34065e+00 -1.92059e+01        00000 
 4.54764e+00 -1.92146e+01        00000 
 4.75536e+00 -1.92237e+01        00000 
 4.96376e+00 -1.92333e+01        00000 
 5.17296e+00 -1.92432e+01        00000 
 5.38289e+00 -1.92535e+01        00000 
 5.59368e+00 -1.92642e+01        00000 
 5.80526e+00 -1.92754e+01        00000 
 6.01776e+00 -1.92869e+01        00000 
 6.23111e+00 -1.92989e+01        00000 
 6.44543e+00 -1.93112e+01        00000 
 6.66066e+00 -1.93240e+01        00000 
 6.87692e+00 -1.93372e+01        00000 
 7.09414e+00 -1.93508e+01        00000 
 7.31246e+00 -1.93648e+01        00000 
 7.53180e+00 -1.93792e+01        00000 
 7.75228e+00 -1.93940e+01        00000 
 7.97385e+00 -1.94092e+01        00000 
 8.19662e+00 -1.94249e+01        00000 
 8.42053e+00 -1.94409e+01        00000 
 8.64570e+00 -1.94574e+01        00000 
 8.87208e+00 -1.94743e+01        00000 
 9.09977e+00 -1.94916e+01        00000 
 9.32871e+00 -1.95092e+01        00000 
 9.55904e+00 -1.95273e+01        00000 
 9.79068e+00 -1.95458e+01        00000 
 1.00238e+01 -1.95647e+01        00000 
 1.02582e+01 -1.95840e+01        00000 
 1.04942e+01 -1.96037e+01        00000 
-1.05812e+01 -2.00788e+01        00000 
-1.03435e+01 -2.00597e+01        00000 
-1.01073e+01 -2.00409e+01        00000 
-9.87248e+00 -2.00225e+01        00000 
-9.63907e+00 -2.00045e+01        00000 
-9.40699e+00 -1.99869e+01        00000 
-9.17627e+00 -1.99697e+01        00000 
-8.94681e+00 -1.99529e+01        00000 
-8.71867e+00 -1.99365e+01        00000 
-8.49173e+00 -1.99205e+01        00000 
-8.26604e+00 -1.99049e+01        00000 
-8.04149e+00 -1.98897e+01        00000 
-7.81815e+00 -1.98749e+01        00000 
-7.59589e+00 -1.98605e+01        00000 
-7.37477e+00 -1.98465e+01        00000 
-7.15467e+00 -1.98329e+01        00000 
-6.93567e+00 -1.98197e+01        00000 
-6.71763e+00 -1.98069e+01        00000 
-6.50062e+00 -1.97945e+01        00000 
-6.28452e+00 -1.97825e+01        00000 
-6.06940e+00 -1.97709e+01        00000 
-5.85513e+00 -1.97596e+01        00000 
-5.64177e+00 -1.97488e+01        00000 
-5.42921e+00 -1.97384e+01        00000 
-5.21750e+00 -1.97284e+01        00000 
-5.00654e+00 -1.97188e+01        00000 
-4.79636e+00 -1.97096e+01        00000 
-4.58688e+00 -1.97008e+01        00000 
-4.37812e+00 -1.96923e+01        00000 
-4.16999e+00 -1.96843e+01        00000 
-3.96254e+00 -1.96766e+01        00000 
-3.75565e+00 -1.96694e+01        00000 
-3.54938e+00 -1.96625e+01        00000 
-3.34361e+00 -1.96560e+01        00000 
-3.13839e+00 -1.96499e+01        00000 
-2.93362e+00 -1.96442e+01        00000 
-2.72934e+00 -1.96389e+01        00000 
-2.52545e+00 -1.96340e+01        00000 
-2.32198e+00 -1.96294e+01        00000 
-2.11884e+00 -1.96253e+01        00000 
-1.91607e+00 -1.96215e+01        00000 
-1.71355e+00 -1.96181e+01        00000 
-1.51135e+00 -1.96150e+01        00000 
-1.30934e+00 -1.96124e+01        00000 
-1.10757e+00 -1.96101e+01        00000 
-9.05940e-01 -1.96082e+01        00000 
-7.04490e-01 -1.96067e+01        00000 
-5.03111e-01 -1.96056e+01        00000 
-3.01851e-01 -1.96048e+01        00000 
-1.00599e-01 -1.96045e+01        00000 
 1.00599e-01 -1.96045e+01        00000 
 3.01851e-01 -1.96048e+01        00000 
 5.03111e-01 -1.96056e+01        00000 
 7.04490e-01 -1.96067e+01        00000 
 9.05940e-01 -1.96082e+01        00000 
 1.10757e+00 -1.96101e+01        00000 
 1.30934e+00 -1.96124e+01        00000 
 1.51135e+00 -1.96150e+01        00000 
 1.71355e+00 -1.96181e+01        00000 
 1.91607e+00 -1.96215e+01        00000 
 2.11884e+00 -1.96253e+01        00000 
 2.32198e+00 -1.96294e+01        00000 
 2.52545e+00 -1.96340e+01        00000 
 2.72934e+00 -1.96389e+01        00000 
 2.93362e+00 -1.96442e+01        00000 
 3.13839e+00 -1.96499e+01        00000 
 3.34361e+00 -1.96560e+01        00000 
 3.54938e+00 -1.96625e+01        00000 
 3.75565e+00 -1.96694e+01        00000 
 3.96254e+00 -1.96766e+01        00000 
 4.16999e+00 -1.96843e+01        00000 
 4.37812e+00 -1.96923e+01        00000 
 4.58688e+00 -1.97008e+01        00000 
 4.79636e+00 -1.97096e+01        00000 
 5.00654e+00 -1.97188e+01        00000 
 5.21750e+00 -1.97284e+01        00000 
 5.42921e+00 -1.97384e+01        00000 
 5.64177e+00 -1.97488e+01        00000 
 5.85513e+00 -1.97596e+01        00000 
 6.06940e+00 -1.97709e+01        00000 
 6.28452e+00 -1.97825e+01        00000 
 6.50062e+00 -1.97945e+01        00000 
 6.71763e+00 -1.98069e+01        00000 
 6.93567e+00 -1.98197e+01        00000 
 7.15467e+00 -1.98329e+01        00000 
 7.37477e+00 -1.98465e+01        00000 
 7.59589e+00 -1.98605e+01        00000 
 7.81815e+00 -1.98749e+01        00000 
 8.04149e+00 -1.98897e+01        00000 
 8.26604e+00 -1.99049e+01        00000 
 8.49173e+00 -1.99205e+01        00000 
 8.71867e+00 -1.99365e+01        00000 
 8.94681e+00 -1.99529e+01        00000 
 9.17627e+00 -1.99697e+01        00000 
 9.40699e+00 -1.99869e+01        00000 
 9.63907e+00 -2.00045e+01        00000 
 9.87248e+00 -2.00225e+01        00000 
 1.01073e+01 -2.00409e+01        00000 
 1.03435e+01 -2.00597e+01        00000 
 1.05812e+01 -2.00788e+01        00000 
-1.06659e+01 -2.05574e+01        00000 
-1.04265e+01 -2.05387e+01        00000 
-1.01886e+01 -2.05205e+01        00000 
-9.95201e+00 -2.05026e+01        00000 
-9.71689e+00 -2.04852e+01        00000 
-9.48309e+00 -2.04681e+01        00000 
-9.25065e+00 -2.04513e+01        00000 
-9.01947e+00 -2.04350e+01        00000 
-8.78961e+00 -2.04191e+01        00000 
-8.56093e+00 -2.04035e+01        00000 
-8.33352e+00 -2.03884e+01        00000 
-8.10724e+00 -2.03736e+01        00000 
-7.88216e+00 -2.03592e+01        00000 
-7.65817e+00 -2.03452e+01        00000 
-7.43532e+00 -2.03316e+01        00000 
-7.21349e+00 -2.03184e+01        00000 
-6.99275e+00 -2.03056e+01        00000 
-6.77298e+00 -2.02932e+01        00000 
-6.55423e+00 -2.02812e+01        00000 
-6.33641e+00 -2.02695e+01        00000 
-6.11955e+00 -2.02583e+01        00000 
-5.90355e+00 -2.02474e+01        00000 
-5.68846e+00 -2.02369e+01        00000 
-5.47417e+00 -2.02268e+01        00000 
-5.26074e+00 -2.02171e+01        00000 
-5.04805e+00 -2.02078e+01        00000 
-4.83616e+00 -2.01989e+01        00000 
-4.62496e+00 -2.01903e+01        00000 
-4.41449e+00 -2.01822e+01        00000 
-4.20464e+00 -2.01744e+01        00000 
-3.99548e+00 -2.01670e+01        00000 
-3.78688e+00 -2.01600e+01        00000 
-3.57890e+00 -2.01533e+01        00000 
-3.37143e+00 -2.01471e+01        00000 
-3.16451e+00 -2.01412e+01        00000 
-2.95804e+00 -2.01357e+01        00000 
-2.75207e+00 -2.01305e+01        00000 
-2.54648e+00 -2.01258e+01        00000 
-2.34133e+00 -2.01214e+01        00000 
-2.13649e+00 -2.01173e+01        00000 
-1.93203e+00 -2.01137e+01        00000 
-1.72783e+00 -2.01104e+01        00000 
-1.52394e+00 -2.01075e+01        00000 
-1.32025e+00 -2.01049e+01        00000 
-1.11680e+00 -2.01027e+01        00000 
-9.13492e-01 -2.01009e+01        00000 
-7.10363e-01 -2.00994e+01        00000 
-5.07306e-01 -2.00983e+01        00000 
-3.04368e-01 -2.00976e+01        00000 
-1.01437e-01 -2.00972e+01        00000 
 1.01437e-01 -2.00972e+01        00000 
 3.04368e-01 -2.00976e+01        00000 
 5.07306e-01 -2.00983e+01        00000 
 7.10363e-01 -2.00994e+01        00000 
 9.13492e-01 -2.01009e+01        00000 
 1.11680e+00 -2.01027e+01        00000 
 1.32025e+00 -2.01049e+01        00000 
 1.52394e+00 -2.01075e+01        00000 
 1.72783e+00 -2.01104e+01        00000 
 1.93203e+00 -2.01137e+01        00000 
 2.13649e+00 -2.01173e+01        00000 
 2.34133e+00 -2.01214e+01        00000 
 2.54648e+00 -2.01258e+01        00000 
 2.75207e+00 -2.01305e+01        00000 
 2.95804e+00 -2.01357e+01        00000 
 3.16451e+00 -2.01412e+01        00000 
 3.37143e+00 -2.01471e+01        00000 
 3.57890e+00 -2.01533e+01        00000 
 3.78688e+00 -2.01600e+01        00000 
 3.99548e+00 -2.01670e+01        00000 
 4.20464e+00 -2.01744e+01        00000 
 4.41449e+00 -2.01822e+01        00000 
 4.62496e+00 -2.01903e+01        00000 
 4.83616e+00 -2.01989e+01        00000 
 5.04805e+00 -2.02078e+01        00000 
 5.26074e+00 -2.02171e+01        00000 
 5.47417e+00 -2.02268e+01        00000 
 5.68846e+00 -2.02369e+01        00000 
 5.90355e+00 -2.02474e+01        00000 
 6.11955e+00 -2.02583e+01        00000 
 6.33641e+00 -2.02695e+01        00000 
 6.55423e+00 -2.02812e+01        00000 
 6.77298e+00 -2.02932e+01        00000 
 6.99275e+00 -2.03056e+01        00000 
 7.21349e+00 -2.03184e+01        00000 
 7.43532e+00 -2.03316e+01        00000 
 7.65817e+00 -2.03452e+01        00000 
 7.88216e+00 -2.03592e+01        00000 
 8.10724e+00 -2.03736e+01        00000 
 8.33352e+00 -2.03884e+01        00000 
 8.56093e+00 -2.04035e+01        00000 
 8.78961e+00 -2.04191e+01        00000 
 9.01947e+00 -2.04350e+01        00000 
 9.25065e+00 -2.04513e+01        00000 
 9.48309e+00 -2.04681e+01        00000 
 9.71689e+00 -2.04852e+01        00000 
 9.95201e+00 -2.05026e+01        00000 
 1.01886e+01 -2.05205e+01        00000 
 1.04265e+01 -2.05387e+01        00000 
 1.06659e+01 -2.05574e+01        00000 
-1.07481e+01 -2.10393e+01        00000 
-1.05071e+01 -2.10212e+01        00000 
-1.02675e+01 -2.10035e+01        00000 
-1.00293e+01 -2.09861e+01        00000 
-9.79249e+00 -2.09691e+01        00000 
-9.55702e+00 -2.09525e+01        00000 
-9.32291e+00 -2.09363e+01        00000 
-9.09005e+00 -2.09204e+01        00000 
-8.85851e+00 -2.09050e+01        00000 
-8.62815e+00 -2.08899e+01        00000 
-8.39906e+00 -2.08752e+01        00000 
-8.17109e+00 -2.08608e+01        00000 
-7.94433e+00 -2.08469e+01        00000 
-7.71864e+00 -2.08333e+01        00000 
-7.49410e+00 -2.08201e+01        00000 
-7.27059e+00 -2.08073e+01        00000 
-7.04816e+00 -2.07949e+01        00000 
-6.82670e+00 -2.07829e+01        00000 
-6.60626e+00 -2.07712e+01        00000 
-6.38675e+00 -2.07599e+01        00000 
-6.16820e+00 -2.07490e+01        00000 
-5.95052e+00 -2.07385e+01        00000 
-5.73375e+00 -2.07284e+01        00000 
-5.51778e+00 -2.07186e+01        00000 
-5.30267e+00 -2.07092e+01        00000 
-5.08831e+00 -2.07002e+01        00000 
-4.87475e+00 -2.06916e+01        00000 
-4.66187e+00 -2.06833e+01        00000 
-4.44973e+00 -2.06754e+01        00000 
-4.23822e+00 -2.06679e+01        00000 
-4.02740e+00 -2.06607e+01        00000 
-3.81714e+00 -2.06540e+01        00000 
-3.60751e+00 -2.06476e+01        00000 
-3.39838e+00 -2.06415e+01        00000 
-3.18981e+00 -2.06358e+01        00000 
-2.98170e+00 -2.06305e+01        00000 
-2.77408e+00 -2.06255e+01        00000 
-2.56685e+00 -2.06209e+01        00000 
-2.36005e+00 -2.06167e+01        00000 
-2.15358e+00 -2.06128e+01        00000 
-1.94749e+00 -2.06093e+01        00000 
-1.74166e+00 -2.06061e+01        00000 
-1.53614e+00 -2.06033e+01        00000 
-1.33081e+00 -2.06008e+01        00000 
-1.12574e+00 -2.05987e+01        00000 
-9.20801e-01 -2.05969e+01        00000 
-7.16048e-01 -2.05955e+01        00000 
-5.11365e-01 -2.05945e+01        00000 
-3.06803e-01 -2.05938e+01        00000 
-1.02249e-01 -2.05934e+01        00000 
 1.02249e-01 -2.05934e+01        00000 
 3.06803e-01 -2.05938e+01        00000 
 5.11365e-01 -2.05945e+01        00000 
 7.16048e-01 -2.05955e+01        00000 
 9.20801e-01 -2.05969e+01        00000 
 1.12574e+00 -2.05987e+01        00000 
 1.33081e+00 -2.06008e+01        00000 
 1.53614e+00 -2.06033e+01        00000 
 1.74166e+00 -2.06061e+01        00000 
 1.94749e+00 -2.06093e+01        00000 
 2.15358e+00 -2.06128e+01        00000 
 2.36005e+00 -2.06167e+01        00000 
 2.56685e+00 -2.06209e+01        00000 
 2.77408e+00 -2.06255e+01        00000 
 2.98170e+00 -2.06305e+01        00000 
 3.18981e+00 -2.06358e+01        00000 
 3.39838e+00 -2.06415e+01        00000 
 3.60751e+00 -2.06476e+01        00000 
 3.81714e+00 -2.06540e+01        00000 
 4.02740e+00 -2.06607e+01        00000 
 4.23822e+00 -2.06679e+01        00000 
 4.44973e+00 -2.06754e+01        00000 
 4.66187e+00 -2.06833e+01        00000 
 4.87475e+00 -2.06916e+01        00000 
 5.08831e+00 -2.07002e+01        00000 
 5.30267e+00 -2.07092e+01        00000 
 5.51778e+00 -2.07186e+01        00000 
 5.73375e+00 -2.07284e+01        00000 
 5.95052e+00 -2.07385e+01        00000 
 6.16820e+00 -2.07490e+01        00000 
 6.38675e+00 -2.07599e+01        00000 
 6.60626e+00 -2.07712e+01        00000 
 6.82670e+00 -2.07829e+01        00000 
 7.04816e+00 -2.07949e+01        00000 
 7.27059e+00 -2.08073e+01        00000 
 7.49410e+00 -2.08201e+01        00000 
 7.71864e+00 -2.08333e+01        00000 
 7.94433e+00 -2.08469e+01        00000 
 8.17109e+00 -2.08608e+01        00000 
 8.39906e+00 -2.08752e+01        00000 
 8.62815e+00 -2.08899e+01        00000 
 8.85851e+00 -2.09050e+01        00000 
 9.09005e+00 -2.09204e+01        00000 
 9.32291e+00 -2.09363e+01        00000 
 9.55702e+00 -2.09525e+01        00000 
 9.79249e+00 -2.09691e+01        00000 
 1.00293e+01 -2.09861e+01        00000 
 1.02675e+01 -2.10035e+01        00000 
 1.05071e+01 -2.10212e+01        00000 
 1.07481e+01 -2.10393e+01        00000 
-1.08279e+01 -2.15244e+01        00000 
-1.05853e+01 -2.15069e+01        00000 
-1.03441e+01 -2.14897e+01        00000 
-1.01043e+01 -2.14728e+01        00000 
-9.86589e+00 -2.14563e+01        00000 
-9.62879e+00 -2.14402e+01        00000 
-9.39305e+00 -2.14245e+01        00000 
-9.15856e+00 -2.14091e+01        00000 
-8.92538e+00 -2.13941e+01        00000 
-8.69339e+00 -2.13795e+01        00000 
-8.46265e+00 -2.13652e+01        00000 
-8.23305e+00 -2.13513e+01        00000 
-8.00464e+00 -2.13378e+01        00000 
-7.77731e+00 -2.13246e+01        00000 
-7.55112e+00 -2.13119e+01        00000 
-7.32596e+00 -2.12995e+01        00000 
-7.10189e+00 -2.12874e+01        00000 
-6.87878e+00 -2.12758e+01        00000 
-6.65671e+00 -2.12645e+01        00000 
-6.43555e+00 -2.12536e+01        00000 
-6.21536e+00 -2.12430e+01        00000 
-5.99604e+00 -2.12329e+01        00000 
-5.77763e+00 -2.12231e+01        00000 
-5.56003e+00 -2.12136e+01        00000 
-5.34329e+00 -2.12046e+01        00000 
-5.12730e+00 -2.11959e+01        00000 
-4.91211e+00 -2.11875e+01        00000 
-4.69761e+00 -2.11795e+01        00000 
-4.48385e+00 -2.11719e+01        00000 
-4.27073e+00 -2.11647e+01        00000 
-4.05829e+00 -2.11578e+01        00000 
-3.84642e+00 -2.11512e+01        00000 
-3.63518e+00 -2.11451e+01        00000 
-3.42445e+00 -2.11392e+01        00000 
-3.21429e+00 -2.11337e+01        00000 
-3.00457e+00 -2.11286e+01        00000 
-2.79536e+00 -2.11238e+01        00000 
-2.58654e+00 -2.11194e+01        00000 
-2.37816e+00 -2.11153e+01        00000 
-2.17011e+00 -2.11116e+01        00000 
-1.96243e+00 -2.11082e+01        00000 
-1.75502e+00 -2.11051e+01        00000 
-1.54792e+00 -2.11024e+01        00000 
-1.34102e+00 -2.11000e+01        00000 
-1.13438e+00 -2.10980e+01        00000 
-9.27866e-01 -2.10963e+01        00000 
-7.21541e-01 -2.10950e+01        00000 
-5.15288e-01 -2.10940e+01        00000 
-3.09157e-01 -2.10933e+01        00000 
-1.03033e-01 -2.10929e+01        00000 
 1.03033e-01 -2.10929e+01        00000 
 3.09157e-01 -2.10933e+01        00000 
 5.15288e-01 -2.10940e+01        00000 
 7.21541e-01 -2.10950e+01        00000 
 9.27866e-01 -2.10963e+01        00000 
 1.13438e+00 -2.10980e+01        00000 
 1.34102e+00 -2.11000e+01        00000 
 1.54792e+00 -2.11024e+01        00000 
 1.75502e+00 -2.11051e+01        00000 
 1.96243e+00 -2.11082e+01        00000 
 2.17011e+00 -2.11116e+01        00000 
 2.37816e+00 -2.11153e+01        00000 
 2.58654e+00 -2.11194e+01        00000 
 2.79536e+00 -2.11238e+01        00000 
 3.00457e+00 -2.11286e+01        00000 
 3.21429e+00 -2.11337e+01        00000 
 3.42445e+00 -2.11392e+01        00000 
 3.63518e+00 -2.11451e+01        00000 
 3.84642e+00 -2.11512e+01        00000 
 4.05829e+00 -2.11578e+01        00000 
 4.27073e+00 -2.11647e+01        00000 
 4.48385e+00 -2.11719e+01        00000 
 4.69761e+00 -2.11795e+01        00000 
 4.91211e+00 -2.11875e+01        00000 
 5.12730e+00 -2.11959e+01        00000 
 5.34329e+00 -2.12046e+01        00000 
 5.56003e+00 -2.12136e+01        00000 
 5.77763e+00 -2.12231e+01        00000 
 5.99604e+00 -2.12329e+01        00000 
 6.21536e+00 -2.12430e+01        00000 
 6.43555e+00 -2.12536e+01        00000 
 6.65671e+00 -2.12645e+01        00000 
 6.87878e+00 -2.12758e+01        00000 
 7.10189e+00 -2.12874e+01        00000 
 7.32596e+00 -2.12995e+01        00000 
 7.55112e+00 -2.13119e+01        00000 
 7.77731e+00 -2.13246e+01        00000 
 8.00464e+00 -2.13378e+01        00000 
 8.23305e+00 -2.13513e+01        00000 
 8.46265e+00 -2.13652e+01        00000 
 8.69339e+00 -2.13795e+01        00000 
 8.92538e+00 -2.13941e+01        00000 
 9.15856e+00 -2.14091e+01        00000 
 9.39305e+00 -2.14245e+01        00000 
 9.62879e+00 -2.14402e+01        00000 
 9.86589e+00 -2.14563e+01        00000 
 1.01043e+01 -2.14728e+01        00000 
 1.03441e+01 -2.14897e+01        00000 
 1.05853e+01 -2.15069e+01        00000 
 1.08279e+01 -2.15244e+01        00000 
-1.09054e+01 -2.20127e+01        00000 
-1.06612e+01 -2.19957e+01        00000 
-1.04184e+01 -2.19790e+01        00000 
-1.01771e+01 -2.19627e+01        00000 
-9.93708e+00 -2.19467e+01        00000 
-9.69840e+00 -2.19311e+01        00000 
-9.46109e+00 -2.19158e+01        00000 
-9.22501e+00 -2.19009e+01        00000 
-8.99024e+00 -2.18864e+01        00000 
-8.75665e+00 -2.18722e+01        00000 
-8.52431e+00 -2.18584e+01        00000 
-8.29311e+00 -2.18449e+01        00000 
-8.06310e+00 -2.18318e+01        00000 
-7.83417e+00 -2.18191e+01        00000 
-7.60638e+00 -2.18067e+01        00000 
-7.37962e+00 -2.17947e+01        00000 
-7.15394e+00 -2.17831e+01        00000 
-6.92923e+00 -2.17718e+01        00000 
-6.70556e+00 -2.17609e+01        00000 
-6.48280e+00 -2.17504e+01        00000 
-6.26102e+00 -2.17402e+01        00000 
-6.04010e+00 -2.17304e+01        00000 
-5.82010e+00 -2.17209e+01        00000 
-5.60091e+00 -2.17118e+01        00000 
-5.38258e+00 -2.17031e+01        00000 
-5.16501e+00 -2.16947e+01        00000 
-4.94824e+00 -2.16866e+01        00000 
-4.73216e+00 -2.16790e+01        00000 
-4.51684e+00 -2.16716e+01        00000 
-4.30214e+00 -2.16646e+01        00000 
-4.08814e+00 -2.16580e+01        00000 
-3.87472e+00 -2.16517e+01        00000 
-3.66192e+00 -2.16458e+01        00000 
-3.44964e+00 -2.16401e+01        00000 
-3.23793e+00 -2.16349e+01        00000 
-3.02667e+00 -2.16299e+01        00000 
-2.81592e+00 -2.16254e+01        00000 
-2.60556e+00 -2.16211e+01        00000 
-2.39564e+00 -2.16172e+01        00000 
-2.18606e+00 -2.16136e+01        00000 
-1.97686e+00 -2.16103e+01        00000 
-1.76792e+00 -2.16074e+01        00000 
-1.55930e+00 -2.16048e+01        00000 
-1.35088e+00 -2.16025e+01        00000 
-1.14271e+00 -2.16006e+01        00000 
-9.34682e-01 -2.15989e+01        00000 
-7.26841e-01 -2.15976e+01        00000 
-5.19073e-01 -2.15967e+01        00000 
-3.11428e-01 -2.15960e+01        00000 
-1.03790e-01 -2.15957e+01        00000 
 1.03790e-01 -2.15957e+01        00000 
 3.11428e-01 -2.15960e+01        00000 
 5.19073e-01 -2.15967e+01        00000 
 7.26841e-01 -2.15976e+01        00000 
 9.34682e-01 -2.15989e+01        00000 
 1.14271e+00 -2.16006e+01        00000 
 1.35088e+00 -2.16025e+01        00000 
 1.55930e+00 -2.16048e+01        00000 
 1.76792e+00 -2.16074e+01        00000 
 1.97686e+00 -2.16103e+01        00000 
 2.18606e+00 -2.16136e+01        00000 
 2.39564e+00 -2.16172e+01        00000 
 2.60556e+00 -2.16211e+01        00000 
 2.81592e+00 -2.16254e+01        00000 
 3.02667e+00 -2.16299e+01        00000 
 3.23793e+00 -2.16349e+01        00000 
 3.44964e+00 -2.16401e+01        00000 
 3.66192e+00 -2.16458e+01        00000 
 3.87472e+00 -2.16517e+01        00000 
 4.08814e+00 -2.16580e+01        00000 
 4.30214e+00 -2.16646e+01        00000 
 4.51684e+00 -2.16716e+01        00000 
 4.73216e+00 -2.16790e+01        00000 
 4.94824e+00 -2.16866e+01        00000 
 5.16501e+00 -2.16947e+01        00000 
 5.38258e+00 -2.17031e+01        00000 
 5.60091e+00 -2.17118e+01        00000 
 5.82010e+00 -2.17209e+01        00000 
 6.04010e+00 -2.17304e+01        00000 
 6.26102e+00 -2.17402e+01        00000 
 6.48280e+00 -2.17504e+01        00000 
 6.70556e+00 -2.17609e+01        00000 
 6.92923e+00 -2.17718e+01        00000 
 7.15394e+00 -2.17831e+01        00000 
 7.37962e+00 -2.17947e+01        00000 
 7.60638e+00 -2.18067e+01        00000 
 7.83417e+00 -2.18191e+01        00000 
 8.06310e+00 -2.18318e+01        00000 
 8.29311e+00 -2.18449e+01        00000 
 8.52431e+00 -2.18584e+01        00000 
 8.75665e+00 -2.18722e+01        00000 
 8.99024e+00 -2.18864e+01        00000 
 9.22501e+00 -2.19009e+01        00000 
 9.46109e+00 -2.19158e+01        00000 
 9.69840e+00 -2.19311e+01        00000 
 9.93708e+00 -2.19467e+01        00000 
 1.01771e+01 -2.19627e+01        00000 
 1.04184e+01 -2.19790e+01        00000 
 1.06612e+01 -2.19957e+01        00000 
 1.09054e+01 -2.20127e+01        00000 
-1.09805e+01 -2.25041e+01        00000 
-1.07347e+01 -2.24876e+01        00000 
-1.04905e+01 -2.24714e+01        00000 
-1.02476e+01 -2.24556e+01        00000 
-1.00061e+01 -2.24401e+01        00000 
-9.76587e+00 -2.24250e+01        00000 
-9.52701e+00 -2.24102e+01        00000 
-9.28939e+00 -2.23958e+01        00000 
-9.05307e+00 -2.23817e+01        00000 
-8.81793e+00 -2.23680e+01        00000 
-8.58404e+00 -2.23546e+01        00000 
-8.35128e+00 -2.23416e+01        00000 
-8.11971e+00 -2.23289e+01        00000 
-7.88922e+00 -2.23166e+01        00000 
-7.65987e+00 -2.23047e+01        00000 
-7.43154e+00 -2.22931e+01        00000 
-7.20430e+00 -2.22818e+01        00000 
-6.97804e+00 -2.22709e+01        00000 
-6.75281e+00 -2.22604e+01        00000 
-6.52849e+00 -2.22502e+01        00000 
-6.30516e+00 -2.22404e+01        00000 
-6.08269e+00 -2.22310e+01        00000 
-5.86114e+00 -2.22218e+01        00000 
-5.64041e+00 -2.22131e+01        00000 
-5.42054e+00 -2.22047e+01        00000 
-5.20143e+00 -2.21966e+01        00000 
-4.98313e+00 -2.21888e+01        00000 
-4.76553e+00 -2.21815e+01        00000 
-4.54868e+00 -2.21744e+01        00000 
-4.33247e+00 -2.21677e+01        00000 
-4.11695e+00 -2.21613e+01        00000 
-3.90201e+00 -2.21553e+01        00000 
-3.68771e+00 -2.21496e+01        00000 
-3.47393e+00 -2.21442e+01        00000 
-3.26072e+00 -2.21391e+01        00000 
-3.04797e+00 -2.21344e+01        00000 
-2.83573e+00 -2.21300e+01        00000 
-2.62389e+00 -2.21259e+01        00000 
-2.41249e+00 -2.21221e+01        00000 
-2.20143e+00 -2.21187e+01        00000 
-1.99075e+00 -2.21156e+01        00000 
-1.78034e+00 -2.21128e+01        00000 
-1.57025e+00 -2.21103e+01        00000 
-1.36037e+00 -2.21081e+01        00000 
-1.15074e+00 -2.21062e+01        00000 
-9.41248e-01 -2.21047e+01        00000 
-7.31947e-01 -2.21034e+01        00000 
-5.22719e-01 -2.21025e+01        00000 
-3.13615e-01 -2.21019e+01        00000 
-1.04519e-01 -2.21016e+01        00000 
 1.04519e-01 -2.21016e+01        00000 
 3.13615e-01 -2.21019e+01        00000 
 5.22719e-01 -2.21025e+01        00000 
 7.31947e-01 -2.21034e+01        00000 
 9.41248e-01 -2.21047e+01        00000 
 1.15074e+00 -2.21062e+01        00000 
 1.36037e+00 -2.21081e+01        00000 
 1.57025e+00 -2.21103e+01        00000 
 1.78034e+00 -2.21128e+01        00000 
 1.99075e+00 -2.21156e+01        00000 
 2.20143e+00 -2.21187e+01        00000 
 2.41249e+00 -2.21221e+01        00000 
 2.62389e+00 -2.21259e+01        00000 
 2.83573e+00 -2.21300e+01        00000 
 3.04797e+00 -2.21344e+01        00000 
 3.26072e+00 -2.21391e+01        00000 
 3.47393e+00 -2.21442e+01        00000 
 3.68771e+00 -2.21496e+01        00000 
 3.90201e+00 -2.21553e+01        00000 
 4.11695e+00 -2.21613e+01        00000 
 4.33247e+00 -2.21677e+01        00000 
 4.54868e+00 -2.21744e+01        00000 
 4.76553e+00 -2.21815e+01        00000 
 4.98313e+00 -2.21888e+01        00000 
 5.20143e+00 -2.21966e+01        00000 
 5.42054e+00 -2.22047e+01        00000 
 5.64041e+00 -2.22131e+01        00000 
 5.86114e+00 -2.22218e+01        00000 
 6.08269e+00 -2.22310e+01        00000 
 6.30516e+00 -2.22404e+01        00000 
 6.52849e+00 -2.22502e+01        00000 
 6.75281e+00 -2.22604e+01        00000 
 6.97804e+00 -2.22709e+01        00000 
 7.20430e+00 -2.22818e+01        00000 
 7.43154e+00 -2.22931e+01        00000 
 7.65987e+00 -2.23047e+01        00000 
 7.88922e+00 -2.23166e+01        00000 
 8.11971e+00 -2.23289e+01        00000 
 8.35128e+00 -2.23416e+01        00000 
 8.58404e+00 -2.23546e+01        00000 
 8.81793e+00 -2.23680e+01        00000 
 9.05307e+00 -2.23817e+01        00000 
 9.28939e+00 -2.23958e+01        00000 
 9.52701e+00 -2.24102e+01        00000 
 9.76587e+00 -2.24250e+01        00000 
 1.00061e+01 -2.24401e+01        00000 
 1.02476e+01 -2.24556e+01        00000 
 1.04905e+01 -2.24714e+01        00000 
 1.07347e+01 -2.24876e+01        00000 
 1.09805e+01 -2.25041e+01        00000 
-1.10532e+01 -2.29984e+01        00000 
-1.08060e+01 -2.29824e+01        00000 
-1.05603e+01 -2.29668e+01        00000 
-1.03159e+01 -2.29514e+01        00000 
-1.00729e+01 -2.29365e+01        00000 
-9.83119e+00 -2.29218e+01        00000 
-9.59084e+00 -2.29075e+01        00000 
-9.35172e+00 -2.28936e+01        00000 
-9.11389e+00 -2.28799e+01        00000 
-8.87724e+00 -2.28667e+01        00000 
-8.64183e+00 -2.28537e+01        00000 
-8.40755e+00 -2.28412e+01        00000 
-8.17447e+00 -2.28289e+01        00000 
-7.94246e+00 -2.28171e+01        00000 
-7.71159e+00 -2.28055e+01        00000 
-7.48174e+00 -2.27943e+01        00000 
-7.25298e+00 -2.27835e+01        00000 
-7.02520e+00 -2.27730e+01        00000 
-6.79845e+00 -2.27629e+01        00000 
-6.57262e+00 -2.27531e+01        00000 
-6.34778e+00 -2.27436e+01        00000 
-6.12380e+00 -2.27345e+01        00000 
-5.90075e+00 -2.27257e+01        00000 
-5.67852e+00 -2.27173e+01        00000 
-5.45716e+00 -2.27092e+01        00000 
-5.23656e+00 -2.27015e+01        00000 
-5.01677e+00 -2.26940e+01        00000 
-4.79769e+00 -2.26869e+01        00000 
-4.57936e+00 -2.26802e+01        00000 
-4.36168e+00 -2.26737e+01        00000 
-4.14470e+00 -2.26676e+01        00000 
-3.92831e+00 -2.26618e+01        00000 
-3.71255e+00 -2.26564e+01        00000 
-3.49732e+00 -2.26512e+01        00000 
-3.28267e+00 -2.26464e+01        00000 
-3.06847e+00 -2.26418e+01        00000 
-2.85480e+00 -2.26376e+01        00000 
-2.64153e+00 -2.26337e+01        00000 
-2.42870e+00 -2.26301e+01        00000 
-2.21622e+00 -2.26268e+01        00000 
-2.00412e+00 -2.26238e+01        00000 
-1.79229e+00 -2.26212e+01        00000 
-1.58079e+00 -2.26188e+01        00000 
-1.36950e+00 -2.26167e+01        00000 
-1.15846e+00 -2.26149e+01        00000 
-9.47561e-01 -2.26134e+01        00000 
-7.36855e-01 -2.26122e+01        00000 
-5.26224e-01 -2.26114e+01        00000 
-3.15718e-01 -2.26108e+01        00000 
-1.05220e-01 -2.26105e+01        00000 
 1.05220e-01 -2.26105e+01        00000 
 3.15718e-01 -2.26108e+01        00000 
 5.26224e-01 -2.26114e+01        00000 
 7.36855e-01 -2.26122e+01        00000 
 9.47561e-01 -2.26134e+01        00000 
 1.15846e+00 -2.26149e+01        00000 
 1.36950e+00 -2.26167e+01        00000 
 1.58079e+00 -2.26188e+01        00000 
 1.79229e+00 -2.26212e+01        00000 
 2.00412e+00 -2.26238e+01        00000 
 2.21622e+00 -2.26268e+01        00000 
 2.42870e+00 -2.26301e+01        00000 
 2.64153e+00 -2.26337e+01        00000 
 2.85480e+00 -2.26376e+01        00000 
 3.06847e+00 -2.26418e+01        00000 
 3.28267e+00 -2.26464e+01        00000 
 3.49732e+00 -2.26512e+01        00000 
 3.71255e+00 -2.26564e+01        00000 
 3.92831e+00 -2.26618e+01        00000 
 4.14470e+00 -2.26676e+01        00000 
 4.36168e+00 -2.26737e+01        00000 
 4.57936e+00 -2.26802e+01        00000 
 4.79769e+00 -2.26869e+01        00000 
 5.01677e+00 -2.26940e+01        00000 
 5.23656e+00 -2.27015e+01        00000 
 5.45716e+00 -2.27092e+01        00000 
 5.67852e+00 -2.27173e+01        00000 
 5.90075e+00 -2.27257e+01        00000 
 6.12380e+00 -2.27345e+01        00000 
 6.34778e+00 -2.27436e+01        00000 
 6.57262e+00 -2.27531e+01        00000 
 6.79845e+00 -2.27629e+01        00000 
 7.02520e+00 -2.27730e+01        00000 
 7.25298e+00 -2.27835e+01        00000 
 7.48174e+00 -2.27943e+01        00000 
 7.71159e+00 -2.28055e+01        00000 
 7.94246e+00 -2.28171e+01        00000 
 8.17447e+00 -2.28289e+01        00000 
 8.40755e+00 -2.28412e+01        00000 
 8.64183e+00 -2.28537e+01        00000 
 8.87724e+00 -2.28667e+01        00000 
 9.11389e+00 -2.28799e+01        00000 
 9.35172e+00 -2.28936e+01        00000 
 9.59084e+00 -2.29075e+01        00000 
 9.83119e+00 -2.29218e+01        00000 
 1.00729e+01 -2.29365e+01        00000 
 1.03159e+01 -2.29514e+01        00000 
 1.05603e+01 -2.29668e+01        00000 
 1.08060e+01 -2.29824e+01        00000 
 1.10532e+01 -2.29984e+01        00000 
-1.11235e+01 -2.34955e+01        00000 
-1.08749e+01 -2.34801e+01        00000 
-1.06278e+01 -2.34650e+01        00000 
-1.03820e+01 -2.34502e+01        00000 
-1.01375e+01 -2.34357e+01        00000 
-9.89439e+00 -2.34215e+01        00000 
-9.65258e+00 -2.34077e+01        00000 
-9.41199e+00 -2.33942e+01        00000 
-9.17270e+00 -2.33810e+01        00000 
-8.93458e+00 -2.33682e+01        00000 
-8.69770e+00 -2.33558e+01        00000 
-8.46194e+00 -2.33436e+01        00000 
-8.22737e+00 -2.33318e+01        00000 
-7.99388e+00 -2.33204e+01        00000 
-7.76153e+00 -2.33092e+01        00000 
-7.53020e+00 -2.32985e+01        00000 
-7.29997e+00 -2.32880e+01        00000 
-7.07071e+00 -2.32779e+01        00000 
-6.84248e+00 -2.32682e+01        00000 
-6.61518e+00 -2.32588e+01        00000 
-6.38887e+00 -2.32497e+01        00000 
-6.16343e+00 -2.32409e+01        00000 
-5.93892e+00 -2.32325e+01        00000 
-5.71524e+00 -2.32244e+01        00000 
-5.49243e+00 -2.32167e+01        00000 
-5.27038e+00 -2.32092e+01        00000 
-5.04915e+00 -2.32021e+01        00000 
-4.82864e+00 -2.31953e+01        00000 
-4.60889e+00 -2.31888e+01        00000 
-4.38978e+00 -2.31827e+01        00000 
-4.17139e+00 -2.31768e+01        00000 
-3.95358e+00 -2.31713e+01        00000 
-3.73642e+00 -2.31661e+01        00000 
-3.51979e+00 -2.31612e+01        00000 
-3.30375e+00 -2.31565e+01        00000 
-3.08817e+00 -2.31522e+01        00000 
-2.87311e+00 -2.31482e+01        00000 
-2.65846e+00 -2.31445e+01        00000 
-2.44427e+00 -2.31410e+01        00000 
-2.23041e+00 -2.31379e+01        00000 
-2.01695e+00 -2.31351e+01        00000 
-1.80376e+00 -2.31325e+01        00000 
-1.59090e+00 -2.31302e+01        00000 
-1.37825e+00 -2.31283e+01        00000 
-1.16586e+00 -2.31266e+01        00000 
-9.53617e-01 -2.31251e+01        00000 
-7.41563e-01 -2.31240e+01        00000 
-5.29586e-01 -2.31232e+01        00000 
-3.17734e-01 -2.31226e+01        00000 
-1.05892e-01 -2.31223e+01        00000 
 1.05892e-01 -2.31223e+01        00000 
 3.17734e-01 -2.31226e+01        00000 
 5.29586e-01 -2.31232e+01        00000 
 7.41563e-01 -2.31240e+01        00000 
 9.53617e-01 -2.31251e+01        00000 
 1.16586e+00 -2.31266e+01        00000 
 1.37825e+00 -2.31283e+01        00000 
 1.59090e+00 -2.31302e+01        00000 
 1.80376e+00 -2.31325e+01        00000 
 2.01695e+00 -2.31351e+01        00000 
 2.23041e+00 -2.31379e+01        00000 
 2.44427e+00 -2.31410e+01        00000 
 2.65846e+00 -2.31445e+01        00000 
 2.87311e+00 -2.31482e+01        00000 
 3.08817e+00 -2.31522e+01        00000 
 3.30375e+00 -2.31565e+01        00000 
 3.51979e+00 -2.31612e+01        00000 
 3.73642e+00 -2.31661e+01        00000 
 3.95358e+00 -2.31713e+01        00000 
 4.17139e+00 -2.31768e+01        00000 
 4.38978e+00 -2.31827e+01        00000 
 4.60889e+00 -2.31888e+01        00000 
 4.82864e+00 -2.31953e+01        00000 
 5.04915e+00 -2.32021e+01        00000 
 5.27038e+00 -2.32092e+01        00000 
 5.49243e+00 -2.32167e+01        00000 
 5.71524e+00 -2.32244e+01        00000 
 5.93892e+00 -2.32325e+01        00000 
 6.16343e+00 -2.32409e+01        00000 
 6.38887e+00 -2.32497e+01        00000 
 6.61518e+00 -2.32588e+01        00000 
 6.84248e+00 -2.32682e+01        00000 
 7.07071e+00 -2.32779e+01        00000 
 7.29997e+00 -2.32880e+01        00000 
 7.53020e+00 -2.32985e+01        00000 
 7.76153e+00 -2.33092e+01        00000 
 7.99388e+00 -2.33204e+01        00000 
 8.22737e+00 -2.33318e+01        00000 
 8.46194e+00 -2.33436e+01        00000 
 8.69770e+00 -2.33558e+01        00000 
 8.93458e+00 -2.33682e+01        00000 
 9.17270e+00 -2.33810e+01        00000 
 9.41199e+00 -2.33942e+01        00000 
 9.65258e+00 -2.34077e+01        00000 
 9.89439e+00 -2.34215e+01        00000 
 1.01375e+01 -2.34357e+01        00000 
 1.03820e+01 -2.34502e+01        00000 
 1.06278e+01 -2.34650e+01        00000 
 1.08749e+01 -2.34801e+01        00000 
 1.11235e+01 -2.34955e+01        00000 
-1.11916e+01 -2.39955e+01        00000 
-1.09416e+01 -2.39805e+01        00000 
-1.06931e+01 -2.39659e+01        00000 
-1.04458e+01 -2.39516e+01        00000 
-1.02000e+01 -2.39376e+01        00000 
-9.95546e+00 -2.39240e+01        00000 
-9.71224e+00 -2.39106e+01        00000 
-9.47023e+00 -2.38976e+01        00000 
-9.22951e+00 -2.38849e+01        00000 
-8.98995e+00 -2.38725e+01        00000 
-8.75163e+00 -2.38605e+01        00000 
-8.51443e+00 -2.38488e+01        00000 
-8.27843e+00 -2.38374e+01        00000 
-8.04349e+00 -2.38264e+01        00000 
-7.80970e+00 -2.38157e+01        00000 
-7.57693e+00 -2.38054e+01        00000 
-7.34525e+00 -2.37953e+01        00000 
-7.11455e+00 -2.37856e+01        00000 
-6.88489e+00 -2.37763e+01        00000 
-6.65616e+00 -2.37672e+01        00000 
-6.42843e+00 -2.37585e+01        00000 
-6.20156e+00 -2.37501e+01        00000 
-5.97564e+00 -2.37421e+01        00000 
-5.75054e+00 -2.37343e+01        00000 
-5.52633e+00 -2.37269e+01        00000 
-5.30288e+00 -2.37198e+01        00000 
-5.08026e+00 -2.37130e+01        00000 
-4.85836e+00 -2.37065e+01        00000 
-4.63723e+00 -2.37003e+01        00000 
-4.41676e+00 -2.36945e+01        00000 
-4.19700e+00 -2.36889e+01        00000 
-3.97783e+00 -2.36836e+01        00000 
-3.75932e+00 -2.36786e+01        00000 
-3.54134e+00 -2.36739e+01        00000 
-3.32396e+00 -2.36695e+01        00000 
-3.10704e+00 -2.36654e+01        00000 
-2.89066e+00 -2.36616e+01        00000 
-2.67468e+00 -2.36581e+01        00000 
-2.45917e+00 -2.36548e+01        00000 
-2.24400e+00 -2.36518e+01        00000 
-2.02923e+00 -2.36491e+01        00000 
-1.81474e+00 -2.36467e+01        00000 
-1.60058e+00 -2.36445e+01        00000 
-1.38664e+00 -2.36427e+01        00000 
-1.17295e+00 -2.36410e+01        00000 
-9.59412e-01 -2.36397e+01        00000 
-7.46069e-01 -2.36386e+01        00000 
-5.32803e-01 -2.36378e+01        00000 
-3.19664e-01 -2.36373e+01        00000 
-1.06535e-01 -2.36370e+01        00000 
 1.06535e-01 -2.36370e+01        00000 
 3.19664e-01 -2.36373e+01        00000 
 5.32803e-01 -2.36378e+01        00000 
 7.46069e-01 -2.36386e+01        00000 
 9.59412e-01 -2.36397e+01        00000 
 1.17295e+00 -2.36410e+01        00000 
 1.38664e+00 -2.36427e+01        00000 
 1.60058e+00 -2.36445e+01        00000 
 1.81474e+00 -2.36467e+01        00000 
 2.02923e+00 -2.36491e+01        00000 
 2.24400e+00 -2.36518e+01        00000 
 2.45917e+00 -2.36548e+01        00000 
 2.67468e+00 -2.36581e+01        00000 
 2.89066e+00 -2.36616e+01        00000 
 3.10704e+00 -2.36654e+01        00000 
 3.32396e+00 -2.36695e+01        00000 
 3.54134e+00 -2.36739e+01        00000 
 3.75932e+00 -2.36786e+01        00000 
 3.97783e+00 -2.36836e+01        00000 
 4.19700e+00 -2.36889e+01        00000 
 4.41676e+00 -2.36945e+01        00000 
 4.63723e+00 -2.37003e+01        00000 
 4.85836e+00 -2.37065e+01        00000 
 5.08026e+00 -2.37130e+01        00000 
 5.30288e+00 -2.37198e+01        00000 
 5.52633e+00 -2.37269e+01        00000 
 5.75054e+00 -2.37343e+01        00000 
 5.97564e+00 -2.37421e+01        00000 
 6.20156e+00 -2.37501e+01        00000 
 6.42843e+00 -2.37585e+01        00000 
 6.65616e+00 -2.37672e+01        00000 
 6.88489e+00 -2.37763e+01        00000 
 7.11455e+00 -2.37856e+01        00000 
 7.34525e+00 -2.37953e+01        00000 
 7.57693e+00 -2.38054e+01        00000 
 7.80970e+00 -2.38157e+01        00000 
 8.04349e+00 -2.38264e+01        00000 
 8.27843e+00 -2.38374e+01        00000 
 8.51443e+00 -2.38488e+01        00000 
 8.75163e+00 -2.38605e+01        00000 
 8.98995e+00 -2.38725e+01        00000 
 9.22951e+00 -2.38849e+01        00000 
 9.47023e+00 -2.38976e+01        00000 
 9.71224e+00 -2.39106e+01        00000 
 9.95546e+00 -2.39240e+01        00000 
 1.02000e+01 -2.39376e+01        00000 
 1.04458e+01 -2.39516e+01        00000 
 1.06931e+01 -2.39659e+01        00000 
 1.09416e+01 -2.39805e+01        00000 
 1.11916e+01 -2.39955e+01        00000 
-1.12573e+01 -2.44981e+01        00000 
-1.10060e+01 -2.44837e+01        00000 
-1.07561e+01 -2.44696e+01        00000 
-1.05075e+01 -2.44558e+01        00000 
-1.02604e+01 -2.44423e+01        00000 
-1.00144e+01 -2.44291e+01        00000 
-9.76983e+00 -2.44162e+01        00000 
-9.52643e+00 -2.44036e+01        00000 
-9.28431e+00 -2.43914e+01        00000 
-9.04336e+00 -2.43795e+01        00000 
-8.80364e+00 -2.43679e+01        00000 
-8.56504e+00 -2.43567e+01        00000 
-8.32762e+00 -2.43457e+01        00000 
-8.09128e+00 -2.43351e+01        00000 
-7.85608e+00 -2.43249e+01        00000 
-7.62191e+00 -2.43149e+01        00000 
-7.38883e+00 -2.43053e+01        00000 
-7.15673e+00 -2.42960e+01        00000 
-6.92568e+00 -2.42870e+01        00000 
-6.69556e+00 -2.42784e+01        00000 
-6.46643e+00 -2.42700e+01        00000 
-6.23819e+00 -2.42620e+01        00000 
-6.01089e+00 -2.42543e+01        00000 
-5.78442e+00 -2.42469e+01        00000 
-5.55885e+00 -2.42398e+01        00000 
-5.33405e+00 -2.42331e+01        00000 
-5.11009e+00 -2.42266e+01        00000 
-4.88685e+00 -2.42204e+01        00000 
-4.66439e+00 -2.42145e+01        00000 
-4.44259e+00 -2.42089e+01        00000 
-4.22151e+00 -2.42036e+01        00000 
-4.00104e+00 -2.41986e+01        00000 
-3.78123e+00 -2.41939e+01        00000 
-3.56196e+00 -2.41894e+01        00000 
-3.34328e+00 -2.41853e+01        00000 
-3.12509e+00 -2.41814e+01        00000 
-2.90743e+00 -2.41777e+01        00000 
-2.69019e+00 -2.41744e+01        00000 
-2.47341e+00 -2.41713e+01        00000 
-2.25699e+00 -2.41685e+01        00000 
-2.04097e+00 -2.41659e+01        00000 
-1.82523e+00 -2.41636e+01        00000 
-1.60983e+00 -2.41616e+01        00000 
-1.39464e+00 -2.41598e+01        00000 
-1.17972e+00 -2.41583e+01        00000 
-9.64945e-01 -2.41570e+01        00000 
-7.50370e-01 -2.41560e+01        00000 
-5.35873e-01 -2.41552e+01        00000 
-3.21506e-01 -2.41547e+01        00000 
-1.07149e-01 -2.41545e+01        00000 
 1.07149e-01 -2.41545e+01        00000 
 3.21506e-01 -2.41547e+01        00000 
 5.35873e-01 -2.41552e+01        00000 
 7.50370e-01 -2.41560e+01        00000 
 9.64945e-01 -2.41570e+01        00000 
 1.17972e+00 -2.41583e+01        00000 
 1.39464e+00 -2.41598e+01        00000 
 1.60983e+00 -2.41616e+01        00000 
 1.82523e+00 -2.41636e+01        00000 
 2.04097e+00 -2.41659e+01        00000 
 2.25699e+00 -2.41685e+01        00000 
 2.47341e+00 -2.41713e+01        00000 
 2.69019e+00 -2.41744e+01        00000 
 2.90743e+00 -2.41777e+01        00000 
 3.12509e+00 -2.41814e+01        00000 
 3.34328e+00 -2.41853e+01        00000 
 3.56196e+00 -2.41894e+01        00000 
 3.78123e+00 -2.41939e+01        00000 
 4.00104e+00 -2.41986e+01        00000 
 4.22151e+00 -2.42036e+01        00000 
 4.44259e+00 -2.42089e+01        00000 
 4.66439e+00 -2.42145e+01        00000 
 4.88685e+00 -2.42204e+01        00000 
 5.11009e+00 -2.42266e+01        00000 
 5.33405e+00 -2.42331e+01        00000 
 5.55885e+00 -2.42398e+01        00000 
 5.78442e+00 -2.42469e+01        00000 
 6.01089e+00 -2.42543e+01        00000 
 6.23819e+00 -2.42620e+01        00000 
 6.46643e+00 -2.42700e+01        00000 
 6.69556e+00 -2.42784e+01        00000 
 6.92568e+00 -2.42870e+01        00000 
 7.15673e+00 -2.42960e+01        00000 
 7.38883e+00 -2.43053e+01        00000 
 7.62191e+00 -2.43149e+01        00000 
 7.85608e+00 -2.43249e+01        00000 
 8.09128e+00 -2.43351e+01        00000 
 8.32762e+00 -2.43457e+01        00000 
 8.56504e+00 -2.43567e+01        00000 
 8.80364e+00 -2.43679e+01        00000 
 9.04336e+00 -2.43795e+01        00000 
 9.28431e+00 -2.43914e+01        00000 
 9.52643e+00 -2.44036e+01        00000 
 9.76983e+00 -2.44162e+01        00000 
 1.00144e+01 -2.44291e+01        00000 
 1.02604e+01 -2.44423e+01        00000 
 1.05075e+01 -2.44558e+01        00000 
 1.07561e+01 -2.44696e+01        00000 
 1.10060e+01 -2.44837e+01        00000 
 1.12573e+01 -2.44981e+01        00000 
-1.13207e+01 -2.50033e+01        00000 
-1.10681e+01 -2.49894e+01        00000 
-1.08170e+01 -2.49758e+01        00000 
-1.05671e+01 -2.49625e+01        00000 
-1.03186e+01 -2.49495e+01        00000 
-1.00713e+01 -2.49368e+01        00000 
-9.82535e+00 -2.49244e+01        00000 
-9.58061e+00 -2.49123e+01        00000 
-9.33713e+00 -2.49005e+01        00000 
-9.09481e+00 -2.48890e+01        00000 
-8.85373e+00 -2.48779e+01        00000 
-8.61375e+00 -2.48671e+01        00000 
-8.37497e+00 -2.48566e+01        00000 
-8.13725e+00 -2.48464e+01        00000 
-7.90068e+00 -2.48366e+01        00000 
-7.66514e+00 -2.48270e+01        00000 
-7.43069e+00 -2.48178e+01        00000 
-7.19723e+00 -2.48089e+01        00000 
-6.96482e+00 -2.48004e+01        00000 
-6.73335e+00 -2.47921e+01        00000 
-6.50288e+00 -2.47841e+01        00000 
-6.27329e+00 -2.47765e+01        00000 
-6.04467e+00 -2.47691e+01        00000 
-5.81687e+00 -2.47621e+01        00000 
-5.58998e+00 -2.47554e+01        00000 
-5.36388e+00 -2.47489e+01        00000 
-5.13862e+00 -2.47428e+01        00000 
-4.91408e+00 -2.47369e+01        00000 
-4.69034e+00 -2.47313e+01        00000 
-4.46727e+00 -2.47260e+01        00000 
-4.24493e+00 -2.47210e+01        00000 
-4.02320e+00 -2.47163e+01        00000 
-3.80213e+00 -2.47118e+01        00000 
-3.58162e+00 -2.47076e+01        00000 
-3.36172e+00 -2.47036e+01        00000 
-3.14230e+00 -2.46999e+01        00000 
-2.92342e+00 -2.46965e+01        00000 
-2.70497e+00 -2.46933e+01        00000 
-2.48699e+00 -2.46904e+01        00000 
-2.26936e+00 -2.46878e+01        00000 
-2.05214e+00 -2.46854e+01        00000 
-1.83522e+00 -2.46832e+01        00000 
-1.61863e+00 -2.46813e+01        00000 
-1.40226e+00 -2.46796e+01        00000 
-1.18616e+00 -2.46782e+01        00000 
-9.70211e-01 -2.46770e+01        00000 
-7.54463e-01 -2.46760e+01        00000 
-5.38796e-01 -2.46753e+01        00000 
-3.23259e-01 -2.46748e+01        00000 
-1.07733e-01 -2.46746e+01        00000 
 1.07733e-01 -2.46746e+01        00000 
 3.23259e-01 -2.46748e+01        00000 
 5.38796e-01 -2.46753e+01        00000 
 7.54463e-01 -2.46760e+01        00000 
 9.70211e-01 -2.46770e+01        00000 
 1.18616e+00 -2.46782e+01        00000 
 1.40226e+00 -2.46796e+01        00000 
 1.61863e+00 -2.46813e+01        00000 
 1.83522e+00 -2.46832e+01        00000 
 2.05214e+00 -2.46854e+01        00000 
 2.26936e+00 -2.46878e+01        00000 
 2.48699e+00 -2.46904e+01        00000 
 2.70497e+00 -2.46933e+01        00000 
 2.92342e+00 -2.46965e+01        00000 
 3.14230e+00 -2.46999e+01        00000 
 3.36172e+00 -2.47036e+01        00000 
 3.58162e+00 -2.47076e+01        00000 
 3.80213e+00 -2.47118e+01        00000 
 4.02320e+00 -2.47163e+01        00000 
 4.24493e+00 -2.47210e+01        00000 
 4.46727e+00 -2.47260e+01        00000 
 4.69034e+00 -2.47313e+01        00000 
 4.91408e+00 -2.47369e+01        00000 
 5.13862e+00 -2.47428e+01        00000 
 5.36388e+00 -2.47489e+01        00000 
 5.58998e+00 -2.47554e+01        00000 
 5.81687e+00 -2.47621e+01        00000 
 6.04467e+00 -2.47691e+01        00000 
 6.27329e+00 -2.47765e+01        00000 
 6.50288e+00 -2.47841e+01        00000 
 6.73335e+00 -2.47921e+01        00000 
 6.96482e+00 -2.48004e+01        00000 
 7.19723e+00 -2.48089e+01        00000 
 7.43069e+00 -2.48178e+01        00000 
 7.66514e+00 -2.48270e+01        00000 
 7.90068e+00 -2.48366e+01        00000 
 8.13725e+00 -2.48464e+01        00000 
 8.37497e+00 -2.48566e+01        00000 
 8.61375e+00 -2.48671e+01        00000 
 8.85373e+00 -2.48779e+01        00000 
 9.09481e+00 -2.48890e+01        00000 
 9.33713e+00 -2.49005e+01        00000 
 9.58061e+00 -2.49123e+01        00000 
 9.82535e+00 -2.49244e+01        00000 
 1.00713e+01 -2.49368e+01        00000 
 1.03186e+01 -2.49495e+01        00000 
 1.05671e+01 -2.49625e+01        00000 
 1.08170e+01 -2.49758e+01        00000 
 1.10681e+01 -2.49894e+01        00000 
 1.13207e+01 -2.50033e+01        00000 
-1.13818e+01 -2.55110e+01        00000 
-1.11280e+01 -2.54976e+01        00000 
-1.08756e+01 -2.54845e+01        00000 
-1.06245e+01 -2.54717e+01        00000 
-1.03747e+01 -2.54592e+01        00000 
-1.01261e+01 -2.54469e+01        00000 
-9.87884e+00 -2.54350e+01        00000 
-9.63277e+00 -2.54234e+01        00000 
-9.38797e+00 -2.54120e+01        00000 
-9.14431e+00 -2.54010e+01        00000 
-8.90189e+00 -2.53903e+01        00000 
-8.66058e+00 -2.53800e+01        00000 
-8.42045e+00 -2.53699e+01        00000 
-8.18140e+00 -2.53602e+01        00000 
-7.94349e+00 -2.53508e+01        00000 
-7.70661e+00 -2.53416e+01        00000 
-7.47083e+00 -2.53328e+01        00000 
-7.23604e+00 -2.53244e+01        00000 
-7.00231e+00 -2.53162e+01        00000 
-6.76952e+00 -2.53083e+01        00000 
-6.53775e+00 -2.53007e+01        00000 
-6.30687e+00 -2.52935e+01        00000 
-6.07695e+00 -2.52865e+01        00000 
-5.84787e+00 -2.52798e+01        00000 
-5.61971e+00 -2.52734e+01        00000 
-5.39234e+00 -2.52673e+01        00000 
-5.16583e+00 -2.52615e+01        00000 
-4.94005e+00 -2.52559e+01        00000 
-4.71508e+00 -2.52507e+01        00000 
-4.49078e+00 -2.52457e+01        00000 
-4.26722e+00 -2.52409e+01        00000 
-4.04429e+00 -2.52364e+01        00000 
-3.82203e+00 -2.52322e+01        00000 
-3.60033e+00 -2.52282e+01        00000 
-3.37925e+00 -2.52245e+01        00000 
-3.15866e+00 -2.52211e+01        00000 
-2.93862e+00 -2.52178e+01        00000 
-2.71901e+00 -2.52149e+01        00000 
-2.49988e+00 -2.52121e+01        00000 
-2.28111e+00 -2.52096e+01        00000 
-2.06276e+00 -2.52073e+01        00000 
-1.84470e+00 -2.52053e+01        00000 
-1.62698e+00 -2.52035e+01        00000 
-1.40949e+00 -2.52019e+01        00000 
-1.19227e+00 -2.52006e+01        00000 
-9.75207e-01 -2.51995e+01        00000 
-7.58347e-01 -2.51986e+01        00000 
-5.41568e-01 -2.51979e+01        00000 
-3.24922e-01 -2.51975e+01        00000 
-1.08287e-01 -2.51972e+01        00000 
 1.08287e-01 -2.51972e+01        00000 
 3.24922e-01 -2.51975e+01        00000 
 5.41568e-01 -2.51979e+01        00000 
 7.58347e-01 -2.51986e+01        00000 
 9.75207e-01 -2.51995e+01        00000 
 1.19227e+00 -2.52006e+01        00000 
 1.40949e+00 -2.52019e+01        00000 
 1.62698e+00 -2.52035e+01        00000 
 1.84470e+00 -2.52053e+01        00000 
 2.06276e+00 -2.52073e+01        00000 
 2.28111e+00 -2.52096e+01        00000 
 2.49988e+00 -2.52121e+01        00000 
 2.71901e+00 -2.52149e+01        00000 
 2.93862e+00 -2.52178e+01        00000 
 3.15866e+00 -2.52211e+01        00000 
 3.37925e+00 -2.52245e+01        00000 
 3.60033e+00 -2.52282e+01        00000 
 3.82203e+00 -2.52322e+01        00000 
 4.04429e+00 -2.52364e+01        00000 
 4.26722e+00 -2.52409e+01        00000 
 4.49078e+00 -2.52457e+01        00000 
 4.71508e+00 -2.52507e+01        00000 
 4.94005e+00 -2.52559e+01        00000 
 5.16583e+00 -2.52615e+01        00000 
 5.39234e+00 -2.52673e+01        00000 
 5.61971e+00 -2.52734e+01        00000 
 5.84787e+00 -2.52798e+01        00000 
 6.07695e+00 -2.52865e+01        00000 
 6.30687e+00 -2.52935e+01        00000 
 6.53775e+00 -2.53007e+01        00000 
 6.76952e+00 -2.53083e+01        00000 
 7.00231e+00 -2.53162e+01        00000 
 7.23604e+00 -2.53244e+01        00000 
 7.47083e+00 -2.53328e+01        00000 
 7.70661e+00 -2.53416e+01        00000 
 7.94349e+00 -2.53508e+01        00000 
 8.18140e+00 -2.53602e+01        00000 
 8.42045e+00 -2.53699e+01        00000 
 8.66058e+00 -2.53800e+01        00000 
 8.90189e+00 -2.53903e+01        00000 
 9.14431e+00 -2.54010e+01        00000 
 9.38797e+00 -2.54120e+01        00000 
 9.63277e+00 -2.54234e+01        00000 
 9.87884e+00 -2.54350e+01        00000 
 1.01261e+01 -2.54469e+01        00000 
 1.03747e+01 -2.54592e+01        00000 
 1.06245e+01 -2.54717e+01        00000 
 1.08756e+01 -2.54845e+01        00000 
 1.11280e+01 -2.54976e+01        00000 
 1.13818e+01 -2.55110e+01        00000 
-1.14408e+01 -2.60212e+01        00000 
-1.11857e+01 -2.60083e+01        00000 
-1.09321e+01 -2.59957e+01        00000 
-1.06797e+01 -2.59833e+01        00000 
-1.04287e+01 -2.59712e+01        00000 
-1.01788e+01 -2.59595e+01        00000 
-9.93028e+00 -2.59480e+01        00000 
-9.68292e+00 -2.59368e+01        00000 
-9.43682e+00 -2.59260e+01        00000 
-9.19187e+00 -2.59154e+01        00000 
-8.94814e+00 -2.59052e+01        00000 
-8.70551e+00 -2.58953e+01        00000 
-8.46407e+00 -2.58856e+01        00000 
-8.22371e+00 -2.58763e+01        00000 
-7.98449e+00 -2.58673e+01        00000 
-7.74631e+00 -2.58587e+01        00000 
-7.50923e+00 -2.58503e+01        00000 
-7.27315e+00 -2.58422e+01        00000 
-7.03814e+00 -2.58344e+01        00000 
-6.80407e+00 -2.58270e+01        00000 
-6.57103e+00 -2.58198e+01        00000 
-6.33889e+00 -2.58129e+01        00000 
-6.10772e+00 -2.58063e+01        00000 
-5.87741e+00 -2.58000e+01        00000 
-5.64802e+00 -2.57939e+01        00000 
-5.41943e+00 -2.57881e+01        00000 
-5.19171e+00 -2.57827e+01        00000 
-4.96474e+00 -2.57774e+01        00000 
-4.73858e+00 -2.57725e+01        00000 
-4.51311e+00 -2.57677e+01        00000 
-4.28839e+00 -2.57633e+01        00000 
-4.06431e+00 -2.57591e+01        00000 
-3.84091e+00 -2.57551e+01        00000 
-3.61807e+00 -2.57514e+01        00000 
-3.39586e+00 -2.57479e+01        00000 
-3.17416e+00 -2.57446e+01        00000 
-2.95301e+00 -2.57416e+01        00000 
-2.73230e+00 -2.57388e+01        00000 
-2.51208e+00 -2.57363e+01        00000 
-2.29223e+00 -2.57339e+01        00000 
-2.07280e+00 -2.57318e+01        00000 
-1.85367e+00 -2.57299e+01        00000 
-1.63488e+00 -2.57282e+01        00000 
-1.41633e+00 -2.57267e+01        00000 
-1.19805e+00 -2.57255e+01        00000 
-9.79932e-01 -2.57244e+01        00000 
-7.62018e-01 -2.57236e+01        00000 
-5.44189e-01 -2.57229e+01        00000 
-3.26494e-01 -2.57225e+01        00000 
-1.08811e-01 -2.57223e+01        00000 
 1.08811e-01 -2.57223e+01        00000 
 3.26494e-01 -2.57225e+01        00000 
 5.44189e-01 -2.57229e+01        00000 
 7.62018e-01 -2.57236e+01        00000 
 9.79932e-01 -2.57244e+01        00000 
 1.19805e+00 -2.57255e+01        00000 
 1.41633e+00 -2.57267e+01        00000 
 1.63488e+00 -2.57282e+01        00000 
 1.85367e+00 -2.57299e+01        00000 
 2.07280e+00 -2.57318e+01        00000 
 2.29223e+00 -2.57339e+01        00000 
 2.51208e+00 -2.57363e+01        00000 
 2.73230e+00 -2.57388e+01        00000 
 2.95301e+00 -2.57416e+01        00000 
 3.17416e+00 -2.57446e+01        00000 
 3.39586e+00 -2.57479e+01        00000 
 3.61807e+00 -2.57514e+01        00000 
 3.84091e+00 -2.57551e+01        00000 
 4.06431e+00 -2.57591e+01        00000 
 4.28839e+00 -2.57633e+01        00000 
 4.51311e+00 -2.57677e+01        00000 
 4.73858e+00 -2.57725e+01        00000 
 4.96474e+00 -2.57774e+01        00000 
 5.19171e+00 -2.57827e+01        00000 
 5.41943e+00 -2.57881e+01        00000 
 5.64802e+00 -2.57939e+01        00000 
 5.87741e+00 -2.58000e+01        00000 
 6.10772e+00 -2.58063e+01        00000 
 6.33889e+00 -2.58129e+01        00000 
 6.57103e+00 -2.58198e+01        00000 
 6.80407e+00 -2.58270e+01        00000 
 7.03814e+00 -2.58344e+01        00000 
 7.27315e+00 -2.58422e+01        00000 
 7.50923e+00 -2.58503e+01        00000 
 7.74631e+00 -2.58587e+01        00000 
 7.98449e+00 -2.58673e+01        00000 
 8.22371e+00 -2.58763e+01        00000 
 8.46407e+00 -2.58856e+01        00000 
 8.70551e+00 -2.58953e+01        00000 
 8.94814e+00 -2.59052e+01        00000 
 9.19187e+00 -2.59154e+01        00000 
 9.43682e+00 -2.59260e+01        00000 
 9.68292e+00 -2.59368e+01        00000 
 9.93028e+00 -2.59480e+01        00000 
 1.01788e+01 -2.59595e+01        00000 
 1.04287e+01 -2.59712e+01        00000 
 1.06797e+01 -2.59833e+01        00000 
 1.09321e+01 -2.59957e+01        00000 
 1.11857e+01 -2.60083e+01        00000 
 1.14408e+01 -2.60212e+01        00000 
-1.14975e+01 -2.65337e+01        00000 
-1.12413e+01 -2.65213e+01        00000 
-1.09865e+01 -2.65091e+01        00000 
-1.07329e+01 -2.64972e+01        00000 
-1.04806e+01 -2.64857e+01        00000 
-1.02295e+01 -2.64744e+01        00000 
-9.97971e+00 -2.64633e+01        00000 
-9.73109e+00 -2.64526e+01        00000 
-9.48371e+00 -2.64422e+01        00000 
-9.23748e+00 -2.64321e+01        00000 
-8.99246e+00 -2.64223e+01        00000 
-8.74855e+00 -2.64129e+01        00000 
-8.50583e+00 -2.64037e+01        00000 
-8.26419e+00 -2.63948e+01        00000 
-8.02369e+00 -2.63862e+01        00000 
-7.78423e+00 -2.63780e+01        00000 
-7.54589e+00 -2.63700e+01        00000 
-7.30855e+00 -2.63624e+01        00000 
-7.07229e+00 -2.63550e+01        00000 
-6.83698e+00 -2.63479e+01        00000 
-6.60271e+00 -2.63411e+01        00000 
-6.36935e+00 -2.63346e+01        00000 
-6.13697e+00 -2.63284e+01        00000 
-5.90547e+00 -2.63224e+01        00000 
-5.67489e+00 -2.63168e+01        00000 
-5.44513e+00 -2.63113e+01        00000 
-5.21626e+00 -2.63062e+01        00000 
-4.98814e+00 -2.63012e+01        00000 
-4.76084e+00 -2.62966e+01        00000 
-4.53425e+00 -2.62922e+01        00000 
-4.30842e+00 -2.62880e+01        00000 
-4.08323e+00 -2.62840e+01        00000 
-3.85874e+00 -2.62803e+01        00000 
-3.63483e+00 -2.62769e+01        00000 
-3.41156e+00 -2.62736e+01        00000 
-3.18880e+00 -2.62706e+01        00000 
-2.96660e+00 -2.62677e+01        00000 
-2.74485e+00 -2.62651e+01        00000 
-2.52359e+00 -2.62627e+01        00000 
-2.30272e+00 -2.62605e+01        00000 
-2.08226e+00 -2.62586e+01        00000 
-1.86212e+00 -2.62568e+01        00000 
-1.64233e+00 -2.62552e+01        00000 
-1.42277e+00 -2.62538e+01        00000 
-1.20350e+00 -2.62527e+01        00000 
-9.84382e-01 -2.62517e+01        00000 
-7.65477e-01 -2.62509e+01        00000 
-5.46658e-01 -2.62503e+01        00000 
-3.27975e-01 -2.62499e+01        00000 
-1.09304e-01 -2.62498e+01        00000 
 1.09304e-01 -2.62498e+01        00000 
 3.27975e-01 -2.62499e+01        00000 
 5.46658e-01 -2.62503e+01        00000 
 7.65477e-01 -2.62509e+01        00000 
 9.84382e-01 -2.62517e+01        00000 
 1.20350e+00 -2.62527e+01        00000 
 1.42277e+00 -2.62538e+01        00000 
 1.64233e+00 -2.62552e+01        00000 
 1.86212e+00 -2.62568e+01        00000 
 2.08226e+00 -2.62586e+01        00000 
 2.30272e+00 -2.62605e+01        00000 
 2.52359e+00 -2.62627e+01        00000 
 2.74485e+00 -2.62651e+01        00000 
 2.96660e+00 -2.62677e+01        00000 
 3.18880e+00 -2.62706e+01        00000 
 3.41156e+00 -2.62736e+01        00000 
 3.63483e+00 -2.62769e+01        00000 
 3.85874e+00 -2.62803e+01        00000 
 4.08323e+00 -2.62840e+01        00000 
 4.30842e+00 -2.62880e+01        00000 
 4.53425e+00 -2.62922e+01        00000 
 4.76084e+00 -2.62966e+01        00000 
 4.98814e+00 -2.63012e+01        00000 
 5.21626e+00 -2.63062e+01        00000 
 5.44513e+00 -2.63113e+01        00000 
 5.67489e+00 -2.63168e+01        00000 
 5.90547e+00 -2.63224e+01        00000 
 6.13697e+00 -2.63284e+01        00000 
 6.36935e+00 -2.63346e+01        00000 
 6.60271e+00 -2.63411e+01        00000 
 6.83698e+00 -2.63479e+01        00000 
 7.07229e+00 -2.63550e+01        00000 
 7.30855e+00 -2.63624e+01        00000 
 7.54589e+00 -2.63700e+01        00000 
 7.78423e+00 -2.63780e+01        00000 
 8.02369e+00 -2.63862e+01        00000 
 8.26419e+00 -2.63948e+01        00000 
 8.50583e+00 -2.64037e+01        00000 
 8.74855e+00 -2.64129e+01        00000 
 8.99246e+00 -2.64223e+01        00000 
 9.23748e+00 -2.64321e+01        00000 
 9.48371e+00 -2.64422e+01        00000 
 9.73109e+00 -2.64526e+01        00000 
 9.97971e+00 -2.64633e+01        00000 
 1.02295e+01 -2.64744e+01        00000 
 1.04806e+01 -2.64857e+01        00000 
 1.07329e+01 -2.64972e+01        00000 
 1.09865e+01 -2.65091e+01        00000 
 1.12413e+01 -2.65213e+01        00000 
 1.14975e+01 -2.65337e+01        00000 
-1.15520e+01 -2.70485e+01        00000 
-1.12947e+01 -2.70365e+01        00000 
-1.10387e+01 -2.70248e+01        00000 
-1.07839e+01 -2.70134e+01        00000 
-1.05305e+01 -2.70023e+01        00000 
-1.02782e+01 -2.69915e+01        00000 
-1.00271e+01 -2.69809e+01        00000 
-9.77727e+00 -2.69707e+01        00000 
-9.52864e+00 -2.69607e+01        00000 
-9.28115e+00 -2.69511e+01        00000 
-9.03487e+00 -2.69417e+01        00000 
-8.78970e+00 -2.69327e+01        00000 
-8.54572e+00 -2.69240e+01        00000 
-8.30282e+00 -2.69155e+01        00000 
-8.06107e+00 -2.69074e+01        00000 
-7.82037e+00 -2.68996e+01        00000 
-7.58079e+00 -2.68920e+01        00000 
-7.34222e+00 -2.68848e+01        00000 
-7.10474e+00 -2.68778e+01        00000 
-6.86823e+00 -2.68712e+01        00000 
-6.63277e+00 -2.68648e+01        00000 
-6.39823e+00 -2.68586e+01        00000 
-6.16469e+00 -2.68528e+01        00000 
-5.93203e+00 -2.68472e+01        00000 
-5.70031e+00 -2.68419e+01        00000 
-5.46943e+00 -2.68368e+01        00000 
-5.23944e+00 -2.68319e+01        00000 
-5.01023e+00 -2.68273e+01        00000 
-4.78185e+00 -2.68230e+01        00000 
-4.55419e+00 -2.68189e+01        00000 
-4.32730e+00 -2.68150e+01        00000 
-4.10106e+00 -2.68113e+01        00000 
-3.87554e+00 -2.68078e+01        00000 
-3.65061e+00 -2.68046e+01        00000 
-3.42632e+00 -2.68016e+01        00000 
-3.20256e+00 -2.67987e+01        00000 
-2.97937e+00 -2.67961e+01        00000 
-2.75663e+00 -2.67937e+01        00000 
-2.53441e+00 -2.67915e+01        00000 
-2.31256e+00 -2.67894e+01        00000 
-2.09115e+00 -2.67876e+01        00000 
-1.87005e+00 -2.67859e+01        00000 
-1.64932e+00 -2.67845e+01        00000 
-1.42882e+00 -2.67832e+01        00000 
-1.20860e+00 -2.67821e+01        00000 
-9.88556e-01 -2.67812e+01        00000 
-7.68720e-01 -2.67805e+01        00000 
-5.48973e-01 -2.67799e+01        00000 
-3.29363e-01 -2.67796e+01        00000 
-1.09767e-01 -2.67794e+01        00000 
 1.09767e-01 -2.67794e+01        00000 
 3.29363e-01 -2.67796e+01        00000 
 5.48973e-01 -2.67799e+01        00000 
 7.68720e-01 -2.67805e+01        00000 
 9.88556e-01 -2.67812e+01        00000 
 1.20860e+00 -2.67821e+01        00000 
 1.42882e+00 -2.67832e+01        00000 
 1.64932e+00 -2.67845e+01        00000 
 1.87005e+00 -2.67859e+01        00000 
 2.09115e+00 -2.67876e+01        00000 
 2.31256e+00 -2.67894e+01        00000 
 2.53441e+00 -2.67915e+01        00000 
 2.75663e+00 -2.67937e+01        00000 
 2.97937e+00 -2.67961e+01        00000 
 3.20256e+00 -2.67987e+01        00000 
 3.42632e+00 -2.68016e+01        00000 
 3.65061e+00 -2.68046e+01        00000 
 3.87554e+00 -2.68078e+01        00000 
 4.10106e+00 -2.68113e+01        00000 
 4.32730e+00 -2.68150e+01        00000 
 4.55419e+00 -2.68189e+01        00000 
 4.78185e+00 -2.68230e+01        00000 
 5.01023e+00 -2.68273e+01        00000 
 5.23944e+00 -2.68319e+01        00000 
 5.46943e+00 -2.68368e+01        00000 
 5.70031e+00 -2.68419e+01        00000 
 5.93203e+00 -2.68472e+01        00000 
 6.16469e+00 -2.68528e+01        00000 
 6.39823e+00 -2.68586e+01        00000 
 6.63277e+00 -2.68648e+01        00000 
 6.86823e+00 -2.68712e+01        00000 
 7.10474e+00 -2.68778e+01        00000 
 7.34222e+00 -2.68848e+01        00000 
 7.58079e+00 -2.68920e+01        00000 
 7.82037e+00 -2.68996e+01        00000 
 8.06107e+00 -2.69074e+01        00000 
 8.30282e+00 -2.69155e+01        00000 
 8.54572e+00 -2.69240e+01        00000 
 8.78970e+00 -2.69327e+01        00000 
 9.03487e+00 -2.69417e+01        00000 
 9.28115e+00 -2.69511e+01        00000 
 9.52864e+00 -2.69607e+01        00000 
 9.77727e+00 -2.69707e+01        00000 
 1.00271e+01 -2.69809e+01        00000 
 1.02782e+01 -2.69915e+01        00000 
 1.05305e+01 -2.70023e+01        00000 
 1.07839e+01 -2.70134e+01        00000 
 1.10387e+01 -2.70248e+01        00000 
 1.12947e+01 -2.70365e+01        00000 
 1.15520e+01 -2.70485e+01        00000 
-1.16045e+01 -2.75655e+01        00000 
-1.13461e+01 -2.75540e+01        00000 
-1.10889e+01 -2.75428e+01        00000 
-1.08330e+01 -2.75318e+01        00000 
-1.05783e+01 -2.75212e+01        00000 
-1.03248e+01 -2.75108e+01        00000 
-1.00726e+01 -2.75007e+01        00000 
-9.82148e+00 -2.74909e+01        00000 
-9.57162e+00 -2.74814e+01        00000 
-9.32289e+00 -2.74722e+01        00000 
-9.07537e+00 -2.74633e+01        00000 
-8.82896e+00 -2.74547e+01        00000 
-8.58374e+00 -2.74464e+01        00000 
-8.33960e+00 -2.74384e+01        00000 
-8.09662e+00 -2.74307e+01        00000 
-7.85470e+00 -2.74233e+01        00000 
-7.61392e+00 -2.74162e+01        00000 
-7.37415e+00 -2.74094e+01        00000 
-7.13549e+00 -2.74028e+01        00000 
-6.89781e+00 -2.73966e+01        00000 
-6.66119e+00 -2.73906e+01        00000 
-6.42551e+00 -2.73848e+01        00000 
-6.19084e+00 -2.73794e+01        00000 
-5.95708e+00 -2.73741e+01        00000 
-5.72427e+00 -2.73691e+01        00000 
-5.49231e+00 -2.73644e+01        00000 
-5.26126e+00 -2.73599e+01        00000 
-5.03100e+00 -2.73556e+01        00000 
-4.80158e+00 -2.73516e+01        00000 
-4.57290e+00 -2.73477e+01        00000 
-4.34501e+00 -2.73441e+01        00000 
-4.11779e+00 -2.73407e+01        00000 
-3.89129e+00 -2.73375e+01        00000 
-3.66539e+00 -2.73345e+01        00000 
-3.44015e+00 -2.73317e+01        00000 
-3.21544e+00 -2.73290e+01        00000 
-2.99132e+00 -2.73266e+01        00000 
-2.76766e+00 -2.73244e+01        00000 
-2.54452e+00 -2.73223e+01        00000 
-2.32177e+00 -2.73204e+01        00000 
-2.09946e+00 -2.73187e+01        00000 
-1.87747e+00 -2.73172e+01        00000 
-1.65584e+00 -2.73158e+01        00000 
-1.43446e+00 -2.73147e+01        00000 
-1.21338e+00 -2.73137e+01        00000 
-9.92454e-01 -2.73128e+01        00000 
-7.71749e-01 -2.73122e+01        00000 
-5.51134e-01 -2.73117e+01        00000 
-3.30660e-01 -2.73113e+01        00000 
-1.10199e-01 -2.73112e+01        00000 
 1.10199e-01 -2.73112e+01        00000 
 3.30660e-01 -2.73113e+01        00000 
 5.51134e-01 -2.73117e+01        00000 
 7.71749e-01 -2.73122e+01        00000 
 9.92454e-01 -2.73128e+01        00000 
 1.21338e+00 -2.73137e+01        00000 
 1.43446e+00 -2.73147e+01        00000 
 1.65584e+00 -2.73158e+01        00000 
 1.87747e+00 -2.73172e+01        00000 
 2.09946e+00 -2.73187e+01        00000 
 2.32177e+00 -2.73204e+01        00000 
 2.54452e+00 -2.73223e+01        00000 
 2.76766e+00 -2.73244e+01        00000 
 2.99132e+00 -2.73266e+01        00000 
 3.21544e+00 -2.73290e+01        00000 
 3.44015e+00 -2.73317e+01        00000 
 3.66539e+00 -2.73345e+01        00000 
 3.89129e+00 -2.73375e+01        00000 
 4.11779e+00 -2.73407e+01        00000 
 4.34501e+00 -2.73441e+01        00000 
 4.57290e+00 -2.73477e+01        00000 
 4.80158e+00 -2.73516e+01        00000 
 5.03100e+00 -2.73556e+01        00000 
 5.26126e+00 -2.73599e+01        00000 
 5.49231e+00 -2.73644e+01        00000 
 5.72427e+00 -2.73691e+01        00000 
 5.95708e+00 -2.73741e+01        00000 
 6.19084e+00 -2.73794e+01        00000 
 6.42551e+00 -2.73848e+01        00000 
 6.66119e+00 -2.73906e+01        00000 
 6.89781e+00 -2.73966e+01        00000 
 7.13549e+00 -2.74028e+01        00000 
 7.37415e+00 -2.74094e+01        00000 
 7.61392e+00 -2.74162e+01        00000 
 7.85470e+00 -2.74233e+01        00000 
 8.09662e+00 -2.74307e+01        00000 
 8.33960e+00 -2.74384e+01        00000 
 8.58374e+00 -2.74464e+01        00000 
 8.82896e+00 -2.74547e+01        00000 
 9.07537e+00 -2.74633e+01        00000 
 9.32289e+00 -2.74722e+01        00000 
 9.57162e+00 -2.74814e+01        00000 
 9.82148e+00 -2.74909e+01        00000 
 1.00726e+01 -2.75007e+01        00000 
 1.03248e+01 -2.75108e+01        00000 
 1.05783e+01 -2.75212e+01        00000 
 1.08330e+01 -2.75318e+01        00000 
 1.10889e+01 -2.75428e+01        00000 
 1.13461e+01 -2.75540e+01        00000 
 1.16045e+01 -2.75655e+01        00000 
-1.16549e+01 -2.80846e+01        00000 
-1.13954e+01 -2.80736e+01        00000 
-1.11371e+01 -2.80628e+01        00000 
-1.08800e+01 -2.80524e+01        00000 
-1.06242e+01 -2.80421e+01        00000 
-1.03695e+01 -2.80322e+01        00000 
-1.01160e+01 -2.80226e+01        00000 
-9.86373e+00 -2.80132e+01        00000 
-9.61265e+00 -2.80042e+01        00000 
-9.36269e+00 -2.79954e+01        00000 
-9.11394e+00 -2.79870e+01        00000 
-8.86631e+00 -2.79788e+01        00000 
-8.61986e+00 -2.79710e+01        00000 
-8.37451e+00 -2.79634e+01        00000 
-8.13033e+00 -2.79562e+01        00000 
-7.88722e+00 -2.79492e+01        00000 
-7.64526e+00 -2.79425e+01        00000 
-7.40433e+00 -2.79361e+01        00000 
-7.16451e+00 -2.79300e+01        00000 
-6.92570e+00 -2.79241e+01        00000 
-6.68796e+00 -2.79185e+01        00000 
-6.45118e+00 -2.79132e+01        00000 
-6.21543e+00 -2.79081e+01        00000 
-5.98060e+00 -2.79032e+01        00000 
-5.74675e+00 -2.78986e+01        00000 
-5.51376e+00 -2.78941e+01        00000 
-5.28169e+00 -2.78900e+01        00000 
-5.05043e+00 -2.78860e+01        00000 
-4.82004e+00 -2.78822e+01        00000 
-4.59040e+00 -2.78787e+01        00000 
-4.36156e+00 -2.78753e+01        00000 
-4.13340e+00 -2.78722e+01        00000 
-3.90598e+00 -2.78692e+01        00000 
-3.67917e+00 -2.78664e+01        00000 
-3.45304e+00 -2.78638e+01        00000 
-3.22744e+00 -2.78614e+01        00000 
-3.00245e+00 -2.78592e+01        00000 
-2.77793e+00 -2.78571e+01        00000 
-2.55393e+00 -2.78552e+01        00000 
-2.33033e+00 -2.78534e+01        00000 
-2.10719e+00 -2.78519e+01        00000 
-1.88436e+00 -2.78505e+01        00000 
-1.66191e+00 -2.78492e+01        00000 
-1.43971e+00 -2.78481e+01        00000 
-1.21781e+00 -2.78472e+01        00000 
-9.96077e-01 -2.78464e+01        00000 
-7.74563e-01 -2.78458e+01        00000 
-5.53143e-01 -2.78453e+01        00000 
-3.31864e-01 -2.78450e+01        00000 
-1.10600e-01 -2.78449e+01        00000 
 1.10600e-01 -2.78449e+01        00000 
 3.31864e-01 -2.78450e+01        00000 
 5.53143e-01 -2.78453e+01        00000 
 7.74563e-01 -2.78458e+01        00000 
 9.96077e-01 -2.78464e+01        00000 
 1.21781e+00 -2.78472e+01        00000 
 1.43971e+00 -2.78481e+01        00000 
 1.66191e+00 -2.78492e+01        00000 
 1.88436e+00 -2.78505e+01        00000 
 2.10719e+00 -2.78519e+01        00000 
 2.33033e+00 -2.78534e+01        00000 
 2.55393e+00 -2.78552e+01        00000 
 2.77793e+00 -2.78571e+01        00000 
 3.00245e+00 -2.78592e+01        00000 
 3.22744e+00 -2.78614e+01        00000 
 3.45304e+00 -2.78638e+01        00000 
 3.67917e+00 -2.78664e+01        00000 
 3.90598e+00 -2.78692e+01        00000 
 4.13340e+00 -2.78722e+01        00000 
 4.36156e+00 -2.78753e+01        00000 
 4.59040e+00 -2.78787e+01        00000 
 4.82004e+00 -2.78822e+01        00000 
 5.05043e+00 -2.78860e+01        00000 
 5.28169e+00 -2.78900e+01        00000 
 5.51376e+00 -2.78941e+01        00000 
 5.74675e+00 -2.78986e+01        00000 
 5.98060e+00 -2.79032e+01        00000 
 6.21543e+00 -2.79081e+01        00000 
 6.45118e+00 -2.79132e+01        00000 
 6.68796e+00 -2.79185e+01        00000 
 6.92570e+00 -2.79241e+01        00000 
 7.16451e+00 -2.79300e+01        00000 
 7.40433e+00 -2.79361e+01        00000 
 7.64526e+00 -2.79425e+01        00000 
 7.88722e+00 -2.79492e+01        00000 
 8.13033e+00 -2.79562e+01        00000 
 8.37451e+00 -2.79634e+01        00000 
 8.61986e+00 -2.79710e+01        00000 
 8.86631e+00 -2.79788e+01        00000 
 9.11394e+00 -2.79870e+01        00000 
 9.36269e+00 -2.79954e+01        00000 
 9.61265e+00 -2.80042e+01        00000 
 9.86373e+00 -2.80132e+01        00000 
 1.01160e+01 -2.80226e+01        00000 
 1.03695e+01 -2.80322e+01        00000 
 1.06242e+01 -2.80421e+01        00000 
 1.08800e+01 -2.80524e+01        00000 
 1.11371e+01 -2.80628e+01        00000 
 1.13954e+01 -2.80736e+01        00000 
 1.16549e+01 -2.80846e+01        00000 
-1.17032e+01 -2.86059e+01        00000 
-1.14426e+01 -2.85953e+01        00000 
-1.11833e+01 -2.85850e+01        00000 
-1.09251e+01 -2.85750e+01        00000 
-1.06681e+01 -2.85652e+01        00000 
-1.04122e+01 -2.85557e+01        00000 
-1.01576e+01 -2.85465e+01        00000 
-9.90404e+00 -2.85376e+01        00000 
-9.65174e+00 -2.85290e+01        00000 
-9.40056e+00 -2.85207e+01        00000 
-9.15060e+00 -2.85127e+01        00000 
-8.90175e+00 -2.85050e+01        00000 
-8.65410e+00 -2.84976e+01        00000 
-8.40755e+00 -2.84905e+01        00000 
-8.16219e+00 -2.84837e+01        00000 
-7.91791e+00 -2.84772e+01        00000 
-7.67479e+00 -2.84709e+01        00000 
-7.43272e+00 -2.84649e+01        00000 
-7.19179e+00 -2.84592e+01        00000 
-6.95188e+00 -2.84537e+01        00000 
-6.71306e+00 -2.84485e+01        00000 
-6.47522e+00 -2.84435e+01        00000 
-6.23844e+00 -2.84388e+01        00000 
-6.00258e+00 -2.84343e+01        00000 
-5.76773e+00 -2.84300e+01        00000 
-5.53376e+00 -2.84259e+01        00000 
-5.30074e+00 -2.84221e+01        00000 
-5.06854e+00 -2.84184e+01        00000 
-4.83722e+00 -2.84149e+01        00000 
-4.60667e+00 -2.84116e+01        00000 
-4.37693e+00 -2.84085e+01        00000 
-4.14790e+00 -2.84056e+01        00000 
-3.91961e+00 -2.84029e+01        00000 
-3.69196e+00 -2.84003e+01        00000 
-3.46498e+00 -2.83979e+01        00000 
-3.23857e+00 -2.83957e+01        00000 
-3.01276e+00 -2.83936e+01        00000 
-2.78744e+00 -2.83917e+01        00000 
-2.56264e+00 -2.83900e+01        00000 
-2.33826e+00 -2.83884e+01        00000 
-2.11434e+00 -2.83869e+01        00000 
-1.89074e+00 -2.83856e+01        00000 
-1.66753e+00 -2.83844e+01        00000 
-1.44457e+00 -2.83834e+01        00000 
-1.22191e+00 -2.83826e+01        00000 
-9.99426e-01 -2.83819e+01        00000 
-7.77165e-01 -2.83813e+01        00000 
-5.54999e-01 -2.83809e+01        00000 
-3.32977e-01 -2.83806e+01        00000 
-1.10971e-01 -2.83804e+01        00000 
 1.10971e-01 -2.83804e+01        00000 
 3.32977e-01 -2.83806e+01        00000 
 5.54999e-01 -2.83809e+01        00000 
 7.77165e-01 -2.83813e+01        00000 
 9.99426e-01 -2.83819e+01        00000 
 1.22191e+00 -2.83826e+01        00000 
 1.44457e+00 -2.83834e+01        00000 
 1.66753e+00 -2.83844e+01        00000 
 1.89074e+00 -2.83856e+01        00000 
 2.11434e+00 -2.83869e+01        00000 
 2.33826e+00 -2.83884e+01        00000 
 2.56264e+00 -2.83900e+01        00000 
 2.78744e+00 -2.83917e+01        00000 
 3.01276e+00 -2.83936e+01        00000 
 3.23857e+00 -2.83957e+01        00000 
 3.46498e+00 -2.83979e+01        00000 
 3.69196e+00 -2.84003e+01        00000 
 3.91961e+00 -2.84029e+01        00000 
 4.14790e+00 -2.84056e+01        00000 
 4.37693e+00 -2.84085e+01        00000 
 4.60667e+00 -2.84116e+01        00000 
 4.83722e+00 -2.84149e+01        00000 
 5.06854e+00 -2.84184e+01        00000 
 5.30074e+00 -2.84221e+01        00000 
 5.53376e+00 -2.84259e+01        00000 
 5.76773e+00 -2.84300e+01        00000 
 6.00258e+00 -2.84343e+01        00000 
 6.23844e+00 -2.84388e+01        00000 
 6.47522e+00 -2.84435e+01        00000 
 6.71306e+00 -2.84485e+01        00000 
 6.95188e+00 -2.84537e+01        00000 
 7.19179e+00 -2.84592e+01        00000 
 7.43272e+00 -2.84649e+01        00000 
 7.67479e+00 -2.84709e+01        00000 
 7.91791e+00 -2.84772e+01        00000 
 8.16219e+00 -2.84837e+01        00000 
 8.40755e+00 -2.84905e+01        00000 
 8.65410e+00 -2.84976e+01        00000 
 8.90175e+00 -2.85050e+01        00000 
 9.15060e+00 -2.85127e+01        00000 
 9.40056e+00 -2.85207e+01        00000 
 9.65174e+00 -2.85290e+01        00000 
 9.90404e+00 -2.85376e+01        00000 
 1.01576e+01 -2.85465e+01        00000 
 1.04122e+01 -2.85557e+01        00000 
 1.06681e+01 -2.85652e+01        00000 
 1.09251e+01 -2.85750e+01        00000 
 1.11833e+01 -2.85850e+01        00000 
 1.14426e+01 -2.85953e+01        00000 
 1.17032e+01 -2.86059e+01        00000 
-1.17497e+01 -2.91293e+01        00000 
-1.14880e+01 -2.91191e+01        00000 
-1.12276e+01 -2.91093e+01        00000 
-1.09682e+01 -2.90996e+01        00000 
-1.07100e+01 -2.90903e+01        00000 
-1.04530e+01 -2.90812e+01        00000 
-1.01971e+01 -2.90725e+01        00000 
-9.94241e+00 -2.90640e+01        00000 
-9.68890e+00 -2.90559e+01        00000 
-9.43650e+00 -2.90480e+01        00000 
-9.18533e+00 -2.90405e+01        00000 
-8.93527e+00 -2.90332e+01        00000 
-8.68643e+00 -2.90263e+01        00000 
-8.43870e+00 -2.90196e+01        00000 
-8.19217e+00 -2.90132e+01        00000 
-7.94674e+00 -2.90071e+01        00000 
-7.70250e+00 -2.90013e+01        00000 
-7.45932e+00 -2.89957e+01        00000 
-7.21731e+00 -2.89904e+01        00000 
-6.97633e+00 -2.89854e+01        00000 
-6.73648e+00 -2.89805e+01        00000 
-6.49762e+00 -2.89759e+01        00000 
-6.25984e+00 -2.89716e+01        00000 
-6.02302e+00 -2.89674e+01        00000 
-5.78722e+00 -2.89634e+01        00000 
-5.55232e+00 -2.89597e+01        00000 
-5.31839e+00 -2.89561e+01        00000 
-5.08530e+00 -2.89527e+01        00000 
-4.85311e+00 -2.89495e+01        00000 
-4.62171e+00 -2.89465e+01        00000 
-4.39114e+00 -2.89437e+01        00000 
-4.16129e+00 -2.89410e+01        00000 
-3.93220e+00 -2.89384e+01        00000 
-3.70375e+00 -2.89361e+01        00000 
-3.47600e+00 -2.89339e+01        00000 
-3.24882e+00 -2.89318e+01        00000 
-3.02226e+00 -2.89299e+01        00000 
-2.79619e+00 -2.89281e+01        00000 
-2.57067e+00 -2.89265e+01        00000 
-2.34556e+00 -2.89250e+01        00000 
-2.12092e+00 -2.89237e+01        00000 
-1.89661e+00 -2.89225e+01        00000 
-1.67269e+00 -2.89214e+01        00000 
-1.44903e+00 -2.89205e+01        00000 
-1.22568e+00 -2.89197e+01        00000 
-1.00251e+00 -2.89190e+01        00000 
-7.79557e-01 -2.89185e+01        00000 
-5.56707e-01 -2.89181e+01        00000 
-3.34001e-01 -2.89178e+01        00000 
-1.11312e-01 -2.89177e+01        00000 
 1.11312e-01 -2.89177e+01        00000 
 3.34001e-01 -2.89178e+01        00000 
 5.56707e-01 -2.89181e+01        00000 
 7.79557e-01 -2.89185e+01        00000 
 1.00251e+00 -2.89190e+01        00000 
 1.22568e+00 -2.89197e+01        00000 
 1.44903e+00 -2.89205e+01        00000 
 1.67269e+00 -2.89214e+01        00000 
 1.89661e+00 -2.89225e+01        00000 
 2.12092e+00 -2.89237e+01        00000 
 2.34556e+00 -2.89250e+01        00000 
 2.57067e+00 -2.89265e+01        00000 
 2.79619e+00 -2.89281e+01        00000 
 3.02226e+00 -2.89299e+01        00000 
 3.24882e+00 -2.89318e+01        00000 
 3.47600e+00 -2.89339e+01        00000 
 3.70375e+00 -2.89361e+01        00000 
 3.93220e+00 -2.89384e+01        00000 
 4.16129e+00 -2.89410e+01        00000 
 4.39114e+00 -2.89437e+01        00000 
 4.62171e+00 -2.89465e+01        00000 
 4.85311e+00 -2.89495e+01        00000 
 5.08530e+00 -2.89527e+01        00000 
 5.31839e+00 -2.89561e+01        00000 
 5.55232e+00 -2.89597e+01        00000 
 5.78722e+00 -2.89634e+01        00000 
 6.02302e+00 -2.89674e+01        00000 
 6.25984e+00 -2.89716e+01        00000 
 6.49762e+00 -2.89759e+01        00000 
 6.73648e+00 -2.89805e+01        00000 
 6.97633e+00 -2.89854e+01        00000 
 7.21731e+00 -2.89904e+01        00000 
 7.45932e+00 -2.89957e+01        00000 
 7.70250e+00 -2.90013e+01        00000 
 7.94674e+00 -2.90071e+01        00000 
 8.19217e+00 -2.90132e+01        00000 
 8.43870e+00 -2.90196e+01        00000 
 8.68643e+00 -2.90263e+01        00000 
 8.93527e+00 -2.90332e+01        00000 
 9.18533e+00 -2.90405e+01        00000 
 9.43650e+00 -2.90480e+01        00000 
 9.68890e+00 -2.90559e+01        00000 
 9.94241e+00 -2.90640e+01        00000 
 1.01971e+01 -2.90725e+01        00000 
 1.04530e+01 -2.90812e+01        00000 
 1.07100e+01 -2.90903e+01        00000 
 1.09682e+01 -2.90996e+01        00000 
 1.12276e+01 -2.91093e+01        00000 
 1.14880e+01 -2.91191e+01        00000 
 1.17497e+01 -2.91293e+01        00000 
-1.17942e+01 -2.96547e+01        00000 
-1.15315e+01 -2.96450e+01        00000 
-1.12699e+01 -2.96355e+01        00000 
-1.10094e+01 -2.96263e+01        00000 
-1.07501e+01 -2.96174e+01        00000 
-1.04919e+01 -2.96088e+01        00000 
-1.02348e+01 -2.96005e+01        00000 
-9.97885e+00 -2.95925e+01        00000 
-9.72412e+00 -2.95848e+01        00000 
-9.47050e+00 -2.95774e+01        00000 
-9.21812e+00 -2.95703e+01        00000 
-8.96686e+00 -2.95635e+01        00000 
-8.71683e+00 -2.95570e+01        00000 
-8.46793e+00 -2.95508e+01        00000 
-8.22026e+00 -2.95448e+01        00000 
-7.97371e+00 -2.95391e+01        00000 
-7.72836e+00 -2.95337e+01        00000 
-7.48411e+00 -2.95286e+01        00000 
-7.24105e+00 -2.95237e+01        00000 
-6.99905e+00 -2.95190e+01        00000 
-6.75820e+00 -2.95145e+01        00000 
-6.51837e+00 -2.95103e+01        00000 
-6.27965e+00 -2.95063e+01        00000 
-6.04190e+00 -2.95024e+01        00000 
-5.80521e+00 -2.94988e+01        00000 
-5.56943e+00 -2.94953e+01        00000 
-5.33465e+00 -2.94920e+01        00000 
-5.10073e+00 -2.94889e+01        00000 
-4.86773e+00 -2.94860e+01        00000 
-4.63553e+00 -2.94832e+01        00000 
-4.40419e+00 -2.94806e+01        00000 
-4.17358e+00 -2.94781e+01        00000 
-3.94375e+00 -2.94757e+01        00000 
-3.71457e+00 -2.94736e+01        00000 
-3.48610e+00 -2.94715e+01        00000 
-3.25822e+00 -2.94696e+01        00000 
-3.03096e+00 -2.94678e+01        00000 
-2.80421e+00 -2.94662e+01        00000 
-2.57801e+00 -2.94647e+01        00000 
-2.35224e+00 -2.94633e+01        00000 
-2.12694e+00 -2.94620e+01        00000 
-1.90198e+00 -2.94609e+01        00000 
-1.67742e+00 -2.94599e+01        00000 
-1.45312e+00 -2.94591e+01        00000 
-1.22913e+00 -2.94583e+01        00000 
-1.00532e+00 -2.94577e+01        00000 
-7.81746e-01 -2.94572e+01        00000 
-5.58268e-01 -2.94568e+01        00000 
-3.34937e-01 -2.94566e+01        00000 
-1.11624e-01 -2.94565e+01        00000 
 1.11624e-01 -2.94565e+01        00000 
 3.34937e-01 -2.94566e+01        00000 
 5.58268e-01 -2.94568e+01        00000 
 7.81746e-01 -2.94572e+01        00000 
 1.00532e+00 -2.94577e+01        00000 
 1.22913e+00 -2.94583e+01        00000 
 1.45312e+00 -2.94591e+01        00000 
 1.67742e+00 -2.94599e+01        00000 
 1.90198e+00 -2.94609e+01        00000 
 2.12694e+00 -2.94620e+01        00000 
 2.35224e+00 -2.94633e+01        00000 
 2.57801e+00 -2.94647e+01        00000 
 2.80421e+00 -2.94662e+01        00000 
 3.03096e+00 -2.94678e+01        00000 
 3.25822e+00 -2.94696e+01        00000 
 3.48610e+00 -2.94715e+01        00000 
 3.71457e+00 -2.94736e+01        00000 
 3.94375e+00 -2.94757e+01        00000 
 4.17358e+00 -2.94781e+01        00000 
 4.40419e+00 -2.94806e+01        00000 
 4.63553e+00 -2.94832e+01        00000 
 4.86773e+00 -2.94860e+01        00000 
 5.10073e+00 -2.94889e+01        00000 
 5.33465e+00 -2.94920e+01        00000 
 5.56943e+00 -2.94953e+01        00000 
 5.80521e+00 -2.94988e+01        00000 
 6.04190e+00 -2.95024e+01        00000 
 6.27965e+00 -2.95063e+01        00000 
 6.51837e+00 -2.95103e+01        00000 
 6.75820e+00 -2.95145e+01        00000 
 6.99905e+00 -2.95190e+01        00000 
 7.24105e+00 -2.95237e+01        00000 
 7.48411e+00 -2.95286e+01        00000 
 7.72836e+00 -2.95337e+01        00000 
 7.97371e+00 -2.95391e+01        00000 
 8.22026e+00 -2.95448e+01        00000 
 8.46793e+00 -2.95508e+01        00000 
 8.71683e+00 -2.95570e+01        00000 
 8.96686e+00 -2.95635e+01        00000 
 9.21812e+00 -2.95703e+01        00000 
 9.47050e+00 -2.95774e+01        00000 
 9.72412e+00 -2.95848e+01        00000 
 9.97885e+00 -2.95925e+01        00000 
 1.02348e+01 -2.96005e+01        00000 
 1.04919e+01 -2.96088e+01        00000 
 1.07501e+01 -2.96174e+01        00000 
 1.10094e+01 -2.96263e+01        00000 
 1.12699e+01 -2.96355e+01        00000 
 1.15315e+01 -2.96450e+01        00000 
 1.17942e+01 -2.96547e+01        00000 
-1.18370e+01 -3.01823e+01        00000 
-1.15732e+01 -3.01729e+01        00000 
-1.13105e+01 -3.01639e+01        00000 
-1.10488e+01 -3.01551e+01        00000 
-1.07883e+01 -3.01466e+01        00000 
-1.05288e+01 -3.01384e+01        00000 
-1.02706e+01 -3.01305e+01        00000 
-1.00134e+01 -3.01229e+01        00000 
-9.75740e+00 -3.01157e+01        00000 
-9.50256e+00 -3.01087e+01        00000 
-9.24896e+00 -3.01021e+01        00000 
-8.99650e+00 -3.00957e+01        00000 
-8.74529e+00 -3.00897e+01        00000 
-8.49524e+00 -3.00839e+01        00000 
-8.24644e+00 -3.00784e+01        00000 
-7.99878e+00 -3.00731e+01        00000 
-7.75237e+00 -3.00682e+01        00000 
-7.50708e+00 -3.00634e+01        00000 
-7.26300e+00 -3.00589e+01        00000 
-7.02002e+00 -3.00546e+01        00000 
-6.77822e+00 -3.00505e+01        00000 
-6.53747e+00 -3.00466e+01        00000 
-6.29785e+00 -3.00429e+01        00000 
-6.05924e+00 -3.00393e+01        00000 
-5.82170e+00 -3.00360e+01        00000 
-5.58511e+00 -3.00328e+01        00000 
-5.34953e+00 -3.00298e+01        00000 
-5.11484e+00 -3.00269e+01        00000 
-4.88109e+00 -3.00242e+01        00000 
-4.64816e+00 -3.00216e+01        00000 
-4.41610e+00 -3.00192e+01        00000 
-4.18479e+00 -3.00169e+01        00000 
-3.95428e+00 -3.00147e+01        00000 
-3.72443e+00 -3.00126e+01        00000 
-3.49531e+00 -3.00107e+01        00000 
-3.26678e+00 -3.00090e+01        00000 
-3.03889e+00 -3.00073e+01        00000 
-2.81152e+00 -3.00058e+01        00000 
-2.58470e+00 -3.00043e+01        00000 
-2.35832e+00 -3.00030e+01        00000 
-2.13242e+00 -3.00019e+01        00000 
-1.90687e+00 -3.00008e+01        00000 
-1.68172e+00 -2.99999e+01        00000 
-1.45684e+00 -2.99990e+01        00000 
-1.23227e+00 -2.99983e+01        00000 
-1.00789e+00 -2.99978e+01        00000 
-7.83738e-01 -2.99973e+01        00000 
-5.59689e-01 -2.99969e+01        00000 
-3.35789e-01 -2.99967e+01        00000 
-1.11908e-01 -2.99966e+01        00000 
 1.11908e-01 -2.99966e+01        00000 
 3.35789e-01 -2.99967e+01        00000 
 5.59689e-01 -2.99969e+01        00000 
 7.83738e-01 -2.99973e+01        00000 
 1.00789e+00 -2.99978e+01        00000 
 1.23227e+00 -2.99983e+01        00000 
 1.45684e+00 -2.99990e+01        00000 
 1.68172e+00 -2.99999e+01        00000 
 1.90687e+00 -3.00008e+01        00000 
 2.13242e+00 -3.00019e+01        00000 
 2.35832e+00 -3.00030e+01        00000 
 2.58470e+00 -3.00043e+01        00000 
 2.81152e+00 -3.00058e+01        00000 
 3.03889e+00 -3.00073e+01        00000 
 3.26678e+00 -3.00090e+01        00000 
 3.49531e+00 -3.00107e+01        00000 
 3.72443e+00 -3.00126e+01        00000 
 3.95428e+00 -3.00147e+01        00000 
 4.18479e+00 -3.00169e+01        00000 
 4.41610e+00 -3.00192e+01        00000 
 4.64816e+00 -3.00216e+01        00000 
 4.88109e+00 -3.00242e+01        00000 
 5.11484e+00 -3.00269e+01        00000 
 5.34953e+00 -3.00298e+01        00000 
 5.58511e+00 -3.00328e+01        00000 
 5.82170e+00 -3.00360e+01        00000 
 6.05924e+00 -3.00393e+01        00000 
 6.29785e+00 -3.00429e+01        00000 
 6.53747e+00 -3.00466e+01        00000 
 6.77822e+00 -3.00505e+01        00000 
 7.02002e+00 -3.00546e+01        00000 
 7.26300e+00 -3.00589e+01        00000 
 7.50708e+00 -3.00634e+01        00000 
 7.75237e+00 -3.00682e+01        00000 
 7.99878e+00 -3.00731e+01        00000 
 8.24644e+00 -3.00784e+01        00000 
 8.49524e+00 -3.00839e+01        00000 
 8.74529e+00 -3.00897e+01        00000 
 8.99650e+00 -3.00957e+01        00000 
 9.24896e+00 -3.01021e+01        00000 
 9.50256e+00 -3.01087e+01        00000 
 9.75740e+00 -3.01157e+01        00000 
 1.00134e+01 -3.01229e+01        00000 
 1.02706e+01 -3.01305e+01        00000 
 1.05288e+01 -3.01384e+01        00000 
 1.07883e+01 -3.01466e+01        00000 
 1.10488e+01 -3.01551e+01        00000 
 1.13105e+01 -3.01639e+01        00000 
 1.15732e+01 -3.01729e+01        00000 
 1.18370e+01 -3.01823e+01        00000 
-1.18781e+01 -3.07119e+01        00000 
-1.16132e+01 -3.07030e+01        00000 
-1.13493e+01 -3.06943e+01        00000 
-1.10864e+01 -3.06859e+01        00000 
-1.08247e+01 -3.06778e+01        00000 
-1.05640e+01 -3.06701e+01        00000 
-1.03044e+01 -3.06626e+01        00000 
-1.00460e+01 -3.06555e+01        00000 
-9.78875e+00 -3.06487e+01        00000 
-9.53266e+00 -3.06421e+01        00000 
-9.27783e+00 -3.06359e+01        00000 
-9.02418e+00 -3.06300e+01        00000 
-8.77179e+00 -3.06244e+01        00000 
-8.52060e+00 -3.06191e+01        00000 
-8.27068e+00 -3.06140e+01        00000 
-8.02195e+00 -3.06092e+01        00000 
-7.77450e+00 -3.06046e+01        00000 
-7.52820e+00 -3.06002e+01        00000 
-7.28315e+00 -3.05961e+01        00000 
-7.03924e+00 -3.05921e+01        00000 
-6.79653e+00 -3.05883e+01        00000 
-6.55492e+00 -3.05848e+01        00000 
-6.31446e+00 -3.05813e+01        00000 
-6.07503e+00 -3.05781e+01        00000 
-5.83671e+00 -3.05750e+01        00000 
-5.59937e+00 -3.05720e+01        00000 
-5.36306e+00 -3.05692e+01        00000 
-5.12765e+00 -3.05666e+01        00000 
-4.89322e+00 -3.05640e+01        00000 
-4.65961e+00 -3.05616e+01        00000 
-4.42690e+00 -3.05593e+01        00000 
-4.19496e+00 -3.05572e+01        00000 
-3.96382e+00 -3.05551e+01        00000 
-3.73337e+00 -3.05532e+01        00000 
-3.50365e+00 -3.05514e+01        00000 
-3.27453e+00 -3.05497e+01        00000 
-3.04607e+00 -3.05481e+01        00000 
-2.81813e+00 -3.05467e+01        00000 
-2.59076e+00 -3.05453e+01        00000 
-2.36383e+00 -3.05441e+01        00000 
-2.13739e+00 -3.05429e+01        00000 
-1.91130e+00 -3.05419e+01        00000 
-1.68562e+00 -3.05410e+01        00000 
-1.46021e+00 -3.05402e+01        00000 
-1.23512e+00 -3.05396e+01        00000 
-1.01021e+00 -3.05390e+01        00000 
-7.85542e-01 -3.05385e+01        00000 
-5.60977e-01 -3.05382e+01        00000 
-3.36561e-01 -3.05380e+01        00000 
-1.12165e-01 -3.05379e+01        00000 
 1.12165e-01 -3.05379e+01        00000 
 3.36561e-01 -3.05380e+01        00000 
 5.60977e-01 -3.05382e+01        00000 
 7.85542e-01 -3.05385e+01        00000 
 1.01021e+00 -3.05390e+01        00000 
 1.23512e+00 -3.05396e+01        00000 
 1.46021e+00 -3.05402e+01        00000 
 1.68562e+00 -3.05410e+01        00000 
 1.91130e+00 -3.05419e+01        00000 
 2.13739e+00 -3.05429e+01        00000 
 2.36383e+00 -3.05441e+01        00000 
 2.59076e+00 -3.05453e+01        00000 
 2.81813e+00 -3.05467e+01        00000 
 3.04607e+00 -3.05481e+01        00000 
 3.27453e+00 -3.05497e+01        00000 
 3.50365e+00 -3.05514e+01        00000 
 3.73337e+00 -3.05532e+01        00000 
 3.96382e+00 -3.05551e+01        00000 
 4.19496e+00 -3.05572e+01        00000 
 4.42690e+00 -3.05593e+01        00000 
 4.65961e+00 -3.05616e+01        00000 
 4.89322e+00 -3.05640e+01        00000 
 5.12765e+00 -3.05666e+01        00000 
 5.36306e+00 -3.05692e+01        00000 
 5.59937e+00 -3.05720e+01        00000 
 5.83671e+00 -3.05750e+01        00000 
 6.07503e+00 -3.05781e+01        00000 
 6.31446e+00 -3.05813e+01        00000 
 6.55492e+00 -3.05848e+01        00000 
 6.79653e+00 -3.05883e+01        00000 
 7.03924e+00 -3.05921e+01        00000 
 7.28315e+00 -3.05961e+01        00000 
 7.52820e+00 -3.06002e+01        00000 
 7.77450e+00 -3.06046e+01        00000 
 8.02195e+00 -3.06092e+01        00000 
 8.27068e+00 -3.06140e+01        00000 
 8.52060e+00 -3.06191e+01        00000 
 8.77179e+00 -3.06244e+01        00000 
 9.02418e+00 -3.06300e+01        00000 
 9.27783e+00 -3.06359e+01        00000 
 9.53266e+00 -3.06421e+01        00000 
 9.78875e+00 -3.06487e+01        00000 
 1.00460e+01 -3.06555e+01        00000 
 1.03044e+01 -3.06626e+01        00000 
 1.05640e+01 -3.06701e+01        00000 
 1.08247e+01 -3.06778e+01        00000 
 1.10864e+01 -3.06859e+01        00000 
 1.13493e+01 -3.06943e+01        00000 
 1.16132e+01 -3.07030e+01        00000 
 1.18781e+01 -3.07119e+01        00000 
-1.19175e+01 -3.12438e+01        00000 
-1.16515e+01 -3.12352e+01        00000 
-1.13864e+01 -3.12269e+01        00000 
-1.11223e+01 -3.12189e+01        00000 
-1.08593e+01 -3.12112e+01        00000 
-1.05972e+01 -3.12038e+01        00000 
-1.03364e+01 -3.11968e+01        00000 
-1.00767e+01 -3.11901e+01        00000 
-9.81814e+00 -3.11837e+01        00000 
-9.56079e+00 -3.11777e+01        00000 
-9.30472e+00 -3.11719e+01        00000 
-9.04986e+00 -3.11665e+01        00000 
-8.79631e+00 -3.11613e+01        00000 
-8.54398e+00 -3.11564e+01        00000 
-8.29298e+00 -3.11517e+01        00000 
-8.04320e+00 -3.11473e+01        00000 
-7.79474e+00 -3.11430e+01        00000 
-7.54748e+00 -3.11390e+01        00000 
-7.30151e+00 -3.11352e+01        00000 
-7.05671e+00 -3.11316e+01        00000 
-6.81316e+00 -3.11281e+01        00000 
-6.57073e+00 -3.11248e+01        00000 
-6.32949e+00 -3.11217e+01        00000 
-6.08932e+00 -3.11186e+01        00000 
-5.85028e+00 -3.11157e+01        00000 
-5.61224e+00 -3.11130e+01        00000 
-5.37526e+00 -3.11104e+01        00000 
-5.13921e+00 -3.11078e+01        00000 
-4.90415e+00 -3.11054e+01        00000 
-4.66994e+00 -3.11032e+01        00000 
-4.43664e+00 -3.11010e+01        00000 
-4.20412e+00 -3.10989e+01        00000 
-3.97242e+00 -3.10969e+01        00000 
-3.74142e+00 -3.10951e+01        00000 
-3.51117e+00 -3.10933e+01        00000 
-3.28153e+00 -3.10917e+01        00000 
-3.05255e+00 -3.10902e+01        00000 
-2.82410e+00 -3.10887e+01        00000 
-2.59623e+00 -3.10874e+01        00000 
-2.36880e+00 -3.10862e+01        00000 
-2.14187e+00 -3.10851e+01        00000 
-1.91530e+00 -3.10841e+01        00000 
-1.68914e+00 -3.10832e+01        00000 
-1.46325e+00 -3.10824e+01        00000 
-1.23768e+00 -3.10817e+01        00000 
-1.01231e+00 -3.10812e+01        00000 
-7.87171e-01 -3.10807e+01        00000 
-5.62139e-01 -3.10804e+01        00000 
-3.37259e-01 -3.10802e+01        00000 
-1.12398e-01 -3.10801e+01        00000 
 1.12398e-01 -3.10801e+01        00000 
 3.37259e-01 -3.10802e+01        00000 
 5.62139e-01 -3.10804e+01        00000 
 7.87171e-01 -3.10807e+01        00000 
 1.01231e+00 -3.10812e+01        00000 
 1.23768e+00 -3.10817e+01        00000 
 1.46325e+00 -3.10824e+01        00000 
 1.68914e+00 -3.10832e+01        00000 
 1.91530e+00 -3.10841e+01        00000 
 2.14187e+00 -3.10851e+01        00000 
 2.36880e+00 -3.10862e+01        00000 
 2.59623e+00 -3.10874e+01        00000 
 2.82410e+00 -3.10887e+01        00000 
 3.05255e+00 -3.10902e+01        00000 
 3.28153e+00 -3.10917e+01        00000 
 3.51117e+00 -3.10933e+01        00000 
 3.74142e+00 -3.10951e+01        00000 
 3.97242e+00 -3.10969e+01        00000 
 4.20412e+00 -3.10989e+01        00000 
 4.43664e+00 -3.11010e+01        00000 
 4.66994e+00 -3.11032e+01        00000 
 4.90415e+00 -3.11054e+01        00000 
 5.13921e+00 -3.11078e+01        00000 
 5.37526e+00 -3.11104e+01        00000 
 5.61224e+00 -3.11130e+01        00000 
 5.85028e+00 -3.11157e+01        00000 
 6.08932e+00 -3.11186e+01        00000 
 6.32949e+00 -3.11217e+01        00000 
 6.57073e+00 -3.11248e+01        00000 
 6.81316e+00 -3.11281e+01        00000 
 7.05671e+00 -3.11316e+01        00000 
 7.30151e+00 -3.11352e+01        00000 
 7.54748e+00 -3.11390e+01        00000 
 7.79474e+00 -3.11430e+01        00000 
 8.04320e+00 -3.11473e+01        00000 
 8.29298e+00 -3.11517e+01        00000 
 8.54398e+00 -3.11564e+01        00000 
 8.79631e+00 -3.11613e+01        00000 
 9.04986e+00 -3.11665e+01        00000 
 9.30472e+00 -3.11719e+01        00000 
 9.56079e+00 -3.11777e+01        00000 
 9.81814e+00 -3.11837e+01        00000 
 1.00767e+01 -3.11901e+01        00000 
 1.03364e+01 -3.11968e+01        00000 
 1.05972e+01 -3.12038e+01        00000 
 1.08593e+01 -3.12112e+01        00000 
 1.11223e+01 -3.12189e+01        00000 
 1.13864e+01 -3.12269e+01        00000 
 1.16515e+01 -3.12352e+01        00000 
 1.19175e+01 -3.12438e+01        00000 
-1.19555e+01 -3.17780e+01        00000 
-1.16882e+01 -3.17697e+01        00000 
-1.14219e+01 -3.17617e+01        00000 
-1.11565e+01 -3.17541e+01        00000 
-1.08921e+01 -3.17468e+01        00000 
-1.06287e+01 -3.17398e+01        00000 
-1.03665e+01 -3.17332e+01        00000 
-1.01054e+01 -3.17270e+01        00000 
-9.84556e+00 -3.17210e+01        00000 
-9.58691e+00 -3.17154e+01        00000 
-9.32959e+00 -3.17101e+01        00000 
-9.07351e+00 -3.17051e+01        00000 
-8.81880e+00 -3.17003e+01        00000 
-8.56536e+00 -3.16958e+01        00000 
-8.31330e+00 -3.16915e+01        00000 
-8.06251e+00 -3.16875e+01        00000 
-7.81309e+00 -3.16836e+01        00000 
-7.56492e+00 -3.16799e+01        00000 
-7.31808e+00 -3.16764e+01        00000 
-7.07245e+00 -3.16730e+01        00000 
-6.82812e+00 -3.16698e+01        00000 
-6.58494e+00 -3.16667e+01        00000 
-6.34299e+00 -3.16638e+01        00000 
-6.10214e+00 -3.16609e+01        00000 
-5.86244e+00 -3.16582e+01        00000 
-5.62378e+00 -3.16556e+01        00000 
-5.38620e+00 -3.16530e+01        00000 
-5.14957e+00 -3.16506e+01        00000 
-4.91395e+00 -3.16483e+01        00000 
-4.67920e+00 -3.16461e+01        00000 
-4.44537e+00 -3.16439e+01        00000 
-4.21233e+00 -3.16419e+01        00000 
-3.98014e+00 -3.16400e+01        00000 
-3.74865e+00 -3.16381e+01        00000 
-3.51792e+00 -3.16364e+01        00000 
-3.28781e+00 -3.16348e+01        00000 
-3.05837e+00 -3.16332e+01        00000 
-2.82946e+00 -3.16318e+01        00000 
-2.60114e+00 -3.16304e+01        00000 
-2.37328e+00 -3.16292e+01        00000 
-2.14591e+00 -3.16281e+01        00000 
-1.91890e+00 -3.16271e+01        00000 
-1.69230e+00 -3.16262e+01        00000 
-1.46599e+00 -3.16254e+01        00000 
-1.24000e+00 -3.16247e+01        00000 
-1.01420e+00 -3.16241e+01        00000 
-7.88641e-01 -3.16237e+01        00000 
-5.63188e-01 -3.16233e+01        00000 
-3.37888e-01 -3.16231e+01        00000 
-1.12607e-01 -3.16230e+01        00000 
 1.12607e-01 -3.16230e+01        00000 
 3.37888e-01 -3.16231e+01        00000 
 5.63188e-01 -3.16233e+01        00000 
 7.88641e-01 -3.16237e+01        00000 
 1.01420e+00 -3.16241e+01        00000 
 1.24000e+00 -3.16247e+01        00000 
 1.46599e+00 -3.16254e+01        00000 
 1.69230e+00 -3.16262e+01        00000 
 1.91890e+00 -3.16271e+01        00000 
 2.14591e+00 -3.16281e+01        00000 
 2.37328e+00 -3.16292e+01        00000 
 2.60114e+00 -3.16304e+01        00000 
 2.82946e+00 -3.16318e+01        00000 
 3.05837e+00 -3.16332e+01        00000 
 3.28781e+00 -3.16348e+01        00000 
 3.51792e+00 -3.16364e+01        00000 
 3.74865e+00 -3.16381e+01        00000 
 3.98014e+00 -3.16400e+01        00000 
 4.21233e+00 -3.16419e+01        00000 
 4.44537e+00 -3.16439e+01        00000 
 4.67920e+00 -3.16461e+01        00000 
 4.91395e+00 -3.16483e+01        00000 
 5.14957e+00 -3.16506e+01        00000 
 5.38620e+00 -3.16530e+01        00000 
 5.62378e+00 -3.16556e+01        00000 
 5.86244e+00 -3.16582e+01        00000 
 6.10214e+00 -3.16609e+01        00000 
 6.34299e+00 -3.16638e+01        00000 
 6.58494e+00 -3.16667e+01        00000 
 6.82812e+00 -3.16698e+01        00000 
 7.07245e+00 -3.16730e+01        00000 
 7.31808e+00 -3.16764e+01        00000 
 7.56492e+00 -3.16799e+01        00000 
 7.81309e+00 -3.16836e+01        00000 
 8.06251e+00 -3.16875e+01        00000 
 8.31330e+00 -3.16915e+01        00000 
 8.56536e+00 -3.16958e+01        00000 
 8.81880e+00 -3.17003e+01        00000 
 9.07351e+00 -3.17051e+01        00000 
 9.32959e+00 -3.17101e+01        00000 
 9.58691e+00 -3.17154e+01        00000 
 9.84556e+00 -3.17210e+01        00000 
 1.01054e+01 -3.17270e+01        00000 
 1.03665e+01 -3.17332e+01        00000 
 1.06287e+01 -3.17398e+01        00000 
 1.08921e+01 -3.17468e+01        00000 
 1.11565e+01 -3.17541e+01        00000 
 1.14219e+01 -3.17617e+01        00000 
 1.16882e+01 -3.17697e+01        00000 
 1.19555e+01 -3.17780e+01        00000 
-1.19922e+01 -3.23146e+01        00000 
-1.17236e+01 -3.23066e+01        00000 
-1.14558e+01 -3.22990e+01        00000 
-1.11890e+01 -3.22917e+01        00000 
-1.09231e+01 -3.22848e+01        00000 
-1.06583e+01 -3.22782e+01        00000 
-1.03947e+01 -3.22720e+01        00000 
-1.01322e+01 -3.22662e+01        00000 
-9.87096e+00 -3.22607e+01        00000 
-9.61099e+00 -3.22555e+01        00000 
-9.35240e+00 -3.22507e+01        00000 
-9.09512e+00 -3.22460e+01        00000 
-8.83926e+00 -3.22417e+01        00000 
-8.58473e+00 -3.22376e+01        00000 
-8.33164e+00 -3.22336e+01        00000 
-8.07989e+00 -3.22299e+01        00000 
-7.82956e+00 -3.22263e+01        00000 
-7.58053e+00 -3.22229e+01        00000 
-7.33289e+00 -3.22197e+01        00000 
-7.08651e+00 -3.22165e+01        00000 
-6.84146e+00 -3.22135e+01        00000 
-6.59760e+00 -3.22105e+01        00000 
-6.35501e+00 -3.22077e+01        00000 
-6.11355e+00 -3.22049e+01        00000 
-5.87328e+00 -3.22023e+01        00000 
-5.63406e+00 -3.21997e+01        00000 
-5.39595e+00 -3.21972e+01        00000 
-5.15881e+00 -3.21948e+01        00000 
-4.92269e+00 -3.21925e+01        00000 
-4.68746e+00 -3.21902e+01        00000 
-4.45317e+00 -3.21881e+01        00000 
-4.21969e+00 -3.21860e+01        00000 
-3.98705e+00 -3.21840e+01        00000 
-3.75513e+00 -3.21822e+01        00000 
-3.52397e+00 -3.21804e+01        00000 
-3.29345e+00 -3.21787e+01        00000 
-3.06360e+00 -3.21771e+01        00000 
-2.83429e+00 -3.21756e+01        00000 
-2.60557e+00 -3.21742e+01        00000 
-2.37731e+00 -3.21729e+01        00000 
-2.14954e+00 -3.21717e+01        00000 
-1.92215e+00 -3.21706e+01        00000 
-1.69516e+00 -3.21697e+01        00000 
-1.46846e+00 -3.21688e+01        00000 
-1.24209e+00 -3.21681e+01        00000 
-1.01591e+00 -3.21675e+01        00000 
-7.89969e-01 -3.21670e+01        00000 
-5.64136e-01 -3.21666e+01        00000 
-3.38456e-01 -3.21664e+01        00000 
-1.12797e-01 -3.21663e+01        00000 
 1.12797e-01 -3.21663e+01        00000 
 3.38456e-01 -3.21664e+01        00000 
 5.64136e-01 -3.21666e+01        00000 
 7.89969e-01 -3.21670e+01        00000 
 1.01591e+00 -3.21675e+01        00000 
 1.24209e+00 -3.21681e+01        00000 
 1.46846e+00 -3.21688e+01        00000 
 1.69516e+00 -3.21697e+01        00000 
 1.92215e+00 -3.21706e+01        00000 
 2.14954e+00 -3.21717e+01        00000 
 2.37731e+00 -3.21729e+01        00000 
 2.60557e+00 -3.21742e+01        00000 
 2.83429e+00 -3.21756e+01        00000 
 3.06360e+00 -3.21771e+01        00000 
 3.29345e+00 -3.21787e+01        00000 
 3.52397e+00 -3.21804e+01        00000 
 3.75513e+00 -3.21822e+01        00000 
 3.98705e+00 -3.21840e+01        00000 
 4.21969e+00 -3.21860e+01        00000 
 4.45317e+00 -3.21881e+01        00000 
 4.68746e+00 -3.21902e+01        00000 
 4.92269e+00 -3.21925e+01        00000 
 5.15881e+00 -3.21948e+01        00000 
 5.39595e+00 -3.21972e+01        00000 
 5.63406e+00 -3.21997e+01        00000 
 5.87328e+00 -3.22023e+01        00000 
 6.11355e+00 -3.22049e+01        00000 
 6.35501e+00 -3.22077e+01        00000 
 6.59760e+00 -3.22105e+01        00000 
 6.84146e+00 -3.22135e+01        00000 
 7.08651e+00 -3.22165e+01        00000 
 7.33289e+00 -3.22197e+01        00000 
 7.58053e+00 -3.22229e+01        00000 
 7.82956e+00 -3.22263e+01        00000 
 8.07989e+00 -3.22299e+01        00000 
 8.33164e+00 -3.22336e+01        00000 
 8.58473e+00 -3.22376e+01        00000 
 8.83926e+00 -3.22417e+01        00000 
 9.09512e+00 -3.22460e+01        00000 
 9.35240e+00 -3.22507e+01        00000 
 9.61099e+00 -3.22555e+01        00000 
 9.87096e+00 -3.22607e+01        00000 
 1.01322e+01 -3.22662e+01        00000 
 1.03947e+01 -3.22720e+01        00000 
 1.06583e+01 -3.22782e+01        00000 
 1.09231e+01 -3.22848e+01        00000 
 1.11890e+01 -3.22917e+01        00000 
 1.14558e+01 -3.22990e+01        00000 
 1.17236e+01 -3.23066e+01        00000 
 1.19922e+01 -3.23146e+01        00000 
-1.20276e+01 -3.28538e+01        00000 
-1.17575e+01 -3.28462e+01        00000 
-1.14883e+01 -3.28388e+01        00000 
-1.12199e+01 -3.28319e+01        00000 
-1.09525e+01 -3.28254e+01        00000 
-1.06861e+01 -3.28192e+01        00000 
-1.04209e+01 -3.28135e+01        00000 
-1.01569e+01 -3.28081e+01        00000 
-9.89431e+00 -3.28030e+01        00000 
-9.63298e+00 -3.27982e+01        00000 
-9.37311e+00 -3.27938e+01        00000 
-9.11463e+00 -3.27896e+01        00000 
-8.85764e+00 -3.27856e+01        00000 
-8.60207e+00 -3.27818e+01        00000 
-8.34801e+00 -3.27782e+01        00000 
-8.09535e+00 -3.27747e+01        00000 
-7.84418e+00 -3.27714e+01        00000 
-7.59437e+00 -3.27681e+01        00000 
-7.34600e+00 -3.27650e+01        00000 
-7.09894e+00 -3.27620e+01        00000 
-6.85326e+00 -3.27590e+01        00000 
-6.60881e+00 -3.27561e+01        00000 
-6.36566e+00 -3.27533e+01        00000 
-6.12367e+00 -3.27506e+01        00000 
-5.88289e+00 -3.27479e+01        00000 
-5.64319e+00 -3.27453e+01        00000 
-5.40462e+00 -3.27427e+01        00000 
-5.16703e+00 -3.27402e+01        00000 
-4.93049e+00 -3.27378e+01        00000 
-4.69485e+00 -3.27355e+01        00000 
-4.46015e+00 -3.27332e+01        00000 
-4.22627e+00 -3.27310e+01        00000 
-3.99325e+00 -3.27289e+01        00000 
-3.76095e+00 -3.27269e+01        00000 
-3.52942e+00 -3.27250e+01        00000 
-3.29853e+00 -3.27232e+01        00000 
-3.06832e+00 -3.27214e+01        00000 
-2.83865e+00 -3.27198e+01        00000 
-2.60957e+00 -3.27183e+01        00000 
-2.38095e+00 -3.27169e+01        00000 
-2.15284e+00 -3.27156e+01        00000 
-1.92509e+00 -3.27145e+01        00000 
-1.69776e+00 -3.27134e+01        00000 
-1.47071e+00 -3.27125e+01        00000 
-1.24399e+00 -3.27117e+01        00000 
-1.01746e+00 -3.27110e+01        00000 
-7.91178e-01 -3.27105e+01        00000 
-5.64999e-01 -3.27101e+01        00000 
-3.38974e-01 -3.27098e+01        00000 
-1.12969e-01 -3.27097e+01        00000 
 1.12969e-01 -3.27097e+01        00000 
 3.38974e-01 -3.27098e+01        00000 
 5.64999e-01 -3.27101e+01        00000 
 7.91178e-01 -3.27105e+01        00000 
 1.01746e+00 -3.27110e+01        00000 
 1.24399e+00 -3.27117e+01        00000 
 1.47071e+00 -3.27125e+01        00000 
 1.69776e+00 -3.27134e+01        00000 
 1.92509e+00 -3.27145e+01        00000 
 2.15284e+00 -3.27156e+01        00000 
 2.38095e+00 -3.27169e+01        00000 
 2.60957e+00 -3.27183e+01        00000 
 2.83865e+00 -3.27198e+01        00000 
 3.06832e+00 -3.27214e+01        00000 
 3.29853e+00 -3.27232e+01        00000 
 3.52942e+00 -3.27250e+01        00000 
 3.76095e+00 -3.27269e+01        00000 
 3.99325e+00 -3.27289e+01        00000 
 4.22627e+00 -3.27310e+01        00000 
 4.46015e+00 -3.27332e+01        00000 
 4.69485e+00 -3.27355e+01        00000 
 4.93049e+00 -3.27378e+01        00000 
 5.16703e+00 -3.27402e+01        00000 
 5.40462e+00 -3.27427e+01        00000 
 5.64319e+00 -3.27453e+01        00000 
 5.88289e+00 -3.27479e+01        00000 
 6.12367e+00 -3.27506e+01        00000 
 6.36566e+00 -3.27533e+01        00000 
 6.60881e+00 -3.27561e+01        00000 
 6.85326e+00 -3.27590e+01        00000 
 7.09894e+00 -3.27620e+01        00000 
 7.34600e+00 -3.27650e+01        00000 
 7.59437e+00 -3.27681e+01        00000 
 7.84418e+00 -3.27714e+01        00000 
 8.09535e+00 -3.27747e+01        00000 
 8.34801e+00 -3.27782e+01        00000 
 8.60207e+00 -3.27818e+01        00000 
 8.85764e+00 -3.27856e+01        00000 
 9.11463e+00 -3.27896e+01        00000 
 9.37311e+00 -3.27938e+01        00000 
 9.63298e+00 -3.27982e+01        00000 
 9.89431e+00 -3.28030e+01        00000 
 1.01569e+01 -3.28081e+01        00000 
 1.04209e+01 -3.28135e+01        00000 
 1.06861e+01 -3.28192e+01        00000 
 1.09525e+01 -3.28254e+01        00000 
 1.12199e+01 -3.28319e+01        00000 
 1.14883e+01 -3.28388e+01        00000 
 1.17575e+01 -3.28462e+01        00000 
 1.20276e+01 -3.28538e+01        00000 
-1.20620e+01 -3.33961e+01        00000 
-1.17903e+01 -3.33887e+01        00000 
-1.15193e+01 -3.33816e+01        00000 
-1.12492e+01 -3.33750e+01        00000 
-1.09801e+01 -3.33689e+01        00000 
-1.07120e+01 -3.33631e+01        00000 
-1.04452e+01 -3.33578e+01        00000 
-1.01796e+01 -3.33528e+01        00000 
-9.91553e+00 -3.33482e+01        00000 
-9.65283e+00 -3.33439e+01        00000 
-9.39169e+00 -3.33398e+01        00000 
-9.13202e+00 -3.33359e+01        00000 
-8.87396e+00 -3.33322e+01        00000 
-8.61740e+00 -3.33287e+01        00000 
-8.36243e+00 -3.33253e+01        00000 
-8.10895e+00 -3.33220e+01        00000 
-7.85702e+00 -3.33188e+01        00000 
-7.60652e+00 -3.33157e+01        00000 
-7.35751e+00 -3.33126e+01        00000 
-7.10986e+00 -3.33096e+01        00000 
-6.86363e+00 -3.33066e+01        00000 
-6.61868e+00 -3.33036e+01        00000 
-6.37505e+00 -3.33007e+01        00000 
-6.13261e+00 -3.32978e+01        00000 
-5.89140e+00 -3.32950e+01        00000 
-5.65130e+00 -3.32922e+01        00000 
-5.41233e+00 -3.32895e+01        00000 
-5.17438e+00 -3.32868e+01        00000 
-4.93747e+00 -3.32842e+01        00000 
-4.70147e+00 -3.32816e+01        00000 
-4.46643e+00 -3.32791e+01        00000 
-4.23221e+00 -3.32767e+01        00000 
-3.99885e+00 -3.32744e+01        00000 
-3.76622e+00 -3.32722e+01        00000 
-3.53437e+00 -3.32700e+01        00000 
-3.30315e+00 -3.32680e+01        00000 
-3.07261e+00 -3.32661e+01        00000 
-2.84263e+00 -3.32643e+01        00000 
-2.61323e+00 -3.32626e+01        00000 
-2.38429e+00 -3.32610e+01        00000 
-2.15586e+00 -3.32596e+01        00000 
-1.92779e+00 -3.32583e+01        00000 
-1.70015e+00 -3.32571e+01        00000 
-1.47278e+00 -3.32561e+01        00000 
-1.24574e+00 -3.32552e+01        00000 
-1.01889e+00 -3.32544e+01        00000 
-7.92291e-01 -3.32538e+01        00000 
-5.65794e-01 -3.32534e+01        00000 
-3.39451e-01 -3.32531e+01        00000 
-1.13128e-01 -3.32529e+01        00000 
 1.13128e-01 -3.32529e+01        00000 
 3.39451e-01 -3.32531e+01        00000 
 5.65794e-01 -3.32534e+01        00000 
 7.92291e-01 -3.32538e+01        00000 
 1.01889e+00 -3.32544e+01        00000 
 1.24574e+00 -3.32552e+01        00000 
 1.47278e+00 -3.32561e+01        00000 
 1.70015e+00 -3.32571e+01        00000 
 1.92779e+00 -3.32583e+01        00000 
 2.15586e+00 -3.32596e+01        00000 
 2.38429e+00 -3.32610e+01        00000 
 2.61323e+00 -3.32626e+01        00000 
 2.84263e+00 -3.32643e+01        00000 
 3.07261e+00 -3.32661e+01        00000 
 3.30315e+00 -3.32680e+01        00000 
 3.53437e+00 -3.32700e+01        00000 
 3.76622e+00 -3.32722e+01        00000 
 3.99885e+00 -3.32744e+01        00000 
 4.23221e+00 -3.32767e+01        00000 
 4.46643e+00 -3.32791e+01        00000 
 4.70147e+00 -3.32816e+01        00000 
 4.93747e+00 -3.32842e+01        00000 
 5.17438e+00 -3.32868e+01        00000 
 5.41233e+00 -3.32895e+01        00000 
 5.65130e+00 -3.32922e+01        00000 
 5.89140e+00 -3.32950e+01        00000 
 6.13261e+00 -3.32978e+01        00000 
 6.37505e+00 -3.33007e+01        00000 
 6.61868e+00 -3.33036e+01        00000 
 6.86363e+00 -3.33066e+01        00000 
 7.10986e+00 -3.33096e+01        00000 
 7.35751e+00 -3.33126e+01        00000 
 7.60652e+00 -3.33157e+01        00000 
 7.85702e+00 -3.33188e+01        00000 
 8.10895e+00 -3.33220e+01        00000 
 8.36243e+00 -3.33253e+01        00000 
 8.61740e+00 -3.33287e+01        00000 
 8.87396e+00 -3.33322e+01        00000 
 9.13202e+00 -3.33359e+01        00000 
 9.39169e+00 -3.33398e+01        00000 
 9.65283e+00 -3.33439e+01        00000 
 9.91553e+00 -3.33482e+01        00000 
 1.01796e+01 -3.33528e+01        00000 
 1.04452e+01 -3.33578e+01        00000 
 1.07120e+01 -3.33631e+01        00000 
 1.09801e+01 -3.33689e+01        00000 
 1.12492e+01 -3.33750e+01        00000 
 1.15193e+01 -3.33816e+01        00000 
 1.17903e+01 -3.33887e+01        00000 
 1.20620e+01 -3.33961e+01        00000 
-1.20954e+01 -3.39417e+01        00000 
-1.18219e+01 -3.39345e+01        00000 
-1.15490e+01 -3.39278e+01        00000 
-1.12769e+01 -3.39215e+01        00000 
-1.10059e+01 -3.39157e+01        00000 
-1.07359e+01 -3.39104e+01        00000 
-1.04674e+01 -3.39055e+01        00000 
-1.02002e+01 -3.39009e+01        00000 
-9.93456e+00 -3.38967e+01        00000 
-9.67048e+00 -3.38927e+01        00000 
-9.40808e+00 -3.38890e+01        00000 
-9.14729e+00 -3.38854e+01        00000 
-8.88821e+00 -3.38820e+01        00000 
-8.63074e+00 -3.38786e+01        00000 
-8.37497e+00 -3.38753e+01        00000 
-8.12076e+00 -3.38720e+01        00000 
-7.86818e+00 -3.38688e+01        00000 
-7.61710e+00 -3.38656e+01        00000 
-7.36756e+00 -3.38624e+01        00000 
-7.11943e+00 -3.38592e+01        00000 
-6.87275e+00 -3.38560e+01        00000 
-6.62737e+00 -3.38529e+01        00000 
-6.38336e+00 -3.38497e+01        00000 
-6.14055e+00 -3.38465e+01        00000 
-5.89900e+00 -3.38434e+01        00000 
-5.65856e+00 -3.38403e+01        00000 
-5.41928e+00 -3.38373e+01        00000 
-5.18100e+00 -3.38342e+01        00000 
-4.94379e+00 -3.38313e+01        00000 
-4.70749e+00 -3.38284e+01        00000 
-4.47216e+00 -3.38256e+01        00000 
-4.23764e+00 -3.38228e+01        00000 
-4.00400e+00 -3.38202e+01        00000 
-3.77108e+00 -3.38177e+01        00000 
-3.53893e+00 -3.38152e+01        00000 
-3.30743e+00 -3.38129e+01        00000 
-3.07660e+00 -3.38107e+01        00000 
-2.84632e+00 -3.38086e+01        00000 
-2.61664e+00 -3.38067e+01        00000 
-2.38741e+00 -3.38049e+01        00000 
-2.15868e+00 -3.38032e+01        00000 
-1.93032e+00 -3.38017e+01        00000 
-1.70238e+00 -3.38004e+01        00000 
-1.47472e+00 -3.37992e+01        00000 
-1.24738e+00 -3.37982e+01        00000 
-1.02024e+00 -3.37973e+01        00000 
-7.93337e-01 -3.37966e+01        00000 
-5.66542e-01 -3.37961e+01        00000 
-3.39900e-01 -3.37958e+01        00000 
-1.13278e-01 -3.37956e+01        00000 
 1.13278e-01 -3.37956e+01        00000 
 3.39900e-01 -3.37958e+01        00000 
 5.66542e-01 -3.37961e+01        00000 
 7.93337e-01 -3.37966e+01        00000 
 1.02024e+00 -3.37973e+01        00000 
 1.24738e+00 -3.37982e+01        00000 
 1.47472e+00 -3.37992e+01        00000 
 1.70238e+00 -3.38004e+01        00000 
 1.93032e+00 -3.38017e+01        00000 
 2.15868e+00 -3.38032e+01        00000 
 2.38741e+00 -3.38049e+01        00000 
 2.61664e+00 -3.38067e+01        00000 
 2.84632e+00 -3.38086e+01        00000 
 3.07660e+00 -3.38107e+01        00000 
 3.30743e+00 -3.38129e+01        00000 
 3.53893e+00 -3.38152e+01        00000 
 3.77108e+00 -3.38177e+01        00000 
 4.00400e+00 -3.38202e+01        00000 
 4.23764e+00 -3.38228e+01        00000 
 4.47216e+00 -3.38256e+01        00000 
 4.70749e+00 -3.38284e+01        00000 
 4.94379e+00 -3.38313e+01        00000 
 5.18100e+00 -3.38342e+01        00000 
 5.41928e+00 -3.38373e+01        00000 
 5.65856e+00 -3.38403e+01        00000 
 5.89900e+00 -3.38434e+01        00000 
 6.14055e+00 -3.38465e+01        00000 
 6.38336e+00 -3.38497e+01        00000 
 6.62737e+00 -3.38529e+01        00000 
 6.87275e+00 -3.38560e+01        00000 
 7.11943e+00 -3.38592e+01        00000 
 7.36756e+00 -3.38624e+01        00000 
 7.61710e+00 -3.38656e+01        00000 
 7.86818e+00 -3.38688e+01        00000 
 8.12076e+00 -3.38720e+01        00000 
 8.37497e+00 -3.38753e+01        00000 
 8.63074e+00 -3.38786e+01        00000 
 8.88821e+00 -3.38820e+01        00000 
 9.14729e+00 -3.38854e+01        00000 
 9.40808e+00 -3.38890e+01        00000 
 9.67048e+00 -3.38927e+01        00000 
 9.93456e+00 -3.38967e+01        00000 
 1.02002e+01 -3.39009e+01        00000 
 1.04674e+01 -3.39055e+01        00000 
 1.07359e+01 -3.39104e+01        00000 
 1.10059e+01 -3.39157e+01        00000 
 1.12769e+01 -3.39215e+01        00000 
 1.15490e+01 -3.39278e+01        00000 
 1.18219e+01 -3.39345e+01        00000 
 1.20954e+01 -3.39417e+01        00000 
-1.21282e+01 -3.44913e+01        00000 
-1.18524e+01 -3.44843e+01        00000 
-1.15773e+01 -3.44778e+01        00000 
-1.13030e+01 -3.44719e+01        00000 
-1.10298e+01 -3.44665e+01        00000 
-1.07578e+01 -3.44616e+01        00000 
-1.04874e+01 -3.44571e+01        00000 
-1.02185e+01 -3.44529e+01        00000 
-9.95131e+00 -3.44491e+01        00000 
-9.68587e+00 -3.44454e+01        00000 
-9.42228e+00 -3.44419e+01        00000 
-9.16045e+00 -3.44385e+01        00000 
-8.90047e+00 -3.44351e+01        00000 
-8.64222e+00 -3.44317e+01        00000 
-8.38577e+00 -3.44284e+01        00000 
-8.13096e+00 -3.44250e+01        00000 
-7.87786e+00 -3.44215e+01        00000 
-7.62631e+00 -3.44181e+01        00000 
-7.37636e+00 -3.44145e+01        00000 
-7.12785e+00 -3.44110e+01        00000 
-6.88082e+00 -3.44074e+01        00000 
-6.63513e+00 -3.44038e+01        00000 
-6.39081e+00 -3.44002e+01        00000 
-6.14772e+00 -3.43966e+01        00000 
-5.90590e+00 -3.43930e+01        00000 
-5.66519e+00 -3.43894e+01        00000 
-5.42565e+00 -3.43858e+01        00000 
-5.18712e+00 -3.43823e+01        00000 
-4.94965e+00 -3.43789e+01        00000 
-4.71310e+00 -3.43755e+01        00000 
-4.47751e+00 -3.43723e+01        00000 
-4.24274e+00 -3.43691e+01        00000 
-4.00884e+00 -3.43660e+01        00000 
-3.77566e+00 -3.43630e+01        00000 
-3.54326e+00 -3.43602e+01        00000 
-3.31149e+00 -3.43574e+01        00000 
-3.08040e+00 -3.43549e+01        00000 
-2.84985e+00 -3.43525e+01        00000 
-2.61989e+00 -3.43502e+01        00000 
-2.39039e+00 -3.43481e+01        00000 
-2.16139e+00 -3.43462e+01        00000 
-1.93275e+00 -3.43444e+01        00000 
-1.70453e+00 -3.43428e+01        00000 
-1.47658e+00 -3.43415e+01        00000 
-1.24896e+00 -3.43403e+01        00000 
-1.02153e+00 -3.43393e+01        00000 
-7.94346e-01 -3.43385e+01        00000 
-5.67263e-01 -3.43379e+01        00000 
-3.40333e-01 -3.43375e+01        00000 
-1.13422e-01 -3.43373e+01        00000 
 1.13422e-01 -3.43373e+01        00000 
 3.40333e-01 -3.43375e+01        00000 
 5.67263e-01 -3.43379e+01        00000 
 7.94346e-01 -3.43385e+01        00000 
 1.02153e+00 -3.43393e+01        00000 
 1.24896e+00 -3.43403e+01        00000 
 1.47658e+00 -3.43415e+01        00000 
 1.70453e+00 -3.43428e+01        00000 
 1.93275e+00 -3.43444e+01        00000 
 2.16139e+00 -3.43462e+01        00000 
 2.39039e+00 -3.43481e+01        00000 
 2.61989e+00 -3.43502e+01        00000 
 2.84985e+00 -3.43525e+01        00000 
 3.08040e+00 -3.43549e+01        00000 
 3.31149e+00 -3.43574e+01        00000 
 3.54326e+00 -3.43602e+01        00000 
 3.77566e+00 -3.43630e+01        00000 
 4.00884e+00 -3.43660e+01        00000 
 4.24274e+00 -3.43691e+01        00000 
 4.47751e+00 -3.43723e+01        00000 
 4.71310e+00 -3.43755e+01        00000 
 4.94965e+00 -3.43789e+01        00000 
 5.18712e+00 -3.43823e+01        00000 
 5.42565e+00 -3.43858e+01        00000 
 5.66519e+00 -3.43894e+01        00000 
 5.90590e+00 -3.43930e+01        00000 
 6.14772e+00 -3.43966e+01        00000 
 6.39081e+00 -3.44002e+01        00000 
 6.63513e+00 -3.44038e+01        00000 
 6.88082e+00 -3.44074e+01        00000 
 7.12785e+00 -3.44110e+01        00000 
 7.37636e+00 -3.44145e+01        00000 
 7.62631e+00 -3.44181e+01        00000 
 7.87786e+00 -3.44215e+01        00000 
 8.13096e+00 -3.44250e+01        00000 
 8.38577e+00 -3.44284e+01        00000 
 8.64222e+00 -3.44317e+01        00000 
 8.90047e+00 -3.44351e+01        00000 
 9.16045e+00 -3.44385e+01        00000 
 9.42228e+00 -3.44419e+01        00000 
 9.68587e+00 -3.44454e+01        00000 
 9.95131e+00 -3.44491e+01        00000 
 1.02185e+01 -3.44529e+01        00000 
 1.04874e+01 -3.44571e+01        00000 
 1.07578e+01 -3.44616e+01        00000 
 1.10298e+01 -3.44665e+01        00000 
 1.13030e+01 -3.44719e+01        00000 
 1.15773e+01 -3.44778e+01        00000 
 1.18524e+01 -3.44843e+01        00000 
 1.21282e+01 -3.44913e+01        00000 
-1.21605e+01 -3.50456e+01        00000 
-1.18821e+01 -3.50387e+01        00000 
-1.16043e+01 -3.50325e+01        00000 
-1.13273e+01 -3.50269e+01        00000 
-1.10517e+01 -3.50220e+01        00000 
-1.07775e+01 -3.50175e+01        00000 
-1.05050e+01 -3.50134e+01        00000 
-1.02343e+01 -3.50096e+01        00000 
-9.96569e+00 -3.50060e+01        00000 
-9.69898e+00 -3.50026e+01        00000 
-9.43433e+00 -3.49991e+01        00000 
-9.17161e+00 -3.49956e+01        00000 
-8.91089e+00 -3.49921e+01        00000 
-8.65203e+00 -3.49885e+01        00000 
-8.39505e+00 -3.49848e+01        00000 
-8.13981e+00 -3.49810e+01        00000 
-7.88633e+00 -3.49771e+01        00000 
-7.63445e+00 -3.49731e+01        00000 
-7.38420e+00 -3.49690e+01        00000 
-7.13542e+00 -3.49648e+01        00000 
-6.88816e+00 -3.49606e+01        00000 
-6.64223e+00 -3.49563e+01        00000 
-6.39770e+00 -3.49520e+01        00000 
-6.15439e+00 -3.49477e+01        00000 
-5.91236e+00 -3.49434e+01        00000 
-5.67144e+00 -3.49392e+01        00000 
-5.43169e+00 -3.49350e+01        00000 
-5.19295e+00 -3.49308e+01        00000 
-4.95527e+00 -3.49267e+01        00000 
-4.71850e+00 -3.49227e+01        00000 
-4.48269e+00 -3.49188e+01        00000 
-4.24769e+00 -3.49150e+01        00000 
-4.01355e+00 -3.49114e+01        00000 
-3.78014e+00 -3.49078e+01        00000 
-3.54749e+00 -3.49045e+01        00000 
-3.31547e+00 -3.49013e+01        00000 
-3.08413e+00 -3.48982e+01        00000 
-2.85333e+00 -3.48954e+01        00000 
-2.62311e+00 -3.48927e+01        00000 
-2.39334e+00 -3.48902e+01        00000 
-2.16407e+00 -3.48880e+01        00000 
-1.93516e+00 -3.48859e+01        00000 
-1.70666e+00 -3.48840e+01        00000 
-1.47844e+00 -3.48824e+01        00000 
-1.25054e+00 -3.48810e+01        00000 
-1.02283e+00 -3.48798e+01        00000 
-7.95352e-01 -3.48789e+01        00000 
-5.67983e-01 -3.48782e+01        00000 
-3.40765e-01 -3.48777e+01        00000 
-1.13566e-01 -3.48775e+01        00000 
 1.13566e-01 -3.48775e+01        00000 
 3.40765e-01 -3.48777e+01        00000 
 5.67983e-01 -3.48782e+01        00000 
 7.95352e-01 -3.48789e+01        00000 
 1.02283e+00 -3.48798e+01        00000 
 1.25054e+00 -3.48810e+01        00000 
 1.47844e+00 -3.48824e+01        00000 
 1.70666e+00 -3.48840e+01        00000 
 1.93516e+00 -3.48859e+01        00000 
 2.16407e+00 -3.48880e+01        00000 
 2.39334e+00 -3.48902e+01        00000 
 2.62311e+00 -3.48927e+01        00000 
 2.85333e+00 -3.48954e+01        00000 
 3.08413e+00 -3.48982e+01        00000 
 3.31547e+00 -3.49013e+01        00000 
 3.54749e+00 -3.49045e+01        00000 
 3.78014e+00 -3.49078e+01        00000 
 4.01355e+00 -3.49114e+01        00000 
 4.24769e+00 -3.49150e+01        00000 
 4.48269e+00 -3.49188e+01        00000 
 4.71850e+00 -3.49227e+01        00000 
 4.95527e+00 -3.49267e+01        00000 
 5.19295e+00 -3.49308e+01        00000 
 5.43169e+00 -3.49350e+01        00000 
 5.67144e+00 -3.49392e+01        00000 
 5.91236e+00 -3.49434e+01        00000 
 6.15439e+00 -3.49477e+01        00000 
 6.39770e+00 -3.49520e+01        00000 
 6.64223e+00 -3.49563e+01        00000 
 6.88816e+00 -3.49606e+01        00000 
 7.13542e+00 -3.49648e+01        00000 
 7.38420e+00 -3.49690e+01        00000 
 7.63445e+00 -3.49731e+01        00000 
 7.88633e+00 -3.49771e+01        00000 
 8.13981e+00 -3.49810e+01        00000 
 8.39505e+00 -3.49848e+01        00000 
 8.65203e+00 -3.49885e+01        00000 
 8.91089e+00 -3.49921e+01        00000 
 9.17161e+00 -3.49956e+01        00000 
 9.43433e+00 -3.49991e+01        00000 
 9.69898e+00 -3.50026e+01        00000 
 9.96569e+00 -3.50060e+01        00000 
 1.02343e+01 -3.50096e+01        00000 
 1.05050e+01 -3.50134e+01        00000 
 1.07775e+01 -3.50175e+01        00000 
 1.10517e+01 -3.50220e+01        00000 
 1.13273e+01 -3.50269e+01        00000 
 1.16043e+01 -3.50325e+01        00000 
 1.18821e+01 -3.50387e+01        00000 
 1.21605e+01 -3.50456e+01        00000 
-1.21925e+01 -3.56057e+01        00000 
-1.19108e+01 -3.55989e+01        00000 
-1.16297e+01 -3.55930e+01        00000 
-1.13497e+01 -3.55878e+01        00000 
-1.10712e+01 -3.55833e+01        00000 
-1.07946e+01 -3.55793e+01        00000 
-1.05201e+01 -3.55755e+01        00000 
-1.02477e+01 -3.55720e+01        00000 
-9.97770e+00 -3.55685e+01        00000 
-9.70991e+00 -3.55649e+01        00000 
-9.44440e+00 -3.55613e+01        00000 
-9.18102e+00 -3.55574e+01        00000 
-8.91977e+00 -3.55534e+01        00000 
-8.66049e+00 -3.55492e+01        00000 
-8.40319e+00 -3.55448e+01        00000 
-8.14767e+00 -3.55402e+01        00000 
-7.89396e+00 -3.55355e+01        00000 
-7.64189e+00 -3.55306e+01        00000 
-7.39147e+00 -3.55256e+01        00000 
-7.14253e+00 -3.55205e+01        00000 
-6.89511e+00 -3.55154e+01        00000 
-6.64904e+00 -3.55102e+01        00000 
-6.40435e+00 -3.55049e+01        00000 
-6.16089e+00 -3.54997e+01        00000 
-5.91870e+00 -3.54945e+01        00000 
-5.67761e+00 -3.54893e+01        00000 
-5.43769e+00 -3.54842e+01        00000 
-5.19877e+00 -3.54792e+01        00000 
-4.96089e+00 -3.54743e+01        00000 
-4.72393e+00 -3.54695e+01        00000 
-4.48791e+00 -3.54648e+01        00000 
-4.25270e+00 -3.54603e+01        00000 
-4.01834e+00 -3.54559e+01        00000 
-3.78469e+00 -3.54517e+01        00000 
-3.55181e+00 -3.54477e+01        00000 
-3.31955e+00 -3.54439e+01        00000 
-3.08795e+00 -3.54403e+01        00000 
-2.85689e+00 -3.54369e+01        00000 
-2.62641e+00 -3.54337e+01        00000 
-2.39637e+00 -3.54308e+01        00000 
-2.16683e+00 -3.54281e+01        00000 
-1.93764e+00 -3.54257e+01        00000 
-1.70886e+00 -3.54235e+01        00000 
-1.48035e+00 -3.54216e+01        00000 
-1.25216e+00 -3.54199e+01        00000 
-1.02416e+00 -3.54186e+01        00000 
-7.96389e-01 -3.54174e+01        00000 
-5.68725e-01 -3.54166e+01        00000 
-3.41211e-01 -3.54161e+01        00000 
-1.13715e-01 -3.54158e+01        00000 
 1.13715e-01 -3.54158e+01        00000 
 3.41211e-01 -3.54161e+01        00000 
 5.68725e-01 -3.54166e+01        00000 
 7.96389e-01 -3.54174e+01        00000 
 1.02416e+00 -3.54186e+01        00000 
 1.25216e+00 -3.54199e+01        00000 
 1.48035e+00 -3.54216e+01        00000 
 1.70886e+00 -3.54235e+01        00000 
 1.93764e+00 -3.54257e+01        00000 
 2.16683e+00 -3.54281e+01        00000 
 2.39637e+00 -3.54308e+01        00000 
 2.62641e+00 -3.54337e+01        00000 
 2.85689e+00 -3.54369e+01        00000 
 3.08795e+00 -3.54403e+01        00000 
 3.31955e+00 -3.54439e+01        00000 
 3.55181e+00 -3.54477e+01        00000 
 3.78469e+00 -3.54517e+01        00000 
 4.01834e+00 -3.54559e+01        00000 
 4.25270e+00 -3.54603e+01        00000 
 4.48791e+00 -3.54648e+01        00000 
 4.72393e+00 -3.54695e+01        00000 
 4.96089e+00 -3.54743e+01        00000 
 5.19877e+00 -3.54792e+01        00000 
 5.43769e+00 -3.54842e+01        00000 
 5.67761e+00 -3.54893e+01        00000 
 5.91870e+00 -3.54945e+01        00000 
 6.16089e+00 -3.54997e+01        00000 
 6.40435e+00 -3.55049e+01        00000 
 6.64904e+00 -3.55102e+01        00000 
 6.89511e+00 -3.55154e+01        00000 
 7.14253e+00 -3.55205e+01        00000 
 7.39147e+00 -3.55256e+01        00000 
 7.64189e+00 -3.55306e+01        00000 
 7.89396e+00 -3.55355e+01        00000 
 8.14767e+00 -3.55402e+01        00000 
 8.40319e+00 -3.55448e+01        00000 
 8.66049e+00 -3.55492e+01        00000 
 8.91977e+00 -3.55534e+01        00000 
 9.18102e+00 -3.55574e+01        00000 
 9.44440e+00 -3.55613e+01        00000 
 9.70991e+00 -3.55649e+01        00000 
 9.97770e+00 -3.55685e+01        00000 
 1.02477e+01 -3.55720e+01        00000 
 1.05201e+01 -3.55755e+01        00000 
 1.07946e+01 -3.55793e+01        00000 
 1.10712e+01 -3.55833e+01        00000 
 1.13497e+01 -3.55878e+01        00000 
 1.16297e+01 -3.55930e+01        00000 
 1.19108e+01 -3.55989e+01        00000 
 1.21925e+01 -3.56057e+01        00000 
-1.22244e+01 -3.61732e+01        00000 
-1.19385e+01 -3.61665e+01        00000 
-1.16533e+01 -3.61609e+01        00000 
-1.13696e+01 -3.61562e+01        00000 
-1.10880e+01 -3.61522e+01        00000 
-1.08088e+01 -3.61485e+01        00000 
-1.05324e+01 -3.61449e+01        00000 
-1.02586e+01 -3.61413e+01        00000 
-9.98750e+00 -3.61375e+01        00000 
-9.71894e+00 -3.61334e+01        00000 
-9.45290e+00 -3.61290e+01        00000 
-9.18913e+00 -3.61243e+01        00000 
-8.92762e+00 -3.61193e+01        00000 
-8.66815e+00 -3.61140e+01        00000 
-8.41071e+00 -3.61084e+01        00000 
-8.15509e+00 -3.61026e+01        00000 
-7.90130e+00 -3.60966e+01        00000 
-7.64914e+00 -3.60905e+01        00000 
-7.39865e+00 -3.60842e+01        00000 
-7.14963e+00 -3.60778e+01        00000 
-6.90213e+00 -3.60714e+01        00000 
-6.65596e+00 -3.60650e+01        00000 
-6.41116e+00 -3.60585e+01        00000 
-6.16758e+00 -3.60521e+01        00000 
-5.92526e+00 -3.60457e+01        00000 
-5.68403e+00 -3.60394e+01        00000 
-5.44394e+00 -3.60332e+01        00000 
-5.20485e+00 -3.60271e+01        00000 
-4.96680e+00 -3.60212e+01        00000 
-4.72963e+00 -3.60154e+01        00000 
-4.49341e+00 -3.60098e+01        00000 
-4.25798e+00 -3.60043e+01        00000 
-4.02340e+00 -3.59991e+01        00000 
-3.78951e+00 -3.59941e+01        00000 
-3.55638e+00 -3.59893e+01        00000 
-3.32386e+00 -3.59848e+01        00000 
-3.09201e+00 -3.59805e+01        00000 
-2.86067e+00 -3.59765e+01        00000 
-2.62991e+00 -3.59728e+01        00000 
-2.39959e+00 -3.59693e+01        00000 
-2.16976e+00 -3.59661e+01        00000 
-1.94028e+00 -3.59633e+01        00000 
-1.71120e+00 -3.59607e+01        00000 
-1.48238e+00 -3.59584e+01        00000 
-1.25389e+00 -3.59565e+01        00000 
-1.02557e+00 -3.59549e+01        00000 
-7.97494e-01 -3.59536e+01        00000 
-5.69515e-01 -3.59526e+01        00000 
-3.41686e-01 -3.59519e+01        00000 
-1.13873e-01 -3.59516e+01        00000 
 1.13873e-01 -3.59516e+01        00000 
 3.41686e-01 -3.59519e+01        00000 
 5.69515e-01 -3.59526e+01        00000 
 7.97494e-01 -3.59536e+01        00000 
 1.02557e+00 -3.59549e+01        00000 
 1.25389e+00 -3.59565e+01        00000 
 1.48238e+00 -3.59584e+01        00000 
 1.71120e+00 -3.59607e+01        00000 
 1.94028e+00 -3.59633e+01        00000 
 2.16976e+00 -3.59661e+01        00000 
 2.39959e+00 -3.59693e+01        00000 
 2.62991e+00 -3.59728e+01        00000 
 2.86067e+00 -3.59765e+01        00000 
 3.09201e+00 -3.59805e+01        00000 
 3.32386e+00 -3.59848e+01        00000 
 3.55638e+00 -3.59893e+01        00000 
 3.78951e+00 -3.59941e+01        00000 
 4.02340e+00 -3.59991e+01        00000 
 4.25798e+00 -3.60043e+01        00000 
 4.49341e+00 -3.60098e+01        00000 
 4.72963e+00 -3.60154e+01        00000 
 4.96680e+00 -3.60212e+01        00000 
 5.20485e+00 -3.60271e+01        00000 
 5.44394e+00 -3.60332e+01        00000 
 5.68403e+00 -3.60394e+01        00000 
 5.92526e+00 -3.60457e+01        00000 
 6.16758e+00 -3.60521e+01        00000 
 6.41116e+00 -3.60585e+01        00000 
 6.65596e+00 -3.60650e+01        00000 
 6.90213e+00 -3.60714e+01        00000 
 7.14963e+00 -3.60778e+01        00000 
 7.39865e+00 -3.60842e+01        00000 
 7.64914e+00 -3.60905e+01        00000 
 7.90130e+00 -3.60966e+01        00000 
 8.15509e+00 -3.61026e+01        00000 
 8.41071e+00 -3.61084e+01        00000 
 8.66815e+00 -3.61140e+01        00000 
 8.92762e+00 -3.61193e+01        00000 
 9.18913e+00 -3.61243e+01        00000 
 9.45290e+00 -3.61290e+01        00000 
 9.71894e+00 -3.61334e+01        00000 
 9.98750e+00 -3.61375e+01        00000 
 1.02586e+01 -3.61413e+01        00000 
 1.05324e+01 -3.61449e+01        00000 
 1.08088e+01 -3.61485e+01        00000 
 1.10880e+01 -3.61522e+01        00000 
 1.13696e+01 -3.61562e+01        00000 
 1.16533e+01 -3.61609e+01        00000 
 1.19385e+01 -3.61665e+01        00000 
 1.22244e+01 -3.61732e+01        00000 
-1.22566e+01 -3.67504e+01        00000 
-1.19649e+01 -3.67439e+01        00000 
-1.16745e+01 -3.67387e+01        00000 
-1.13864e+01 -3.67346e+01        00000 
-1.11015e+01 -3.67310e+01        00000 
-1.08200e+01 -3.67274e+01        00000 
-1.05421e+01 -3.67235e+01        00000 
-1.02673e+01 -3.67191e+01        00000 
-9.99566e+00 -3.67142e+01        00000 
-9.72677e+00 -3.67088e+01        00000 
-9.46056e+00 -3.67029e+01        00000 
-9.19672e+00 -3.66966e+01        00000 
-8.93520e+00 -3.66899e+01        00000 
-8.67575e+00 -3.66828e+01        00000 
-8.41834e+00 -3.66755e+01        00000 
-8.16274e+00 -3.66679e+01        00000 
-7.90897e+00 -3.66602e+01        00000 
-7.65682e+00 -3.66523e+01        00000 
-7.40630e+00 -3.66443e+01        00000 
-7.15725e+00 -3.66363e+01        00000 
-6.90969e+00 -3.66282e+01        00000 
-6.66345e+00 -3.66202e+01        00000 
-6.41856e+00 -3.66122e+01        00000 
-6.17487e+00 -3.66043e+01        00000 
-5.93241e+00 -3.65965e+01        00000 
-5.69103e+00 -3.65888e+01        00000 
-5.45078e+00 -3.65813e+01        00000 
-5.21151e+00 -3.65739e+01        00000 
-4.97326e+00 -3.65668e+01        00000 
-4.73589e+00 -3.65598e+01        00000 
-4.49944e+00 -3.65531e+01        00000 
-4.26377e+00 -3.65466e+01        00000 
-4.02894e+00 -3.65404e+01        00000 
-3.79480e+00 -3.65345e+01        00000 
-3.56139e+00 -3.65288e+01        00000 
-3.32860e+00 -3.65234e+01        00000 
-3.09645e+00 -3.65184e+01        00000 
-2.86482e+00 -3.65136e+01        00000 
-2.63376e+00 -3.65092e+01        00000 
-2.40312e+00 -3.65052e+01        00000 
-2.17297e+00 -3.65014e+01        00000 
-1.94317e+00 -3.64981e+01        00000 
-1.71376e+00 -3.64951e+01        00000 
-1.48461e+00 -3.64924e+01        00000 
-1.25578e+00 -3.64901e+01        00000 
-1.02713e+00 -3.64882e+01        00000 
-7.98705e-01 -3.64867e+01        00000 
-5.70381e-01 -3.64855e+01        00000 
-3.42206e-01 -3.64848e+01        00000 
-1.14047e-01 -3.64844e+01        00000 
 1.14047e-01 -3.64844e+01        00000 
 3.42206e-01 -3.64848e+01        00000 
 5.70381e-01 -3.64855e+01        00000 
 7.98705e-01 -3.64867e+01        00000 
 1.02713e+00 -3.64882e+01        00000 
 1.25578e+00 -3.64901e+01        00000 
 1.48461e+00 -3.64924e+01        00000 
 1.71376e+00 -3.64951e+01        00000 
 1.94317e+00 -3.64981e+01        00000 
 2.17297e+00 -3.65014e+01        00000 
 2.40312e+00 -3.65052e+01        00000 
 2.63376e+00 -3.65092e+01        00000 
 2.86482e+00 -3.65136e+01        00000 
 3.09645e+00 -3.65184e+01        00000 
 3.32860e+00 -3.65234e+01        00000 
 3.56139e+00 -3.65288e+01        00000 
 3.79480e+00 -3.65345e+01        00000 
 4.02894e+00 -3.65404e+01        00000 
 4.26377e+00 -3.65466e+01        00000 
 4.49944e+00 -3.65531e+01        00000 
 4.73589e+00 -3.65598e+01        00000 
 4.97326e+00 -3.65668e+01        00000 
 5.21151e+00 -3.65739e+01        00000 
 5.45078e+00 -3.65813e+01        00000 
 5.69103e+00 -3.65888e+01        00000 
 5.93241e+00 -3.65965e+01        00000 
 6.17487e+00 -3.66043e+01        00000 
 6.41856e+00 -3.66122e+01        00000 
 6.66345e+00 -3.66202e+01        00000 
 6.90969e+00 -3.66282e+01        00000 
 7.15725e+00 -3.66363e+01        00000 
 7.40630e+00 -3.66443e+01        00000 
 7.65682e+00 -3.66523e+01        00000 
 7.90897e+00 -3.66602e+01        00000 
 8.16274e+00 -3.66679e+01        00000 
 8.41834e+00 -3.66755e+01        00000 
 8.67575e+00 -3.66828e+01        00000 
 8.93520e+00 -3.66899e+01        00000 
 9.19672e+00 -3.66966e+01        00000 
 9.46056e+00 -3.67029e+01        00000 
 9.72677e+00 -3.67088e+01        00000 
 9.99566e+00 -3.67142e+01        00000 
 1.02673e+01 -3.67191e+01        00000 
 1.05421e+01 -3.67235e+01        00000 
 1.08200e+01 -3.67274e+01        00000 
 1.11015e+01 -3.67310e+01        00000 
 1.13864e+01 -3.67346e+01        00000 
 1.16745e+01 -3.67387e+01        00000 
 1.19649e+01 -3.67439e+01        00000 
 1.22566e+01 -3.67504e+01        00000 
-1.22892e+01 -3.73415e+01        00000 
-1.19892e+01 -3.73351e+01        00000 
-1.16917e+01 -3.73310e+01        00000 
-1.13990e+01 -3.73274e+01        00000 
-1.11115e+01 -3.73234e+01        00000 
-1.08286e+01 -3.73186e+01        00000 
-1.05500e+01 -3.73130e+01        00000 
-1.02750e+01 -3.73065e+01        00000 
-1.00034e+01 -3.72993e+01        00000 
-9.73462e+00 -3.72913e+01        00000 
-9.46858e+00 -3.72829e+01        00000 
-9.20492e+00 -3.72740e+01        00000 
-8.94356e+00 -3.72647e+01        00000 
-8.68425e+00 -3.72551e+01        00000 
-8.42694e+00 -3.72454e+01        00000 
-8.17143e+00 -3.72354e+01        00000 
-7.91770e+00 -3.72254e+01        00000 
-7.66557e+00 -3.72153e+01        00000 
-7.41504e+00 -3.72052e+01        00000 
-7.16595e+00 -3.71951e+01        00000 
-6.91832e+00 -3.71851e+01        00000 
-6.67199e+00 -3.71752e+01        00000 
-6.42698e+00 -3.71653e+01        00000 
-6.18315e+00 -3.71557e+01        00000 
-5.94053e+00 -3.71462e+01        00000 
-5.69898e+00 -3.71369e+01        00000 
-5.45853e+00 -3.71278e+01        00000 
-5.21904e+00 -3.71190e+01        00000 
-4.98056e+00 -3.71105e+01        00000 
-4.74294e+00 -3.71022e+01        00000 
-4.50623e+00 -3.70942e+01        00000 
-4.27029e+00 -3.70865e+01        00000 
-4.03517e+00 -3.70791e+01        00000 
-3.80073e+00 -3.70721e+01        00000 
-3.56703e+00 -3.70654e+01        00000 
-3.33391e+00 -3.70591e+01        00000 
-3.10144e+00 -3.70532e+01        00000 
-2.86947e+00 -3.70476e+01        00000 
-2.63806e+00 -3.70425e+01        00000 
-2.40708e+00 -3.70377e+01        00000 
-2.17657e+00 -3.70334e+01        00000 
-1.94640e+00 -3.70294e+01        00000 
-1.71662e+00 -3.70259e+01        00000 
-1.48710e+00 -3.70228e+01        00000 
-1.25789e+00 -3.70202e+01        00000 
-1.02886e+00 -3.70180e+01        00000 
-8.00057e-01 -3.70162e+01        00000 
-5.71349e-01 -3.70149e+01        00000 
-3.42787e-01 -3.70140e+01        00000 
-1.14241e-01 -3.70135e+01        00000 
 1.14241e-01 -3.70135e+01        00000 
 3.42787e-01 -3.70140e+01        00000 
 5.71349e-01 -3.70149e+01        00000 
 8.00057e-01 -3.70162e+01        00000 
 1.02886e+00 -3.70180e+01        00000 
 1.25789e+00 -3.70202e+01        00000 
 1.48710e+00 -3.70228e+01        00000 
 1.71662e+00 -3.70259e+01        00000 
 1.94640e+00 -3.70294e+01        00000 
 2.17657e+00 -3.70334e+01        00000 
 2.40708e+00 -3.70377e+01        00000 
 2.63806e+00 -3.70425e+01        00000 
 2.86947e+00 -3.70476e+01        00000 
 3.10144e+00 -3.70532e+01        00000 
 3.33391e+00 -3.70591e+01        00000 
 3.56703e+00 -3.70654e+01        00000 
 3.80073e+00 -3.70721e+01        00000 
 4.03517e+00 -3.70791e+01        00000 
 4.27029e+00 -3.70865e+01        00000 
 4.50623e+00 -3.70942e+01        00000 
 4.74294e+00 -3.71022e+01        00000 
 4.98056e+00 -3.71105e+01        00000 
 5.21904e+00 -3.71190e+01        00000 
 5.45853e+00 -3.71278e+01        00000 
 5.69898e+00 -3.71369e+01        00000 
 5.94053e+00 -3.71462e+01        00000 
 6.18315e+00 -3.71557e+01        00000 
 6.42698e+00 -3.71653e+01        00000 
 6.67199e+00 -3.71752e+01        00000 
 6.91832e+00 -3.71851e+01        00000 
 7.16595e+00 -3.71951e+01        00000 
 7.41504e+00 -3.72052e+01        00000 
 7.66557e+00 -3.72153e+01        00000 
 7.91770e+00 -3.72254e+01        00000 
 8.17143e+00 -3.72354e+01        00000 
 8.42694e+00 -3.72454e+01        00000 
 8.68425e+00 -3.72551e+01        00000 
 8.94356e+00 -3.72647e+01        00000 
 9.20492e+00 -3.72740e+01        00000 
 9.46858e+00 -3.72829e+01        00000 
 9.73462e+00 -3.72913e+01        00000 
 1.00034e+01 -3.72993e+01        00000 
 1.02750e+01 -3.73065e+01        00000 
 1.05500e+01 -3.73130e+01        00000 
 1.08286e+01 -3.73186e+01        00000 
 1.11115e+01 -3.73234e+01        00000 
 1.13990e+01 -3.73274e+01        00000 
 1.16917e+01 -3.73310e+01        00000 
 1.19892e+01 -3.73351e+01        00000 
 1.22892e+01 -3.73415e+01        00000 
-1.23220e+01 -3.79544e+01        00000 
-1.20072e+01 -3.79503e+01        00000 
-1.17032e+01 -3.79463e+01        00000 
-1.14080e+01 -3.79405e+01        00000 
-1.11197e+01 -3.79331e+01        00000 
-1.08369e+01 -3.79242e+01        00000 
-1.05586e+01 -3.79142e+01        00000 
-1.02840e+01 -3.79034e+01        00000 
-1.00127e+01 -3.78920e+01        00000 
-9.74426e+00 -3.78800e+01        00000 
-9.47849e+00 -3.78678e+01        00000 
-9.21505e+00 -3.78553e+01        00000 
-8.95386e+00 -3.78426e+01        00000 
-8.69467e+00 -3.78298e+01        00000 
-8.43744e+00 -3.78170e+01        00000 
-8.18196e+00 -3.78041e+01        00000 
-7.92823e+00 -3.77913e+01        00000 
-7.67606e+00 -3.77786e+01        00000 
-7.42546e+00 -3.77659e+01        00000 
-7.17627e+00 -3.77535e+01        00000 
-6.92851e+00 -3.77411e+01        00000 
-6.68203e+00 -3.77290e+01        00000 
-6.43685e+00 -3.77171e+01        00000 
-6.19282e+00 -3.77054e+01        00000 
-5.94999e+00 -3.76940e+01        00000 
-5.70820e+00 -3.76829e+01        00000 
-5.46750e+00 -3.76721e+01        00000 
-5.22774e+00 -3.76616e+01        00000 
-4.98897e+00 -3.76515e+01        00000 
-4.75106e+00 -3.76417e+01        00000 
-4.51403e+00 -3.76323e+01        00000 
-4.27777e+00 -3.76232e+01        00000 
-4.04231e+00 -3.76146e+01        00000 
-3.80752e+00 -3.76064e+01        00000 
-3.57345e+00 -3.75986e+01        00000 
-3.33996e+00 -3.75912e+01        00000 
-3.10711e+00 -3.75843e+01        00000 
-2.87476e+00 -3.75778e+01        00000 
-2.64296e+00 -3.75718e+01        00000 
-2.41157e+00 -3.75663e+01        00000 
-2.18065e+00 -3.75613e+01        00000 
-1.95007e+00 -3.75567e+01        00000 
-1.71987e+00 -3.75527e+01        00000 
-1.48993e+00 -3.75491e+01        00000 
-1.26029e+00 -3.75460e+01        00000 
-1.03083e+00 -3.75434e+01        00000 
-8.01588e-01 -3.75414e+01        00000 
-5.72444e-01 -3.75399e+01        00000 
-3.43445e-01 -3.75388e+01        00000 
-1.14460e-01 -3.75383e+01        00000 
 1.14460e-01 -3.75383e+01        00000 
 3.43445e-01 -3.75388e+01        00000 
 5.72444e-01 -3.75399e+01        00000 
 8.01588e-01 -3.75414e+01        00000 
 1.03083e+00 -3.75434e+01        00000 
 1.26029e+00 -3.75460e+01        00000 
 1.48993e+00 -3.75491e+01        00000 
 1.71987e+00 -3.75527e+01        00000 
 1.95007e+00 -3.75567e+01        00000 
 2.18065e+00 -3.75613e+01        00000 
 2.41157e+00 -3.75663e+01        00000 
 2.64296e+00 -3.75718e+01        00000 
 2.87476e+00 -3.75778e+01        00000 
 3.10711e+00 -3.75843e+01        00000 
 3.33996e+00 -3.75912e+01        00000 
 3.57345e+00 -3.75986e+01        00000 
 3.80752e+00 -3.76064e+01        00000 
 4.04231e+00 -3.76146e+01        00000 
 4.27777e+00 -3.76232e+01        00000 
 4.51403e+00 -3.76323e+01        00000 
 4.75106e+00 -3.76417e+01        00000 
 4.98897e+00 -3.76515e+01        00000 
 5.22774e+00 -3.76616e+01        00000 
 5.46750e+00 -3.76721e+01        00000 
 5.70820e+00 -3.76829e+01        00000 
 5.94999e+00 -3.76940e+01        00000 
 6.19282e+00 -3.77054e+01        00000 
 6.43685e+00 -3.77171e+01        00000 
 6.68203e+00 -3.77290e+01        00000 
 6.92851e+00 -3.77411e+01        00000 
 7.17627e+00 -3.77535e+01        00000 
 7.42546e+00 -3.77659e+01        00000 
 7.67606e+00 -3.77786e+01        00000 
 7.92823e+00 -3.77913e+01        00000 
 8.18196e+00 -3.78041e+01        00000 
 8.43744e+00 -3.78170e+01        00000 
 8.69467e+00 -3.78298e+01        00000 
 8.95386e+00 -3.78426e+01        00000 
 9.21505e+00 -3.78553e+01        00000 
 9.47849e+00 -3.78678e+01        00000 
 9.74426e+00 -3.78800e+01        00000 
 1.00127e+01 -3.78920e+01        00000 
 1.02840e+01 -3.79034e+01        00000 
 1.05586e+01 -3.79142e+01        00000 
 1.08369e+01 -3.79242e+01        00000 
 1.11197e+01 -3.79331e+01        00000 
 1.14080e+01 -3.79405e+01        00000 
 1.17032e+01 -3.79463e+01        00000 
 1.20072e+01 -3.79503e+01        00000 
 1.23220e+01 -3.79544e+01        00000 
-1.23440e+01 -3.86219e+01        00000 
-1.20203e+01 -3.86090e+01        00000 
-1.17148e+01 -3.85932e+01        00000 
-1.14197e+01 -3.85761e+01        00000 
-1.11317e+01 -3.85587e+01        00000 
-1.08493e+01 -3.85412e+01        00000 
-1.05712e+01 -3.85238e+01        00000 
-1.02969e+01 -3.85065e+01        00000 
-1.00258e+01 -3.84892e+01        00000 
-9.75745e+00 -3.84721e+01        00000 
-9.49176e+00 -3.84551e+01        00000 
-9.22835e+00 -3.84383e+01        00000 
-8.96715e+00 -3.84215e+01        00000 
-8.70791e+00 -3.84050e+01        00000 
-8.45061e+00 -3.83886e+01        00000 
-8.19503e+00 -3.83725e+01        00000 
-7.94117e+00 -3.83565e+01        00000 
-7.68884e+00 -3.83408e+01        00000 
-7.43807e+00 -3.83253e+01        00000 
-7.18868e+00 -3.83101e+01        00000 
-6.94070e+00 -3.82953e+01        00000 
-6.69398e+00 -3.82807e+01        00000 
-6.44854e+00 -3.82665e+01        00000 
-6.20423e+00 -3.82526e+01        00000 
-5.96110e+00 -3.82391e+01        00000 
-5.71900e+00 -3.82259e+01        00000 
-5.47798e+00 -3.82132e+01        00000 
-5.23788e+00 -3.82009e+01        00000 
-4.99875e+00 -3.81890e+01        00000 
-4.76047e+00 -3.81775e+01        00000 
-4.52306e+00 -3.81666e+01        00000 
-4.28640e+00 -3.81561e+01        00000 
-4.05054e+00 -3.81460e+01        00000 
-3.81534e+00 -3.81365e+01        00000 
-3.58084e+00 -3.81275e+01        00000 
-3.34692e+00 -3.81189e+01        00000 
-3.11362e+00 -3.81110e+01        00000 
-2.88082e+00 -3.81035e+01        00000 
-2.64856e+00 -3.80966e+01        00000 
-2.41671e+00 -3.80902e+01        00000 
-2.18532e+00 -3.80844e+01        00000 
-1.95426e+00 -3.80792e+01        00000 
-1.72358e+00 -3.80745e+01        00000 
-1.49315e+00 -3.80704e+01        00000 
-1.26302e+00 -3.80669e+01        00000 
-1.03307e+00 -3.80639e+01        00000 
-8.03334e-01 -3.80616e+01        00000 
-5.73692e-01 -3.80598e+01        00000 
-3.44194e-01 -3.80586e+01        00000 
-1.14710e-01 -3.80581e+01        00000 
 1.14710e-01 -3.80581e+01        00000 
 3.44194e-01 -3.80586e+01        00000 
 5.73692e-01 -3.80598e+01        00000 
 8.03334e-01 -3.80616e+01        00000 
 1.03307e+00 -3.80639e+01        00000 
 1.26302e+00 -3.80669e+01        00000 
 1.49315e+00 -3.80704e+01        00000 
 1.72358e+00 -3.80745e+01        00000 
 1.95426e+00 -3.80792e+01        00000 
 2.18532e+00 -3.80844e+01        00000 
 2.41671e+00 -3.80902e+01        00000 
 2.64856e+00 -3.80966e+01        00000 
 2.88082e+00 -3.81035e+01        00000 
 3.11362e+00 -3.81110e+01        00000 
 3.34692e+00 -3.81189e+01        00000 
 3.58084e+00 -3.81275e+01        00000 
 3.81534e+00 -3.81365e+01        00000 
 4.05054e+00 -3.81460e+01        00000 
 4.28640e+00 -3.81561e+01        00000 
 4.52306e+00 -3.81666e+01        00000 
 4.76047e+00 -3.81775e+01        00000 
 4.99875e+00 -3.81890e+01        00000 
 5.23788e+00 -3.82009e+01        00000 
 5.47798e+00 -3.82132e+01        00000 
 5.71900e+00 -3.82259e+01        00000 
 5.96110e+00 -3.82391e+01        00000 
 6.20423e+00 -3.82526e+01        00000 
 6.44854e+00 -3.82665e+01        00000 
 6.69398e+00 -3.82807e+01        00000 
 6.94070e+00 -3.82953e+01        00000 
 7.18868e+00 -3.83101e+01        00000 
 7.43807e+00 -3.83253e+01        00000 
 7.68884e+00 -3.83408e+01        00000 
 7.94117e+00 -3.83565e+01        00000 
 8.19503e+00 -3.83725e+01        00000 
 8.45061e+00 -3.83886e+01        00000 
 8.70791e+00 -3.84050e+01        00000 
 8.96715e+00 -3.84215e+01        00000 
 9.22835e+00 -3.84383e+01        00000 
 9.49176e+00 -3.84551e+01        00000 
 9.75745e+00 -3.84721e+01        00000 
 1.00258e+01 -3.84892e+01        00000 
 1.02969e+01 -3.85065e+01        00000 
 1.05712e+01 -3.85238e+01        00000 
 1.08493e+01 -3.85412e+01        00000 
 1.11317e+01 -3.85587e+01        00000 
 1.14197e+01 -3.85761e+01        00000 
 1.17148e+01 -3.85932e+01        00000 
 1.20203e+01 -3.86090e+01        00000 
 1.23440e+01 -3.86219e+01        00000 
-1.58473e-01 -1.56845e-01        00000 
-1.24364e-01 -1.29780e-01        00000 
-1.09182e-01 -1.09917e-01        00000 
-9.97203e-02 -9.55135e-02        00000 
-9.29479e-02 -8.45414e-02        00000 
-8.76659e-02 -7.58177e-02        00000 
-8.32999e-02 -6.86480e-02        00000 
-7.95390e-02 -6.26000e-02        00000 
-7.61997e-02 -5.73976e-02        00000 
-7.31673e-02 -5.28518e-02        00000 
-7.03662e-02 -4.88325e-02        00000 
-6.77443e-02 -4.52433e-02        00000 
-6.52651e-02 -4.20139e-02        00000 
-6.29016e-02 -3.90889e-02        00000 
-6.06337e-02 -3.64263e-02        00000 
-5.84460e-02 -3.39914e-02        00000 
-5.63266e-02 -3.17570e-02        00000 
-5.42657e-02 -2.96999e-02        00000 
-5.22560e-02 -2.78014e-02        00000 
-5.02909e-02 -2.60454e-02        00000 
-4.83655e-02 -2.44183e-02        00000 
-4.64751e-02 -2.29084e-02        00000 
-4.46163e-02 -2.15056e-02        00000 
-4.27856e-02 -2.02012e-02        00000 
-4.09808e-02 -1.89875e-02        00000 
-3.91990e-02 -1.78577e-02        00000 
-3.74384e-02 -1.68058e-02        00000 
-3.56970e-02 -1.58266e-02        00000 
-3.39734e-02 -1.49153e-02        00000 
-3.22657e-02 -1.40678e-02        00000 
-3.05731e-02 -1.32803e-02        00000 
-2.88938e-02 -1.25494e-02        00000 
-2.72271e-02 -1.18721e-02        00000 
-2.55717e-02 -1.12457e-02        00000 
-2.39270e-02 -1.06677e-02        00000 
-2.22916e-02 -1.01359e-02        00000 
-2.06652e-02 -9.64840e-03        00000 
-1.90464e-02 -9.20345e-03        00000 
-1.74352e-02 -8.79931e-03        00000 
-1.58302e-02 -8.43479e-03        00000 
-1.42312e-02 -8.10840e-03        00000 
-1.26372e-02 -7.81931e-03        00000 
-1.10479e-02 -7.56626e-03        00000 
-9.46236e-03 -7.34872e-03        00000 
-7.88041e-03 -7.16567e-03        00000 
-6.30092e-03 -7.01684e-03        00000 
-4.72393e-03 -6.90142e-03        00000 
-3.14828e-03 -6.81939e-03        00000 
-1.57402e-03 -6.77013e-03        00000 
-4.25454e-15 -6.75385e-03        00000 
 1.57402e-03 -6.77013e-03        00000 
 3.14828e-03 -6.81939e-03        00000 
 4.72393e-03 -6.90142e-03        00000 
 6.30092e-03 -7.01684e-03        00000 
 7.88041e-03 -7.16567e-03        00000 
 9.46236e-03 -7.34872e-03        00000 
 1.10479e-02 -7.56626e-03        00000 
 1.26372e-02 -7.81931e-03        00000 
 1.42312e-02 -8.10840e-03        00000 
 1.58302e-02 -8.43479e-03        00000 
 1.74352e-02 -8.79931e-03        00000 
 1.90464e-02 -9.20345e-03        00000 
 2.06652e-02 -9.64840e-03        00000 
 2.22916e-02 -1.01359e-02        00000 
 2.39270e-02 -1.06677e-02        00000 
 2.55717e-02 -1.12457e-02        00000 
 2.72271e-02 -1.18721e-02        00000 
 2.88938e-02 -1.25494e-02        00000 
 3.05731e-02 -1.32803e-02        00000 
 3.22657e-02 -1.40678e-02        00000 
 3.39734e-02 -1.49153e-02        00000 
 3.56970e-02 -1.58266e-02        00000 
 3.74384e-02 -1.68058e-02        00000 
 3.91990e-02 -1.78577e-02        00000 
 4.09808e-02 -1.89875e-02        00000 
 4.27856e-02 -2.02012e-02        00000 
 4.46163e-02 -2.15056e-02        00000 
 4.64751e-02 -2.29084e-02        00000 
 4.83655e-02 -2.44183e-02        00000 
 5.02909e-02 -2.60454e-02        00000 
 5.22560e-02 -2.78014e-02        00000 
 5.42657e-02 -2.96999e-02        00000 
 5.63266e-02 -3.17570e-02        00000 
 5.84460e-02 -3.39914e-02        00000 
 6.06337e-02 -3.64263e-02        00000 
 6.29016e-02 -3.90889e-02        00000 
 6.52651e-02 -4.20139e-02        00000 
 6.77443e-02 -4.52433e-02        00000 
 7.03662e-02 -4.88325e-02        00000 
 7.31673e-02 -5.28518e-02        00000 
 7.61997e-02 -5.73976e-02        00000 
 7.95390e-02 -6.26000e-02        00000 
 8.32999e-02 -6.86480e-02        00000 
 8.76659e-02 -7.58177e-02        00000 
 9.29479e-02 -8.45414e-02        00000 
 9.97203e-02 -9.55135e-02        00000 
 1.09182e-01 -1.09917e-01        00000 
 1.24364e-01 -1.29780e-01        00000 
 1.58473e-01 -1.56845e-01        00000 
-4.91483e-01 -4.47800e-01        00000 
-4.05924e-01 -3.82102e-01        00000 
-3.55386e-01 -3.33242e-01        00000 
-3.21860e-01 -2.94966e-01        00000 
-2.97529e-01 -2.64213e-01        00000 
-2.78649e-01 -2.38905e-01        00000 
-2.63240e-01 -2.17653e-01        00000 
-2.50157e-01 -1.99485e-01        00000 
-2.38710e-01 -1.83730e-01        00000 
-2.28454e-01 -1.69897e-01        00000 
-2.19095e-01 -1.57630e-01        00000 
-2.10427e-01 -1.46658e-01        00000 
-2.02308e-01 -1.36776e-01        00000 
-1.94630e-01 -1.27821e-01        00000 
-1.87316e-01 -1.19668e-01        00000 
-1.80304e-01 -1.12211e-01        00000 
-1.73549e-01 -1.05369e-01        00000 
-1.67012e-01 -9.90693e-02        00000 
-1.60665e-01 -9.32567e-02        00000 
-1.54482e-01 -8.78799e-02        00000 
-1.48445e-01 -8.28988e-02        00000 
-1.42535e-01 -7.82762e-02        00000 
-1.36740e-01 -7.39824e-02        00000 
-1.31047e-01 -6.99891e-02        00000 
-1.25447e-01 -6.62740e-02        00000 
-1.19928e-01 -6.28153e-02        00000 
-1.14486e-01 -5.95956e-02        00000 
-1.09112e-01 -5.65979e-02        00000 
-1.03801e-01 -5.38084e-02        00000 
-9.85455e-02 -5.12137e-02        00000 
-9.33432e-02 -4.88027e-02        00000 
-8.81874e-02 -4.65648e-02        00000 
-8.30760e-02 -4.44910e-02        00000 
-7.80035e-02 -4.25727e-02        00000 
-7.29682e-02 -4.08027e-02        00000 
-6.79651e-02 -3.91741e-02        00000 
-6.29932e-02 -3.76810e-02        00000 
-5.80478e-02 -3.63180e-02        00000 
-5.31281e-02 -3.50803e-02        00000 
-4.82297e-02 -3.39634e-02        00000 
-4.33523e-02 -3.29638e-02        00000 
-3.84916e-02 -3.20779e-02        00000 
-3.36474e-02 -3.13028e-02        00000 
-2.88157e-02 -3.06361e-02        00000 
-2.39964e-02 -3.00754e-02        00000 
-1.91855e-02 -2.96192e-02        00000 
-1.43831e-02 -2.92657e-02        00000 
-9.58533e-03 -2.90142e-02        00000 
-4.79221e-03 -2.88634e-02        00000 
-1.25507e-14 -2.88134e-02        00000 
 4.79221e-03 -2.88634e-02        00000 
 9.58533e-03 -2.90142e-02        00000 
 1.43831e-02 -2.92657e-02        00000 
 1.91855e-02 -2.96192e-02        00000 
 2.39964e-02 -3.00754e-02        00000 
 2.88157e-02 -3.06361e-02        00000 
 3.36474e-02 -3.13028e-02        00000 
 3.84916e-02 -3.20779e-02        00000 
 4.33523e-02 -3.29638e-02        00000 
 4.82297e-02 -3.39634e-02        00000 
 5.31281e-02 -3.50803e-02        00000 
 5.80478e-02 -3.63180e-02        00000 
 6.29932e-02 -3.76810e-02        00000 
 6.79651e-02 -3.91741e-02        00000 
 7.29682e-02 -4.08027e-02        00000 
 7.80035e-02 -4.25727e-02        00000 
 8.30760e-02 -4.44910e-02        00000 
 8.81874e-02 -4.65648e-02        00000 
 9.33432e-02 -4.88027e-02        00000 
 9.85455e-02 -5.12137e-02        00000 
 1.03801e-01 -5.38084e-02        00000 
 1.09112e-01 -5.65979e-02        00000 
 1.14486e-01 -5.95956e-02        00000 
 1.19928e-01 -6.28153e-02        00000 
 1.25447e-01 -6.62740e-02        00000 
 1.31047e-01 -6.99891e-02        00000 
 1.36740e-01 -7.39824e-02        00000 
 1.42535e-01 -7.82762e-02        00000 
 1.48445e-01 -8.28988e-02        00000 
 1.54482e-01 -8.78799e-02        00000 
 1.60665e-01 -9.32567e-02        00000 
 1.67012e-01 -9.90693e-02        00000 
 1.73549e-01 -1.05369e-01        00000 
 1.80304e-01 -1.12211e-01        00000 
 1.87316e-01 -1.19668e-01        00000 
 1.94630e-01 -1.27821e-01        00000 
 2.02308e-01 -1.36776e-01        00000 
 2.10427e-01 -1.46658e-01        00000 
 2.19095e-01 -1.57630e-01        00000 
 2.28454e-01 -1.69897e-01        00000 
 2.38710e-01 -1.83730e-01        00000 
 2.50157e-01 -1.99485e-01        00000 
 2.63240e-01 -2.17653e-01        00000 
 2.78649e-01 -2.38905e-01        00000 
 2.97529e-01 -2.64213e-01        00000 
 3.21860e-01 -2.94966e-01        00000 
 3.55386e-01 -3.33242e-01        00000 
 4.05924e-01 -3.82102e-01        00000 
 4.91483e-01 -4.47800e-01        00000 
-7.56911e-01 -6.54126e-01        00000 
-6.77169e-01 -5.96962e-01        00000 
-6.11214e-01 -5.41624e-01        00000 
-5.59838e-01 -4.92520e-01        00000 
-5.19223e-01 -4.49712e-01        00000 
-4.86190e-01 -4.12473e-01        00000 
-4.58556e-01 -3.79976e-01        00000 
-4.34822e-01 -3.51432e-01        00000 
-4.13980e-01 -3.26200e-01        00000 
-3.95319e-01 -3.03734e-01        00000 
-3.78345e-01 -2.83612e-01        00000 
-3.62694e-01 -2.65478e-01        00000 
-3.48107e-01 -2.49056e-01        00000 
-3.34381e-01 -2.34111e-01        00000 
-3.21369e-01 -2.20460e-01        00000 
-3.08950e-01 -2.07943e-01        00000 
-2.97038e-01 -1.96434e-01        00000 
-2.85555e-01 -1.85821e-01        00000 
-2.74445e-01 -1.76015e-01        00000 
-2.63658e-01 -1.66934e-01        00000 
-2.53156e-01 -1.58514e-01        00000 
-2.42904e-01 -1.50693e-01        00000 
-2.32876e-01 -1.43423e-01        00000 
-2.23045e-01 -1.36657e-01        00000 
-2.13395e-01 -1.30360e-01        00000 
-2.03903e-01 -1.24493e-01        00000 
-1.94559e-01 -1.19030e-01        00000 
-1.85345e-01 -1.13941e-01        00000 
-1.76252e-01 -1.09204e-01        00000 
-1.67266e-01 -1.04795e-01        00000 
-1.58382e-01 -1.00698e-01        00000 
-1.49586e-01 -9.68934e-02        00000 
-1.40875e-01 -9.33670e-02        00000 
-1.32238e-01 -9.01038e-02        00000 
-1.23672e-01 -8.70924e-02        00000 
-1.15166e-01 -8.43207e-02        00000 
-1.06719e-01 -8.17792e-02        00000 
-9.83227e-02 -7.94585e-02        00000 
-8.99743e-02 -7.73508e-02        00000 
-8.16664e-02 -7.54486e-02        00000 
-7.33975e-02 -7.37457e-02        00000 
-6.51604e-02 -7.22364e-02        00000 
-5.69539e-02 -7.09158e-02        00000 
-4.87711e-02 -6.97795e-02        00000 
-4.06112e-02 -6.88241e-02        00000 
-3.24673e-02 -6.80464e-02        00000 
-2.43391e-02 -6.74440e-02        00000 
-1.62198e-02 -6.70151e-02        00000 
-8.10895e-03 -6.67582e-02        00000 
-2.04201e-14 -6.66728e-02        00000 
 8.10895e-03 -6.67582e-02        00000 
 1.62198e-02 -6.70151e-02        00000 
 2.43391e-02 -6.74440e-02        00000 
 3.24673e-02 -6.80464e-02        00000 
 4.06112e-02 -6.88241e-02        00000 
 4.87711e-02 -6.97795e-02        00000 
 5.69539e-02 -7.09158e-02        00000 
 6.51604e-02 -7.22364e-02        00000 
 7.33975e-02 -7.37457e-02        00000 
 8.16664e-02 -7.54486e-02        00000 
 8.99743e-02 -7.73508e-02        00000 
 9.83227e-02 -7.94585e-02        00000 
 1.06719e-01 -8.17792e-02        00000 
 1.15166e-01 -8.43207e-02        00000 
 1.23672e-01 -8.70924e-02        00000 
 1.32238e-01 -9.01038e-02        00000 
 1.40875e-01 -9.33670e-02        00000 
 1.49586e-01 -9.68934e-02        00000 
 1.58382e-01 -1.00698e-01        00000 
 1.67266e-01 -1.04795e-01        00000 
 1.76252e-01 -1.09204e-01        00000 
 1.85345e-01 -1.13941e-01        00000 
 1.94559e-01 -1.19030e-01        00000 
 2.03903e-01 -1.24493e-01        00000 
 2.13395e-01 -1.30360e-01        00000 
 2.23045e-01 -1.36657e-01        00000 
 2.32876e-01 -1.43423e-01        00000 
 2.42904e-01 -1.50693e-01        00000 
 2.53156e-01 -1.58514e-01        00000 
 2.63658e-01 -1.66934e-01        00000 
 2.74445e-01 -1.76015e-01        00000 
 2.85555e-01 -1.85821e-01        00000 
 2.97038e-01 -1.96434e-01        00000 
 3.08950e-01 -2.07943e-01        00000 
 3.21369e-01 -2.20460e-01        00000 
 3.34381e-01 -2.34111e-01        00000 
 3.48107e-01 -2.49056e-01        00000 
 3.62694e-01 -2.65478e-01        00000 
 3.78345e-01 -2.83612e-01        00000 
 3.95319e-01 -3.03734e-01        00000 
 4.13980e-01 -3.26200e-01        00000 
 4.34822e-01 -3.51432e-01        00000 
 4.58556e-01 -3.79976e-01        00000 
 4.86190e-01 -4.12473e-01        00000 
 5.19223e-01 -4.49712e-01        00000 
 5.59838e-01 -4.92520e-01        00000 
 6.11214e-01 -5.41624e-01        00000 
 6.77169e-01 -5.96962e-01        00000 
 7.56911e-01 -6.54126e-01        00000 
-1.00078e+00 -8.30921e-01        00000 
-9.24202e-01 -7.77216e-01        00000 
-8.56011e-01 -7.24321e-01        00000 
-7.96425e-01 -6.73633e-01        00000 
-7.45184e-01 -6.26517e-01        00000 
-7.01026e-01 -5.83380e-01        00000 
-6.62617e-01 -5.44193e-01        00000 
-6.28770e-01 -5.08677e-01        00000 
-5.98559e-01 -4.76502e-01        00000 
-5.71238e-01 -4.47297e-01        00000 
-5.46252e-01 -4.20738e-01        00000 
-5.23154e-01 -3.96512e-01        00000 
-5.01612e-01 -3.74359e-01        00000 
-4.81355e-01 -3.54041e-01        00000 
-4.62180e-01 -3.35365e-01        00000 
-4.43914e-01 -3.18149e-01        00000 
-4.26429e-01 -3.02252e-01        00000 
-4.09611e-01 -2.87539e-01        00000 
-3.93378e-01 -2.73902e-01        00000 
-3.77649e-01 -2.61241e-01        00000 
-3.62369e-01 -2.49474e-01        00000 
-3.47482e-01 -2.38523e-01        00000 
-3.32947e-01 -2.28326e-01        00000 
-3.18724e-01 -2.18823e-01        00000 
-3.04785e-01 -2.09965e-01        00000 
-2.91096e-01 -2.01704e-01        00000 
-2.77639e-01 -1.94002e-01        00000 
-2.64386e-01 -1.86821e-01        00000 
-2.51324e-01 -1.80130e-01        00000 
-2.38431e-01 -1.73899e-01        00000 
-2.25696e-01 -1.68104e-01        00000 
-2.13101e-01 -1.62719e-01        00000 
-2.00637e-01 -1.57725e-01        00000 
-1.88289e-01 -1.53101e-01        00000 
-1.76052e-01 -1.48832e-01        00000 
-1.63909e-01 -1.44900e-01        00000 
-1.51859e-01 -1.41294e-01        00000 
-1.39886e-01 -1.38000e-01        00000 
-1.27988e-01 -1.35007e-01        00000 
-1.16154e-01 -1.32305e-01        00000 
-1.04380e-01 -1.29885e-01        00000 
-9.26551e-02 -1.27740e-01        00000 
-8.09779e-02 -1.25863e-01        00000 
-6.93376e-02 -1.24248e-01        00000 
-5.77326e-02 -1.22889e-01        00000 
-4.61527e-02 -1.21783e-01        00000 
-3.45968e-02 -1.20926e-01        00000 
-2.30548e-02 -1.20316e-01        00000 
-1.15259e-02 -1.19951e-01        00000 
-2.77680e-14 -1.19829e-01        00000 
 1.15259e-02 -1.19951e-01        00000 
 2.30548e-02 -1.20316e-01        00000 
 3.45968e-02 -1.20926e-01        00000 
 4.61527e-02 -1.21783e-01        00000 
 5.77326e-02 -1.22889e-01        00000 
 6.93376e-02 -1.24248e-01        00000 
 8.09779e-02 -1.25863e-01        00000 
 9.26551e-02 -1.27740e-01        00000 
 1.04380e-01 -1.29885e-01        00000 
 1.16154e-01 -1.32305e-01        00000 
 1.27988e-01 -1.35007e-01        00000 
 1.39886e-01 -1.38000e-01        00000 
 1.51859e-01 -1.41294e-01        00000 
 1.63909e-01 -1.44900e-01        00000 
 1.76052e-01 -1.48832e-01        00000 
 1.88289e-01 -1.53101e-01        00000 
 2.00637e-01 -1.57725e-01        00000 
 2.13101e-01 -1.62719e-01        00000 
 2.25696e-01 -1.68104e-01        00000 
 2.38431e-01 -1.73899e-01        00000 
 2.51324e-01 -1.80130e-01        00000 
 2.64386e-01 -1.86821e-01        00000 
 2.77639e-01 -1.94002e-01        00000 
 2.91096e-01 -2.01704e-01        00000 
 3.04785e-01 -2.09965e-01        00000 
 3.18724e-01 -2.18823e-01        00000 
 3.32947e-01 -2.28326e-01        00000 
 3.47482e-01 -2.38523e-01        00000 
 3.62369e-01 -2.49474e-01        00000 
 3.77649e-01 -2.61241e-01        00000 
 3.93378e-01 -2.73902e-01        00000 
 4.09611e-01 -2.87539e-01        00000 
 4.26429e-01 -3.02252e-01        00000 
 4.43914e-01 -3.18149e-01        00000 
 4.62180e-01 -3.35365e-01        00000 
 4.81355e-01 -3.54041e-01        00000 
 5.01612e-01 -3.74359e-01        00000 
 5.23154e-01 -3.96512e-01        00000 
 5.46252e-01 -4.20738e-01        00000 
 5.71238e-01 -4.47297e-01        00000 
 5.98559e-01 -4.76502e-01        00000 
 6.28770e-01 -5.08677e-01        00000 
 6.62617e-01 -5.44193e-01        00000 
 7.01026e-01 -5.83380e-01        00000 
 7.45184e-01 -6.26517e-01        00000 
 7.96425e-01 -6.73633e-01        00000 
 8.56011e-01 -7.24321e-01        00000 
 9.24202e-01 -7.77216e-01        00000 
 1.00078e+00 -8.30921e-01        00000 
-1.23259e+00 -9.93677e-01        00000 
-1.15806e+00 -9.42187e-01        00000 
-1.08878e+00 -8.91102e-01        00000 
-1.02535e+00 -8.41270e-01        00000 
-9.67849e-01 -7.93442e-01        00000 
-9.15982e-01 -7.48176e-01        00000 
-8.69208e-01 -7.05787e-01        00000 
-8.26838e-01 -6.66337e-01        00000 
-7.88241e-01 -6.29780e-01        00000 
-7.52818e-01 -5.95959e-01        00000 
-7.20082e-01 -5.64705e-01        00000 
-6.89602e-01 -5.35810e-01        00000 
-6.61043e-01 -5.09089e-01        00000 
-6.34108e-01 -4.84346e-01        00000 
-6.08572e-01 -4.61419e-01        00000 
-5.84229e-01 -4.40140e-01        00000 
-5.60928e-01 -4.20376e-01        00000 
-5.38525e-01 -4.01992e-01        00000 
-5.16917e-01 -3.84880e-01        00000 
-4.96001e-01 -3.68932e-01        00000 
-4.75703e-01 -3.54062e-01        00000 
-4.55949e-01 -3.40183e-01        00000 
-4.36686e-01 -3.27228e-01        00000 
-4.17857e-01 -3.15127e-01        00000 
-3.99425e-01 -3.03825e-01        00000 
-3.81345e-01 -2.93266e-01        00000 
-3.63588e-01 -2.83406e-01        00000 
-3.46120e-01 -2.74199e-01        00000 
-3.28919e-01 -2.65611e-01        00000 
-3.11955e-01 -2.57602e-01        00000 
-2.95213e-01 -2.50146e-01        00000 
-2.78669e-01 -2.43211e-01        00000 
-2.62309e-01 -2.36774e-01        00000 
-2.46113e-01 -2.30809e-01        00000 
-2.30071e-01 -2.25297e-01        00000 
-2.14164e-01 -2.20219e-01        00000 
-1.98385e-01 -2.15558e-01        00000 
-1.82716e-01 -2.11297e-01        00000 
-1.67152e-01 -2.07425e-01        00000 
-1.51677e-01 -2.03927e-01        00000 
-1.36286e-01 -2.00794e-01        00000 
-1.20966e-01 -1.98015e-01        00000 
-1.05711e-01 -1.95582e-01        00000 
-9.05085e-02 -1.93488e-01        00000 
-7.53553e-02 -1.91727e-01        00000 
-6.02376e-02 -1.90293e-01        00000 
-4.51532e-02 -1.89182e-01        00000 
-3.00886e-02 -1.88390e-01        00000 
-1.50420e-02 -1.87917e-01        00000 
-3.43648e-14 -1.87759e-01        00000 
 1.50420e-02 -1.87917e-01        00000 
 3.00886e-02 -1.88390e-01        00000 
 4.51532e-02 -1.89182e-01        00000 
 6.02376e-02 -1.90293e-01        00000 
 7.53553e-02 -1.91727e-01        00000 
 9.05085e-02 -1.93488e-01        00000 
 1.05711e-01 -1.95582e-01        00000 
 1.20966e-01 -1.98015e-01        00000 
 1.36286e-01 -2.00794e-01        00000 
 1.51677e-01 -2.03927e-01        00000 
 1.67152e-01 -2.07425e-01        00000 
 1.82716e-01 -2.11297e-01        00000 
 1.98385e-01 -2.15558e-01        00000 
 2.14164e-01 -2.20219e-01        00000 
 2.30071e-01 -2.25297e-01        00000 
 2.46113e-01 -2.30809e-01        00000 
 2.62309e-01 -2.36774e-01        00000 
 2.78669e-01 -2.43211e-01        00000 
 2.95213e-01 -2.50146e-01        00000 
 3.11955e-01 -2.57602e-01        00000 
 3.28919e-01 -2.65611e-01        00000 
 3.46120e-01 -2.74199e-01        00000 
 3.63588e-01 -2.83406e-01        00000 
 3.81345e-01 -2.93266e-01        00000 
 3.99425e-01 -3.03825e-01        00000 
 4.17857e-01 -3.15127e-01        00000 
 4.36686e-01 -3.27228e-01        00000 
 4.55949e-01 -3.40183e-01        00000 
 4.75703e-01 -3.54062e-01        00000 
 4.96001e-01 -3.68932e-01        00000 
 5.16917e-01 -3.84880e-01        00000 
 5.38525e-01 -4.01992e-01        00000 
 5.60928e-01 -4.20376e-01        00000 
 5.84229e-01 -4.40140e-01        00000 
 6.08572e-01 -4.61419e-01        00000 
 6.34108e-01 -4.84346e-01        00000 
 6.61043e-01 -5.09089e-01        00000 
 6.89602e-01 -5.35810e-01        00000 
 7.20082e-01 -5.64705e-01        00000 
 7.52818e-01 -5.95959e-01        00000 
 7.88241e-01 -6.29780e-01        00000 
 8.26838e-01 -6.66337e-01        00000 
 8.69208e-01 -7.05787e-01        00000 
 9.15982e-01 -7.48176e-01        00000 
 9.67849e-01 -7.93442e-01        00000 
 1.02535e+00 -8.41270e-01        00000 
 1.08878e+00 -8.91102e-01        00000 
 1.15806e+00 -9.42187e-01        00000 
 1.23259e+00 -9.93677e-01        00000 
-1.45720e+00 -1.14989e+00        00000 
-1.38324e+00 -1.09986e+00        00000 
-1.31297e+00 -1.05020e+00        00000 
-1.24683e+00 -1.00139e+00        00000 
-1.18510e+00 -9.53940e-01        00000 
-1.12774e+00 -9.08233e-01        00000 
-1.07460e+00 -8.64604e-01        00000 
-1.02534e+00 -8.23227e-01        00000 
-9.79615e-01 -7.84203e-01        00000 
-9.37010e-01 -7.47519e-01        00000 
-8.97171e-01 -7.13132e-01        00000 
-8.59741e-01 -6.80939e-01        00000 
-8.24430e-01 -6.50838e-01        00000 
-7.90958e-01 -6.22695e-01        00000 
-7.59109e-01 -5.96396e-01        00000 
-7.28672e-01 -5.71808e-01        00000 
-6.99489e-01 -5.48822e-01        00000 
-6.71402e-01 -5.27319e-01        00000 
-6.44297e-01 -5.07204e-01        00000 
-6.18054e-01 -4.88375e-01        00000 
-5.92591e-01 -4.70750e-01        00000 
-5.67816e-01 -4.54243e-01        00000 
-5.43669e-01 -4.38786e-01        00000 
-5.20077e-01 -4.24309e-01        00000 
-4.96997e-01 -4.10754e-01        00000 
-4.74370e-01 -3.98062e-01        00000 
-4.52164e-01 -3.86186e-01        00000 
-4.30332e-01 -3.75078e-01        00000 
-4.08849e-01 -3.64698e-01        00000 
-3.87675e-01 -3.55005e-01        00000 
-3.66792e-01 -3.45968e-01        00000 
-3.46166e-01 -3.37552e-01        00000 
-3.25783e-01 -3.29731e-01        00000 
-3.05613e-01 -3.22478e-01        00000 
-2.85646e-01 -3.15769e-01        00000 
-2.65855e-01 -3.09582e-01        00000 
-2.46233e-01 -3.03900e-01        00000 
-2.26755e-01 -2.98702e-01        00000 
-2.07415e-01 -2.93975e-01        00000 
-1.88192e-01 -2.89702e-01        00000 
-1.69081e-01 -2.85874e-01        00000 
-1.50060e-01 -2.82476e-01        00000 
-1.31127e-01 -2.79501e-01        00000 
-1.12262e-01 -2.76939e-01        00000 
-9.34615e-02 -2.74784e-01        00000 
-7.47079e-02 -2.73028e-01        00000 
-5.59981e-02 -2.71668e-01        00000 
-3.73143e-02 -2.70699e-01        00000 
-1.86541e-02 -2.70119e-01        00000 
-3.99768e-14 -2.69926e-01        00000 
 1.86541e-02 -2.70119e-01        00000 
 3.73143e-02 -2.70699e-01        00000 
 5.59981e-02 -2.71668e-01        00000 
 7.47079e-02 -2.73028e-01        00000 
 9.34615e-02 -2.74784e-01        00000 
 1.12262e-01 -2.76939e-01        00000 
 1.31127e-01 -2.79501e-01        00000 
 1.50060e-01 -2.82476e-01        00000 
 1.69081e-01 -2.85874e-01        00000 
 1.88192e-01 -2.89702e-01        00000 
 2.07415e-01 -2.93975e-01        00000 
 2.26755e-01 -2.98702e-01        00000 
 2.46233e-01 -3.03900e-01        00000 
 2.65855e-01 -3.09582e-01        00000 
 2.85646e-01 -3.15769e-01        00000 
 3.05613e-01 -3.22478e-01        00000 
 3.25783e-01 -3.29731e-01        00000 
 3.46166e-01 -3.37552e-01        00000 
 3.66792e-01 -3.45968e-01        00000 
 3.87675e-01 -3.55005e-01        00000 
 4.08849e-01 -3.64698e-01        00000 
 4.30332e-01 -3.75078e-01        00000 
 4.52164e-01 -3.86186e-01        00000 
 4.74370e-01 -3.98062e-01        00000 
 4.96997e-01 -4.10754e-01        00000 
 5.20077e-01 -4.24309e-01        00000 
 5.43669e-01 -4.38786e-01        00000 
 5.67816e-01 -4.54243e-01        00000 
 5.92591e-01 -4.70750e-01        00000 
 6.18054e-01 -4.88375e-01        00000 
 6.44297e-01 -5.07204e-01        00000 
 6.71402e-01 -5.27319e-01        00000 
 6.99489e-01 -5.48822e-01        00000 
 7.28672e-01 -5.71808e-01        00000 
 7.59109e-01 -5.96396e-01        00000 
 7.90958e-01 -6.22695e-01        00000 
 8.24430e-01 -6.50838e-01        00000 
 8.59741e-01 -6.80939e-01        00000 
 8.97171e-01 -7.13132e-01        00000 
 9.37010e-01 -7.47519e-01        00000 
 9.79615e-01 -7.84203e-01        00000 
 1.02534e+00 -8.23227e-01        00000 
 1.07460e+00 -8.64604e-01        00000 
 1.12774e+00 -9.08233e-01        00000 
 1.18510e+00 -9.53940e-01        00000 
 1.24683e+00 -1.00139e+00        00000 
 1.31297e+00 -1.05020e+00        00000 
 1.38324e+00 -1.09986e+00        00000 
 1.45720e+00 -1.14989e+00        00000 
-1.67682e+00 -1.30379e+00        00000 
-1.60242e+00 -1.25481e+00        00000 
-1.53077e+00 -1.20626e+00        00000 
-1.46223e+00 -1.15841e+00        00000 
-1.39708e+00 -1.11159e+00        00000 
-1.33538e+00 -1.06609e+00        00000 
-1.27715e+00 -1.02217e+00        00000 
-1.22224e+00 -9.80007e-01        00000 
-1.17048e+00 -9.39741e-01        00000 
-1.12162e+00 -9.01427e-01        00000 
-1.07542e+00 -8.65099e-01        00000 
-1.03162e+00 -8.30726e-01        00000 
-9.89999e-01 -7.98273e-01        00000 
-9.50310e-01 -7.67663e-01        00000 
-9.12371e-01 -7.38830e-01        00000 
-8.75983e-01 -7.11678e-01        00000 
-8.40999e-01 -6.86133e-01        00000 
-8.07259e-01 -6.62098e-01        00000 
-7.74650e-01 -6.39497e-01        00000 
-7.43046e-01 -6.18242e-01        00000 
-7.12359e-01 -5.98263e-01        00000 
-6.82489e-01 -5.79481e-01        00000 
-6.53370e-01 -5.61835e-01        00000 
-6.24919e-01 -5.45255e-01        00000 
-5.97088e-01 -5.29690e-01        00000 
-5.69809e-01 -5.15078e-01        00000 
-5.43045e-01 -5.01375e-01        00000 
-5.16738e-01 -4.88530e-01        00000 
-4.90861e-01 -4.76506e-01        00000 
-4.65366e-01 -4.65258e-01        00000 
-4.40230e-01 -4.54755e-01        00000 
-4.15413e-01 -4.44960e-01        00000 
-3.90898e-01 -4.35846e-01        00000 
-3.66648e-01 -4.27382e-01        00000 
-3.42650e-01 -4.19546e-01        00000 
-3.18873e-01 -4.12312e-01        00000 
-2.95304e-01 -4.05662e-01        00000 
-2.71917e-01 -3.99575e-01        00000 
-2.48703e-01 -3.94034e-01        00000 
-2.25634e-01 -3.89024e-01        00000 
-2.02704e-01 -3.84531e-01        00000 
-1.79889e-01 -3.80542e-01        00000 
-1.57182e-01 -3.77048e-01        00000 
-1.34562e-01 -3.74037e-01        00000 
-1.12022e-01 -3.71504e-01        00000 
-8.95408e-02 -3.69440e-01        00000 
-6.71143e-02 -3.67840e-01        00000 
-4.47207e-02 -3.66700e-01        00000 
-2.23564e-02 -3.66017e-01        00000 
-4.48124e-14 -3.65790e-01        00000 
 2.23564e-02 -3.66017e-01        00000 
 4.47207e-02 -3.66700e-01        00000 
 6.71143e-02 -3.67840e-01        00000 
 8.95408e-02 -3.69440e-01        00000 
 1.12022e-01 -3.71504e-01        00000 
 1.34562e-01 -3.74037e-01        00000 
 1.57182e-01 -3.77048e-01        00000 
 1.79889e-01 -3.80542e-01        00000 
 2.02704e-01 -3.84531e-01        00000 
 2.25634e-01 -3.89024e-01        00000 
 2.48703e-01 -3.94034e-01        00000 
 2.71917e-01 -3.99575e-01        00000 
 2.95304e-01 -4.05662e-01        00000 
 3.18873e-01 -4.12312e-01        00000 
 3.42650e-01 -4.19546e-01        00000 
 3.66648e-01 -4.27382e-01        00000 
 3.90898e-01 -4.35846e-01        00000 
 4.15413e-01 -4.44960e-01        00000 
 4.40230e-01 -4.54755e-01        00000 
 4.65366e-01 -4.65258e-01        00000 
 4.90861e-01 -4.76506e-01        00000 
 5.16738e-01 -4.88530e-01        00000 
 5.43045e-01 -5.01375e-01        00000 
 5.69809e-01 -5.15078e-01        00000 
 5.97088e-01 -5.29690e-01        00000 
 6.24919e-01 -5.45255e-01        00000 
 6.53370e-01 -5.61835e-01        00000 
 6.82489e-01 -5.79481e-01        00000 
 7.12359e-01 -5.98263e-01        00000 
 7.43046e-01 -6.18242e-01        00000 
 7.74650e-01 -6.39497e-01        00000 
 8.07259e-01 -6.62098e-01        00000 
 8.40999e-01 -6.86133e-01        00000 
 8.75983e-01 -7.11678e-01        00000 
 9.12371e-01 -7.38830e-01        00000 
 9.50310e-01 -7.67663e-01        00000 
 9.89999e-01 -7.98273e-01        00000 
 1.03162e+00 -8.30726e-01        00000 
 1.07542e+00 -8.65099e-01        00000 
 1.12162e+00 -9.01427e-01        00000 
 1.17048e+00 -9.39741e-01        00000 
 1.22224e+00 -9.80007e-01        00000 
 1.27715e+00 -1.02217e+00        00000 
 1.33538e+00 -1.06609e+00        00000 
 1.39708e+00 -1.11159e+00        00000 
 1.46223e+00 -1.15841e+00        00000 
 1.53077e+00 -1.20626e+00        00000 
 1.60242e+00 -1.25481e+00        00000 
 1.67682e+00 -1.30379e+00        00000 
-1.89273e+00 -1.45810e+00        00000 
-1.81711e+00 -1.40994e+00        00000 
-1.74367e+00 -1.36226e+00        00000 
-1.67270e+00 -1.31525e+00        00000 
-1.60442e+00 -1.26912e+00        00000 
-1.53896e+00 -1.22406e+00        00000 
-1.47638e+00 -1.18029e+00        00000 
-1.41663e+00 -1.13794e+00        00000 
-1.35965e+00 -1.09715e+00        00000 
-1.30528e+00 -1.05801e+00        00000 
-1.25340e+00 -1.02057e+00        00000 
-1.20381e+00 -9.84841e-01        00000 
-1.15635e+00 -9.50841e-01        00000 
-1.11084e+00 -9.18529e-01        00000 
-1.06712e+00 -8.87879e-01        00000 
-1.02502e+00 -8.58830e-01        00000 
-9.84408e-01 -8.31335e-01        00000 
-9.45142e-01 -8.05323e-01        00000 
-9.07113e-01 -7.80742e-01        00000 
-8.70195e-01 -7.57518e-01        00000 
-8.34303e-01 -7.35598e-01        00000 
-7.99334e-01 -7.14912e-01        00000 
-7.65219e-01 -6.95409e-01        00000 
-7.31872e-01 -6.77027e-01        00000 
-6.99239e-01 -6.59719e-01        00000 
-6.67248e-01 -6.43429e-01        00000 
-6.35856e-01 -6.28115e-01        00000 
-6.05003e-01 -6.13728e-01        00000 
-5.74654e-01 -6.00232e-01        00000 
-5.44757e-01 -5.87585e-01        00000 
-5.15285e-01 -5.75755e-01        00000 
-4.86192e-01 -5.64705e-01        00000 
-4.57458e-01 -5.54408e-01        00000 
-4.29041e-01 -5.44834e-01        00000 
-4.00926e-01 -5.35960e-01        00000 
-3.73074e-01 -5.27759e-01        00000 
-3.45473e-01 -5.20212e-01        00000 
-3.18090e-01 -5.13297e-01        00000 
-2.90914e-01 -5.06999e-01        00000 
-2.63913e-01 -5.01299e-01        00000 
-2.37080e-01 -4.96185e-01        00000 
-2.10385e-01 -4.91642e-01        00000 
-1.83821e-01 -4.87659e-01        00000 
-1.57360e-01 -4.84227e-01        00000 
-1.30997e-01 -4.81338e-01        00000 
-1.04705e-01 -4.78983e-01        00000 
-7.84789e-02 -4.77158e-01        00000 
-5.22926e-02 -4.75857e-01        00000 
-2.61414e-02 -4.75078e-01        00000 
-4.83281e-14 -4.74818e-01        00000 
 2.61414e-02 -4.75078e-01        00000 
 5.22926e-02 -4.75857e-01        00000 
 7.84789e-02 -4.77158e-01        00000 
 1.04705e-01 -4.78983e-01        00000 
 1.30997e-01 -4.81338e-01        00000 
 1.57360e-01 -4.84227e-01        00000 
 1.83821e-01 -4.87659e-01        00000 
 2.10385e-01 -4.91642e-01        00000 
 2.37080e-01 -4.96185e-01        00000 
 2.63913e-01 -5.01299e-01        00000 
 2.90914e-01 -5.06999e-01        00000 
 3.18090e-01 -5.13297e-01        00000 
 3.45473e-01 -5.20212e-01        00000 
 3.73074e-01 -5.27759e-01        00000 
 4.00926e-01 -5.35960e-01        00000 
 4.29041e-01 -5.44834e-01        00000 
 4.57458e-01 -5.54408e-01        00000 
 4.86192e-01 -5.64705e-01        00000 
 5.15285e-01 -5.75755e-01        00000 
 5.44757e-01 -5.87585e-01        00000 
 5.74654e-01 -6.00232e-01        00000 
 6.05003e-01 -6.13728e-01        00000 
 6.35856e-01 -6.28115e-01        00000 
 6.67248e-01 -6.43429e-01        00000 
 6.99239e-01 -6.59719e-01        00000 
 7.31872e-01 -6.77027e-01        00000 
 7.65219e-01 -6.95409e-01        00000 
 7.99334e-01 -7.14912e-01        00000 
 8.34303e-01 -7.35598e-01        00000 
 8.70195e-01 -7.57518e-01        00000 
 9.07113e-01 -7.80742e-01        00000 
 9.45142e-01 -8.05323e-01        00000 
 9.84408e-01 -8.31335e-01        00000 
 1.02502e+00 -8.58830e-01        00000 
 1.06712e+00 -8.87879e-01        00000 
 1.11084e+00 -9.18529e-01        00000 
 1.15635e+00 -9.50841e-01        00000 
 1.20381e+00 -9.84841e-01        00000 
 1.25340e+00 -1.02057e+00        00000 
 1.30528e+00 -1.05801e+00        00000 
 1.35965e+00 -1.09715e+00        00000 
 1.41663e+00 -1.13794e+00        00000 
 1.47638e+00 -1.18029e+00        00000 
 1.53896e+00 -1.22406e+00        00000 
 1.60442e+00 -1.26912e+00        00000 
 1.67270e+00 -1.31525e+00        00000 
 1.74367e+00 -1.36226e+00        00000 
 1.81711e+00 -1.40994e+00        00000 
 1.89273e+00 -1.45810e+00        00000 
-2.10568e+00 -1.61469e+00        00000 
-2.02826e+00 -1.56719e+00        00000 
-1.95266e+00 -1.52025e+00        00000 
-1.87909e+00 -1.47396e+00        00000 
-1.80777e+00 -1.42849e+00        00000 
-1.73880e+00 -1.38396e+00        00000 
-1.67228e+00 -1.34053e+00        00000 
-1.60819e+00 -1.29831e+00        00000 
-1.54654e+00 -1.25742e+00        00000 
-1.48723e+00 -1.21793e+00        00000 
-1.43020e+00 -1.17993e+00        00000 
-1.37532e+00 -1.14343e+00        00000 
-1.32247e+00 -1.10848e+00        00000 
-1.27152e+00 -1.07505e+00        00000 
-1.22235e+00 -1.04316e+00        00000 
-1.17482e+00 -1.01276e+00        00000 
-1.12881e+00 -9.83842e-01        00000 
-1.08420e+00 -9.56346e-01        00000 
-1.04089e+00 -9.30242e-01        00000 
-9.98767e-01 -9.05474e-01        00000 
-9.57747e-01 -8.82004e-01        00000 
-9.17728e-01 -8.59774e-01        00000 
-8.78647e-01 -8.38744e-01        00000 
-8.40412e-01 -8.18861e-01        00000 
-8.02973e-01 -8.00085e-01        00000 
-7.66251e-01 -7.82366e-01        00000 
-7.30205e-01 -7.65669e-01        00000 
-6.94766e-01 -7.49946e-01        00000 
-6.59901e-01 -7.35167e-01        00000 
-6.25550e-01 -7.21290e-01        00000 
-5.91687e-01 -7.08287e-01        00000 
-5.58258e-01 -6.96122e-01        00000 
-5.25243e-01 -6.84769e-01        00000 
-4.92593e-01 -6.74199e-01        00000 
-4.60292e-01 -6.64388e-01        00000 
-4.28297e-01 -6.55312e-01        00000 
-3.96593e-01 -6.46951e-01        00000 
-3.65143e-01 -6.39282e-01        00000 
-3.33933e-01 -6.32292e-01        00000 
-3.02928e-01 -6.25961e-01        00000 
-2.72118e-01 -6.20276e-01        00000 
-2.41470e-01 -6.15223e-01        00000 
-2.10975e-01 -6.10791e-01        00000 
-1.80601e-01 -6.06971e-01        00000 
-1.50341e-01 -6.03752e-01        00000 
-1.20164e-01 -6.01129e-01        00000 
-9.00645e-02 -5.99094e-01        00000 
-6.00118e-02 -5.97644e-01        00000 
-3.00001e-02 -5.96776e-01        00000 
-5.06687e-14 -5.96487e-01        00000 
 3.00001e-02 -5.96776e-01        00000 
 6.00118e-02 -5.97644e-01        00000 
 9.00645e-02 -5.99094e-01        00000 
 1.20164e-01 -6.01129e-01        00000 
 1.50341e-01 -6.03752e-01        00000 
 1.80601e-01 -6.06971e-01        00000 
 2.10975e-01 -6.10791e-01        00000 
 2.41470e-01 -6.15223e-01        00000 
 2.72118e-01 -6.20276e-01        00000 
 3.02928e-01 -6.25961e-01        00000 
 3.33933e-01 -6.32292e-01        00000 
 3.65143e-01 -6.39282e-01        00000 
 3.96593e-01 -6.46951e-01        00000 
 4.28297e-01 -6.55312e-01        00000 
 4.60292e-01 -6.64388e-01        00000 
 4.92593e-01 -6.74199e-01        00000 
 5.25243e-01 -6.84769e-01        00000 
 5.58258e-01 -6.96122e-01        00000 
 5.91687e-01 -7.08287e-01        00000 
 6.25550e-01 -7.21290e-01        00000 
 6.59901e-01 -7.35167e-01        00000 
 6.94766e-01 -7.49946e-01        00000 
 7.30205e-01 -7.65669e-01        00000 
 7.66251e-01 -7.82366e-01        00000 
 8.02973e-01 -8.00085e-01        00000 
 8.40412e-01 -8.18861e-01        00000 
 8.78647e-01 -8.38744e-01        00000 
 9.17728e-01 -8.59774e-01        00000 
 9.57747e-01 -8.82004e-01        00000 
 9.98767e-01 -9.05474e-01        00000 
 1.04089e+00 -9.30242e-01        00000 
 1.08420e+00 -9.56346e-01        00000 
 1.12881e+00 -9.83842e-01        00000 
 1.17482e+00 -1.01276e+00        00000 
 1.22235e+00 -1.04316e+00        00000 
 1.27152e+00 -1.07505e+00        00000 
 1.32247e+00 -1.10848e+00        00000 
 1.37532e+00 -1.14343e+00        00000 
 1.43020e+00 -1.17993e+00        00000 
 1.48723e+00 -1.21793e+00        00000 
 1.54654e+00 -1.25742e+00        00000 
 1.60819e+00 -1.29831e+00        00000 
 1.67228e+00 -1.34053e+00        00000 
 1.73880e+00 -1.38396e+00        00000 
 1.80777e+00 -1.42849e+00        00000 
 1.87909e+00 -1.47396e+00        00000 
 1.95266e+00 -1.52025e+00        00000 
 2.02826e+00 -1.56719e+00        00000 
 2.10568e+00 -1.61469e+00        00000 
-2.31612e+00 -1.77488e+00        00000 
-2.23645e+00 -1.72795e+00        00000 
-2.15837e+00 -1.68164e+00        00000 
-2.08204e+00 -1.63600e+00        00000 
-2.00764e+00 -1.59114e+00        00000 
-1.93527e+00 -1.54715e+00        00000 
-1.86501e+00 -1.50415e+00        00000 
-1.79689e+00 -1.46222e+00        00000 
-1.73093e+00 -1.42147e+00        00000 
-1.66708e+00 -1.38195e+00        00000 
-1.60531e+00 -1.34373e+00        00000 
-1.54553e+00 -1.30686e+00        00000 
-1.48768e+00 -1.27137e+00        00000 
-1.43164e+00 -1.23727e+00        00000 
-1.37734e+00 -1.20458e+00        00000 
-1.32464e+00 -1.17327e+00        00000 
-1.27348e+00 -1.14335e+00        00000 
-1.22373e+00 -1.11478e+00        00000 
-1.17531e+00 -1.08755e+00        00000 
-1.12812e+00 -1.06161e+00        00000 
-1.08208e+00 -1.03695e+00        00000 
-1.03710e+00 -1.01350e+00        00000 
-9.93118e-01 -9.91253e-01        00000 
-9.50044e-01 -9.70155e-01        00000 
-9.07829e-01 -9.50177e-01        00000 
-8.66393e-01 -9.31274e-01        00000 
-8.25695e-01 -9.13419e-01        00000 
-7.85664e-01 -8.96569e-01        00000 
-7.46267e-01 -8.80697e-01        00000 
-7.07440e-01 -8.65765e-01        00000 
-6.69154e-01 -8.51749e-01        00000 
-6.31354e-01 -8.38615e-01        00000 
-5.94016e-01 -8.26339e-01        00000 
-5.57090e-01 -8.14894e-01        00000 
-5.20555e-01 -8.04257e-01        00000 
-4.84366e-01 -7.94405e-01        00000 
-4.48506e-01 -7.85320e-01        00000 
-4.12932e-01 -7.76979e-01        00000 
-3.77631e-01 -7.69369e-01        00000 
-3.42564e-01 -7.62471e-01        00000 
-3.07718e-01 -7.56273e-01        00000 
-2.73056e-01 -7.50760e-01        00000 
-2.38569e-01 -7.45923e-01        00000 
-2.04219e-01 -7.41750e-01        00000 
-1.70000e-01 -7.38233e-01        00000 
-1.35876e-01 -7.35366e-01        00000 
-1.01840e-01 -7.33142e-01        00000 
-6.78577e-02 -7.31557e-01        00000 
-3.39222e-02 -7.30607e-01        00000 
-5.16842e-14 -7.30290e-01        00000 
 3.39222e-02 -7.30607e-01        00000 
 6.78577e-02 -7.31557e-01        00000 
 1.01840e-01 -7.33142e-01        00000 
 1.35876e-01 -7.35366e-01        00000 
 1.70000e-01 -7.38233e-01        00000 
 2.04219e-01 -7.41750e-01        00000 
 2.38569e-01 -7.45923e-01        00000 
 2.73056e-01 -7.50760e-01        00000 
 3.07718e-01 -7.56273e-01        00000 
 3.42564e-01 -7.62471e-01        00000 
 3.77631e-01 -7.69369e-01        00000 
 4.12932e-01 -7.76979e-01        00000 
 4.48506e-01 -7.85320e-01        00000 
 4.84366e-01 -7.94405e-01        00000 
 5.20555e-01 -8.04257e-01        00000 
 5.57090e-01 -8.14894e-01        00000 
 5.94016e-01 -8.26339e-01        00000 
 6.31354e-01 -8.38615e-01        00000 
 6.69154e-01 -8.51749e-01        00000 
 7.07440e-01 -8.65765e-01        00000 
 7.46267e-01 -8.80697e-01        00000 
 7.85664e-01 -8.96569e-01        00000 
 8.25695e-01 -9.13419e-01        00000 
 8.66393e-01 -9.31274e-01        00000 
 9.07829e-01 -9.50177e-01        00000 
 9.50044e-01 -9.70155e-01        00000 
 9.93118e-01 -9.91253e-01        00000 
 1.03710e+00 -1.01350e+00        00000 
 1.08208e+00 -1.03695e+00        00000 
 1.12812e+00 -1.06161e+00        00000 
 1.17531e+00 -1.08755e+00        00000 
 1.22373e+00 -1.11478e+00        00000 
 1.27348e+00 -1.14335e+00        00000 
 1.32464e+00 -1.17327e+00        00000 
 1.37734e+00 -1.20458e+00        00000 
 1.43164e+00 -1.23727e+00        00000 
 1.48768e+00 -1.27137e+00        00000 
 1.54553e+00 -1.30686e+00        00000 
 1.60531e+00 -1.34373e+00        00000 
 1.66708e+00 -1.38195e+00        00000 
 1.73093e+00 -1.42147e+00        00000 
 1.79689e+00 -1.46222e+00        00000 
 1.86501e+00 -1.50415e+00        00000 
 1.93527e+00 -1.54715e+00        00000 
 2.00764e+00 -1.59114e+00        00000 
 2.08204e+00 -1.63600e+00        00000 
 2.15837e+00 -1.68164e+00        00000 
 2.23645e+00 -1.72795e+00        00000 
 2.31612e+00 -1.77488e+00        00000 
-2.52433e+00 -1.93964e+00        00000 
-2.44206e+00 -1.89323e+00        00000 
-2.36124e+00 -1.84748e+00        00000 
-2.28198e+00 -1.80242e+00        00000 
-2.20443e+00 -1.75814e+00        00000 
-2.12867e+00 -1.71469e+00        00000 
-2.05480e+00 -1.67216e+00        00000 
-1.98282e+00 -1.63060e+00        00000 
-1.91279e+00 -1.59012e+00        00000 
-1.84467e+00 -1.55074e+00        00000 
-1.77846e+00 -1.51254e+00        00000 
-1.71409e+00 -1.47556e+00        00000 
-1.65153e+00 -1.43983e+00        00000 
-1.59070e+00 -1.40537e+00        00000 
-1.53153e+00 -1.37220e+00        00000 
-1.47393e+00 -1.34033e+00        00000 
-1.41784e+00 -1.30975e+00        00000 
-1.36315e+00 -1.28044e+00        00000 
-1.30980e+00 -1.25241e+00        00000 
-1.25769e+00 -1.22562e+00        00000 
-1.20677e+00 -1.20006e+00        00000 
-1.15694e+00 -1.17569e+00        00000 
-1.10815e+00 -1.15250e+00        00000 
-1.06031e+00 -1.13045e+00        00000 
-1.01338e+00 -1.10951e+00        00000 
-9.67271e-01 -1.08966e+00        00000 
-9.21952e-01 -1.07086e+00        00000 
-8.77349e-01 -1.05308e+00        00000 
-8.33428e-01 -1.03630e+00        00000 
-7.90124e-01 -1.02049e+00        00000 
-7.47409e-01 -1.00562e+00        00000 
-7.05223e-01 -9.91659e-01        00000 
-6.63543e-01 -9.78595e-01        00000 
-6.22314e-01 -9.66397e-01        00000 
-5.81516e-01 -9.55048e-01        00000 
-5.41098e-01 -9.44523e-01        00000 
-5.01045e-01 -9.34807e-01        00000 
-4.61309e-01 -9.25878e-01        00000 
-4.21876e-01 -9.17724e-01        00000 
-3.82701e-01 -9.10327e-01        00000 
-3.43774e-01 -9.03676e-01        00000 
-3.05051e-01 -8.97757e-01        00000 
-2.66522e-01 -8.92560e-01        00000 
-2.28148e-01 -8.88074e-01        00000 
-1.89920e-01 -8.84293e-01        00000 
-1.51797e-01 -8.81209e-01        00000 
-1.13773e-01 -8.78816e-01        00000 
-7.58086e-02 -8.77109e-01        00000 
-3.78968e-02 -8.76087e-01        00000 
-5.17917e-14 -8.75746e-01        00000 
 3.78968e-02 -8.76087e-01        00000 
 7.58086e-02 -8.77109e-01        00000 
 1.13773e-01 -8.78816e-01        00000 
 1.51797e-01 -8.81209e-01        00000 
 1.89920e-01 -8.84293e-01        00000 
 2.28148e-01 -8.88074e-01        00000 
 2.66522e-01 -8.92560e-01        00000 
 3.05051e-01 -8.97757e-01        00000 
 3.43774e-01 -9.03676e-01        00000 
 3.82701e-01 -9.10327e-01        00000 
 4.21876e-01 -9.17724e-01        00000 
 4.61309e-01 -9.25878e-01        00000 
 5.01045e-01 -9.34807e-01        00000 
 5.41098e-01 -9.44523e-01        00000 
 5.81516e-01 -9.55048e-01        00000 
 6.22314e-01 -9.66397e-01        00000 
 6.63543e-01 -9.78595e-01        00000 
 7.05223e-01 -9.91659e-01        00000 
 7.47409e-01 -1.00562e+00        00000 
 7.90124e-01 -1.02049e+00        00000 
 8.33428e-01 -1.03630e+00        00000 
 8.77349e-01 -1.05308e+00        00000 
 9.21952e-01 -1.07086e+00        00000 
 9.67271e-01 -1.08966e+00        00000 
 1.01338e+00 -1.10951e+00        00000 
 1.06031e+00 -1.13045e+00        00000 
 1.10815e+00 -1.15250e+00        00000 
 1.15694e+00 -1.17569e+00        00000 
 1.20677e+00 -1.20006e+00        00000 
 1.25769e+00 -1.22562e+00        00000 
 1.30980e+00 -1.25241e+00        00000 
 1.36315e+00 -1.28044e+00        00000 
 1.41784e+00 -1.30975e+00        00000 
 1.47393e+00 -1.34033e+00        00000 
 1.53153e+00 -1.37220e+00        00000 
 1.59070e+00 -1.40537e+00        00000 
 1.65153e+00 -1.43983e+00        00000 
 1.71409e+00 -1.47556e+00        00000 
 1.77846e+00 -1.51254e+00        00000 
 1.84467e+00 -1.55074e+00        00000 
 1.91279e+00 -1.59012e+00        00000 
 1.98282e+00 -1.63060e+00        00000 
 2.05480e+00 -1.67216e+00        00000 
 2.12867e+00 -1.71469e+00        00000 
 2.20443e+00 -1.75814e+00        00000 
 2.28198e+00 -1.80242e+00        00000 
 2.36124e+00 -1.84748e+00        00000 
 2.44206e+00 -1.89323e+00        00000 
 2.52433e+00 -1.93964e+00        00000 
-2.73047e+00 -2.10970e+00        00000 
-2.64534e+00 -2.06377e+00        00000 
-2.56156e+00 -2.01854e+00        00000 
-2.47922e+00 -1.97402e+00        00000 
-2.39844e+00 -1.93028e+00        00000 
-2.31928e+00 -1.88735e+00        00000 
-2.24183e+00 -1.84530e+00        00000 
-2.16610e+00 -1.80417e+00        00000 
-2.09214e+00 -1.76402e+00        00000 
-2.01994e+00 -1.72491e+00        00000 
-1.94950e+00 -1.68687e+00        00000 
-1.88077e+00 -1.64995e+00        00000 
-1.81375e+00 -1.61419e+00        00000 
-1.74836e+00 -1.57959e+00        00000 
-1.68456e+00 -1.54620e+00        00000 
-1.62227e+00 -1.51400e+00        00000 
-1.56146e+00 -1.48302e+00        00000 
-1.50202e+00 -1.45325e+00        00000 
-1.44392e+00 -1.42468e+00        00000 
-1.38706e+00 -1.39730e+00        00000 
-1.33139e+00 -1.37110e+00        00000 
-1.27683e+00 -1.34606e+00        00000 
-1.22334e+00 -1.32217e+00        00000 
-1.17082e+00 -1.29939e+00        00000 
-1.11924e+00 -1.27772e+00        00000 
-1.06852e+00 -1.25712e+00        00000 
-1.01863e+00 -1.23757e+00        00000 
-9.69495e-01 -1.21905e+00        00000 
-9.21079e-01 -1.20154e+00        00000 
-8.73317e-01 -1.18501e+00        00000 
-8.26184e-01 -1.16943e+00        00000 
-7.79616e-01 -1.15479e+00        00000 
-7.33592e-01 -1.14107e+00        00000 
-6.88052e-01 -1.12824e+00        00000 
-6.42978e-01 -1.11629e+00        00000 
-5.98316e-01 -1.10520e+00        00000 
-5.54048e-01 -1.09494e+00        00000 
-5.10125e-01 -1.08551e+00        00000 
-4.66532e-01 -1.07689e+00        00000 
-4.23220e-01 -1.06907e+00        00000 
-3.80178e-01 -1.06202e+00        00000 
-3.37360e-01 -1.05575e+00        00000 
-2.94755e-01 -1.05024e+00        00000 
-2.52319e-01 -1.04548e+00        00000 
-2.10041e-01 -1.04147e+00        00000 
-1.67881e-01 -1.03820e+00        00000 
-1.25828e-01 -1.03566e+00        00000 
-8.38417e-02 -1.03385e+00        00000 
-4.19127e-02 -1.03276e+00        00000 
-5.05501e-14 -1.03240e+00        00000 
 4.19127e-02 -1.03276e+00        00000 
 8.38417e-02 -1.03385e+00        00000 
 1.25828e-01 -1.03566e+00        00000 
 1.67881e-01 -1.03820e+00        00000 
 2.10041e-01 -1.04147e+00        00000 
 2.52319e-01 -1.04548e+00        00000 
 2.94755e-01 -1.05024e+00        00000 
 3.37360e-01 -1.05575e+00        00000 
 3.80178e-01 -1.06202e+00        00000 
 4.23220e-01 -1.06907e+00        00000 
 4.66532e-01 -1.07689e+00        00000 
 5.10125e-01 -1.08551e+00        00000 
 5.54048e-01 -1.09494e+00        00000 
 5.98316e-01 -1.10520e+00        00000 
 6.42978e-01 -1.11629e+00        00000 
 6.88052e-01 -1.12824e+00        00000 
 7.33592e-01 -1.14107e+00        00000 
 7.79616e-01 -1.15479e+00        00000 
 8.26184e-01 -1.16943e+00        00000 
 8.73317e-01 -1.18501e+00        00000 
 9.21079e-01 -1.20154e+00        00000 
 9.69495e-01 -1.21905e+00        00000 
 1.01863e+00 -1.23757e+00        00000 
 1.06852e+00 -1.25712e+00        00000 
 1.11924e+00 -1.27772e+00        00000 
 1.17082e+00 -1.29939e+00        00000 
 1.22334e+00 -1.32217e+00        00000 
 1.27683e+00 -1.34606e+00        00000 
 1.33139e+00 -1.37110e+00        00000 
 1.38706e+00 -1.39730e+00        00000 
 1.44392e+00 -1.42468e+00        00000 
 1.50202e+00 -1.45325e+00        00000 
 1.56146e+00 -1.48302e+00        00000 
 1.62227e+00 -1.51400e+00        00000 
 1.68456e+00 -1.54620e+00        00000 
 1.74836e+00 -1.57959e+00        00000 
 1.81375e+00 -1.61419e+00        00000 
 1.88077e+00 -1.64995e+00        00000 
 1.94950e+00 -1.68687e+00        00000 
 2.01994e+00 -1.72491e+00        00000 
 2.09214e+00 -1.76402e+00        00000 
 2.16610e+00 -1.80417e+00        00000 
 2.24183e+00 -1.84530e+00        00000 
 2.31928e+00 -1.88735e+00        00000 
 2.39844e+00 -1.93028e+00        00000 
 2.47922e+00 -1.97402e+00        00000 
 2.56156e+00 -2.01854e+00        00000 
 2.64534e+00 -2.06377e+00        00000 
 2.73047e+00 -2.10970e+00        00000 
-2.93464e+00 -2.28560e+00        00000 
-2.84644e+00 -2.24013e+00        00000 
-2.75953e+00 -2.19539e+00        00000 
-2.67398e+00 -2.15139e+00        00000 
-2.58988e+00 -2.10816e+00        00000 
-2.50729e+00 -2.06573e+00        00000 
-2.42627e+00 -2.02416e+00        00000 
-2.34685e+00 -1.98347e+00        00000 
-2.26907e+00 -1.94372e+00        00000 
-2.19290e+00 -1.90493e+00        00000 
-2.11839e+00 -1.86716e+00        00000 
-2.04548e+00 -1.83042e+00        00000 
-1.97417e+00 -1.79476e+00        00000 
-1.90441e+00 -1.76020e+00        00000 
-1.83617e+00 -1.72675e+00        00000 
-1.76939e+00 -1.69443e+00        00000 
-1.70403e+00 -1.66325e+00        00000 
-1.64002e+00 -1.63321e+00        00000 
-1.57732e+00 -1.60431e+00        00000 
-1.51585e+00 -1.57655e+00        00000 
-1.45558e+00 -1.54993e+00        00000 
-1.39641e+00 -1.52443e+00        00000 
-1.33832e+00 -1.50004e+00        00000 
-1.28122e+00 -1.47673e+00        00000 
-1.22508e+00 -1.45452e+00        00000 
-1.16983e+00 -1.43335e+00        00000 
-1.11543e+00 -1.41324e+00        00000 
-1.06181e+00 -1.39414e+00        00000 
-1.00894e+00 -1.37605e+00        00000 
-9.56758e-01 -1.35895e+00        00000 
-9.05233e-01 -1.34282e+00        00000 
-8.54303e-01 -1.32763e+00        00000 
-8.03947e-01 -1.31337e+00        00000 
-7.54104e-01 -1.30003e+00        00000 
-7.04756e-01 -1.28758e+00        00000 
-6.55845e-01 -1.27601e+00        00000 
-6.07356e-01 -1.26531e+00        00000 
-5.59235e-01 -1.25546e+00        00000 
-5.11468e-01 -1.24645e+00        00000 
-4.64002e-01 -1.23826e+00        00000 
-4.16826e-01 -1.23089e+00        00000 
-3.69891e-01 -1.22432e+00        00000 
-3.23185e-01 -1.21854e+00        00000 
-2.76661e-01 -1.21355e+00        00000 
-2.30309e-01 -1.20934e+00        00000 
-1.84083e-01 -1.20591e+00        00000 
-1.37973e-01 -1.20324e+00        00000 
-9.19345e-02 -1.20134e+00        00000 
-4.59585e-02 -1.20020e+00        00000 
-4.86346e-14 -1.19982e+00        00000 
 4.59585e-02 -1.20020e+00        00000 
 9.19345e-02 -1.20134e+00        00000 
 1.37973e-01 -1.20324e+00        00000 
 1.84083e-01 -1.20591e+00        00000 
 2.30309e-01 -1.20934e+00        00000 
 2.76661e-01 -1.21355e+00        00000 
 3.23185e-01 -1.21854e+00        00000 
 3.69891e-01 -1.22432e+00        00000 
 4.16826e-01 -1.23089e+00        00000 
 4.64002e-01 -1.23826e+00        00000 
 5.11468e-01 -1.24645e+00        00000 
 5.59235e-01 -1.25546e+00        00000 
 6.07356e-01 -1.26531e+00        00000 
 6.55845e-01 -1.27601e+00        00000 
 7.04756e-01 -1.28758e+00        00000 
 7.54104e-01 -1.30003e+00        00000 
 8.03947e-01 -1.31337e+00        00000 
 8.54303e-01 -1.32763e+00        00000 
 9.05233e-01 -1.34282e+00        00000 
 9.56758e-01 -1.35895e+00        00000 
 1.00894e+00 -1.37605e+00        00000 
 1.06181e+00 -1.39414e+00        00000 
 1.11543e+00 -1.41324e+00        00000 
 1.16983e+00 -1.43335e+00        00000 
 1.22508e+00 -1.45452e+00        00000 
 1.28122e+00 -1.47673e+00        00000 
 1.33832e+00 -1.50004e+00        00000 
 1.39641e+00 -1.52443e+00        00000 
 1.45558e+00 -1.54993e+00        00000 
 1.51585e+00 -1.57655e+00        00000 
 1.57732e+00 -1.60431e+00        00000 
 1.64002e+00 -1.63321e+00        00000 
 1.70403e+00 -1.66325e+00        00000 
 1.76939e+00 -1.69443e+00        00000 
 1.83617e+00 -1.72675e+00        00000 
 1.90441e+00 -1.76020e+00        00000 
 1.97417e+00 -1.79476e+00        00000 
 2.04548e+00 -1.83042e+00        00000 
 2.11839e+00 -1.86716e+00        00000 
 2.19290e+00 -1.90493e+00        00000 
 2.26907e+00 -1.94372e+00        00000 
 2.34685e+00 -1.98347e+00        00000 
 2.42627e+00 -2.02416e+00        00000 
 2.50729e+00 -2.06573e+00        00000 
 2.58988e+00 -2.10816e+00        00000 
 2.67398e+00 -2.15139e+00        00000 
 2.75953e+00 -2.19539e+00        00000 
 2.84644e+00 -2.24013e+00        00000 
 2.93464e+00 -2.28560e+00        00000 
-3.13688e+00 -2.46776e+00        00000 
-3.04545e+00 -2.42274e+00        00000 
-2.95528e+00 -2.37848e+00        00000 
-2.86641e+00 -2.33496e+00        00000 
-2.77893e+00 -2.29223e+00        00000 
-2.69286e+00 -2.25030e+00        00000 
-2.60828e+00 -2.20921e+00        00000 
-2.52519e+00 -2.16897e+00        00000 
-2.44364e+00 -2.12963e+00        00000 
-2.36360e+00 -2.09122e+00        00000 
-2.28512e+00 -2.05377e+00        00000 
-2.20815e+00 -2.01729e+00        00000 
-2.13270e+00 -1.98184e+00        00000 
-2.05872e+00 -1.94741e+00        00000 
-1.98620e+00 -1.91404e+00        00000 
-1.91507e+00 -1.88173e+00        00000 
-1.84533e+00 -1.85050e+00        00000 
-1.77689e+00 -1.82035e+00        00000 
-1.70974e+00 -1.79130e+00        00000 
-1.64380e+00 -1.76333e+00        00000 
-1.57905e+00 -1.73646e+00        00000 
-1.51539e+00 -1.71066e+00        00000 
-1.45282e+00 -1.68594e+00        00000 
-1.39124e+00 -1.66228e+00        00000 
-1.33063e+00 -1.63968e+00        00000 
-1.27092e+00 -1.61811e+00        00000 
-1.21208e+00 -1.59758e+00        00000 
-1.15404e+00 -1.57806e+00        00000 
-1.09677e+00 -1.55954e+00        00000 
-1.04021e+00 -1.54200e+00        00000 
-9.84332e-01 -1.52543e+00        00000 
-9.29071e-01 -1.50981e+00        00000 
-8.74409e-01 -1.49514e+00        00000 
-8.20282e-01 -1.48138e+00        00000 
-7.66674e-01 -1.46854e+00        00000 
-7.13525e-01 -1.45659e+00        00000 
-6.60820e-01 -1.44553e+00        00000 
-6.08503e-01 -1.43534e+00        00000 
-5.56559e-01 -1.42600e+00        00000 
-5.04934e-01 -1.41752e+00        00000 
-4.53616e-01 -1.40987e+00        00000 
-4.02554e-01 -1.40306e+00        00000 
-3.51735e-01 -1.39706e+00        00000 
-3.01109e-01 -1.39188e+00        00000 
-2.50667e-01 -1.38751e+00        00000 
-2.00358e-01 -1.38394e+00        00000 
-1.50174e-01 -1.38116e+00        00000 
-1.00065e-01 -1.37919e+00        00000 
-5.00234e-02 -1.37800e+00        00000 
-4.52973e-14 -1.37760e+00        00000 
 5.00234e-02 -1.37800e+00        00000 
 1.00065e-01 -1.37919e+00        00000 
 1.50174e-01 -1.38116e+00        00000 
 2.00358e-01 -1.38394e+00        00000 
 2.50667e-01 -1.38751e+00        00000 
 3.01109e-01 -1.39188e+00        00000 
 3.51735e-01 -1.39706e+00        00000 
 4.02554e-01 -1.40306e+00        00000 
 4.53616e-01 -1.40987e+00        00000 
 5.04934e-01 -1.41752e+00        00000 
 5.56559e-01 -1.42600e+00        00000 
 6.08503e-01 -1.43534e+00        00000 
 6.60820e-01 -1.44553e+00        00000 
 7.13525e-01 -1.45659e+00        00000 
 7.66674e-01 -1.46854e+00        00000 
 8.20282e-01 -1.48138e+00        00000 
 8.74409e-01 -1.49514e+00        00000 
 9.29071e-01 -1.50981e+00        00000 
 9.84332e-01 -1.52543e+00        00000 
 1.04021e+00 -1.54200e+00        00000 
 1.09677e+00 -1.55954e+00        00000 
 1.15404e+00 -1.57806e+00        00000 
 1.21208e+00 -1.59758e+00        00000 
 1.27092e+00 -1.61811e+00        00000 
 1.33063e+00 -1.63968e+00        00000 
 1.39124e+00 -1.66228e+00        00000 
 1.45282e+00 -1.68594e+00        00000 
 1.51539e+00 -1.71066e+00        00000 
 1.57905e+00 -1.73646e+00        00000 
 1.64380e+00 -1.76333e+00        00000 
 1.70974e+00 -1.79130e+00        00000 
 1.77689e+00 -1.82035e+00        00000 
 1.84533e+00 -1.85050e+00        00000 
 1.91507e+00 -1.88173e+00        00000 
 1.98620e+00 -1.91404e+00        00000 
 2.05872e+00 -1.94741e+00        00000 
 2.13270e+00 -1.98184e+00        00000 
 2.20815e+00 -2.01729e+00        00000 
 2.28512e+00 -2.05377e+00        00000 
 2.36360e+00 -2.09122e+00        00000 
 2.44364e+00 -2.12963e+00        00000 
 2.52519e+00 -2.16897e+00        00000 
 2.60828e+00 -2.20921e+00        00000 
 2.69286e+00 -2.25030e+00        00000 
 2.77893e+00 -2.29223e+00        00000 
 2.86641e+00 -2.33496e+00        00000 
 2.95528e+00 -2.37848e+00        00000 
 3.04545e+00 -2.42274e+00        00000 
 3.13688e+00 -2.46776e+00        00000 
-3.33722e+00 -2.65651e+00        00000 
-3.24243e+00 -2.61193e+00        00000 
-3.14889e+00 -2.56812e+00        00000 
-3.05662e+00 -2.52509e+00        00000 
-2.96569e+00 -2.48284e+00        00000 
-2.87611e+00 -2.44139e+00        00000 
-2.78795e+00 -2.40077e+00        00000 
-2.70121e+00 -2.36099e+00        00000 
-2.61593e+00 -2.32209e+00        00000 
-2.53208e+00 -2.28407e+00        00000 
-2.44971e+00 -2.24698e+00        00000 
-2.36878e+00 -2.21082e+00        00000 
-2.28929e+00 -2.17564e+00        00000 
-2.21121e+00 -2.14143e+00        00000 
-2.13453e+00 -2.10823e+00        00000 
-2.05919e+00 -2.07603e+00        00000 
-1.98520e+00 -2.04487e+00        00000 
-1.91247e+00 -2.01474e+00        00000 
-1.84100e+00 -1.98566e+00        00000 
-1.77071e+00 -1.95762e+00        00000 
-1.70159e+00 -1.93062e+00        00000 
-1.63356e+00 -1.90467e+00        00000 
-1.56660e+00 -1.87976e+00        00000 
-1.50063e+00 -1.85588e+00        00000 
-1.43565e+00 -1.83304e+00        00000 
-1.37156e+00 -1.81121e+00        00000 
-1.30836e+00 -1.79039e+00        00000 
-1.24596e+00 -1.77057e+00        00000 
-1.18436e+00 -1.75174e+00        00000 
-1.12347e+00 -1.73388e+00        00000 
-1.06329e+00 -1.71700e+00        00000 
-1.00373e+00 -1.70106e+00        00000 
-9.44800e-01 -1.68607e+00        00000 
-8.86419e-01 -1.67200e+00        00000 
-8.28575e-01 -1.65885e+00        00000 
-7.71208e-01 -1.64661e+00        00000 
-7.14303e-01 -1.63526e+00        00000 
-6.57801e-01 -1.62480e+00        00000 
-6.01689e-01 -1.61521e+00        00000 
-5.45911e-01 -1.60649e+00        00000 
-4.90455e-01 -1.59863e+00        00000 
-4.35265e-01 -1.59161e+00        00000 
-3.80332e-01 -1.58544e+00        00000 
-3.25602e-01 -1.58011e+00        00000 
-2.71064e-01 -1.57560e+00        00000 
-2.16666e-01 -1.57192e+00        00000 
-1.62400e-01 -1.56906e+00        00000 
-1.08213e-01 -1.56702e+00        00000 
-5.40970e-02 -1.56580e+00        00000 
-4.09536e-14 -1.56539e+00        00000 
 5.40970e-02 -1.56580e+00        00000 
 1.08213e-01 -1.56702e+00        00000 
 1.62400e-01 -1.56906e+00        00000 
 2.16666e-01 -1.57192e+00        00000 
 2.71064e-01 -1.57560e+00        00000 
 3.25602e-01 -1.58011e+00        00000 
 3.80332e-01 -1.58544e+00        00000 
 4.35265e-01 -1.59161e+00        00000 
 4.90455e-01 -1.59863e+00        00000 
 5.45911e-01 -1.60649e+00        00000 
 6.01689e-01 -1.61521e+00        00000 
 6.57801e-01 -1.62480e+00        00000 
 7.14303e-01 -1.63526e+00        00000 
 7.71208e-01 -1.64661e+00        00000 
 8.28575e-01 -1.65885e+00        00000 
 8.86419e-01 -1.67200e+00        00000 
 9.44800e-01 -1.68607e+00        00000 
 1.00373e+00 -1.70106e+00        00000 
 1.06329e+00 -1.71700e+00        00000 
 1.12347e+00 -1.73388e+00        00000 
 1.18436e+00 -1.75174e+00        00000 
 1.24596e+00 -1.77057e+00        00000 
 1.30836e+00 -1.79039e+00        00000 
 1.37156e+00 -1.81121e+00        00000 
 1.43565e+00 -1.83304e+00        00000 
 1.50063e+00 -1.85588e+00        00000 
 1.56660e+00 -1.87976e+00        00000 
 1.63356e+00 -1.90467e+00        00000 
 1.70159e+00 -1.93062e+00        00000 
 1.77071e+00 -1.95762e+00        00000 
 1.84100e+00 -1.98566e+00        00000 
 1.91247e+00 -2.01474e+00        00000 
 1.98520e+00 -2.04487e+00        00000 
 2.05919e+00 -2.07603e+00        00000 
 2.13453e+00 -2.10823e+00        00000 
 2.21121e+00 -2.14143e+00        00000 
 2.28929e+00 -2.17564e+00        00000 
 2.36878e+00 -2.21082e+00        00000 
 2.44971e+00 -2.24698e+00        00000 
 2.53208e+00 -2.28407e+00        00000 
 2.61593e+00 -2.32209e+00        00000 
 2.70121e+00 -2.36099e+00        00000 
 2.78795e+00 -2.40077e+00        00000 
 2.87611e+00 -2.44139e+00        00000 
 2.96569e+00 -2.48284e+00        00000 
 3.05662e+00 -2.52509e+00        00000 
 3.14889e+00 -2.56812e+00        00000 
 3.24243e+00 -2.61193e+00        00000 
 3.33722e+00 -2.65651e+00        00000 
-3.53564e+00 -2.85206e+00        00000 
-3.43741e+00 -2.80793e+00        00000 
-3.34042e+00 -2.76458e+00        00000 
-3.24467e+00 -2.72201e+00        00000 
-3.15024e+00 -2.68024e+00        00000 
-3.05712e+00 -2.63927e+00        00000 
-2.96538e+00 -2.59912e+00        00000 
-2.87499e+00 -2.55979e+00        00000 
-2.78600e+00 -2.52133e+00        00000 
-2.69839e+00 -2.48373e+00        00000 
-2.61219e+00 -2.44702e+00        00000 
-2.52737e+00 -2.41122e+00        00000 
-2.44393e+00 -2.37635e+00        00000 
-2.36184e+00 -2.34242e+00        00000 
-2.28111e+00 -2.30946e+00        00000 
-2.20167e+00 -2.27746e+00        00000 
-2.12352e+00 -2.24645e+00        00000 
-2.04661e+00 -2.21643e+00        00000 
-1.97093e+00 -2.18742e+00        00000 
-1.89640e+00 -2.15940e+00        00000 
-1.82303e+00 -2.13240e+00        00000 
-1.75072e+00 -2.10641e+00        00000 
-1.67948e+00 -2.08142e+00        00000 
-1.60923e+00 -2.05744e+00        00000 
-1.53995e+00 -2.03446e+00        00000 
-1.47157e+00 -2.01248e+00        00000 
-1.40408e+00 -1.99149e+00        00000 
-1.33740e+00 -1.97148e+00        00000 
-1.27151e+00 -1.95245e+00        00000 
-1.20636e+00 -1.93438e+00        00000 
-1.14192e+00 -1.91727e+00        00000 
-1.07813e+00 -1.90111e+00        00000 
-1.01496e+00 -1.88589e+00        00000 
-9.52364e-01 -1.87160e+00        00000 
-8.90318e-01 -1.85823e+00        00000 
-8.28761e-01 -1.84576e+00        00000 
-7.67681e-01 -1.83421e+00        00000 
-7.07016e-01 -1.82354e+00        00000 
-6.46754e-01 -1.81376e+00        00000 
-5.86838e-01 -1.80486e+00        00000 
-5.27255e-01 -1.79683e+00        00000 
-4.67949e-01 -1.78966e+00        00000 
-4.08909e-01 -1.78335e+00        00000 
-3.50080e-01 -1.77790e+00        00000 
-2.91451e-01 -1.77329e+00        00000 
-2.32968e-01 -1.76952e+00        00000 
-1.74623e-01 -1.76660e+00        00000 
-1.16359e-01 -1.76451e+00        00000 
-5.81697e-02 -1.76326e+00        00000 
-3.58291e-14 -1.76284e+00        00000 
 5.81697e-02 -1.76326e+00        00000 
 1.16359e-01 -1.76451e+00        00000 
 1.74623e-01 -1.76660e+00        00000 
 2.32968e-01 -1.76952e+00        00000 
 2.91451e-01 -1.77329e+00        00000 
 3.50080e-01 -1.77790e+00        00000 
 4.08909e-01 -1.78335e+00        00000 
 4.67949e-01 -1.78966e+00        00000 
 5.27255e-01 -1.79683e+00        00000 
 5.86838e-01 -1.80486e+00        00000 
 6.46754e-01 -1.81376e+00        00000 
 7.07016e-01 -1.82354e+00        00000 
 7.67681e-01 -1.83421e+00        00000 
 8.28761e-01 -1.84576e+00        00000 
 8.90318e-01 -1.85823e+00        00000 
 9.52364e-01 -1.87160e+00        00000 
 1.01496e+00 -1.88589e+00        00000 
 1.07813e+00 -1.90111e+00        00000 
 1.14192e+00 -1.91727e+00        00000 
 1.20636e+00 -1.93438e+00        00000 
 1.27151e+00 -1.95245e+00        00000 
 1.33740e+00 -1.97148e+00        00000 
 1.40408e+00 -1.99149e+00        00000 
 1.47157e+00 -2.01248e+00        00000 
 1.53995e+00 -2.03446e+00        00000 
 1.60923e+00 -2.05744e+00        00000 
 1.67948e+00 -2.08142e+00        00000 
 1.75072e+00 -2.10641e+00        00000 
 1.82303e+00 -2.13240e+00        00000 
 1.89640e+00 -2.15940e+00        00000 
 1.97093e+00 -2.18742e+00        00000 
 2.04661e+00 -2.21643e+00        00000 
 2.12352e+00 -2.24645e+00        00000 
 2.20167e+00 -2.27746e+00        00000 
 2.28111e+00 -2.30946e+00        00000 
 2.36184e+00 -2.34242e+00        00000 
 2.44393e+00 -2.37635e+00        00000 
 2.52737e+00 -2.41122e+00        00000 
 2.61219e+00 -2.44702e+00        00000 
 2.69839e+00 -2.48373e+00        00000 
 2.78600e+00 -2.52133e+00        00000 
 2.87499e+00 -2.55979e+00        00000 
 2.96538e+00 -2.59912e+00        00000 
 3.05712e+00 -2.63927e+00        00000 
 3.15024e+00 -2.68024e+00        00000 
 3.24467e+00 -2.72201e+00        00000 
 3.34042e+00 -2.76458e+00        00000 
 3.43741e+00 -2.80793e+00        00000 
 3.53564e+00 -2.85206e+00        00000 
-3.73213e+00 -3.05461e+00        00000 
-3.63038e+00 -3.01092e+00        00000 
-3.52988e+00 -2.96803e+00        00000 
-3.43062e+00 -2.92592e+00        00000 
-3.33265e+00 -2.88462e+00        00000 
-3.23597e+00 -2.84412e+00        00000 
-3.14062e+00 -2.80443e+00        00000 
-3.04659e+00 -2.76557e+00        00000 
-2.95392e+00 -2.72755e+00        00000 
-2.86257e+00 -2.69037e+00        00000 
-2.77259e+00 -2.65407e+00        00000 
-2.68393e+00 -2.61865e+00        00000 
-2.59662e+00 -2.58414e+00        00000 
-2.51060e+00 -2.55053e+00        00000 
-2.42589e+00 -2.51785e+00        00000 
-2.34243e+00 -2.48610e+00        00000 
-2.26024e+00 -2.45531e+00        00000 
-2.17924e+00 -2.42547e+00        00000 
-2.09945e+00 -2.39660e+00        00000 
-2.02078e+00 -2.36870e+00        00000 
-1.94324e+00 -2.34177e+00        00000 
-1.86676e+00 -2.31582e+00        00000 
-1.79132e+00 -2.29085e+00        00000 
-1.71687e+00 -2.26686e+00        00000 
-1.64338e+00 -2.24385e+00        00000 
-1.57078e+00 -2.22180e+00        00000 
-1.49908e+00 -2.20073e+00        00000 
-1.42818e+00 -2.18063e+00        00000 
-1.35809e+00 -2.16148e+00        00000 
-1.28873e+00 -2.14329e+00        00000 
-1.22009e+00 -2.12605e+00        00000 
-1.15211e+00 -2.10975e+00        00000 
-1.08476e+00 -2.09438e+00        00000 
-1.01799e+00 -2.07993e+00        00000 
-9.51780e-01 -2.06641e+00        00000 
-8.86069e-01 -2.05380e+00        00000 
-8.20845e-01 -2.04210e+00        00000 
-7.56045e-01 -2.03129e+00        00000 
-6.91660e-01 -2.02137e+00        00000 
-6.27628e-01 -2.01234e+00        00000 
-5.63940e-01 -2.00418e+00        00000 
-5.00535e-01 -1.99690e+00        00000 
-4.37405e-01 -1.99049e+00        00000 
-3.74492e-01 -1.98495e+00        00000 
-3.11786e-01 -1.98026e+00        00000 
-2.49229e-01 -1.97643e+00        00000 
-1.86815e-01 -1.97346e+00        00000 
-1.24486e-01 -1.97133e+00        00000 
-6.22328e-02 -1.97006e+00        00000 
-2.87445e-14 -1.96963e+00        00000 
 6.22328e-02 -1.97006e+00        00000 
 1.24486e-01 -1.97133e+00        00000 
 1.86815e-01 -1.97346e+00        00000 
 2.49229e-01 -1.97643e+00        00000 
 3.11786e-01 -1.98026e+00        00000 
 3.74492e-01 -1.98495e+00        00000 
 4.37405e-01 -1.99049e+00        00000 
 5.00535e-01 -1.99690e+00        00000 
 5.63940e-01 -2.00418e+00        00000 
 6.27628e-01 -2.01234e+00        00000 
 6.91660e-01 -2.02137e+00        00000 
 7.56045e-01 -2.03129e+00        00000 
 8.20845e-01 -2.04210e+00        00000 
 8.86069e-01 -2.05380e+00        00000 
 9.51780e-01 -2.06641e+00        00000 
 1.01799e+00 -2.07993e+00        00000 
 1.08476e+00 -2.09438e+00        00000 
 1.15211e+00 -2.10975e+00        00000 
 1.22009e+00 -2.12605e+00        00000 
 1.28873e+00 -2.14329e+00        00000 
 1.35809e+00 -2.16148e+00        00000 
 1.42818e+00 -2.18063e+00        00000 
 1.49908e+00 -2.20073e+00        00000 
 1.57078e+00 -2.22180e+00        00000 
 1.64338e+00 -2.24385e+00        00000 
 1.71687e+00 -2.26686e+00        00000 
 1.79132e+00 -2.29085e+00        00000 
 1.86676e+00 -2.31582e+00        00000 
 1.94324e+00 -2.34177e+00        00000 
 2.02078e+00 -2.36870e+00        00000 
 2.09945e+00 -2.39660e+00        00000 
 2.17924e+00 -2.42547e+00        00000 
 2.26024e+00 -2.45531e+00        00000 
 2.34243e+00 -2.48610e+00        00000 
 2.42589e+00 -2.51785e+00        00000 
 2.51060e+00 -2.55053e+00        00000 
 2.59662e+00 -2.58414e+00        00000 
 2.68393e+00 -2.61865e+00        00000 
 2.77259e+00 -2.65407e+00        00000 
 2.86257e+00 -2.69037e+00        00000 
 2.95392e+00 -2.72755e+00        00000 
 3.04659e+00 -2.76557e+00        00000 
 3.14062e+00 -2.80443e+00        00000 
 3.23597e+00 -2.84412e+00        00000 
 3.33265e+00 -2.88462e+00        00000 
 3.43062e+00 -2.92592e+00        00000 
 3.52988e+00 -2.96803e+00        00000 
 3.63038e+00 -3.01092e+00        00000 
 3.73213e+00 -3.05461e+00        00000 
-3.92667e+00 -3.26428e+00        00000 
-3.82136e+00 -3.22103e+00        00000 
-3.71730e+00 -3.17860e+00        00000 
-3.61448e+00 -3.13695e+00        00000 
-3.51295e+00 -3.09612e+00        00000 
-3.41268e+00 -3.05608e+00        00000 
-3.31372e+00 -3.01686e+00        00000 
-3.21605e+00 -2.97845e+00        00000 
-3.11971e+00 -2.94088e+00        00000 
-3.02466e+00 -2.90414e+00        00000 
-2.93093e+00 -2.86826e+00        00000 
-2.83849e+00 -2.83323e+00        00000 
-2.74735e+00 -2.79909e+00        00000 
-2.65746e+00 -2.76583e+00        00000 
-2.56885e+00 -2.73347e+00        00000 
-2.48146e+00 -2.70202e+00        00000 
-2.39530e+00 -2.67149e+00        00000 
-2.31030e+00 -2.64189e+00        00000 
-2.22647e+00 -2.61322e+00        00000 
-2.14375e+00 -2.58549e+00        00000 
-2.06213e+00 -2.55871e+00        00000 
-1.98156e+00 -2.53288e+00        00000 
-1.90201e+00 -2.50800e+00        00000 
-1.82344e+00 -2.48407e+00        00000 
-1.74582e+00 -2.46109e+00        00000 
-1.66909e+00 -2.43907e+00        00000 
-1.59324e+00 -2.41800e+00        00000 
-1.51820e+00 -2.39787e+00        00000 
-1.44397e+00 -2.37869e+00        00000 
-1.37046e+00 -2.36045e+00        00000 
-1.29768e+00 -2.34315e+00        00000 
-1.22556e+00 -2.32677e+00        00000 
-1.15408e+00 -2.31133e+00        00000 
-1.08318e+00 -2.29680e+00        00000 
-1.01286e+00 -2.28319e+00        00000 
-9.43031e-01 -2.27048e+00        00000 
-8.73701e-01 -2.25869e+00        00000 
-8.04802e-01 -2.24778e+00        00000 
-7.36325e-01 -2.23778e+00        00000 
-6.68207e-01 -2.22866e+00        00000 
-6.00440e-01 -2.22043e+00        00000 
-5.32963e-01 -2.21307e+00        00000 
-4.65767e-01 -2.20659e+00        00000 
-3.98791e-01 -2.20098e+00        00000 
-3.32028e-01 -2.19624e+00        00000 
-2.65419e-01 -2.19237e+00        00000 
-1.98955e-01 -2.18936e+00        00000 
-1.32577e-01 -2.18721e+00        00000 
-6.62785e-02 -2.18592e+00        00000 
-2.11287e-14 -2.18549e+00        00000 
 6.62785e-02 -2.18592e+00        00000 
 1.32577e-01 -2.18721e+00        00000 
 1.98955e-01 -2.18936e+00        00000 
 2.65419e-01 -2.19237e+00        00000 
 3.32028e-01 -2.19624e+00        00000 
 3.98791e-01 -2.20098e+00        00000 
 4.65767e-01 -2.20659e+00        00000 
 5.32963e-01 -2.21307e+00        00000 
 6.00440e-01 -2.22043e+00        00000 
 6.68207e-01 -2.22866e+00        00000 
 7.36325e-01 -2.23778e+00        00000 
 8.04802e-01 -2.24778e+00        00000 
 8.73701e-01 -2.25869e+00        00000 
 9.43031e-01 -2.27048e+00        00000 
 1.01286e+00 -2.28319e+00        00000 
 1.08318e+00 -2.29680e+00        00000 
 1.15408e+00 -2.31133e+00        00000 
 1.22556e+00 -2.32677e+00        00000 
 1.29768e+00 -2.34315e+00        00000 
 1.37046e+00 -2.36045e+00        00000 
 1.44397e+00 -2.37869e+00        00000 
 1.51820e+00 -2.39787e+00        00000 
 1.59324e+00 -2.41800e+00        00000 
 1.66909e+00 -2.43907e+00        00000 
 1.74582e+00 -2.46109e+00        00000 
 1.82344e+00 -2.48407e+00        00000 
 1.90201e+00 -2.50800e+00        00000 
 1.98156e+00 -2.53288e+00        00000 
 2.06213e+00 -2.55871e+00        00000 
 2.14375e+00 -2.58549e+00        00000 
 2.22647e+00 -2.61322e+00        00000 
 2.31030e+00 -2.64189e+00        00000 
 2.39530e+00 -2.67149e+00        00000 
 2.48146e+00 -2.70202e+00        00000 
 2.56885e+00 -2.73347e+00        00000 
 2.65746e+00 -2.76583e+00        00000 
 2.74735e+00 -2.79909e+00        00000 
 2.83849e+00 -2.83323e+00        00000 
 2.93093e+00 -2.86826e+00        00000 
 3.02466e+00 -2.90414e+00        00000 
 3.11971e+00 -2.94088e+00        00000 
 3.21605e+00 -2.97845e+00        00000 
 3.31372e+00 -3.01686e+00        00000 
 3.41268e+00 -3.05608e+00        00000 
 3.51295e+00 -3.09612e+00        00000 
 3.61448e+00 -3.13695e+00        00000 
 3.71730e+00 -3.17860e+00        00000 
 3.82136e+00 -3.22103e+00        00000 
 3.92667e+00 -3.26428e+00        00000 
-4.11923e+00 -3.48114e+00        00000 
-4.01032e+00 -3.43835e+00        00000 
-3.90268e+00 -3.39638e+00        00000 
-3.79628e+00 -3.35520e+00        00000 
-3.69116e+00 -3.31483e+00        00000 
-3.58729e+00 -3.27525e+00        00000 
-3.48473e+00 -3.23650e+00        00000 
-3.38343e+00 -3.19855e+00        00000 
-3.28343e+00 -3.16142e+00        00000 
-3.18469e+00 -3.12512e+00        00000 
-3.08725e+00 -3.08966e+00        00000 
-2.99106e+00 -3.05505e+00        00000 
-2.89614e+00 -3.02130e+00        00000 
-2.80244e+00 -2.98841e+00        00000 
-2.70999e+00 -2.95640e+00        00000 
-2.61873e+00 -2.92527e+00        00000 
-2.52866e+00 -2.89504e+00        00000 
-2.43973e+00 -2.86571e+00        00000 
-2.35195e+00 -2.83729e+00        00000 
-2.26525e+00 -2.80978e+00        00000 
-2.17964e+00 -2.78320e+00        00000 
-2.09505e+00 -2.75753e+00        00000 
-2.01147e+00 -2.73280e+00        00000 
-1.92885e+00 -2.70900e+00        00000 
-1.84718e+00 -2.68613e+00        00000 
-1.76638e+00 -2.66418e+00        00000 
-1.68646e+00 -2.64317e+00        00000 
-1.60735e+00 -2.62309e+00        00000 
-1.52903e+00 -2.60394e+00        00000 
-1.45145e+00 -2.58571e+00        00000 
-1.37459e+00 -2.56840e+00        00000 
-1.29838e+00 -2.55202e+00        00000 
-1.22283e+00 -2.53655e+00        00000 
-1.14785e+00 -2.52199e+00        00000 
-1.07345e+00 -2.50835e+00        00000 
-9.99560e-01 -2.49560e+00        00000 
-9.26167e-01 -2.48376e+00        00000 
-8.53208e-01 -2.47282e+00        00000 
-7.80677e-01 -2.46276e+00        00000 
-7.08509e-01 -2.45360e+00        00000 
-6.36698e-01 -2.44532e+00        00000 
-5.65179e-01 -2.43792e+00        00000 
-4.93946e-01 -2.43140e+00        00000 
-4.22937e-01 -2.42575e+00        00000 
-3.52145e-01 -2.42098e+00        00000 
-2.81508e-01 -2.41708e+00        00000 
-2.11020e-01 -2.41405e+00        00000 
-1.40619e-01 -2.41189e+00        00000 
-7.02998e-02 -2.41059e+00        00000 
-1.37454e-14 -2.41015e+00        00000 
 7.02998e-02 -2.41059e+00        00000 
 1.40619e-01 -2.41189e+00        00000 
 2.11020e-01 -2.41405e+00        00000 
 2.81508e-01 -2.41708e+00        00000 
 3.52145e-01 -2.42098e+00        00000 
 4.22937e-01 -2.42575e+00        00000 
 4.93946e-01 -2.43140e+00        00000 
 5.65179e-01 -2.43792e+00        00000 
 6.36698e-01 -2.44532e+00        00000 
 7.08509e-01 -2.45360e+00        00000 
 7.80677e-01 -2.46276e+00        00000 
 8.53208e-01 -2.47282e+00        00000 
 9.26167e-01 -2.48376e+00        00000 
 9.99560e-01 -2.49560e+00        00000 
 1.07345e+00 -2.50835e+00        00000 
 1.14785e+00 -2.52199e+00        00000 
 1.22283e+00 -2.53655e+00        00000 
 1.29838e+00 -2.55202e+00        00000 
 1.37459e+00 -2.56840e+00        00000 
 1.45145e+00 -2.58571e+00        00000 
 1.52903e+00 -2.60394e+00        00000 
 1.60735e+00 -2.62309e+00        00000 
 1.68646e+00 -2.64317e+00        00000 
 1.76638e+00 -2.66418e+00        00000 
 1.84718e+00 -2.68613e+00        00000 
 1.92885e+00 -2.70900e+00        00000 
 2.01147e+00 -2.73280e+00        00000 
 2.09505e+00 -2.75753e+00        00000 
 2.17964e+00 -2.78320e+00        00000 
 2.26525e+00 -2.80978e+00        00000 
 2.35195e+00 -2.83729e+00        00000 
 2.43973e+00 -2.86571e+00        00000 
 2.52866e+00 -2.89504e+00        00000 
 2.61873e+00 -2.92527e+00        00000 
 2.70999e+00 -2.95640e+00        00000 
 2.80244e+00 -2.98841e+00        00000 
 2.89614e+00 -3.02130e+00        00000 
 2.99106e+00 -3.05505e+00        00000 
 3.08725e+00 -3.08966e+00        00000 
 3.18469e+00 -3.12512e+00        00000 
 3.28343e+00 -3.16142e+00        00000 
 3.38343e+00 -3.19855e+00        00000 
 3.48473e+00 -3.23650e+00        00000 
 3.58729e+00 -3.27525e+00        00000 
 3.69116e+00 -3.31483e+00        00000 
 3.79628e+00 -3.35520e+00        00000 
 3.90268e+00 -3.39638e+00        00000 
 4.01032e+00 -3.43835e+00        00000 
 4.11923e+00 -3.48114e+00        00000 
-4.30978e+00 -3.70527e+00        00000 
-4.19725e+00 -3.66294e+00        00000 
-4.08601e+00 -3.62142e+00        00000 
-3.97601e+00 -3.58071e+00        00000 
-3.86729e+00 -3.54080e+00        00000 
-3.75983e+00 -3.50170e+00        00000 
-3.65365e+00 -3.46340e+00        00000 
-3.54873e+00 -3.42591e+00        00000 
-3.44509e+00 -3.38923e+00        00000 
-3.34269e+00 -3.35337e+00        00000 
-3.24156e+00 -3.31835e+00        00000 
-3.14166e+00 -3.28415e+00        00000 
-3.04300e+00 -3.25080e+00        00000 
-2.94555e+00 -3.21829e+00        00000 
-2.84930e+00 -3.18665e+00        00000 
-2.75422e+00 -3.15587e+00        00000 
-2.66032e+00 -3.12597e+00        00000 
-2.56752e+00 -3.09694e+00        00000 
-2.47586e+00 -3.06880e+00        00000 
-2.38525e+00 -3.04155e+00        00000 
-2.29571e+00 -3.01521e+00        00000 
-2.20717e+00 -2.98976e+00        00000 
-2.11964e+00 -2.96522e+00        00000 
-2.03304e+00 -2.94158e+00        00000 
-1.94738e+00 -2.91886e+00        00000 
-1.86259e+00 -2.89705e+00        00000 
-1.77867e+00 -2.87615e+00        00000 
-1.69554e+00 -2.85617e+00        00000 
-1.61321e+00 -2.83709e+00        00000 
-1.53161e+00 -2.81893e+00        00000 
-1.45073e+00 -2.80168e+00        00000 
-1.37050e+00 -2.78533e+00        00000 
-1.29092e+00 -2.76989e+00        00000 
-1.21192e+00 -2.75535e+00        00000 
-1.13350e+00 -2.74172e+00        00000 
-1.05559e+00 -2.72897e+00        00000 
-9.78176e-01 -2.71713e+00        00000 
-9.01201e-01 -2.70618e+00        00000 
-8.24658e-01 -2.69611e+00        00000 
-7.48479e-01 -2.68693e+00        00000 
-6.72661e-01 -2.67864e+00        00000 
-5.97138e-01 -2.67123e+00        00000 
-5.21904e-01 -2.66469e+00        00000 
-4.46895e-01 -2.65903e+00        00000 
-3.72107e-01 -2.65425e+00        00000 
-2.97475e-01 -2.65033e+00        00000 
-2.22994e-01 -2.64729e+00        00000 
-1.48601e-01 -2.64512e+00        00000 
-7.42908e-02 -2.64382e+00        00000 
-6.08426e-15 -2.64338e+00        00000 
 7.42908e-02 -2.64382e+00        00000 
 1.48601e-01 -2.64512e+00        00000 
 2.22994e-01 -2.64729e+00        00000 
 2.97475e-01 -2.65033e+00        00000 
 3.72107e-01 -2.65425e+00        00000 
 4.46895e-01 -2.65903e+00        00000 
 5.21904e-01 -2.66469e+00        00000 
 5.97138e-01 -2.67123e+00        00000 
 6.72661e-01 -2.67864e+00        00000 
 7.48479e-01 -2.68693e+00        00000 
 8.24658e-01 -2.69611e+00        00000 
 9.01201e-01 -2.70618e+00        00000 
 9.78176e-01 -2.71713e+00        00000 
 1.05559e+00 -2.72897e+00        00000 
 1.13350e+00 -2.74172e+00        00000 
 1.21192e+00 -2.75535e+00        00000 
 1.29092e+00 -2.76989e+00        00000 
 1.37050e+00 -2.78533e+00        00000 
 1.45073e+00 -2.80168e+00        00000 
 1.53161e+00 -2.81893e+00        00000 
 1.61321e+00 -2.83709e+00        00000 
 1.69554e+00 -2.85617e+00        00000 
 1.77867e+00 -2.87615e+00        00000 
 1.86259e+00 -2.89705e+00        00000 
 1.94738e+00 -2.91886e+00        00000 
 2.03304e+00 -2.94158e+00        00000 
 2.11964e+00 -2.96522e+00        00000 
 2.20717e+00 -2.98976e+00        00000 
 2.29571e+00 -3.01521e+00        00000 
 2.38525e+00 -3.04155e+00        00000 
 2.47586e+00 -3.06880e+00        00000 
 2.56752e+00 -3.09694e+00        00000 
 2.66032e+00 -3.12597e+00        00000 
 2.75422e+00 -3.15587e+00        00000 
 2.84930e+00 -3.18665e+00        00000 
 2.94555e+00 -3.21829e+00        00000 
 3.04300e+00 -3.25080e+00        00000 
 3.14166e+00 -3.28415e+00        00000 
 3.24156e+00 -3.31835e+00        00000 
 3.34269e+00 -3.35337e+00        00000 
 3.44509e+00 -3.38923e+00        00000 
 3.54873e+00 -3.42591e+00        00000 
 3.65365e+00 -3.46340e+00        00000 
 3.75983e+00 -3.50170e+00        00000 
 3.86729e+00 -3.54080e+00        00000 
 3.97601e+00 -3.58071e+00        00000 
 4.08601e+00 -3.62142e+00        00000 
 4.19725e+00 -3.66294e+00        00000 
 4.30978e+00 -3.70527e+00        00000 
-4.49828e+00 -3.93668e+00        00000 
-4.38213e+00 -3.89482e+00        00000 
-4.26727e+00 -3.85377e+00        00000 
-4.15367e+00 -3.81352e+00        00000 
-4.04136e+00 -3.77408e+00        00000 
-3.93029e+00 -3.73544e+00        00000 
-3.82052e+00 -3.69760e+00        00000 
-3.71198e+00 -3.66057e+00        00000 
-3.60471e+00 -3.62435e+00        00000 
-3.49867e+00 -3.58893e+00        00000 
-3.39389e+00 -3.55434e+00        00000 
-3.29030e+00 -3.52056e+00        00000 
-3.18795e+00 -3.48762e+00        00000 
-3.08677e+00 -3.45551e+00        00000 
-2.98679e+00 -3.42425e+00        00000 
-2.88795e+00 -3.39383e+00        00000 
-2.79026e+00 -3.36428e+00        00000 
-2.69366e+00 -3.33557e+00        00000 
-2.59816e+00 -3.30775e+00        00000 
-2.50371e+00 -3.28078e+00        00000 
-2.41031e+00 -3.25471e+00        00000 
-2.31789e+00 -3.22950e+00        00000 
-2.22646e+00 -3.20519e+00        00000 
-2.13596e+00 -3.18177e+00        00000 
-2.04638e+00 -3.15924e+00        00000 
-1.95766e+00 -3.13759e+00        00000 
-1.86980e+00 -3.11685e+00        00000 
-1.78272e+00 -3.09700e+00        00000 
-1.69644e+00 -3.07805e+00        00000 
-1.61088e+00 -3.05999e+00        00000 
-1.52603e+00 -3.04283e+00        00000 
-1.44184e+00 -3.02656e+00        00000 
-1.35829e+00 -3.01119e+00        00000 
-1.27533e+00 -2.99671e+00        00000 
-1.19294e+00 -2.98313e+00        00000 
-1.11105e+00 -2.97042e+00        00000 
-1.02967e+00 -2.95861e+00        00000 
-9.48727e-01 -2.94769e+00        00000 
-8.68216e-01 -2.93764e+00        00000 
-7.88071e-01 -2.92848e+00        00000 
-7.08288e-01 -2.92020e+00        00000 
-6.28800e-01 -2.91279e+00        00000 
-5.49605e-01 -2.90626e+00        00000 
-4.70636e-01 -2.90060e+00        00000 
-3.91889e-01 -2.89582e+00        00000 
-3.13299e-01 -2.89191e+00        00000 
-2.34861e-01 -2.88887e+00        00000 
-1.56512e-01 -2.88670e+00        00000 
-7.82465e-02 -2.88539e+00        00000 
 2.32401e-15 -2.88496e+00        00000 
 7.82465e-02 -2.88539e+00        00000 
 1.56512e-01 -2.88670e+00        00000 
 2.34861e-01 -2.88887e+00        00000 
 3.13299e-01 -2.89191e+00        00000 
 3.91889e-01 -2.89582e+00        00000 
 4.70636e-01 -2.90060e+00        00000 
 5.49605e-01 -2.90626e+00        00000 
 6.28800e-01 -2.91279e+00        00000 
 7.08288e-01 -2.92020e+00        00000 
 7.88071e-01 -2.92848e+00        00000 
 8.68216e-01 -2.93764e+00        00000 
 9.48727e-01 -2.94769e+00        00000 
 1.02967e+00 -2.95861e+00        00000 
 1.11105e+00 -2.97042e+00        00000 
 1.19294e+00 -2.98313e+00        00000 
 1.27533e+00 -2.99671e+00        00000 
 1.35829e+00 -3.01119e+00        00000 
 1.44184e+00 -3.02656e+00        00000 
 1.52603e+00 -3.04283e+00        00000 
 1.61088e+00 -3.05999e+00        00000 
 1.69644e+00 -3.07805e+00        00000 
 1.78272e+00 -3.09700e+00        00000 
 1.86980e+00 -3.11685e+00        00000 
 1.95766e+00 -3.13759e+00        00000 
 2.04638e+00 -3.15924e+00        00000 
 2.13596e+00 -3.18177e+00        00000 
 2.22646e+00 -3.20519e+00        00000 
 2.31789e+00 -3.22950e+00        00000 
 2.41031e+00 -3.25471e+00        00000 
 2.50371e+00 -3.28078e+00        00000 
 2.59816e+00 -3.30775e+00        00000 
 2.69366e+00 -3.33557e+00        00000 
 2.79026e+00 -3.36428e+00        00000 
 2.88795e+00 -3.39383e+00        00000 
 2.98679e+00 -3.42425e+00        00000 
 3.08677e+00 -3.45551e+00        00000 
 3.18795e+00 -3.48762e+00        00000 
 3.29030e+00 -3.52056e+00        00000 
 3.39389e+00 -3.55434e+00        00000 
 3.49867e+00 -3.58893e+00        00000 
 3.60471e+00 -3.62435e+00        00000 
 3.71198e+00 -3.66057e+00        00000 
 3.82052e+00 -3.69760e+00        00000 
 3.93029e+00 -3.73544e+00        00000 
 4.04136e+00 -3.77408e+00        00000 
 4.15367e+00 -3.81352e+00        00000 
 4.26727e+00 -3.85377e+00        00000 
 4.38213e+00 -3.89482e+00        00000 
 4.49828e+00 -3.93668e+00        00000 
-4.68469e+00 -4.17539e+00        00000 
-4.56492e+00 -4.13399e+00        00000 
-4.44646e+00 -4.09342e+00        00000 
-4.32926e+00 -4.05364e+00        00000 
-4.21335e+00 -4.01467e+00        00000 
-4.09870e+00 -3.97649e+00        00000 
-3.98533e+00 -3.93912e+00        00000 
-3.87319e+00 -3.90254e+00        00000 
-3.76232e+00 -3.86677e+00        00000 
-3.65266e+00 -3.83180e+00        00000 
-3.54424e+00 -3.79765e+00        00000 
-3.43701e+00 -3.76430e+00        00000 
-3.33100e+00 -3.73177e+00        00000 
-3.22614e+00 -3.70007e+00        00000 
-3.12246e+00 -3.66919e+00        00000 
-3.01990e+00 -3.63915e+00        00000 
-2.91847e+00 -3.60995e+00        00000 
-2.81812e+00 -3.58159e+00        00000 
-2.71886e+00 -3.55409e+00        00000 
-2.62062e+00 -3.52744e+00        00000 
-2.52341e+00 -3.50165e+00        00000 
-2.42718e+00 -3.47672e+00        00000 
-2.33192e+00 -3.45267e+00        00000 
-2.23757e+00 -3.42948e+00        00000 
-2.14413e+00 -3.40717e+00        00000 
-2.05154e+00 -3.38573e+00        00000 
-1.95980e+00 -3.36517e+00        00000 
-1.86884e+00 -3.34549e+00        00000 
-1.77867e+00 -3.32670e+00        00000 
-1.68921e+00 -3.30878e+00        00000 
-1.60046e+00 -3.29175e+00        00000 
-1.51236e+00 -3.27559e+00        00000 
-1.42490e+00 -3.26033e+00        00000 
-1.33802e+00 -3.24594e+00        00000 
-1.25171e+00 -3.23243e+00        00000 
-1.16590e+00 -3.21980e+00        00000 
-1.08060e+00 -3.20805e+00        00000 
-9.95741e-01 -3.19717e+00        00000 
-9.11310e-01 -3.18718e+00        00000 
-8.27245e-01 -3.17805e+00        00000 
-7.43543e-01 -3.16980e+00        00000 
-6.60136e-01 -3.16243e+00        00000 
-5.77022e-01 -3.15592e+00        00000 
-4.94134e-01 -3.15028e+00        00000 
-4.11470e-01 -3.14552e+00        00000 
-3.28963e-01 -3.14162e+00        00000 
-2.46609e-01 -3.13859e+00        00000 
-1.64343e-01 -3.13642e+00        00000 
-8.21626e-02 -3.13512e+00        00000 
 1.10216e-14 -3.13469e+00        00000 
 8.21626e-02 -3.13512e+00        00000 
 1.64343e-01 -3.13642e+00        00000 
 2.46609e-01 -3.13859e+00        00000 
 3.28963e-01 -3.14162e+00        00000 
 4.11470e-01 -3.14552e+00        00000 
 4.94134e-01 -3.15028e+00        00000 
 5.77022e-01 -3.15592e+00        00000 
 6.60136e-01 -3.16243e+00        00000 
 7.43543e-01 -3.16980e+00        00000 
 8.27245e-01 -3.17805e+00        00000 
 9.11310e-01 -3.18718e+00        00000 
 9.95741e-01 -3.19717e+00        00000 
 1.08060e+00 -3.20805e+00        00000 
 1.16590e+00 -3.21980e+00        00000 
 1.25171e+00 -3.23243e+00        00000 
 1.33802e+00 -3.24594e+00        00000 
 1.42490e+00 -3.26033e+00        00000 
 1.51236e+00 -3.27559e+00        00000 
 1.60046e+00 -3.29175e+00        00000 
 1.68921e+00 -3.30878e+00        00000 
 1.77867e+00 -3.32670e+00        00000 
 1.86884e+00 -3.34549e+00        00000 
 1.95980e+00 -3.36517e+00        00000 
 2.05154e+00 -3.38573e+00        00000 
 2.14413e+00 -3.40717e+00        00000 
 2.23757e+00 -3.42948e+00        00000 
 2.33192e+00 -3.45267e+00        00000 
 2.42718e+00 -3.47672e+00        00000 
 2.52341e+00 -3.50165e+00        00000 
 2.62062e+00 -3.52744e+00        00000 
 2.71886e+00 -3.55409e+00        00000 
 2.81812e+00 -3.58159e+00        00000 
 2.91847e+00 -3.60995e+00        00000 
 3.01990e+00 -3.63915e+00        00000 
 3.12246e+00 -3.66919e+00        00000 
 3.22614e+00 -3.70007e+00        00000 
 3.33100e+00 -3.73177e+00        00000 
 3.43701e+00 -3.76430e+00        00000 
 3.54424e+00 -3.79765e+00        00000 
 3.65266e+00 -3.83180e+00        00000 
 3.76232e+00 -3.86677e+00        00000 
 3.87319e+00 -3.90254e+00        00000 
 3.98533e+00 -3.93912e+00        00000 
 4.09870e+00 -3.97649e+00        00000 
 4.21335e+00 -4.01467e+00        00000 
 4.32926e+00 -4.05364e+00        00000 
 4.44646e+00 -4.09342e+00        00000 
 4.56492e+00 -4.13399e+00        00000 
 4.68469e+00 -4.17539e+00        00000 
-4.86900e+00 -4.42137e+00        00000 
-4.74561e+00 -4.38046e+00        00000 
-4.62355e+00 -4.34035e+00        00000 
-4.50276e+00 -4.30105e+00        00000 
-4.38328e+00 -4.26255e+00        00000 
-4.26504e+00 -4.22484e+00        00000 
-4.14809e+00 -4.18793e+00        00000 
-4.03237e+00 -4.15181e+00        00000 
-3.91792e+00 -4.11650e+00        00000 
-3.80466e+00 -4.08197e+00        00000 
-3.69264e+00 -4.04826e+00        00000 
-3.58180e+00 -4.01534e+00        00000 
-3.47216e+00 -3.98323e+00        00000 
-3.36366e+00 -3.95193e+00        00000 
-3.25632e+00 -3.92146e+00        00000 
-3.15009e+00 -3.89180e+00        00000 
-3.04497e+00 -3.86297e+00        00000 
-2.94092e+00 -3.83497e+00        00000 
-2.83794e+00 -3.80781e+00        00000 
-2.73596e+00 -3.78148e+00        00000 
-2.63501e+00 -3.75600e+00        00000 
-2.53501e+00 -3.73136e+00        00000 
-2.43598e+00 -3.70758e+00        00000 
-2.33784e+00 -3.68466e+00        00000 
-2.24061e+00 -3.66259e+00        00000 
-2.14421e+00 -3.64138e+00        00000 
-2.04865e+00 -3.62103e+00        00000 
-1.95387e+00 -3.60155e+00        00000 
-1.85986e+00 -3.58294e+00        00000 
-1.76655e+00 -3.56519e+00        00000 
-1.67396e+00 -3.54831e+00        00000 
-1.58201e+00 -3.53230e+00        00000 
-1.49069e+00 -3.51716e+00        00000 
-1.39995e+00 -3.50289e+00        00000 
-1.30978e+00 -3.48948e+00        00000 
-1.22011e+00 -3.47695e+00        00000 
-1.13094e+00 -3.46529e+00        00000 
-1.04221e+00 -3.45449e+00        00000 
-9.53908e-01 -3.44456e+00        00000 
-8.65971e-01 -3.43549e+00        00000 
-7.78397e-01 -3.42730e+00        00000 
-6.91117e-01 -3.41996e+00        00000 
-6.04131e-01 -3.41350e+00        00000 
-5.17371e-01 -3.40789e+00        00000 
-4.30834e-01 -3.40315e+00        00000 
-3.44453e-01 -3.39928e+00        00000 
-2.58228e-01 -3.39626e+00        00000 
-1.72088e-01 -3.39411e+00        00000 
-8.60355e-02 -3.39281e+00        00000 
 1.71212e-14 -3.39238e+00        00000 
 8.60355e-02 -3.39281e+00        00000 
 1.72088e-01 -3.39411e+00        00000 
 2.58228e-01 -3.39626e+00        00000 
 3.44453e-01 -3.39928e+00        00000 
 4.30834e-01 -3.40315e+00        00000 
 5.17371e-01 -3.40789e+00        00000 
 6.04131e-01 -3.41350e+00        00000 
 6.91117e-01 -3.41996e+00        00000 
 7.78397e-01 -3.42730e+00        00000 
 8.65971e-01 -3.43549e+00        00000 
 9.53908e-01 -3.44456e+00        00000 
 1.04221e+00 -3.45449e+00        00000 
 1.13094e+00 -3.46529e+00        00000 
 1.22011e+00 -3.47695e+00        00000 
 1.30978e+00 -3.48948e+00        00000 
 1.39995e+00 -3.50289e+00        00000 
 1.49069e+00 -3.51716e+00        00000 
 1.58201e+00 -3.53230e+00        00000 
 1.67396e+00 -3.54831e+00        00000 
 1.76655e+00 -3.56519e+00        00000 
 1.85986e+00 -3.58294e+00        00000 
 1.95387e+00 -3.60155e+00        00000 
 2.04865e+00 -3.62103e+00        00000 
 2.14421e+00 -3.64138e+00        00000 
 2.24061e+00 -3.66259e+00        00000 
 2.33784e+00 -3.68466e+00        00000 
 2.43598e+00 -3.70758e+00        00000 
 2.53501e+00 -3.73136e+00        00000 
 2.63501e+00 -3.75600e+00        00000 
 2.73596e+00 -3.78148e+00        00000 
 2.83794e+00 -3.80781e+00        00000 
 2.94092e+00 -3.83497e+00        00000 
 3.04497e+00 -3.86297e+00        00000 
 3.15009e+00 -3.89180e+00        00000 
 3.25632e+00 -3.92146e+00        00000 
 3.36366e+00 -3.95193e+00        00000 
 3.47216e+00 -3.98323e+00        00000 
 3.58180e+00 -4.01534e+00        00000 
 3.69264e+00 -4.04826e+00        00000 
 3.80466e+00 -4.08197e+00        00000 
 3.91792e+00 -4.11650e+00        00000 
 4.03237e+00 -4.15181e+00        00000 
 4.14809e+00 -4.18793e+00        00000 
 4.26504e+00 -4.22484e+00        00000 
 4.38328e+00 -4.26255e+00        00000 
 4.50276e+00 -4.30105e+00        00000 
 4.62355e+00 -4.34035e+00        00000 
 4.74561e+00 -4.38046e+00        00000 
 4.86900e+00 -4.42137e+00        00000 
-5.05117e+00 -4.67461e+00        00000 
-4.92418e+00 -4.63418e+00        00000 
-4.79853e+00 -4.59456e+00        00000 
-4.67417e+00 -4.55573e+00        00000 
-4.55112e+00 -4.51770e+00        00000 
-4.42932e+00 -4.48046e+00        00000 
-4.30881e+00 -4.44402e+00        00000 
-4.18953e+00 -4.40836e+00        00000 
-4.07151e+00 -4.37350e+00        00000 
-3.95469e+00 -4.33942e+00        00000 
-3.83910e+00 -4.30614e+00        00000 
-3.72467e+00 -4.27366e+00        00000 
-3.61143e+00 -4.24197e+00        00000 
-3.49933e+00 -4.21109e+00        00000 
-3.38837e+00 -4.18101e+00        00000 
-3.27851e+00 -4.15174e+00        00000 
-3.16975e+00 -4.12329e+00        00000 
-3.06204e+00 -4.09565e+00        00000 
-2.95539e+00 -4.06884e+00        00000 
-2.84974e+00 -4.04285e+00        00000 
-2.74509e+00 -4.01769e+00        00000 
-2.64138e+00 -3.99337e+00        00000 
-2.53863e+00 -3.96988e+00        00000 
-2.43676e+00 -3.94723e+00        00000 
-2.33579e+00 -3.92542e+00        00000 
-2.23564e+00 -3.90446e+00        00000 
-2.13632e+00 -3.88435e+00        00000 
-2.03777e+00 -3.86508e+00        00000 
-1.93998e+00 -3.84667e+00        00000 
-1.84289e+00 -3.82911e+00        00000 
-1.74651e+00 -3.81241e+00        00000 
-1.65076e+00 -3.79656e+00        00000 
-1.55564e+00 -3.78157e+00        00000 
-1.46110e+00 -3.76744e+00        00000 
-1.36712e+00 -3.75416e+00        00000 
-1.27363e+00 -3.74174e+00        00000 
-1.18065e+00 -3.73019e+00        00000 
-1.08810e+00 -3.71948e+00        00000 
-9.95982e-01 -3.70964e+00        00000 
-9.04224e-01 -3.70065e+00        00000 
-8.12828e-01 -3.69252e+00        00000 
-7.21724e-01 -3.68525e+00        00000 
-6.30914e-01 -3.67883e+00        00000 
-5.40328e-01 -3.67327e+00        00000 
-4.49966e-01 -3.66857e+00        00000 
-3.59759e-01 -3.66472e+00        00000 
-2.69708e-01 -3.66173e+00        00000 
-1.79742e-01 -3.65959e+00        00000 
-8.98625e-02 -3.65831e+00        00000 
 2.19271e-14 -3.65788e+00        00000 
 8.98625e-02 -3.65831e+00        00000 
 1.79742e-01 -3.65959e+00        00000 
 2.69708e-01 -3.66173e+00        00000 
 3.59759e-01 -3.66472e+00        00000 
 4.49966e-01 -3.66857e+00        00000 
 5.40328e-01 -3.67327e+00        00000 
 6.30914e-01 -3.67883e+00        00000 
 7.21724e-01 -3.68525e+00        00000 
 8.12828e-01 -3.69252e+00        00000 
 9.04224e-01 -3.70065e+00        00000 
 9.95982e-01 -3.70964e+00        00000 
 1.08810e+00 -3.71948e+00        00000 
 1.18065e+00 -3.73019e+00        00000 
 1.27363e+00 -3.74174e+00        00000 
 1.36712e+00 -3.75416e+00        00000 
 1.46110e+00 -3.76744e+00        00000 
 1.55564e+00 -3.78157e+00        00000 
 1.65076e+00 -3.79656e+00        00000 
 1.74651e+00 -3.81241e+00        00000 
 1.84289e+00 -3.82911e+00        00000 
 1.93998e+00 -3.84667e+00        00000 
 2.03777e+00 -3.86508e+00        00000 
 2.13632e+00 -3.88435e+00        00000 
 2.23564e+00 -3.90446e+00        00000 
 2.33579e+00 -3.92542e+00        00000 
 2.43676e+00 -3.94723e+00        00000 
 2.53863e+00 -3.96988e+00        00000 
 2.64138e+00 -3.99337e+00        00000 
 2.74509e+00 -4.01769e+00        00000 
 2.84974e+00 -4.04285e+00        00000 
 2.95539e+00 -4.06884e+00        00000 
 3.06204e+00 -4.09565e+00        00000 
 3.16975e+00 -4.12329e+00        00000 
 3.27851e+00 -4.15174e+00        00000 
 3.38837e+00 -4.18101e+00        00000 
 3.49933e+00 -4.21109e+00        00000 
 3.61143e+00 -4.24197e+00        00000 
 3.72467e+00 -4.27366e+00        00000 
 3.83910e+00 -4.30614e+00        00000 
 3.95469e+00 -4.33942e+00        00000 
 4.07151e+00 -4.37350e+00        00000 
 4.18953e+00 -4.40836e+00        00000 
 4.30881e+00 -4.44402e+00        00000 
 4.42932e+00 -4.48046e+00        00000 
 4.55112e+00 -4.51770e+00        00000 
 4.67417e+00 -4.55573e+00        00000 
 4.79853e+00 -4.59456e+00        00000 
 4.92418e+00 -4.63418e+00        00000 
 5.05117e+00 -4.67461e+00        00000 
-5.23116e+00 -4.93506e+00        00000 
-5.10060e+00 -4.89512e+00        00000 
-4.97139e+00 -4.85599e+00        00000 
-4.84347e+00 -4.81764e+00        00000 
-4.71687e+00 -4.78009e+00        00000 
-4.59153e+00 -4.74332e+00        00000 
-4.46749e+00 -4.70734e+00        00000 
-4.34467e+00 -4.67214e+00        00000 
-4.22312e+00 -4.63773e+00        00000 
-4.10275e+00 -4.60410e+00        00000 
-3.98361e+00 -4.57127e+00        00000 
-3.86563e+00 -4.53921e+00        00000 
-3.74884e+00 -4.50795e+00        00000 
-3.63316e+00 -4.47748e+00        00000 
-3.51863e+00 -4.44781e+00        00000 
-3.40518e+00 -4.41894e+00        00000 
-3.29282e+00 -4.39087e+00        00000 
-3.18150e+00 -4.36360e+00        00000 
-3.07123e+00 -4.33715e+00        00000 
-2.96194e+00 -4.31150e+00        00000 
-2.85365e+00 -4.28667e+00        00000 
-2.74628e+00 -4.26266e+00        00000 
-2.63987e+00 -4.23948e+00        00000 
-2.53432e+00 -4.21712e+00        00000 
-2.42966e+00 -4.19559e+00        00000 
-2.32581e+00 -4.17489e+00        00000 
-2.22279e+00 -4.15503e+00        00000 
-2.12052e+00 -4.13600e+00        00000 
-2.01902e+00 -4.11781e+00        00000 
-1.91820e+00 -4.10045e+00        00000 
-1.81808e+00 -4.08395e+00        00000 
-1.71859e+00 -4.06828e+00        00000 
-1.61973e+00 -4.05346e+00        00000 
-1.52143e+00 -4.03948e+00        00000 
-1.42370e+00 -4.02634e+00        00000 
-1.32646e+00 -4.01406e+00        00000 
-1.22972e+00 -4.00262e+00        00000 
-1.13340e+00 -3.99203e+00        00000 
-1.03751e+00 -3.98228e+00        00000 
-9.41984e-01 -3.97338e+00        00000 
-8.46817e-01 -3.96533e+00        00000 
-7.51940e-01 -3.95813e+00        00000 
-6.57356e-01 -3.95178e+00        00000 
-5.62994e-01 -3.94627e+00        00000 
-4.68856e-01 -3.94161e+00        00000 
-3.74872e-01 -3.93780e+00        00000 
-2.81043e-01 -3.93483e+00        00000 
-1.87298e-01 -3.93271e+00        00000 
-9.36413e-02 -3.93144e+00        00000 
 2.77766e-14 -3.93102e+00        00000 
 9.36413e-02 -3.93144e+00        00000 
 1.87298e-01 -3.93271e+00        00000 
 2.81043e-01 -3.93483e+00        00000 
 3.74872e-01 -3.93780e+00        00000 
 4.68856e-01 -3.94161e+00        00000 
 5.62994e-01 -3.94627e+00        00000 
 6.57356e-01 -3.95178e+00        00000 
 7.51940e-01 -3.95813e+00        00000 
 8.46817e-01 -3.96533e+00        00000 
 9.41984e-01 -3.97338e+00        00000 
 1.03751e+00 -3.98228e+00        00000 
 1.13340e+00 -3.99203e+00        00000 
 1.22972e+00 -4.00262e+00        00000 
 1.32646e+00 -4.01406e+00        00000 
 1.42370e+00 -4.02634e+00        00000 
 1.52143e+00 -4.03948e+00        00000 
 1.61973e+00 -4.05346e+00        00000 
 1.71859e+00 -4.06828e+00        00000 
 1.81808e+00 -4.08395e+00        00000 
 1.91820e+00 -4.10045e+00        00000 
 2.01902e+00 -4.11781e+00        00000 
 2.12052e+00 -4.13600e+00        00000 
 2.22279e+00 -4.15503e+00        00000 
 2.32581e+00 -4.17489e+00        00000 
 2.42966e+00 -4.19559e+00        00000 
 2.53432e+00 -4.21712e+00        00000 
 2.63987e+00 -4.23948e+00        00000 
 2.74628e+00 -4.26266e+00        00000 
 2.85365e+00 -4.28667e+00        00000 
 2.96194e+00 -4.31150e+00        00000 
 3.07123e+00 -4.33715e+00        00000 
 3.18150e+00 -4.36360e+00        00000 
 3.29282e+00 -4.39087e+00        00000 
 3.40518e+00 -4.41894e+00        00000 
 3.51863e+00 -4.44781e+00        00000 
 3.63316e+00 -4.47748e+00        00000 
 3.74884e+00 -4.50795e+00        00000 
 3.86563e+00 -4.53921e+00        00000 
 3.98361e+00 -4.57127e+00        00000 
 4.10275e+00 -4.60410e+00        00000 
 4.22312e+00 -4.63773e+00        00000 
 4.34467e+00 -4.67214e+00        00000 
 4.46749e+00 -4.70734e+00        00000 
 4.59153e+00 -4.74332e+00        00000 
 4.71687e+00 -4.78009e+00        00000 
 4.84347e+00 -4.81764e+00        00000 
 4.97139e+00 -4.85599e+00        00000 
 5.10060e+00 -4.89512e+00        00000 
 5.23116e+00 -4.93506e+00        00000 
-5.40896e+00 -5.20268e+00        00000 
-5.27484e+00 -5.16324e+00        00000 
-5.14209e+00 -5.12459e+00        00000 
-5.01064e+00 -5.08673e+00        00000 
-4.88053e+00 -5.04965e+00        00000 
-4.75167e+00 -5.01336e+00        00000 
-4.62412e+00 -4.97785e+00        00000 
-4.49779e+00 -4.94311e+00        00000 
-4.37273e+00 -4.90916e+00        00000 
-4.24885e+00 -4.87598e+00        00000 
-4.12620e+00 -4.84358e+00        00000 
-4.00470e+00 -4.81196e+00        00000 
-3.88438e+00 -4.78112e+00        00000 
-3.76517e+00 -4.75107e+00        00000 
-3.64710e+00 -4.72181e+00        00000 
-3.53010e+00 -4.69333e+00        00000 
-3.41419e+00 -4.66564e+00        00000 
-3.29930e+00 -4.63875e+00        00000 
-3.18545e+00 -4.61266e+00        00000 
-3.07257e+00 -4.58736e+00        00000 
-2.96069e+00 -4.56288e+00        00000 
-2.84972e+00 -4.53919e+00        00000 
-2.73968e+00 -4.51632e+00        00000 
-2.63051e+00 -4.49426e+00        00000 
-2.52222e+00 -4.47302e+00        00000 
-2.41473e+00 -4.45259e+00        00000 
-2.30806e+00 -4.43299e+00        00000 
-2.20213e+00 -4.41420e+00        00000 
-2.09696e+00 -4.39624e+00        00000 
-1.99247e+00 -4.37911e+00        00000 
-1.88867e+00 -4.36281e+00        00000 
-1.78549e+00 -4.34733e+00        00000 
-1.68294e+00 -4.33269e+00        00000 
-1.58094e+00 -4.31888e+00        00000 
-1.47951e+00 -4.30591e+00        00000 
-1.37856e+00 -4.29377e+00        00000 
-1.27811e+00 -4.28246e+00        00000 
-1.17808e+00 -4.27199e+00        00000 
-1.07848e+00 -4.26236e+00        00000 
-9.79237e-01 -4.25356e+00        00000 
-8.80351e-01 -4.24560e+00        00000 
-7.81752e-01 -4.23848e+00        00000 
-6.83446e-01 -4.23219e+00        00000 
-5.85358e-01 -4.22674e+00        00000 
-4.87495e-01 -4.22213e+00        00000 
-3.89784e-01 -4.21836e+00        00000 
-2.92228e-01 -4.21543e+00        00000 
-1.94755e-01 -4.21333e+00        00000 
-9.73702e-02 -4.21208e+00        00000 
 2.67308e-14 -4.21166e+00        00000 
 9.73702e-02 -4.21208e+00        00000 
 1.94755e-01 -4.21333e+00        00000 
 2.92228e-01 -4.21543e+00        00000 
 3.89784e-01 -4.21836e+00        00000 
 4.87495e-01 -4.22213e+00        00000 
 5.85358e-01 -4.22674e+00        00000 
 6.83446e-01 -4.23219e+00        00000 
 7.81752e-01 -4.23848e+00        00000 
 8.80351e-01 -4.24560e+00        00000 
 9.79237e-01 -4.25356e+00        00000 
 1.07848e+00 -4.26236e+00        00000 
 1.17808e+00 -4.27199e+00        00000 
 1.27811e+00 -4.28246e+00        00000 
 1.37856e+00 -4.29377e+00        00000 
 1.47951e+00 -4.30591e+00        00000 
 1.58094e+00 -4.31888e+00        00000 
 1.68294e+00 -4.33269e+00        00000 
 1.78549e+00 -4.34733e+00        00000 
 1.88867e+00 -4.36281e+00        00000 
 1.99247e+00 -4.37911e+00        00000 
 2.09696e+00 -4.39624e+00        00000 
 2.20213e+00 -4.41420e+00        00000 
 2.30806e+00 -4.43299e+00        00000 
 2.41473e+00 -4.45259e+00        00000 
 2.52222e+00 -4.47302e+00        00000 
 2.63051e+00 -4.49426e+00        00000 
 2.73968e+00 -4.51632e+00        00000 
 2.84972e+00 -4.53919e+00        00000 
 2.96069e+00 -4.56288e+00        00000 
 3.07257e+00 -4.58736e+00        00000 
 3.18545e+00 -4.61266e+00        00000 
 3.29930e+00 -4.63875e+00        00000 
 3.41419e+00 -4.66564e+00        00000 
 3.53010e+00 -4.69333e+00        00000 
 3.64710e+00 -4.72181e+00        00000 
 3.76517e+00 -4.75107e+00        00000 
 3.88438e+00 -4.78112e+00        00000 
 4.00470e+00 -4.81196e+00        00000 
 4.12620e+00 -4.84358e+00        00000 
 4.24885e+00 -4.87598e+00        00000 
 4.37273e+00 -4.90916e+00        00000 
 4.49779e+00 -4.94311e+00        00000 
 4.62412e+00 -4.97785e+00        00000 
 4.75167e+00 -5.01336e+00        00000 
 4.88053e+00 -5.04965e+00        00000 
 5.01064e+00 -5.08673e+00        00000 
 5.14209e+00 -5.12459e+00        00000 
 5.27484e+00 -5.16324e+00        00000 
 5.40896e+00 -5.20268e+00        00000 
-5.58453e+00 -5.47741e+00        00000 
-5.44689e+00 -5.43846e+00        00000 
-5.31063e+00 -5.40031e+00        00000 
-5.17568e+00 -5.36293e+00        00000 
-5.04207e+00 -5.32634e+00        00000 
-4.90973e+00 -5.29052e+00        00000 
-4.77870e+00 -5.25548e+00        00000 
-4.64889e+00 -5.22120e+00        00000 
-4.52034e+00 -5.18771e+00        00000 
-4.39299e+00 -5.15497e+00        00000 
-4.26686e+00 -5.12302e+00        00000 
-4.14187e+00 -5.09183e+00        00000 
-4.01806e+00 -5.06142e+00        00000 
-3.89536e+00 -5.03178e+00        00000 
-3.77379e+00 -5.00293e+00        00000 
-3.65328e+00 -4.97485e+00        00000 
-3.53385e+00 -4.94755e+00        00000 
-3.41544e+00 -4.92103e+00        00000 
-3.29806e+00 -4.89531e+00        00000 
-3.18164e+00 -4.87037e+00        00000 
-3.06620e+00 -4.84623e+00        00000 
-2.95168e+00 -4.82287e+00        00000 
-2.83808e+00 -4.80032e+00        00000 
-2.72533e+00 -4.77857e+00        00000 
-2.61345e+00 -4.75762e+00        00000 
-2.50237e+00 -4.73747e+00        00000 
-2.39210e+00 -4.71814e+00        00000 
-2.28257e+00 -4.69961e+00        00000 
-2.17379e+00 -4.68189e+00        00000 
-2.06568e+00 -4.66499e+00        00000 
-1.95825e+00 -4.64890e+00        00000 
-1.85144e+00 -4.63363e+00        00000 
-1.74526e+00 -4.61918e+00        00000 
-1.63962e+00 -4.60555e+00        00000 
-1.53454e+00 -4.59274e+00        00000 
-1.42994e+00 -4.58075e+00        00000 
-1.32583e+00 -4.56959e+00        00000 
-1.22215e+00 -4.55925e+00        00000 
-1.11888e+00 -4.54974e+00        00000 
-1.01597e+00 -4.54105e+00        00000 
-9.13420e-01 -4.53319e+00        00000 
-8.11151e-01 -4.52615e+00        00000 
-7.09174e-01 -4.51994e+00        00000 
-6.07414e-01 -4.51456e+00        00000 
-5.05877e-01 -4.51001e+00        00000 
-4.04490e-01 -4.50628e+00        00000 
-3.03259e-01 -4.50338e+00        00000 
-2.02109e-01 -4.50131e+00        00000 
-1.01048e-01 -4.50007e+00        00000 
 1.96286e-14 -4.49966e+00        00000 
 1.01048e-01 -4.50007e+00        00000 
 2.02109e-01 -4.50131e+00        00000 
 3.03259e-01 -4.50338e+00        00000 
 4.04490e-01 -4.50628e+00        00000 
 5.05877e-01 -4.51001e+00        00000 
 6.07414e-01 -4.51456e+00        00000 
 7.09174e-01 -4.51994e+00        00000 
 8.11151e-01 -4.52615e+00        00000 
 9.13420e-01 -4.53319e+00        00000 
 1.01597e+00 -4.54105e+00        00000 
 1.11888e+00 -4.54974e+00        00000 
 1.22215e+00 -4.55925e+00        00000 
 1.32583e+00 -4.56959e+00        00000 
 1.42994e+00 -4.58075e+00        00000 
 1.53454e+00 -4.59274e+00        00000 
 1.63962e+00 -4.60555e+00        00000 
 1.74526e+00 -4.61918e+00        00000 
 1.85144e+00 -4.63363e+00        00000 
 1.95825e+00 -4.64890e+00        00000 
 2.06568e+00 -4.66499e+00        00000 
 2.17379e+00 -4.68189e+00        00000 
 2.28257e+00 -4.69961e+00        00000 
 2.39210e+00 -4.71814e+00        00000 
 2.50237e+00 -4.73747e+00        00000 
 2.61345e+00 -4.75762e+00        00000 
 2.72533e+00 -4.77857e+00        00000 
 2.83808e+00 -4.80032e+00        00000 
 2.95168e+00 -4.82287e+00        00000 
 3.06620e+00 -4.84623e+00        00000 
 3.18164e+00 -4.87037e+00        00000 
 3.29806e+00 -4.89531e+00        00000 
 3.41544e+00 -4.92103e+00        00000 
 3.53385e+00 -4.94755e+00        00000 
 3.65328e+00 -4.97485e+00        00000 
 3.77379e+00 -5.00293e+00        00000 
 3.89536e+00 -5.03178e+00        00000 
 4.01806e+00 -5.06142e+00        00000 
 4.14187e+00 -5.09183e+00        00000 
 4.26686e+00 -5.12302e+00        00000 
 4.39299e+00 -5.15497e+00        00000 
 4.52034e+00 -5.18771e+00        00000 
 4.64889e+00 -5.22120e+00        00000 
 4.77870e+00 -5.25548e+00        00000 
 4.90973e+00 -5.29052e+00        00000 
 5.04207e+00 -5.32634e+00        00000 
 5.17568e+00 -5.36293e+00        00000 
 5.31063e+00 -5.40031e+00        00000 
 5.44689e+00 -5.43846e+00        00000 
 5.58453e+00 -5.47741e+00        00000 
-5.75786e+00 -5.75918e+00        00000 
-5.61673e+00 -5.72074e+00        00000 
-5.47699e+00 -5.68308e+00        00000 
-5.33857e+00 -5.64620e+00        00000 
-5.20150e+00 -5.61009e+00        00000 
-5.06571e+00 -5.57474e+00        00000 
-4.93122e+00 -5.54017e+00        00000 
-4.79796e+00 -5.50636e+00        00000 
-4.66597e+00 -5.47332e+00        00000 
-4.53517e+00 -5.44103e+00        00000 
-4.40559e+00 -5.40952e+00        00000 
-4.27715e+00 -5.37877e+00        00000 
-4.14989e+00 -5.34878e+00        00000 
-4.02373e+00 -5.31956e+00        00000 
-3.89870e+00 -5.29111e+00        00000 
-3.77472e+00 -5.26343e+00        00000 
-3.65182e+00 -5.23652e+00        00000 
-3.52993e+00 -5.21039e+00        00000 
-3.40906e+00 -5.18503e+00        00000 
-3.28915e+00 -5.16045e+00        00000 
-3.17021e+00 -5.13665e+00        00000 
-3.05217e+00 -5.11363e+00        00000 
-2.93505e+00 -5.09140e+00        00000 
-2.81878e+00 -5.06996e+00        00000 
-2.70337e+00 -5.04931e+00        00000 
-2.58875e+00 -5.02945e+00        00000 
-2.47494e+00 -5.01039e+00        00000 
-2.36185e+00 -4.99212e+00        00000 
-2.24950e+00 -4.97466e+00        00000 
-2.13783e+00 -4.95799e+00        00000 
-2.02683e+00 -4.94213e+00        00000 
-1.91644e+00 -4.92707e+00        00000 
-1.80667e+00 -4.91282e+00        00000 
-1.69744e+00 -4.89937e+00        00000 
-1.58877e+00 -4.88674e+00        00000 
-1.48057e+00 -4.87491e+00        00000 
-1.37287e+00 -4.86390e+00        00000 
-1.26557e+00 -4.85370e+00        00000 
-1.15870e+00 -4.84431e+00        00000 
-1.05218e+00 -4.83574e+00        00000 
-9.46015e-01 -4.82798e+00        00000 
-8.40131e-01 -4.82104e+00        00000 
-7.34536e-01 -4.81491e+00        00000 
-6.29155e-01 -4.80960e+00        00000 
-5.23998e-01 -4.80510e+00        00000 
-4.18988e-01 -4.80143e+00        00000 
-3.14133e-01 -4.79857e+00        00000 
-2.09359e-01 -4.79652e+00        00000 
-1.04673e-01 -4.79530e+00        00000 
 5.87277e-15 -4.79489e+00        00000 
 1.04673e-01 -4.79530e+00        00000 
 2.09359e-01 -4.79652e+00        00000 
 3.14133e-01 -4.79857e+00        00000 
 4.18988e-01 -4.80143e+00        00000 
 5.23998e-01 -4.80510e+00        00000 
 6.29155e-01 -4.80960e+00        00000 
 7.34536e-01 -4.81491e+00        00000 
 8.40131e-01 -4.82104e+00        00000 
 9.46015e-01 -4.82798e+00        00000 
 1.05218e+00 -4.83574e+00        00000 
 1.15870e+00 -4.84431e+00        00000 
 1.26557e+00 -4.85370e+00        00000 
 1.37287e+00 -4.86390e+00        00000 
 1.48057e+00 -4.87491e+00        00000 
 1.58877e+00 -4.88674e+00        00000 
 1.69744e+00 -4.89937e+00        00000 
 1.80667e+00 -4.91282e+00        00000 
 1.91644e+00 -4.92707e+00        00000 
 2.02683e+00 -4.94213e+00        00000 
 2.13783e+00 -4.95799e+00        00000 
 2.24950e+00 -4.97466e+00        00000 
 2.36185e+00 -4.99212e+00        00000 
 2.47494e+00 -5.01039e+00        00000 
 2.58875e+00 -5.02945e+00        00000 
 2.70337e+00 -5.04931e+00        00000 
 2.81878e+00 -5.06996e+00        00000 
 2.93505e+00 -5.09140e+00        00000 
 3.05217e+00 -5.11363e+00        00000 
 3.17021e+00 -5.13665e+00        00000 
 3.28915e+00 -5.16045e+00        00000 
 3.40906e+00 -5.18503e+00        00000 
 3.52993e+00 -5.21039e+00        00000 
 3.65182e+00 -5.23652e+00        00000 
 3.77472e+00 -5.26343e+00        00000 
 3.89870e+00 -5.29111e+00        00000 
 4.02373e+00 -5.31956e+00        00000 
 4.14989e+00 -5.34878e+00        00000 
 4.27715e+00 -5.37877e+00        00000 
 4.40559e+00 -5.40952e+00        00000 
 4.53517e+00 -5.44103e+00        00000 
 4.66597e+00 -5.47332e+00        00000 
 4.79796e+00 -5.50636e+00        00000 
 4.93122e+00 -5.54017e+00        00000 
 5.06571e+00 -5.57474e+00        00000 
 5.20150e+00 -5.61009e+00        00000 
 5.33857e+00 -5.64620e+00        00000 
 5.47699e+00 -5.68308e+00        00000 
 5.61673e+00 -5.72074e+00        00000 
 5.75786e+00 -5.75918e+00        00000 
-5.92892e+00 -6.04791e+00        00000 
-5.78433e+00 -6.00998e+00        00000 
-5.64115e+00 -5.97283e+00        00000 
-5.49930e+00 -5.93644e+00        00000 
-5.35880e+00 -5.90082e+00        00000 
-5.21958e+00 -5.86595e+00        00000 
-5.08168e+00 -5.83185e+00        00000 
-4.94501e+00 -5.79850e+00        00000 
-4.80961e+00 -5.76592e+00        00000 
-4.67539e+00 -5.73408e+00        00000 
-4.54240e+00 -5.70301e+00        00000 
-4.41055e+00 -5.67269e+00        00000 
-4.27987e+00 -5.64313e+00        00000 
-4.15029e+00 -5.61433e+00        00000 
-4.02184e+00 -5.58629e+00        00000 
-3.89443e+00 -5.55900e+00        00000 
-3.76810e+00 -5.53249e+00        00000 
-3.64277e+00 -5.50673e+00        00000 
-3.51846e+00 -5.48174e+00        00000 
-3.39510e+00 -5.45752e+00        00000 
-3.27270e+00 -5.43407e+00        00000 
-3.15120e+00 -5.41139e+00        00000 
-3.03061e+00 -5.38949e+00        00000 
-2.91087e+00 -5.36836e+00        00000 
-2.79197e+00 -5.34801e+00        00000 
-2.67386e+00 -5.32844e+00        00000 
-2.55655e+00 -5.30966e+00        00000 
-2.43996e+00 -5.29165e+00        00000 
-2.32410e+00 -5.27444e+00        00000 
-2.20891e+00 -5.25802e+00        00000 
-2.09440e+00 -5.24239e+00        00000 
-1.98048e+00 -5.22754e+00        00000 
-1.86718e+00 -5.21350e+00        00000 
-1.75442e+00 -5.20025e+00        00000 
-1.64220e+00 -5.18779e+00        00000 
-1.53046e+00 -5.17614e+00        00000 
-1.41921e+00 -5.16528e+00        00000 
-1.30837e+00 -5.15522e+00        00000 
-1.19794e+00 -5.14597e+00        00000 
-1.08786e+00 -5.13751e+00        00000 
-9.78134e-01 -5.12986e+00        00000 
-8.68686e-01 -5.12302e+00        00000 
-7.59526e-01 -5.11697e+00        00000 
-6.50579e-01 -5.11174e+00        00000 
-5.41853e-01 -5.10730e+00        00000 
-4.33273e-01 -5.10368e+00        00000 
-3.24849e-01 -5.10086e+00        00000 
-2.16503e-01 -5.09884e+00        00000 
-1.08245e-01 -5.09763e+00        00000 
-9.70274e-15 -5.09723e+00        00000 
 1.08245e-01 -5.09763e+00        00000 
 2.16503e-01 -5.09884e+00        00000 
 3.24849e-01 -5.10086e+00        00000 
 4.33273e-01 -5.10368e+00        00000 
 5.41853e-01 -5.10730e+00        00000 
 6.50579e-01 -5.11174e+00        00000 
 7.59526e-01 -5.11697e+00        00000 
 8.68686e-01 -5.12302e+00        00000 
 9.78134e-01 -5.12986e+00        00000 
 1.08786e+00 -5.13751e+00        00000 
 1.19794e+00 -5.14597e+00        00000 
 1.30837e+00 -5.15522e+00        00000 
 1.41921e+00 -5.16528e+00        00000 
 1.53046e+00 -5.17614e+00        00000 
 1.64220e+00 -5.18779e+00        00000 
 1.75442e+00 -5.20025e+00        00000 
 1.86718e+00 -5.21350e+00        00000 
 1.98048e+00 -5.22754e+00        00000 
 2.09440e+00 -5.24239e+00        00000 
 2.20891e+00 -5.25802e+00        00000 
 2.32410e+00 -5.27444e+00        00000 
 2.43996e+00 -5.29165e+00        00000 
 2.55655e+00 -5.30966e+00        00000 
 2.67386e+00 -5.32844e+00        00000 
 2.79197e+00 -5.34801e+00        00000 
 2.91087e+00 -5.36836e+00        00000 
 3.03061e+00 -5.38949e+00        00000 
 3.15120e+00 -5.41139e+00        00000 
 3.27270e+00 -5.43407e+00        00000 
 3.39510e+00 -5.45752e+00        00000 
 3.51846e+00 -5.48174e+00        00000 
 3.64277e+00 -5.50673e+00        00000 
 3.76810e+00 -5.53249e+00        00000 
 3.89443e+00 -5.55900e+00        00000 
 4.02184e+00 -5.58629e+00        00000 
 4.15029e+00 -5.61433e+00        00000 
 4.27987e+00 -5.64313e+00        00000 
 4.41055e+00 -5.67269e+00        00000 
 4.54240e+00 -5.70301e+00        00000 
 4.67539e+00 -5.73408e+00        00000 
 4.80961e+00 -5.76592e+00        00000 
 4.94501e+00 -5.79850e+00        00000 
 5.08168e+00 -5.83185e+00        00000 
 5.21958e+00 -5.86595e+00        00000 
 5.35880e+00 -5.90082e+00        00000 
 5.49930e+00 -5.93644e+00        00000 
 5.64115e+00 -5.97283e+00        00000 
 5.78433e+00 -6.00998e+00        00000 
 5.92892e+00 -6.04791e+00        00000 
-6.09770e+00 -6.34355e+00        00000 
-5.94969e+00 -6.30613e+00        00000 
-5.80311e+00 -6.26948e+00        00000 
-5.65785e+00 -6.23358e+00        00000 
-5.51396e+00 -6.19845e+00        00000 
-5.37136e+00 -6.16406e+00        00000 
-5.23007e+00 -6.13044e+00        00000 
-5.09003e+00 -6.09755e+00        00000 
-4.95125e+00 -6.06543e+00        00000 
-4.81366e+00 -6.03404e+00        00000 
-4.67729e+00 -6.00341e+00        00000 
-4.54206e+00 -5.97353e+00        00000 
-4.40801e+00 -5.94439e+00        00000 
-4.27505e+00 -5.91601e+00        00000 
-4.14321e+00 -5.88837e+00        00000 
-4.01242e+00 -5.86149e+00        00000 
-3.88270e+00 -5.83536e+00        00000 
-3.75397e+00 -5.80998e+00        00000 
-3.62626e+00 -5.78537e+00        00000 
-3.49949e+00 -5.76150e+00        00000 
-3.37369e+00 -5.73840e+00        00000 
-3.24877e+00 -5.71606e+00        00000 
-3.12476e+00 -5.69448e+00        00000 
-3.00158e+00 -5.67367e+00        00000 
-2.87926e+00 -5.65363e+00        00000 
-2.75771e+00 -5.63435e+00        00000 
-2.63695e+00 -5.61585e+00        00000 
-2.51690e+00 -5.59811e+00        00000 
-2.39759e+00 -5.58116e+00        00000 
-2.27894e+00 -5.56498e+00        00000 
-2.16095e+00 -5.54958e+00        00000 
-2.04357e+00 -5.53496e+00        00000 
-1.92679e+00 -5.52112e+00        00000 
-1.81054e+00 -5.50807e+00        00000 
-1.69484e+00 -5.49580e+00        00000 
-1.57961e+00 -5.48432e+00        00000 
-1.46486e+00 -5.47362e+00        00000 
-1.35052e+00 -5.46371e+00        00000 
-1.23659e+00 -5.45459e+00        00000 
-1.12300e+00 -5.44626e+00        00000 
-1.00977e+00 -5.43872e+00        00000 
-8.96814e-01 -5.43197e+00        00000 
-7.84143e-01 -5.42602e+00        00000 
-6.71682e-01 -5.42086e+00        00000 
-5.59442e-01 -5.41649e+00        00000 
-4.47346e-01 -5.41291e+00        00000 
-3.35404e-01 -5.41013e+00        00000 
-2.23540e-01 -5.40815e+00        00000 
-1.11764e-01 -5.40696e+00        00000 
-3.40700e-14 -5.40656e+00        00000 
 1.11764e-01 -5.40696e+00        00000 
 2.23540e-01 -5.40815e+00        00000 
 3.35404e-01 -5.41013e+00        00000 
 4.47346e-01 -5.41291e+00        00000 
 5.59442e-01 -5.41649e+00        00000 
 6.71682e-01 -5.42086e+00        00000 
 7.84143e-01 -5.42602e+00        00000 
 8.96814e-01 -5.43197e+00        00000 
 1.00977e+00 -5.43872e+00        00000 
 1.12300e+00 -5.44626e+00        00000 
 1.23659e+00 -5.45459e+00        00000 
 1.35052e+00 -5.46371e+00        00000 
 1.46486e+00 -5.47362e+00        00000 
 1.57961e+00 -5.48432e+00        00000 
 1.69484e+00 -5.49580e+00        00000 
 1.81054e+00 -5.50807e+00        00000 
 1.92679e+00 -5.52112e+00        00000 
 2.04357e+00 -5.53496e+00        00000 
 2.16095e+00 -5.54958e+00        00000 
 2.27894e+00 -5.56498e+00        00000 
 2.39759e+00 -5.58116e+00        00000 
 2.51690e+00 -5.59811e+00        00000 
 2.63695e+00 -5.61585e+00        00000 
 2.75771e+00 -5.63435e+00        00000 
 2.87926e+00 -5.65363e+00        00000 
 3.00158e+00 -5.67367e+00        00000 
 3.12476e+00 -5.69448e+00        00000 
 3.24877e+00 -5.71606e+00        00000 
 3.37369e+00 -5.73840e+00        00000 
 3.49949e+00 -5.76150e+00        00000 
 3.62626e+00 -5.78537e+00        00000 
 3.75397e+00 -5.80998e+00        00000 
 3.88270e+00 -5.83536e+00        00000 
 4.01242e+00 -5.86149e+00        00000 
 4.14321e+00 -5.88837e+00        00000 
 4.27505e+00 -5.91601e+00        00000 
 4.40801e+00 -5.94439e+00        00000 
 4.54206e+00 -5.97353e+00        00000 
 4.67729e+00 -6.00341e+00        00000 
 4.81366e+00 -6.03404e+00        00000 
 4.95125e+00 -6.06543e+00        00000 
 5.09003e+00 -6.09755e+00        00000 
 5.23007e+00 -6.13044e+00        00000 
 5.37136e+00 -6.16406e+00        00000 
 5.51396e+00 -6.19845e+00        00000 
 5.65785e+00 -6.23358e+00        00000 
 5.80311e+00 -6.26948e+00        00000 
 5.94969e+00 -6.30613e+00        00000 
 6.09770e+00 -6.34355e+00        00000 
-6.26417e+00 -6.64599e+00        00000 
-6.11279e+00 -6.60909e+00        00000 
-5.96284e+00 -6.57295e+00        00000 
-5.81422e+00 -6.53755e+00        00000 
-5.66698e+00 -6.50291e+00        00000 
-5.52103e+00 -6.46900e+00        00000 
-5.37640e+00 -6.43585e+00        00000 
-5.23301e+00 -6.40343e+00        00000 
-5.09089e+00 -6.37176e+00        00000 
-4.94996e+00 -6.34083e+00        00000 
-4.81026e+00 -6.31064e+00        00000 
-4.67170e+00 -6.28119e+00        00000 
-4.53431e+00 -6.25248e+00        00000 
-4.39801e+00 -6.22451e+00        00000 
-4.26283e+00 -6.19729e+00        00000 
-4.12869e+00 -6.17080e+00        00000 
-3.99562e+00 -6.14506e+00        00000 
-3.86354e+00 -6.12006e+00        00000 
-3.73248e+00 -6.09581e+00        00000 
-3.60235e+00 -6.07231e+00        00000 
-3.47318e+00 -6.04956e+00        00000 
-3.34489e+00 -6.02755e+00        00000 
-3.21750e+00 -6.00631e+00        00000 
-3.09094e+00 -5.98581e+00        00000 
-2.96523e+00 -5.96607e+00        00000 
-2.84029e+00 -5.94709e+00        00000 
-2.71613e+00 -5.92887e+00        00000 
-2.59269e+00 -5.91141e+00        00000 
-2.46997e+00 -5.89471e+00        00000 
-2.34790e+00 -5.87878e+00        00000 
-2.22650e+00 -5.86362e+00        00000 
-2.10569e+00 -5.84922e+00        00000 
-1.98549e+00 -5.83560e+00        00000 
-1.86581e+00 -5.82274e+00        00000 
-1.74667e+00 -5.81066e+00        00000 
-1.62800e+00 -5.79935e+00        00000 
-1.50981e+00 -5.78881e+00        00000 
-1.39202e+00 -5.77906e+00        00000 
-1.27465e+00 -5.77008e+00        00000 
-1.15761e+00 -5.76187e+00        00000 
-1.04093e+00 -5.75445e+00        00000 
-9.24513e-01 -5.74780e+00        00000 
-8.08385e-01 -5.74194e+00        00000 
-6.92463e-01 -5.73685e+00        00000 
-5.76763e-01 -5.73255e+00        00000 
-4.61203e-01 -5.72903e+00        00000 
-3.45799e-01 -5.72629e+00        00000 
-2.30470e-01 -5.72433e+00        00000 
-1.15230e-01 -5.72316e+00        00000 
-6.24939e-14 -5.72277e+00        00000 
 1.15230e-01 -5.72316e+00        00000 
 2.30470e-01 -5.72433e+00        00000 
 3.45799e-01 -5.72629e+00        00000 
 4.61203e-01 -5.72903e+00        00000 
 5.76763e-01 -5.73255e+00        00000 
 6.92463e-01 -5.73685e+00        00000 
 8.08385e-01 -5.74194e+00        00000 
 9.24513e-01 -5.74780e+00        00000 
 1.04093e+00 -5.75445e+00        00000 
 1.15761e+00 -5.76187e+00        00000 
 1.27465e+00 -5.77008e+00        00000 
 1.39202e+00 -5.77906e+00        00000 
 1.50981e+00 -5.78881e+00        00000 
 1.62800e+00 -5.79935e+00        00000 
 1.74667e+00 -5.81066e+00        00000 
 1.86581e+00 -5.82274e+00        00000 
 1.98549e+00 -5.83560e+00        00000 
 2.10569e+00 -5.84922e+00        00000 
 2.22650e+00 -5.86362e+00        00000 
 2.34790e+00 -5.87878e+00        00000 
 2.46997e+00 -5.89471e+00        00000 
 2.59269e+00 -5.91141e+00        00000 
 2.71613e+00 -5.92887e+00        00000 
 2.84029e+00 -5.94709e+00        00000 
 2.96523e+00 -5.96607e+00        00000 
 3.09094e+00 -5.98581e+00        00000 
 3.21750e+00 -6.00631e+00        00000 
 3.34489e+00 -6.02755e+00        00000 
 3.47318e+00 -6.04956e+00        00000 
 3.60235e+00 -6.07231e+00        00000 
 3.73248e+00 -6.09581e+00        00000 
 3.86354e+00 -6.12006e+00        00000 
 3.99562e+00 -6.14506e+00        00000 
 4.12869e+00 -6.17080e+00        00000 
 4.26283e+00 -6.19729e+00        00000 
 4.39801e+00 -6.22451e+00        00000 
 4.53431e+00 -6.25248e+00        00000 
 4.67170e+00 -6.28119e+00        00000 
 4.81026e+00 -6.31064e+00        00000 
 4.94996e+00 -6.34083e+00        00000 
 5.09089e+00 -6.37176e+00        00000 
 5.23301e+00 -6.40343e+00        00000 
 5.37640e+00 -6.43585e+00        00000 
 5.52103e+00 -6.46900e+00        00000 
 5.66698e+00 -6.50291e+00        00000 
 5.81422e+00 -6.53755e+00        00000 
 5.96284e+00 -6.57295e+00        00000 
 6.11279e+00 -6.60909e+00        00000 
 6.26417e+00 -6.64599e+00        00000 
-6.42833e+00 -6.95517e+00        00000 
-6.27362e+00 -6.91878e+00        00000 
-6.12034e+00 -6.88315e+00        00000 
-5.96840e+00 -6.84825e+00        00000 
-5.81784e+00 -6.81410e+00        00000 
-5.66858e+00 -6.78068e+00        00000 
-5.52065e+00 -6.74801e+00        00000 
-5.37395e+00 -6.71606e+00        00000 
-5.22854e+00 -6.68485e+00        00000 
-5.08431e+00 -6.65436e+00        00000 
-4.94131e+00 -6.62462e+00        00000 
-4.79945e+00 -6.59560e+00        00000 
-4.65876e+00 -6.56731e+00        00000 
-4.51917e+00 -6.53976e+00        00000 
-4.38069e+00 -6.51294e+00        00000 
-4.24325e+00 -6.48685e+00        00000 
-4.10687e+00 -6.46150e+00        00000 
-3.97148e+00 -6.43688e+00        00000 
-3.83710e+00 -6.41300e+00        00000 
-3.70366e+00 -6.38986e+00        00000 
-3.57117e+00 -6.36745e+00        00000 
-3.43956e+00 -6.34579e+00        00000 
-3.30884e+00 -6.32487e+00        00000 
-3.17895e+00 -6.30469e+00        00000 
-3.04990e+00 -6.28526e+00        00000 
-2.92161e+00 -6.26657e+00        00000 
-2.79411e+00 -6.24863e+00        00000 
-2.66731e+00 -6.23144e+00        00000 
-2.54124e+00 -6.21501e+00        00000 
-2.41581e+00 -6.19933e+00        00000 
-2.29104e+00 -6.18440e+00        00000 
-2.16686e+00 -6.17023e+00        00000 
-2.04328e+00 -6.15682e+00        00000 
-1.92022e+00 -6.14416e+00        00000 
-1.79771e+00 -6.13227e+00        00000 
-1.67565e+00 -6.12113e+00        00000 
-1.55407e+00 -6.11076e+00        00000 
-1.43289e+00 -6.10116e+00        00000 
-1.31212e+00 -6.09232e+00        00000 
-1.19169e+00 -6.08424e+00        00000 
-1.07160e+00 -6.07693e+00        00000 
-9.51783e-01 -6.07039e+00        00000 
-8.32251e-01 -6.06462e+00        00000 
-7.12923e-01 -6.05961e+00        00000 
-5.93815e-01 -6.05538e+00        00000 
-4.74846e-01 -6.05191e+00        00000 
-3.56032e-01 -6.04922e+00        00000 
-2.37292e-01 -6.04729e+00        00000 
-1.18642e-01 -6.04613e+00        00000 
-8.82811e-14 -6.04575e+00        00000 
 1.18642e-01 -6.04613e+00        00000 
 2.37292e-01 -6.04729e+00        00000 
 3.56032e-01 -6.04922e+00        00000 
 4.74846e-01 -6.05191e+00        00000 
 5.93815e-01 -6.05538e+00        00000 
 7.12923e-01 -6.05961e+00        00000 
 8.32251e-01 -6.06462e+00        00000 
 9.51783e-01 -6.07039e+00        00000 
 1.07160e+00 -6.07693e+00        00000 
 1.19169e+00 -6.08424e+00        00000 
 1.31212e+00 -6.09232e+00        00000 
 1.43289e+00 -6.10116e+00        00000 
 1.55407e+00 -6.11076e+00        00000 
 1.67565e+00 -6.12113e+00        00000 
 1.79771e+00 -6.13227e+00        00000 
 1.92022e+00 -6.14416e+00        00000 
 2.04328e+00 -6.15682e+00        00000 
 2.16686e+00 -6.17023e+00        00000 
 2.29104e+00 -6.18440e+00        00000 
 2.41581e+00 -6.19933e+00        00000 
 2.54124e+00 -6.21501e+00        00000 
 2.66731e+00 -6.23144e+00        00000 
 2.79411e+00 -6.24863e+00        00000 
 2.92161e+00 -6.26657e+00        00000 
 3.04990e+00 -6.28526e+00        00000 
 3.17895e+00 -6.30469e+00        00000 
 3.30884e+00 -6.32487e+00        00000 
 3.43956e+00 -6.34579e+00        00000 
 3.57117e+00 -6.36745e+00        00000 
 3.70366e+00 -6.38986e+00        00000 
 3.83710e+00 -6.41300e+00        00000 
 3.97148e+00 -6.43688e+00        00000 
 4.10687e+00 -6.46150e+00        00000 
 4.24325e+00 -6.48685e+00        00000 
 4.38069e+00 -6.51294e+00        00000 
 4.51917e+00 -6.53976e+00        00000 
 4.65876e+00 -6.56731e+00        00000 
 4.79945e+00 -6.59560e+00        00000 
 4.94131e+00 -6.62462e+00        00000 
 5.08431e+00 -6.65436e+00        00000 
 5.22854e+00 -6.68485e+00        00000 
 5.37395e+00 -6.71606e+00        00000 
 5.52065e+00 -6.74801e+00        00000 
 5.66858e+00 -6.78068e+00        00000 
 5.81784e+00 -6.81410e+00        00000 
 5.96840e+00 -6.84825e+00        00000 
 6.12034e+00 -6.88315e+00        00000 
 6.27362e+00 -6.91878e+00        00000 
 6.42833e+00 -6.95517e+00        00000 
-6.59015e+00 -7.27098e+00        00000 
-6.43215e+00 -7.23512e+00        00000 
-6.27559e+00 -7.20000e+00        00000 
-6.12037e+00 -7.16561e+00        00000 
-5.96654e+00 -7.13195e+00        00000 
-5.81401e+00 -7.09902e+00        00000 
-5.66281e+00 -7.06682e+00        00000 
-5.51286e+00 -7.03533e+00        00000 
-5.36418e+00 -7.00458e+00        00000 
-5.21670e+00 -6.97455e+00        00000 
-5.07044e+00 -6.94525e+00        00000 
-4.92533e+00 -6.91666e+00        00000 
-4.78138e+00 -6.88880e+00        00000 
-4.63853e+00 -6.86166e+00        00000 
-4.49679e+00 -6.83525e+00        00000 
-4.35609e+00 -6.80956e+00        00000 
-4.21645e+00 -6.78459e+00        00000 
-4.07780e+00 -6.76035e+00        00000 
-3.94015e+00 -6.73684e+00        00000 
-3.80344e+00 -6.71405e+00        00000 
-3.66767e+00 -6.69200e+00        00000 
-3.53278e+00 -6.67067e+00        00000 
-3.39879e+00 -6.65008e+00        00000 
-3.26561e+00 -6.63021e+00        00000 
-3.13327e+00 -6.61109e+00        00000 
-3.00168e+00 -6.59270e+00        00000 
-2.87088e+00 -6.57504e+00        00000 
-2.74078e+00 -6.55813e+00        00000 
-2.61140e+00 -6.54195e+00        00000 
-2.48266e+00 -6.52652e+00        00000 
-2.35458e+00 -6.51183e+00        00000 
-2.22707e+00 -6.49788e+00        00000 
-2.10017e+00 -6.48468e+00        00000 
-1.97379e+00 -6.47223e+00        00000 
-1.84794e+00 -6.46053e+00        00000 
-1.72255e+00 -6.44957e+00        00000 
-1.59764e+00 -6.43937e+00        00000 
-1.47312e+00 -6.42991e+00        00000 
-1.34901e+00 -6.42122e+00        00000 
-1.22522e+00 -6.41327e+00        00000 
-1.10179e+00 -6.40608e+00        00000 
-9.78625e-01 -6.39964e+00        00000 
-8.55742e-01 -6.39396e+00        00000 
-7.33061e-01 -6.38903e+00        00000 
-6.10599e-01 -6.38487e+00        00000 
-4.88275e-01 -6.38146e+00        00000 
-3.66105e-01 -6.37880e+00        00000 
-2.44008e-01 -6.37691e+00        00000 
-1.22000e-01 -6.37577e+00        00000 
-1.14834e-13 -6.37539e+00        00000 
 1.22000e-01 -6.37577e+00        00000 
 2.44008e-01 -6.37691e+00        00000 
 3.66105e-01 -6.37880e+00        00000 
 4.88275e-01 -6.38146e+00        00000 
 6.10599e-01 -6.38487e+00        00000 
 7.33061e-01 -6.38903e+00        00000 
 8.55742e-01 -6.39396e+00        00000 
 9.78625e-01 -6.39964e+00        00000 
 1.10179e+00 -6.40608e+00        00000 
 1.22522e+00 -6.41327e+00        00000 
 1.34901e+00 -6.42122e+00        00000 
 1.47312e+00 -6.42991e+00        00000 
 1.59764e+00 -6.43937e+00        00000 
 1.72255e+00 -6.44957e+00        00000 
 1.84794e+00 -6.46053e+00        00000 
 1.97379e+00 -6.47223e+00        00000 
 2.10017e+00 -6.48468e+00        00000 
 2.22707e+00 -6.49788e+00        00000 
 2.35458e+00 -6.51183e+00        00000 
 2.48266e+00 -6.52652e+00        00000 
 2.61140e+00 -6.54195e+00        00000 
 2.74078e+00 -6.55813e+00        00000 
 2.87088e+00 -6.57504e+00        00000 
 3.00168e+00 -6.59270e+00        00000 
 3.13327e+00 -6.61109e+00        00000 
 3.26561e+00 -6.63021e+00        00000 
 3.39879e+00 -6.65008e+00        00000 
 3.53278e+00 -6.67067e+00        00000 
 3.66767e+00 -6.69200e+00        00000 
 3.80344e+00 -6.71405e+00        00000 
 3.94015e+00 -6.73684e+00        00000 
 4.07780e+00 -6.76035e+00        00000 
 4.21645e+00 -6.78459e+00        00000 
 4.35609e+00 -6.80956e+00        00000 
 4.49679e+00 -6.83525e+00        00000 
 4.63853e+00 -6.86166e+00        00000 
 4.78138e+00 -6.88880e+00        00000 
 4.92533e+00 -6.91666e+00        00000 
 5.07044e+00 -6.94525e+00        00000 
 5.21670e+00 -6.97455e+00        00000 
 5.36418e+00 -7.00458e+00        00000 
 5.51286e+00 -7.03533e+00        00000 
 5.66281e+00 -7.06682e+00        00000 
 5.81401e+00 -7.09902e+00        00000 
 5.96654e+00 -7.13195e+00        00000 
 6.12037e+00 -7.16561e+00        00000 
 6.27559e+00 -7.20000e+00        00000 
 6.43215e+00 -7.23512e+00        00000 
 6.59015e+00 -7.27098e+00        00000 
-6.74964e+00 -7.59335e+00        00000 
-6.58839e+00 -7.55801e+00        00000 
-6.42858e+00 -7.52341e+00        00000 
-6.27013e+00 -7.48952e+00        00000 
-6.11307e+00 -7.45636e+00        00000 
-5.95732e+00 -7.42391e+00        00000 
-5.80289e+00 -7.39219e+00        00000 
-5.64972e+00 -7.36118e+00        00000 
-5.49783e+00 -7.33088e+00        00000 
-5.34713e+00 -7.30130e+00        00000 
-5.19766e+00 -7.27244e+00        00000 
-5.04933e+00 -7.24429e+00        00000 
-4.90217e+00 -7.21685e+00        00000 
-4.75610e+00 -7.19012e+00        00000 
-4.61115e+00 -7.16412e+00        00000 
-4.46723e+00 -7.13882e+00        00000 
-4.32437e+00 -7.11425e+00        00000 
-4.18250e+00 -7.09038e+00        00000 
-4.04163e+00 -7.06724e+00        00000 
-3.90168e+00 -7.04481e+00        00000 
-3.76269e+00 -7.02310e+00        00000 
-3.62457e+00 -7.00211e+00        00000 
-3.48734e+00 -6.98184e+00        00000 
-3.35092e+00 -6.96229e+00        00000 
-3.21533e+00 -6.94347e+00        00000 
-3.08051e+00 -6.92537e+00        00000 
-2.94645e+00 -6.90800e+00        00000 
-2.81310e+00 -6.89136e+00        00000 
-2.68046e+00 -6.87545e+00        00000 
-2.54846e+00 -6.86026e+00        00000 
-2.41711e+00 -6.84581e+00        00000 
-2.28634e+00 -6.83209e+00        00000 
-2.15617e+00 -6.81910e+00        00000 
-2.02651e+00 -6.80685e+00        00000 
-1.89738e+00 -6.79534e+00        00000 
-1.76871e+00 -6.78456e+00        00000 
-1.64051e+00 -6.77452e+00        00000 
-1.51270e+00 -6.76523e+00        00000 
-1.38530e+00 -6.75667e+00        00000 
-1.25823e+00 -6.74885e+00        00000 
-1.13150e+00 -6.74178e+00        00000 
-1.00504e+00 -6.73544e+00        00000 
-8.78859e-01 -6.72986e+00        00000 
-7.52878e-01 -6.72501e+00        00000 
-6.27116e-01 -6.72091e+00        00000 
-5.01489e-01 -6.71756e+00        00000 
-3.76017e-01 -6.71495e+00        00000 
-2.50616e-01 -6.71308e+00        00000 
-1.25304e-01 -6.71196e+00        00000 
-1.42095e-13 -6.71159e+00        00000 
 1.25304e-01 -6.71196e+00        00000 
 2.50616e-01 -6.71308e+00        00000 
 3.76017e-01 -6.71495e+00        00000 
 5.01489e-01 -6.71756e+00        00000 
 6.27116e-01 -6.72091e+00        00000 
 7.52878e-01 -6.72501e+00        00000 
 8.78859e-01 -6.72986e+00        00000 
 1.00504e+00 -6.73544e+00        00000 
 1.13150e+00 -6.74178e+00        00000 
 1.25823e+00 -6.74885e+00        00000 
 1.38530e+00 -6.75667e+00        00000 
 1.51270e+00 -6.76523e+00        00000 
 1.64051e+00 -6.77452e+00        00000 
 1.76871e+00 -6.78456e+00        00000 
 1.89738e+00 -6.79534e+00        00000 
 2.02651e+00 -6.80685e+00        00000 
 2.15617e+00 -6.81910e+00        00000 
 2.28634e+00 -6.83209e+00        00000 
 2.41711e+00 -6.84581e+00        00000 
 2.54846e+00 -6.86026e+00        00000 
 2.68046e+00 -6.87545e+00        00000 
 2.81310e+00 -6.89136e+00        00000 
 2.94645e+00 -6.90800e+00        00000 
 3.08051e+00 -6.92537e+00        00000 
 3.21533e+00 -6.94347e+00        00000 
 3.35092e+00 -6.96229e+00        00000 
 3.48734e+00 -6.98184e+00        00000 
 3.62457e+00 -7.00211e+00        00000 
 3.76269e+00 -7.02310e+00        00000 
 3.90168e+00 -7.04481e+00        00000 
 4.04163e+00 -7.06724e+00        00000 
 4.18250e+00 -7.09038e+00        00000 
 4.32437e+00 -7.11425e+00        00000 
 4.46723e+00 -7.13882e+00        00000 
 4.61115e+00 -7.16412e+00        00000 
 4.75610e+00 -7.19012e+00        00000 
 4.90217e+00 -7.21685e+00        00000 
 5.04933e+00 -7.24429e+00        00000 
 5.19766e+00 -7.27244e+00        00000 
 5.34713e+00 -7.30130e+00        00000 
 5.49783e+00 -7.33088e+00        00000 
 5.64972e+00 -7.36118e+00        00000 
 5.80289e+00 -7.39219e+00        00000 
 5.95732e+00 -7.42391e+00        00000 
 6.11307e+00 -7.45636e+00        00000 
 6.27013e+00 -7.48952e+00        00000 
 6.42858e+00 -7.52341e+00        00000 
 6.58839e+00 -7.55801e+00        00000 
 6.74964e+00 -7.59335e+00        00000 
-6.90677e+00 -7.92218e+00        00000 
-6.74231e+00 -7.88737e+00        00000 
-6.57931e+00 -7.85328e+00        00000 
-6.41767e+00 -7.81990e+00        00000 
-6.25743e+00 -7.78724e+00        00000 
-6.09849e+00 -7.75528e+00        00000 
-5.94089e+00 -7.72403e+00        00000 
-5.78453e+00 -7.69349e+00        00000 
-5.62947e+00 -7.66366e+00        00000 
-5.47559e+00 -7.63453e+00        00000 
-5.32295e+00 -7.60610e+00        00000 
-5.17145e+00 -7.57838e+00        00000 
-5.02112e+00 -7.55137e+00        00000 
-4.87188e+00 -7.52506e+00        00000 
-4.72375e+00 -7.49946e+00        00000 
-4.57666e+00 -7.47456e+00        00000 
-4.43063e+00 -7.45037e+00        00000 
-4.28558e+00 -7.42688e+00        00000 
-4.14153e+00 -7.40410e+00        00000 
-3.99841e+00 -7.38203e+00        00000 
-3.85623e+00 -7.36066e+00        00000 
-3.71492e+00 -7.34001e+00        00000 
-3.57450e+00 -7.32007e+00        00000 
-3.43489e+00 -7.30083e+00        00000 
-3.29611e+00 -7.28232e+00        00000 
-3.15809e+00 -7.26451e+00        00000 
-3.02083e+00 -7.24742e+00        00000 
-2.88427e+00 -7.23105e+00        00000 
-2.74842e+00 -7.21540e+00        00000 
-2.61321e+00 -7.20046e+00        00000 
-2.47865e+00 -7.18625e+00        00000 
-2.34466e+00 -7.17275e+00        00000 
-2.21127e+00 -7.15998e+00        00000 
-2.07838e+00 -7.14793e+00        00000 
-1.94603e+00 -7.13661e+00        00000 
-1.81413e+00 -7.12601e+00        00000 
-1.68270e+00 -7.11614e+00        00000 
-1.55165e+00 -7.10699e+00        00000 
-1.42102e+00 -7.09858e+00        00000 
-1.29070e+00 -7.09089e+00        00000 
-1.16074e+00 -7.08393e+00        00000 
-1.03103e+00 -7.07770e+00        00000 
-9.01603e-01 -7.07221e+00        00000 
-7.72376e-01 -7.06744e+00        00000 
-6.43366e-01 -7.06341e+00        00000 
-5.14490e-01 -7.06011e+00        00000 
-3.85768e-01 -7.05755e+00        00000 
-2.57117e-01 -7.05571e+00        00000 
-1.28555e-01 -7.05461e+00        00000 
-1.67554e-13 -7.05425e+00        00000 
 1.28555e-01 -7.05461e+00        00000 
 2.57117e-01 -7.05571e+00        00000 
 3.85768e-01 -7.05755e+00        00000 
 5.14490e-01 -7.06011e+00        00000 
 6.43366e-01 -7.06341e+00        00000 
 7.72376e-01 -7.06744e+00        00000 
 9.01603e-01 -7.07221e+00        00000 
 1.03103e+00 -7.07770e+00        00000 
 1.16074e+00 -7.08393e+00        00000 
 1.29070e+00 -7.09089e+00        00000 
 1.42102e+00 -7.09858e+00        00000 
 1.55165e+00 -7.10699e+00        00000 
 1.68270e+00 -7.11614e+00        00000 
 1.81413e+00 -7.12601e+00        00000 
 1.94603e+00 -7.13661e+00        00000 
 2.07838e+00 -7.14793e+00        00000 
 2.21127e+00 -7.15998e+00        00000 
 2.34466e+00 -7.17275e+00        00000 
 2.47865e+00 -7.18625e+00        00000 
 2.61321e+00 -7.20046e+00        00000 
 2.74842e+00 -7.21540e+00        00000 
 2.88427e+00 -7.23105e+00        00000 
 3.02083e+00 -7.24742e+00        00000 
 3.15809e+00 -7.26451e+00        00000 
 3.29611e+00 -7.28232e+00        00000 
 3.43489e+00 -7.30083e+00        00000 
 3.57450e+00 -7.32007e+00        00000 
 3.71492e+00 -7.34001e+00        00000 
 3.85623e+00 -7.36066e+00        00000 
 3.99841e+00 -7.38203e+00        00000 
 4.14153e+00 -7.40410e+00        00000 
 4.28558e+00 -7.42688e+00        00000 
 4.43063e+00 -7.45037e+00        00000 
 4.57666e+00 -7.47456e+00        00000 
 4.72375e+00 -7.49946e+00        00000 
 4.87188e+00 -7.52506e+00        00000 
 5.02112e+00 -7.55137e+00        00000 
 5.17145e+00 -7.57838e+00        00000 
 5.32295e+00 -7.60610e+00        00000 
 5.47559e+00 -7.63453e+00        00000 
 5.62947e+00 -7.66366e+00        00000 
 5.78453e+00 -7.69349e+00        00000 
 5.94089e+00 -7.72403e+00        00000 
 6.09849e+00 -7.75528e+00        00000 
 6.25743e+00 -7.78724e+00        00000 
 6.41767e+00 -7.81990e+00        00000 
 6.57931e+00 -7.85328e+00        00000 
 6.74231e+00 -7.88737e+00        00000 
 6.90677e+00 -7.92218e+00        00000 
-7.06153e+00 -8.25738e+00        00000 
-6.89392e+00 -8.22310e+00        00000 
-6.72777e+00 -8.18953e+00        00000 
-6.56299e+00 -8.15666e+00        00000 
-6.39960e+00 -8.12449e+00        00000 
-6.23752e+00 -8.09302e+00        00000 
-6.07678e+00 -8.06225e+00        00000 
-5.91730e+00 -8.03218e+00        00000 
-5.75910e+00 -8.00281e+00        00000 
-5.60210e+00 -7.97413e+00        00000 
-5.44632e+00 -7.94615e+00        00000 
-5.29169e+00 -7.91886e+00        00000 
-5.13824e+00 -7.89227e+00        00000 
-4.98587e+00 -7.86637e+00        00000 
-4.83462e+00 -7.84117e+00        00000 
-4.68439e+00 -7.81667e+00        00000 
-4.53524e+00 -7.79286e+00        00000 
-4.38705e+00 -7.76975e+00        00000 
-4.23987e+00 -7.74733e+00        00000 
-4.09361e+00 -7.72561e+00        00000 
-3.94830e+00 -7.70460e+00        00000 
-3.80385e+00 -7.68428e+00        00000 
-3.66029e+00 -7.66466e+00        00000 
-3.51753e+00 -7.64574e+00        00000 
-3.37561e+00 -7.62753e+00        00000 
-3.23443e+00 -7.61001e+00        00000 
-3.09402e+00 -7.59321e+00        00000 
-2.95430e+00 -7.57710e+00        00000 
-2.81530e+00 -7.56171e+00        00000 
-2.67692e+00 -7.54702e+00        00000 
-2.53920e+00 -7.53304e+00        00000 
-2.40204e+00 -7.51977e+00        00000 
-2.26548e+00 -7.50721e+00        00000 
-2.12942e+00 -7.49536e+00        00000 
-1.99389e+00 -7.48423e+00        00000 
-1.85881e+00 -7.47381e+00        00000 
-1.72420e+00 -7.46410e+00        00000 
-1.58997e+00 -7.45511e+00        00000 
-1.45615e+00 -7.44684e+00        00000 
-1.32265e+00 -7.43928e+00        00000 
-1.18949e+00 -7.43244e+00        00000 
-1.05659e+00 -7.42632e+00        00000 
-9.23976e-01 -7.42092e+00        00000 
-7.91554e-01 -7.41623e+00        00000 
-6.59350e-01 -7.41227e+00        00000 
-5.27279e-01 -7.40902e+00        00000 
-3.95361e-01 -7.40650e+00        00000 
-2.63512e-01 -7.40470e+00        00000 
-1.31753e-01 -7.40362e+00        00000 
-1.93272e-13 -7.40326e+00        00000 
 1.31753e-01 -7.40362e+00        00000 
 2.63512e-01 -7.40470e+00        00000 
 3.95361e-01 -7.40650e+00        00000 
 5.27279e-01 -7.40902e+00        00000 
 6.59350e-01 -7.41227e+00        00000 
 7.91554e-01 -7.41623e+00        00000 
 9.23976e-01 -7.42092e+00        00000 
 1.05659e+00 -7.42632e+00        00000 
 1.18949e+00 -7.43244e+00        00000 
 1.32265e+00 -7.43928e+00        00000 
 1.45615e+00 -7.44684e+00        00000 
 1.58997e+00 -7.45511e+00        00000 
 1.72420e+00 -7.46410e+00        00000 
 1.85881e+00 -7.47381e+00        00000 
 1.99389e+00 -7.48423e+00        00000 
 2.12942e+00 -7.49536e+00        00000 
 2.26548e+00 -7.50721e+00        00000 
 2.40204e+00 -7.51977e+00        00000 
 2.53920e+00 -7.53304e+00        00000 
 2.67692e+00 -7.54702e+00        00000 
 2.81530e+00 -7.56171e+00        00000 
 2.95430e+00 -7.57710e+00        00000 
 3.09402e+00 -7.59321e+00        00000 
 3.23443e+00 -7.61001e+00        00000 
 3.37561e+00 -7.62753e+00        00000 
 3.51753e+00 -7.64574e+00        00000 
 3.66029e+00 -7.66466e+00        00000 
 3.80385e+00 -7.68428e+00        00000 
 3.94830e+00 -7.70460e+00        00000 
 4.09361e+00 -7.72561e+00        00000 
 4.23987e+00 -7.74733e+00        00000 
 4.38705e+00 -7.76975e+00        00000 
 4.53524e+00 -7.79286e+00        00000 
 4.68439e+00 -7.81667e+00        00000 
 4.83462e+00 -7.84117e+00        00000 
 4.98587e+00 -7.86637e+00        00000 
 5.13824e+00 -7.89227e+00        00000 
 5.29169e+00 -7.91886e+00        00000 
 5.44632e+00 -7.94615e+00        00000 
 5.60210e+00 -7.97413e+00        00000 
 5.75910e+00 -8.00281e+00        00000 
 5.91730e+00 -8.03218e+00        00000 
 6.07678e+00 -8.06225e+00        00000 
 6.23752e+00 -8.09302e+00        00000 
 6.39960e+00 -8.12449e+00        00000 
 6.56299e+00 -8.15666e+00        00000 
 6.72777e+00 -8.18953e+00        00000 
 6.89392e+00 -8.22310e+00        00000 
 7.06153e+00 -8.25738e+00        00000 
-7.21393e+00 -8.59885e+00        00000 
-7.04321e+00 -8.56510e+00        00000 
-6.87396e+00 -8.53205e+00        00000 
-6.70607e+00 -8.49969e+00        00000 
-6.53958e+00 -8.46802e+00        00000 
-6.37441e+00 -8.43704e+00        00000 
-6.21058e+00 -8.40676e+00        00000 
-6.04801e+00 -8.37715e+00        00000 
-5.88672e+00 -8.34824e+00        00000 
-5.72663e+00 -8.32001e+00        00000 
-5.56778e+00 -8.29247e+00        00000 
-5.41006e+00 -8.26562e+00        00000 
-5.25352e+00 -8.23945e+00        00000 
-5.09807e+00 -8.21396e+00        00000 
-4.94373e+00 -8.18917e+00        00000 
-4.79043e+00 -8.16506e+00        00000 
-4.63819e+00 -8.14163e+00        00000 
-4.48691e+00 -8.11889e+00        00000 
-4.33665e+00 -8.09684e+00        00000 
-4.18730e+00 -8.07548e+00        00000 
-4.03890e+00 -8.05481e+00        00000 
-3.89135e+00 -8.03482e+00        00000 
-3.74470e+00 -8.01552e+00        00000 
-3.59884e+00 -7.99692e+00        00000 
-3.45382e+00 -7.97901e+00        00000 
-3.30954e+00 -7.96178e+00        00000 
-3.16603e+00 -7.94526e+00        00000 
-3.02320e+00 -7.92942e+00        00000 
-2.88109e+00 -7.91429e+00        00000 
-2.73960e+00 -7.89984e+00        00000 
-2.59876e+00 -7.88610e+00        00000 
-2.45848e+00 -7.87305e+00        00000 
-2.31880e+00 -7.86071e+00        00000 
-2.17962e+00 -7.84906e+00        00000 
-2.04097e+00 -7.83811e+00        00000 
-1.90276e+00 -7.82787e+00        00000 
-1.76502e+00 -7.81833e+00        00000 
-1.62766e+00 -7.80949e+00        00000 
-1.49070e+00 -7.80136e+00        00000 
-1.35407e+00 -7.79393e+00        00000 
-1.21777e+00 -7.78721e+00        00000 
-1.08174e+00 -7.78119e+00        00000 
-9.45979e-01 -7.77588e+00        00000 
-8.10416e-01 -7.77127e+00        00000 
-6.75070e-01 -7.76738e+00        00000 
-5.39855e-01 -7.76419e+00        00000 
-4.04794e-01 -7.76171e+00        00000 
-2.69801e-01 -7.75994e+00        00000 
-1.34898e-01 -7.75888e+00        00000 
-2.25243e-13 -7.75852e+00        00000 
 1.34898e-01 -7.75888e+00        00000 
 2.69801e-01 -7.75994e+00        00000 
 4.04794e-01 -7.76171e+00        00000 
 5.39855e-01 -7.76419e+00        00000 
 6.75070e-01 -7.76738e+00        00000 
 8.10416e-01 -7.77127e+00        00000 
 9.45979e-01 -7.77588e+00        00000 
 1.08174e+00 -7.78119e+00        00000 
 1.21777e+00 -7.78721e+00        00000 
 1.35407e+00 -7.79393e+00        00000 
 1.49070e+00 -7.80136e+00        00000 
 1.62766e+00 -7.80949e+00        00000 
 1.76502e+00 -7.81833e+00        00000 
 1.90276e+00 -7.82787e+00        00000 
 2.04097e+00 -7.83811e+00        00000 
 2.17962e+00 -7.84906e+00        00000 
 2.31880e+00 -7.86071e+00        00000 
 2.45848e+00 -7.87305e+00        00000 
 2.59876e+00 -7.88610e+00        00000 
 2.73960e+00 -7.89984e+00        00000 
 2.88109e+00 -7.91429e+00        00000 
 3.02320e+00 -7.92942e+00        00000 
 3.16603e+00 -7.94526e+00        00000 
 3.30954e+00 -7.96178e+00        00000 
 3.45382e+00 -7.97901e+00        00000 
 3.59884e+00 -7.99692e+00        00000 
 3.74470e+00 -8.01552e+00        00000 
 3.89135e+00 -8.03482e+00        00000 
 4.03890e+00 -8.05481e+00        00000 
 4.18730e+00 -8.07548e+00        00000 
 4.33665e+00 -8.09684e+00        00000 
 4.48691e+00 -8.11889e+00        00000 
 4.63819e+00 -8.14163e+00        00000 
 4.79043e+00 -8.16506e+00        00000 
 4.94373e+00 -8.18917e+00        00000 
 5.09807e+00 -8.21396e+00        00000 
 5.25352e+00 -8.23945e+00        00000 
 5.41006e+00 -8.26562e+00        00000 
 5.56778e+00 -8.29247e+00        00000 
 5.72663e+00 -8.32001e+00        00000 
 5.88672e+00 -8.34824e+00        00000 
 6.04801e+00 -8.37715e+00        00000 
 6.21058e+00 -8.40676e+00        00000 
 6.37441e+00 -8.43704e+00        00000 
 6.53958e+00 -8.46802e+00        00000 
 6.70607e+00 -8.49969e+00        00000 
 6.87396e+00 -8.53205e+00        00000 
 7.04321e+00 -8.56510e+00        00000 
 7.21393e+00 -8.59885e+00        00000 
-7.36394e+00 -8.94650e+00        00000 
-7.19016e+00 -8.91329e+00        00000 
-7.01785e+00 -8.88076e+00        00000 
-6.84691e+00 -8.84891e+00        00000 
-6.67738e+00 -8.81774e+00        00000 
-6.50915e+00 -8.78725e+00        00000 
-6.34228e+00 -8.75744e+00        00000 
-6.17666e+00 -8.72831e+00        00000 
-6.01233e+00 -8.69986e+00        00000 
-5.84920e+00 -8.67208e+00        00000 
-5.68731e+00 -8.64499e+00        00000 
-5.52656e+00 -8.61856e+00        00000 
-5.36698e+00 -8.59282e+00        00000 
-5.20849e+00 -8.56774e+00        00000 
-5.05111e+00 -8.54335e+00        00000 
-4.89477e+00 -8.51963e+00        00000 
-4.73949e+00 -8.49659e+00        00000 
-4.58517e+00 -8.47422e+00        00000 
-4.43187e+00 -8.45254e+00        00000 
-4.27947e+00 -8.43152e+00        00000 
-4.12803e+00 -8.41119e+00        00000 
-3.97744e+00 -8.39154e+00        00000 
-3.82773e+00 -8.37256e+00        00000 
-3.67883e+00 -8.35427e+00        00000 
-3.53075e+00 -8.33666e+00        00000 
-3.38342e+00 -8.31972e+00        00000 
-3.23685e+00 -8.30348e+00        00000 
-3.09097e+00 -8.28791e+00        00000 
-2.94579e+00 -8.27303e+00        00000 
-2.80124e+00 -8.25883e+00        00000 
-2.65733e+00 -8.24532e+00        00000 
-2.51399e+00 -8.23250e+00        00000 
-2.37124e+00 -8.22036e+00        00000 
-2.22898e+00 -8.20892e+00        00000 
-2.08726e+00 -8.19816e+00        00000 
-1.94597e+00 -8.18809e+00        00000 
-1.80516e+00 -8.17871e+00        00000 
-1.66471e+00 -8.17003e+00        00000 
-1.52468e+00 -8.16204e+00        00000 
-1.38496e+00 -8.15474e+00        00000 
-1.24558e+00 -8.14813e+00        00000 
-1.10646e+00 -8.14222e+00        00000 
-9.67613e-01 -8.13700e+00        00000 
-8.28962e-01 -8.13247e+00        00000 
-6.90527e-01 -8.12865e+00        00000 
-5.52222e-01 -8.12551e+00        00000 
-4.14070e-01 -8.12308e+00        00000 
-2.75985e-01 -8.12134e+00        00000 
-1.37990e-01 -8.12029e+00        00000 
-2.53759e-13 -8.11994e+00        00000 
 1.37990e-01 -8.12029e+00        00000 
 2.75985e-01 -8.12134e+00        00000 
 4.14070e-01 -8.12308e+00        00000 
 5.52222e-01 -8.12551e+00        00000 
 6.90527e-01 -8.12865e+00        00000 
 8.28962e-01 -8.13247e+00        00000 
 9.67613e-01 -8.13700e+00        00000 
 1.10646e+00 -8.14222e+00        00000 
 1.24558e+00 -8.14813e+00        00000 
 1.38496e+00 -8.15474e+00        00000 
 1.52468e+00 -8.16204e+00        00000 
 1.66471e+00 -8.17003e+00        00000 
 1.80516e+00 -8.17871e+00        00000 
 1.94597e+00 -8.18809e+00        00000 
 2.08726e+00 -8.19816e+00        00000 
 2.22898e+00 -8.20892e+00        00000 
 2.37124e+00 -8.22036e+00        00000 
 2.51399e+00 -8.23250e+00        00000 
 2.65733e+00 -8.24532e+00        00000 
 2.80124e+00 -8.25883e+00        00000 
 2.94579e+00 -8.27303e+00        00000 
 3.09097e+00 -8.28791e+00        00000 
 3.23685e+00 -8.30348e+00        00000 
 3.38342e+00 -8.31972e+00        00000 
 3.53075e+00 -8.33666e+00        00000 
 3.67883e+00 -8.35427e+00        00000 
 3.82773e+00 -8.37256e+00        00000 
 3.97744e+00 -8.39154e+00        00000 
 4.12803e+00 -8.41119e+00        00000 
 4.27947e+00 -8.43152e+00        00000 
 4.43187e+00 -8.45254e+00        00000 
 4.58517e+00 -8.47422e+00        00000 
 4.73949e+00 -8.49659e+00        00000 
 4.89477e+00 -8.51963e+00        00000 
 5.05111e+00 -8.54335e+00        00000 
 5.20849e+00 -8.56774e+00        00000 
 5.36698e+00 -8.59282e+00        00000 
 5.52656e+00 -8.61856e+00        00000 
 5.68731e+00 -8.64499e+00        00000 
 5.84920e+00 -8.67208e+00        00000 
 6.01233e+00 -8.69986e+00        00000 
 6.17666e+00 -8.72831e+00        00000 
 6.34228e+00 -8.75744e+00        00000 
 6.50915e+00 -8.78725e+00        00000 
 6.67738e+00 -8.81774e+00        00000 
 6.84691e+00 -8.84891e+00        00000 
 7.01785e+00 -8.88076e+00        00000 
 7.19016e+00 -8.91329e+00        00000 
 7.36394e+00 -8.94650e+00        00000 
-7.51157e+00 -9.30024e+00        00000 
-7.33478e+00 -9.26755e+00        00000 
-7.15946e+00 -9.23555e+00        00000 
-6.98551e+00 -9.20421e+00        00000 
-6.81297e+00 -9.17354e+00        00000 
-6.64175e+00 -9.14354e+00        00000 
-6.47187e+00 -9.11422e+00        00000 
-6.30326e+00 -9.08556e+00        00000 
-6.13593e+00 -9.05757e+00        00000 
-5.96981e+00 -9.03024e+00        00000 
-5.80492e+00 -9.00359e+00        00000 
-5.64117e+00 -8.97759e+00        00000 
-5.47860e+00 -8.95227e+00        00000 
-5.31712e+00 -8.92761e+00        00000 
-5.15675e+00 -8.90362e+00        00000 
-4.99741e+00 -8.88029e+00        00000 
-4.83914e+00 -8.85763e+00        00000 
-4.68183e+00 -8.83563e+00        00000 
-4.52553e+00 -8.81431e+00        00000 
-4.37014e+00 -8.79365e+00        00000 
-4.21569e+00 -8.77366e+00        00000 
-4.06211e+00 -8.75433e+00        00000 
-3.90940e+00 -8.73568e+00        00000 
-3.75749e+00 -8.71770e+00        00000 
-3.60642e+00 -8.70038e+00        00000 
-3.45607e+00 -8.68374e+00        00000 
-3.30650e+00 -8.66777e+00        00000 
-3.15761e+00 -8.65247e+00        00000 
-3.00942e+00 -8.63784e+00        00000 
-2.86185e+00 -8.62389e+00        00000 
-2.71493e+00 -8.61061e+00        00000 
-2.56857e+00 -8.59801e+00        00000 
-2.42280e+00 -8.58609e+00        00000 
-2.27752e+00 -8.57484e+00        00000 
-2.13277e+00 -8.56427e+00        00000 
-1.98846e+00 -8.55438e+00        00000 
-1.84462e+00 -8.54516e+00        00000 
-1.70115e+00 -8.53663e+00        00000 
-1.55808e+00 -8.52878e+00        00000 
-1.41533e+00 -8.52160e+00        00000 
-1.27292e+00 -8.51511e+00        00000 
-1.13076e+00 -8.50930e+00        00000 
-9.88882e-01 -8.50418e+00        00000 
-8.47194e-01 -8.49973e+00        00000 
-7.05722e-01 -8.49597e+00        00000 
-5.64378e-01 -8.49289e+00        00000 
-4.23188e-01 -8.49050e+00        00000 
-2.82064e-01 -8.48879e+00        00000 
-1.41030e-01 -8.48776e+00        00000 
-2.81642e-13 -8.48742e+00        00000 
 1.41030e-01 -8.48776e+00        00000 
 2.82064e-01 -8.48879e+00        00000 
 4.23188e-01 -8.49050e+00        00000 
 5.64378e-01 -8.49289e+00        00000 
 7.05722e-01 -8.49597e+00        00000 
 8.47194e-01 -8.49973e+00        00000 
 9.88882e-01 -8.50418e+00        00000 
 1.13076e+00 -8.50930e+00        00000 
 1.27292e+00 -8.51511e+00        00000 
 1.41533e+00 -8.52160e+00        00000 
 1.55808e+00 -8.52878e+00        00000 
 1.70115e+00 -8.53663e+00        00000 
 1.84462e+00 -8.54516e+00        00000 
 1.98846e+00 -8.55438e+00        00000 
 2.13277e+00 -8.56427e+00        00000 
 2.27752e+00 -8.57484e+00        00000 
 2.42280e+00 -8.58609e+00        00000 
 2.56857e+00 -8.59801e+00        00000 
 2.71493e+00 -8.61061e+00        00000 
 2.86185e+00 -8.62389e+00        00000 
 3.00942e+00 -8.63784e+00        00000 
 3.15761e+00 -8.65247e+00        00000 
 3.30650e+00 -8.66777e+00        00000 
 3.45607e+00 -8.68374e+00        00000 
 3.60642e+00 -8.70038e+00        00000 
 3.75749e+00 -8.71770e+00        00000 
 3.90940e+00 -8.73568e+00        00000 
 4.06211e+00 -8.75433e+00        00000 
 4.21569e+00 -8.77366e+00        00000 
 4.37014e+00 -8.79365e+00        00000 
 4.52553e+00 -8.81431e+00        00000 
 4.68183e+00 -8.83563e+00        00000 
 4.83914e+00 -8.85763e+00        00000 
 4.99741e+00 -8.88029e+00        00000 
 5.15675e+00 -8.90362e+00        00000 
 5.31712e+00 -8.92761e+00        00000 
 5.47860e+00 -8.95227e+00        00000 
 5.64117e+00 -8.97759e+00        00000 
 5.80492e+00 -9.00359e+00        00000 
 5.96981e+00 -9.03024e+00        00000 
 6.13593e+00 -9.05757e+00        00000 
 6.30326e+00 -9.08556e+00        00000 
 6.47187e+00 -9.11422e+00        00000 
 6.64175e+00 -9.14354e+00        00000 
 6.81297e+00 -9.17354e+00        00000 
 6.98551e+00 -9.20421e+00        00000 
 7.15946e+00 -9.23555e+00        00000 
 7.33478e+00 -9.26755e+00        00000 
 7.51157e+00 -9.30024e+00        00000 
-7.65681e+00 -9.65996e+00        00000 
-7.47706e+00 -9.62781e+00        00000 
-7.29877e+00 -9.59632e+00        00000 
-7.12186e+00 -9.56550e+00        00000 
-6.94637e+00 -9.53534e+00        00000 
-6.77219e+00 -9.50583e+00        00000 
-6.59936e+00 -9.47699e+00        00000 
-6.42779e+00 -9.44879e+00        00000 
-6.25752e+00 -9.42127e+00        00000 
-6.08844e+00 -9.39439e+00        00000 
-5.92061e+00 -9.36818e+00        00000 
-5.75391e+00 -9.34262e+00        00000 
-5.58840e+00 -9.31771e+00        00000 
-5.42396e+00 -9.29346e+00        00000 
-5.26065e+00 -9.26987e+00        00000 
-5.09837e+00 -9.24694e+00        00000 
-4.93714e+00 -9.22466e+00        00000 
-4.77689e+00 -9.20303e+00        00000 
-4.61764e+00 -9.18207e+00        00000 
-4.45930e+00 -9.16176e+00        00000 
-4.30190e+00 -9.14211e+00        00000 
-4.14536e+00 -9.12312e+00        00000 
-3.98971e+00 -9.10478e+00        00000 
-3.83485e+00 -9.08710e+00        00000 
-3.68081e+00 -9.07009e+00        00000 
-3.52751e+00 -9.05373e+00        00000 
-3.37498e+00 -9.03804e+00        00000 
-3.22312e+00 -9.02300e+00        00000 
-3.07197e+00 -9.00863e+00        00000 
-2.92144e+00 -8.99492e+00        00000 
-2.77155e+00 -8.98188e+00        00000 
-2.62223e+00 -8.96950e+00        00000 
-2.47348e+00 -8.95778e+00        00000 
-2.32524e+00 -8.94673e+00        00000 
-2.17752e+00 -8.93635e+00        00000 
-2.03023e+00 -8.92663e+00        00000 
-1.88341e+00 -8.91758e+00        00000 
-1.73696e+00 -8.90919e+00        00000 
-1.59091e+00 -8.90148e+00        00000 
-1.44518e+00 -8.89443e+00        00000 
-1.29979e+00 -8.88806e+00        00000 
-1.15465e+00 -8.88235e+00        00000 
-1.00979e+00 -8.87732e+00        00000 
-8.65113e-01 -8.87295e+00        00000 
-7.20656e-01 -8.86926e+00        00000 
-5.76326e-01 -8.86624e+00        00000 
-4.32149e-01 -8.86388e+00        00000 
-2.88038e-01 -8.86221e+00        00000 
-1.44018e-01 -8.86120e+00        00000 
-3.08839e-13 -8.86086e+00        00000 
 1.44018e-01 -8.86120e+00        00000 
 2.88038e-01 -8.86221e+00        00000 
 4.32149e-01 -8.86388e+00        00000 
 5.76326e-01 -8.86624e+00        00000 
 7.20656e-01 -8.86926e+00        00000 
 8.65113e-01 -8.87295e+00        00000 
 1.00979e+00 -8.87732e+00        00000 
 1.15465e+00 -8.88235e+00        00000 
 1.29979e+00 -8.88806e+00        00000 
 1.44518e+00 -8.89443e+00        00000 
 1.59091e+00 -8.90148e+00        00000 
 1.73696e+00 -8.90919e+00        00000 
 1.88341e+00 -8.91758e+00        00000 
 2.03023e+00 -8.92663e+00        00000 
 2.17752e+00 -8.93635e+00        00000 
 2.32524e+00 -8.94673e+00        00000 
 2.47348e+00 -8.95778e+00        00000 
 2.62223e+00 -8.96950e+00        00000 
 2.77155e+00 -8.98188e+00        00000 
 2.92144e+00 -8.99492e+00        00000 
 3.07197e+00 -9.00863e+00        00000 
 3.22312e+00 -9.02300e+00        00000 
 3.37498e+00 -9.03804e+00        00000 
 3.52751e+00 -9.05373e+00        00000 
 3.68081e+00 -9.07009e+00        00000 
 3.83485e+00 -9.08710e+00        00000 
 3.98971e+00 -9.10478e+00        00000 
 4.14536e+00 -9.12312e+00        00000 
 4.30190e+00 -9.14211e+00        00000 
 4.45930e+00 -9.16176e+00        00000 
 4.61764e+00 -9.18207e+00        00000 
 4.77689e+00 -9.20303e+00        00000 
 4.93714e+00 -9.22466e+00        00000 
 5.09837e+00 -9.24694e+00        00000 
 5.26065e+00 -9.26987e+00        00000 
 5.42396e+00 -9.29346e+00        00000 
 5.58840e+00 -9.31771e+00        00000 
 5.75391e+00 -9.34262e+00        00000 
 5.92061e+00 -9.36818e+00        00000 
 6.08844e+00 -9.39439e+00        00000 
 6.25752e+00 -9.42127e+00        00000 
 6.42779e+00 -9.44879e+00        00000 
 6.59936e+00 -9.47699e+00        00000 
 6.77219e+00 -9.50583e+00        00000 
 6.94637e+00 -9.53534e+00        00000 
 7.12186e+00 -9.56550e+00        00000 
 7.29877e+00 -9.59632e+00        00000 
 7.47706e+00 -9.62781e+00        00000 
 7.65681e+00 -9.65996e+00        00000 
-7.79966e+00 -1.00256e+01        00000 
-7.61698e+00 -9.99395e+00        00000 
-7.43578e+00 -9.96299e+00        00000 
-7.25596e+00 -9.93268e+00        00000 
-7.07756e+00 -9.90302e+00        00000 
-6.90047e+00 -9.87400e+00        00000 
-6.72474e+00 -9.84564e+00        00000 
-6.55026e+00 -9.81792e+00        00000 
-6.37709e+00 -9.79086e+00        00000 
-6.20511e+00 -9.76443e+00        00000 
-6.03437e+00 -9.73866e+00        00000 
-5.86477e+00 -9.71353e+00        00000 
-5.69636e+00 -9.68905e+00        00000 
-5.52903e+00 -9.66521e+00        00000 
-5.36281e+00 -9.64202e+00        00000 
-5.19763e+00 -9.61948e+00        00000 
-5.03351e+00 -9.59758e+00        00000 
-4.87035e+00 -9.57632e+00        00000 
-4.70820e+00 -9.55572e+00        00000 
-4.54696e+00 -9.53576e+00        00000 
-4.38666e+00 -9.51645e+00        00000 
-4.22721e+00 -9.49778e+00        00000 
-4.06865e+00 -9.47977e+00        00000 
-3.91088e+00 -9.46240e+00        00000 
-3.75394e+00 -9.44568e+00        00000 
-3.59773e+00 -9.42961e+00        00000 
-3.44229e+00 -9.41419e+00        00000 
-3.28752e+00 -9.39942e+00        00000 
-3.13346e+00 -9.38530e+00        00000 
-2.98001e+00 -9.37183e+00        00000 
-2.82721e+00 -9.35902e+00        00000 
-2.67496e+00 -9.34685e+00        00000 
-2.52330e+00 -9.33535e+00        00000 
-2.37213e+00 -9.32449e+00        00000 
-2.22148e+00 -9.31429e+00        00000 
-2.07127e+00 -9.30475e+00        00000 
-1.92153e+00 -9.29586e+00        00000 
-1.77215e+00 -9.28763e+00        00000 
-1.62318e+00 -9.28005e+00        00000 
-1.47452e+00 -9.27313e+00        00000 
-1.32619e+00 -9.26687e+00        00000 
-1.17812e+00 -9.26127e+00        00000 
-1.03033e+00 -9.25632e+00        00000 
-8.82721e-01 -9.25204e+00        00000 
-7.35330e-01 -9.24841e+00        00000 
-5.88066e-01 -9.24544e+00        00000 
-4.40955e-01 -9.24313e+00        00000 
-2.93909e-01 -9.24148e+00        00000 
-1.46953e-01 -9.24049e+00        00000 
-3.34846e-13 -9.24016e+00        00000 
 1.46953e-01 -9.24049e+00        00000 
 2.93909e-01 -9.24148e+00        00000 
 4.40955e-01 -9.24313e+00        00000 
 5.88066e-01 -9.24544e+00        00000 
 7.35330e-01 -9.24841e+00        00000 
 8.82721e-01 -9.25204e+00        00000 
 1.03033e+00 -9.25632e+00        00000 
 1.17812e+00 -9.26127e+00        00000 
 1.32619e+00 -9.26687e+00        00000 
 1.47452e+00 -9.27313e+00        00000 
 1.62318e+00 -9.28005e+00        00000 
 1.77215e+00 -9.28763e+00        00000 
 1.92153e+00 -9.29586e+00        00000 
 2.07127e+00 -9.30475e+00        00000 
 2.22148e+00 -9.31429e+00        00000 
 2.37213e+00 -9.32449e+00        00000 
 2.52330e+00 -9.33535e+00        00000 
 2.67496e+00 -9.34685e+00        00000 
 2.82721e+00 -9.35902e+00        00000 
 2.98001e+00 -9.37183e+00        00000 
 3.13346e+00 -9.38530e+00        00000 
 3.28752e+00 -9.39942e+00        00000 
 3.44229e+00 -9.41419e+00        00000 
 3.59773e+00 -9.42961e+00        00000 
 3.75394e+00 -9.44568e+00        00000 
 3.91088e+00 -9.46240e+00        00000 
 4.06865e+00 -9.47977e+00        00000 
 4.22721e+00 -9.49778e+00        00000 
 4.38666e+00 -9.51645e+00        00000 
 4.54696e+00 -9.53576e+00        00000 
 4.70820e+00 -9.55572e+00        00000 
 4.87035e+00 -9.57632e+00        00000 
 5.03351e+00 -9.59758e+00        00000 
 5.19763e+00 -9.61948e+00        00000 
 5.36281e+00 -9.64202e+00        00000 
 5.52903e+00 -9.66521e+00        00000 
 5.69636e+00 -9.68905e+00        00000 
 5.86477e+00 -9.71353e+00        00000 
 6.03437e+00 -9.73866e+00        00000 
 6.20511e+00 -9.76443e+00        00000 
 6.37709e+00 -9.79086e+00        00000 
 6.55026e+00 -9.81792e+00        00000 
 6.72474e+00 -9.84564e+00        00000 
 6.90047e+00 -9.87400e+00        00000 
 7.07756e+00 -9.90302e+00        00000 
 7.25596e+00 -9.93268e+00        00000 
 7.43578e+00 -9.96299e+00        00000 
 7.61698e+00 -9.99395e+00        00000 
 7.79966e+00 -1.00256e+01        00000 
-7.94010e+00 -1.03970e+01        00000 
-7.75456e+00 -1.03659e+01        00000 
-7.57049e+00 -1.03354e+01        00000 
-7.38781e+00 -1.03056e+01        00000 
-7.20654e+00 -1.02765e+01        00000 
-7.02659e+00 -1.02480e+01        00000 
-6.84800e+00 -1.02201e+01        00000 
-6.67067e+00 -1.01928e+01        00000 
-6.49464e+00 -1.01662e+01        00000 
-6.31980e+00 -1.01403e+01        00000 
-6.14621e+00 -1.01149e+01        00000 
-5.97376e+00 -1.00902e+01        00000 
-5.80249e+00 -1.00662e+01        00000 
-5.63231e+00 -1.00428e+01        00000 
-5.46324e+00 -1.00200e+01        00000 
-5.29520e+00 -9.99781e+00        00000 
-5.12823e+00 -9.97629e+00        00000 
-4.96222e+00 -9.95540e+00        00000 
-4.79721e+00 -9.93516e+00        00000 
-4.63311e+00 -9.91554e+00        00000 
-4.46996e+00 -9.89657e+00        00000 
-4.30766e+00 -9.87823e+00        00000 
-4.14624e+00 -9.86053e+00        00000 
-3.98561e+00 -9.84347e+00        00000 
-3.82581e+00 -9.82705e+00        00000 
-3.66674e+00 -9.81126e+00        00000 
-3.50843e+00 -9.79612e+00        00000 
-3.35080e+00 -9.78161e+00        00000 
-3.19387e+00 -9.76774e+00        00000 
-3.03756e+00 -9.75452e+00        00000 
-2.88189e+00 -9.74193e+00        00000 
-2.72677e+00 -9.72999e+00        00000 
-2.57224e+00 -9.71869e+00        00000 
-2.41820e+00 -9.70803e+00        00000 
-2.26468e+00 -9.69801e+00        00000 
-2.11160e+00 -9.68864e+00        00000 
-1.95898e+00 -9.67991e+00        00000 
-1.80673e+00 -9.67183e+00        00000 
-1.65488e+00 -9.66439e+00        00000 
-1.50334e+00 -9.65760e+00        00000 
-1.35213e+00 -9.65145e+00        00000 
-1.20118e+00 -9.64595e+00        00000 
-1.05051e+00 -9.64109e+00        00000 
-9.00019e-01 -9.63689e+00        00000 
-7.49747e-01 -9.63333e+00        00000 
-5.99599e-01 -9.63041e+00        00000 
-4.49606e-01 -9.62815e+00        00000 
-2.99676e-01 -9.62653e+00        00000 
-1.49837e-01 -9.62555e+00        00000 
-3.56415e-13 -9.62523e+00        00000 
 1.49837e-01 -9.62555e+00        00000 
 2.99676e-01 -9.62653e+00        00000 
 4.49606e-01 -9.62815e+00        00000 
 5.99599e-01 -9.63041e+00        00000 
 7.49747e-01 -9.63333e+00        00000 
 9.00019e-01 -9.63689e+00        00000 
 1.05051e+00 -9.64109e+00        00000 
 1.20118e+00 -9.64595e+00        00000 
 1.35213e+00 -9.65145e+00        00000 
 1.50334e+00 -9.65760e+00        00000 
 1.65488e+00 -9.66439e+00        00000 
 1.80673e+00 -9.67183e+00        00000 
 1.95898e+00 -9.67991e+00        00000 
 2.11160e+00 -9.68864e+00        00000 
 2.26468e+00 -9.69801e+00        00000 
 2.41820e+00 -9.70803e+00        00000 
 2.57224e+00 -9.71869e+00        00000 
 2.72677e+00 -9.72999e+00        00000 
 2.88189e+00 -9.74193e+00        00000 
 3.03756e+00 -9.75452e+00        00000 
 3.19387e+00 -9.76774e+00        00000 
 3.35080e+00 -9.78161e+00        00000 
 3.50843e+00 -9.79612e+00        00000 
 3.66674e+00 -9.81126e+00        00000 
 3.82581e+00 -9.82705e+00        00000 
 3.98561e+00 -9.84347e+00        00000 
 4.14624e+00 -9.86053e+00        00000 
 4.30766e+00 -9.87823e+00        00000 
 4.46996e+00 -9.89657e+00        00000 
 4.63311e+00 -9.91554e+00        00000 
 4.79721e+00 -9.93516e+00        00000 
 4.96222e+00 -9.95540e+00        00000 
 5.12823e+00 -9.97629e+00        00000 
 5.29520e+00 -9.99781e+00        00000 
 5.46324e+00 -1.00200e+01        00000 
 5.63231e+00 -1.00428e+01        00000 
 5.80249e+00 -1.00662e+01        00000 
 5.97376e+00 -1.00902e+01        00000 
 6.14621e+00 -1.01149e+01        00000 
 6.31980e+00 -1.01403e+01        00000 
 6.49464e+00 -1.01662e+01        00000 
 6.67067e+00 -1.01928e+01        00000 
 6.84800e+00 -1.02201e+01        00000 
 7.02659e+00 -1.02480e+01        00000 
 7.20654e+00 -1.02765e+01        00000 
 7.38781e+00 -1.03056e+01        00000 
 7.57049e+00 -1.03354e+01        00000 
 7.75456e+00 -1.03659e+01        00000 
 7.94010e+00 -1.03970e+01        00000 
-8.07814e+00 -1.07740e+01        00000 
-7.88978e+00 -1.07435e+01        00000 
-7.70290e+00 -1.07136e+01        00000 
-7.51740e+00 -1.06843e+01        00000 
-7.33332e+00 -1.06557e+01        00000 
-7.15055e+00 -1.06276e+01        00000 
-6.96915e+00 -1.06002e+01        00000 
-6.78901e+00 -1.05735e+01        00000 
-6.61017e+00 -1.05473e+01        00000 
-6.43253e+00 -1.05218e+01        00000 
-6.25613e+00 -1.04969e+01        00000 
-6.08087e+00 -1.04726e+01        00000 
-5.90680e+00 -1.04490e+01        00000 
-5.73380e+00 -1.04260e+01        00000 
-5.56193e+00 -1.04036e+01        00000 
-5.39109e+00 -1.03818e+01        00000 
-5.22130e+00 -1.03607e+01        00000 
-5.05249e+00 -1.03402e+01        00000 
-4.88467e+00 -1.03203e+01        00000 
-4.71777e+00 -1.03010e+01        00000 
-4.55181e+00 -1.02824e+01        00000 
-4.38670e+00 -1.02644e+01        00000 
-4.22247e+00 -1.02470e+01        00000 
-4.05903e+00 -1.02302e+01        00000 
-3.89642e+00 -1.02141e+01        00000 
-3.73453e+00 -1.01986e+01        00000 
-3.57342e+00 -1.01837e+01        00000 
-3.41297e+00 -1.01695e+01        00000 
-3.25323e+00 -1.01559e+01        00000 
-3.09409e+00 -1.01429e+01        00000 
-2.93561e+00 -1.01305e+01        00000 
-2.77767e+00 -1.01188e+01        00000 
-2.62032e+00 -1.01077e+01        00000 
-2.46346e+00 -1.00972e+01        00000 
-2.30712e+00 -1.00874e+01        00000 
-2.15121e+00 -1.00782e+01        00000 
-1.99576e+00 -1.00696e+01        00000 
-1.84069e+00 -1.00617e+01        00000 
-1.68601e+00 -1.00544e+01        00000 
-1.53164e+00 -1.00477e+01        00000 
-1.37761e+00 -1.00417e+01        00000 
-1.22383e+00 -1.00363e+01        00000 
-1.07033e+00 -1.00315e+01        00000 
-9.17009e-01 -1.00274e+01        00000 
-7.63906e-01 -1.00239e+01        00000 
-6.10927e-01 -1.00211e+01        00000 
-4.58102e-01 -1.00188e+01        00000 
-3.05340e-01 -1.00172e+01        00000 
-1.52670e-01 -1.00163e+01        00000 
-3.82660e-13 -1.00160e+01        00000 
 1.52670e-01 -1.00163e+01        00000 
 3.05340e-01 -1.00172e+01        00000 
 4.58102e-01 -1.00188e+01        00000 
 6.10927e-01 -1.00211e+01        00000 
 7.63906e-01 -1.00239e+01        00000 
 9.17009e-01 -1.00274e+01        00000 
 1.07033e+00 -1.00315e+01        00000 
 1.22383e+00 -1.00363e+01        00000 
 1.37761e+00 -1.00417e+01        00000 
 1.53164e+00 -1.00477e+01        00000 
 1.68601e+00 -1.00544e+01        00000 
 1.84069e+00 -1.00617e+01        00000 
 1.99576e+00 -1.00696e+01        00000 
 2.15121e+00 -1.00782e+01        00000 
 2.30712e+00 -1.00874e+01        00000 
 2.46346e+00 -1.00972e+01        00000 
 2.62032e+00 -1.01077e+01        00000 
 2.77767e+00 -1.01188e+01        00000 
 2.93561e+00 -1.01305e+01        00000 
 3.09409e+00 -1.01429e+01        00000 
 3.25323e+00 -1.01559e+01        00000 
 3.41297e+00 -1.01695e+01        00000 
 3.57342e+00 -1.01837e+01        00000 
 3.73453e+00 -1.01986e+01        00000 
 3.89642e+00 -1.02141e+01        00000 
 4.05903e+00 -1.02302e+01        00000 
 4.22247e+00 -1.02470e+01        00000 
 4.38670e+00 -1.02644e+01        00000 
 4.55181e+00 -1.02824e+01        00000 
 4.71777e+00 -1.03010e+01        00000 
 4.88467e+00 -1.03203e+01        00000 
 5.05249e+00 -1.03402e+01        00000 
 5.22130e+00 -1.03607e+01        00000 
 5.39109e+00 -1.03818e+01        00000 
 5.56193e+00 -1.04036e+01        00000 
 5.73380e+00 -1.04260e+01        00000 
 5.90680e+00 -1.04490e+01        00000 
 6.08087e+00 -1.04726e+01        00000 
 6.25613e+00 -1.04969e+01        00000 
 6.43253e+00 -1.05218e+01        00000 
 6.61017e+00 -1.05473e+01        00000 
 6.78901e+00 -1.05735e+01        00000 
 6.96915e+00 -1.06002e+01        00000 
 7.15055e+00 -1.06276e+01        00000 
 7.33332e+00 -1.06557e+01        00000 
 7.51740e+00 -1.06843e+01        00000 
 7.70290e+00 -1.07136e+01        00000 
 7.88978e+00 -1.07435e+01        00000 
 8.07814e+00 -1.07740e+01        00000 
-8.21377e+00 -1.11567e+01        00000 
-8.02264e+00 -1.11267e+01        00000 
-7.83299e+00 -1.10973e+01        00000 
-7.64473e+00 -1.10686e+01        00000 
-7.45788e+00 -1.10404e+01        00000 
-7.27235e+00 -1.10129e+01        00000 
-7.08819e+00 -1.09860e+01        00000 
-6.90528e+00 -1.09597e+01        00000 
-6.72368e+00 -1.09340e+01        00000 
-6.54328e+00 -1.09089e+01        00000 
-6.36412e+00 -1.08845e+01        00000 
-6.18610e+00 -1.08606e+01        00000 
-6.00927e+00 -1.08374e+01        00000 
-5.83352e+00 -1.08148e+01        00000 
-5.65889e+00 -1.07928e+01        00000 
-5.48528e+00 -1.07714e+01        00000 
-5.31274e+00 -1.07507e+01        00000 
-5.14117e+00 -1.07305e+01        00000 
-4.97060e+00 -1.07110e+01        00000 
-4.80093e+00 -1.06921e+01        00000 
-4.63221e+00 -1.06738e+01        00000 
-4.46434e+00 -1.06561e+01        00000 
-4.29735e+00 -1.06390e+01        00000 
-4.13115e+00 -1.06226e+01        00000 
-3.96577e+00 -1.06067e+01        00000 
-3.80112e+00 -1.05915e+01        00000 
-3.63724e+00 -1.05769e+01        00000 
-3.47403e+00 -1.05629e+01        00000 
-3.31152e+00 -1.05496e+01        00000 
-3.14962e+00 -1.05368e+01        00000 
-2.98836e+00 -1.05247e+01        00000 
-2.82766e+00 -1.05132e+01        00000 
-2.66753e+00 -1.05023e+01        00000 
-2.50790e+00 -1.04920e+01        00000 
-2.34879e+00 -1.04824e+01        00000 
-2.19011e+00 -1.04734e+01        00000 
-2.03189e+00 -1.04649e+01        00000 
-1.87404e+00 -1.04572e+01        00000 
-1.71658e+00 -1.04500e+01        00000 
-1.55944e+00 -1.04434e+01        00000 
-1.40263e+00 -1.04375e+01        00000 
-1.24607e+00 -1.04322e+01        00000 
-1.08979e+00 -1.04276e+01        00000 
-9.33690e-01 -1.04235e+01        00000 
-7.77808e-01 -1.04201e+01        00000 
-6.22049e-01 -1.04173e+01        00000 
-4.66444e-01 -1.04151e+01        00000 
-3.10901e-01 -1.04135e+01        00000 
-1.55451e-01 -1.04126e+01        00000 
-4.00822e-13 -1.04123e+01        00000 
 1.55451e-01 -1.04126e+01        00000 
 3.10901e-01 -1.04135e+01        00000 
 4.66444e-01 -1.04151e+01        00000 
 6.22049e-01 -1.04173e+01        00000 
 7.77808e-01 -1.04201e+01        00000 
 9.33690e-01 -1.04235e+01        00000 
 1.08979e+00 -1.04276e+01        00000 
 1.24607e+00 -1.04322e+01        00000 
 1.40263e+00 -1.04375e+01        00000 
 1.55944e+00 -1.04434e+01        00000 
 1.71658e+00 -1.04500e+01        00000 
 1.87404e+00 -1.04572e+01        00000 
 2.03189e+00 -1.04649e+01        00000 
 2.19011e+00 -1.04734e+01        00000 
 2.34879e+00 -1.04824e+01        00000 
 2.50790e+00 -1.04920e+01        00000 
 2.66753e+00 -1.05023e+01        00000 
 2.82766e+00 -1.05132e+01        00000 
 2.98836e+00 -1.05247e+01        00000 
 3.14962e+00 -1.05368e+01        00000 
 3.31152e+00 -1.05496e+01        00000 
 3.47403e+00 -1.05629e+01        00000 
 3.63724e+00 -1.05769e+01        00000 
 3.80112e+00 -1.05915e+01        00000 
 3.96577e+00 -1.06067e+01        00000 
 4.13115e+00 -1.06226e+01        00000 
 4.29735e+00 -1.06390e+01        00000 
 4.46434e+00 -1.06561e+01        00000 
 4.63221e+00 -1.06738e+01        00000 
 4.80093e+00 -1.06921e+01        00000 
 4.97060e+00 -1.07110e+01        00000 
 5.14117e+00 -1.07305e+01        00000 
 5.31274e+00 -1.07507e+01        00000 
 5.48528e+00 -1.07714e+01        00000 
 5.65889e+00 -1.07928e+01        00000 
 5.83352e+00 -1.08148e+01        00000 
 6.00927e+00 -1.08374e+01        00000 
 6.18610e+00 -1.08606e+01        00000 
 6.36412e+00 -1.08845e+01        00000 
 6.54328e+00 -1.09089e+01        00000 
 6.72368e+00 -1.09340e+01        00000 
 6.90528e+00 -1.09597e+01        00000 
 7.08819e+00 -1.09860e+01        00000 
 7.27235e+00 -1.10129e+01        00000 
 7.45788e+00 -1.10404e+01        00000 
 7.64473e+00 -1.10686e+01        00000 
 7.83299e+00 -1.10973e+01        00000 
 8.02264e+00 -1.11267e+01        00000 
 8.21377e+00 -1.11567e+01        00000 
-8.34700e+00 -1.15449e+01        00000 
-8.15314e+00 -1.15154e+01        00000 
-7.96078e+00 -1.14866e+01        00000 
-7.76979e+00 -1.14583e+01        00000 
-7.58023e+00 -1.14307e+01        00000 
-7.39199e+00 -1.14036e+01        00000 
-7.20511e+00 -1.13772e+01        00000 
-7.01949e+00 -1.13514e+01        00000 
-6.83517e+00 -1.13262e+01        00000 
-6.65206e+00 -1.13016e+01        00000 
-6.47019e+00 -1.12775e+01        00000 
-6.28946e+00 -1.12541e+01        00000 
-6.10991e+00 -1.12313e+01        00000 
-5.93145e+00 -1.12091e+01        00000 
-5.75411e+00 -1.11875e+01        00000 
-5.57780e+00 -1.11666e+01        00000 
-5.40254e+00 -1.11462e+01        00000 
-5.22826e+00 -1.11264e+01        00000 
-5.05497e+00 -1.11072e+01        00000 
-4.88260e+00 -1.10887e+01        00000 
-4.71116e+00 -1.10707e+01        00000 
-4.54058e+00 -1.10533e+01        00000 
-4.37087e+00 -1.10366e+01        00000 
-4.20196e+00 -1.10204e+01        00000 
-4.03387e+00 -1.10049e+01        00000 
-3.86651e+00 -1.09899e+01        00000 
-3.69991e+00 -1.09756e+01        00000 
-3.53398e+00 -1.09619e+01        00000 
-3.36875e+00 -1.09488e+01        00000 
-3.20413e+00 -1.09363e+01        00000 
-3.04016e+00 -1.09244e+01        00000 
-2.87673e+00 -1.09131e+01        00000 
-2.71389e+00 -1.09024e+01        00000 
-2.55153e+00 -1.08923e+01        00000 
-2.38970e+00 -1.08828e+01        00000 
-2.22829e+00 -1.08740e+01        00000 
-2.06735e+00 -1.08657e+01        00000 
-1.90677e+00 -1.08581e+01        00000 
-1.74659e+00 -1.08511e+01        00000 
-1.58672e+00 -1.08446e+01        00000 
-1.42719e+00 -1.08388e+01        00000 
-1.26790e+00 -1.08336e+01        00000 
-1.10889e+00 -1.08290e+01        00000 
-9.50066e-01 -1.08251e+01        00000 
-7.91455e-01 -1.08217e+01        00000 
-6.32967e-01 -1.08190e+01        00000 
-4.74633e-01 -1.08168e+01        00000 
-3.16360e-01 -1.08153e+01        00000 
-1.58180e-01 -1.08144e+01        00000 
-4.17395e-13 -1.08141e+01        00000 
 1.58180e-01 -1.08144e+01        00000 
 3.16360e-01 -1.08153e+01        00000 
 4.74633e-01 -1.08168e+01        00000 
 6.32967e-01 -1.08190e+01        00000 
 7.91455e-01 -1.08217e+01        00000 
 9.50066e-01 -1.08251e+01        00000 
 1.10889e+00 -1.08290e+01        00000 
 1.26790e+00 -1.08336e+01        00000 
 1.42719e+00 -1.08388e+01        00000 
 1.58672e+00 -1.08446e+01        00000 
 1.74659e+00 -1.08511e+01        00000 
 1.90677e+00 -1.08581e+01        00000 
 2.06735e+00 -1.08657e+01        00000 
 2.22829e+00 -1.08740e+01        00000 
 2.38970e+00 -1.08828e+01        00000 
 2.55153e+00 -1.08923e+01        00000 
 2.71389e+00 -1.09024e+01        00000 
 2.87673e+00 -1.09131e+01        00000 
 3.04016e+00 -1.09244e+01        00000 
 3.20413e+00 -1.09363e+01        00000 
 3.36875e+00 -1.09488e+01        00000 
 3.53398e+00 -1.09619e+01        00000 
 3.69991e+00 -1.09756e+01        00000 
 3.86651e+00 -1.09899e+01        00000 
 4.03387e+00 -1.10049e+01        00000 
 4.20196e+00 -1.10204e+01        00000 
 4.37087e+00 -1.10366e+01        00000 
 4.54058e+00 -1.10533e+01        00000 
 4.71116e+00 -1.10707e+01        00000 
 4.88260e+00 -1.10887e+01        00000 
 5.05497e+00 -1.11072e+01        00000 
 5.22826e+00 -1.11264e+01        00000 
 5.40254e+00 -1.11462e+01        00000 
 5.57780e+00 -1.11666e+01        00000 
 5.75411e+00 -1.11875e+01        00000 
 5.93145e+00 -1.12091e+01        00000 
 6.10991e+00 -1.12313e+01        00000 
 6.28946e+00 -1.12541e+01        00000 
 6.47019e+00 -1.12775e+01        00000 
 6.65206e+00 -1.13016e+01        00000 
 6.83517e+00 -1.13262e+01        00000 
 7.01949e+00 -1.13514e+01        00000 
 7.20511e+00 -1.13772e+01        00000 
 7.39199e+00 -1.14036e+01        00000 
 7.58023e+00 -1.14307e+01        00000 
 7.76979e+00 -1.14583e+01        00000 
 7.96078e+00 -1.14866e+01        00000 
 8.15314e+00 -1.15154e+01        00000 
 8.34700e+00 -1.15449e+01        00000 
-8.47781e+00 -1.19385e+01        00000 
-8.28129e+00 -1.19095e+01        00000 
-8.08625e+00 -1.18812e+01        00000 
-7.89259e+00 -1.18535e+01        00000 
-7.70036e+00 -1.18263e+01        00000 
-7.50945e+00 -1.17998e+01        00000 
-7.31991e+00 -1.17739e+01        00000 
-7.13162e+00 -1.17485e+01        00000 
-6.94464e+00 -1.17237e+01        00000 
-6.75887e+00 -1.16996e+01        00000 
-6.57433e+00 -1.16760e+01        00000 
-6.39094e+00 -1.16530e+01        00000 
-6.20873e+00 -1.16307e+01        00000 
-6.02760e+00 -1.16089e+01        00000 
-5.84760e+00 -1.15877e+01        00000 
-5.66862e+00 -1.15671e+01        00000 
-5.49071e+00 -1.15471e+01        00000 
-5.31376e+00 -1.15276e+01        00000 
-5.13781e+00 -1.15088e+01        00000 
-4.96277e+00 -1.14906e+01        00000 
-4.78867e+00 -1.14730e+01        00000 
-4.61542e+00 -1.14559e+01        00000 
-4.44305e+00 -1.14395e+01        00000 
-4.27147e+00 -1.14237e+01        00000 
-4.10071e+00 -1.14084e+01        00000 
-3.93069e+00 -1.13937e+01        00000 
-3.76142e+00 -1.13797e+01        00000 
-3.59282e+00 -1.13662e+01        00000 
-3.42493e+00 -1.13534e+01        00000 
-3.25764e+00 -1.13411e+01        00000 
-3.09099e+00 -1.13294e+01        00000 
-2.92490e+00 -1.13183e+01        00000 
-2.75938e+00 -1.13078e+01        00000 
-2.59436e+00 -1.12980e+01        00000 
-2.42985e+00 -1.12887e+01        00000 
-2.26577e+00 -1.12800e+01        00000 
-2.10215e+00 -1.12719e+01        00000 
-1.93890e+00 -1.12644e+01        00000 
-1.77605e+00 -1.12575e+01        00000 
-1.61350e+00 -1.12512e+01        00000 
-1.45129e+00 -1.12455e+01        00000 
-1.28933e+00 -1.12404e+01        00000 
-1.12764e+00 -1.12359e+01        00000 
-9.66135e-01 -1.12320e+01        00000 
-8.04847e-01 -1.12287e+01        00000 
-6.43681e-01 -1.12260e+01        00000 
-4.82669e-01 -1.12239e+01        00000 
-3.21718e-01 -1.12224e+01        00000 
-1.60859e-01 -1.12215e+01        00000 
-4.38046e-13 -1.12212e+01        00000 
 1.60859e-01 -1.12215e+01        00000 
 3.21718e-01 -1.12224e+01        00000 
 4.82669e-01 -1.12239e+01        00000 
 6.43681e-01 -1.12260e+01        00000 
 8.04847e-01 -1.12287e+01        00000 
 9.66135e-01 -1.12320e+01        00000 
 1.12764e+00 -1.12359e+01        00000 
 1.28933e+00 -1.12404e+01        00000 
 1.45129e+00 -1.12455e+01        00000 
 1.61350e+00 -1.12512e+01        00000 
 1.77605e+00 -1.12575e+01        00000 
 1.93890e+00 -1.12644e+01        00000 
 2.10215e+00 -1.12719e+01        00000 
 2.26577e+00 -1.12800e+01        00000 
 2.42985e+00 -1.12887e+01        00000 
 2.59436e+00 -1.12980e+01        00000 
 2.75938e+00 -1.13078e+01        00000 
 2.92490e+00 -1.13183e+01        00000 
 3.09099e+00 -1.13294e+01        00000 
 3.25764e+00 -1.13411e+01        00000 
 3.42493e+00 -1.13534e+01        00000 
 3.59282e+00 -1.13662e+01        00000 
 3.76142e+00 -1.13797e+01        00000 
 3.93069e+00 -1.13937e+01        00000 
 4.10071e+00 -1.14084e+01        00000 
 4.27147e+00 -1.14237e+01        00000 
 4.44305e+00 -1.14395e+01        00000 
 4.61542e+00 -1.14559e+01        00000 
 4.78867e+00 -1.14730e+01        00000 
 4.96277e+00 -1.14906e+01        00000 
 5.13781e+00 -1.15088e+01        00000 
 5.31376e+00 -1.15276e+01        00000 
 5.49071e+00 -1.15471e+01        00000 
 5.66862e+00 -1.15671e+01        00000 
 5.84760e+00 -1.15877e+01        00000 
 6.02760e+00 -1.16089e+01        00000 
 6.20873e+00 -1.16307e+01        00000 
 6.39094e+00 -1.16530e+01        00000 
 6.57433e+00 -1.16760e+01        00000 
 6.75887e+00 -1.16996e+01        00000 
 6.94464e+00 -1.17237e+01        00000 
 7.13162e+00 -1.17485e+01        00000 
 7.31991e+00 -1.17739e+01        00000 
 7.50945e+00 -1.17998e+01        00000 
 7.70036e+00 -1.18263e+01        00000 
 7.89259e+00 -1.18535e+01        00000 
 8.08625e+00 -1.18812e+01        00000 
 8.28129e+00 -1.19095e+01        00000 
 8.47781e+00 -1.19385e+01        00000 
-8.60621e+00 -1.23373e+01        00000 
-8.40706e+00 -1.23089e+01        00000 
-8.20941e+00 -1.22811e+01        00000 
-8.01313e+00 -1.22539e+01        00000 
-7.81828e+00 -1.22273e+01        00000 
-7.62475e+00 -1.22012e+01        00000 
-7.43259e+00 -1.21758e+01        00000 
-7.24169e+00 -1.21509e+01        00000 
-7.05209e+00 -1.21266e+01        00000 
-6.86370e+00 -1.21029e+01        00000 
-6.67655e+00 -1.20798e+01        00000 
-6.49054e+00 -1.20572e+01        00000 
-6.30571e+00 -1.20353e+01        00000 
-6.12197e+00 -1.20139e+01        00000 
-5.93936e+00 -1.19931e+01        00000 
-5.75776e+00 -1.19729e+01        00000 
-5.57723e+00 -1.19532e+01        00000 
-5.39767e+00 -1.19342e+01        00000 
-5.21910e+00 -1.19157e+01        00000 
-5.04145e+00 -1.18979e+01        00000 
-4.86473e+00 -1.18806e+01        00000 
-4.68887e+00 -1.18638e+01        00000 
-4.51388e+00 -1.18477e+01        00000 
-4.33968e+00 -1.18322e+01        00000 
-4.16631e+00 -1.18172e+01        00000 
-3.99366e+00 -1.18028e+01        00000 
-3.82178e+00 -1.17891e+01        00000 
-3.65056e+00 -1.17758e+01        00000 
-3.48005e+00 -1.17632e+01        00000 
-3.31014e+00 -1.17512e+01        00000 
-3.14087e+00 -1.17397e+01        00000 
-2.97216e+00 -1.17289e+01        00000 
-2.80402e+00 -1.17186e+01        00000 
-2.63637e+00 -1.17089e+01        00000 
-2.46924e+00 -1.16998e+01        00000 
-2.30254e+00 -1.16913e+01        00000 
-2.13630e+00 -1.16833e+01        00000 
-1.97042e+00 -1.16760e+01        00000 
-1.80494e+00 -1.16692e+01        00000 
-1.63977e+00 -1.16631e+01        00000 
-1.47494e+00 -1.16575e+01        00000 
-1.31034e+00 -1.16525e+01        00000 
-1.14603e+00 -1.16481e+01        00000 
-9.81900e-01 -1.16442e+01        00000 
-8.17985e-01 -1.16410e+01        00000 
-6.54191e-01 -1.16384e+01        00000 
-4.90552e-01 -1.16363e+01        00000 
-3.26973e-01 -1.16348e+01        00000 
-1.63487e-01 -1.16340e+01        00000 
-4.63230e-13 -1.16337e+01        00000 
 1.63487e-01 -1.16340e+01        00000 
 3.26973e-01 -1.16348e+01        00000 
 4.90552e-01 -1.16363e+01        00000 
 6.54191e-01 -1.16384e+01        00000 
 8.17985e-01 -1.16410e+01        00000 
 9.81900e-01 -1.16442e+01        00000 
 1.14603e+00 -1.16481e+01        00000 
 1.31034e+00 -1.16525e+01        00000 
 1.47494e+00 -1.16575e+01        00000 
 1.63977e+00 -1.16631e+01        00000 
 1.80494e+00 -1.16692e+01        00000 
 1.97042e+00 -1.16760e+01        00000 
 2.13630e+00 -1.16833e+01        00000 
 2.30254e+00 -1.16913e+01        00000 
 2.46924e+00 -1.16998e+01        00000 
 2.63637e+00 -1.17089e+01        00000 
 2.80402e+00 -1.17186e+01        00000 
 2.97216e+00 -1.17289e+01        00000 
 3.14087e+00 -1.17397e+01        00000 
 3.31014e+00 -1.17512e+01        00000 
 3.48005e+00 -1.17632e+01        00000 
 3.65056e+00 -1.17758e+01        00000 
 3.82178e+00 -1.17891e+01        00000 
 3.99366e+00 -1.18028e+01        00000 
 4.16631e+00 -1.18172e+01        00000 
 4.33968e+00 -1.18322e+01        00000 
 4.51388e+00 -1.18477e+01        00000 
 4.68887e+00 -1.18638e+01        00000 
 4.86473e+00 -1.18806e+01        00000 
 5.04145e+00 -1.18979e+01        00000 
 5.21910e+00 -1.19157e+01        00000 
 5.39767e+00 -1.19342e+01        00000 
 5.57723e+00 -1.19532e+01        00000 
 5.75776e+00 -1.19729e+01        00000 
 5.93936e+00 -1.19931e+01        00000 
 6.12197e+00 -1.20139e+01        00000 
 6.30571e+00 -1.20353e+01        00000 
 6.49054e+00 -1.20572e+01        00000 
 6.67655e+00 -1.20798e+01        00000 
 6.86370e+00 -1.21029e+01        00000 
 7.05209e+00 -1.21266e+01        00000 
 7.24169e+00 -1.21509e+01        00000 
 7.43259e+00 -1.21758e+01        00000 
 7.62475e+00 -1.22012e+01        00000 
 7.81828e+00 -1.22273e+01        00000 
 8.01313e+00 -1.22539e+01        00000 
 8.20941e+00 -1.22811e+01        00000 
 8.40706e+00 -1.23089e+01        00000 
 8.60621e+00 -1.23373e+01        00000 
-8.73219e+00 -1.27414e+01        00000 
-8.53048e+00 -1.27135e+01        00000 
-8.33025e+00 -1.26863e+01        00000 
-8.13140e+00 -1.26596e+01        00000 
-7.93398e+00 -1.26334e+01        00000 
-7.73788e+00 -1.26079e+01        00000 
-7.54315e+00 -1.25829e+01        00000 
-7.34968e+00 -1.25585e+01        00000 
-7.15752e+00 -1.25347e+01        00000 
-6.96655e+00 -1.25114e+01        00000 
-6.77684e+00 -1.24887e+01        00000 
-6.58826e+00 -1.24666e+01        00000 
-6.40087e+00 -1.24451e+01        00000 
-6.21456e+00 -1.24241e+01        00000 
-6.02938e+00 -1.24037e+01        00000 
-5.84522e+00 -1.23839e+01        00000 
-5.66212e+00 -1.23646e+01        00000 
-5.47999e+00 -1.23459e+01        00000 
-5.29886e+00 -1.23278e+01        00000 
-5.11863e+00 -1.23103e+01        00000 
-4.93935e+00 -1.22933e+01        00000 
-4.76092e+00 -1.22769e+01        00000 
-4.58337e+00 -1.22611e+01        00000 
-4.40660e+00 -1.22459e+01        00000 
-4.23066e+00 -1.22312e+01        00000 
-4.05544e+00 -1.22171e+01        00000 
-3.88099e+00 -1.22036e+01        00000 
-3.70720e+00 -1.21907e+01        00000 
-3.53412e+00 -1.21783e+01        00000 
-3.36164e+00 -1.21665e+01        00000 
-3.18980e+00 -1.21553e+01        00000 
-3.01851e+00 -1.21446e+01        00000 
-2.84780e+00 -1.21345e+01        00000 
-2.67758e+00 -1.21250e+01        00000 
-2.50788e+00 -1.21161e+01        00000 
-2.33860e+00 -1.21078e+01        00000 
-2.16979e+00 -1.21000e+01        00000 
-2.00133e+00 -1.20928e+01        00000 
-1.83328e+00 -1.20861e+01        00000 
-1.66553e+00 -1.20801e+01        00000 
-1.49812e+00 -1.20746e+01        00000 
-1.33096e+00 -1.20697e+01        00000 
-1.16407e+00 -1.20654e+01        00000 
-9.97361e-01 -1.20617e+01        00000 
-8.30870e-01 -1.20585e+01        00000 
-6.64499e-01 -1.20559e+01        00000 
-4.98283e-01 -1.20539e+01        00000 
-3.32127e-01 -1.20524e+01        00000 
-1.66064e-01 -1.20516e+01        00000 
-4.89455e-13 -1.20513e+01        00000 
 1.66064e-01 -1.20516e+01        00000 
 3.32127e-01 -1.20524e+01        00000 
 4.98283e-01 -1.20539e+01        00000 
 6.64499e-01 -1.20559e+01        00000 
 8.30870e-01 -1.20585e+01        00000 
 9.97361e-01 -1.20617e+01        00000 
 1.16407e+00 -1.20654e+01        00000 
 1.33096e+00 -1.20697e+01        00000 
 1.49812e+00 -1.20746e+01        00000 
 1.66553e+00 -1.20801e+01        00000 
 1.83328e+00 -1.20861e+01        00000 
 2.00133e+00 -1.20928e+01        00000 
 2.16979e+00 -1.21000e+01        00000 
 2.33860e+00 -1.21078e+01        00000 
 2.50788e+00 -1.21161e+01        00000 
 2.67758e+00 -1.21250e+01        00000 
 2.84780e+00 -1.21345e+01        00000 
 3.01851e+00 -1.21446e+01        00000 
 3.18980e+00 -1.21553e+01        00000 
 3.36164e+00 -1.21665e+01        00000 
 3.53412e+00 -1.21783e+01        00000 
 3.70720e+00 -1.21907e+01        00000 
 3.88099e+00 -1.22036e+01        00000 
 4.05544e+00 -1.22171e+01        00000 
 4.23066e+00 -1.22312e+01        00000 
 4.40660e+00 -1.22459e+01        00000 
 4.58337e+00 -1.22611e+01        00000 
 4.76092e+00 -1.22769e+01        00000 
 4.93935e+00 -1.22933e+01        00000 
 5.11863e+00 -1.23103e+01        00000 
 5.29886e+00 -1.23278e+01        00000 
 5.47999e+00 -1.23459e+01        00000 
 5.66212e+00 -1.23646e+01        00000 
 5.84522e+00 -1.23839e+01        00000 
 6.02938e+00 -1.24037e+01        00000 
 6.21456e+00 -1.24241e+01        00000 
 6.40087e+00 -1.24451e+01        00000 
 6.58826e+00 -1.24666e+01        00000 
 6.77684e+00 -1.24887e+01        00000 
 6.96655e+00 -1.25114e+01        00000 
 7.15752e+00 -1.25347e+01        00000 
 7.34968e+00 -1.25585e+01        00000 
 7.54315e+00 -1.25829e+01        00000 
 7.73788e+00 -1.26079e+01        00000 
 7.93398e+00 -1.26334e+01        00000 
 8.13140e+00 -1.26596e+01        00000 
 8.33025e+00 -1.26863e+01        00000 
 8.53048e+00 -1.27135e+01        00000 
 8.73219e+00 -1.27414e+01        00000 
-8.85576e+00 -1.31505e+01        00000 
-8.65152e+00 -1.31232e+01        00000 
-8.44877e+00 -1.30965e+01        00000 
-8.24740e+00 -1.30703e+01        00000 
-8.04746e+00 -1.30447e+01        00000 
-7.84885e+00 -1.30196e+01        00000 
-7.65159e+00 -1.29951e+01        00000 
-7.45560e+00 -1.29712e+01        00000 
-7.26092e+00 -1.29478e+01        00000 
-7.06744e+00 -1.29250e+01        00000 
-6.87520e+00 -1.29028e+01        00000 
-6.68411e+00 -1.28811e+01        00000 
-6.49420e+00 -1.28600e+01        00000 
-6.30537e+00 -1.28394e+01        00000 
-6.11767e+00 -1.28194e+01        00000 
-5.93099e+00 -1.28000e+01        00000 
-5.74537e+00 -1.27811e+01        00000 
-5.56072e+00 -1.27628e+01        00000 
-5.37707e+00 -1.27450e+01        00000 
-5.19433e+00 -1.27278e+01        00000 
-5.01253e+00 -1.27112e+01        00000 
-4.83158e+00 -1.26951e+01        00000 
-4.65151e+00 -1.26796e+01        00000 
-4.47222e+00 -1.26647e+01        00000 
-4.29376e+00 -1.26503e+01        00000 
-4.11602e+00 -1.26365e+01        00000 
-3.93904e+00 -1.26233e+01        00000 
-3.76274e+00 -1.26106e+01        00000 
-3.58713e+00 -1.25984e+01        00000 
-3.41213e+00 -1.25869e+01        00000 
-3.23777e+00 -1.25759e+01        00000 
-3.06396e+00 -1.25654e+01        00000 
-2.89073e+00 -1.25556e+01        00000 
-2.71798e+00 -1.25463e+01        00000 
-2.54576e+00 -1.25375e+01        00000 
-2.37396e+00 -1.25293e+01        00000 
-2.20262e+00 -1.25217e+01        00000 
-2.03164e+00 -1.25146e+01        00000 
-1.86107e+00 -1.25082e+01        00000 
-1.69079e+00 -1.25022e+01        00000 
-1.52086e+00 -1.24969e+01        00000 
-1.35117e+00 -1.24921e+01        00000 
-1.18175e+00 -1.24878e+01        00000 
-1.01252e+00 -1.24842e+01        00000 
-8.43500e-01 -1.24811e+01        00000 
-6.74603e-01 -1.24785e+01        00000 
-5.05862e-01 -1.24765e+01        00000 
-3.37179e-01 -1.24751e+01        00000 
-1.68591e-01 -1.24743e+01        00000 
-5.10597e-13 -1.24740e+01        00000 
 1.68591e-01 -1.24743e+01        00000 
 3.37179e-01 -1.24751e+01        00000 
 5.05862e-01 -1.24765e+01        00000 
 6.74603e-01 -1.24785e+01        00000 
 8.43500e-01 -1.24811e+01        00000 
 1.01252e+00 -1.24842e+01        00000 
 1.18175e+00 -1.24878e+01        00000 
 1.35117e+00 -1.24921e+01        00000 
 1.52086e+00 -1.24969e+01        00000 
 1.69079e+00 -1.25022e+01        00000 
 1.86107e+00 -1.25082e+01        00000 
 2.03164e+00 -1.25146e+01        00000 
 2.20262e+00 -1.25217e+01        00000 
 2.37396e+00 -1.25293e+01        00000 
 2.54576e+00 -1.25375e+01        00000 
 2.71798e+00 -1.25463e+01        00000 
 2.89073e+00 -1.25556e+01        00000 
 3.06396e+00 -1.25654e+01        00000 
 3.23777e+00 -1.25759e+01        00000 
 3.41213e+00 -1.25869e+01        00000 
 3.58713e+00 -1.25984e+01        00000 
 3.76274e+00 -1.26106e+01        00000 
 3.93904e+00 -1.26233e+01        00000 
 4.11602e+00 -1.26365e+01        00000 
 4.29376e+00 -1.26503e+01        00000 
 4.47222e+00 -1.26647e+01        00000 
 4.65151e+00 -1.26796e+01        00000 
 4.83158e+00 -1.26951e+01        00000 
 5.01253e+00 -1.27112e+01        00000 
 5.19433e+00 -1.27278e+01        00000 
 5.37707e+00 -1.27450e+01        00000 
 5.56072e+00 -1.27628e+01        00000 
 5.74537e+00 -1.27811e+01        00000 
 5.93099e+00 -1.28000e+01        00000 
 6.11767e+00 -1.28194e+01        00000 
 6.30537e+00 -1.28394e+01        00000 
 6.49420e+00 -1.28600e+01        00000 
 6.68411e+00 -1.28811e+01        00000 
 6.87520e+00 -1.29028e+01        00000 
 7.06744e+00 -1.29250e+01        00000 
 7.26092e+00 -1.29478e+01        00000 
 7.45560e+00 -1.29712e+01        00000 
 7.65159e+00 -1.29951e+01        00000 
 7.84885e+00 -1.30196e+01        00000 
 8.04746e+00 -1.30447e+01        00000 
 8.24740e+00 -1.30703e+01        00000 
 8.44877e+00 -1.30965e+01        00000 
 8.65152e+00 -1.31232e+01        00000 
 8.85576e+00 -1.31505e+01        00000 
-8.97691e+00 -1.35647e+01        00000 
-8.77020e+00 -1.35379e+01        00000 
-8.56498e+00 -1.35117e+01        00000 
-8.36114e+00 -1.34860e+01        00000 
-8.15873e+00 -1.34609e+01        00000 
-7.95764e+00 -1.34364e+01        00000 
-7.75792e+00 -1.34124e+01        00000 
-7.55945e+00 -1.33889e+01        00000 
-7.36230e+00 -1.33660e+01        00000 
-7.16635e+00 -1.33436e+01        00000 
-6.97164e+00 -1.33218e+01        00000 
-6.77807e+00 -1.33006e+01        00000 
-6.58570e+00 -1.32799e+01        00000 
-6.39440e+00 -1.32597e+01        00000 
-6.20423e+00 -1.32401e+01        00000 
-6.01507e+00 -1.32211e+01        00000 
-5.82699e+00 -1.32026e+01        00000 
-5.63987e+00 -1.31846e+01        00000 
-5.45375e+00 -1.31672e+01        00000 
-5.26854e+00 -1.31504e+01        00000 
-5.08427e+00 -1.31341e+01        00000 
-4.90084e+00 -1.31183e+01        00000 
-4.71830e+00 -1.31031e+01        00000 
-4.53654e+00 -1.30885e+01        00000 
-4.35561e+00 -1.30744e+01        00000 
-4.17540e+00 -1.30609e+01        00000 
-3.99595e+00 -1.30479e+01        00000 
-3.81717e+00 -1.30355e+01        00000 
-3.63909e+00 -1.30236e+01        00000 
-3.46162e+00 -1.30123e+01        00000 
-3.28479e+00 -1.30015e+01        00000 
-3.10850e+00 -1.29913e+01        00000 
-2.93280e+00 -1.29816e+01        00000 
-2.75758e+00 -1.29725e+01        00000 
-2.58288e+00 -1.29639e+01        00000 
-2.40861e+00 -1.29559e+01        00000 
-2.23479e+00 -1.29484e+01        00000 
-2.06134e+00 -1.29415e+01        00000 
-1.88829e+00 -1.29352e+01        00000 
-1.71555e+00 -1.29293e+01        00000 
-1.54314e+00 -1.29241e+01        00000 
-1.37097e+00 -1.29194e+01        00000 
-1.19908e+00 -1.29152e+01        00000 
-1.02737e+00 -1.29117e+01        00000 
-8.55878e-01 -1.29086e+01        00000 
-6.84506e-01 -1.29061e+01        00000 
-5.13289e-01 -1.29042e+01        00000 
-3.42130e-01 -1.29028e+01        00000 
-1.71067e-01 -1.29020e+01        00000 
-5.40845e-13 -1.29017e+01        00000 
 1.71067e-01 -1.29020e+01        00000 
 3.42130e-01 -1.29028e+01        00000 
 5.13289e-01 -1.29042e+01        00000 
 6.84506e-01 -1.29061e+01        00000 
 8.55878e-01 -1.29086e+01        00000 
 1.02737e+00 -1.29117e+01        00000 
 1.19908e+00 -1.29152e+01        00000 
 1.37097e+00 -1.29194e+01        00000 
 1.54314e+00 -1.29241e+01        00000 
 1.71555e+00 -1.29293e+01        00000 
 1.88829e+00 -1.29352e+01        00000 
 2.06134e+00 -1.29415e+01        00000 
 2.23479e+00 -1.29484e+01        00000 
 2.40861e+00 -1.29559e+01        00000 
 2.58288e+00 -1.29639e+01        00000 
 2.75758e+00 -1.29725e+01        00000 
 2.93280e+00 -1.29816e+01        00000 
 3.10850e+00 -1.29913e+01        00000 
 3.28479e+00 -1.30015e+01        00000 
 3.46162e+00 -1.30123e+01        00000 
 3.63909e+00 -1.30236e+01        00000 
 3.81717e+00 -1.30355e+01        00000 
 3.99595e+00 -1.30479e+01        00000 
 4.17540e+00 -1.30609e+01        00000 
 4.35561e+00 -1.30744e+01        00000 
 4.53654e+00 -1.30885e+01        00000 
 4.71830e+00 -1.31031e+01        00000 
 4.90084e+00 -1.31183e+01        00000 
 5.08427e+00 -1.31341e+01        00000 
 5.26854e+00 -1.31504e+01        00000 
 5.45375e+00 -1.31672e+01        00000 
 5.63987e+00 -1.31846e+01        00000 
 5.82699e+00 -1.32026e+01        00000 
 6.01507e+00 -1.32211e+01        00000 
 6.20423e+00 -1.32401e+01        00000 
 6.39440e+00 -1.32597e+01        00000 
 6.58570e+00 -1.32799e+01        00000 
 6.77807e+00 -1.33006e+01        00000 
 6.97164e+00 -1.33218e+01        00000 
 7.16635e+00 -1.33436e+01        00000 
 7.36230e+00 -1.33660e+01        00000 
 7.55945e+00 -1.33889e+01        00000 
 7.75792e+00 -1.34124e+01        00000 
 7.95764e+00 -1.34364e+01        00000 
 8.15873e+00 -1.34609e+01        00000 
 8.36114e+00 -1.34860e+01        00000 
 8.56498e+00 -1.35117e+01        00000 
 8.77020e+00 -1.35379e+01        00000 
 8.97691e+00 -1.35647e+01        00000 
-9.09565e+00 -1.39837e+01        00000 
-8.88651e+00 -1.39575e+01        00000 
-8.67887e+00 -1.39318e+01        00000 
-8.47260e+00 -1.39067e+01        00000 
-8.26777e+00 -1.38821e+01        00000 
-8.06426e+00 -1.38580e+01        00000 
-7.86211e+00 -1.38345e+01        00000 
-7.66123e+00 -1.38115e+01        00000 
-7.46166e+00 -1.37890e+01        00000 
-7.26328e+00 -1.37671e+01        00000 
-7.06615e+00 -1.37458e+01        00000 
-6.87016e+00 -1.37249e+01        00000 
-6.67536e+00 -1.37047e+01        00000 
-6.48164e+00 -1.36849e+01        00000 
-6.28905e+00 -1.36657e+01        00000 
-6.09748e+00 -1.36470e+01        00000 
-5.90697e+00 -1.36289e+01        00000 
-5.71743e+00 -1.36113e+01        00000 
-5.52889e+00 -1.35943e+01        00000 
-5.34125e+00 -1.35778e+01        00000 
-5.15456e+00 -1.35618e+01        00000 
-4.96871e+00 -1.35464e+01        00000 
-4.78375e+00 -1.35315e+01        00000 
-4.59957e+00 -1.35172e+01        00000 
-4.41621e+00 -1.35034e+01        00000 
-4.23358e+00 -1.34902e+01        00000 
-4.05171e+00 -1.34774e+01        00000 
-3.87051e+00 -1.34653e+01        00000 
-3.69001e+00 -1.34536e+01        00000 
-3.51011e+00 -1.34425e+01        00000 
-3.33086e+00 -1.34320e+01        00000 
-3.15214e+00 -1.34220e+01        00000 
-2.97402e+00 -1.34125e+01        00000 
-2.79637e+00 -1.34036e+01        00000 
-2.61925e+00 -1.33952e+01        00000 
-2.44255e+00 -1.33873e+01        00000 
-2.26632e+00 -1.33800e+01        00000 
-2.09044e+00 -1.33733e+01        00000 
-1.91497e+00 -1.33670e+01        00000 
-1.73979e+00 -1.33614e+01        00000 
-1.56496e+00 -1.33562e+01        00000 
-1.39037e+00 -1.33516e+01        00000 
-1.21605e+00 -1.33476e+01        00000 
-1.04192e+00 -1.33440e+01        00000 
-8.68003e-01 -1.33411e+01        00000 
-6.94205e-01 -1.33386e+01        00000 
-5.20564e-01 -1.33367e+01        00000 
-3.46980e-01 -1.33354e+01        00000 
-1.73492e-01 -1.33346e+01        00000 
-5.75829e-13 -1.33343e+01        00000 
 1.73492e-01 -1.33346e+01        00000 
 3.46980e-01 -1.33354e+01        00000 
 5.20564e-01 -1.33367e+01        00000 
 6.94205e-01 -1.33386e+01        00000 
 8.68003e-01 -1.33411e+01        00000 
 1.04192e+00 -1.33440e+01        00000 
 1.21605e+00 -1.33476e+01        00000 
 1.39037e+00 -1.33516e+01        00000 
 1.56496e+00 -1.33562e+01        00000 
 1.73979e+00 -1.33614e+01        00000 
 1.91497e+00 -1.33670e+01        00000 
 2.09044e+00 -1.33733e+01        00000 
 2.26632e+00 -1.33800e+01        00000 
 2.44255e+00 -1.33873e+01        00000 
 2.61925e+00 -1.33952e+01        00000 
 2.79637e+00 -1.34036e+01        00000 
 2.97402e+00 -1.34125e+01        00000 
 3.15214e+00 -1.34220e+01        00000 
 3.33086e+00 -1.34320e+01        00000 
 3.51011e+00 -1.34425e+01        00000 
 3.69001e+00 -1.34536e+01        00000 
 3.87051e+00 -1.34653e+01        00000 
 4.05171e+00 -1.34774e+01        00000 
 4.23358e+00 -1.34902e+01        00000 
 4.41621e+00 -1.35034e+01        00000 
 4.59957e+00 -1.35172e+01        00000 
 4.78375e+00 -1.35315e+01        00000 
 4.96871e+00 -1.35464e+01        00000 
 5.15456e+00 -1.35618e+01        00000 
 5.34125e+00 -1.35778e+01        00000 
 5.52889e+00 -1.35943e+01        00000 
 5.71743e+00 -1.36113e+01        00000 
 5.90697e+00 -1.36289e+01        00000 
 6.09748e+00 -1.36470e+01        00000 
 6.28905e+00 -1.36657e+01        00000 
 6.48164e+00 -1.36849e+01        00000 
 6.67536e+00 -1.37047e+01        00000 
 6.87016e+00 -1.37249e+01        00000 
 7.06615e+00 -1.37458e+01        00000 
 7.26328e+00 -1.37671e+01        00000 
 7.46166e+00 -1.37890e+01        00000 
 7.66123e+00 -1.38115e+01        00000 
 7.86211e+00 -1.38345e+01        00000 
 8.06426e+00 -1.38580e+01        00000 
 8.26777e+00 -1.38821e+01        00000 
 8.47260e+00 -1.39067e+01        00000 
 8.67887e+00 -1.39318e+01        00000 
 8.88651e+00 -1.39575e+01        00000 
 9.09565e+00 -1.39837e+01        00000 
-9.21196e+00 -1.44076e+01        00000 
-9.00045e+00 -1.43819e+01        00000 
-8.79044e+00 -1.43567e+01        00000 
-8.58180e+00 -1.43321e+01        00000 
-8.37459e+00 -1.43080e+01        00000 
-8.16871e+00 -1.42844e+01        00000 
-7.96419e+00 -1.42614e+01        00000 
-7.76094e+00 -1.42389e+01        00000 
-7.55899e+00 -1.42169e+01        00000 
-7.35824e+00 -1.41954e+01        00000 
-7.15874e+00 -1.41745e+01        00000 
-6.96038e+00 -1.41541e+01        00000 
-6.76320e+00 -1.41342e+01        00000 
-6.56711e+00 -1.41149e+01        00000 
-6.37214e+00 -1.40961e+01        00000 
-6.17820e+00 -1.40778e+01        00000 
-5.98532e+00 -1.40601e+01        00000 
-5.79340e+00 -1.40429e+01        00000 
-5.60249e+00 -1.40262e+01        00000 
-5.41248e+00 -1.40100e+01        00000 
-5.22341e+00 -1.39944e+01        00000 
-5.03519e+00 -1.39793e+01        00000 
-4.84785e+00 -1.39647e+01        00000 
-4.66130e+00 -1.39507e+01        00000 
-4.47557e+00 -1.39372e+01        00000 
-4.29056e+00 -1.39242e+01        00000 
-4.10632e+00 -1.39118e+01        00000 
-3.92274e+00 -1.38999e+01        00000 
-3.73987e+00 -1.38885e+01        00000 
-3.55760e+00 -1.38776e+01        00000 
-3.37597e+00 -1.38673e+01        00000 
-3.19488e+00 -1.38575e+01        00000 
-3.01438e+00 -1.38482e+01        00000 
-2.83436e+00 -1.38395e+01        00000 
-2.65487e+00 -1.38313e+01        00000 
-2.47579e+00 -1.38236e+01        00000 
-2.29718e+00 -1.38164e+01        00000 
-2.11893e+00 -1.38098e+01        00000 
-1.94109e+00 -1.38037e+01        00000 
-1.76354e+00 -1.37982e+01        00000 
-1.58633e+00 -1.37931e+01        00000 
-1.40936e+00 -1.37886e+01        00000 
-1.23268e+00 -1.37847e+01        00000 
-1.05617e+00 -1.37812e+01        00000 
-8.79876e-01 -1.37783e+01        00000 
-7.03703e-01 -1.37759e+01        00000 
-5.27688e-01 -1.37741e+01        00000 
-3.51729e-01 -1.37728e+01        00000 
-1.75867e-01 -1.37720e+01        00000 
-5.91461e-13 -1.37717e+01        00000 
 1.75867e-01 -1.37720e+01        00000 
 3.51729e-01 -1.37728e+01        00000 
 5.27688e-01 -1.37741e+01        00000 
 7.03703e-01 -1.37759e+01        00000 
 8.79876e-01 -1.37783e+01        00000 
 1.05617e+00 -1.37812e+01        00000 
 1.23268e+00 -1.37847e+01        00000 
 1.40936e+00 -1.37886e+01        00000 
 1.58633e+00 -1.37931e+01        00000 
 1.76354e+00 -1.37982e+01        00000 
 1.94109e+00 -1.38037e+01        00000 
 2.11893e+00 -1.38098e+01        00000 
 2.29718e+00 -1.38164e+01        00000 
 2.47579e+00 -1.38236e+01        00000 
 2.65487e+00 -1.38313e+01        00000 
 2.83436e+00 -1.38395e+01        00000 
 3.01438e+00 -1.38482e+01        00000 
 3.19488e+00 -1.38575e+01        00000 
 3.37597e+00 -1.38673e+01        00000 
 3.55760e+00 -1.38776e+01        00000 
 3.73987e+00 -1.38885e+01        00000 
 3.92274e+00 -1.38999e+01        00000 
 4.10632e+00 -1.39118e+01        00000 
 4.29056e+00 -1.39242e+01        00000 
 4.47557e+00 -1.39372e+01        00000 
 4.66130e+00 -1.39507e+01        00000 
 4.84785e+00 -1.39647e+01        00000 
 5.03519e+00 -1.39793e+01        00000 
 5.22341e+00 -1.39944e+01        00000 
 5.41248e+00 -1.40100e+01        00000 
 5.60249e+00 -1.40262e+01        00000 
 5.79340e+00 -1.40429e+01        00000 
 5.98532e+00 -1.40601e+01        00000 
 6.17820e+00 -1.40778e+01        00000 
 6.37214e+00 -1.40961e+01        00000 
 6.56711e+00 -1.41149e+01        00000 
 6.76320e+00 -1.41342e+01        00000 
 6.96038e+00 -1.41541e+01        00000 
 7.15874e+00 -1.41745e+01        00000 
 7.35824e+00 -1.41954e+01        00000 
 7.55899e+00 -1.42169e+01        00000 
 7.76094e+00 -1.42389e+01        00000 
 7.96419e+00 -1.42614e+01        00000 
 8.16871e+00 -1.42844e+01        00000 
 8.37459e+00 -1.43080e+01        00000 
 8.58180e+00 -1.43321e+01        00000 
 8.79044e+00 -1.43567e+01        00000 
 9.00045e+00 -1.43819e+01        00000 
 9.21196e+00 -1.44076e+01        00000 
-9.32586e+00 -1.48361e+01        00000 
-9.11203e+00 -1.48110e+01        00000 
-8.89969e+00 -1.47863e+01        00000 
-8.68873e+00 -1.47622e+01        00000 
-8.47920e+00 -1.47386e+01        00000 
-8.27099e+00 -1.47155e+01        00000 
-8.06415e+00 -1.46930e+01        00000 
-7.85857e+00 -1.46709e+01        00000 
-7.65430e+00 -1.46494e+01        00000 
-7.45122e+00 -1.46284e+01        00000 
-7.24940e+00 -1.46079e+01        00000 
-7.04871e+00 -1.45880e+01        00000 
-6.84921e+00 -1.45685e+01        00000 
-6.65080e+00 -1.45496e+01        00000 
-6.45351e+00 -1.45312e+01        00000 
-6.25723e+00 -1.45133e+01        00000 
-6.06203e+00 -1.44959e+01        00000 
-5.86779e+00 -1.44791e+01        00000 
-5.67455e+00 -1.44628e+01        00000 
-5.48221e+00 -1.44470e+01        00000 
-5.29082e+00 -1.44317e+01        00000 
-5.10028e+00 -1.44169e+01        00000 
-4.91061e+00 -1.44026e+01        00000 
-4.72173e+00 -1.43889e+01        00000 
-4.53368e+00 -1.43757e+01        00000 
-4.34635e+00 -1.43630e+01        00000 
-4.15978e+00 -1.43508e+01        00000 
-3.97388e+00 -1.43391e+01        00000 
-3.78868e+00 -1.43280e+01        00000 
-3.60408e+00 -1.43174e+01        00000 
-3.42013e+00 -1.43073e+01        00000 
-3.23672e+00 -1.42977e+01        00000 
-3.05389e+00 -1.42886e+01        00000 
-2.87155e+00 -1.42801e+01        00000 
-2.68973e+00 -1.42721e+01        00000 
-2.50833e+00 -1.42645e+01        00000 
-2.32740e+00 -1.42576e+01        00000 
-2.14682e+00 -1.42511e+01        00000 
-1.96665e+00 -1.42451e+01        00000 
-1.78678e+00 -1.42397e+01        00000 
-1.60725e+00 -1.42348e+01        00000 
-1.42795e+00 -1.42304e+01        00000 
-1.24894e+00 -1.42265e+01        00000 
-1.07011e+00 -1.42231e+01        00000 
-8.91495e-01 -1.42203e+01        00000 
-7.12998e-01 -1.42179e+01        00000 
-5.34659e-01 -1.42161e+01        00000 
-3.56377e-01 -1.42148e+01        00000 
-1.78191e-01 -1.42141e+01        00000 
-6.10406e-13 -1.42138e+01        00000 
 1.78191e-01 -1.42141e+01        00000 
 3.56377e-01 -1.42148e+01        00000 
 5.34659e-01 -1.42161e+01        00000 
 7.12998e-01 -1.42179e+01        00000 
 8.91495e-01 -1.42203e+01        00000 
 1.07011e+00 -1.42231e+01        00000 
 1.24894e+00 -1.42265e+01        00000 
 1.42795e+00 -1.42304e+01        00000 
 1.60725e+00 -1.42348e+01        00000 
 1.78678e+00 -1.42397e+01        00000 
 1.96665e+00 -1.42451e+01        00000 
 2.14682e+00 -1.42511e+01        00000 
 2.32740e+00 -1.42576e+01        00000 
 2.50833e+00 -1.42645e+01        00000 
 2.68973e+00 -1.42721e+01        00000 
 2.87155e+00 -1.42801e+01        00000 
 3.05389e+00 -1.42886e+01        00000 
 3.23672e+00 -1.42977e+01        00000 
 3.42013e+00 -1.43073e+01        00000 
 3.60408e+00 -1.43174e+01        00000 
 3.78868e+00 -1.43280e+01        00000 
 3.97388e+00 -1.43391e+01        00000 
 4.15978e+00 -1.43508e+01        00000 
 4.34635e+00 -1.43630e+01        00000 
 4.53368e+00 -1.43757e+01        00000 
 4.72173e+00 -1.43889e+01        00000 
 4.91061e+00 -1.44026e+01        00000 
 5.10028e+00 -1.44169e+01        00000 
 5.29082e+00 -1.44317e+01        00000 
 5.48221e+00 -1.44470e+01        00000 
 5.67455e+00 -1.44628e+01        00000 
 5.86779e+00 -1.44791e+01        00000 
 6.06203e+00 -1.44959e+01        00000 
 6.25723e+00 -1.45133e+01        00000 
 6.45351e+00 -1.45312e+01        00000 
 6.65080e+00 -1.45496e+01        00000 
 6.84921e+00 -1.45685e+01        00000 
 7.04871e+00 -1.45880e+01        00000 
 7.24940e+00 -1.46079e+01        00000 
 7.45122e+00 -1.46284e+01        00000 
 7.65430e+00 -1.46494e+01        00000 
 7.85857e+00 -1.46709e+01        00000 
 8.06415e+00 -1.46930e+01        00000 
 8.27099e+00 -1.47155e+01        00000 
 8.47920e+00 -1.47386e+01        00000 
 8.68873e+00 -1.47622e+01        00000 
 8.89969e+00 -1.47863e+01        00000 
 9.11203e+00 -1.48110e+01        00000 
 9.32586e+00 -1.48361e+01        00000 
-9.43734e+00 -1.52693e+01        00000 
-9.22123e+00 -1.52446e+01        00000 
-9.00662e+00 -1.52205e+01        00000 
-8.79339e+00 -1.51969e+01        00000 
-8.58158e+00 -1.51739e+01        00000 
-8.37110e+00 -1.51513e+01        00000 
-8.16198e+00 -1.51292e+01        00000 
-7.95413e+00 -1.51076e+01        00000 
-7.74758e+00 -1.50866e+01        00000 
-7.54223e+00 -1.50660e+01        00000 
-7.33813e+00 -1.50460e+01        00000 
-7.13517e+00 -1.50264e+01        00000 
-6.93340e+00 -1.50074e+01        00000 
-6.73270e+00 -1.49889e+01        00000 
-6.53313e+00 -1.49709e+01        00000 
-6.33459e+00 -1.49534e+01        00000 
-6.13711e+00 -1.49364e+01        00000 
-5.94059e+00 -1.49199e+01        00000 
-5.74507e+00 -1.49039e+01        00000 
-5.55046e+00 -1.48885e+01        00000 
-5.35679e+00 -1.48735e+01        00000 
-5.16397e+00 -1.48591e+01        00000 
-4.97203e+00 -1.48451e+01        00000 
-4.78087e+00 -1.48317e+01        00000 
-4.59054e+00 -1.48188e+01        00000 
-4.40093e+00 -1.48063e+01        00000 
-4.21209e+00 -1.47944e+01        00000 
-4.02391e+00 -1.47830e+01        00000 
-3.83644e+00 -1.47721e+01        00000 
-3.64956e+00 -1.47618e+01        00000 
-3.46334e+00 -1.47519e+01        00000 
-3.27765e+00 -1.47425e+01        00000 
-3.09255e+00 -1.47336e+01        00000 
-2.90793e+00 -1.47253e+01        00000 
-2.72384e+00 -1.47174e+01        00000 
-2.54016e+00 -1.47101e+01        00000 
-2.35695e+00 -1.47033e+01        00000 
-2.17410e+00 -1.46969e+01        00000 
-1.99166e+00 -1.46911e+01        00000 
-1.80951e+00 -1.46858e+01        00000 
-1.62771e+00 -1.46810e+01        00000 
-1.44614e+00 -1.46767e+01        00000 
-1.26486e+00 -1.46729e+01        00000 
-1.08375e+00 -1.46696e+01        00000 
-9.02861e-01 -1.46668e+01        00000 
-7.22091e-01 -1.46645e+01        00000 
-5.41479e-01 -1.46628e+01        00000 
-3.60923e-01 -1.46615e+01        00000 
-1.80464e-01 -1.46608e+01        00000 
-6.35008e-13 -1.46605e+01        00000 
 1.80464e-01 -1.46608e+01        00000 
 3.60923e-01 -1.46615e+01        00000 
 5.41479e-01 -1.46628e+01        00000 
 7.22091e-01 -1.46645e+01        00000 
 9.02861e-01 -1.46668e+01        00000 
 1.08375e+00 -1.46696e+01        00000 
 1.26486e+00 -1.46729e+01        00000 
 1.44614e+00 -1.46767e+01        00000 
 1.62771e+00 -1.46810e+01        00000 
 1.80951e+00 -1.46858e+01        00000 
 1.99166e+00 -1.46911e+01        00000 
 2.17410e+00 -1.46969e+01        00000 
 2.35695e+00 -1.47033e+01        00000 
 2.54016e+00 -1.47101e+01        00000 
 2.72384e+00 -1.47174e+01        00000 
 2.90793e+00 -1.47253e+01        00000 
 3.09255e+00 -1.47336e+01        00000 
 3.27765e+00 -1.47425e+01        00000 
 3.46334e+00 -1.47519e+01        00000 
 3.64956e+00 -1.47618e+01        00000 
 3.83644e+00 -1.47721e+01        00000 
 4.02391e+00 -1.47830e+01        00000 
 4.21209e+00 -1.47944e+01        00000 
 4.40093e+00 -1.48063e+01        00000 
 4.59054e+00 -1.48188e+01        00000 
 4.78087e+00 -1.48317e+01        00000 
 4.97203e+00 -1.48451e+01        00000 
 5.16397e+00 -1.48591e+01        00000 
 5.35679e+00 -1.48735e+01        00000 
 5.55046e+00 -1.48885e+01        00000 
 5.74507e+00 -1.49039e+01        00000 
 5.94059e+00 -1.49199e+01        00000 
 6.13711e+00 -1.49364e+01        00000 
 6.33459e+00 -1.49534e+01        00000 
 6.53313e+00 -1.49709e+01        00000 
 6.73270e+00 -1.49889e+01        00000 
 6.93340e+00 -1.50074e+01        00000 
 7.13517e+00 -1.50264e+01        00000 
 7.33813e+00 -1.50460e+01        00000 
 7.54223e+00 -1.50660e+01        00000 
 7.74758e+00 -1.50866e+01        00000 
 7.95413e+00 -1.51076e+01        00000 
 8.16198e+00 -1.51292e+01        00000 
 8.37110e+00 -1.51513e+01        00000 
 8.58158e+00 -1.51739e+01        00000 
 8.79339e+00 -1.51969e+01        00000 
 9.00662e+00 -1.52205e+01        00000 
 9.22123e+00 -1.52446e+01        00000 
 9.43734e+00 -1.52693e+01        00000 
-9.54640e+00 -1.57069e+01        00000 
-9.32807e+00 -1.56828e+01        00000 
-9.11123e+00 -1.56592e+01        00000 
-8.89577e+00 -1.56362e+01        00000 
-8.68175e+00 -1.56136e+01        00000 
-8.46904e+00 -1.55915e+01        00000 
-8.25770e+00 -1.55699e+01        00000 
-8.04761e+00 -1.55488e+01        00000 
-7.83884e+00 -1.55282e+01        00000 
-7.63127e+00 -1.55081e+01        00000 
-7.42494e+00 -1.54885e+01        00000 
-7.21975e+00 -1.54694e+01        00000 
-7.01575e+00 -1.54508e+01        00000 
-6.81283e+00 -1.54327e+01        00000 
-6.61103e+00 -1.54151e+01        00000 
-6.41025e+00 -1.53980e+01        00000 
-6.21055e+00 -1.53814e+01        00000 
-6.01180e+00 -1.53652e+01        00000 
-5.81406e+00 -1.53496e+01        00000 
-5.61721e+00 -1.53345e+01        00000 
-5.42132e+00 -1.53199e+01        00000 
-5.22627e+00 -1.53057e+01        00000 
-5.03210e+00 -1.52921e+01        00000 
-4.83872e+00 -1.52790e+01        00000 
-4.64616e+00 -1.52663e+01        00000 
-4.45432e+00 -1.52542e+01        00000 
-4.26325e+00 -1.52426e+01        00000 
-4.07284e+00 -1.52314e+01        00000 
-3.88314e+00 -1.52208e+01        00000 
-3.69404e+00 -1.52106e+01        00000 
-3.50559e+00 -1.52010e+01        00000 
-3.31768e+00 -1.51918e+01        00000 
-3.13035e+00 -1.51832e+01        00000 
-2.94351e+00 -1.51750e+01        00000 
-2.75719e+00 -1.51673e+01        00000 
-2.57129e+00 -1.51602e+01        00000 
-2.38585e+00 -1.51535e+01        00000 
-2.20078e+00 -1.51473e+01        00000 
-2.01611e+00 -1.51416e+01        00000 
-1.83174e+00 -1.51364e+01        00000 
-1.64771e+00 -1.51317e+01        00000 
-1.46392e+00 -1.51275e+01        00000 
-1.28041e+00 -1.51238e+01        00000 
-1.09708e+00 -1.51206e+01        00000 
-9.13974e-01 -1.51179e+01        00000 
-7.30981e-01 -1.51157e+01        00000 
-5.48147e-01 -1.51139e+01        00000 
-3.65368e-01 -1.51127e+01        00000 
-1.82687e-01 -1.51120e+01        00000 
-6.59742e-13 -1.51117e+01        00000 
 1.82687e-01 -1.51120e+01        00000 
 3.65368e-01 -1.51127e+01        00000 
 5.48147e-01 -1.51139e+01        00000 
 7.30981e-01 -1.51157e+01        00000 
 9.13974e-01 -1.51179e+01        00000 
 1.09708e+00 -1.51206e+01        00000 
 1.28041e+00 -1.51238e+01        00000 
 1.46392e+00 -1.51275e+01        00000 
 1.64771e+00 -1.51317e+01        00000 
 1.83174e+00 -1.51364e+01        00000 
 2.01611e+00 -1.51416e+01        00000 
 2.20078e+00 -1.51473e+01        00000 
 2.38585e+00 -1.51535e+01        00000 
 2.57129e+00 -1.51602e+01        00000 
 2.75719e+00 -1.51673e+01        00000 
 2.94351e+00 -1.51750e+01        00000 
 3.13035e+00 -1.51832e+01        00000 
 3.31768e+00 -1.51918e+01        00000 
 3.50559e+00 -1.52010e+01        00000 
 3.69404e+00 -1.52106e+01        00000 
 3.88314e+00 -1.52208e+01        00000 
 4.07284e+00 -1.52314e+01        00000 
 4.26325e+00 -1.52426e+01        00000 
 4.45432e+00 -1.52542e+01        00000 
 4.64616e+00 -1.52663e+01        00000 
 4.83872e+00 -1.52790e+01        00000 
 5.03210e+00 -1.52921e+01        00000 
 5.22627e+00 -1.53057e+01        00000 
 5.42132e+00 -1.53199e+01        00000 
 5.61721e+00 -1.53345e+01        00000 
 5.81406e+00 -1.53496e+01        00000 
 6.01180e+00 -1.53652e+01        00000 
 6.21055e+00 -1.53814e+01        00000 
 6.41025e+00 -1.53980e+01        00000 
 6.61103e+00 -1.54151e+01        00000 
 6.81283e+00 -1.54327e+01        00000 
 7.01575e+00 -1.54508e+01        00000 
 7.21975e+00 -1.54694e+01        00000 
 7.42494e+00 -1.54885e+01        00000 
 7.63127e+00 -1.55081e+01        00000 
 7.83884e+00 -1.55282e+01        00000 
 8.04761e+00 -1.55488e+01        00000 
 8.25770e+00 -1.55699e+01        00000 
 8.46904e+00 -1.55915e+01        00000 
 8.68175e+00 -1.56136e+01        00000 
 8.89577e+00 -1.56362e+01        00000 
 9.11123e+00 -1.56592e+01        00000 
 9.32807e+00 -1.56828e+01        00000 
 9.54640e+00 -1.57069e+01        00000 
-9.65305e+00 -1.61489e+01        00000 
-9.43254e+00 -1.61254e+01        00000 
-9.21353e+00 -1.61023e+01        00000 
-8.99590e+00 -1.60798e+01        00000 
-8.77969e+00 -1.60577e+01        00000 
-8.56481e+00 -1.60361e+01        00000 
-8.35129e+00 -1.60150e+01        00000 
-8.13903e+00 -1.59944e+01        00000 
-7.92808e+00 -1.59742e+01        00000 
-7.71833e+00 -1.59546e+01        00000 
-7.50982e+00 -1.59354e+01        00000 
-7.30245e+00 -1.59168e+01        00000 
-7.09627e+00 -1.58986e+01        00000 
-6.89117e+00 -1.58809e+01        00000 
-6.68719e+00 -1.58637e+01        00000 
-6.48424e+00 -1.58469e+01        00000 
-6.28235e+00 -1.58307e+01        00000 
-6.08142e+00 -1.58149e+01        00000 
-5.88150e+00 -1.57997e+01        00000 
-5.68248e+00 -1.57849e+01        00000 
-5.48440e+00 -1.57706e+01        00000 
-5.28717e+00 -1.57568e+01        00000 
-5.09083e+00 -1.57435e+01        00000 
-4.89526e+00 -1.57307e+01        00000 
-4.70052e+00 -1.57183e+01        00000 
-4.50651e+00 -1.57065e+01        00000 
-4.31326e+00 -1.56951e+01        00000 
-4.12067e+00 -1.56842e+01        00000 
-3.92879e+00 -1.56738e+01        00000 
-3.73752e+00 -1.56639e+01        00000 
-3.54689e+00 -1.56545e+01        00000 
-3.35680e+00 -1.56455e+01        00000 
-3.16730e+00 -1.56371e+01        00000 
-2.97828e+00 -1.56291e+01        00000 
-2.78978e+00 -1.56216e+01        00000 
-2.60171e+00 -1.56146e+01        00000 
-2.41410e+00 -1.56081e+01        00000 
-2.22685e+00 -1.56021e+01        00000 
-2.04001e+00 -1.55965e+01        00000 
-1.85346e+00 -1.55915e+01        00000 
-1.66726e+00 -1.55869e+01        00000 
-1.48130e+00 -1.55828e+01        00000 
-1.29562e+00 -1.55791e+01        00000 
-1.11012e+00 -1.55760e+01        00000 
-9.24833e-01 -1.55734e+01        00000 
-7.39668e-01 -1.55712e+01        00000 
-5.54662e-01 -1.55695e+01        00000 
-3.69711e-01 -1.55683e+01        00000 
-1.84859e-01 -1.55676e+01        00000 
-6.83522e-13 -1.55673e+01        00000 
 1.84859e-01 -1.55676e+01        00000 
 3.69711e-01 -1.55683e+01        00000 
 5.54662e-01 -1.55695e+01        00000 
 7.39668e-01 -1.55712e+01        00000 
 9.24833e-01 -1.55734e+01        00000 
 1.11012e+00 -1.55760e+01        00000 
 1.29562e+00 -1.55791e+01        00000 
 1.48130e+00 -1.55828e+01        00000 
 1.66726e+00 -1.55869e+01        00000 
 1.85346e+00 -1.55915e+01        00000 
 2.04001e+00 -1.55965e+01        00000 
 2.22685e+00 -1.56021e+01        00000 
 2.41410e+00 -1.56081e+01        00000 
 2.60171e+00 -1.56146e+01        00000 
 2.78978e+00 -1.56216e+01        00000 
 2.97828e+00 -1.56291e+01        00000 
 3.16730e+00 -1.56371e+01        00000 
 3.35680e+00 -1.56455e+01        00000 
 3.54689e+00 -1.56545e+01        00000 
 3.73752e+00 -1.56639e+01        00000 
 3.92879e+00 -1.56738e+01        00000 
 4.12067e+00 -1.56842e+01        00000 
 4.31326e+00 -1.56951e+01        00000 
 4.50651e+00 -1.57065e+01        00000 
 4.70052e+00 -1.57183e+01        00000 
 4.89526e+00 -1.57307e+01        00000 
 5.09083e+00 -1.57435e+01        00000 
 5.28717e+00 -1.57568e+01        00000 
 5.48440e+00 -1.57706e+01        00000 
 5.68248e+00 -1.57849e+01        00000 
 5.88150e+00 -1.57997e+01        00000 
 6.08142e+00 -1.58149e+01        00000 
 6.28235e+00 -1.58307e+01        00000 
 6.48424e+00 -1.58469e+01        00000 
 6.68719e+00 -1.58637e+01        00000 
 6.89117e+00 -1.58809e+01        00000 
 7.09627e+00 -1.58986e+01        00000 
 7.30245e+00 -1.59168e+01        00000 
 7.50982e+00 -1.59354e+01        00000 
 7.71833e+00 -1.59546e+01        00000 
 7.92808e+00 -1.59742e+01        00000 
 8.13903e+00 -1.59944e+01        00000 
 8.35129e+00 -1.60150e+01        00000 
 8.56481e+00 -1.60361e+01        00000 
 8.77969e+00 -1.60577e+01        00000 
 8.99590e+00 -1.60798e+01        00000 
 9.21353e+00 -1.61023e+01        00000 
 9.43254e+00 -1.61254e+01        00000 
 9.65305e+00 -1.61489e+01        00000 
-9.75728e+00 -1.65952e+01        00000 
-9.53465e+00 -1.65722e+01        00000 
-9.31351e+00 -1.65497e+01        00000 
-9.09375e+00 -1.65277e+01        00000 
-8.87542e+00 -1.65061e+01        00000 
-8.65841e+00 -1.64850e+01        00000 
-8.44276e+00 -1.64644e+01        00000 
-8.22837e+00 -1.64442e+01        00000 
-8.01530e+00 -1.64246e+01        00000 
-7.80341e+00 -1.64054e+01        00000 
-7.59278e+00 -1.63867e+01        00000 
-7.38328e+00 -1.63684e+01        00000 
-7.17497e+00 -1.63506e+01        00000 
-6.96773e+00 -1.63334e+01        00000 
-6.76163e+00 -1.63165e+01        00000 
-6.55654e+00 -1.63002e+01        00000 
-6.35252e+00 -1.62843e+01        00000 
-6.14946e+00 -1.62690e+01        00000 
-5.94740e+00 -1.62541e+01        00000 
-5.74625e+00 -1.62396e+01        00000 
-5.54605e+00 -1.62257e+01        00000 
-5.34668e+00 -1.62122e+01        00000 
-5.14820e+00 -1.61992e+01        00000 
-4.95051e+00 -1.61867e+01        00000 
-4.75364e+00 -1.61746e+01        00000 
-4.55749e+00 -1.61630e+01        00000 
-4.36212e+00 -1.61519e+01        00000 
-4.16740e+00 -1.61413e+01        00000 
-3.97339e+00 -1.61312e+01        00000 
-3.77999e+00 -1.61215e+01        00000 
-3.58723e+00 -1.61123e+01        00000 
-3.39501e+00 -1.61036e+01        00000 
-3.20338e+00 -1.60953e+01        00000 
-3.01224e+00 -1.60875e+01        00000 
-2.82162e+00 -1.60802e+01        00000 
-2.63142e+00 -1.60734e+01        00000 
-2.44168e+00 -1.60670e+01        00000 
-2.25231e+00 -1.60612e+01        00000 
-2.06334e+00 -1.60557e+01        00000 
-1.87468e+00 -1.60508e+01        00000 
-1.68635e+00 -1.60463e+01        00000 
-1.49827e+00 -1.60423e+01        00000 
-1.31047e+00 -1.60388e+01        00000 
-1.12284e+00 -1.60357e+01        00000 
-9.35438e-01 -1.60331e+01        00000 
-7.48151e-01 -1.60310e+01        00000 
-5.61024e-01 -1.60294e+01        00000 
-3.73953e-01 -1.60282e+01        00000 
-1.86979e-01 -1.60275e+01        00000 
-7.02734e-13 -1.60273e+01        00000 
 1.86979e-01 -1.60275e+01        00000 
 3.73953e-01 -1.60282e+01        00000 
 5.61024e-01 -1.60294e+01        00000 
 7.48151e-01 -1.60310e+01        00000 
 9.35438e-01 -1.60331e+01        00000 
 1.12284e+00 -1.60357e+01        00000 
 1.31047e+00 -1.60388e+01        00000 
 1.49827e+00 -1.60423e+01        00000 
 1.68635e+00 -1.60463e+01        00000 
 1.87468e+00 -1.60508e+01        00000 
 2.06334e+00 -1.60557e+01        00000 
 2.25231e+00 -1.60612e+01        00000 
 2.44168e+00 -1.60670e+01        00000 
 2.63142e+00 -1.60734e+01        00000 
 2.82162e+00 -1.60802e+01        00000 
 3.01224e+00 -1.60875e+01        00000 
 3.20338e+00 -1.60953e+01        00000 
 3.39501e+00 -1.61036e+01        00000 
 3.58723e+00 -1.61123e+01        00000 
 3.77999e+00 -1.61215e+01        00000 
 3.97339e+00 -1.61312e+01        00000 
 4.16740e+00 -1.61413e+01        00000 
 4.36212e+00 -1.61519e+01        00000 
 4.55749e+00 -1.61630e+01        00000 
 4.75364e+00 -1.61746e+01        00000 
 4.95051e+00 -1.61867e+01        00000 
 5.14820e+00 -1.61992e+01        00000 
 5.34668e+00 -1.62122e+01        00000 
 5.54605e+00 -1.62257e+01        00000 
 5.74625e+00 -1.62396e+01        00000 
 5.94740e+00 -1.62541e+01        00000 
 6.14946e+00 -1.62690e+01        00000 
 6.35252e+00 -1.62843e+01        00000 
 6.55654e+00 -1.63002e+01        00000 
 6.76163e+00 -1.63165e+01        00000 
 6.96773e+00 -1.63334e+01        00000 
 7.17497e+00 -1.63506e+01        00000 
 7.38328e+00 -1.63684e+01        00000 
 7.59278e+00 -1.63867e+01        00000 
 7.80341e+00 -1.64054e+01        00000 
 8.01530e+00 -1.64246e+01        00000 
 8.22837e+00 -1.64442e+01        00000 
 8.44276e+00 -1.64644e+01        00000 
 8.65841e+00 -1.64850e+01        00000 
 8.87542e+00 -1.65061e+01        00000 
 9.09375e+00 -1.65277e+01        00000 
 9.31351e+00 -1.65497e+01        00000 
 9.53465e+00 -1.65722e+01        00000 
 9.75728e+00 -1.65952e+01        00000 
-9.85909e+00 -1.70458e+01        00000 
-9.63439e+00 -1.70233e+01        00000 
-9.41118e+00 -1.70013e+01        00000 
-9.18934e+00 -1.69798e+01        00000 
-8.96893e+00 -1.69587e+01        00000 
-8.74984e+00 -1.69381e+01        00000 
-8.53212e+00 -1.69180e+01        00000 
-8.31565e+00 -1.68983e+01        00000 
-8.10049e+00 -1.68791e+01        00000 
-7.88652e+00 -1.68603e+01        00000 
-7.67381e+00 -1.68421e+01        00000 
-7.46222e+00 -1.68243e+01        00000 
-7.25183e+00 -1.68069e+01        00000 
-7.04251e+00 -1.67900e+01        00000 
-6.83433e+00 -1.67736e+01        00000 
-6.62715e+00 -1.67577e+01        00000 
-6.42105e+00 -1.67422e+01        00000 
-6.21590e+00 -1.67272e+01        00000 
-6.01177e+00 -1.67126e+01        00000 
-5.80853e+00 -1.66985e+01        00000 
-5.60624e+00 -1.66849e+01        00000 
-5.40479e+00 -1.66718e+01        00000 
-5.20423e+00 -1.66591e+01        00000 
-5.00445e+00 -1.66469e+01        00000 
-4.80550e+00 -1.66351e+01        00000 
-4.60728e+00 -1.66238e+01        00000 
-4.40982e+00 -1.66130e+01        00000 
-4.21302e+00 -1.66026e+01        00000 
-4.01693e+00 -1.65927e+01        00000 
-3.82145e+00 -1.65833e+01        00000 
-3.62661e+00 -1.65743e+01        00000 
-3.43232e+00 -1.65658e+01        00000 
-3.23861e+00 -1.65578e+01        00000 
-3.04539e+00 -1.65502e+01        00000 
-2.85269e+00 -1.65431e+01        00000 
-2.66042e+00 -1.65364e+01        00000 
-2.46861e+00 -1.65302e+01        00000 
-2.27716e+00 -1.65245e+01        00000 
-2.08612e+00 -1.65192e+01        00000 
-1.89538e+00 -1.65144e+01        00000 
-1.70499e+00 -1.65100e+01        00000 
-1.51483e+00 -1.65061e+01        00000 
-1.32496e+00 -1.65027e+01        00000 
-1.13526e+00 -1.64997e+01        00000 
-9.45787e-01 -1.64972e+01        00000 
-7.56430e-01 -1.64951e+01        00000 
-5.67233e-01 -1.64935e+01        00000 
-3.78092e-01 -1.64923e+01        00000 
-1.89049e-01 -1.64917e+01        00000 
-7.26778e-13 -1.64914e+01        00000 
 1.89049e-01 -1.64917e+01        00000 
 3.78092e-01 -1.64923e+01        00000 
 5.67233e-01 -1.64935e+01        00000 
 7.56430e-01 -1.64951e+01        00000 
 9.45787e-01 -1.64972e+01        00000 
 1.13526e+00 -1.64997e+01        00000 
 1.32496e+00 -1.65027e+01        00000 
 1.51483e+00 -1.65061e+01        00000 
 1.70499e+00 -1.65100e+01        00000 
 1.89538e+00 -1.65144e+01        00000 
 2.08612e+00 -1.65192e+01        00000 
 2.27716e+00 -1.65245e+01        00000 
 2.46861e+00 -1.65302e+01        00000 
 2.66042e+00 -1.65364e+01        00000 
 2.85269e+00 -1.65431e+01        00000 
 3.04539e+00 -1.65502e+01        00000 
 3.23861e+00 -1.65578e+01        00000 
 3.43232e+00 -1.65658e+01        00000 
 3.62661e+00 -1.65743e+01        00000 
 3.82145e+00 -1.65833e+01        00000 
 4.01693e+00 -1.65927e+01        00000 
 4.21302e+00 -1.66026e+01        00000 
 4.40982e+00 -1.66130e+01        00000 
 4.60728e+00 -1.66238e+01        00000 
 4.80550e+00 -1.66351e+01        00000 
 5.00445e+00 -1.66469e+01        00000 
 5.20423e+00 -1.66591e+01        00000 
 5.40479e+00 -1.66718e+01        00000 
 5.60624e+00 -1.66849e+01        00000 
 5.80853e+00 -1.66985e+01        00000 
 6.01177e+00 -1.67126e+01        00000 
 6.21590e+00 -1.67272e+01        00000 
 6.42105e+00 -1.67422e+01        00000 
 6.62715e+00 -1.67577e+01        00000 
 6.83433e+00 -1.67736e+01        00000 
 7.04251e+00 -1.67900e+01        00000 
 7.25183e+00 -1.68069e+01        00000 
 7.46222e+00 -1.68243e+01        00000 
 7.67381e+00 -1.68421e+01        00000 
 7.88652e+00 -1.68603e+01        00000 
 8.10049e+00 -1.68791e+01        00000 
 8.31565e+00 -1.68983e+01        00000 
 8.53212e+00 -1.69180e+01        00000 
 8.74984e+00 -1.69381e+01        00000 
 8.96893e+00 -1.69587e+01        00000 
 9.18934e+00 -1.69798e+01        00000 
 9.41118e+00 -1.70013e+01        00000 
 9.63439e+00 -1.70233e+01        00000 
 9.85909e+00 -1.70458e+01        00000 
-9.95849e+00 -1.75004e+01        00000 
-9.73176e+00 -1.74785e+01        00000 
-9.50653e+00 -1.74570e+01        00000 
-9.28266e+00 -1.74360e+01        00000 
-9.06023e+00 -1.74154e+01        00000 
-8.83911e+00 -1.73953e+01        00000 
-8.61936e+00 -1.73757e+01        00000 
-8.40085e+00 -1.73565e+01        00000 
-8.18366e+00 -1.73377e+01        00000 
-7.96766e+00 -1.73194e+01        00000 
-7.75291e+00 -1.73016e+01        00000 
-7.53930e+00 -1.72842e+01        00000 
-7.32687e+00 -1.72673e+01        00000 
-7.11551e+00 -1.72508e+01        00000 
-6.90529e+00 -1.72348e+01        00000 
-6.69608e+00 -1.72192e+01        00000 
-6.48794e+00 -1.72041e+01        00000 
-6.28076e+00 -1.71895e+01        00000 
-6.07459e+00 -1.71753e+01        00000 
-5.86931e+00 -1.71615e+01        00000 
-5.66499e+00 -1.71483e+01        00000 
-5.46151e+00 -1.71354e+01        00000 
-5.25891e+00 -1.71231e+01        00000 
-5.05710e+00 -1.71112e+01        00000 
-4.85612e+00 -1.70997e+01        00000 
-4.65585e+00 -1.70887e+01        00000 
-4.45636e+00 -1.70781e+01        00000 
-4.25753e+00 -1.70680e+01        00000 
-4.05942e+00 -1.70584e+01        00000 
-3.86190e+00 -1.70492e+01        00000 
-3.66503e+00 -1.70404e+01        00000 
-3.46871e+00 -1.70322e+01        00000 
-3.27298e+00 -1.70243e+01        00000 
-3.07773e+00 -1.70169e+01        00000 
-2.88300e+00 -1.70100e+01        00000 
-2.68870e+00 -1.70035e+01        00000 
-2.49487e+00 -1.69975e+01        00000 
-2.30140e+00 -1.69919e+01        00000 
-2.10834e+00 -1.69867e+01        00000 
-1.91558e+00 -1.69820e+01        00000 
-1.72316e+00 -1.69778e+01        00000 
-1.53098e+00 -1.69740e+01        00000 
-1.33909e+00 -1.69706e+01        00000 
-1.14737e+00 -1.69677e+01        00000 
-9.55880e-01 -1.69653e+01        00000 
-7.64504e-01 -1.69633e+01        00000 
-5.73289e-01 -1.69617e+01        00000 
-3.82128e-01 -1.69606e+01        00000 
-1.91068e-01 -1.69599e+01        00000 
-7.52779e-13 -1.69597e+01        00000 
 1.91068e-01 -1.69599e+01        00000 
 3.82128e-01 -1.69606e+01        00000 
 5.73289e-01 -1.69617e+01        00000 
 7.64504e-01 -1.69633e+01        00000 
 9.55880e-01 -1.69653e+01        00000 
 1.14737e+00 -1.69677e+01        00000 
 1.33909e+00 -1.69706e+01        00000 
 1.53098e+00 -1.69740e+01        00000 
 1.72316e+00 -1.69778e+01        00000 
 1.91558e+00 -1.69820e+01        00000 
 2.10834e+00 -1.69867e+01        00000 
 2.30140e+00 -1.69919e+01        00000 
 2.49487e+00 -1.69975e+01        00000 
 2.68870e+00 -1.70035e+01        00000 
 2.88300e+00 -1.70100e+01        00000 
 3.07773e+00 -1.70169e+01        00000 
 3.27298e+00 -1.70243e+01        00000 
 3.46871e+00 -1.70322e+01        00000 
 3.66503e+00 -1.70404e+01        00000 
 3.86190e+00 -1.70492e+01        00000 
 4.05942e+00 -1.70584e+01        00000 
 4.25753e+00 -1.70680e+01        00000 
 4.45636e+00 -1.70781e+01        00000 
 4.65585e+00 -1.70887e+01        00000 
 4.85612e+00 -1.70997e+01        00000 
 5.05710e+00 -1.71112e+01        00000 
 5.25891e+00 -1.71231e+01        00000 
 5.46151e+00 -1.71354e+01        00000 
 5.66499e+00 -1.71483e+01        00000 
 5.86931e+00 -1.71615e+01        00000 
 6.07459e+00 -1.71753e+01        00000 
 6.28076e+00 -1.71895e+01        00000 
 6.48794e+00 -1.72041e+01        00000 
 6.69608e+00 -1.72192e+01        00000 
 6.90529e+00 -1.72348e+01        00000 
 7.11551e+00 -1.72508e+01        00000 
 7.32687e+00 -1.72673e+01        00000 
 7.53930e+00 -1.72842e+01        00000 
 7.75291e+00 -1.73016e+01        00000 
 7.96766e+00 -1.73194e+01        00000 
 8.18366e+00 -1.73377e+01        00000 
 8.40085e+00 -1.73565e+01        00000 
 8.61936e+00 -1.73757e+01        00000 
 8.83911e+00 -1.73953e+01        00000 
 9.06023e+00 -1.74154e+01        00000 
 9.28266e+00 -1.74360e+01        00000 
 9.50653e+00 -1.74570e+01        00000 
 9.73176e+00 -1.74785e+01        00000 
 9.95849e+00 -1.75004e+01        00000 
-1.00555e+01 -1.79590e+01        00000 
-9.82678e+00 -1.79376e+01        00000 
-9.59957e+00 -1.79167e+01        00000 
-9.37373e+00 -1.78962e+01        00000 
-9.14931e+00 -1.78761e+01        00000 
-8.92621e+00 -1.78565e+01        00000 
-8.70448e+00 -1.78373e+01        00000 
-8.48399e+00 -1.78186e+01        00000 
-8.26482e+00 -1.78003e+01        00000 
-8.04683e+00 -1.77825e+01        00000 
-7.83010e+00 -1.77651e+01        00000 
-7.61449e+00 -1.77481e+01        00000 
-7.40008e+00 -1.77316e+01        00000 
-7.18673e+00 -1.77156e+01        00000 
-6.97452e+00 -1.77000e+01        00000 
-6.76333e+00 -1.76848e+01        00000 
-6.55320e+00 -1.76701e+01        00000 
-6.34403e+00 -1.76558e+01        00000 
-6.13587e+00 -1.76419e+01        00000 
-5.92860e+00 -1.76286e+01        00000 
-5.72229e+00 -1.76156e+01        00000 
-5.51682e+00 -1.76031e+01        00000 
-5.31224e+00 -1.75911e+01        00000 
-5.10844e+00 -1.75795e+01        00000 
-4.90547e+00 -1.75683e+01        00000 
-4.70322e+00 -1.75576e+01        00000 
-4.50175e+00 -1.75473e+01        00000 
-4.30094e+00 -1.75375e+01        00000 
-4.10084e+00 -1.75281e+01        00000 
-3.90134e+00 -1.75191e+01        00000 
-3.70249e+00 -1.75106e+01        00000 
-3.50419e+00 -1.75025e+01        00000 
-3.30648e+00 -1.74949e+01        00000 
-3.10925e+00 -1.74877e+01        00000 
-2.91255e+00 -1.74809e+01        00000 
-2.71628e+00 -1.74746e+01        00000 
-2.52047e+00 -1.74687e+01        00000 
-2.32503e+00 -1.74633e+01        00000 
-2.12999e+00 -1.74583e+01        00000 
-1.93526e+00 -1.74537e+01        00000 
-1.74087e+00 -1.74496e+01        00000 
-1.54672e+00 -1.74459e+01        00000 
-1.35286e+00 -1.74427e+01        00000 
-1.15918e+00 -1.74398e+01        00000 
-9.65716e-01 -1.74374e+01        00000 
-7.72371e-01 -1.74355e+01        00000 
-5.79189e-01 -1.74340e+01        00000 
-3.86062e-01 -1.74329e+01        00000 
-1.93035e-01 -1.74322e+01        00000 
-7.76424e-13 -1.74320e+01        00000 
 1.93035e-01 -1.74322e+01        00000 
 3.86062e-01 -1.74329e+01        00000 
 5.79189e-01 -1.74340e+01        00000 
 7.72371e-01 -1.74355e+01        00000 
 9.65716e-01 -1.74374e+01        00000 
 1.15918e+00 -1.74398e+01        00000 
 1.35286e+00 -1.74427e+01        00000 
 1.54672e+00 -1.74459e+01        00000 
 1.74087e+00 -1.74496e+01        00000 
 1.93526e+00 -1.74537e+01        00000 
 2.12999e+00 -1.74583e+01        00000 
 2.32503e+00 -1.74633e+01        00000 
 2.52047e+00 -1.74687e+01        00000 
 2.71628e+00 -1.74746e+01        00000 
 2.91255e+00 -1.74809e+01        00000 
 3.10925e+00 -1.74877e+01        00000 
 3.30648e+00 -1.74949e+01        00000 
 3.50419e+00 -1.75025e+01        00000 
 3.70249e+00 -1.75106e+01        00000 
 3.90134e+00 -1.75191e+01        00000 
 4.10084e+00 -1.75281e+01        00000 
 4.30094e+00 -1.75375e+01        00000 
 4.50175e+00 -1.75473e+01        00000 
 4.70322e+00 -1.75576e+01        00000 
 4.90547e+00 -1.75683e+01        00000 
 5.10844e+00 -1.75795e+01        00000 
 5.31224e+00 -1.75911e+01        00000 
 5.51682e+00 -1.76031e+01        00000 
 5.72229e+00 -1.76156e+01        00000 
 5.92860e+00 -1.76286e+01        00000 
 6.13587e+00 -1.76419e+01        00000 
 6.34403e+00 -1.76558e+01        00000 
 6.55320e+00 -1.76701e+01        00000 
 6.76333e+00 -1.76848e+01        00000 
 6.97452e+00 -1.77000e+01        00000 
 7.18673e+00 -1.77156e+01        00000 
 7.40008e+00 -1.77316e+01        00000 
 7.61449e+00 -1.77481e+01        00000 
 7.83010e+00 -1.77651e+01        00000 
 8.04683e+00 -1.77825e+01        00000 
 8.26482e+00 -1.78003e+01        00000 
 8.48399e+00 -1.78186e+01        00000 
 8.70448e+00 -1.78373e+01        00000 
 8.92621e+00 -1.78565e+01        00000 
 9.14931e+00 -1.78761e+01        00000 
 9.37373e+00 -1.78962e+01        00000 
 9.59957e+00 -1.79167e+01        00000 
 9.82678e+00 -1.79376e+01        00000 
 1.00555e+01 -1.79590e+01        00000 
-1.01501e+01 -1.84215e+01        00000 
-9.91944e+00 -1.84007e+01        00000 
-9.69030e+00 -1.83802e+01        00000 
-9.46253e+00 -1.83603e+01        00000 
-9.23618e+00 -1.83407e+01        00000 
-9.01115e+00 -1.83216e+01        00000 
-8.78748e+00 -1.83029e+01        00000 
-8.56506e+00 -1.82846e+01        00000 
-8.34395e+00 -1.82668e+01        00000 
-8.12403e+00 -1.82494e+01        00000 
-7.90535e+00 -1.82325e+01        00000 
-7.68781e+00 -1.82160e+01        00000 
-7.47146e+00 -1.81999e+01        00000 
-7.25617e+00 -1.81842e+01        00000 
-7.04202e+00 -1.81690e+01        00000 
-6.82888e+00 -1.81542e+01        00000 
-6.61681e+00 -1.81399e+01        00000 
-6.40570e+00 -1.81260e+01        00000 
-6.19560e+00 -1.81125e+01        00000 
-5.98639e+00 -1.80995e+01        00000 
-5.77814e+00 -1.80869e+01        00000 
-5.57073e+00 -1.80747e+01        00000 
-5.36421e+00 -1.80630e+01        00000 
-5.15847e+00 -1.80517e+01        00000 
-4.95357e+00 -1.80408e+01        00000 
-4.74938e+00 -1.80304e+01        00000 
-4.54597e+00 -1.80204e+01        00000 
-4.34322e+00 -1.80108e+01        00000 
-4.14119e+00 -1.80016e+01        00000 
-3.93976e+00 -1.79929e+01        00000 
-3.73898e+00 -1.79846e+01        00000 
-3.53875e+00 -1.79768e+01        00000 
-3.33911e+00 -1.79694e+01        00000 
-3.13996e+00 -1.79624e+01        00000 
-2.94133e+00 -1.79558e+01        00000 
-2.74313e+00 -1.79497e+01        00000 
-2.54540e+00 -1.79440e+01        00000 
-2.34804e+00 -1.79387e+01        00000 
-2.15108e+00 -1.79338e+01        00000 
-1.95442e+00 -1.79294e+01        00000 
-1.75812e+00 -1.79254e+01        00000 
-1.56205e+00 -1.79218e+01        00000 
-1.36627e+00 -1.79186e+01        00000 
-1.17067e+00 -1.79159e+01        00000 
-9.75293e-01 -1.79135e+01        00000 
-7.80032e-01 -1.79116e+01        00000 
-5.84935e-01 -1.79102e+01        00000 
-3.89892e-01 -1.79091e+01        00000 
-1.94950e-01 -1.79085e+01        00000 
-8.10122e-13 -1.79083e+01        00000 
 1.94950e-01 -1.79085e+01        00000 
 3.89892e-01 -1.79091e+01        00000 
 5.84935e-01 -1.79102e+01        00000 
 7.80032e-01 -1.79116e+01        00000 
 9.75293e-01 -1.79135e+01        00000 
 1.17067e+00 -1.79159e+01        00000 
 1.36627e+00 -1.79186e+01        00000 
 1.56205e+00 -1.79218e+01        00000 
 1.75812e+00 -1.79254e+01        00000 
 1.95442e+00 -1.79294e+01        00000 
 2.15108e+00 -1.79338e+01        00000 
 2.34804e+00 -1.79387e+01        00000 
 2.54540e+00 -1.79440e+01        00000 
 2.74313e+00 -1.79497e+01        00000 
 2.94133e+00 -1.79558e+01        00000 
 3.13996e+00 -1.79624e+01        00000 
 3.33911e+00 -1.79694e+01        00000 
 3.53875e+00 -1.79768e+01        00000 
 3.73898e+00 -1.79846e+01        00000 
 3.93976e+00 -1.79929e+01        00000 
 4.14119e+00 -1.80016e+01        00000 
 4.34322e+00 -1.80108e+01        00000 
 4.54597e+00 -1.80204e+01        00000 
 4.74938e+00 -1.80304e+01        00000 
 4.95357e+00 -1.80408e+01        00000 
 5.15847e+00 -1.80517e+01        00000 
 5.36421e+00 -1.80630e+01        00000 
 5.57073e+00 -1.80747e+01        00000 
 5.77814e+00 -1.80869e+01        00000 
 5.98639e+00 -1.80995e+01        00000 
 6.19560e+00 -1.81125e+01        00000 
 6.40570e+00 -1.81260e+01        00000 
 6.61681e+00 -1.81399e+01        00000 
 6.82888e+00 -1.81542e+01        00000 
 7.04202e+00 -1.81690e+01        00000 
 7.25617e+00 -1.81842e+01        00000 
 7.47146e+00 -1.81999e+01        00000 
 7.68781e+00 -1.82160e+01        00000 
 7.90535e+00 -1.82325e+01        00000 
 8.12403e+00 -1.82494e+01        00000 
 8.34395e+00 -1.82668e+01        00000 
 8.56506e+00 -1.82846e+01        00000 
 8.78748e+00 -1.83029e+01        00000 
 9.01115e+00 -1.83216e+01        00000 
 9.23618e+00 -1.83407e+01        00000 
 9.46253e+00 -1.83603e+01        00000 
 9.69030e+00 -1.83802e+01        00000 
 9.91944e+00 -1.84007e+01        00000 
 1.01501e+01 -1.84215e+01        00000 
-1.02422e+01 -1.88878e+01        00000 
-1.00097e+01 -1.88675e+01        00000 
-9.77872e+00 -1.88476e+01        00000 
-9.54907e+00 -1.88281e+01        00000 
-9.32085e+00 -1.88091e+01        00000 
-9.09393e+00 -1.87905e+01        00000 
-8.86837e+00 -1.87723e+01        00000 
-8.64407e+00 -1.87545e+01        00000 
-8.42107e+00 -1.87371e+01        00000 
-8.19926e+00 -1.87202e+01        00000 
-7.97869e+00 -1.87037e+01        00000 
-7.75925e+00 -1.86876e+01        00000 
-7.54101e+00 -1.86719e+01        00000 
-7.32383e+00 -1.86567e+01        00000 
-7.10778e+00 -1.86419e+01        00000 
-6.89275e+00 -1.86275e+01        00000 
-6.67879e+00 -1.86135e+01        00000 
-6.46578e+00 -1.86000e+01        00000 
-6.25378e+00 -1.85869e+01        00000 
-6.04268e+00 -1.85742e+01        00000 
-5.83254e+00 -1.85619e+01        00000 
-5.62323e+00 -1.85501e+01        00000 
-5.41482e+00 -1.85387e+01        00000 
-5.20719e+00 -1.85277e+01        00000 
-5.00040e+00 -1.85171e+01        00000 
-4.79433e+00 -1.85069e+01        00000 
-4.58903e+00 -1.84972e+01        00000 
-4.38440e+00 -1.84879e+01        00000 
-4.18048e+00 -1.84790e+01        00000 
-3.97716e+00 -1.84706e+01        00000 
-3.77451e+00 -1.84625e+01        00000 
-3.57239e+00 -1.84549e+01        00000 
-3.37087e+00 -1.84477e+01        00000 
-3.16984e+00 -1.84409e+01        00000 
-2.96934e+00 -1.84345e+01        00000 
-2.76927e+00 -1.84285e+01        00000 
-2.56966e+00 -1.84230e+01        00000 
-2.37043e+00 -1.84179e+01        00000 
-2.17160e+00 -1.84131e+01        00000 
-1.97307e+00 -1.84088e+01        00000 
-1.77490e+00 -1.84049e+01        00000 
-1.57696e+00 -1.84015e+01        00000 
-1.37932e+00 -1.83984e+01        00000 
-1.18185e+00 -1.83957e+01        00000 
-9.84610e-01 -1.83935e+01        00000 
-7.87485e-01 -1.83916e+01        00000 
-5.90524e-01 -1.83902e+01        00000 
-3.93618e-01 -1.83892e+01        00000 
-1.96813e-01 -1.83885e+01        00000 
-8.35310e-13 -1.83883e+01        00000 
 1.96813e-01 -1.83885e+01        00000 
 3.93618e-01 -1.83892e+01        00000 
 5.90524e-01 -1.83902e+01        00000 
 7.87485e-01 -1.83916e+01        00000 
 9.84610e-01 -1.83935e+01        00000 
 1.18185e+00 -1.83957e+01        00000 
 1.37932e+00 -1.83984e+01        00000 
 1.57696e+00 -1.84015e+01        00000 
 1.77490e+00 -1.84049e+01        00000 
 1.97307e+00 -1.84088e+01        00000 
 2.17160e+00 -1.84131e+01        00000 
 2.37043e+00 -1.84179e+01        00000 
 2.56966e+00 -1.84230e+01        00000 
 2.76927e+00 -1.84285e+01        00000 
 2.96934e+00 -1.84345e+01        00000 
 3.16984e+00 -1.84409e+01        00000 
 3.37087e+00 -1.84477e+01        00000 
 3.57239e+00 -1.84549e+01        00000 
 3.77451e+00 -1.84625e+01        00000 
 3.97716e+00 -1.84706e+01        00000 
 4.18048e+00 -1.84790e+01        00000 
 4.38440e+00 -1.84879e+01        00000 
 4.58903e+00 -1.84972e+01        00000 
 4.79433e+00 -1.85069e+01        00000 
 5.00040e+00 -1.85171e+01        00000 
 5.20719e+00 -1.85277e+01        00000 
 5.41482e+00 -1.85387e+01        00000 
 5.62323e+00 -1.85501e+01        00000 
 5.83254e+00 -1.85619e+01        00000 
 6.04268e+00 -1.85742e+01        00000 
 6.25378e+00 -1.85869e+01        00000 
 6.46578e+00 -1.86000e+01        00000 
 6.67879e+00 -1.86135e+01        00000 
 6.89275e+00 -1.86275e+01        00000 
 7.10778e+00 -1.86419e+01        00000 
 7.32383e+00 -1.86567e+01        00000 
 7.54101e+00 -1.86719e+01        00000 
 7.75925e+00 -1.86876e+01        00000 
 7.97869e+00 -1.87037e+01        00000 
 8.19926e+00 -1.87202e+01        00000 
 8.42107e+00 -1.87371e+01        00000 
 8.64407e+00 -1.87545e+01        00000 
 8.86837e+00 -1.87723e+01        00000 
 9.09393e+00 -1.87905e+01        00000 
 9.32085e+00 -1.88091e+01        00000 
 9.54907e+00 -1.88281e+01        00000 
 9.77872e+00 -1.88476e+01        00000 
 1.00097e+01 -1.88675e+01        00000 
 1.02422e+01 -1.88878e+01        00000 
-1.03320e+01 -1.93578e+01        00000 
-1.00977e+01 -1.93380e+01        00000 
-9.86484e+00 -1.93187e+01        00000 
-9.63336e+00 -1.92997e+01        00000 
-9.40330e+00 -1.92812e+01        00000 
-9.17455e+00 -1.92630e+01        00000 
-8.94716e+00 -1.92453e+01        00000 
-8.72101e+00 -1.92280e+01        00000 
-8.49617e+00 -1.92111e+01        00000 
-8.27251e+00 -1.91946e+01        00000 
-8.05010e+00 -1.91785e+01        00000 
-7.82882e+00 -1.91629e+01        00000 
-7.60873e+00 -1.91476e+01        00000 
-7.38970e+00 -1.91328e+01        00000 
-7.17181e+00 -1.91184e+01        00000 
-6.95493e+00 -1.91044e+01        00000 
-6.73912e+00 -1.90908e+01        00000 
-6.52426e+00 -1.90777e+01        00000 
-6.31042e+00 -1.90649e+01        00000 
-6.09747e+00 -1.90526e+01        00000 
-5.88548e+00 -1.90407e+01        00000 
-5.67433e+00 -1.90292e+01        00000 
-5.46408e+00 -1.90181e+01        00000 
-5.25460e+00 -1.90074e+01        00000 
-5.04596e+00 -1.89971e+01        00000 
-4.83805e+00 -1.89873e+01        00000 
-4.63092e+00 -1.89778e+01        00000 
-4.42444e+00 -1.89688e+01        00000 
-4.21869e+00 -1.89601e+01        00000 
-4.01354e+00 -1.89519e+01        00000 
-3.80905e+00 -1.89441e+01        00000 
-3.60511e+00 -1.89367e+01        00000 
-3.40176e+00 -1.89297e+01        00000 
-3.19890e+00 -1.89231e+01        00000 
-2.99657e+00 -1.89169e+01        00000 
-2.79468e+00 -1.89112e+01        00000 
-2.59325e+00 -1.89058e+01        00000 
-2.39219e+00 -1.89008e+01        00000 
-2.19154e+00 -1.88962e+01        00000 
-1.99120e+00 -1.88920e+01        00000 
-1.79121e+00 -1.88883e+01        00000 
-1.59146e+00 -1.88849e+01        00000 
-1.39200e+00 -1.88819e+01        00000 
-1.19272e+00 -1.88793e+01        00000 
-9.93665e-01 -1.88771e+01        00000 
-7.94729e-01 -1.88753e+01        00000 
-5.95956e-01 -1.88740e+01        00000 
-3.97239e-01 -1.88730e+01        00000 
-1.98623e-01 -1.88724e+01        00000 
-8.74560e-13 -1.88722e+01        00000 
 1.98623e-01 -1.88724e+01        00000 
 3.97239e-01 -1.88730e+01        00000 
 5.95956e-01 -1.88740e+01        00000 
 7.94729e-01 -1.88753e+01        00000 
 9.93665e-01 -1.88771e+01        00000 
 1.19272e+00 -1.88793e+01        00000 
 1.39200e+00 -1.88819e+01        00000 
 1.59146e+00 -1.88849e+01        00000 
 1.79121e+00 -1.88883e+01        00000 
 1.99120e+00 -1.88920e+01        00000 
 2.19154e+00 -1.88962e+01        00000 
 2.39219e+00 -1.89008e+01        00000 
 2.59325e+00 -1.89058e+01        00000 
 2.79468e+00 -1.89112e+01        00000 
 2.99657e+00 -1.89169e+01        00000 
 3.19890e+00 -1.89231e+01        00000 
 3.40176e+00 -1.89297e+01        00000 
 3.60511e+00 -1.89367e+01        00000 
 3.80905e+00 -1.89441e+01        00000 
 4.01354e+00 -1.89519e+01        00000 
 4.21869e+00 -1.89601e+01        00000 
 4.42444e+00 -1.89688e+01        00000 
 4.63092e+00 -1.89778e+01        00000 
 4.83805e+00 -1.89873e+01        00000 
 5.04596e+00 -1.89971e+01        00000 
 5.25460e+00 -1.90074e+01        00000 
 5.46408e+00 -1.90181e+01        00000 
 5.67433e+00 -1.90292e+01        00000 
 5.88548e+00 -1.90407e+01        00000 
 6.09747e+00 -1.90526e+01        00000 
 6.31042e+00 -1.90649e+01        00000 
 6.52426e+00 -1.90777e+01        00000 
 6.73912e+00 -1.90908e+01        00000 
 6.95493e+00 -1.91044e+01        00000 
 7.17181e+00 -1.91184e+01        00000 
 7.38970e+00 -1.91328e+01        00000 
 7.60873e+00 -1.91476e+01        00000 
 7.82882e+00 -1.91629e+01        00000 
 8.05010e+00 -1.91785e+01        00000 
 8.27251e+00 -1.91946e+01        00000 
 8.49617e+00 -1.92111e+01        00000 
 8.72101e+00 -1.92280e+01        00000 
 8.94716e+00 -1.92453e+01        00000 
 9.17455e+00 -1.92630e+01        00000 
 9.40330e+00 -1.92812e+01        00000 
 9.63336e+00 -1.92997e+01        00000 
 9.86484e+00 -1.93187e+01        00000 
 1.00977e+01 -1.93380e+01        00000 
 1.03320e+01 -1.93578e+01        00000 
-1.04194e+01 -1.98314e+01        00000 
-1.01833e+01 -1.98122e+01        00000 
-9.94867e+00 -1.97933e+01        00000 
-9.71540e+00 -1.97749e+01        00000 
-9.48356e+00 -1.97568e+01        00000 
-9.25301e+00 -1.97392e+01        00000 
-9.02383e+00 -1.97220e+01        00000 
-8.79589e+00 -1.97051e+01        00000 
-8.56926e+00 -1.96887e+01        00000 
-8.34380e+00 -1.96726e+01        00000 
-8.11960e+00 -1.96570e+01        00000 
-7.89651e+00 -1.96418e+01        00000 
-7.67462e+00 -1.96270e+01        00000 
-7.45379e+00 -1.96126e+01        00000 
-7.23410e+00 -1.95985e+01        00000 
-7.01541e+00 -1.95849e+01        00000 
-6.79780e+00 -1.95718e+01        00000 
-6.58114e+00 -1.95590e+01        00000 
-6.36550e+00 -1.95466e+01        00000 
-6.15075e+00 -1.95346e+01        00000 
-5.93696e+00 -1.95230e+01        00000 
-5.72401e+00 -1.95118e+01        00000 
-5.51196e+00 -1.95011e+01        00000 
-5.30069e+00 -1.94907e+01        00000 
-5.09026e+00 -1.94807e+01        00000 
-4.88055e+00 -1.94712e+01        00000 
-4.67163e+00 -1.94620e+01        00000 
-4.46337e+00 -1.94532e+01        00000 
-4.25582e+00 -1.94449e+01        00000 
-4.04889e+00 -1.94369e+01        00000 
-3.84262e+00 -1.94293e+01        00000 
-3.63689e+00 -1.94222e+01        00000 
-3.43177e+00 -1.94154e+01        00000 
-3.22713e+00 -1.94090e+01        00000 
-3.02303e+00 -1.94030e+01        00000 
-2.81935e+00 -1.93974e+01        00000 
-2.61616e+00 -1.93922e+01        00000 
-2.41333e+00 -1.93874e+01        00000 
-2.21091e+00 -1.93829e+01        00000 
-2.00881e+00 -1.93789e+01        00000 
-1.80705e+00 -1.93752e+01        00000 
-1.60554e+00 -1.93719e+01        00000 
-1.40431e+00 -1.93691e+01        00000 
-1.20327e+00 -1.93666e+01        00000 
-1.00246e+00 -1.93644e+01        00000 
-8.01761e-01 -1.93627e+01        00000 
-6.01230e-01 -1.93614e+01        00000 
-4.00754e-01 -1.93604e+01        00000 
-2.00381e-01 -1.93598e+01        00000 
-8.92707e-13 -1.93596e+01        00000 
 2.00381e-01 -1.93598e+01        00000 
 4.00754e-01 -1.93604e+01        00000 
 6.01230e-01 -1.93614e+01        00000 
 8.01761e-01 -1.93627e+01        00000 
 1.00246e+00 -1.93644e+01        00000 
 1.20327e+00 -1.93666e+01        00000 
 1.40431e+00 -1.93691e+01        00000 
 1.60554e+00 -1.93719e+01        00000 
 1.80705e+00 -1.93752e+01        00000 
 2.00881e+00 -1.93789e+01        00000 
 2.21091e+00 -1.93829e+01        00000 
 2.41333e+00 -1.93874e+01        00000 
 2.61616e+00 -1.93922e+01        00000 
 2.81935e+00 -1.93974e+01        00000 
 3.02303e+00 -1.94030e+01        00000 
 3.22713e+00 -1.94090e+01        00000 
 3.43177e+00 -1.94154e+01        00000 
 3.63689e+00 -1.94222e+01        00000 
 3.84262e+00 -1.94293e+01        00000 
 4.04889e+00 -1.94369e+01        00000 
 4.25582e+00 -1.94449e+01        00000 
 4.46337e+00 -1.94532e+01        00000 
 4.67163e+00 -1.94620e+01        00000 
 4.88055e+00 -1.94712e+01        00000 
 5.09026e+00 -1.94807e+01        00000 
 5.30069e+00 -1.94907e+01        00000 
 5.51196e+00 -1.95011e+01        00000 
 5.72401e+00 -1.95118e+01        00000 
 5.93696e+00 -1.95230e+01        00000 
 6.15075e+00 -1.95346e+01        00000 
 6.36550e+00 -1.95466e+01        00000 
 6.58114e+00 -1.95590e+01        00000 
 6.79780e+00 -1.95718e+01        00000 
 7.01541e+00 -1.95849e+01        00000 
 7.23410e+00 -1.95985e+01        00000 
 7.45379e+00 -1.96126e+01        00000 
 7.67462e+00 -1.96270e+01        00000 
 7.89651e+00 -1.96418e+01        00000 
 8.11960e+00 -1.96570e+01        00000 
 8.34380e+00 -1.96726e+01        00000 
 8.56926e+00 -1.96887e+01        00000 
 8.79589e+00 -1.97051e+01        00000 
 9.02383e+00 -1.97220e+01        00000 
 9.25301e+00 -1.97392e+01        00000 
 9.48356e+00 -1.97568e+01        00000 
 9.71540e+00 -1.97749e+01        00000 
 9.94867e+00 -1.97933e+01        00000 
 1.01833e+01 -1.98122e+01        00000 
 1.04194e+01 -1.98314e+01        00000 
-1.05044e+01 -2.03085e+01        00000 
-1.02666e+01 -2.02898e+01        00000 
-1.00302e+01 -2.02715e+01        00000 
-9.79520e+00 -2.02535e+01        00000 
-9.56161e+00 -2.02360e+01        00000 
-9.32933e+00 -2.02188e+01        00000 
-9.09840e+00 -2.02021e+01        00000 
-8.86872e+00 -2.01857e+01        00000 
-8.64033e+00 -2.01697e+01        00000 
-8.41313e+00 -2.01542e+01        00000 
-8.18717e+00 -2.01390e+01        00000 
-7.96233e+00 -2.01242e+01        00000 
-7.73868e+00 -2.01098e+01        00000 
-7.51610e+00 -2.00958e+01        00000 
-7.29465e+00 -2.00822e+01        00000 
-7.07421e+00 -2.00690e+01        00000 
-6.85484e+00 -2.00562e+01        00000 
-6.63643e+00 -2.00437e+01        00000 
-6.41903e+00 -2.00317e+01        00000 
-6.20253e+00 -2.00201e+01        00000 
-5.98698e+00 -2.00089e+01        00000 
-5.77228e+00 -1.99980e+01        00000 
-5.55848e+00 -1.99876e+01        00000 
-5.34546e+00 -1.99775e+01        00000 
-5.13328e+00 -1.99679e+01        00000 
-4.92183e+00 -1.99586e+01        00000 
-4.71116e+00 -1.99497e+01        00000 
-4.50116e+00 -1.99412e+01        00000 
-4.29188e+00 -1.99331e+01        00000 
-4.08321e+00 -1.99254e+01        00000 
-3.87520e+00 -1.99181e+01        00000 
-3.66774e+00 -1.99111e+01        00000 
-3.46088e+00 -1.99046e+01        00000 
-3.25452e+00 -1.98984e+01        00000 
-3.04869e+00 -1.98926e+01        00000 
-2.84330e+00 -1.98872e+01        00000 
-2.63838e+00 -1.98821e+01        00000 
-2.43383e+00 -1.98775e+01        00000 
-2.22970e+00 -1.98732e+01        00000 
-2.02588e+00 -1.98693e+01        00000 
-1.82241e+00 -1.98657e+01        00000 
-1.61919e+00 -1.98626e+01        00000 
-1.41625e+00 -1.98598e+01        00000 
-1.21350e+00 -1.98574e+01        00000 
-1.01098e+00 -1.98553e+01        00000 
-8.08580e-01 -1.98536e+01        00000 
-6.06344e-01 -1.98523e+01        00000 
-4.04163e-01 -1.98514e+01        00000 
-2.02086e-01 -1.98509e+01        00000 
-9.15023e-13 -1.98507e+01        00000 
 2.02086e-01 -1.98509e+01        00000 
 4.04163e-01 -1.98514e+01        00000 
 6.06344e-01 -1.98523e+01        00000 
 8.08580e-01 -1.98536e+01        00000 
 1.01098e+00 -1.98553e+01        00000 
 1.21350e+00 -1.98574e+01        00000 
 1.41625e+00 -1.98598e+01        00000 
 1.61919e+00 -1.98626e+01        00000 
 1.82241e+00 -1.98657e+01        00000 
 2.02588e+00 -1.98693e+01        00000 
 2.22970e+00 -1.98732e+01        00000 
 2.43383e+00 -1.98775e+01        00000 
 2.63838e+00 -1.98821e+01        00000 
 2.84330e+00 -1.98872e+01        00000 
 3.04869e+00 -1.98926e+01        00000 
 3.25452e+00 -1.98984e+01        00000 
 3.46088e+00 -1.99046e+01        00000 
 3.66774e+00 -1.99111e+01        00000 
 3.87520e+00 -1.99181e+01        00000 
 4.08321e+00 -1.99254e+01        00000 
 4.29188e+00 -1.99331e+01        00000 
 4.50116e+00 -1.99412e+01        00000 
 4.71116e+00 -1.99497e+01        00000 
 4.92183e+00 -1.99586e+01        00000 
 5.13328e+00 -1.99679e+01        00000 
 5.34546e+00 -1.99775e+01        00000 
 5.55848e+00 -1.99876e+01        00000 
 5.77228e+00 -1.99980e+01        00000 
 5.98698e+00 -2.00089e+01        00000 
 6.20253e+00 -2.00201e+01        00000 
 6.41903e+00 -2.00317e+01        00000 
 6.63643e+00 -2.00437e+01        00000 
 6.85484e+00 -2.00562e+01        00000 
 7.07421e+00 -2.00690e+01        00000 
 7.29465e+00 -2.00822e+01        00000 
 7.51610e+00 -2.00958e+01        00000 
 7.73868e+00 -2.01098e+01        00000 
 7.96233e+00 -2.01242e+01        00000 
 8.18717e+00 -2.01390e+01        00000 
 8.41313e+00 -2.01542e+01        00000 
 8.64033e+00 -2.01697e+01        00000 
 8.86872e+00 -2.01857e+01        00000 
 9.09840e+00 -2.02021e+01        00000 
 9.32933e+00 -2.02188e+01        00000 
 9.56161e+00 -2.02360e+01        00000 
 9.79520e+00 -2.02535e+01        00000 
 1.00302e+01 -2.02715e+01        00000 
 1.02666e+01 -2.02898e+01        00000 
 1.05044e+01 -2.03085e+01        00000 
-1.05870e+01 -2.07890e+01        00000 
-1.03475e+01 -2.07708e+01        00000 
-1.01094e+01 -2.07530e+01        00000 
-9.87275e+00 -2.07356e+01        00000 
-9.63748e+00 -2.07186e+01        00000 
-9.40350e+00 -2.07019e+01        00000 
-9.17087e+00 -2.06856e+01        00000 
-8.93949e+00 -2.06697e+01        00000 
-8.70940e+00 -2.06542e+01        00000 
-8.48049e+00 -2.06391e+01        00000 
-8.25282e+00 -2.06243e+01        00000 
-8.02628e+00 -2.06100e+01        00000 
-7.80092e+00 -2.05960e+01        00000 
-7.57663e+00 -2.05824e+01        00000 
-7.35346e+00 -2.05692e+01        00000 
-7.13131e+00 -2.05564e+01        00000 
-6.91023e+00 -2.05440e+01        00000 
-6.69010e+00 -2.05319e+01        00000 
-6.47100e+00 -2.05203e+01        00000 
-6.25279e+00 -2.05090e+01        00000 
-6.03553e+00 -2.04981e+01        00000 
-5.81912e+00 -2.04876e+01        00000 
-5.60362e+00 -2.04775e+01        00000 
-5.38890e+00 -2.04678e+01        00000 
-5.17502e+00 -2.04584e+01        00000 
-4.96187e+00 -2.04495e+01        00000 
-4.74950e+00 -2.04409e+01        00000 
-4.53781e+00 -2.04326e+01        00000 
-4.32684e+00 -2.04248e+01        00000 
-4.11648e+00 -2.04173e+01        00000 
-3.90679e+00 -2.04103e+01        00000 
-3.69765e+00 -2.04035e+01        00000 
-3.48911e+00 -2.03972e+01        00000 
-3.28107e+00 -2.03912e+01        00000 
-3.07357e+00 -2.03856e+01        00000 
-2.86650e+00 -2.03804e+01        00000 
-2.65992e+00 -2.03755e+01        00000 
-2.45370e+00 -2.03710e+01        00000 
-2.24791e+00 -2.03669e+01        00000 
-2.04242e+00 -2.03631e+01        00000 
-1.83729e+00 -2.03597e+01        00000 
-1.63241e+00 -2.03566e+01        00000 
-1.42782e+00 -2.03539e+01        00000 
-1.22342e+00 -2.03516e+01        00000 
-1.01924e+00 -2.03496e+01        00000 
-8.15185e-01 -2.03480e+01        00000 
-6.11297e-01 -2.03468e+01        00000 
-4.07465e-01 -2.03459e+01        00000 
-2.03737e-01 -2.03453e+01        00000 
-9.41391e-13 -2.03452e+01        00000 
 2.03737e-01 -2.03453e+01        00000 
 4.07465e-01 -2.03459e+01        00000 
 6.11297e-01 -2.03468e+01        00000 
 8.15185e-01 -2.03480e+01        00000 
 1.01924e+00 -2.03496e+01        00000 
 1.22342e+00 -2.03516e+01        00000 
 1.42782e+00 -2.03539e+01        00000 
 1.63241e+00 -2.03566e+01        00000 
 1.83729e+00 -2.03597e+01        00000 
 2.04242e+00 -2.03631e+01        00000 
 2.24791e+00 -2.03669e+01        00000 
 2.45370e+00 -2.03710e+01        00000 
 2.65992e+00 -2.03755e+01        00000 
 2.86650e+00 -2.03804e+01        00000 
 3.07357e+00 -2.03856e+01        00000 
 3.28107e+00 -2.03912e+01        00000 
 3.48911e+00 -2.03972e+01        00000 
 3.69765e+00 -2.04035e+01        00000 
 3.90679e+00 -2.04103e+01        00000 
 4.11648e+00 -2.04173e+01        00000 
 4.32684e+00 -2.04248e+01        00000 
 4.53781e+00 -2.04326e+01        00000 
 4.74950e+00 -2.04409e+01        00000 
 4.96187e+00 -2.04495e+01        00000 
 5.17502e+00 -2.04584e+01        00000 
 5.38890e+00 -2.04678e+01        00000 
 5.60362e+00 -2.04775e+01        00000 
 5.81912e+00 -2.04876e+01        00000 
 6.03553e+00 -2.04981e+01        00000 
 6.25279e+00 -2.05090e+01        00000 
 6.47100e+00 -2.05203e+01        00000 
 6.69010e+00 -2.05319e+01        00000 
 6.91023e+00 -2.05440e+01        00000 
 7.13131e+00 -2.05564e+01        00000 
 7.35346e+00 -2.05692e+01        00000 
 7.57663e+00 -2.05824e+01        00000 
 7.80092e+00 -2.05960e+01        00000 
 8.02628e+00 -2.06100e+01        00000 
 8.25282e+00 -2.06243e+01        00000 
 8.48049e+00 -2.06391e+01        00000 
 8.70940e+00 -2.06542e+01        00000 
 8.93949e+00 -2.06697e+01        00000 
 9.17087e+00 -2.06856e+01        00000 
 9.40350e+00 -2.07019e+01        00000 
 9.63748e+00 -2.07186e+01        00000 
 9.87275e+00 -2.07356e+01        00000 
 1.01094e+01 -2.07530e+01        00000 
 1.03475e+01 -2.07708e+01        00000 
 1.05870e+01 -2.07890e+01        00000 
-1.06672e+01 -2.12728e+01        00000 
-1.04261e+01 -2.12551e+01        00000 
-1.01864e+01 -2.12379e+01        00000 
-9.94807e+00 -2.12209e+01        00000 
-9.71115e+00 -2.12044e+01        00000 
-9.47552e+00 -2.11882e+01        00000 
-9.24125e+00 -2.11724e+01        00000 
-9.00821e+00 -2.11570e+01        00000 
-8.77646e+00 -2.11419e+01        00000 
-8.54589e+00 -2.11273e+01        00000 
-8.31656e+00 -2.11130e+01        00000 
-8.08835e+00 -2.10990e+01        00000 
-7.86132e+00 -2.10855e+01        00000 
-7.63536e+00 -2.10723e+01        00000 
-7.41053e+00 -2.10595e+01        00000 
-7.18671e+00 -2.10471e+01        00000 
-6.96397e+00 -2.10351e+01        00000 
-6.74217e+00 -2.10234e+01        00000 
-6.52140e+00 -2.10121e+01        00000 
-6.30152e+00 -2.10012e+01        00000 
-6.08261e+00 -2.09907e+01        00000 
-5.86454e+00 -2.09805e+01        00000 
-5.64738e+00 -2.09707e+01        00000 
-5.43100e+00 -2.09613e+01        00000 
-5.21546e+00 -2.09523e+01        00000 
-5.00066e+00 -2.09436e+01        00000 
-4.78665e+00 -2.09353e+01        00000 
-4.57331e+00 -2.09274e+01        00000 
-4.36070e+00 -2.09198e+01        00000 
-4.14870e+00 -2.09126e+01        00000 
-3.93737e+00 -2.09058e+01        00000 
-3.72660e+00 -2.08993e+01        00000 
-3.51644e+00 -2.08932e+01        00000 
-3.30677e+00 -2.08874e+01        00000 
-3.09765e+00 -2.08820e+01        00000 
-2.88896e+00 -2.08770e+01        00000 
-2.68076e+00 -2.08723e+01        00000 
-2.47293e+00 -2.08679e+01        00000 
-2.26552e+00 -2.08639e+01        00000 
-2.05843e+00 -2.08603e+01        00000 
-1.85169e+00 -2.08570e+01        00000 
-1.64520e+00 -2.08541e+01        00000 
-1.43901e+00 -2.08515e+01        00000 
-1.23300e+00 -2.08492e+01        00000 
-1.02723e+00 -2.08473e+01        00000 
-8.21573e-01 -2.08458e+01        00000 
-6.16087e-01 -2.08446e+01        00000 
-4.10658e-01 -2.08437e+01        00000 
-2.05333e-01 -2.08432e+01        00000 
-9.72487e-13 -2.08430e+01        00000 
 2.05333e-01 -2.08432e+01        00000 
 4.10658e-01 -2.08437e+01        00000 
 6.16087e-01 -2.08446e+01        00000 
 8.21573e-01 -2.08458e+01        00000 
 1.02723e+00 -2.08473e+01        00000 
 1.23300e+00 -2.08492e+01        00000 
 1.43901e+00 -2.08515e+01        00000 
 1.64520e+00 -2.08541e+01        00000 
 1.85169e+00 -2.08570e+01        00000 
 2.05843e+00 -2.08603e+01        00000 
 2.26552e+00 -2.08639e+01        00000 
 2.47293e+00 -2.08679e+01        00000 
 2.68076e+00 -2.08723e+01        00000 
 2.88896e+00 -2.08770e+01        00000 
 3.09765e+00 -2.08820e+01        00000 
 3.30677e+00 -2.08874e+01        00000 
 3.51644e+00 -2.08932e+01        00000 
 3.72660e+00 -2.08993e+01        00000 
 3.93737e+00 -2.09058e+01        00000 
 4.14870e+00 -2.09126e+01        00000 
 4.36070e+00 -2.09198e+01        00000 
 4.57331e+00 -2.09274e+01        00000 
 4.78665e+00 -2.09353e+01        00000 
 5.00066e+00 -2.09436e+01        00000 
 5.21546e+00 -2.09523e+01        00000 
 5.43100e+00 -2.09613e+01        00000 
 5.64738e+00 -2.09707e+01        00000 
 5.86454e+00 -2.09805e+01        00000 
 6.08261e+00 -2.09907e+01        00000 
 6.30152e+00 -2.10012e+01        00000 
 6.52140e+00 -2.10121e+01        00000 
 6.74217e+00 -2.10234e+01        00000 
 6.96397e+00 -2.10351e+01        00000 
 7.18671e+00 -2.10471e+01        00000 
 7.41053e+00 -2.10595e+01        00000 
 7.63536e+00 -2.10723e+01        00000 
 7.86132e+00 -2.10855e+01        00000 
 8.08835e+00 -2.10990e+01        00000 
 8.31656e+00 -2.11130e+01        00000 
 8.54589e+00 -2.11273e+01        00000 
 8.77646e+00 -2.11419e+01        00000 
 9.00821e+00 -2.11570e+01        00000 
 9.24125e+00 -2.11724e+01        00000 
 9.47552e+00 -2.11882e+01        00000 
 9.71115e+00 -2.12044e+01        00000 
 9.94807e+00 -2.12209e+01        00000 
 1.01864e+01 -2.12379e+01        00000 
 1.04261e+01 -2.12551e+01        00000 
 1.06672e+01 -2.12728e+01        00000 
-1.07451e+01 -2.17598e+01        00000 
-1.05023e+01 -2.17426e+01        00000 
-1.02611e+01 -2.17259e+01        00000 
-1.00212e+01 -2.17095e+01        00000 
-9.78264e+00 -2.16934e+01        00000 
-9.54541e+00 -2.16778e+01        00000 
-9.30953e+00 -2.16624e+01        00000 
-9.07488e+00 -2.16475e+01        00000 
-8.84151e+00 -2.16329e+01        00000 
-8.60933e+00 -2.16186e+01        00000 
-8.37838e+00 -2.16048e+01        00000 
-8.14855e+00 -2.15913e+01        00000 
-7.91990e+00 -2.15782e+01        00000 
-7.69232e+00 -2.15654e+01        00000 
-7.46586e+00 -2.15530e+01        00000 
-7.24042e+00 -2.15410e+01        00000 
-7.01605e+00 -2.15294e+01        00000 
-6.79263e+00 -2.15181e+01        00000 
-6.57023e+00 -2.15072e+01        00000 
-6.34874e+00 -2.14966e+01        00000 
-6.12821e+00 -2.14865e+01        00000 
-5.90852e+00 -2.14766e+01        00000 
-5.68974e+00 -2.14672e+01        00000 
-5.47176e+00 -2.14581e+01        00000 
-5.25462e+00 -2.14494e+01        00000 
-5.03821e+00 -2.14410e+01        00000 
-4.82260e+00 -2.14330e+01        00000 
-4.60766e+00 -2.14254e+01        00000 
-4.39346e+00 -2.14181e+01        00000 
-4.17987e+00 -2.14111e+01        00000 
-3.96695e+00 -2.14045e+01        00000 
-3.75460e+00 -2.13983e+01        00000 
-3.54286e+00 -2.13924e+01        00000 
-3.33161e+00 -2.13868e+01        00000 
-3.12092e+00 -2.13816e+01        00000 
-2.91066e+00 -2.13768e+01        00000 
-2.70090e+00 -2.13723e+01        00000 
-2.49150e+00 -2.13681e+01        00000 
-2.28254e+00 -2.13643e+01        00000 
-2.07389e+00 -2.13608e+01        00000 
-1.86560e+00 -2.13576e+01        00000 
-1.65756e+00 -2.13548e+01        00000 
-1.44982e+00 -2.13523e+01        00000 
-1.24226e+00 -2.13501e+01        00000 
-1.03494e+00 -2.13483e+01        00000 
-8.27742e-01 -2.13468e+01        00000 
-6.20713e-01 -2.13457e+01        00000 
-4.13741e-01 -2.13448e+01        00000 
-2.06875e-01 -2.13443e+01        00000 
-1.00660e-12 -2.13442e+01        00000 
 2.06875e-01 -2.13443e+01        00000 
 4.13741e-01 -2.13448e+01        00000 
 6.20713e-01 -2.13457e+01        00000 
 8.27742e-01 -2.13468e+01        00000 
 1.03494e+00 -2.13483e+01        00000 
 1.24226e+00 -2.13501e+01        00000 
 1.44982e+00 -2.13523e+01        00000 
 1.65756e+00 -2.13548e+01        00000 
 1.86560e+00 -2.13576e+01        00000 
 2.07389e+00 -2.13608e+01        00000 
 2.28254e+00 -2.13643e+01        00000 
 2.49150e+00 -2.13681e+01        00000 
 2.70090e+00 -2.13723e+01        00000 
 2.91066e+00 -2.13768e+01        00000 
 3.12092e+00 -2.13816e+01        00000 
 3.33161e+00 -2.13868e+01        00000 
 3.54286e+00 -2.13924e+01        00000 
 3.75460e+00 -2.13983e+01        00000 
 3.96695e+00 -2.14045e+01        00000 
 4.17987e+00 -2.14111e+01        00000 
 4.39346e+00 -2.14181e+01        00000 
 4.60766e+00 -2.14254e+01        00000 
 4.82260e+00 -2.14330e+01        00000 
 5.03821e+00 -2.14410e+01        00000 
 5.25462e+00 -2.14494e+01        00000 
 5.47176e+00 -2.14581e+01        00000 
 5.68974e+00 -2.14672e+01        00000 
 5.90852e+00 -2.14766e+01        00000 
 6.12821e+00 -2.14865e+01        00000 
 6.34874e+00 -2.14966e+01        00000 
 6.57023e+00 -2.15072e+01        00000 
 6.79263e+00 -2.15181e+01        00000 
 7.01605e+00 -2.15294e+01        00000 
 7.24042e+00 -2.15410e+01        00000 
 7.46586e+00 -2.15530e+01        00000 
 7.69232e+00 -2.15654e+01        00000 
 7.91990e+00 -2.15782e+01        00000 
 8.14855e+00 -2.15913e+01        00000 
 8.37838e+00 -2.16048e+01        00000 
 8.60933e+00 -2.16186e+01        00000 
 8.84151e+00 -2.16329e+01        00000 
 9.07488e+00 -2.16475e+01        00000 
 9.30953e+00 -2.16624e+01        00000 
 9.54541e+00 -2.16778e+01        00000 
 9.78264e+00 -2.16934e+01        00000 
 1.00212e+01 -2.17095e+01        00000 
 1.02611e+01 -2.17259e+01        00000 
 1.05023e+01 -2.17426e+01        00000 
 1.07451e+01 -2.17598e+01        00000 
-1.08206e+01 -2.22498e+01        00000 
-1.05763e+01 -2.22333e+01        00000 
-1.03335e+01 -2.22170e+01        00000 
-1.00920e+01 -2.22011e+01        00000 
-9.85196e+00 -2.21856e+01        00000 
-9.61317e+00 -2.21704e+01        00000 
-9.37573e+00 -2.21555e+01        00000 
-9.13950e+00 -2.21410e+01        00000 
-8.90457e+00 -2.21269e+01        00000 
-8.67081e+00 -2.21131e+01        00000 
-8.43828e+00 -2.20997e+01        00000 
-8.20687e+00 -2.20866e+01        00000 
-7.97664e+00 -2.20740e+01        00000 
-7.74748e+00 -2.20616e+01        00000 
-7.51944e+00 -2.20496e+01        00000 
-7.29242e+00 -2.20380e+01        00000 
-7.06646e+00 -2.20268e+01        00000 
-6.84147e+00 -2.20159e+01        00000 
-6.61750e+00 -2.20053e+01        00000 
-6.39443e+00 -2.19952e+01        00000 
-6.17232e+00 -2.19853e+01        00000 
-5.95106e+00 -2.19759e+01        00000 
-5.73072e+00 -2.19668e+01        00000 
-5.51116e+00 -2.19580e+01        00000 
-5.29246e+00 -2.19496e+01        00000 
-5.07450e+00 -2.19415e+01        00000 
-4.85733e+00 -2.19338e+01        00000 
-4.64085e+00 -2.19265e+01        00000 
-4.42510e+00 -2.19194e+01        00000 
-4.20997e+00 -2.19128e+01        00000 
-3.99552e+00 -2.19064e+01        00000 
-3.78163e+00 -2.19004e+01        00000 
-3.56836e+00 -2.18948e+01        00000 
-3.35559e+00 -2.18894e+01        00000 
-3.14338e+00 -2.18844e+01        00000 
-2.93160e+00 -2.18798e+01        00000 
-2.72032e+00 -2.18754e+01        00000 
-2.50942e+00 -2.18714e+01        00000 
-2.29895e+00 -2.18677e+01        00000 
-2.08880e+00 -2.18644e+01        00000 
-1.87901e+00 -2.18614e+01        00000 
-1.66947e+00 -2.18586e+01        00000 
-1.46024e+00 -2.18563e+01        00000 
-1.25119e+00 -2.18542e+01        00000 
-1.04238e+00 -2.18524e+01        00000 
-8.33689e-01 -2.18510e+01        00000 
-6.25173e-01 -2.18499e+01        00000 
-4.16714e-01 -2.18491e+01        00000 
-2.08361e-01 -2.18486e+01        00000 
-1.04337e-12 -2.18485e+01        00000 
 2.08361e-01 -2.18486e+01        00000 
 4.16714e-01 -2.18491e+01        00000 
 6.25173e-01 -2.18499e+01        00000 
 8.33689e-01 -2.18510e+01        00000 
 1.04238e+00 -2.18524e+01        00000 
 1.25119e+00 -2.18542e+01        00000 
 1.46024e+00 -2.18563e+01        00000 
 1.66947e+00 -2.18586e+01        00000 
 1.87901e+00 -2.18614e+01        00000 
 2.08880e+00 -2.18644e+01        00000 
 2.29895e+00 -2.18677e+01        00000 
 2.50942e+00 -2.18714e+01        00000 
 2.72032e+00 -2.18754e+01        00000 
 2.93160e+00 -2.18798e+01        00000 
 3.14338e+00 -2.18844e+01        00000 
 3.35559e+00 -2.18894e+01        00000 
 3.56836e+00 -2.18948e+01        00000 
 3.78163e+00 -2.19004e+01        00000 
 3.99552e+00 -2.19064e+01        00000 
 4.20997e+00 -2.19128e+01        00000 
 4.42510e+00 -2.19194e+01        00000 
 4.64085e+00 -2.19265e+01        00000 
 4.85733e+00 -2.19338e+01        00000 
 5.07450e+00 -2.19415e+01        00000 
 5.29246e+00 -2.19496e+01        00000 
 5.51116e+00 -2.19580e+01        00000 
 5.73072e+00 -2.19668e+01        00000 
 5.95106e+00 -2.19759e+01        00000 
 6.17232e+00 -2.19853e+01        00000 
 6.39443e+00 -2.19952e+01        00000 
 6.61750e+00 -2.20053e+01        00000 
 6.84147e+00 -2.20159e+01        00000 
 7.06646e+00 -2.20268e+01        00000 
 7.29242e+00 -2.20380e+01        00000 
 7.51944e+00 -2.20496e+01        00000 
 7.74748e+00 -2.20616e+01        00000 
 7.97664e+00 -2.20740e+01        00000 
 8.20687e+00 -2.20866e+01        00000 
 8.43828e+00 -2.20997e+01        00000 
 8.67081e+00 -2.21131e+01        00000 
 8.90457e+00 -2.21269e+01        00000 
 9.13950e+00 -2.21410e+01        00000 
 9.37573e+00 -2.21555e+01        00000 
 9.61317e+00 -2.21704e+01        00000 
 9.85196e+00 -2.21856e+01        00000 
 1.00920e+01 -2.22011e+01        00000 
 1.03335e+01 -2.22170e+01        00000 
 1.05763e+01 -2.22333e+01        00000 
 1.08206e+01 -2.22498e+01        00000 
-1.08937e+01 -2.27429e+01        00000 
-1.06480e+01 -2.27269e+01        00000 
-1.04037e+01 -2.27111e+01        00000 
-1.01607e+01 -2.26958e+01        00000 
-9.91911e+00 -2.26807e+01        00000 
-9.67881e+00 -2.26660e+01        00000 
-9.43984e+00 -2.26516e+01        00000 
-9.20209e+00 -2.26376e+01        00000 
-8.96563e+00 -2.26239e+01        00000 
-8.73034e+00 -2.26106e+01        00000 
-8.49627e+00 -2.25976e+01        00000 
-8.26332e+00 -2.25850e+01        00000 
-8.03156e+00 -2.25727e+01        00000 
-7.80085e+00 -2.25608e+01        00000 
-7.57127e+00 -2.25492e+01        00000 
-7.34271e+00 -2.25380e+01        00000 
-7.11522e+00 -2.25272e+01        00000 
-6.88869e+00 -2.25167e+01        00000 
-6.66318e+00 -2.25065e+01        00000 
-6.43857e+00 -2.24967e+01        00000 
-6.21494e+00 -2.24872e+01        00000 
-5.99215e+00 -2.24781e+01        00000 
-5.77028e+00 -2.24693e+01        00000 
-5.54921e+00 -2.24609e+01        00000 
-5.32900e+00 -2.24528e+01        00000 
-5.10952e+00 -2.24451e+01        00000 
-4.89085e+00 -2.24377e+01        00000 
-4.67286e+00 -2.24306e+01        00000 
-4.45562e+00 -2.24239e+01        00000 
-4.23900e+00 -2.24174e+01        00000 
-4.02306e+00 -2.24114e+01        00000 
-3.80769e+00 -2.24056e+01        00000 
-3.59294e+00 -2.24002e+01        00000 
-3.37870e+00 -2.23951e+01        00000 
-3.16501e+00 -2.23903e+01        00000 
-2.95178e+00 -2.23858e+01        00000 
-2.73904e+00 -2.23817e+01        00000 
-2.52668e+00 -2.23778e+01        00000 
-2.31476e+00 -2.23743e+01        00000 
-2.10315e+00 -2.23711e+01        00000 
-1.89192e+00 -2.23682e+01        00000 
-1.68094e+00 -2.23656e+01        00000 
-1.47027e+00 -2.23633e+01        00000 
-1.25978e+00 -2.23613e+01        00000 
-1.04953e+00 -2.23597e+01        00000 
-8.39412e-01 -2.23583e+01        00000 
-6.29464e-01 -2.23572e+01        00000 
-4.19574e-01 -2.23565e+01        00000 
-2.09791e-01 -2.23560e+01        00000 
-1.06174e-12 -2.23559e+01        00000 
 2.09791e-01 -2.23560e+01        00000 
 4.19574e-01 -2.23565e+01        00000 
 6.29464e-01 -2.23572e+01        00000 
 8.39412e-01 -2.23583e+01        00000 
 1.04953e+00 -2.23597e+01        00000 
 1.25978e+00 -2.23613e+01        00000 
 1.47027e+00 -2.23633e+01        00000 
 1.68094e+00 -2.23656e+01        00000 
 1.89192e+00 -2.23682e+01        00000 
 2.10315e+00 -2.23711e+01        00000 
 2.31476e+00 -2.23743e+01        00000 
 2.52668e+00 -2.23778e+01        00000 
 2.73904e+00 -2.23817e+01        00000 
 2.95178e+00 -2.23858e+01        00000 
 3.16501e+00 -2.23903e+01        00000 
 3.37870e+00 -2.23951e+01        00000 
 3.59294e+00 -2.24002e+01        00000 
 3.80769e+00 -2.24056e+01        00000 
 4.02306e+00 -2.24114e+01        00000 
 4.23900e+00 -2.24174e+01        00000 
 4.45562e+00 -2.24239e+01        00000 
 4.67286e+00 -2.24306e+01        00000 
 4.89085e+00 -2.24377e+01        00000 
 5.10952e+00 -2.24451e+01        00000 
 5.32900e+00 -2.24528e+01        00000 
 5.54921e+00 -2.24609e+01        00000 
 5.77028e+00 -2.24693e+01        00000 
 5.99215e+00 -2.24781e+01        00000 
 6.21494e+00 -2.24872e+01        00000 
 6.43857e+00 -2.24967e+01        00000 
 6.66318e+00 -2.25065e+01        00000 
 6.88869e+00 -2.25167e+01        00000 
 7.11522e+00 -2.25272e+01        00000 
 7.34271e+00 -2.25380e+01        00000 
 7.57127e+00 -2.25492e+01        00000 
 7.80085e+00 -2.25608e+01        00000 
 8.03156e+00 -2.25727e+01        00000 
 8.26332e+00 -2.25850e+01        00000 
 8.49627e+00 -2.25976e+01        00000 
 8.73034e+00 -2.26106e+01        00000 
 8.96563e+00 -2.26239e+01        00000 
 9.20209e+00 -2.26376e+01        00000 
 9.43984e+00 -2.26516e+01        00000 
 9.67881e+00 -2.26660e+01        00000 
 9.91911e+00 -2.26807e+01        00000 
 1.01607e+01 -2.26958e+01        00000 
 1.04037e+01 -2.27111e+01        00000 
 1.06480e+01 -2.27269e+01        00000 
 1.08937e+01 -2.27429e+01        00000 
-1.09645e+01 -2.32389e+01        00000 
-1.07173e+01 -2.32234e+01        00000 
-1.04716e+01 -2.32082e+01        00000 
-1.02272e+01 -2.31933e+01        00000 
-9.98411e+00 -2.31787e+01        00000 
-9.74233e+00 -2.31645e+01        00000 
-9.50188e+00 -2.31506e+01        00000 
-9.26265e+00 -2.31370e+01        00000 
-9.02470e+00 -2.31238e+01        00000 
-8.78791e+00 -2.31110e+01        00000 
-8.55235e+00 -2.30984e+01        00000 
-8.31791e+00 -2.30862e+01        00000 
-8.08464e+00 -2.30744e+01        00000 
-7.85243e+00 -2.30629e+01        00000 
-7.62136e+00 -2.30517e+01        00000 
-7.39129e+00 -2.30409e+01        00000 
-7.16230e+00 -2.30305e+01        00000 
-6.93427e+00 -2.30204e+01        00000 
-6.70727e+00 -2.30106e+01        00000 
-6.48118e+00 -2.30011e+01        00000 
-6.25605e+00 -2.29920e+01        00000 
-6.03179e+00 -2.29833e+01        00000 
-5.80844e+00 -2.29748e+01        00000 
-5.58589e+00 -2.29668e+01        00000 
-5.36421e+00 -2.29590e+01        00000 
-5.14327e+00 -2.29516e+01        00000 
-4.92314e+00 -2.29445e+01        00000 
-4.70369e+00 -2.29377e+01        00000 
-4.48500e+00 -2.29312e+01        00000 
-4.26693e+00 -2.29251e+01        00000 
-4.04956e+00 -2.29193e+01        00000 
-3.83276e+00 -2.29138e+01        00000 
-3.61658e+00 -2.29086e+01        00000 
-3.40092e+00 -2.29037e+01        00000 
-3.18582e+00 -2.28991e+01        00000 
-2.97117e+00 -2.28948e+01        00000 
-2.75703e+00 -2.28909e+01        00000 
-2.54327e+00 -2.28872e+01        00000 
-2.32995e+00 -2.28838e+01        00000 
-2.11695e+00 -2.28808e+01        00000 
-1.90432e+00 -2.28780e+01        00000 
-1.69196e+00 -2.28755e+01        00000 
-1.47990e+00 -2.28734e+01        00000 
-1.26803e+00 -2.28715e+01        00000 
-1.05641e+00 -2.28699e+01        00000 
-8.44908e-01 -2.28686e+01        00000 
-6.33585e-01 -2.28676e+01        00000 
-4.22320e-01 -2.28668e+01        00000 
-2.11164e-01 -2.28664e+01        00000 
-1.07844e-12 -2.28663e+01        00000 
 2.11164e-01 -2.28664e+01        00000 
 4.22320e-01 -2.28668e+01        00000 
 6.33585e-01 -2.28676e+01        00000 
 8.44908e-01 -2.28686e+01        00000 
 1.05641e+00 -2.28699e+01        00000 
 1.26803e+00 -2.28715e+01        00000 
 1.47990e+00 -2.28734e+01        00000 
 1.69196e+00 -2.28755e+01        00000 
 1.90432e+00 -2.28780e+01        00000 
 2.11695e+00 -2.28808e+01        00000 
 2.32995e+00 -2.28838e+01        00000 
 2.54327e+00 -2.28872e+01        00000 
 2.75703e+00 -2.28909e+01        00000 
 2.97117e+00 -2.28948e+01        00000 
 3.18582e+00 -2.28991e+01        00000 
 3.40092e+00 -2.29037e+01        00000 
 3.61658e+00 -2.29086e+01        00000 
 3.83276e+00 -2.29138e+01        00000 
 4.04956e+00 -2.29193e+01        00000 
 4.26693e+00 -2.29251e+01        00000 
 4.48500e+00 -2.29312e+01        00000 
 4.70369e+00 -2.29377e+01        00000 
 4.92314e+00 -2.29445e+01        00000 
 5.14327e+00 -2.29516e+01        00000 
 5.36421e+00 -2.29590e+01        00000 
 5.58589e+00 -2.29668e+01        00000 
 5.80844e+00 -2.29748e+01        00000 
 6.03179e+00 -2.29833e+01        00000 
 6.25605e+00 -2.29920e+01        00000 
 6.48118e+00 -2.30011e+01        00000 
 6.70727e+00 -2.30106e+01        00000 
 6.93427e+00 -2.30204e+01        00000 
 7.16230e+00 -2.30305e+01        00000 
 7.39129e+00 -2.30409e+01        00000 
 7.62136e+00 -2.30517e+01        00000 
 7.85243e+00 -2.30629e+01        00000 
 8.08464e+00 -2.30744e+01        00000 
 8.31791e+00 -2.30862e+01        00000 
 8.55235e+00 -2.30984e+01        00000 
 8.78791e+00 -2.31110e+01        00000 
 9.02470e+00 -2.31238e+01        00000 
 9.26265e+00 -2.31370e+01        00000 
 9.50188e+00 -2.31506e+01        00000 
 9.74233e+00 -2.31645e+01        00000 
 9.98411e+00 -2.31787e+01        00000 
 1.02272e+01 -2.31933e+01        00000 
 1.04716e+01 -2.32082e+01        00000 
 1.07173e+01 -2.32234e+01        00000 
 1.09645e+01 -2.32389e+01        00000 
-1.10330e+01 -2.37378e+01        00000 
-1.07844e+01 -2.37227e+01        00000 
-1.05373e+01 -2.37080e+01        00000 
-1.02914e+01 -2.36936e+01        00000 
-1.00470e+01 -2.36796e+01        00000 
-9.80375e+00 -2.36658e+01        00000 
-9.56186e+00 -2.36524e+01        00000 
-9.32118e+00 -2.36393e+01        00000 
-9.08178e+00 -2.36265e+01        00000 
-8.84354e+00 -2.36141e+01        00000 
-8.60652e+00 -2.36020e+01        00000 
-8.37062e+00 -2.35903e+01        00000 
-8.13589e+00 -2.35789e+01        00000 
-7.90222e+00 -2.35678e+01        00000 
-7.66968e+00 -2.35570e+01        00000 
-7.43815e+00 -2.35466e+01        00000 
-7.20771e+00 -2.35366e+01        00000 
-6.97822e+00 -2.35269e+01        00000 
-6.74977e+00 -2.35175e+01        00000 
-6.52222e+00 -2.35084e+01        00000 
-6.29566e+00 -2.34997e+01        00000 
-6.06995e+00 -2.34913e+01        00000 
-5.84517e+00 -2.34832e+01        00000 
-5.62119e+00 -2.34754e+01        00000 
-5.39808e+00 -2.34680e+01        00000 
-5.17572e+00 -2.34609e+01        00000 
-4.95418e+00 -2.34541e+01        00000 
-4.73333e+00 -2.34476e+01        00000 
-4.51323e+00 -2.34414e+01        00000 
-4.29378e+00 -2.34356e+01        00000 
-4.07501e+00 -2.34300e+01        00000 
-3.85683e+00 -2.34248e+01        00000 
-3.63928e+00 -2.34198e+01        00000 
-3.42225e+00 -2.34152e+01        00000 
-3.20579e+00 -2.34108e+01        00000 
-2.98978e+00 -2.34067e+01        00000 
-2.77428e+00 -2.34029e+01        00000 
-2.55917e+00 -2.33995e+01        00000 
-2.34451e+00 -2.33963e+01        00000 
-2.13017e+00 -2.33933e+01        00000 
-1.91622e+00 -2.33907e+01        00000 
-1.70252e+00 -2.33884e+01        00000 
-1.48913e+00 -2.33863e+01        00000 
-1.27594e+00 -2.33845e+01        00000 
-1.06299e+00 -2.33830e+01        00000 
-8.50175e-01 -2.33817e+01        00000 
-6.37533e-01 -2.33808e+01        00000 
-4.24952e-01 -2.33801e+01        00000 
-2.12480e-01 -2.33797e+01        00000 
-1.09444e-12 -2.33795e+01        00000 
 2.12480e-01 -2.33797e+01        00000 
 4.24952e-01 -2.33801e+01        00000 
 6.37533e-01 -2.33808e+01        00000 
 8.50175e-01 -2.33817e+01        00000 
 1.06299e+00 -2.33830e+01        00000 
 1.27594e+00 -2.33845e+01        00000 
 1.48913e+00 -2.33863e+01        00000 
 1.70252e+00 -2.33884e+01        00000 
 1.91622e+00 -2.33907e+01        00000 
 2.13017e+00 -2.33933e+01        00000 
 2.34451e+00 -2.33963e+01        00000 
 2.55917e+00 -2.33995e+01        00000 
 2.77428e+00 -2.34029e+01        00000 
 2.98978e+00 -2.34067e+01        00000 
 3.20579e+00 -2.34108e+01        00000 
 3.42225e+00 -2.34152e+01        00000 
 3.63928e+00 -2.34198e+01        00000 
 3.85683e+00 -2.34248e+01        00000 
 4.07501e+00 -2.34300e+01        00000 
 4.29378e+00 -2.34356e+01        00000 
 4.51323e+00 -2.34414e+01        00000 
 4.73333e+00 -2.34476e+01        00000 
 4.95418e+00 -2.34541e+01        00000 
 5.17572e+00 -2.34609e+01        00000 
 5.39808e+00 -2.34680e+01        00000 
 5.62119e+00 -2.34754e+01        00000 
 5.84517e+00 -2.34832e+01        00000 
 6.06995e+00 -2.34913e+01        00000 
 6.29566e+00 -2.34997e+01        00000 
 6.52222e+00 -2.35084e+01        00000 
 6.74977e+00 -2.35175e+01        00000 
 6.97822e+00 -2.35269e+01        00000 
 7.20771e+00 -2.35366e+01        00000 
 7.43815e+00 -2.35466e+01        00000 
 7.66968e+00 -2.35570e+01        00000 
 7.90222e+00 -2.35678e+01        00000 
 8.13589e+00 -2.35789e+01        00000 
 8.37062e+00 -2.35903e+01        00000 
 8.60652e+00 -2.36020e+01        00000 
 8.84354e+00 -2.36141e+01        00000 
 9.08178e+00 -2.36265e+01        00000 
 9.32118e+00 -2.36393e+01        00000 
 9.56186e+00 -2.36524e+01        00000 
 9.80375e+00 -2.36658e+01        00000 
 1.00470e+01 -2.36796e+01        00000 
 1.02914e+01 -2.36936e+01        00000 
 1.05373e+01 -2.37080e+01        00000 
 1.07844e+01 -2.37227e+01        00000 
 1.10330e+01 -2.37378e+01        00000 
-1.10992e+01 -2.42393e+01        00000 
-1.08493e+01 -2.42248e+01        00000 
-1.06007e+01 -2.42106e+01        00000 
-1.03535e+01 -2.41967e+01        00000 
-1.01077e+01 -2.41831e+01        00000 
-9.86307e+00 -2.41698e+01        00000 
-9.61978e+00 -2.41569e+01        00000 
-9.37770e+00 -2.41442e+01        00000 
-9.13688e+00 -2.41319e+01        00000 
-8.89722e+00 -2.41200e+01        00000 
-8.65878e+00 -2.41083e+01        00000 
-8.42145e+00 -2.40970e+01        00000 
-8.18530e+00 -2.40860e+01        00000 
-7.95021e+00 -2.40754e+01        00000 
-7.71625e+00 -2.40651e+01        00000 
-7.48330e+00 -2.40551e+01        00000 
-7.25143e+00 -2.40454e+01        00000 
-7.02053e+00 -2.40361e+01        00000 
-6.79066e+00 -2.40271e+01        00000 
-6.56171e+00 -2.40184e+01        00000 
-6.33374e+00 -2.40100e+01        00000 
-6.10663e+00 -2.40020e+01        00000 
-5.88046e+00 -2.39943e+01        00000 
-5.65509e+00 -2.39869e+01        00000 
-5.43060e+00 -2.39798e+01        00000 
-5.20688e+00 -2.39730e+01        00000 
-4.98397e+00 -2.39665e+01        00000 
-4.76176e+00 -2.39603e+01        00000 
-4.54031e+00 -2.39544e+01        00000 
-4.31951e+00 -2.39488e+01        00000 
-4.09941e+00 -2.39435e+01        00000 
-3.87990e+00 -2.39385e+01        00000 
-3.66102e+00 -2.39338e+01        00000 
-3.44267e+00 -2.39294e+01        00000 
-3.22490e+00 -2.39253e+01        00000 
-3.00759e+00 -2.39214e+01        00000 
-2.79079e+00 -2.39178e+01        00000 
-2.57439e+00 -2.39145e+01        00000 
-2.35844e+00 -2.39115e+01        00000 
-2.14282e+00 -2.39087e+01        00000 
-1.92759e+00 -2.39062e+01        00000 
-1.71262e+00 -2.39040e+01        00000 
-1.49796e+00 -2.39020e+01        00000 
-1.28350e+00 -2.39003e+01        00000 
-1.06929e+00 -2.38989e+01        00000 
-8.55209e-01 -2.38977e+01        00000 
-6.41307e-01 -2.38968e+01        00000 
-4.27467e-01 -2.38961e+01        00000 
-2.13737e-01 -2.38958e+01        00000 
-1.12129e-12 -2.38956e+01        00000 
 2.13737e-01 -2.38958e+01        00000 
 4.27467e-01 -2.38961e+01        00000 
 6.41307e-01 -2.38968e+01        00000 
 8.55209e-01 -2.38977e+01        00000 
 1.06929e+00 -2.38989e+01        00000 
 1.28350e+00 -2.39003e+01        00000 
 1.49796e+00 -2.39020e+01        00000 
 1.71262e+00 -2.39040e+01        00000 
 1.92759e+00 -2.39062e+01        00000 
 2.14282e+00 -2.39087e+01        00000 
 2.35844e+00 -2.39115e+01        00000 
 2.57439e+00 -2.39145e+01        00000 
 2.79079e+00 -2.39178e+01        00000 
 3.00759e+00 -2.39214e+01        00000 
 3.22490e+00 -2.39253e+01        00000 
 3.44267e+00 -2.39294e+01        00000 
 3.66102e+00 -2.39338e+01        00000 
 3.87990e+00 -2.39385e+01        00000 
 4.09941e+00 -2.39435e+01        00000 
 4.31951e+00 -2.39488e+01        00000 
 4.54031e+00 -2.39544e+01        00000 
 4.76176e+00 -2.39603e+01        00000 
 4.98397e+00 -2.39665e+01        00000 
 5.20688e+00 -2.39730e+01        00000 
 5.43060e+00 -2.39798e+01        00000 
 5.65509e+00 -2.39869e+01        00000 
 5.88046e+00 -2.39943e+01        00000 
 6.10663e+00 -2.40020e+01        00000 
 6.33374e+00 -2.40100e+01        00000 
 6.56171e+00 -2.40184e+01        00000 
 6.79066e+00 -2.40271e+01        00000 
 7.02053e+00 -2.40361e+01        00000 
 7.25143e+00 -2.40454e+01        00000 
 7.48330e+00 -2.40551e+01        00000 
 7.71625e+00 -2.40651e+01        00000 
 7.95021e+00 -2.40754e+01        00000 
 8.18530e+00 -2.40860e+01        00000 
 8.42145e+00 -2.40970e+01        00000 
 8.65878e+00 -2.41083e+01        00000 
 8.89722e+00 -2.41200e+01        00000 
 9.13688e+00 -2.41319e+01        00000 
 9.37770e+00 -2.41442e+01        00000 
 9.61978e+00 -2.41569e+01        00000 
 9.86307e+00 -2.41698e+01        00000 
 1.01077e+01 -2.41831e+01        00000 
 1.03535e+01 -2.41967e+01        00000 
 1.06007e+01 -2.42106e+01        00000 
 1.08493e+01 -2.42248e+01        00000 
 1.10992e+01 -2.42393e+01        00000 
-1.11631e+01 -2.47435e+01        00000 
-1.09119e+01 -2.47295e+01        00000 
-1.06620e+01 -2.47158e+01        00000 
-1.04135e+01 -2.47024e+01        00000 
-1.01663e+01 -2.46893e+01        00000 
-9.92031e+00 -2.46765e+01        00000 
-9.67566e+00 -2.46640e+01        00000 
-9.43220e+00 -2.46518e+01        00000 
-9.19000e+00 -2.46400e+01        00000 
-8.94896e+00 -2.46284e+01        00000 
-8.70914e+00 -2.46172e+01        00000 
-8.47042e+00 -2.46064e+01        00000 
-8.23288e+00 -2.45958e+01        00000 
-7.99639e+00 -2.45856e+01        00000 
-7.76104e+00 -2.45757e+01        00000 
-7.52671e+00 -2.45661e+01        00000 
-7.29346e+00 -2.45569e+01        00000 
-7.06118e+00 -2.45479e+01        00000 
-6.82994e+00 -2.45393e+01        00000 
-6.59962e+00 -2.45310e+01        00000 
-6.37028e+00 -2.45230e+01        00000 
-6.14182e+00 -2.45154e+01        00000 
-5.91430e+00 -2.45080e+01        00000 
-5.68759e+00 -2.45009e+01        00000 
-5.46177e+00 -2.44942e+01        00000 
-5.23671e+00 -2.44877e+01        00000 
-5.01248e+00 -2.44815e+01        00000 
-4.78897e+00 -2.44757e+01        00000 
-4.56622e+00 -2.44701e+01        00000 
-4.34412e+00 -2.44648e+01        00000 
-4.12274e+00 -2.44597e+01        00000 
-3.90194e+00 -2.44550e+01        00000 
-3.68180e+00 -2.44505e+01        00000 
-3.46218e+00 -2.44463e+01        00000 
-3.24316e+00 -2.44424e+01        00000 
-3.02460e+00 -2.44388e+01        00000 
-2.80656e+00 -2.44354e+01        00000 
-2.58892e+00 -2.44322e+01        00000 
-2.37174e+00 -2.44294e+01        00000 
-2.15489e+00 -2.44268e+01        00000 
-1.93843e+00 -2.44244e+01        00000 
-1.72224e+00 -2.44223e+01        00000 
-1.50638e+00 -2.44204e+01        00000 
-1.29071e+00 -2.44188e+01        00000 
-1.07529e+00 -2.44175e+01        00000 
-8.60007e-01 -2.44164e+01        00000 
-6.44904e-01 -2.44155e+01        00000 
-4.29864e-01 -2.44149e+01        00000 
-2.14936e-01 -2.44145e+01        00000 
-1.15550e-12 -2.44144e+01        00000 
 2.14936e-01 -2.44145e+01        00000 
 4.29864e-01 -2.44149e+01        00000 
 6.44904e-01 -2.44155e+01        00000 
 8.60007e-01 -2.44164e+01        00000 
 1.07529e+00 -2.44175e+01        00000 
 1.29071e+00 -2.44188e+01        00000 
 1.50638e+00 -2.44204e+01        00000 
 1.72224e+00 -2.44223e+01        00000 
 1.93843e+00 -2.44244e+01        00000 
 2.15489e+00 -2.44268e+01        00000 
 2.37174e+00 -2.44294e+01        00000 
 2.58892e+00 -2.44322e+01        00000 
 2.80656e+00 -2.44354e+01        00000 
 3.02460e+00 -2.44388e+01        00000 
 3.24316e+00 -2.44424e+01        00000 
 3.46218e+00 -2.44463e+01        00000 
 3.68180e+00 -2.44505e+01        00000 
 3.90194e+00 -2.44550e+01        00000 
 4.12274e+00 -2.44597e+01        00000 
 4.34412e+00 -2.44648e+01        00000 
 4.56622e+00 -2.44701e+01        00000 
 4.78897e+00 -2.44757e+01        00000 
 5.01248e+00 -2.44815e+01        00000 
 5.23671e+00 -2.44877e+01        00000 
 5.46177e+00 -2.44942e+01        00000 
 5.68759e+00 -2.45009e+01        00000 
 5.91430e+00 -2.45080e+01        00000 
 6.14182e+00 -2.45154e+01        00000 
 6.37028e+00 -2.45230e+01        00000 
 6.59962e+00 -2.45310e+01        00000 
 6.82994e+00 -2.45393e+01        00000 
 7.06118e+00 -2.45479e+01        00000 
 7.29346e+00 -2.45569e+01        00000 
 7.52671e+00 -2.45661e+01        00000 
 7.76104e+00 -2.45757e+01        00000 
 7.99639e+00 -2.45856e+01        00000 
 8.23288e+00 -2.45958e+01        00000 
 8.47042e+00 -2.46064e+01        00000 
 8.70914e+00 -2.46172e+01        00000 
 8.94896e+00 -2.46284e+01        00000 
 9.19000e+00 -2.46400e+01        00000 
 9.43220e+00 -2.46518e+01        00000 
 9.67566e+00 -2.46640e+01        00000 
 9.92031e+00 -2.46765e+01        00000 
 1.01663e+01 -2.46893e+01        00000 
 1.04135e+01 -2.47024e+01        00000 
 1.06620e+01 -2.47158e+01        00000 
 1.09119e+01 -2.47295e+01        00000 
 1.11631e+01 -2.47435e+01        00000 
-1.12248e+01 -2.52502e+01        00000 
-1.09723e+01 -2.52367e+01        00000 
-1.07211e+01 -2.52235e+01        00000 
-1.04713e+01 -2.52106e+01        00000 
-1.02228e+01 -2.51979e+01        00000 
-9.97548e+00 -2.51856e+01        00000 
-9.72949e+00 -2.51736e+01        00000 
-9.48469e+00 -2.51619e+01        00000 
-9.24116e+00 -2.51505e+01        00000 
-8.99876e+00 -2.51394e+01        00000 
-8.75758e+00 -2.51287e+01        00000 
-8.51751e+00 -2.51182e+01        00000 
-8.27861e+00 -2.51081e+01        00000 
-8.04077e+00 -2.50983e+01        00000 
-7.80407e+00 -2.50889e+01        00000 
-7.56839e+00 -2.50797e+01        00000 
-7.33379e+00 -2.50709e+01        00000 
-7.10017e+00 -2.50623e+01        00000 
-6.86759e+00 -2.50541e+01        00000 
-6.63594e+00 -2.50462e+01        00000 
-6.40528e+00 -2.50386e+01        00000 
-6.17550e+00 -2.50313e+01        00000 
-5.94667e+00 -2.50243e+01        00000 
-5.71867e+00 -2.50175e+01        00000 
-5.49156e+00 -2.50111e+01        00000 
-5.26522e+00 -2.50050e+01        00000 
-5.03972e+00 -2.49991e+01        00000 
-4.81494e+00 -2.49936e+01        00000 
-4.59094e+00 -2.49883e+01        00000 
-4.36760e+00 -2.49833e+01        00000 
-4.14498e+00 -2.49785e+01        00000 
-3.92296e+00 -2.49740e+01        00000 
-3.70159e+00 -2.49698e+01        00000 
-3.48077e+00 -2.49659e+01        00000 
-3.26054e+00 -2.49622e+01        00000 
-3.04078e+00 -2.49587e+01        00000 
-2.82156e+00 -2.49555e+01        00000 
-2.60274e+00 -2.49526e+01        00000 
-2.38438e+00 -2.49499e+01        00000 
-2.16637e+00 -2.49474e+01        00000 
-1.94875e+00 -2.49452e+01        00000 
-1.73140e+00 -2.49432e+01        00000 
-1.51438e+00 -2.49415e+01        00000 
-1.29756e+00 -2.49399e+01        00000 
-1.08100e+00 -2.49387e+01        00000 
-8.64567e-01 -2.49376e+01        00000 
-6.48322e-01 -2.49368e+01        00000 
-4.32141e-01 -2.49362e+01        00000 
-2.16074e-01 -2.49359e+01        00000 
-1.18307e-12 -2.49358e+01        00000 
 2.16074e-01 -2.49359e+01        00000 
 4.32141e-01 -2.49362e+01        00000 
 6.48322e-01 -2.49368e+01        00000 
 8.64567e-01 -2.49376e+01        00000 
 1.08100e+00 -2.49387e+01        00000 
 1.29756e+00 -2.49399e+01        00000 
 1.51438e+00 -2.49415e+01        00000 
 1.73140e+00 -2.49432e+01        00000 
 1.94875e+00 -2.49452e+01        00000 
 2.16637e+00 -2.49474e+01        00000 
 2.38438e+00 -2.49499e+01        00000 
 2.60274e+00 -2.49526e+01        00000 
 2.82156e+00 -2.49555e+01        00000 
 3.04078e+00 -2.49587e+01        00000 
 3.26054e+00 -2.49622e+01        00000 
 3.48077e+00 -2.49659e+01        00000 
 3.70159e+00 -2.49698e+01        00000 
 3.92296e+00 -2.49740e+01        00000 
 4.14498e+00 -2.49785e+01        00000 
 4.36760e+00 -2.49833e+01        00000 
 4.59094e+00 -2.49883e+01        00000 
 4.81494e+00 -2.49936e+01        00000 
 5.03972e+00 -2.49991e+01        00000 
 5.26522e+00 -2.50050e+01        00000 
 5.49156e+00 -2.50111e+01        00000 
 5.71867e+00 -2.50175e+01        00000 
 5.94667e+00 -2.50243e+01        00000 
 6.17550e+00 -2.50313e+01        00000 
 6.40528e+00 -2.50386e+01        00000 
 6.63594e+00 -2.50462e+01        00000 
 6.86759e+00 -2.50541e+01        00000 
 7.10017e+00 -2.50623e+01        00000 
 7.33379e+00 -2.50709e+01        00000 
 7.56839e+00 -2.50797e+01        00000 
 7.80407e+00 -2.50889e+01        00000 
 8.04077e+00 -2.50983e+01        00000 
 8.27861e+00 -2.51081e+01        00000 
 8.51751e+00 -2.51182e+01        00000 
 8.75758e+00 -2.51287e+01        00000 
 8.99876e+00 -2.51394e+01        00000 
 9.24116e+00 -2.51505e+01        00000 
 9.48469e+00 -2.51619e+01        00000 
 9.72949e+00 -2.51736e+01        00000 
 9.97548e+00 -2.51856e+01        00000 
 1.02228e+01 -2.51979e+01        00000 
 1.04713e+01 -2.52106e+01        00000 
 1.07211e+01 -2.52235e+01        00000 
 1.09723e+01 -2.52367e+01        00000 
 1.12248e+01 -2.52502e+01        00000 
-1.12842e+01 -2.57594e+01        00000 
-1.10305e+01 -2.57464e+01        00000 
-1.07781e+01 -2.57337e+01        00000 
-1.05270e+01 -2.57212e+01        00000 
-1.02772e+01 -2.57091e+01        00000 
-1.00286e+01 -2.56972e+01        00000 
-9.78130e+00 -2.56857e+01        00000 
-9.53520e+00 -2.56744e+01        00000 
-9.29034e+00 -2.56635e+01        00000 
-9.04663e+00 -2.56529e+01        00000 
-8.80413e+00 -2.56426e+01        00000 
-8.56273e+00 -2.56326e+01        00000 
-8.32250e+00 -2.56229e+01        00000 
-8.08334e+00 -2.56135e+01        00000 
-7.84532e+00 -2.56045e+01        00000 
-7.60831e+00 -2.55957e+01        00000 
-7.37241e+00 -2.55873e+01        00000 
-7.13748e+00 -2.55792e+01        00000 
-6.90360e+00 -2.55713e+01        00000 
-6.67066e+00 -2.55638e+01        00000 
-6.43872e+00 -2.55566e+01        00000 
-6.20767e+00 -2.55497e+01        00000 
-5.97757e+00 -2.55430e+01        00000 
-5.74831e+00 -2.55367e+01        00000 
-5.51996e+00 -2.55306e+01        00000 
-5.29238e+00 -2.55248e+01        00000 
-5.06566e+00 -2.55193e+01        00000 
-4.83967e+00 -2.55140e+01        00000 
-4.61446e+00 -2.55090e+01        00000 
-4.38993e+00 -2.55043e+01        00000 
-4.16612e+00 -2.54998e+01        00000 
-3.94293e+00 -2.54956e+01        00000 
-3.72040e+00 -2.54916e+01        00000 
-3.49842e+00 -2.54879e+01        00000 
-3.27704e+00 -2.54844e+01        00000 
-3.05615e+00 -2.54812e+01        00000 
-2.83579e+00 -2.54782e+01        00000 
-2.61585e+00 -2.54754e+01        00000 
-2.39637e+00 -2.54729e+01        00000 
-2.17725e+00 -2.54705e+01        00000 
-1.95852e+00 -2.54685e+01        00000 
-1.74008e+00 -2.54666e+01        00000 
-1.52196e+00 -2.54650e+01        00000 
-1.30405e+00 -2.54636e+01        00000 
-1.08640e+00 -2.54624e+01        00000 
-8.68886e-01 -2.54614e+01        00000 
-6.51560e-01 -2.54606e+01        00000 
-4.34299e-01 -2.54601e+01        00000 
-2.17153e-01 -2.54598e+01        00000 
-1.19637e-12 -2.54597e+01        00000 
 2.17153e-01 -2.54598e+01        00000 
 4.34299e-01 -2.54601e+01        00000 
 6.51560e-01 -2.54606e+01        00000 
 8.68886e-01 -2.54614e+01        00000 
 1.08640e+00 -2.54624e+01        00000 
 1.30405e+00 -2.54636e+01        00000 
 1.52196e+00 -2.54650e+01        00000 
 1.74008e+00 -2.54666e+01        00000 
 1.95852e+00 -2.54685e+01        00000 
 2.17725e+00 -2.54705e+01        00000 
 2.39637e+00 -2.54729e+01        00000 
 2.61585e+00 -2.54754e+01        00000 
 2.83579e+00 -2.54782e+01        00000 
 3.05615e+00 -2.54812e+01        00000 
 3.27704e+00 -2.54844e+01        00000 
 3.49842e+00 -2.54879e+01        00000 
 3.72040e+00 -2.54916e+01        00000 
 3.94293e+00 -2.54956e+01        00000 
 4.16612e+00 -2.54998e+01        00000 
 4.38993e+00 -2.55043e+01        00000 
 4.61446e+00 -2.55090e+01        00000 
 4.83967e+00 -2.55140e+01        00000 
 5.06566e+00 -2.55193e+01        00000 
 5.29238e+00 -2.55248e+01        00000 
 5.51996e+00 -2.55306e+01        00000 
 5.74831e+00 -2.55367e+01        00000 
 5.97757e+00 -2.55430e+01        00000 
 6.20767e+00 -2.55497e+01        00000 
 6.43872e+00 -2.55566e+01        00000 
 6.67066e+00 -2.55638e+01        00000 
 6.90360e+00 -2.55713e+01        00000 
 7.13748e+00 -2.55792e+01        00000 
 7.37241e+00 -2.55873e+01        00000 
 7.60831e+00 -2.55957e+01        00000 
 7.84532e+00 -2.56045e+01        00000 
 8.08334e+00 -2.56135e+01        00000 
 8.32250e+00 -2.56229e+01        00000 
 8.56273e+00 -2.56326e+01        00000 
 8.80413e+00 -2.56426e+01        00000 
 9.04663e+00 -2.56529e+01        00000 
 9.29034e+00 -2.56635e+01        00000 
 9.53520e+00 -2.56744e+01        00000 
 9.78130e+00 -2.56857e+01        00000 
 1.00286e+01 -2.56972e+01        00000 
 1.02772e+01 -2.57091e+01        00000 
 1.05270e+01 -2.57212e+01        00000 
 1.07781e+01 -2.57337e+01        00000 
 1.10305e+01 -2.57464e+01        00000 
 1.12842e+01 -2.57594e+01        00000 
-1.13414e+01 -2.62710e+01        00000 
-1.10865e+01 -2.62585e+01        00000 
-1.08329e+01 -2.62462e+01        00000 
-1.05805e+01 -2.62342e+01        00000 
-1.03295e+01 -2.62226e+01        00000 
-1.00797e+01 -2.62112e+01        00000 
-9.83110e+00 -2.62001e+01        00000 
-9.58371e+00 -2.61893e+01        00000 
-9.33757e+00 -2.61788e+01        00000 
-9.09256e+00 -2.61686e+01        00000 
-8.84877e+00 -2.61588e+01        00000 
-8.60607e+00 -2.61492e+01        00000 
-8.36455e+00 -2.61400e+01        00000 
-8.12409e+00 -2.61310e+01        00000 
-7.88478e+00 -2.61224e+01        00000 
-7.64649e+00 -2.61141e+01        00000 
-7.40930e+00 -2.61061e+01        00000 
-7.17310e+00 -2.60984e+01        00000 
-6.93796e+00 -2.60909e+01        00000 
-6.70376e+00 -2.60838e+01        00000 
-6.47058e+00 -2.60770e+01        00000 
-6.23830e+00 -2.60704e+01        00000 
-6.00698e+00 -2.60641e+01        00000 
-5.77651e+00 -2.60581e+01        00000 
-5.54695e+00 -2.60524e+01        00000 
-5.31819e+00 -2.60469e+01        00000 
-5.09029e+00 -2.60417e+01        00000 
-4.86313e+00 -2.60368e+01        00000 
-4.63677e+00 -2.60321e+01        00000 
-4.41109e+00 -2.60277e+01        00000 
-4.18616e+00 -2.60235e+01        00000 
-3.96184e+00 -2.60195e+01        00000 
-3.73820e+00 -2.60158e+01        00000 
-3.51512e+00 -2.60123e+01        00000 
-3.29265e+00 -2.60091e+01        00000 
-3.07068e+00 -2.60060e+01        00000 
-2.84924e+00 -2.60032e+01        00000 
-2.62824e+00 -2.60006e+01        00000 
-2.40770e+00 -2.59982e+01        00000 
-2.18753e+00 -2.59961e+01        00000 
-1.96776e+00 -2.59941e+01        00000 
-1.74827e+00 -2.59924e+01        00000 
-1.52912e+00 -2.59909e+01        00000 
-1.31018e+00 -2.59896e+01        00000 
-1.09150e+00 -2.59885e+01        00000 
-8.72962e-01 -2.59875e+01        00000 
-6.54615e-01 -2.59868e+01        00000 
-4.36334e-01 -2.59863e+01        00000 
-2.18170e-01 -2.59860e+01        00000 
-1.20175e-12 -2.59859e+01        00000 
 2.18170e-01 -2.59860e+01        00000 
 4.36334e-01 -2.59863e+01        00000 
 6.54615e-01 -2.59868e+01        00000 
 8.72962e-01 -2.59875e+01        00000 
 1.09150e+00 -2.59885e+01        00000 
 1.31018e+00 -2.59896e+01        00000 
 1.52912e+00 -2.59909e+01        00000 
 1.74827e+00 -2.59924e+01        00000 
 1.96776e+00 -2.59941e+01        00000 
 2.18753e+00 -2.59961e+01        00000 
 2.40770e+00 -2.59982e+01        00000 
 2.62824e+00 -2.60006e+01        00000 
 2.84924e+00 -2.60032e+01        00000 
 3.07068e+00 -2.60060e+01        00000 
 3.29265e+00 -2.60091e+01        00000 
 3.51512e+00 -2.60123e+01        00000 
 3.73820e+00 -2.60158e+01        00000 
 3.96184e+00 -2.60195e+01        00000 
 4.18616e+00 -2.60235e+01        00000 
 4.41109e+00 -2.60277e+01        00000 
 4.63677e+00 -2.60321e+01        00000 
 4.86313e+00 -2.60368e+01        00000 
 5.09029e+00 -2.60417e+01        00000 
 5.31819e+00 -2.60469e+01        00000 
 5.54695e+00 -2.60524e+01        00000 
 5.77651e+00 -2.60581e+01        00000 
 6.00698e+00 -2.60641e+01        00000 
 6.23830e+00 -2.60704e+01        00000 
 6.47058e+00 -2.60770e+01        00000 
 6.70376e+00 -2.60838e+01        00000 
 6.93796e+00 -2.60909e+01        00000 
 7.17310e+00 -2.60984e+01        00000 
 7.40930e+00 -2.61061e+01        00000 
 7.64649e+00 -2.61141e+01        00000 
 7.88478e+00 -2.61224e+01        00000 
 8.12409e+00 -2.61310e+01        00000 
 8.36455e+00 -2.61400e+01        00000 
 8.60607e+00 -2.61492e+01        00000 
 8.84877e+00 -2.61588e+01        00000 
 9.09256e+00 -2.61686e+01        00000 
 9.33757e+00 -2.61788e+01        00000 
 9.58371e+00 -2.61893e+01        00000 
 9.83110e+00 -2.62001e+01        00000 
 1.00797e+01 -2.62112e+01        00000 
 1.03295e+01 -2.62226e+01        00000 
 1.05805e+01 -2.62342e+01        00000 
 1.08329e+01 -2.62462e+01        00000 
 1.10865e+01 -2.62585e+01        00000 
 1.13414e+01 -2.62710e+01        00000 
-1.13965e+01 -2.67849e+01        00000 
-1.11404e+01 -2.67728e+01        00000 
-1.08856e+01 -2.67610e+01        00000 
-1.06320e+01 -2.67495e+01        00000 
-1.03798e+01 -2.67383e+01        00000 
-1.01287e+01 -2.67274e+01        00000 
-9.87890e+00 -2.67168e+01        00000 
-9.63025e+00 -2.67064e+01        00000 
-9.38285e+00 -2.66964e+01        00000 
-9.13657e+00 -2.66867e+01        00000 
-8.89150e+00 -2.66773e+01        00000 
-8.64753e+00 -2.66682e+01        00000 
-8.40474e+00 -2.66594e+01        00000 
-8.16301e+00 -2.66509e+01        00000 
-7.92244e+00 -2.66427e+01        00000 
-7.68289e+00 -2.66348e+01        00000 
-7.44446e+00 -2.66272e+01        00000 
-7.20702e+00 -2.66199e+01        00000 
-6.97065e+00 -2.66129e+01        00000 
-6.73524e+00 -2.66061e+01        00000 
-6.50085e+00 -2.65997e+01        00000 
-6.26737e+00 -2.65935e+01        00000 
-6.03487e+00 -2.65876e+01        00000 
-5.80323e+00 -2.65819e+01        00000 
-5.57252e+00 -2.65766e+01        00000 
-5.34262e+00 -2.65714e+01        00000 
-5.11359e+00 -2.65666e+01        00000 
-4.88532e+00 -2.65619e+01        00000 
-4.65785e+00 -2.65575e+01        00000 
-4.43109e+00 -2.65534e+01        00000 
-4.20507e+00 -2.65495e+01        00000 
-3.97969e+00 -2.65458e+01        00000 
-3.75500e+00 -2.65423e+01        00000 
-3.53087e+00 -2.65390e+01        00000 
-3.30737e+00 -2.65360e+01        00000 
-3.08436e+00 -2.65332e+01        00000 
-2.86192e+00 -2.65306e+01        00000 
-2.63990e+00 -2.65281e+01        00000 
-2.41837e+00 -2.65259e+01        00000 
-2.19720e+00 -2.65239e+01        00000 
-1.97644e+00 -2.65221e+01        00000 
-1.75597e+00 -2.65205e+01        00000 
-1.53585e+00 -2.65191e+01        00000 
-1.31594e+00 -2.65179e+01        00000 
-1.09629e+00 -2.65168e+01        00000 
-8.76793e-01 -2.65160e+01        00000 
-6.57486e-01 -2.65153e+01        00000 
-4.38247e-01 -2.65148e+01        00000 
-2.19127e-01 -2.65146e+01        00000 
-1.22382e-12 -2.65145e+01        00000 
 2.19127e-01 -2.65146e+01        00000 
 4.38247e-01 -2.65148e+01        00000 
 6.57486e-01 -2.65153e+01        00000 
 8.76793e-01 -2.65160e+01        00000 
 1.09629e+00 -2.65168e+01        00000 
 1.31594e+00 -2.65179e+01        00000 
 1.53585e+00 -2.65191e+01        00000 
 1.75597e+00 -2.65205e+01        00000 
 1.97644e+00 -2.65221e+01        00000 
 2.19720e+00 -2.65239e+01        00000 
 2.41837e+00 -2.65259e+01        00000 
 2.63990e+00 -2.65281e+01        00000 
 2.86192e+00 -2.65306e+01        00000 
 3.08436e+00 -2.65332e+01        00000 
 3.30737e+00 -2.65360e+01        00000 
 3.53087e+00 -2.65390e+01        00000 
 3.75500e+00 -2.65423e+01        00000 
 3.97969e+00 -2.65458e+01        00000 
 4.20507e+00 -2.65495e+01        00000 
 4.43109e+00 -2.65534e+01        00000 
 4.65785e+00 -2.65575e+01        00000 
 4.88532e+00 -2.65619e+01        00000 
 5.11359e+00 -2.65666e+01        00000 
 5.34262e+00 -2.65714e+01        00000 
 5.57252e+00 -2.65766e+01        00000 
 5.80323e+00 -2.65819e+01        00000 
 6.03487e+00 -2.65876e+01        00000 
 6.26737e+00 -2.65935e+01        00000 
 6.50085e+00 -2.65997e+01        00000 
 6.73524e+00 -2.66061e+01        00000 
 6.97065e+00 -2.66129e+01        00000 
 7.20702e+00 -2.66199e+01        00000 
 7.44446e+00 -2.66272e+01        00000 
 7.68289e+00 -2.66348e+01        00000 
 7.92244e+00 -2.66427e+01        00000 
 8.16301e+00 -2.66509e+01        00000 
 8.40474e+00 -2.66594e+01        00000 
 8.64753e+00 -2.66682e+01        00000 
 8.89150e+00 -2.66773e+01        00000 
 9.13657e+00 -2.66867e+01        00000 
 9.38285e+00 -2.66964e+01        00000 
 9.63025e+00 -2.67064e+01        00000 
 9.87890e+00 -2.67168e+01        00000 
 1.01287e+01 -2.67274e+01        00000 
 1.03798e+01 -2.67383e+01        00000 
 1.06320e+01 -2.67495e+01        00000 
 1.08856e+01 -2.67610e+01        00000 
 1.11404e+01 -2.67728e+01        00000 
 1.13965e+01 -2.67849e+01        00000 
-1.14494e+01 -2.73010e+01        00000 
-1.11922e+01 -2.72894e+01        00000 
-1.09362e+01 -2.72781e+01        00000 
-1.06815e+01 -2.72671e+01        00000 
-1.04280e+01 -2.72563e+01        00000 
-1.01757e+01 -2.72458e+01        00000 
-9.92472e+00 -2.72357e+01        00000 
-9.67483e+00 -2.72258e+01        00000 
-9.42617e+00 -2.72162e+01        00000 
-9.17865e+00 -2.72069e+01        00000 
-8.93233e+00 -2.71980e+01        00000 
-8.68710e+00 -2.71893e+01        00000 
-8.44307e+00 -2.71810e+01        00000 
-8.20010e+00 -2.71729e+01        00000 
-7.95829e+00 -2.71651e+01        00000 
-7.71752e+00 -2.71577e+01        00000 
-7.47787e+00 -2.71505e+01        00000 
-7.23922e+00 -2.71436e+01        00000 
-7.00166e+00 -2.71370e+01        00000 
-6.76507e+00 -2.71306e+01        00000 
-6.52951e+00 -2.71246e+01        00000 
-6.29488e+00 -2.71188e+01        00000 
-6.06124e+00 -2.71132e+01        00000 
-5.82848e+00 -2.71080e+01        00000 
-5.59666e+00 -2.71029e+01        00000 
-5.36567e+00 -2.70981e+01        00000 
-5.13556e+00 -2.70936e+01        00000 
-4.90622e+00 -2.70893e+01        00000 
-4.67770e+00 -2.70852e+01        00000 
-4.44990e+00 -2.70813e+01        00000 
-4.22286e+00 -2.70777e+01        00000 
-3.99646e+00 -2.70742e+01        00000 
-3.77077e+00 -2.70710e+01        00000 
-3.54565e+00 -2.70680e+01        00000 
-3.32117e+00 -2.70651e+01        00000 
-3.09720e+00 -2.70625e+01        00000 
-2.87380e+00 -2.70601e+01        00000 
-2.65083e+00 -2.70578e+01        00000 
-2.42836e+00 -2.70558e+01        00000 
-2.20626e+00 -2.70539e+01        00000 
-1.98458e+00 -2.70523e+01        00000 
-1.76319e+00 -2.70508e+01        00000 
-1.54215e+00 -2.70494e+01        00000 
-1.32133e+00 -2.70483e+01        00000 
-1.10078e+00 -2.70474e+01        00000 
-8.80379e-01 -2.70466e+01        00000 
-6.60173e-01 -2.70460e+01        00000 
-4.40037e-01 -2.70455e+01        00000 
-2.20021e-01 -2.70453e+01        00000 
-1.22774e-12 -2.70452e+01        00000 
 2.20021e-01 -2.70453e+01        00000 
 4.40037e-01 -2.70455e+01        00000 
 6.60173e-01 -2.70460e+01        00000 
 8.80379e-01 -2.70466e+01        00000 
 1.10078e+00 -2.70474e+01        00000 
 1.32133e+00 -2.70483e+01        00000 
 1.54215e+00 -2.70494e+01        00000 
 1.76319e+00 -2.70508e+01        00000 
 1.98458e+00 -2.70523e+01        00000 
 2.20626e+00 -2.70539e+01        00000 
 2.42836e+00 -2.70558e+01        00000 
 2.65083e+00 -2.70578e+01        00000 
 2.87380e+00 -2.70601e+01        00000 
 3.09720e+00 -2.70625e+01        00000 
 3.32117e+00 -2.70651e+01        00000 
 3.54565e+00 -2.70680e+01        00000 
 3.77077e+00 -2.70710e+01        00000 
 3.99646e+00 -2.70742e+01        00000 
 4.22286e+00 -2.70777e+01        00000 
 4.44990e+00 -2.70813e+01        00000 
 4.67770e+00 -2.70852e+01        00000 
 4.90622e+00 -2.70893e+01        00000 
 5.13556e+00 -2.70936e+01        00000 
 5.36567e+00 -2.70981e+01        00000 
 5.59666e+00 -2.71029e+01        00000 
 5.82848e+00 -2.71080e+01        00000 
 6.06124e+00 -2.71132e+01        00000 
 6.29488e+00 -2.71188e+01        00000 
 6.52951e+00 -2.71246e+01        00000 
 6.76507e+00 -2.71306e+01        00000 
 7.00166e+00 -2.71370e+01        00000 
 7.23922e+00 -2.71436e+01        00000 
 7.47787e+00 -2.71505e+01        00000 
 7.71752e+00 -2.71577e+01        00000 
 7.95829e+00 -2.71651e+01        00000 
 8.20010e+00 -2.71729e+01        00000 
 8.44307e+00 -2.71810e+01        00000 
 8.68710e+00 -2.71893e+01        00000 
 8.93233e+00 -2.71980e+01        00000 
 9.17865e+00 -2.72069e+01        00000 
 9.42617e+00 -2.72162e+01        00000 
 9.67483e+00 -2.72258e+01        00000 
 9.92472e+00 -2.72357e+01        00000 
 1.01757e+01 -2.72458e+01        00000 
 1.04280e+01 -2.72563e+01        00000 
 1.06815e+01 -2.72671e+01        00000 
 1.09362e+01 -2.72781e+01        00000 
 1.11922e+01 -2.72894e+01        00000 
 1.14494e+01 -2.73010e+01        00000 
-1.15003e+01 -2.78193e+01        00000 
-1.12419e+01 -2.78082e+01        00000 
-1.09849e+01 -2.77973e+01        00000 
-1.07289e+01 -2.77867e+01        00000 
-1.04743e+01 -2.77764e+01        00000 
-1.02208e+01 -2.77664e+01        00000 
-9.96856e+00 -2.77567e+01        00000 
-9.71745e+00 -2.77473e+01        00000 
-9.46756e+00 -2.77382e+01        00000 
-9.21880e+00 -2.77293e+01        00000 
-8.97124e+00 -2.77208e+01        00000 
-8.72479e+00 -2.77126e+01        00000 
-8.47953e+00 -2.77047e+01        00000 
-8.23534e+00 -2.76971e+01        00000 
-7.99232e+00 -2.76897e+01        00000 
-7.75035e+00 -2.76827e+01        00000 
-7.50951e+00 -2.76759e+01        00000 
-7.26969e+00 -2.76695e+01        00000 
-7.03097e+00 -2.76633e+01        00000 
-6.79323e+00 -2.76573e+01        00000 
-6.55655e+00 -2.76517e+01        00000 
-6.32080e+00 -2.76462e+01        00000 
-6.08607e+00 -2.76411e+01        00000 
-5.85223e+00 -2.76361e+01        00000 
-5.61935e+00 -2.76315e+01        00000 
-5.38731e+00 -2.76270e+01        00000 
-5.15617e+00 -2.76228e+01        00000 
-4.92581e+00 -2.76187e+01        00000 
-4.69630e+00 -2.76149e+01        00000 
-4.46751e+00 -2.76114e+01        00000 
-4.23950e+00 -2.76080e+01        00000 
-4.01215e+00 -2.76048e+01        00000 
-3.78552e+00 -2.76018e+01        00000 
-3.55947e+00 -2.75990e+01        00000 
-3.33407e+00 -2.75964e+01        00000 
-3.10919e+00 -2.75940e+01        00000 
-2.88489e+00 -2.75917e+01        00000 
-2.66104e+00 -2.75896e+01        00000 
-2.43768e+00 -2.75877e+01        00000 
-2.21471e+00 -2.75860e+01        00000 
-1.99216e+00 -2.75845e+01        00000 
-1.76992e+00 -2.75831e+01        00000 
-1.54802e+00 -2.75819e+01        00000 
-1.32635e+00 -2.75808e+01        00000 
-1.10496e+00 -2.75799e+01        00000 
-8.83719e-01 -2.75792e+01        00000 
-6.62676e-01 -2.75786e+01        00000 
-4.41705e-01 -2.75782e+01        00000 
-2.20855e-01 -2.75780e+01        00000 
-1.23570e-12 -2.75779e+01        00000 
 2.20855e-01 -2.75780e+01        00000 
 4.41705e-01 -2.75782e+01        00000 
 6.62676e-01 -2.75786e+01        00000 
 8.83719e-01 -2.75792e+01        00000 
 1.10496e+00 -2.75799e+01        00000 
 1.32635e+00 -2.75808e+01        00000 
 1.54802e+00 -2.75819e+01        00000 
 1.76992e+00 -2.75831e+01        00000 
 1.99216e+00 -2.75845e+01        00000 
 2.21471e+00 -2.75860e+01        00000 
 2.43768e+00 -2.75877e+01        00000 
 2.66104e+00 -2.75896e+01        00000 
 2.88489e+00 -2.75917e+01        00000 
 3.10919e+00 -2.75940e+01        00000 
 3.33407e+00 -2.75964e+01        00000 
 3.55947e+00 -2.75990e+01        00000 
 3.78552e+00 -2.76018e+01        00000 
 4.01215e+00 -2.76048e+01        00000 
 4.23950e+00 -2.76080e+01        00000 
 4.46751e+00 -2.76114e+01        00000 
 4.69630e+00 -2.76149e+01        00000 
 4.92581e+00 -2.76187e+01        00000 
 5.15617e+00 -2.76228e+01        00000 
 5.38731e+00 -2.76270e+01        00000 
 5.61935e+00 -2.76315e+01        00000 
 5.85223e+00 -2.76361e+01        00000 
 6.08607e+00 -2.76411e+01        00000 
 6.32080e+00 -2.76462e+01        00000 
 6.55655e+00 -2.76517e+01        00000 
 6.79323e+00 -2.76573e+01        00000 
 7.03097e+00 -2.76633e+01        00000 
 7.26969e+00 -2.76695e+01        00000 
 7.50951e+00 -2.76759e+01        00000 
 7.75035e+00 -2.76827e+01        00000 
 7.99232e+00 -2.76897e+01        00000 
 8.23534e+00 -2.76971e+01        00000 
 8.47953e+00 -2.77047e+01        00000 
 8.72479e+00 -2.77126e+01        00000 
 8.97124e+00 -2.77208e+01        00000 
 9.21880e+00 -2.77293e+01        00000 
 9.46756e+00 -2.77382e+01        00000 
 9.71745e+00 -2.77473e+01        00000 
 9.96856e+00 -2.77567e+01        00000 
 1.02208e+01 -2.77664e+01        00000 
 1.04743e+01 -2.77764e+01        00000 
 1.07289e+01 -2.77867e+01        00000 
 1.09849e+01 -2.77973e+01        00000 
 1.12419e+01 -2.78082e+01        00000 
 1.15003e+01 -2.78193e+01        00000 
-1.15491e+01 -2.83397e+01        00000 
-1.12897e+01 -2.83291e+01        00000 
-1.10315e+01 -2.83187e+01        00000 
-1.07744e+01 -2.83085e+01        00000 
-1.05186e+01 -2.82987e+01        00000 
-1.02639e+01 -2.82891e+01        00000 
-1.00104e+01 -2.82798e+01        00000 
-9.75812e+00 -2.82709e+01        00000 
-9.50701e+00 -2.82622e+01        00000 
-9.25702e+00 -2.82538e+01        00000 
-9.00825e+00 -2.82458e+01        00000 
-8.76058e+00 -2.82380e+01        00000 
-8.51411e+00 -2.82305e+01        00000 
-8.26872e+00 -2.82233e+01        00000 
-8.02451e+00 -2.82164e+01        00000 
-7.78137e+00 -2.82098e+01        00000 
-7.53937e+00 -2.82035e+01        00000 
-7.29841e+00 -2.81974e+01        00000 
-7.05856e+00 -2.81916e+01        00000 
-6.81971e+00 -2.81861e+01        00000 
-6.58194e+00 -2.81808e+01        00000 
-6.34513e+00 -2.81758e+01        00000 
-6.10935e+00 -2.81710e+01        00000 
-5.87447e+00 -2.81664e+01        00000 
-5.64058e+00 -2.81621e+01        00000 
-5.40754e+00 -2.81579e+01        00000 
-5.17542e+00 -2.81540e+01        00000 
-4.94411e+00 -2.81503e+01        00000 
-4.71365e+00 -2.81468e+01        00000 
-4.48393e+00 -2.81435e+01        00000 
-4.25501e+00 -2.81403e+01        00000 
-4.02676e+00 -2.81374e+01        00000 
-3.79924e+00 -2.81346e+01        00000 
-3.57232e+00 -2.81320e+01        00000 
-3.34606e+00 -2.81296e+01        00000 
-3.12033e+00 -2.81274e+01        00000 
-2.89519e+00 -2.81253e+01        00000 
-2.67051e+00 -2.81234e+01        00000 
-2.44634e+00 -2.81216e+01        00000 
-2.22255e+00 -2.81201e+01        00000 
-1.99920e+00 -2.81186e+01        00000 
-1.77615e+00 -2.81173e+01        00000 
-1.55347e+00 -2.81162e+01        00000 
-1.33101e+00 -2.81152e+01        00000 
-1.10884e+00 -2.81144e+01        00000 
-8.86816e-01 -2.81138e+01        00000 
-6.64995e-01 -2.81132e+01        00000 
-4.43250e-01 -2.81129e+01        00000 
-2.21627e-01 -2.81126e+01        00000 
-1.24718e-12 -2.81126e+01        00000 
 2.21627e-01 -2.81126e+01        00000 
 4.43250e-01 -2.81129e+01        00000 
 6.64995e-01 -2.81132e+01        00000 
 8.86816e-01 -2.81138e+01        00000 
 1.10884e+00 -2.81144e+01        00000 
 1.33101e+00 -2.81152e+01        00000 
 1.55347e+00 -2.81162e+01        00000 
 1.77615e+00 -2.81173e+01        00000 
 1.99920e+00 -2.81186e+01        00000 
 2.22255e+00 -2.81201e+01        00000 
 2.44634e+00 -2.81216e+01        00000 
 2.67051e+00 -2.81234e+01        00000 
 2.89519e+00 -2.81253e+01        00000 
 3.12033e+00 -2.81274e+01        00000 
 3.34606e+00 -2.81296e+01        00000 
 3.57232e+00 -2.81320e+01        00000 
 3.79924e+00 -2.81346e+01        00000 
 4.02676e+00 -2.81374e+01        00000 
 4.25501e+00 -2.81403e+01        00000 
 4.48393e+00 -2.81435e+01        00000 
 4.71365e+00 -2.81468e+01        00000 
 4.94411e+00 -2.81503e+01        00000 
 5.17542e+00 -2.81540e+01        00000 
 5.40754e+00 -2.81579e+01        00000 
 5.64058e+00 -2.81621e+01        00000 
 5.87447e+00 -2.81664e+01        00000 
 6.10935e+00 -2.81710e+01        00000 
 6.34513e+00 -2.81758e+01        00000 
 6.58194e+00 -2.81808e+01        00000 
 6.81971e+00 -2.81861e+01        00000 
 7.05856e+00 -2.81916e+01        00000 
 7.29841e+00 -2.81974e+01        00000 
 7.53937e+00 -2.82035e+01        00000 
 7.78137e+00 -2.82098e+01        00000 
 8.02451e+00 -2.82164e+01        00000 
 8.26872e+00 -2.82233e+01        00000 
 8.51411e+00 -2.82305e+01        00000 
 8.76058e+00 -2.82380e+01        00000 
 9.00825e+00 -2.82458e+01        00000 
 9.25702e+00 -2.82538e+01        00000 
 9.50701e+00 -2.82622e+01        00000 
 9.75812e+00 -2.82709e+01        00000 
 1.00104e+01 -2.82798e+01        00000 
 1.02639e+01 -2.82891e+01        00000 
 1.05186e+01 -2.82987e+01        00000 
 1.07744e+01 -2.83085e+01        00000 
 1.10315e+01 -2.83187e+01        00000 
 1.12897e+01 -2.83291e+01        00000 
 1.15491e+01 -2.83397e+01        00000 
-1.15960e+01 -2.88623e+01        00000 
-1.13354e+01 -2.88521e+01        00000 
-1.10761e+01 -2.88421e+01        00000 
-1.08179e+01 -2.88324e+01        00000 
-1.05609e+01 -2.88230e+01        00000 
-1.03050e+01 -2.88139e+01        00000 
-1.00504e+01 -2.88050e+01        00000 
-9.79685e+00 -2.87965e+01        00000 
-9.54453e+00 -2.87883e+01        00000 
-9.29332e+00 -2.87804e+01        00000 
-9.04334e+00 -2.87727e+01        00000 
-8.79446e+00 -2.87654e+01        00000 
-8.54679e+00 -2.87584e+01        00000 
-8.30023e+00 -2.87516e+01        00000 
-8.05485e+00 -2.87452e+01        00000 
-7.81055e+00 -2.87390e+01        00000 
-7.56743e+00 -2.87331e+01        00000 
-7.32535e+00 -2.87275e+01        00000 
-7.08442e+00 -2.87221e+01        00000 
-6.84450e+00 -2.87169e+01        00000 
-6.60568e+00 -2.87120e+01        00000 
-6.36784e+00 -2.87074e+01        00000 
-6.13105e+00 -2.87029e+01        00000 
-5.89519e+00 -2.86987e+01        00000 
-5.66034e+00 -2.86947e+01        00000 
-5.42635e+00 -2.86908e+01        00000 
-5.19331e+00 -2.86872e+01        00000 
-4.96109e+00 -2.86838e+01        00000 
-4.72974e+00 -2.86806e+01        00000 
-4.49915e+00 -2.86775e+01        00000 
-4.26938e+00 -2.86746e+01        00000 
-4.04029e+00 -2.86719e+01        00000 
-3.81194e+00 -2.86693e+01        00000 
-3.58421e+00 -2.86670e+01        00000 
-3.35715e+00 -2.86647e+01        00000 
-3.13063e+00 -2.86627e+01        00000 
-2.90471e+00 -2.86607e+01        00000 
-2.67926e+00 -2.86590e+01        00000 
-2.45433e+00 -2.86574e+01        00000 
-2.22979e+00 -2.86559e+01        00000 
-2.00569e+00 -2.86546e+01        00000 
-1.78191e+00 -2.86534e+01        00000 
-1.55849e+00 -2.86524e+01        00000 
-1.33531e+00 -2.86515e+01        00000 
-1.11241e+00 -2.86507e+01        00000 
-8.89671e-01 -2.86501e+01        00000 
-6.67134e-01 -2.86496e+01        00000 
-4.44675e-01 -2.86493e+01        00000 
-2.22339e-01 -2.86491e+01        00000 
-1.27034e-12 -2.86490e+01        00000 
 2.22339e-01 -2.86491e+01        00000 
 4.44675e-01 -2.86493e+01        00000 
 6.67134e-01 -2.86496e+01        00000 
 8.89671e-01 -2.86501e+01        00000 
 1.11241e+00 -2.86507e+01        00000 
 1.33531e+00 -2.86515e+01        00000 
 1.55849e+00 -2.86524e+01        00000 
 1.78191e+00 -2.86534e+01        00000 
 2.00569e+00 -2.86546e+01        00000 
 2.22979e+00 -2.86559e+01        00000 
 2.45433e+00 -2.86574e+01        00000 
 2.67926e+00 -2.86590e+01        00000 
 2.90471e+00 -2.86607e+01        00000 
 3.13063e+00 -2.86627e+01        00000 
 3.35715e+00 -2.86647e+01        00000 
 3.58421e+00 -2.86670e+01        00000 
 3.81194e+00 -2.86693e+01        00000 
 4.04029e+00 -2.86719e+01        00000 
 4.26938e+00 -2.86746e+01        00000 
 4.49915e+00 -2.86775e+01        00000 
 4.72974e+00 -2.86806e+01        00000 
 4.96109e+00 -2.86838e+01        00000 
 5.19331e+00 -2.86872e+01        00000 
 5.42635e+00 -2.86908e+01        00000 
 5.66034e+00 -2.86947e+01        00000 
 5.89519e+00 -2.86987e+01        00000 
 6.13105e+00 -2.87029e+01        00000 
 6.36784e+00 -2.87074e+01        00000 
 6.60568e+00 -2.87120e+01        00000 
 6.84450e+00 -2.87169e+01        00000 
 7.08442e+00 -2.87221e+01        00000 
 7.32535e+00 -2.87275e+01        00000 
 7.56743e+00 -2.87331e+01        00000 
 7.81055e+00 -2.87390e+01        00000 
 8.05485e+00 -2.87452e+01        00000 
 8.30023e+00 -2.87516e+01        00000 
 8.54679e+00 -2.87584e+01        00000 
 8.79446e+00 -2.87654e+01        00000 
 9.04334e+00 -2.87727e+01        00000 
 9.29332e+00 -2.87804e+01        00000 
 9.54453e+00 -2.87883e+01        00000 
 9.79685e+00 -2.87965e+01        00000 
 1.00504e+01 -2.88050e+01        00000 
 1.03050e+01 -2.88139e+01        00000 
 1.05609e+01 -2.88230e+01        00000 
 1.08179e+01 -2.88324e+01        00000 
 1.10761e+01 -2.88421e+01        00000 
 1.13354e+01 -2.88521e+01        00000 
 1.15960e+01 -2.88623e+01        00000 
-1.16410e+01 -2.93869e+01        00000 
-1.13793e+01 -2.93771e+01        00000 
-1.11189e+01 -2.93676e+01        00000 
-1.08595e+01 -2.93583e+01        00000 
-1.06013e+01 -2.93493e+01        00000 
-1.03443e+01 -2.93406e+01        00000 
-1.00884e+01 -2.93322e+01        00000 
-9.83364e+00 -2.93242e+01        00000 
-9.58011e+00 -2.93164e+01        00000 
-9.32769e+00 -2.93089e+01        00000 
-9.07649e+00 -2.93017e+01        00000 
-8.82642e+00 -2.92949e+01        00000 
-8.57757e+00 -2.92883e+01        00000 
-8.32984e+00 -2.92820e+01        00000 
-8.08332e+00 -2.92760e+01        00000 
-7.83790e+00 -2.92702e+01        00000 
-7.59367e+00 -2.92647e+01        00000 
-7.35052e+00 -2.92595e+01        00000 
-7.10852e+00 -2.92545e+01        00000 
-6.86758e+00 -2.92497e+01        00000 
-6.62775e+00 -2.92452e+01        00000 
-6.38893e+00 -2.92409e+01        00000 
-6.15118e+00 -2.92368e+01        00000 
-5.91439e+00 -2.92329e+01        00000 
-5.67862e+00 -2.92292e+01        00000 
-5.44375e+00 -2.92257e+01        00000 
-5.20984e+00 -2.92224e+01        00000 
-4.97676e+00 -2.92192e+01        00000 
-4.74459e+00 -2.92162e+01        00000 
-4.51318e+00 -2.92134e+01        00000 
-4.28261e+00 -2.92107e+01        00000 
-4.05274e+00 -2.92082e+01        00000 
-3.82362e+00 -2.92059e+01        00000 
-3.59514e+00 -2.92037e+01        00000 
-3.36734e+00 -2.92016e+01        00000 
-3.14009e+00 -2.91997e+01        00000 
-2.91345e+00 -2.91979e+01        00000 
-2.68729e+00 -2.91963e+01        00000 
-2.46166e+00 -2.91948e+01        00000 
-2.23643e+00 -2.91934e+01        00000 
-2.01165e+00 -2.91922e+01        00000 
-1.78719e+00 -2.91911e+01        00000 
-1.56310e+00 -2.91901e+01        00000 
-1.33925e+00 -2.91893e+01        00000 
-1.11569e+00 -2.91886e+01        00000 
-8.92289e-01 -2.91880e+01        00000 
-6.69096e-01 -2.91876e+01        00000 
-4.45981e-01 -2.91873e+01        00000 
-2.22992e-01 -2.91871e+01        00000 
-1.28241e-12 -2.91870e+01        00000 
 2.22992e-01 -2.91871e+01        00000 
 4.45981e-01 -2.91873e+01        00000 
 6.69096e-01 -2.91876e+01        00000 
 8.92289e-01 -2.91880e+01        00000 
 1.11569e+00 -2.91886e+01        00000 
 1.33925e+00 -2.91893e+01        00000 
 1.56310e+00 -2.91901e+01        00000 
 1.78719e+00 -2.91911e+01        00000 
 2.01165e+00 -2.91922e+01        00000 
 2.23643e+00 -2.91934e+01        00000 
 2.46166e+00 -2.91948e+01        00000 
 2.68729e+00 -2.91963e+01        00000 
 2.91345e+00 -2.91979e+01        00000 
 3.14009e+00 -2.91997e+01        00000 
 3.36734e+00 -2.92016e+01        00000 
 3.59514e+00 -2.92037e+01        00000 
 3.82362e+00 -2.92059e+01        00000 
 4.05274e+00 -2.92082e+01        00000 
 4.28261e+00 -2.92107e+01        00000 
 4.51318e+00 -2.92134e+01        00000 
 4.74459e+00 -2.92162e+01        00000 
 4.97676e+00 -2.92192e+01        00000 
 5.20984e+00 -2.92224e+01        00000 
 5.44375e+00 -2.92257e+01        00000 
 5.67862e+00 -2.92292e+01        00000 
 5.91439e+00 -2.92329e+01        00000 
 6.15118e+00 -2.92368e+01        00000 
 6.38893e+00 -2.92409e+01        00000 
 6.62775e+00 -2.92452e+01        00000 
 6.86758e+00 -2.92497e+01        00000 
 7.10852e+00 -2.92545e+01        00000 
 7.35052e+00 -2.92595e+01        00000 
 7.59367e+00 -2.92647e+01        00000 
 7.83790e+00 -2.92702e+01        00000 
 8.08332e+00 -2.92760e+01        00000 
 8.32984e+00 -2.92820e+01        00000 
 8.57757e+00 -2.92883e+01        00000 
 8.82642e+00 -2.92949e+01        00000 
 9.07649e+00 -2.93017e+01        00000 
 9.32769e+00 -2.93089e+01        00000 
 9.58011e+00 -2.93164e+01        00000 
 9.83364e+00 -2.93242e+01        00000 
 1.00884e+01 -2.93322e+01        00000 
 1.03443e+01 -2.93406e+01        00000 
 1.06013e+01 -2.93493e+01        00000 
 1.08595e+01 -2.93583e+01        00000 
 1.11189e+01 -2.93676e+01        00000 
 1.13793e+01 -2.93771e+01        00000 
 1.16410e+01 -2.93869e+01        00000 
-1.16841e+01 -2.99136e+01        00000 
-1.14214e+01 -2.99042e+01        00000 
-1.11598e+01 -2.98951e+01        00000 
-1.08992e+01 -2.98862e+01        00000 
-1.06399e+01 -2.98777e+01        00000 
-1.03816e+01 -2.98694e+01        00000 
-1.01245e+01 -2.98615e+01        00000 
-9.86851e+00 -2.98538e+01        00000 
-9.61375e+00 -2.98465e+01        00000 
-9.36011e+00 -2.98395e+01        00000 
-9.10771e+00 -2.98328e+01        00000 
-8.85645e+00 -2.98263e+01        00000 
-8.60642e+00 -2.98202e+01        00000 
-8.35754e+00 -2.98143e+01        00000 
-8.10989e+00 -2.98088e+01        00000 
-7.86337e+00 -2.98034e+01        00000 
-7.61807e+00 -2.97984e+01        00000 
-7.37388e+00 -2.97935e+01        00000 
-7.13087e+00 -2.97889e+01        00000 
-6.88893e+00 -2.97845e+01        00000 
-6.64815e+00 -2.97804e+01        00000 
-6.40839e+00 -2.97764e+01        00000 
-6.16974e+00 -2.97726e+01        00000 
-5.93206e+00 -2.97690e+01        00000 
-5.69543e+00 -2.97656e+01        00000 
-5.45972e+00 -2.97624e+01        00000 
-5.22500e+00 -2.97593e+01        00000 
-4.99114e+00 -2.97564e+01        00000 
-4.75819e+00 -2.97536e+01        00000 
-4.52603e+00 -2.97510e+01        00000 
-4.29472e+00 -2.97486e+01        00000 
-4.06413e+00 -2.97463e+01        00000 
-3.83430e+00 -2.97441e+01        00000 
-3.60513e+00 -2.97420e+01        00000 
-3.37665e+00 -2.97401e+01        00000 
-3.14873e+00 -2.97383e+01        00000 
-2.92144e+00 -2.97367e+01        00000 
-2.69463e+00 -2.97352e+01        00000 
-2.46836e+00 -2.97338e+01        00000 
-2.24249e+00 -2.97325e+01        00000 
-2.01709e+00 -2.97313e+01        00000 
-1.79201e+00 -2.97303e+01        00000 
-1.56731e+00 -2.97294e+01        00000 
-1.34285e+00 -2.97286e+01        00000 
-1.11868e+00 -2.97280e+01        00000 
-8.94678e-01 -2.97274e+01        00000 
-6.70886e-01 -2.97270e+01        00000 
-4.47173e-01 -2.97267e+01        00000 
-2.23588e-01 -2.97265e+01        00000 
-1.28449e-12 -2.97265e+01        00000 
 2.23588e-01 -2.97265e+01        00000 
 4.47173e-01 -2.97267e+01        00000 
 6.70886e-01 -2.97270e+01        00000 
 8.94678e-01 -2.97274e+01        00000 
 1.11868e+00 -2.97280e+01        00000 
 1.34285e+00 -2.97286e+01        00000 
 1.56731e+00 -2.97294e+01        00000 
 1.79201e+00 -2.97303e+01        00000 
 2.01709e+00 -2.97313e+01        00000 
 2.24249e+00 -2.97325e+01        00000 
 2.46836e+00 -2.97338e+01        00000 
 2.69463e+00 -2.97352e+01        00000 
 2.92144e+00 -2.97367e+01        00000 
 3.14873e+00 -2.97383e+01        00000 
 3.37665e+00 -2.97401e+01        00000 
 3.60513e+00 -2.97420e+01        00000 
 3.83430e+00 -2.97441e+01        00000 
 4.06413e+00 -2.97463e+01        00000 
 4.29472e+00 -2.97486e+01        00000 
 4.52603e+00 -2.97510e+01        00000 
 4.75819e+00 -2.97536e+01        00000 
 4.99114e+00 -2.97564e+01        00000 
 5.22500e+00 -2.97593e+01        00000 
 5.45972e+00 -2.97624e+01        00000 
 5.69543e+00 -2.97656e+01        00000 
 5.93206e+00 -2.97690e+01        00000 
 6.16974e+00 -2.97726e+01        00000 
 6.40839e+00 -2.97764e+01        00000 
 6.64815e+00 -2.97804e+01        00000 
 6.88893e+00 -2.97845e+01        00000 
 7.13087e+00 -2.97889e+01        00000 
 7.37388e+00 -2.97935e+01        00000 
 7.61807e+00 -2.97984e+01        00000 
 7.86337e+00 -2.98034e+01        00000 
 8.10989e+00 -2.98088e+01        00000 
 8.35754e+00 -2.98143e+01        00000 
 8.60642e+00 -2.98202e+01        00000 
 8.85645e+00 -2.98263e+01        00000 
 9.10771e+00 -2.98328e+01        00000 
 9.36011e+00 -2.98395e+01        00000 
 9.61375e+00 -2.98465e+01        00000 
 9.86851e+00 -2.98538e+01        00000 
 1.01245e+01 -2.98615e+01        00000 
 1.03816e+01 -2.98694e+01        00000 
 1.06399e+01 -2.98777e+01        00000 
 1.08992e+01 -2.98862e+01        00000 
 1.11598e+01 -2.98951e+01        00000 
 1.14214e+01 -2.99042e+01        00000 
 1.16841e+01 -2.99136e+01        00000 
-1.17254e+01 -3.04424e+01        00000 
-1.14616e+01 -3.04334e+01        00000 
-1.11989e+01 -3.04247e+01        00000 
-1.09371e+01 -3.04162e+01        00000 
-1.06765e+01 -3.04081e+01        00000 
-1.04170e+01 -3.04003e+01        00000 
-1.01587e+01 -3.03928e+01        00000 
-9.90145e+00 -3.03856e+01        00000 
-9.64545e+00 -3.03787e+01        00000 
-9.39058e+00 -3.03721e+01        00000 
-9.13697e+00 -3.03658e+01        00000 
-8.88452e+00 -3.03598e+01        00000 
-8.63333e+00 -3.03541e+01        00000 
-8.38331e+00 -3.03487e+01        00000 
-8.13456e+00 -3.03436e+01        00000 
-7.88697e+00 -3.03386e+01        00000 
-7.64063e+00 -3.03340e+01        00000 
-7.39542e+00 -3.03295e+01        00000 
-7.15144e+00 -3.03253e+01        00000 
-6.90856e+00 -3.03213e+01        00000 
-6.66686e+00 -3.03174e+01        00000 
-6.42622e+00 -3.03138e+01        00000 
-6.18672e+00 -3.03103e+01        00000 
-5.94822e+00 -3.03070e+01        00000 
-5.71079e+00 -3.03039e+01        00000 
-5.47430e+00 -3.03009e+01        00000 
-5.23883e+00 -3.02980e+01        00000 
-5.00423e+00 -3.02953e+01        00000 
-4.77057e+00 -3.02928e+01        00000 
-4.53772e+00 -3.02903e+01        00000 
-4.30573e+00 -3.02881e+01        00000 
-4.07448e+00 -3.02859e+01        00000 
-3.84402e+00 -3.02838e+01        00000 
-3.61421e+00 -3.02819e+01        00000 
-3.38511e+00 -3.02801e+01        00000 
-3.15658e+00 -3.02784e+01        00000 
-2.92869e+00 -3.02769e+01        00000 
-2.70129e+00 -3.02754e+01        00000 
-2.47444e+00 -3.02741e+01        00000 
-2.24800e+00 -3.02729e+01        00000 
-2.02203e+00 -3.02718e+01        00000 
-1.79638e+00 -3.02708e+01        00000 
-1.57112e+00 -3.02700e+01        00000 
-1.34611e+00 -3.02692e+01        00000 
-1.12140e+00 -3.02686e+01        00000 
-8.96847e-01 -3.02681e+01        00000 
-6.72510e-01 -3.02677e+01        00000 
-4.48255e-01 -3.02674e+01        00000 
-2.24129e-01 -3.02672e+01        00000 
-1.29116e-12 -3.02672e+01        00000 
 2.24129e-01 -3.02672e+01        00000 
 4.48255e-01 -3.02674e+01        00000 
 6.72510e-01 -3.02677e+01        00000 
 8.96847e-01 -3.02681e+01        00000 
 1.12140e+00 -3.02686e+01        00000 
 1.34611e+00 -3.02692e+01        00000 
 1.57112e+00 -3.02700e+01        00000 
 1.79638e+00 -3.02708e+01        00000 
 2.02203e+00 -3.02718e+01        00000 
 2.24800e+00 -3.02729e+01        00000 
 2.47444e+00 -3.02741e+01        00000 
 2.70129e+00 -3.02754e+01        00000 
 2.92869e+00 -3.02769e+01        00000 
 3.15658e+00 -3.02784e+01        00000 
 3.38511e+00 -3.02801e+01        00000 
 3.61421e+00 -3.02819e+01        00000 
 3.84402e+00 -3.02838e+01        00000 
 4.07448e+00 -3.02859e+01        00000 
 4.30573e+00 -3.02881e+01        00000 
 4.53772e+00 -3.02903e+01        00000 
 4.77057e+00 -3.02928e+01        00000 
 5.00423e+00 -3.02953e+01        00000 
 5.23883e+00 -3.02980e+01        00000 
 5.47430e+00 -3.03009e+01        00000 
 5.71079e+00 -3.03039e+01        00000 
 5.94822e+00 -3.03070e+01        00000 
 6.18672e+00 -3.03103e+01        00000 
 6.42622e+00 -3.03138e+01        00000 
 6.66686e+00 -3.03174e+01        00000 
 6.90856e+00 -3.03213e+01        00000 
 7.15144e+00 -3.03253e+01        00000 
 7.39542e+00 -3.03295e+01        00000 
 7.64063e+00 -3.03340e+01        00000 
 7.88697e+00 -3.03386e+01        00000 
 8.13456e+00 -3.03436e+01        00000 
 8.38331e+00 -3.03487e+01        00000 
 8.63333e+00 -3.03541e+01        00000 
 8.88452e+00 -3.03598e+01        00000 
 9.13697e+00 -3.03658e+01        00000 
 9.39058e+00 -3.03721e+01        00000 
 9.64545e+00 -3.03787e+01        00000 
 9.90145e+00 -3.03856e+01        00000 
 1.01587e+01 -3.03928e+01        00000 
 1.04170e+01 -3.04003e+01        00000 
 1.06765e+01 -3.04081e+01        00000 
 1.09371e+01 -3.04162e+01        00000 
 1.11989e+01 -3.04247e+01        00000 
 1.14616e+01 -3.04334e+01        00000 
 1.17254e+01 -3.04424e+01        00000 
-1.17651e+01 -3.09734e+01        00000 
-1.15002e+01 -3.09647e+01        00000 
-1.12362e+01 -3.09564e+01        00000 
-1.09732e+01 -3.09483e+01        00000 
-1.07114e+01 -3.09406e+01        00000 
-1.04506e+01 -3.09332e+01        00000 
-1.01910e+01 -3.09261e+01        00000 
-9.93246e+00 -3.09194e+01        00000 
-9.67519e+00 -3.09129e+01        00000 
-9.41908e+00 -3.09068e+01        00000 
-9.16425e+00 -3.09010e+01        00000 
-8.91061e+00 -3.08954e+01        00000 
-8.65827e+00 -3.08902e+01        00000 
-8.40713e+00 -3.08852e+01        00000 
-8.15730e+00 -3.08804e+01        00000 
-7.90866e+00 -3.08759e+01        00000 
-7.66131e+00 -3.08716e+01        00000 
-7.41514e+00 -3.08675e+01        00000 
-7.17023e+00 -3.08636e+01        00000 
-6.92646e+00 -3.08599e+01        00000 
-6.68390e+00 -3.08564e+01        00000 
-6.44244e+00 -3.08530e+01        00000 
-6.20214e+00 -3.08498e+01        00000 
-5.96287e+00 -3.08468e+01        00000 
-5.72471e+00 -3.08439e+01        00000 
-5.48751e+00 -3.08411e+01        00000 
-5.25134e+00 -3.08384e+01        00000 
-5.01608e+00 -3.08359e+01        00000 
-4.78177e+00 -3.08335e+01        00000 
-4.54829e+00 -3.08312e+01        00000 
-4.31569e+00 -3.08290e+01        00000 
-4.08384e+00 -3.08270e+01        00000 
-3.85279e+00 -3.08250e+01        00000 
-3.62241e+00 -3.08232e+01        00000 
-3.39275e+00 -3.08215e+01        00000 
-3.16368e+00 -3.08199e+01        00000 
-2.93524e+00 -3.08184e+01        00000 
-2.70731e+00 -3.08170e+01        00000 
-2.47993e+00 -3.08157e+01        00000 
-2.25298e+00 -3.08145e+01        00000 
-2.02649e+00 -3.08134e+01        00000 
-1.80034e+00 -3.08125e+01        00000 
-1.57458e+00 -3.08117e+01        00000 
-1.34906e+00 -3.08109e+01        00000 
-1.12385e+00 -3.08103e+01        00000 
-8.98809e-01 -3.08098e+01        00000 
-6.73980e-01 -3.08094e+01        00000 
-4.49234e-01 -3.08091e+01        00000 
-2.24618e-01 -3.08090e+01        00000 
-1.28202e-12 -3.08089e+01        00000 
 2.24618e-01 -3.08090e+01        00000 
 4.49234e-01 -3.08091e+01        00000 
 6.73980e-01 -3.08094e+01        00000 
 8.98809e-01 -3.08098e+01        00000 
 1.12385e+00 -3.08103e+01        00000 
 1.34906e+00 -3.08109e+01        00000 
 1.57458e+00 -3.08117e+01        00000 
 1.80034e+00 -3.08125e+01        00000 
 2.02649e+00 -3.08134e+01        00000 
 2.25298e+00 -3.08145e+01        00000 
 2.47993e+00 -3.08157e+01        00000 
 2.70731e+00 -3.08170e+01        00000 
 2.93524e+00 -3.08184e+01        00000 
 3.16368e+00 -3.08199e+01        00000 
 3.39275e+00 -3.08215e+01        00000 
 3.62241e+00 -3.08232e+01        00000 
 3.85279e+00 -3.08250e+01        00000 
 4.08384e+00 -3.08270e+01        00000 
 4.31569e+00 -3.08290e+01        00000 
 4.54829e+00 -3.08312e+01        00000 
 4.78177e+00 -3.08335e+01        00000 
 5.01608e+00 -3.08359e+01        00000 
 5.25134e+00 -3.08384e+01        00000 
 5.48751e+00 -3.08411e+01        00000 
 5.72471e+00 -3.08439e+01        00000 
 5.96287e+00 -3.08468e+01        00000 
 6.20214e+00 -3.08498e+01        00000 
 6.44244e+00 -3.08530e+01        00000 
 6.68390e+00 -3.08564e+01        00000 
 6.92646e+00 -3.08599e+01        00000 
 7.17023e+00 -3.08636e+01        00000 
 7.41514e+00 -3.08675e+01        00000 
 7.66131e+00 -3.08716e+01        00000 
 7.90866e+00 -3.08759e+01        00000 
 8.15730e+00 -3.08804e+01        00000 
 8.40713e+00 -3.08852e+01        00000 
 8.65827e+00 -3.08902e+01        00000 
 8.91061e+00 -3.08954e+01        00000 
 9.16425e+00 -3.09010e+01        00000 
 9.41908e+00 -3.09068e+01        00000 
 9.67519e+00 -3.09129e+01        00000 
 9.93246e+00 -3.09194e+01        00000 
 1.01910e+01 -3.09261e+01        00000 
 1.04506e+01 -3.09332e+01        00000 
 1.07114e+01 -3.09406e+01        00000 
 1.09732e+01 -3.09483e+01        00000 
 1.12362e+01 -3.09564e+01        00000 
 1.15002e+01 -3.09647e+01        00000 
 1.17651e+01 -3.09734e+01        00000 
-1.18033e+01 -3.15065e+01        00000 
-1.15371e+01 -3.14982e+01        00000 
-1.12719e+01 -3.14903e+01        00000 
-1.10076e+01 -3.14826e+01        00000 
-1.07444e+01 -3.14753e+01        00000 
-1.04823e+01 -3.14683e+01        00000 
-1.02213e+01 -3.14616e+01        00000 
-9.96151e+00 -3.14553e+01        00000 
-9.70295e+00 -3.14493e+01        00000 
-9.44558e+00 -3.14436e+01        00000 
-9.18952e+00 -3.14383e+01        00000 
-8.93469e+00 -3.14332e+01        00000 
-8.68121e+00 -3.14283e+01        00000 
-8.42897e+00 -3.14237e+01        00000 
-8.17809e+00 -3.14194e+01        00000 
-7.92844e+00 -3.14152e+01        00000 
-7.68014e+00 -3.14113e+01        00000 
-7.43305e+00 -3.14075e+01        00000 
-7.18726e+00 -3.14040e+01        00000 
-6.94265e+00 -3.14005e+01        00000 
-6.69930e+00 -3.13973e+01        00000 
-6.45707e+00 -3.13942e+01        00000 
-6.21604e+00 -3.13912e+01        00000 
-5.97607e+00 -3.13883e+01        00000 
-5.73723e+00 -3.13855e+01        00000 
-5.49939e+00 -3.13829e+01        00000 
-5.26260e+00 -3.13804e+01        00000 
-5.02673e+00 -3.13780e+01        00000 
-4.79184e+00 -3.13757e+01        00000 
-4.55779e+00 -3.13735e+01        00000 
-4.32464e+00 -3.13714e+01        00000 
-4.09226e+00 -3.13694e+01        00000 
-3.86068e+00 -3.13675e+01        00000 
-3.62979e+00 -3.13657e+01        00000 
-3.39963e+00 -3.13640e+01        00000 
-3.17006e+00 -3.13624e+01        00000 
-2.94114e+00 -3.13609e+01        00000 
-2.71273e+00 -3.13595e+01        00000 
-2.48488e+00 -3.13583e+01        00000 
-2.25746e+00 -3.13571e+01        00000 
-2.03051e+00 -3.13560e+01        00000 
-1.80391e+00 -3.13551e+01        00000 
-1.57769e+00 -3.13542e+01        00000 
-1.35173e+00 -3.13535e+01        00000 
-1.12607e+00 -3.13529e+01        00000 
-9.00579e-01 -3.13524e+01        00000 
-6.75306e-01 -3.13520e+01        00000 
-4.50117e-01 -3.13517e+01        00000 
-2.25059e-01 -3.13515e+01        00000 
-1.28151e-12 -3.13514e+01        00000 
 2.25059e-01 -3.13515e+01        00000 
 4.50117e-01 -3.13517e+01        00000 
 6.75306e-01 -3.13520e+01        00000 
 9.00579e-01 -3.13524e+01        00000 
 1.12607e+00 -3.13529e+01        00000 
 1.35173e+00 -3.13535e+01        00000 
 1.57769e+00 -3.13542e+01        00000 
 1.80391e+00 -3.13551e+01        00000 
 2.03051e+00 -3.13560e+01        00000 
 2.25746e+00 -3.13571e+01        00000 
 2.48488e+00 -3.13583e+01        00000 
 2.71273e+00 -3.13595e+01        00000 
 2.94114e+00 -3.13609e+01        00000 
 3.17006e+00 -3.13624e+01        00000 
 3.39963e+00 -3.13640e+01        00000 
 3.62979e+00 -3.13657e+01        00000 
 3.86068e+00 -3.13675e+01        00000 
 4.09226e+00 -3.13694e+01        00000 
 4.32464e+00 -3.13714e+01        00000 
 4.55779e+00 -3.13735e+01        00000 
 4.79184e+00 -3.13757e+01        00000 
 5.02673e+00 -3.13780e+01        00000 
 5.26260e+00 -3.13804e+01        00000 
 5.49939e+00 -3.13829e+01        00000 
 5.73723e+00 -3.13855e+01        00000 
 5.97607e+00 -3.13883e+01        00000 
 6.21604e+00 -3.13912e+01        00000 
 6.45707e+00 -3.13942e+01        00000 
 6.69930e+00 -3.13973e+01        00000 
 6.94265e+00 -3.14005e+01        00000 
 7.18726e+00 -3.14040e+01        00000 
 7.43305e+00 -3.14075e+01        00000 
 7.68014e+00 -3.14113e+01        00000 
 7.92844e+00 -3.14152e+01        00000 
 8.17809e+00 -3.14194e+01        00000 
 8.42897e+00 -3.14237e+01        00000 
 8.68121e+00 -3.14283e+01        00000 
 8.93469e+00 -3.14332e+01        00000 
 9.18952e+00 -3.14383e+01        00000 
 9.44558e+00 -3.14436e+01        00000 
 9.70295e+00 -3.14493e+01        00000 
 9.96151e+00 -3.14553e+01        00000 
 1.02213e+01 -3.14616e+01        00000 
 1.04823e+01 -3.14683e+01        00000 
 1.07444e+01 -3.14753e+01        00000 
 1.10076e+01 -3.14826e+01        00000 
 1.12719e+01 -3.14903e+01        00000 
 1.15371e+01 -3.14982e+01        00000 
 1.18033e+01 -3.15065e+01        00000 
-1.18400e+01 -3.20421e+01        00000 
-1.15724e+01 -3.20341e+01        00000 
-1.13059e+01 -3.20265e+01        00000 
-1.10402e+01 -3.20192e+01        00000 
-1.07757e+01 -3.20123e+01        00000 
-1.05121e+01 -3.20057e+01        00000 
-1.02498e+01 -3.19995e+01        00000 
-9.98859e+00 -3.19936e+01        00000 
-9.72870e+00 -3.19880e+01        00000 
-9.47005e+00 -3.19828e+01        00000 
-9.21275e+00 -3.19778e+01        00000 
-8.95674e+00 -3.19732e+01        00000 
-8.70213e+00 -3.19687e+01        00000 
-8.44882e+00 -3.19645e+01        00000 
-8.19692e+00 -3.19605e+01        00000 
-7.94631e+00 -3.19567e+01        00000 
-7.69709e+00 -3.19531e+01        00000 
-7.44915e+00 -3.19496e+01        00000 
-7.20254e+00 -3.19463e+01        00000 
-6.95716e+00 -3.19431e+01        00000 
-6.71308e+00 -3.19400e+01        00000 
-6.47016e+00 -3.19371e+01        00000 
-6.22846e+00 -3.19342e+01        00000 
-5.98787e+00 -3.19315e+01        00000 
-5.74842e+00 -3.19289e+01        00000 
-5.51000e+00 -3.19263e+01        00000 
-5.27266e+00 -3.19239e+01        00000 
-5.03625e+00 -3.19215e+01        00000 
-4.80085e+00 -3.19192e+01        00000 
-4.56630e+00 -3.19170e+01        00000 
-4.33266e+00 -3.19149e+01        00000 
-4.09979e+00 -3.19129e+01        00000 
-3.86776e+00 -3.19110e+01        00000 
-3.63641e+00 -3.19092e+01        00000 
-3.40580e+00 -3.19075e+01        00000 
-3.17579e+00 -3.19059e+01        00000 
-2.94644e+00 -3.19043e+01        00000 
-2.71761e+00 -3.19029e+01        00000 
-2.48934e+00 -3.19016e+01        00000 
-2.26150e+00 -3.19004e+01        00000 
-2.03414e+00 -3.18993e+01        00000 
-1.80712e+00 -3.18983e+01        00000 
-1.58050e+00 -3.18974e+01        00000 
-1.35413e+00 -3.18967e+01        00000 
-1.12807e+00 -3.18960e+01        00000 
-9.02175e-01 -3.18955e+01        00000 
-6.76502e-01 -3.18951e+01        00000 
-4.50915e-01 -3.18948e+01        00000 
-2.25458e-01 -3.18946e+01        00000 
-1.24745e-12 -3.18946e+01        00000 
 2.25458e-01 -3.18946e+01        00000 
 4.50915e-01 -3.18948e+01        00000 
 6.76502e-01 -3.18951e+01        00000 
 9.02175e-01 -3.18955e+01        00000 
 1.12807e+00 -3.18960e+01        00000 
 1.35413e+00 -3.18967e+01        00000 
 1.58050e+00 -3.18974e+01        00000 
 1.80712e+00 -3.18983e+01        00000 
 2.03414e+00 -3.18993e+01        00000 
 2.26150e+00 -3.19004e+01        00000 
 2.48934e+00 -3.19016e+01        00000 
 2.71761e+00 -3.19029e+01        00000 
 2.94644e+00 -3.19043e+01        00000 
 3.17579e+00 -3.19059e+01        00000 
 3.40580e+00 -3.19075e+01        00000 
 3.63641e+00 -3.19092e+01        00000 
 3.86776e+00 -3.19110e+01        00000 
 4.09979e+00 -3.19129e+01        00000 
 4.33266e+00 -3.19149e+01        00000 
 4.56630e+00 -3.19170e+01        00000 
 4.80085e+00 -3.19192e+01        00000 
 5.03625e+00 -3.19215e+01        00000 
 5.27266e+00 -3.19239e+01        00000 
 5.51000e+00 -3.19263e+01        00000 
 5.74842e+00 -3.19289e+01        00000 
 5.98787e+00 -3.19315e+01        00000 
 6.22846e+00 -3.19342e+01        00000 
 6.47016e+00 -3.19371e+01        00000 
 6.71308e+00 -3.19400e+01        00000 
 6.95716e+00 -3.19431e+01        00000 
 7.20254e+00 -3.19463e+01        00000 
 7.44915e+00 -3.19496e+01        00000 
 7.69709e+00 -3.19531e+01        00000 
 7.94631e+00 -3.19567e+01        00000 
 8.19692e+00 -3.19605e+01        00000 
 8.44882e+00 -3.19645e+01        00000 
 8.70213e+00 -3.19687e+01        00000 
 8.95674e+00 -3.19732e+01        00000 
 9.21275e+00 -3.19778e+01        00000 
 9.47005e+00 -3.19828e+01        00000 
 9.72870e+00 -3.19880e+01        00000 
 9.98859e+00 -3.19936e+01        00000 
 1.02498e+01 -3.19995e+01        00000 
 1.05121e+01 -3.20057e+01        00000 
 1.07757e+01 -3.20123e+01        00000 
 1.10402e+01 -3.20192e+01        00000 
 1.13059e+01 -3.20265e+01        00000 
 1.15724e+01 -3.20341e+01        00000 
 1.18400e+01 -3.20421e+01        00000 
-1.18753e+01 -3.25801e+01        00000 
-1.16064e+01 -3.25725e+01        00000 
-1.13383e+01 -3.25652e+01        00000 
-1.10712e+01 -3.25583e+01        00000 
-1.08051e+01 -3.25517e+01        00000 
-1.05401e+01 -3.25456e+01        00000 
-1.02763e+01 -3.25398e+01        00000 
-1.00137e+01 -3.25343e+01        00000 
-9.75241e+00 -3.25292e+01        00000 
-9.49244e+00 -3.25244e+01        00000 
-9.23391e+00 -3.25199e+01        00000 
-8.97672e+00 -3.25156e+01        00000 
-8.72101e+00 -3.25115e+01        00000 
-8.46667e+00 -3.25077e+01        00000 
-8.21379e+00 -3.25040e+01        00000 
-7.96228e+00 -3.25005e+01        00000 
-7.71222e+00 -3.24971e+01        00000 
-7.46348e+00 -3.24938e+01        00000 
-7.21613e+00 -3.24907e+01        00000 
-6.97006e+00 -3.24877e+01        00000 
-6.72532e+00 -3.24847e+01        00000 
-6.48178e+00 -3.24818e+01        00000 
-6.23950e+00 -3.24791e+01        00000 
-5.99834e+00 -3.24764e+01        00000 
-5.75837e+00 -3.24737e+01        00000 
-5.51944e+00 -3.24712e+01        00000 
-5.28161e+00 -3.24687e+01        00000 
-5.04474e+00 -3.24663e+01        00000 
-4.80888e+00 -3.24639e+01        00000 
-4.57389e+00 -3.24617e+01        00000 
-4.33982e+00 -3.24595e+01        00000 
-4.10654e+00 -3.24574e+01        00000 
-3.87410e+00 -3.24554e+01        00000 
-3.64235e+00 -3.24535e+01        00000 
-3.41134e+00 -3.24517e+01        00000 
-3.18095e+00 -3.24500e+01        00000 
-2.95121e+00 -3.24484e+01        00000 
-2.72200e+00 -3.24469e+01        00000 
-2.49335e+00 -3.24455e+01        00000 
-2.26514e+00 -3.24442e+01        00000 
-2.03741e+00 -3.24430e+01        00000 
-1.81003e+00 -3.24420e+01        00000 
-1.58303e+00 -3.24410e+01        00000 
-1.35630e+00 -3.24402e+01        00000 
-1.12988e+00 -3.24395e+01        00000 
-9.03622e-01 -3.24390e+01        00000 
-6.77587e-01 -3.24385e+01        00000 
-4.51637e-01 -3.24382e+01        00000 
-2.25819e-01 -3.24380e+01        00000 
-1.20898e-12 -3.24379e+01        00000 
 2.25819e-01 -3.24380e+01        00000 
 4.51637e-01 -3.24382e+01        00000 
 6.77587e-01 -3.24385e+01        00000 
 9.03622e-01 -3.24390e+01        00000 
 1.12988e+00 -3.24395e+01        00000 
 1.35630e+00 -3.24402e+01        00000 
 1.58303e+00 -3.24410e+01        00000 
 1.81003e+00 -3.24420e+01        00000 
 2.03741e+00 -3.24430e+01        00000 
 2.26514e+00 -3.24442e+01        00000 
 2.49335e+00 -3.24455e+01        00000 
 2.72200e+00 -3.24469e+01        00000 
 2.95121e+00 -3.24484e+01        00000 
 3.18095e+00 -3.24500e+01        00000 
 3.41134e+00 -3.24517e+01        00000 
 3.64235e+00 -3.24535e+01        00000 
 3.87410e+00 -3.24554e+01        00000 
 4.10654e+00 -3.24574e+01        00000 
 4.33982e+00 -3.24595e+01        00000 
 4.57389e+00 -3.24617e+01        00000 
 4.80888e+00 -3.24639e+01        00000 
 5.04474e+00 -3.24663e+01        00000 
 5.28161e+00 -3.24687e+01        00000 
 5.51944e+00 -3.24712e+01        00000 
 5.75837e+00 -3.24737e+01        00000 
 5.99834e+00 -3.24764e+01        00000 
 6.23950e+00 -3.24791e+01        00000 
 6.48178e+00 -3.24818e+01        00000 
 6.72532e+00 -3.24847e+01        00000 
 6.97006e+00 -3.24877e+01        00000 
 7.21613e+00 -3.24907e+01        00000 
 7.46348e+00 -3.24938e+01        00000 
 7.71222e+00 -3.24971e+01        00000 
 7.96228e+00 -3.25005e+01        00000 
 8.21379e+00 -3.25040e+01        00000 
 8.46667e+00 -3.25077e+01        00000 
 8.72101e+00 -3.25115e+01        00000 
 8.97672e+00 -3.25156e+01        00000 
 9.23391e+00 -3.25199e+01        00000 
 9.49244e+00 -3.25244e+01        00000 
 9.75241e+00 -3.25292e+01        00000 
 1.00137e+01 -3.25343e+01        00000 
 1.02763e+01 -3.25398e+01        00000 
 1.05401e+01 -3.25456e+01        00000 
 1.08051e+01 -3.25517e+01        00000 
 1.10712e+01 -3.25583e+01        00000 
 1.13383e+01 -3.25652e+01        00000 
 1.16064e+01 -3.25725e+01        00000 
 1.18753e+01 -3.25801e+01        00000 
-1.19094e+01 -3.31210e+01        00000 
-1.16389e+01 -3.31137e+01        00000 
-1.13693e+01 -3.31067e+01        00000 
-1.11005e+01 -3.31001e+01        00000 
-1.08328e+01 -3.30940e+01        00000 
-1.05661e+01 -3.30882e+01        00000 
-1.03008e+01 -3.30829e+01        00000 
-1.00367e+01 -3.30779e+01        00000 
-9.77401e+00 -3.30732e+01        00000 
-9.51272e+00 -3.30688e+01        00000 
-9.25295e+00 -3.30646e+01        00000 
-8.99462e+00 -3.30607e+01        00000 
-8.73784e+00 -3.30570e+01        00000 
-8.48251e+00 -3.30534e+01        00000 
-8.22874e+00 -3.30500e+01        00000 
-7.97640e+00 -3.30466e+01        00000 
-7.72556e+00 -3.30434e+01        00000 
-7.47611e+00 -3.30403e+01        00000 
-7.22811e+00 -3.30372e+01        00000 
-6.98142e+00 -3.30342e+01        00000 
-6.73611e+00 -3.30313e+01        00000 
-6.49203e+00 -3.30284e+01        00000 
-6.24925e+00 -3.30255e+01        00000 
-6.00762e+00 -3.30228e+01        00000 
-5.76719e+00 -3.30200e+01        00000 
-5.52783e+00 -3.30174e+01        00000 
-5.28958e+00 -3.30148e+01        00000 
-5.05231e+00 -3.30122e+01        00000 
-4.81605e+00 -3.30097e+01        00000 
-4.58069e+00 -3.30073e+01        00000 
-4.34625e+00 -3.30050e+01        00000 
-4.11261e+00 -3.30027e+01        00000 
-3.87981e+00 -3.30006e+01        00000 
-3.64771e+00 -3.29985e+01        00000 
-3.41636e+00 -3.29965e+01        00000 
-3.18562e+00 -3.29946e+01        00000 
-2.95554e+00 -3.29929e+01        00000 
-2.72599e+00 -3.29912e+01        00000 
-2.49700e+00 -3.29897e+01        00000 
-2.26846e+00 -3.29882e+01        00000 
-2.04039e+00 -3.29869e+01        00000 
-1.81268e+00 -3.29858e+01        00000 
-1.58535e+00 -3.29847e+01        00000 
-1.35829e+00 -3.29838e+01        00000 
-1.13153e+00 -3.29830e+01        00000 
-9.04945e-01 -3.29824e+01        00000 
-6.78579e-01 -3.29819e+01        00000 
-4.52299e-01 -3.29816e+01        00000 
-2.26150e-01 -3.29813e+01        00000 
-1.19422e-12 -3.29813e+01        00000 
 2.26150e-01 -3.29813e+01        00000 
 4.52299e-01 -3.29816e+01        00000 
 6.78579e-01 -3.29819e+01        00000 
 9.04945e-01 -3.29824e+01        00000 
 1.13153e+00 -3.29830e+01        00000 
 1.35829e+00 -3.29838e+01        00000 
 1.58535e+00 -3.29847e+01        00000 
 1.81268e+00 -3.29858e+01        00000 
 2.04039e+00 -3.29869e+01        00000 
 2.26846e+00 -3.29882e+01        00000 
 2.49700e+00 -3.29897e+01        00000 
 2.72599e+00 -3.29912e+01        00000 
 2.95554e+00 -3.29929e+01        00000 
 3.18562e+00 -3.29946e+01        00000 
 3.41636e+00 -3.29965e+01        00000 
 3.64771e+00 -3.29985e+01        00000 
 3.87981e+00 -3.30006e+01        00000 
 4.11261e+00 -3.30027e+01        00000 
 4.34625e+00 -3.30050e+01        00000 
 4.58069e+00 -3.30073e+01        00000 
 4.81605e+00 -3.30097e+01        00000 
 5.05231e+00 -3.30122e+01        00000 
 5.28958e+00 -3.30148e+01        00000 
 5.52783e+00 -3.30174e+01        00000 
 5.76719e+00 -3.30200e+01        00000 
 6.00762e+00 -3.30228e+01        00000 
 6.24925e+00 -3.30255e+01        00000 
 6.49203e+00 -3.30284e+01        00000 
 6.73611e+00 -3.30313e+01        00000 
 6.98142e+00 -3.30342e+01        00000 
 7.22811e+00 -3.30372e+01        00000 
 7.47611e+00 -3.30403e+01        00000 
 7.72556e+00 -3.30434e+01        00000 
 7.97640e+00 -3.30466e+01        00000 
 8.22874e+00 -3.30500e+01        00000 
 8.48251e+00 -3.30534e+01        00000 
 8.73784e+00 -3.30570e+01        00000 
 8.99462e+00 -3.30607e+01        00000 
 9.25295e+00 -3.30646e+01        00000 
 9.51272e+00 -3.30688e+01        00000 
 9.77401e+00 -3.30732e+01        00000 
 1.00367e+01 -3.30779e+01        00000 
 1.03008e+01 -3.30829e+01        00000 
 1.05661e+01 -3.30882e+01        00000 
 1.08328e+01 -3.30940e+01        00000 
 1.11005e+01 -3.31001e+01        00000 
 1.13693e+01 -3.31067e+01        00000 
 1.16389e+01 -3.31137e+01        00000 
 1.19094e+01 -3.31210e+01        00000 
-1.19424e+01 -3.36651e+01        00000 
-1.16702e+01 -3.36580e+01        00000 
-1.13987e+01 -3.36513e+01        00000 
-1.11281e+01 -3.36451e+01        00000 
-1.08586e+01 -3.36393e+01        00000 
-1.05902e+01 -3.36340e+01        00000 
-1.03232e+01 -3.36291e+01        00000 
-1.00576e+01 -3.36245e+01        00000 
-9.79344e+00 -3.36202e+01        00000 
-9.53083e+00 -3.36162e+01        00000 
-9.26984e+00 -3.36124e+01        00000 
-9.01041e+00 -3.36088e+01        00000 
-8.75263e+00 -3.36053e+01        00000 
-8.49640e+00 -3.36019e+01        00000 
-8.24181e+00 -3.35986e+01        00000 
-7.98872e+00 -3.35953e+01        00000 
-7.73722e+00 -3.35922e+01        00000 
-7.48715e+00 -3.35890e+01        00000 
-7.23859e+00 -3.35859e+01        00000 
-6.99138e+00 -3.35828e+01        00000 
-6.74559e+00 -3.35797e+01        00000 
-6.50107e+00 -3.35767e+01        00000 
-6.25787e+00 -3.35736e+01        00000 
-6.01584e+00 -3.35706e+01        00000 
-5.77503e+00 -3.35677e+01        00000 
-5.53531e+00 -3.35648e+01        00000 
-5.29671e+00 -3.35619e+01        00000 
-5.05910e+00 -3.35591e+01        00000 
-4.82252e+00 -3.35563e+01        00000 
-4.58683e+00 -3.35536e+01        00000 
-4.35208e+00 -3.35510e+01        00000 
-4.11812e+00 -3.35485e+01        00000 
-3.88501e+00 -3.35461e+01        00000 
-3.65260e+00 -3.35437e+01        00000 
-3.42094e+00 -3.35415e+01        00000 
-3.18990e+00 -3.35394e+01        00000 
-2.95952e+00 -3.35374e+01        00000 
-2.72966e+00 -3.35355e+01        00000 
-2.50037e+00 -3.35337e+01        00000 
-2.27152e+00 -3.35321e+01        00000 
-2.04315e+00 -3.35307e+01        00000 
-1.81513e+00 -3.35293e+01        00000 
-1.58750e+00 -3.35281e+01        00000 
-1.36013e+00 -3.35271e+01        00000 
-1.13307e+00 -3.35262e+01        00000 
-9.06175e-01 -3.35255e+01        00000 
-6.79502e-01 -3.35249e+01        00000 
-4.52914e-01 -3.35245e+01        00000 
-2.26458e-01 -3.35243e+01        00000 
-1.16256e-12 -3.35242e+01        00000 
 2.26458e-01 -3.35243e+01        00000 
 4.52914e-01 -3.35245e+01        00000 
 6.79502e-01 -3.35249e+01        00000 
 9.06175e-01 -3.35255e+01        00000 
 1.13307e+00 -3.35262e+01        00000 
 1.36013e+00 -3.35271e+01        00000 
 1.58750e+00 -3.35281e+01        00000 
 1.81513e+00 -3.35293e+01        00000 
 2.04315e+00 -3.35307e+01        00000 
 2.27152e+00 -3.35321e+01        00000 
 2.50037e+00 -3.35337e+01        00000 
 2.72966e+00 -3.35355e+01        00000 
 2.95952e+00 -3.35374e+01        00000 
 3.18990e+00 -3.35394e+01        00000 
 3.42094e+00 -3.35415e+01        00000 
 3.65260e+00 -3.35437e+01        00000 
 3.88501e+00 -3.35461e+01        00000 
 4.11812e+00 -3.35485e+01        00000 
 4.35208e+00 -3.35510e+01        00000 
 4.58683e+00 -3.35536e+01        00000 
 4.82252e+00 -3.35563e+01        00000 
 5.05910e+00 -3.35591e+01        00000 
 5.29671e+00 -3.35619e+01        00000 
 5.53531e+00 -3.35648e+01        00000 
 5.77503e+00 -3.35677e+01        00000 
 6.01584e+00 -3.35706e+01        00000 
 6.25787e+00 -3.35736e+01        00000 
 6.50107e+00 -3.35767e+01        00000 
 6.74559e+00 -3.35797e+01        00000 
 6.99138e+00 -3.35828e+01        00000 
 7.23859e+00 -3.35859e+01        00000 
 7.48715e+00 -3.35890e+01        00000 
 7.73722e+00 -3.35922e+01        00000 
 7.98872e+00 -3.35953e+01        00000 
 8.24181e+00 -3.35986e+01        00000 
 8.49640e+00 -3.36019e+01        00000 
 8.75263e+00 -3.36053e+01        00000 
 9.01041e+00 -3.36088e+01        00000 
 9.26984e+00 -3.36124e+01        00000 
 9.53083e+00 -3.36162e+01        00000 
 9.79344e+00 -3.36202e+01        00000 
 1.00576e+01 -3.36245e+01        00000 
 1.03232e+01 -3.36291e+01        00000 
 1.05902e+01 -3.36340e+01        00000 
 1.08586e+01 -3.36393e+01        00000 
 1.11281e+01 -3.36451e+01        00000 
 1.13987e+01 -3.36513e+01        00000 
 1.16702e+01 -3.36580e+01        00000 
 1.19424e+01 -3.36651e+01        00000 
-1.19745e+01 -3.42128e+01        00000 
-1.17002e+01 -3.42059e+01        00000 
-1.14267e+01 -3.41995e+01        00000 
-1.11540e+01 -3.41937e+01        00000 
-1.08825e+01 -3.41883e+01        00000 
-1.06122e+01 -3.41834e+01        00000 
-1.03434e+01 -3.41789e+01        00000 
-1.00762e+01 -3.41748e+01        00000 
-9.81063e+00 -3.41708e+01        00000 
-9.54672e+00 -3.41671e+01        00000 
-9.28457e+00 -3.41636e+01        00000 
-9.02412e+00 -3.41601e+01        00000 
-8.76544e+00 -3.41568e+01        00000 
-8.50841e+00 -3.41534e+01        00000 
-8.25312e+00 -3.41501e+01        00000 
-7.99941e+00 -3.41468e+01        00000 
-7.74734e+00 -3.41434e+01        00000 
-7.49678e+00 -3.41401e+01        00000 
-7.24776e+00 -3.41367e+01        00000 
-7.00014e+00 -3.41334e+01        00000 
-6.75397e+00 -3.41300e+01        00000 
-6.50909e+00 -3.41266e+01        00000 
-6.26555e+00 -3.41232e+01        00000 
-6.02321e+00 -3.41198e+01        00000 
-5.78210e+00 -3.41165e+01        00000 
-5.54208e+00 -3.41132e+01        00000 
-5.30320e+00 -3.41099e+01        00000 
-5.06531e+00 -3.41066e+01        00000 
-4.82845e+00 -3.41035e+01        00000 
-4.59248e+00 -3.41004e+01        00000 
-4.35746e+00 -3.40974e+01        00000 
-4.12323e+00 -3.40945e+01        00000 
-3.88984e+00 -3.40917e+01        00000 
-3.65716e+00 -3.40890e+01        00000 
-3.42523e+00 -3.40864e+01        00000 
-3.19391e+00 -3.40839e+01        00000 
-2.96325e+00 -3.40816e+01        00000 
-2.73312e+00 -3.40794e+01        00000 
-2.50355e+00 -3.40774e+01        00000 
-2.27442e+00 -3.40755e+01        00000 
-2.04576e+00 -3.40738e+01        00000 
-1.81745e+00 -3.40723e+01        00000 
-1.58954e+00 -3.40709e+01        00000 
-1.36188e+00 -3.40697e+01        00000 
-1.13453e+00 -3.40687e+01        00000 
-9.07344e-01 -3.40679e+01        00000 
-6.80380e-01 -3.40672e+01        00000 
-4.53499e-01 -3.40667e+01        00000 
-2.26751e-01 -3.40665e+01        00000 
-1.12904e-12 -3.40664e+01        00000 
 2.26751e-01 -3.40665e+01        00000 
 4.53499e-01 -3.40667e+01        00000 
 6.80380e-01 -3.40672e+01        00000 
 9.07344e-01 -3.40679e+01        00000 
 1.13453e+00 -3.40687e+01        00000 
 1.36188e+00 -3.40697e+01        00000 
 1.58954e+00 -3.40709e+01        00000 
 1.81745e+00 -3.40723e+01        00000 
 2.04576e+00 -3.40738e+01        00000 
 2.27442e+00 -3.40755e+01        00000 
 2.50355e+00 -3.40774e+01        00000 
 2.73312e+00 -3.40794e+01        00000 
 2.96325e+00 -3.40816e+01        00000 
 3.19391e+00 -3.40839e+01        00000 
 3.42523e+00 -3.40864e+01        00000 
 3.65716e+00 -3.40890e+01        00000 
 3.88984e+00 -3.40917e+01        00000 
 4.12323e+00 -3.40945e+01        00000 
 4.35746e+00 -3.40974e+01        00000 
 4.59248e+00 -3.41004e+01        00000 
 4.82845e+00 -3.41035e+01        00000 
 5.06531e+00 -3.41066e+01        00000 
 5.30320e+00 -3.41099e+01        00000 
 5.54208e+00 -3.41132e+01        00000 
 5.78210e+00 -3.41165e+01        00000 
 6.02321e+00 -3.41198e+01        00000 
 6.26555e+00 -3.41232e+01        00000 
 6.50909e+00 -3.41266e+01        00000 
 6.75397e+00 -3.41300e+01        00000 
 7.00014e+00 -3.41334e+01        00000 
 7.24776e+00 -3.41367e+01        00000 
 7.49678e+00 -3.41401e+01        00000 
 7.74734e+00 -3.41434e+01        00000 
 7.99941e+00 -3.41468e+01        00000 
 8.25312e+00 -3.41501e+01        00000 
 8.50841e+00 -3.41534e+01        00000 
 8.76544e+00 -3.41568e+01        00000 
 9.02412e+00 -3.41601e+01        00000 
 9.28457e+00 -3.41636e+01        00000 
 9.54672e+00 -3.41671e+01        00000 
 9.81063e+00 -3.41708e+01        00000 
 1.00762e+01 -3.41748e+01        00000 
 1.03434e+01 -3.41789e+01        00000 
 1.06122e+01 -3.41834e+01        00000 
 1.08825e+01 -3.41883e+01        00000 
 1.11540e+01 -3.41937e+01        00000 
 1.14267e+01 -3.41995e+01        00000 
 1.17002e+01 -3.42059e+01        00000 
 1.19745e+01 -3.42128e+01        00000 
-1.20058e+01 -3.47647e+01        00000 
-1.17291e+01 -3.47581e+01        00000 
-1.14531e+01 -3.47520e+01        00000 
-1.11780e+01 -3.47466e+01        00000 
-1.09043e+01 -3.47417e+01        00000 
-1.06320e+01 -3.47372e+01        00000 
-1.03614e+01 -3.47331e+01        00000 
-1.00925e+01 -3.47293e+01        00000 
-9.82552e+00 -3.47256e+01        00000 
-9.56037e+00 -3.47221e+01        00000 
-9.29718e+00 -3.47187e+01        00000 
-9.03583e+00 -3.47152e+01        00000 
-8.77639e+00 -3.47118e+01        00000 
-8.51871e+00 -3.47083e+01        00000 
-8.26285e+00 -3.47047e+01        00000 
-8.00866e+00 -3.47011e+01        00000 
-7.75617e+00 -3.46974e+01        00000 
-7.50523e+00 -3.46936e+01        00000 
-7.25588e+00 -3.46898e+01        00000 
-7.00795e+00 -3.46859e+01        00000 
-6.76150e+00 -3.46820e+01        00000 
-6.51635e+00 -3.46780e+01        00000 
-6.27256e+00 -3.46741e+01        00000 
-6.02997e+00 -3.46701e+01        00000 
-5.78863e+00 -3.46662e+01        00000 
-5.54838e+00 -3.46623e+01        00000 
-5.30926e+00 -3.46584e+01        00000 
-5.07113e+00 -3.46546e+01        00000 
-4.83404e+00 -3.46509e+01        00000 
-4.59784e+00 -3.46473e+01        00000 
-4.36258e+00 -3.46437e+01        00000 
-4.12811e+00 -3.46403e+01        00000 
-3.89448e+00 -3.46370e+01        00000 
-3.66155e+00 -3.46338e+01        00000 
-3.42936e+00 -3.46308e+01        00000 
-3.19779e+00 -3.46279e+01        00000 
-2.96687e+00 -3.46252e+01        00000 
-2.73647e+00 -3.46226e+01        00000 
-2.50664e+00 -3.46203e+01        00000 
-2.27724e+00 -3.46181e+01        00000 
-2.04831e+00 -3.46161e+01        00000 
-1.81973e+00 -3.46142e+01        00000 
-1.59153e+00 -3.46126e+01        00000 
-1.36359e+00 -3.46112e+01        00000 
-1.13596e+00 -3.46100e+01        00000 
-9.08490e-01 -3.46091e+01        00000 
-6.81240e-01 -3.46083e+01        00000 
-4.54074e-01 -3.46078e+01        00000 
-2.27038e-01 -3.46074e+01        00000 
-1.09529e-12 -3.46073e+01        00000 
 2.27038e-01 -3.46074e+01        00000 
 4.54074e-01 -3.46078e+01        00000 
 6.81240e-01 -3.46083e+01        00000 
 9.08490e-01 -3.46091e+01        00000 
 1.13596e+00 -3.46100e+01        00000 
 1.36359e+00 -3.46112e+01        00000 
 1.59153e+00 -3.46126e+01        00000 
 1.81973e+00 -3.46142e+01        00000 
 2.04831e+00 -3.46161e+01        00000 
 2.27724e+00 -3.46181e+01        00000 
 2.50664e+00 -3.46203e+01        00000 
 2.73647e+00 -3.46226e+01        00000 
 2.96687e+00 -3.46252e+01        00000 
 3.19779e+00 -3.46279e+01        00000 
 3.42936e+00 -3.46308e+01        00000 
 3.66155e+00 -3.46338e+01        00000 
 3.89448e+00 -3.46370e+01        00000 
 4.12811e+00 -3.46403e+01        00000 
 4.36258e+00 -3.46437e+01        00000 
 4.59784e+00 -3.46473e+01        00000 
 4.83404e+00 -3.46509e+01        00000 
 5.07113e+00 -3.46546e+01        00000 
 5.30926e+00 -3.46584e+01        00000 
 5.54838e+00 -3.46623e+01        00000 
 5.78863e+00 -3.46662e+01        00000 
 6.02997e+00 -3.46701e+01        00000 
 6.27256e+00 -3.46741e+01        00000 
 6.51635e+00 -3.46780e+01        00000 
 6.76150e+00 -3.46820e+01        00000 
 7.00795e+00 -3.46859e+01        00000 
 7.25588e+00 -3.46898e+01        00000 
 7.50523e+00 -3.46936e+01        00000 
 7.75617e+00 -3.46974e+01        00000 
 8.00866e+00 -3.47011e+01        00000 
 8.26285e+00 -3.47047e+01        00000 
 8.51871e+00 -3.47083e+01        00000 
 8.77639e+00 -3.47118e+01        00000 
 9.03583e+00 -3.47152e+01        00000 
 9.29718e+00 -3.47187e+01        00000 
 9.56037e+00 -3.47221e+01        00000 
 9.82552e+00 -3.47256e+01        00000 
 1.00925e+01 -3.47293e+01        00000 
 1.03614e+01 -3.47331e+01        00000 
 1.06320e+01 -3.47372e+01        00000 
 1.09043e+01 -3.47417e+01        00000 
 1.11780e+01 -3.47466e+01        00000 
 1.14531e+01 -3.47520e+01        00000 
 1.17291e+01 -3.47581e+01        00000 
 1.20058e+01 -3.47647e+01        00000 
-1.20365e+01 -3.53220e+01        00000 
-1.17568e+01 -3.53155e+01        00000 
-1.14778e+01 -3.53098e+01        00000 
-1.12001e+01 -3.53047e+01        00000 
-1.09238e+01 -3.53003e+01        00000 
-1.06493e+01 -3.52962e+01        00000 
-1.03768e+01 -3.52925e+01        00000 
-1.01064e+01 -3.52889e+01        00000 
-9.83808e+00 -3.52854e+01        00000 
-9.57186e+00 -3.52819e+01        00000 
-9.30780e+00 -3.52783e+01        00000 
-9.04574e+00 -3.52746e+01        00000 
-8.78572e+00 -3.52707e+01        00000 
-8.52757e+00 -3.52668e+01        00000 
-8.27132e+00 -3.52627e+01        00000 
-8.01680e+00 -3.52584e+01        00000 
-7.76403e+00 -3.52540e+01        00000 
-7.51284e+00 -3.52495e+01        00000 
-7.26327e+00 -3.52449e+01        00000 
-7.01514e+00 -3.52403e+01        00000 
-6.76850e+00 -3.52356e+01        00000 
-6.52317e+00 -3.52308e+01        00000 
-6.27920e+00 -3.52261e+01        00000 
-6.03643e+00 -3.52213e+01        00000 
-5.79490e+00 -3.52166e+01        00000 
-5.55446e+00 -3.52119e+01        00000 
-5.31515e+00 -3.52073e+01        00000 
-5.07682e+00 -3.52027e+01        00000 
-4.83953e+00 -3.51983e+01        00000 
-4.60312e+00 -3.51939e+01        00000 
-4.36764e+00 -3.51897e+01        00000 
-4.13295e+00 -3.51856e+01        00000 
-3.89909e+00 -3.51817e+01        00000 
-3.66592e+00 -3.51779e+01        00000 
-3.43350e+00 -3.51743e+01        00000 
-3.20168e+00 -3.51709e+01        00000 
-2.97051e+00 -3.51676e+01        00000 
-2.73985e+00 -3.51646e+01        00000 
-2.50975e+00 -3.51618e+01        00000 
-2.28008e+00 -3.51592e+01        00000 
-2.05088e+00 -3.51569e+01        00000 
-1.82202e+00 -3.51547e+01        00000 
-1.59355e+00 -3.51528e+01        00000 
-1.36533e+00 -3.51512e+01        00000 
-1.13741e+00 -3.51498e+01        00000 
-9.09651e-01 -3.51486e+01        00000 
-6.82113e-01 -3.51477e+01        00000 
-4.54656e-01 -3.51471e+01        00000 
-2.27329e-01 -3.51467e+01        00000 
-1.07186e-12 -3.51466e+01        00000 
 2.27329e-01 -3.51467e+01        00000 
 4.54656e-01 -3.51471e+01        00000 
 6.82113e-01 -3.51477e+01        00000 
 9.09651e-01 -3.51486e+01        00000 
 1.13741e+00 -3.51498e+01        00000 
 1.36533e+00 -3.51512e+01        00000 
 1.59355e+00 -3.51528e+01        00000 
 1.82202e+00 -3.51547e+01        00000 
 2.05088e+00 -3.51569e+01        00000 
 2.28008e+00 -3.51592e+01        00000 
 2.50975e+00 -3.51618e+01        00000 
 2.73985e+00 -3.51646e+01        00000 
 2.97051e+00 -3.51676e+01        00000 
 3.20168e+00 -3.51709e+01        00000 
 3.43350e+00 -3.51743e+01        00000 
 3.66592e+00 -3.51779e+01        00000 
 3.89909e+00 -3.51817e+01        00000 
 4.13295e+00 -3.51856e+01        00000 
 4.36764e+00 -3.51897e+01        00000 
 4.60312e+00 -3.51939e+01        00000 
 4.83953e+00 -3.51983e+01        00000 
 5.07682e+00 -3.52027e+01        00000 
 5.31515e+00 -3.52073e+01        00000 
 5.55446e+00 -3.52119e+01        00000 
 5.79490e+00 -3.52166e+01        00000 
 6.03643e+00 -3.52213e+01        00000 
 6.27920e+00 -3.52261e+01        00000 
 6.52317e+00 -3.52308e+01        00000 
 6.76850e+00 -3.52356e+01        00000 
 7.01514e+00 -3.52403e+01        00000 
 7.26327e+00 -3.52449e+01        00000 
 7.51284e+00 -3.52495e+01        00000 
 7.76403e+00 -3.52540e+01        00000 
 8.01680e+00 -3.52584e+01        00000 
 8.27132e+00 -3.52627e+01        00000 
 8.52757e+00 -3.52668e+01        00000 
 8.78572e+00 -3.52707e+01        00000 
 9.04574e+00 -3.52746e+01        00000 
 9.30780e+00 -3.52783e+01        00000 
 9.57186e+00 -3.52819e+01        00000 
 9.83808e+00 -3.52854e+01        00000 
 1.01064e+01 -3.52889e+01        00000 
 1.03768e+01 -3.52925e+01        00000 
 1.06493e+01 -3.52962e+01        00000 
 1.09238e+01 -3.53003e+01        00000 
 1.12001e+01 -3.53047e+01        00000 
 1.14778e+01 -3.53098e+01        00000 
 1.17568e+01 -3.53155e+01        00000 
 1.20365e+01 -3.53220e+01        00000 
-1.20666e+01 -3.58857e+01        00000 
-1.17831e+01 -3.58795e+01        00000 
-1.15007e+01 -3.58741e+01        00000 
-1.12197e+01 -3.58696e+01        00000 
-1.09408e+01 -3.58656e+01        00000 
-1.06640e+01 -3.58619e+01        00000 
-1.03897e+01 -3.58583e+01        00000 
-1.01178e+01 -3.58547e+01        00000 
-9.84845e+00 -3.58510e+01        00000 
-9.58141e+00 -3.58471e+01        00000 
-9.31673e+00 -3.58430e+01        00000 
-9.05421e+00 -3.58386e+01        00000 
-8.79384e+00 -3.58339e+01        00000 
-8.53543e+00 -3.58291e+01        00000 
-8.27898e+00 -3.58240e+01        00000 
-8.02429e+00 -3.58187e+01        00000 
-7.77138e+00 -3.58133e+01        00000 
-7.52007e+00 -3.58077e+01        00000 
-7.27037e+00 -3.58020e+01        00000 
-7.02213e+00 -3.57962e+01        00000 
-6.77537e+00 -3.57904e+01        00000 
-6.52991e+00 -3.57846e+01        00000 
-6.28581e+00 -3.57788e+01        00000 
-6.04290e+00 -3.57730e+01        00000 
-5.80123e+00 -3.57672e+01        00000 
-5.56063e+00 -3.57615e+01        00000 
-5.32115e+00 -3.57559e+01        00000 
-5.08265e+00 -3.57504e+01        00000 
-4.84517e+00 -3.57450e+01        00000 
-4.60856e+00 -3.57398e+01        00000 
-4.37287e+00 -3.57347e+01        00000 
-4.13796e+00 -3.57299e+01        00000 
-3.90387e+00 -3.57252e+01        00000 
-3.67047e+00 -3.57207e+01        00000 
-3.43780e+00 -3.57164e+01        00000 
-3.20573e+00 -3.57123e+01        00000 
-2.97430e+00 -3.57085e+01        00000 
-2.74337e+00 -3.57049e+01        00000 
-2.51300e+00 -3.57016e+01        00000 
-2.28305e+00 -3.56985e+01        00000 
-2.05357e+00 -3.56958e+01        00000 
-1.82442e+00 -3.56932e+01        00000 
-1.59566e+00 -3.56910e+01        00000 
-1.36714e+00 -3.56891e+01        00000 
-1.13892e+00 -3.56874e+01        00000 
-9.10869e-01 -3.56861e+01        00000 
-6.83028e-01 -3.56850e+01        00000 
-4.55267e-01 -3.56842e+01        00000 
-2.27635e-01 -3.56838e+01        00000 
-1.04379e-12 -3.56836e+01        00000 
 2.27635e-01 -3.56838e+01        00000 
 4.55267e-01 -3.56842e+01        00000 
 6.83028e-01 -3.56850e+01        00000 
 9.10869e-01 -3.56861e+01        00000 
 1.13892e+00 -3.56874e+01        00000 
 1.36714e+00 -3.56891e+01        00000 
 1.59566e+00 -3.56910e+01        00000 
 1.82442e+00 -3.56932e+01        00000 
 2.05357e+00 -3.56958e+01        00000 
 2.28305e+00 -3.56985e+01        00000 
 2.51300e+00 -3.57016e+01        00000 
 2.74337e+00 -3.57049e+01        00000 
 2.97430e+00 -3.57085e+01        00000 
 3.20573e+00 -3.57123e+01        00000 
 3.43780e+00 -3.57164e+01        00000 
 3.67047e+00 -3.57207e+01        00000 
 3.90387e+00 -3.57252e+01        00000 
 4.13796e+00 -3.57299e+01        00000 
 4.37287e+00 -3.57347e+01        00000 
 4.60856e+00 -3.57398e+01        00000 
 4.84517e+00 -3.57450e+01        00000 
 5.08265e+00 -3.57504e+01        00000 
 5.32115e+00 -3.57559e+01        00000 
 5.56063e+00 -3.57615e+01        00000 
 5.80123e+00 -3.57672e+01        00000 
 6.04290e+00 -3.57730e+01        00000 
 6.28581e+00 -3.57788e+01        00000 
 6.52991e+00 -3.57846e+01        00000 
 6.77537e+00 -3.57904e+01        00000 
 7.02213e+00 -3.57962e+01        00000 
 7.27037e+00 -3.58020e+01        00000 
 7.52007e+00 -3.58077e+01        00000 
 7.77138e+00 -3.58133e+01        00000 
 8.02429e+00 -3.58187e+01        00000 
 8.27898e+00 -3.58240e+01        00000 
 8.53543e+00 -3.58291e+01        00000 
 8.79384e+00 -3.58339e+01        00000 
 9.05421e+00 -3.58386e+01        00000 
 9.31673e+00 -3.58430e+01        00000 
 9.58141e+00 -3.58471e+01        00000 
 9.84845e+00 -3.58510e+01        00000 
 1.01178e+01 -3.58547e+01        00000 
 1.03897e+01 -3.58583e+01        00000 
 1.06640e+01 -3.58619e+01        00000 
 1.09408e+01 -3.58656e+01        00000 
 1.12197e+01 -3.58696e+01        00000 
 1.15007e+01 -3.58741e+01        00000 
 1.17831e+01 -3.58795e+01        00000 
 1.20666e+01 -3.58857e+01        00000 
-1.20962e+01 -3.64580e+01        00000 
-1.18079e+01 -3.64520e+01        00000 
-1.15211e+01 -3.64472e+01        00000 
-1.12365e+01 -3.64432e+01        00000 
-1.09546e+01 -3.64395e+01        00000 
-1.06758e+01 -3.64359e+01        00000 
-1.04000e+01 -3.64321e+01        00000 
-1.01271e+01 -3.64280e+01        00000 
-9.85702e+00 -3.64234e+01        00000 
-9.58953e+00 -3.64185e+01        00000 
-9.32457e+00 -3.64132e+01        00000 
-9.06188e+00 -3.64075e+01        00000 
-8.80141e+00 -3.64015e+01        00000 
-8.54293e+00 -3.63951e+01        00000 
-8.28644e+00 -3.63886e+01        00000 
-8.03172e+00 -3.63818e+01        00000 
-7.77878e+00 -3.63749e+01        00000 
-7.52743e+00 -3.63678e+01        00000 
-7.27770e+00 -3.63606e+01        00000 
-7.02940e+00 -3.63534e+01        00000 
-6.78256e+00 -3.63462e+01        00000 
-6.53702e+00 -3.63389e+01        00000 
-6.29281e+00 -3.63317e+01        00000 
-6.04978e+00 -3.63246e+01        00000 
-5.80797e+00 -3.63176e+01        00000 
-5.56722e+00 -3.63106e+01        00000 
-5.32758e+00 -3.63038e+01        00000 
-5.08889e+00 -3.62972e+01        00000 
-4.85122e+00 -3.62907e+01        00000 
-4.61440e+00 -3.62845e+01        00000 
-4.37849e+00 -3.62784e+01        00000 
-4.14335e+00 -3.62726e+01        00000 
-3.90902e+00 -3.62670e+01        00000 
-3.67537e+00 -3.62616e+01        00000 
-3.44244e+00 -3.62565e+01        00000 
-3.21009e+00 -3.62517e+01        00000 
-2.97839e+00 -3.62472e+01        00000 
-2.74718e+00 -3.62430e+01        00000 
-2.51651e+00 -3.62391e+01        00000 
-2.28627e+00 -3.62355e+01        00000 
-2.05648e+00 -3.62322e+01        00000 
-1.82702e+00 -3.62292e+01        00000 
-1.59794e+00 -3.62266e+01        00000 
-1.36911e+00 -3.62243e+01        00000 
-1.14057e+00 -3.62224e+01        00000 
-9.12186e-01 -3.62208e+01        00000 
-6.84017e-01 -3.62195e+01        00000 
-4.55928e-01 -3.62187e+01        00000 
-2.27966e-01 -3.62181e+01        00000 
-1.01015e-12 -3.62179e+01        00000 
 2.27966e-01 -3.62181e+01        00000 
 4.55928e-01 -3.62187e+01        00000 
 6.84017e-01 -3.62195e+01        00000 
 9.12186e-01 -3.62208e+01        00000 
 1.14057e+00 -3.62224e+01        00000 
 1.36911e+00 -3.62243e+01        00000 
 1.59794e+00 -3.62266e+01        00000 
 1.82702e+00 -3.62292e+01        00000 
 2.05648e+00 -3.62322e+01        00000 
 2.28627e+00 -3.62355e+01        00000 
 2.51651e+00 -3.62391e+01        00000 
 2.74718e+00 -3.62430e+01        00000 
 2.97839e+00 -3.62472e+01        00000 
 3.21009e+00 -3.62517e+01        00000 
 3.44244e+00 -3.62565e+01        00000 
 3.67537e+00 -3.62616e+01        00000 
 3.90902e+00 -3.62670e+01        00000 
 4.14335e+00 -3.62726e+01        00000 
 4.37849e+00 -3.62784e+01        00000 
 4.61440e+00 -3.62845e+01        00000 
 4.85122e+00 -3.62907e+01        00000 
 5.08889e+00 -3.62972e+01        00000 
 5.32758e+00 -3.63038e+01        00000 
 5.56722e+00 -3.63106e+01        00000 
 5.80797e+00 -3.63176e+01        00000 
 6.04978e+00 -3.63246e+01        00000 
 6.29281e+00 -3.63317e+01        00000 
 6.53702e+00 -3.63389e+01        00000 
 6.78256e+00 -3.63462e+01        00000 
 7.02940e+00 -3.63534e+01        00000 
 7.27770e+00 -3.63606e+01        00000 
 7.52743e+00 -3.63678e+01        00000 
 7.77878e+00 -3.63749e+01        00000 
 8.03172e+00 -3.63818e+01        00000 
 8.28644e+00 -3.63886e+01        00000 
 8.54293e+00 -3.63951e+01        00000 
 8.80141e+00 -3.64015e+01        00000 
 9.06188e+00 -3.64075e+01        00000 
 9.32457e+00 -3.64132e+01        00000 
 9.58953e+00 -3.64185e+01        00000 
 9.85702e+00 -3.64234e+01        00000 
 1.01271e+01 -3.64280e+01        00000 
 1.04000e+01 -3.64321e+01        00000 
 1.06758e+01 -3.64359e+01        00000 
 1.09546e+01 -3.64395e+01        00000 
 1.12365e+01 -3.64432e+01        00000 
 1.15211e+01 -3.64472e+01        00000 
 1.18079e+01 -3.64520e+01        00000 
 1.20962e+01 -3.64580e+01        00000 
-1.21250e+01 -3.70420e+01        00000 
-1.18302e+01 -3.70365e+01        00000 
-1.15380e+01 -3.70325e+01        00000 
-1.12495e+01 -3.70288e+01        00000 
-1.09653e+01 -3.70250e+01        00000 
-1.06849e+01 -3.70205e+01        00000 
-1.04083e+01 -3.70155e+01        00000 
-1.01349e+01 -3.70097e+01        00000 
-9.86470e+00 -3.70034e+01        00000 
-9.59719e+00 -3.69965e+01        00000 
-9.33227e+00 -3.69891e+01        00000 
-9.06966e+00 -3.69813e+01        00000 
-8.80928e+00 -3.69731e+01        00000 
-8.55090e+00 -3.69647e+01        00000 
-8.29448e+00 -3.69560e+01        00000 
-8.03981e+00 -3.69472e+01        00000 
-7.78691e+00 -3.69383e+01        00000 
-7.53556e+00 -3.69292e+01        00000 
-7.28581e+00 -3.69202e+01        00000 
-7.03746e+00 -3.69111e+01        00000 
-6.79056e+00 -3.69021e+01        00000 
-6.54493e+00 -3.68932e+01        00000 
-6.30061e+00 -3.68843e+01        00000 
-6.05745e+00 -3.68756e+01        00000 
-5.81548e+00 -3.68671e+01        00000 
-5.57456e+00 -3.68587e+01        00000 
-5.33473e+00 -3.68505e+01        00000 
-5.09585e+00 -3.68425e+01        00000 
-4.85795e+00 -3.68348e+01        00000 
-4.62090e+00 -3.68273e+01        00000 
-4.38475e+00 -3.68200e+01        00000 
-4.14935e+00 -3.68131e+01        00000 
-3.91475e+00 -3.68065e+01        00000 
-3.68081e+00 -3.68001e+01        00000 
-3.44759e+00 -3.67941e+01        00000 
-3.21495e+00 -3.67885e+01        00000 
-2.98293e+00 -3.67832e+01        00000 
-2.75140e+00 -3.67782e+01        00000 
-2.52041e+00 -3.67736e+01        00000 
-2.28983e+00 -3.67694e+01        00000 
-2.05970e+00 -3.67655e+01        00000 
-1.82990e+00 -3.67621e+01        00000 
-1.60047e+00 -3.67590e+01        00000 
-1.37128e+00 -3.67563e+01        00000 
-1.14238e+00 -3.67541e+01        00000 
-9.13644e-01 -3.67522e+01        00000 
-6.85113e-01 -3.67508e+01        00000 
-4.56659e-01 -3.67497e+01        00000 
-2.28332e-01 -3.67491e+01        00000 
-9.38863e-13 -3.67489e+01        00000 
 2.28332e-01 -3.67491e+01        00000 
 4.56659e-01 -3.67497e+01        00000 
 6.85113e-01 -3.67508e+01        00000 
 9.13644e-01 -3.67522e+01        00000 
 1.14238e+00 -3.67541e+01        00000 
 1.37128e+00 -3.67563e+01        00000 
 1.60047e+00 -3.67590e+01        00000 
 1.82990e+00 -3.67621e+01        00000 
 2.05970e+00 -3.67655e+01        00000 
 2.28983e+00 -3.67694e+01        00000 
 2.52041e+00 -3.67736e+01        00000 
 2.75140e+00 -3.67782e+01        00000 
 2.98293e+00 -3.67832e+01        00000 
 3.21495e+00 -3.67885e+01        00000 
 3.44759e+00 -3.67941e+01        00000 
 3.68081e+00 -3.68001e+01        00000 
 3.91475e+00 -3.68065e+01        00000 
 4.14935e+00 -3.68131e+01        00000 
 4.38475e+00 -3.68200e+01        00000 
 4.62090e+00 -3.68273e+01        00000 
 4.85795e+00 -3.68348e+01        00000 
 5.09585e+00 -3.68425e+01        00000 
 5.33473e+00 -3.68505e+01        00000 
 5.57456e+00 -3.68587e+01        00000 
 5.81548e+00 -3.68671e+01        00000 
 6.05745e+00 -3.68756e+01        00000 
 6.30061e+00 -3.68843e+01        00000 
 6.54493e+00 -3.68932e+01        00000 
 6.79056e+00 -3.69021e+01        00000 
 7.03746e+00 -3.69111e+01        00000 
 7.28581e+00 -3.69202e+01        00000 
 7.53556e+00 -3.69292e+01        00000 
 7.78691e+00 -3.69383e+01        00000 
 8.03981e+00 -3.69472e+01        00000 
 8.29448e+00 -3.69560e+01        00000 
 8.55090e+00 -3.69647e+01        00000 
 8.80928e+00 -3.69731e+01        00000 
 9.06966e+00 -3.69813e+01        00000 
 9.33227e+00 -3.69891e+01        00000 
 9.59719e+00 -3.69965e+01        00000 
 9.86470e+00 -3.70034e+01        00000 
 1.01349e+01 -3.70097e+01        00000 
 1.04083e+01 -3.70155e+01        00000 
 1.06849e+01 -3.70205e+01        00000 
 1.09653e+01 -3.70250e+01        00000 
 1.12495e+01 -3.70288e+01        00000 
 1.15380e+01 -3.70325e+01        00000 
 1.18302e+01 -3.70365e+01        00000 
 1.21250e+01 -3.70420e+01        00000 
-1.21523e+01 -3.76441e+01        00000 
-1.18478e+01 -3.76401e+01        00000 
-1.15501e+01 -3.76360e+01        00000 
-1.12589e+01 -3.76310e+01        00000 
-1.09735e+01 -3.76248e+01        00000 
-1.06928e+01 -3.76175e+01        00000 
-1.04162e+01 -3.76093e+01        00000 
-1.01430e+01 -3.76003e+01        00000 
-9.87307e+00 -3.75906e+01        00000 
-9.60583e+00 -3.75805e+01        00000 
-9.34116e+00 -3.75700e+01        00000 
-9.07876e+00 -3.75591e+01        00000 
-8.81855e+00 -3.75480e+01        00000 
-8.56029e+00 -3.75368e+01        00000 
-8.30396e+00 -3.75255e+01        00000 
-8.04935e+00 -3.75140e+01        00000 
-7.79645e+00 -3.75026e+01        00000 
-7.54510e+00 -3.74912e+01        00000 
-7.29529e+00 -3.74799e+01        00000 
-7.04687e+00 -3.74687e+01        00000 
-6.79986e+00 -3.74576e+01        00000 
-6.55410e+00 -3.74466e+01        00000 
-6.30963e+00 -3.74358e+01        00000 
-6.06629e+00 -3.74253e+01        00000 
-5.82413e+00 -3.74150e+01        00000 
-5.58300e+00 -3.74049e+01        00000 
-5.34294e+00 -3.73951e+01        00000 
-5.10381e+00 -3.73856e+01        00000 
-4.86565e+00 -3.73764e+01        00000 
-4.62832e+00 -3.73675e+01        00000 
-4.39187e+00 -3.73590e+01        00000 
-4.15617e+00 -3.73508e+01        00000 
-3.92125e+00 -3.73430e+01        00000 
-3.68699e+00 -3.73356e+01        00000 
-3.45343e+00 -3.73285e+01        00000 
-3.22044e+00 -3.73219e+01        00000 
-2.98806e+00 -3.73157e+01        00000 
-2.75617e+00 -3.73099e+01        00000 
-2.52481e+00 -3.73045e+01        00000 
-2.29385e+00 -3.72996e+01        00000 
-2.06334e+00 -3.72951e+01        00000 
-1.83314e+00 -3.72911e+01        00000 
-1.60332e+00 -3.72876e+01        00000 
-1.37373e+00 -3.72845e+01        00000 
-1.14443e+00 -3.72818e+01        00000 
-9.15286e-01 -3.72797e+01        00000 
-6.86346e-01 -3.72780e+01        00000 
-4.57482e-01 -3.72768e+01        00000 
-2.28744e-01 -3.72761e+01        00000 
-8.82975e-13 -3.72758e+01        00000 
 2.28744e-01 -3.72761e+01        00000 
 4.57482e-01 -3.72768e+01        00000 
 6.86346e-01 -3.72780e+01        00000 
 9.15286e-01 -3.72797e+01        00000 
 1.14443e+00 -3.72818e+01        00000 
 1.37373e+00 -3.72845e+01        00000 
 1.60332e+00 -3.72876e+01        00000 
 1.83314e+00 -3.72911e+01        00000 
 2.06334e+00 -3.72951e+01        00000 
 2.29385e+00 -3.72996e+01        00000 
 2.52481e+00 -3.73045e+01        00000 
 2.75617e+00 -3.73099e+01        00000 
 2.98806e+00 -3.73157e+01        00000 
 3.22044e+00 -3.73219e+01        00000 
 3.45343e+00 -3.73285e+01        00000 
 3.68699e+00 -3.73356e+01        00000 
 3.92125e+00 -3.73430e+01        00000 
 4.15617e+00 -3.73508e+01        00000 
 4.39187e+00 -3.73590e+01        00000 
 4.62832e+00 -3.73675e+01        00000 
 4.86565e+00 -3.73764e+01        00000 
 5.10381e+00 -3.73856e+01        00000 
 5.34294e+00 -3.73951e+01        00000 
 5.58300e+00 -3.74049e+01        00000 
 5.82413e+00 -3.74150e+01        00000 
 6.06629e+00 -3.74253e+01        00000 
 6.30963e+00 -3.74358e+01        00000 
 6.55410e+00 -3.74466e+01        00000 
 6.79986e+00 -3.74576e+01        00000 
 7.04687e+00 -3.74687e+01        00000 
 7.29529e+00 -3.74799e+01        00000 
 7.54510e+00 -3.74912e+01        00000 
 7.79645e+00 -3.75026e+01        00000 
 8.04935e+00 -3.75140e+01        00000 
 8.30396e+00 -3.75255e+01        00000 
 8.56029e+00 -3.75368e+01        00000 
 8.81855e+00 -3.75480e+01        00000 
 9.07876e+00 -3.75591e+01        00000 
 9.34116e+00 -3.75700e+01        00000 
 9.60583e+00 -3.75805e+01        00000 
 9.87307e+00 -3.75906e+01        00000 
 1.01430e+01 -3.76003e+01        00000 
 1.04162e+01 -3.76093e+01        00000 
 1.06928e+01 -3.76175e+01        00000 
 1.09735e+01 -3.76248e+01        00000 
 1.12589e+01 -3.76310e+01        00000 
 1.15501e+01 -3.76360e+01        00000 
 1.18478e+01 -3.76401e+01        00000 
 1.21523e+01 -3.76441e+01        00000 
-1.21719e+01 -3.82831e+01        00000 
-1.18593e+01 -3.82745e+01        00000 
-1.15595e+01 -3.82640e+01        00000 
-1.12681e+01 -3.82521e+01        00000 
-1.09830e+01 -3.82393e+01        00000 
-1.07027e+01 -3.82259e+01        00000 
-1.04266e+01 -3.82120e+01        00000 
-1.01538e+01 -3.81977e+01        00000 
-9.88417e+00 -3.81833e+01        00000 
-9.61717e+00 -3.81687e+01        00000 
-9.35268e+00 -3.81541e+01        00000 
-9.09040e+00 -3.81394e+01        00000 
-8.83027e+00 -3.81247e+01        00000 
-8.57205e+00 -3.81101e+01        00000 
-8.31571e+00 -3.80955e+01        00000 
-8.06105e+00 -3.80811e+01        00000 
-7.80808e+00 -3.80668e+01        00000 
-7.55662e+00 -3.80526e+01        00000 
-7.30668e+00 -3.80387e+01        00000 
-7.05810e+00 -3.80250e+01        00000 
-6.81091e+00 -3.80115e+01        00000 
-6.56494e+00 -3.79983e+01        00000 
-6.32025e+00 -3.79853e+01        00000 
-6.07667e+00 -3.79727e+01        00000 
-5.83425e+00 -3.79604e+01        00000 
-5.59284e+00 -3.79485e+01        00000 
-5.35248e+00 -3.79369e+01        00000 
-5.11304e+00 -3.79257e+01        00000 
-4.87455e+00 -3.79149e+01        00000 
-4.63688e+00 -3.79045e+01        00000 
-4.40008e+00 -3.78945e+01        00000 
-4.16401e+00 -3.78849e+01        00000 
-3.92872e+00 -3.78758e+01        00000 
-3.69407e+00 -3.78672e+01        00000 
-3.46012e+00 -3.78590e+01        00000 
-3.22672e+00 -3.78513e+01        00000 
-2.99393e+00 -3.78441e+01        00000 
-2.76161e+00 -3.78374e+01        00000 
-2.52983e+00 -3.78312e+01        00000 
-2.29843e+00 -3.78255e+01        00000 
-2.06748e+00 -3.78203e+01        00000 
-1.83684e+00 -3.78157e+01        00000 
-1.60656e+00 -3.78116e+01        00000 
-1.37652e+00 -3.78080e+01        00000 
-1.14676e+00 -3.78050e+01        00000 
-9.17152e-01 -3.78025e+01        00000 
-6.87748e-01 -3.78006e+01        00000 
-4.58418e-01 -3.77992e+01        00000 
-2.29212e-01 -3.77984e+01        00000 
-8.23597e-13 -3.77981e+01        00000 
 2.29212e-01 -3.77984e+01        00000 
 4.58418e-01 -3.77992e+01        00000 
 6.87748e-01 -3.78006e+01        00000 
 9.17152e-01 -3.78025e+01        00000 
 1.14676e+00 -3.78050e+01        00000 
 1.37652e+00 -3.78080e+01        00000 
 1.60656e+00 -3.78116e+01        00000 
 1.83684e+00 -3.78157e+01        00000 
 2.06748e+00 -3.78203e+01        00000 
 2.29843e+00 -3.78255e+01        00000 
 2.52983e+00 -3.78312e+01        00000 
 2.76161e+00 -3.78374e+01        00000 
 2.99393e+00 -3.78441e+01        00000 
 3.22672e+00 -3.78513e+01        00000 
 3.46012e+00 -3.78590e+01        00000 
 3.69407e+00 -3.78672e+01        00000 
 3.92872e+00 -3.78758e+01        00000 
 4.16401e+00 -3.78849e+01        00000 
 4.40008e+00 -3.78945e+01        00000 
 4.63688e+00 -3.79045e+01        00000 
 4.87455e+00 -3.79149e+01        00000 
 5.11304e+00 -3.79257e+01        00000 
 5.35248e+00 -3.79369e+01        00000 
 5.59284e+00 -3.79485e+01        00000 
 5.83425e+00 -3.79604e+01        00000 
 6.07667e+00 -3.79727e+01        00000 
 6.32025e+00 -3.79853e+01        00000 
 6.56494e+00 -3.79983e+01        00000 
 6.81091e+00 -3.80115e+01        00000 
 7.05810e+00 -3.80250e+01        00000 
 7.30668e+00 -3.80387e+01        00000 
 7.55662e+00 -3.80526e+01        00000 
 7.80808e+00 -3.80668e+01        00000 
 8.06105e+00 -3.80811e+01        00000 
 8.31571e+00 -3.80955e+01        00000 
 8.57205e+00 -3.81101e+01        00000 
 8.83027e+00 -3.81247e+01        00000 
 9.09040e+00 -3.81394e+01        00000 
 9.35268e+00 -3.81541e+01        00000 
 9.61717e+00 -3.81687e+01        00000 
 9.88417e+00 -3.81833e+01        00000 
 1.01538e+01 -3.81977e+01        00000 
 1.04266e+01 -3.82120e+01        00000 
 1.07027e+01 -3.82259e+01        00000 
 1.09830e+01 -3.82393e+01        00000 
 1.12681e+01 -3.82521e+01        00000 
 1.15595e+01 -3.82640e+01        00000 
 1.18593e+01 -3.82745e+01        00000 
 1.21719e+01 -3.82831e+01        00000 </DataArray>
            <DataArray Name="strain" NumberOfComponents="3" format="ascii" type="Float64">
-3.77112e+01  3.78500e+00 -3.04713e+01 
-2.58644e+01 -1.51844e+00 -2.88624e+01 
-2.27049e+01 -6.81298e-02 -2.33663e+01 
-2.04681e+01 -9.86116e-02 -2.03590e+01 
-1.89677e+01 -4.15855e-02 -1.78254e+01 
-1.78169e+01 -2.74462e-02 -1.58886e+01 
-1.68848e+01 -1.78187e-02 -1.43140e+01 
-1.60930e+01 -1.25498e-02 -1.30043e+01 
-1.53979e+01 -9.15402e-03 -1.18889e+01 
-1.47720e+01 -6.94249e-03 -1.09224e+01 
-1.41979e+01 -5.38939e-03 -1.00733e+01 
-1.36633e+01 -4.31177e-03 -9.31903e+00 
-1.31601e+01 -3.49072e-03 -8.64321e+00 
-1.26818e+01 -2.90746e-03 -8.03324e+00 
-1.22243e+01 -2.42460e-03 -7.47956e+00 
-1.17839e+01 -2.08484e-03 -6.97443e+00 
-1.13581e+01 -1.77519e-03 -6.51183e+00 
-1.09447e+01 -1.56693e-03 -6.08663e+00 
-1.05422e+01 -1.35313e-03 -5.69480e+00 
-1.01490e+01 -1.22118e-03 -5.33275e+00 
-9.76414e+00 -1.06375e-03 -4.99766e+00 
-9.38658e+00 -9.78746e-04 -4.68691e+00 
-9.01565e+00 -8.56100e-04 -4.39845e+00 
-8.65055e+00 -8.01424e-04 -4.13028e+00 
-8.29084e+00 -7.01104e-04 -3.88091e+00 
-7.93587e+00 -6.66836e-04 -3.64878e+00 
-7.58534e+00 -5.81301e-04 -3.43274e+00 
-7.23874e+00 -5.61262e-04 -3.23156e+00 
-6.89585e+00 -4.85765e-04 -3.04438e+00 
-6.55622e+00 -4.75958e-04 -2.87017e+00 
-6.21972e+00 -4.07402e-04 -2.70829e+00 
-5.88596e+00 -4.05156e-04 -2.55789e+00 
-5.55483e+00 -3.41454e-04 -2.41847e+00 
-5.22600e+00 -3.44933e-04 -2.28933e+00 
-4.89939e+00 -2.84636e-04 -2.17010e+00 
-4.57470e+00 -2.92544e-04 -2.06017e+00 
-4.25189e+00 -2.34616e-04 -1.95928e+00 
-3.93066e+00 -2.46017e-04 -1.86690e+00 
-3.61099e+00 -1.89692e-04 -1.78286e+00 
-3.29261e+00 -2.03897e-04 -1.70670e+00 
-2.97552e+00 -1.48590e-04 -1.63833e+00 
-2.65944e+00 -1.65080e-04 -1.57734e+00 
-2.34439e+00 -1.10328e-04 -1.52370e+00 
-2.03011e+00 -1.28701e-04 -1.47706e+00 
-1.71662e+00 -7.41193e-05 -1.43743e+00 
-1.40367e+00 -9.40610e-05 -1.40453e+00 
-1.09126e+00 -3.93170e-05 -1.37841e+00 
-7.79180e-01 -6.05706e-05 -1.35882e+00 
-4.67429e-01 -5.36226e-06 -1.34586e+00 
-1.55776e-01 -2.77098e-05 -1.33933e+00 
 1.55776e-01  2.77098e-05 -1.33933e+00 
 4.67429e-01  5.36226e-06 -1.34586e+00 
 7.79180e-01  6.05706e-05 -1.35882e+00 
 1.09126e+00  3.93170e-05 -1.37841e+00 
 1.40367e+00  9.40610e-05 -1.40453e+00 
 1.71662e+00  7.41193e-05 -1.43743e+00 
 2.03011e+00  1.28701e-04 -1.47706e+00 
 2.34439e+00  1.10328e-04 -1.52370e+00 
 2.65944e+00  1.65080e-04 -1.57734e+00 
 2.97552e+00  1.48590e-04 -1.63833e+00 
 3.29261e+00  2.03897e-04 -1.70670e+00 
 3.61099e+00  1.89692e-04 -1.78286e+00 
 3.93066e+00  2.46017e-04 -1.86690e+00 
 4.25189e+00  2.34616e-04 -1.95928e+00 
 4.57470e+00  2.92544e-04 -2.06017e+00 
 4.89939e+00  2.84636e-04 -2.17010e+00 
 5.22600e+00  3.44933e-04 -2.28933e+00 
 5.55483e+00  3.41454e-04 -2.41847e+00 
 5.88596e+00  4.05156e-04 -2.55789e+00 
 6.21972e+00  4.07402e-04 -2.70829e+00 
 6.55622e+00  4.75958e-04 -2.87017e+00 
 6.89585e+00  4.85765e-04 -3.04438e+00 
 7.23874e+00  5.61262e-04 -3.23156e+00 
 7.58534e+00  5.81301e-04 -3.43274e+00 
 7.93587e+00  6.66836e-04 -3.64878e+00 
 8.29084e+00  7.01104e-04 -3.88091e+00 
 8.65055e+00  8.01424e-04 -4.13028e+00 
 9.01565e+00  8.56100e-04 -4.39845e+00 
 9.38658e+00  9.78746e-04 -4.68691e+00 
 9.76414e+00  1.06375e-03 -4.99766e+00 
 1.01490e+01  1.22118e-03 -5.33275e+00 
 1.05422e+01  1.35313e-03 -5.69480e+00 
 1.09447e+01  1.56693e-03 -6.08663e+00 
 1.13581e+01  1.77519e-03 -6.51183e+00 
 1.17839e+01  2.08484e-03 -6.97443e+00 
 1.22243e+01  2.42460e-03 -7.47956e+00 
 1.26818e+01  2.90746e-03 -8.03324e+00 
 1.31601e+01  3.49072e-03 -8.64321e+00 
 1.36633e+01  4.31177e-03 -9.31903e+00 
 1.41979e+01  5.38939e-03 -1.00733e+01 
 1.47720e+01  6.94249e-03 -1.09224e+01 
 1.53979e+01  9.15402e-03 -1.18889e+01 
 1.60930e+01  1.25498e-02 -1.30043e+01 
 1.68848e+01  1.78187e-02 -1.43140e+01 
 1.78169e+01  2.74462e-02 -1.58886e+01 
 1.89677e+01  4.15855e-02 -1.78254e+01 
 2.04681e+01  9.86116e-02 -2.03590e+01 
 2.27049e+01  6.81298e-02 -2.33663e+01 
 2.58644e+01  1.51844e+00 -2.88624e+01 
 3.77112e+01 -3.78500e+00 -3.04713e+01 
-3.52751e+01  1.76384e+01 -5.62815e+00 
-3.03240e+01  1.28738e+01 -1.14209e+01 
-2.57483e+01  8.09091e+00 -1.68631e+01 
-2.29941e+01  5.83799e+00 -1.65759e+01 
-2.10037e+01  4.40238e+00 -1.57313e+01 
-1.95053e+01  3.48853e+00 -1.46350e+01 
-1.83105e+01  2.86076e+00 -1.35532e+01 
-1.73177e+01  2.40920e+00 -1.25407e+01 
-1.64648e+01  2.07056e+00 -1.16149e+01 
-1.57123e+01  1.80752e+00 -1.07744e+01 
-1.50345e+01  1.59756e+00 -1.00121e+01 
-1.44136e+01  1.42574e+00 -9.31974e+00 
-1.38375e+01  1.28261e+00 -8.68913e+00 
-1.32969e+01  1.16119e+00 -8.11314e+00 
-1.27853e+01  1.05697e+00 -7.58539e+00 
-1.22977e+01  9.66254e-01 -7.10055e+00 
-1.18302e+01  8.86697e-01 -6.65392e+00 
-1.13797e+01  8.16114e-01 -6.24159e+00 
-1.09440e+01  7.53201e-01 -5.86013e+00 
-1.05209e+01  6.96557e-01 -5.50664e+00 
-1.01089e+01  6.45429e-01 -5.17854e+00 
-9.70669e+00  5.98847e-01 -4.87367e+00 
-9.31319e+00  5.56375e-01 -4.59007e+00 
-8.92732e+00  5.17296e-01 -4.32606e+00 
-8.54846e+00  4.81364e-01 -4.08013e+00 
-8.17575e+00  4.48023e-01 -3.85098e+00 
-7.80873e+00  4.17143e-01 -3.63742e+00 
-7.44675e+00  3.88275e-01 -3.43843e+00 
-7.08946e+00  3.61366e-01 -3.25304e+00 
-6.73633e+00  3.36038e-01 -3.08044e+00 
-6.38711e+00  3.12289e-01 -2.91988e+00 
-6.04133e+00  2.89792e-01 -2.77067e+00 
-5.69884e+00  2.68581e-01 -2.63222e+00 
-5.35920e+00  2.48365e-01 -2.50397e+00 
-5.02232e+00  2.29201e-01 -2.38544e+00 
-4.68780e+00  2.10825e-01 -2.27618e+00 
-4.35559e+00  1.93314e-01 -2.17579e+00 
-4.02533e+00  1.76422e-01 -2.08392e+00 
-3.69696e+00  1.60239e-01 -2.00024e+00 
-3.37018e+00  1.44533e-01 -1.92447e+00 
-3.04495e+00  1.29404e-01 -1.85635e+00 
-2.72098e+00  1.14632e-01 -1.79564e+00 
-2.39823e+00  1.00322e-01 -1.74217e+00 
-2.07643e+00  8.62635e-02 -1.69574e+00 
-1.75556e+00  7.25648e-02 -1.65621e+00 
-1.43536e+00  5.90220e-02 -1.62346e+00 
-1.11581e+00  4.57471e-02 -1.59739e+00 
-7.96659e-01  3.25399e-02 -1.57789e+00 
-4.77894e-01  1.95140e-02 -1.56494e+00 
-1.59261e-01  6.47215e-03 -1.55846e+00 
 1.59261e-01 -6.47215e-03 -1.55846e+00 
 4.77894e-01 -1.95140e-02 -1.56494e+00 
 7.96659e-01 -3.25399e-02 -1.57789e+00 
 1.11581e+00 -4.57471e-02 -1.59739e+00 
 1.43536e+00 -5.90220e-02 -1.62346e+00 
 1.75556e+00 -7.25648e-02 -1.65621e+00 
 2.07643e+00 -8.62635e-02 -1.69574e+00 
 2.39823e+00 -1.00322e-01 -1.74217e+00 
 2.72098e+00 -1.14632e-01 -1.79564e+00 
 3.04495e+00 -1.29404e-01 -1.85635e+00 
 3.37018e+00 -1.44533e-01 -1.92447e+00 
 3.69696e+00 -1.60239e-01 -2.00024e+00 
 4.02533e+00 -1.76422e-01 -2.08392e+00 
 4.35559e+00 -1.93314e-01 -2.17579e+00 
 4.68780e+00 -2.10825e-01 -2.27618e+00 
 5.02232e+00 -2.29201e-01 -2.38544e+00 
 5.35920e+00 -2.48365e-01 -2.50397e+00 
 5.69884e+00 -2.68581e-01 -2.63222e+00 
 6.04133e+00 -2.89792e-01 -2.77067e+00 
 6.38711e+00 -3.12289e-01 -2.91988e+00 
 6.73633e+00 -3.36038e-01 -3.08044e+00 
 7.08946e+00 -3.61366e-01 -3.25304e+00 
 7.44675e+00 -3.88275e-01 -3.43843e+00 
 7.80873e+00 -4.17143e-01 -3.63742e+00 
 8.17575e+00 -4.48023e-01 -3.85098e+00 
 8.54846e+00 -4.81364e-01 -4.08013e+00 
 8.92732e+00 -5.17296e-01 -4.32606e+00 
 9.31319e+00 -5.56375e-01 -4.59007e+00 
 9.70669e+00 -5.98847e-01 -4.87367e+00 
 1.01089e+01 -6.45429e-01 -5.17854e+00 
 1.05209e+01 -6.96557e-01 -5.50664e+00 
 1.09440e+01 -7.53201e-01 -5.86013e+00 
 1.13797e+01 -8.16114e-01 -6.24159e+00 
 1.18302e+01 -8.86697e-01 -6.65392e+00 
 1.22977e+01 -9.66254e-01 -7.10055e+00 
 1.27853e+01 -1.05697e+00 -7.58539e+00 
 1.32969e+01 -1.16119e+00 -8.11314e+00 
 1.38375e+01 -1.28261e+00 -8.68913e+00 
 1.44136e+01 -1.42574e+00 -9.31974e+00 
 1.50345e+01 -1.59756e+00 -1.00121e+01 
 1.57123e+01 -1.80752e+00 -1.07744e+01 
 1.64648e+01 -2.07056e+00 -1.16149e+01 
 1.73177e+01 -2.40920e+00 -1.25407e+01 
 1.83105e+01 -2.86076e+00 -1.35532e+01 
 1.95053e+01 -3.48853e+00 -1.46350e+01 
 2.10037e+01 -4.40238e+00 -1.57313e+01 
 2.29941e+01 -5.83799e+00 -1.65759e+01 
 2.57483e+01 -8.09091e+00 -1.68631e+01 
 3.03240e+01 -1.28738e+01 -1.14209e+01 
 3.52751e+01 -1.76384e+01 -5.62815e+00 
-2.49910e+01  1.03499e+01 -2.73082e+00 
-2.74878e+01  1.21743e+01 -4.21724e+00 
-2.62613e+01  1.11267e+01 -8.44125e+00 
-2.44208e+01  9.31114e+00 -1.13247e+01 
-2.27021e+01  7.77624e+00 -1.23381e+01 
-2.11956e+01  6.53411e+00 -1.25523e+01 
-1.98983e+01  5.55743e+00 -1.23346e+01 
-1.87743e+01  4.78559e+00 -1.19086e+01 
-1.77893e+01  4.16946e+00 -1.13870e+01 
-1.69138e+01  3.67050e+00 -1.08310e+01 
-1.61253e+01  3.26074e+00 -1.02728e+01 
-1.54061e+01  2.91924e+00 -9.72975e+00 
-1.47429e+01  2.63105e+00 -9.21025e+00 
-1.41253e+01  2.38472e+00 -8.71825e+00 
-1.35454e+01  2.17202e+00 -8.25489e+00 
-1.29969e+01  1.98639e+00 -7.82002e+00 
-1.24751e+01  1.82312e+00 -7.41260e+00 
-1.19757e+01  1.67821e+00 -7.03133e+00 
-1.14958e+01  1.54884e+00 -6.67466e+00 
-1.10326e+01  1.43243e+00 -6.34110e+00 
-1.05842e+01  1.32724e+00 -6.02910e+00 
-1.01486e+01  1.23151e+00 -5.73729e+00 
-9.72443e+00  1.14413e+00 -5.46431e+00 
-9.31031e+00  1.06385e+00 -5.20898e+00 
-8.90531e+00  9.89943e-01 -4.97013e+00 
-8.50832e+00  9.21474e-01 -4.74676e+00 
-8.11870e+00  8.57967e-01 -4.53791e+00 
-7.73559e+00  7.98699e-01 -4.34275e+00 
-7.35851e+00  7.43360e-01 -4.16046e+00 
-6.98676e+00  6.91368e-01 -3.99037e+00 
-6.62000e+00  6.42523e-01 -3.83179e+00 
-6.25763e+00  5.96343e-01 -3.68418e+00 
-5.89941e+00  5.52707e-01 -3.54696e+00 
-5.54482e+00  5.11202e-01 -3.41968e+00 
-5.19368e+00  4.71764e-01 -3.30187e+00 
-4.84555e+00  4.34031e-01 -3.19316e+00 
-4.50027e+00  3.97978e-01 -3.09314e+00 
-4.15745e+00  3.63282e-01 -3.00153e+00 
-3.81699e+00  3.29947e-01 -2.91801e+00 
-3.47852e+00  2.97677e-01 -2.84232e+00 
-3.14195e+00  2.66499e-01 -2.77422e+00 
-2.80696e+00  2.36136e-01 -2.71350e+00 
-2.47347e+00  2.06633e-01 -2.65998e+00 
-2.14117e+00  1.77727e-01 -2.61349e+00 
-1.81000e+00  1.49473e-01 -2.57389e+00 
-1.47967e+00  1.21621e-01 -2.54107e+00 
-1.15014e+00  9.42326e-02 -2.51493e+00 
-8.21102e-01  6.70652e-02 -2.49539e+00 
-4.92531e-01  4.01863e-02 -2.48239e+00 
-1.64134e-01  1.33561e-02 -2.47591e+00 
 1.64134e-01 -1.33561e-02 -2.47591e+00 
 4.92531e-01 -4.01863e-02 -2.48239e+00 
 8.21102e-01 -6.70652e-02 -2.49539e+00 
 1.15014e+00 -9.42326e-02 -2.51493e+00 
 1.47967e+00 -1.21621e-01 -2.54107e+00 
 1.81000e+00 -1.49473e-01 -2.57389e+00 
 2.14117e+00 -1.77727e-01 -2.61349e+00 
 2.47347e+00 -2.06633e-01 -2.65998e+00 
 2.80696e+00 -2.36136e-01 -2.71350e+00 
 3.14195e+00 -2.66499e-01 -2.77422e+00 
 3.47852e+00 -2.97677e-01 -2.84232e+00 
 3.81699e+00 -3.29947e-01 -2.91801e+00 
 4.15745e+00 -3.63282e-01 -3.00153e+00 
 4.50027e+00 -3.97978e-01 -3.09314e+00 
 4.84555e+00 -4.34031e-01 -3.19316e+00 
 5.19368e+00 -4.71764e-01 -3.30187e+00 
 5.54482e+00 -5.11202e-01 -3.41968e+00 
 5.89941e+00 -5.52707e-01 -3.54696e+00 
 6.25763e+00 -5.96343e-01 -3.68418e+00 
 6.62000e+00 -6.42523e-01 -3.83179e+00 
 6.98676e+00 -6.91368e-01 -3.99037e+00 
 7.35851e+00 -7.43360e-01 -4.16046e+00 
 7.73559e+00 -7.98699e-01 -4.34275e+00 
 8.11870e+00 -8.57967e-01 -4.53791e+00 
 8.50832e+00 -9.21474e-01 -4.74676e+00 
 8.90531e+00 -9.89943e-01 -4.97013e+00 
 9.31031e+00 -1.06385e+00 -5.20898e+00 
 9.72443e+00 -1.14413e+00 -5.46431e+00 
 1.01486e+01 -1.23151e+00 -5.73729e+00 
 1.05842e+01 -1.32724e+00 -6.02910e+00 
 1.10326e+01 -1.43243e+00 -6.34110e+00 
 1.14958e+01 -1.54884e+00 -6.67466e+00 
 1.19757e+01 -1.67821e+00 -7.03133e+00 
 1.24751e+01 -1.82312e+00 -7.41260e+00 
 1.29969e+01 -1.98639e+00 -7.82002e+00 
 1.35454e+01 -2.17202e+00 -8.25489e+00 
 1.41253e+01 -2.38472e+00 -8.71825e+00 
 1.47429e+01 -2.63105e+00 -9.21025e+00 
 1.54061e+01 -2.91924e+00 -9.72975e+00 
 1.61253e+01 -3.26074e+00 -1.02728e+01 
 1.69138e+01 -3.67050e+00 -1.08310e+01 
 1.77893e+01 -4.16946e+00 -1.13870e+01 
 1.87743e+01 -4.78559e+00 -1.19086e+01 
 1.98983e+01 -5.55743e+00 -1.23346e+01 
 2.11956e+01 -6.53411e+00 -1.25523e+01 
 2.27021e+01 -7.77624e+00 -1.23381e+01 
 2.44208e+01 -9.31114e+00 -1.13247e+01 
 2.62613e+01 -1.11267e+01 -8.44125e+00 
 2.74878e+01 -1.21743e+01 -4.21724e+00 
 2.49910e+01 -1.03499e+01 -2.73082e+00 
-2.39321e+01  1.07441e+01 -1.15961e+00 
-2.43393e+01  1.08285e+01 -2.33553e+00 
-2.45583e+01  1.07209e+01 -4.54488e+00 
-2.39267e+01  1.00953e+01 -6.72701e+00 
-2.29256e+01  9.16596e+00 -8.41172e+00 
-2.18179e+01  8.20614e+00 -9.42567e+00 
-2.07213e+01  7.31125e+00 -9.95827e+00 
-1.96833e+01  6.51593e+00 -1.01571e+01 
-1.87189e+01  5.82342e+00 -1.01377e+01 
-1.78277e+01  5.22493e+00 -9.97889e+00 
-1.70044e+01  4.70843e+00 -9.73411e+00 
-1.62410e+01  4.26134e+00 -9.43875e+00 
-1.55299e+01  3.87276e+00 -9.11621e+00 
-1.48639e+01  3.53298e+00 -8.78187e+00 
-1.42370e+01  3.23426e+00 -8.44573e+00 
-1.36435e+01  2.96989e+00 -8.11432e+00 
-1.30792e+01  2.73470e+00 -7.79171e+00 
-1.25401e+01  2.52411e+00 -7.48047e+00 
-1.20231e+01  2.33470e+00 -7.18205e+00 
-1.15254e+01  2.16328e+00 -6.89724e+00 
-1.10448e+01  2.00759e+00 -6.62631e+00 
-1.05793e+01  1.86536e+00 -6.36929e+00 
-1.01272e+01  1.73505e+00 -6.12593e+00 
-9.68696e+00  1.61501e+00 -5.89592e+00 
-9.25755e+00  1.50418e+00 -5.67882e+00 
-8.83767e+00  1.40133e+00 -5.47421e+00 
-8.42656e+00  1.30570e+00 -5.28157e+00 
-8.02321e+00  1.21635e+00 -5.10048e+00 
-7.62704e+00  1.13275e+00 -4.93043e+00 
-7.23724e+00  1.05413e+00 -4.77101e+00 
-6.85337e+00  9.80143e-01 -4.62176e+00 
-6.47475e+00  9.10149e-01 -4.48229e+00 
-6.10106e+00  8.43898e-01 -4.35222e+00 
-5.73170e+00  7.80861e-01 -4.23120e+00 
-5.36643e+00  7.20866e-01 -4.11887e+00 
-5.00475e+00  6.63455e-01 -4.01497e+00 
-4.64644e+00  6.08516e-01 -3.91917e+00 
-4.29107e+00  5.55644e-01 -3.83125e+00 
-3.93848e+00  5.04770e-01 -3.75095e+00 
-3.58825e+00  4.55529e-01 -3.67807e+00 
-3.24027e+00  4.07886e-01 -3.61240e+00 
-2.89416e+00  3.61504e-01 -3.55378e+00 
-2.54982e+00  3.16371e-01 -3.50205e+00 
-2.20689e+00  2.72172e-01 -3.45708e+00 
-1.86530e+00  2.28914e-01 -3.41875e+00 
-1.52470e+00  1.86297e-01 -3.38695e+00 
-1.18502e+00  1.44338e-01 -3.36161e+00 
-8.45947e-01  1.02749e-01 -3.34266e+00 
-5.07410e-01  6.15547e-02 -3.33006e+00 
-1.69089e-01  2.04723e-02 -3.32377e+00 
 1.69089e-01 -2.04723e-02 -3.32377e+00 
 5.07410e-01 -6.15547e-02 -3.33006e+00 
 8.45947e-01 -1.02749e-01 -3.34266e+00 
 1.18502e+00 -1.44338e-01 -3.36161e+00 
 1.52470e+00 -1.86297e-01 -3.38695e+00 
 1.86530e+00 -2.28914e-01 -3.41875e+00 
 2.20689e+00 -2.72172e-01 -3.45708e+00 
 2.54982e+00 -3.16371e-01 -3.50205e+00 
 2.89416e+00 -3.61504e-01 -3.55378e+00 
 3.24027e+00 -4.07886e-01 -3.61240e+00 
 3.58825e+00 -4.55529e-01 -3.67807e+00 
 3.93848e+00 -5.04770e-01 -3.75095e+00 
 4.29107e+00 -5.55644e-01 -3.83125e+00 
 4.64644e+00 -6.08516e-01 -3.91917e+00 
 5.00475e+00 -6.63455e-01 -4.01497e+00 
 5.36643e+00 -7.20866e-01 -4.11887e+00 
 5.73170e+00 -7.80861e-01 -4.23120e+00 
 6.10106e+00 -8.43898e-01 -4.35222e+00 
 6.47475e+00 -9.10149e-01 -4.48229e+00 
 6.85337e+00 -9.80143e-01 -4.62176e+00 
 7.23724e+00 -1.05413e+00 -4.77101e+00 
 7.62704e+00 -1.13275e+00 -4.93043e+00 
 8.02321e+00 -1.21635e+00 -5.10048e+00 
 8.42656e+00 -1.30570e+00 -5.28157e+00 
 8.83767e+00 -1.40133e+00 -5.47421e+00 
 9.25755e+00 -1.50418e+00 -5.67882e+00 
 9.68696e+00 -1.61501e+00 -5.89592e+00 
 1.01272e+01 -1.73505e+00 -6.12593e+00 
 1.05793e+01 -1.86536e+00 -6.36929e+00 
 1.10448e+01 -2.00759e+00 -6.62631e+00 
 1.15254e+01 -2.16328e+00 -6.89724e+00 
 1.20231e+01 -2.33470e+00 -7.18205e+00 
 1.25401e+01 -2.52411e+00 -7.48047e+00 
 1.30792e+01 -2.73470e+00 -7.79171e+00 
 1.36435e+01 -2.96989e+00 -8.11432e+00 
 1.42370e+01 -3.23426e+00 -8.44573e+00 
 1.48639e+01 -3.53298e+00 -8.78187e+00 
 1.55299e+01 -3.87276e+00 -9.11621e+00 
 1.62410e+01 -4.26134e+00 -9.43875e+00 
 1.70044e+01 -4.70843e+00 -9.73411e+00 
 1.78277e+01 -5.22493e+00 -9.97889e+00 
 1.87189e+01 -5.82342e+00 -1.01377e+01 
 1.96833e+01 -6.51593e+00 -1.01571e+01 
 2.07213e+01 -7.31125e+00 -9.95827e+00 
 2.18179e+01 -8.20614e+00 -9.42567e+00 
 2.29256e+01 -9.16596e+00 -8.41172e+00 
 2.39267e+01 -1.00953e+01 -6.72701e+00 
 2.45583e+01 -1.07209e+01 -4.54488e+00 
 2.43393e+01 -1.08285e+01 -2.33553e+00 
 2.39321e+01 -1.07441e+01 -1.15961e+00 
-2.27697e+01  1.01741e+01 -7.06249e-01 
-2.31368e+01  1.03804e+01 -1.33470e+00 
-2.31566e+01  1.02708e+01 -2.80494e+00 
-2.29272e+01  9.97314e+00 -4.30108e+00 
-2.24025e+01  9.48660e+00 -5.67517e+00 
-2.16874e+01  8.86993e+00 -6.80388e+00 
-2.08758e+01  8.20562e+00 -7.63142e+00 
-2.00302e+01  7.54536e+00 -8.18945e+00 
-1.91881e+01  6.91855e+00 -8.52874e+00 
-1.83693e+01  6.33849e+00 -8.70001e+00 
-1.75837e+01  5.80972e+00 -8.74667e+00 
-1.68346e+01  5.33133e+00 -8.70297e+00 
-1.61223e+01  4.90028e+00 -8.59528e+00 
-1.54449e+01  4.51210e+00 -8.44333e+00 
-1.48003e+01  4.16245e+00 -8.26179e+00 
-1.41852e+01  3.84675e+00 -8.06146e+00 
-1.35972e+01  3.56115e+00 -7.85024e+00 
-1.30334e+01  3.30185e+00 -7.63390e+00 
-1.24915e+01  3.06585e+00 -7.41664e+00 
-1.19692e+01  2.85017e+00 -7.20146e+00 
-1.14645e+01  2.65258e+00 -6.99053e+00 
-1.09756e+01  2.47079e+00 -6.78536e+00 
-1.05010e+01  2.30317e+00 -6.58700e+00 
-1.00392e+01  2.14794e+00 -6.39616e+00 
-9.58917e+00  2.00392e+00 -6.21329e+00 
-9.14958e+00  1.86973e+00 -6.03865e+00 
-8.71963e+00  1.74448e+00 -5.87236e+00 
-8.29828e+00  1.62709e+00 -5.71446e+00 
-7.88492e+00  1.51690e+00 -5.56489e+00 
-7.47867e+00  1.41304e+00 -5.42357e+00 
-7.07906e+00  1.31503e+00 -5.29036e+00 
-6.68535e+00  1.22213e+00 -5.16513e+00 
-6.29717e+00  1.13400e+00 -5.04769e+00 
-5.91389e+00  1.05002e+00 -4.93789e+00 
-5.53522e+00  9.69931e-01 -4.83554e+00 
-5.16060e+00  8.93199e-01 -4.74049e+00 
-4.78980e+00  8.19641e-01 -4.65256e+00 
-4.42232e+00  7.48785e-01 -4.57160e+00 
-4.05798e+00  6.80500e-01 -4.49746e+00 
-3.69633e+00  6.14362e-01 -4.43000e+00 
-3.33722e+00  5.50278e-01 -4.36908e+00 
-2.98023e+00  4.87863e-01 -4.31460e+00 
-2.62525e+00  4.27054e-01 -4.26644e+00 
-2.27187e+00  3.67489e-01 -4.22451e+00 
-1.92000e+00  3.09128e-01 -4.18872e+00 
-1.56926e+00  2.51631e-01 -4.15901e+00 
-1.21957e+00  1.94969e-01 -4.13532e+00 
-8.70556e-01  1.38817e-01 -4.11759e+00 
-5.22151e-01  8.31561e-02 -4.10578e+00 
-1.73998e-01  2.76666e-02 -4.09989e+00 
 1.73998e-01 -2.76666e-02 -4.09989e+00 
 5.22151e-01 -8.31561e-02 -4.10578e+00 
 8.70556e-01 -1.38817e-01 -4.11759e+00 
 1.21957e+00 -1.94969e-01 -4.13532e+00 
 1.56926e+00 -2.51631e-01 -4.15901e+00 
 1.92000e+00 -3.09128e-01 -4.18872e+00 
 2.27187e+00 -3.67489e-01 -4.22451e+00 
 2.62525e+00 -4.27054e-01 -4.26644e+00 
 2.98023e+00 -4.87863e-01 -4.31460e+00 
 3.33722e+00 -5.50278e-01 -4.36908e+00 
 3.69633e+00 -6.14362e-01 -4.43000e+00 
 4.05798e+00 -6.80500e-01 -4.49746e+00 
 4.42232e+00 -7.48785e-01 -4.57160e+00 
 4.78980e+00 -8.19641e-01 -4.65256e+00 
 5.16060e+00 -8.93199e-01 -4.74049e+00 
 5.53522e+00 -9.69931e-01 -4.83554e+00 
 5.91389e+00 -1.05002e+00 -4.93789e+00 
 6.29717e+00 -1.13400e+00 -5.04769e+00 
 6.68535e+00 -1.22213e+00 -5.16513e+00 
 7.07906e+00 -1.31503e+00 -5.29036e+00 
 7.47867e+00 -1.41304e+00 -5.42357e+00 
 7.88492e+00 -1.51690e+00 -5.56489e+00 
 8.29828e+00 -1.62709e+00 -5.71446e+00 
 8.71963e+00 -1.74448e+00 -5.87236e+00 
 9.14958e+00 -1.86973e+00 -6.03865e+00 
 9.58917e+00 -2.00392e+00 -6.21329e+00 
 1.00392e+01 -2.14794e+00 -6.39616e+00 
 1.05010e+01 -2.30317e+00 -6.58700e+00 
 1.09756e+01 -2.47079e+00 -6.78536e+00 
 1.14645e+01 -2.65258e+00 -6.99053e+00 
 1.19692e+01 -2.85017e+00 -7.20146e+00 
 1.24915e+01 -3.06585e+00 -7.41664e+00 
 1.30334e+01 -3.30185e+00 -7.63390e+00 
 1.35972e+01 -3.56115e+00 -7.85024e+00 
 1.41852e+01 -3.84675e+00 -8.06146e+00 
 1.48003e+01 -4.16245e+00 -8.26179e+00 
 1.54449e+01 -4.51210e+00 -8.44333e+00 
 1.61223e+01 -4.90028e+00 -8.59528e+00 
 1.68346e+01 -5.33133e+00 -8.70297e+00 
 1.75837e+01 -5.80972e+00 -8.74667e+00 
 1.83693e+01 -6.33849e+00 -8.70001e+00 
 1.91881e+01 -6.91855e+00 -8.52874e+00 
 2.00302e+01 -7.54536e+00 -8.18945e+00 
 2.08758e+01 -8.20562e+00 -7.63142e+00 
 2.16874e+01 -8.86993e+00 -6.80388e+00 
 2.24025e+01 -9.48660e+00 -5.67517e+00 
 2.29272e+01 -9.97314e+00 -4.30108e+00 
 2.31566e+01 -1.02708e+01 -2.80494e+00 
 2.31368e+01 -1.03804e+01 -1.33470e+00 
 2.27697e+01 -1.01741e+01 -7.06249e-01 
-2.21760e+01  9.97053e+00 -4.55417e-01 
-2.22971e+01  1.00226e+01 -8.97182e-01 
-2.22874e+01  9.95753e+00 -1.87973e+00 
-2.20990e+01  9.76412e+00 -2.95705e+00 
-2.17528e+01  9.45605e+00 -4.02069e+00 
-2.12626e+01  9.05217e+00 -4.99461e+00 
-2.06661e+01  8.58065e+00 -5.82932e+00 
-2.00020e+01  8.07405e+00 -6.50082e+00 
-1.93024e+01  7.55867e+00 -7.01323e+00 
-1.85900e+01  7.05268e+00 -7.38339e+00 
-1.78805e+01  6.56767e+00 -7.63354e+00 
-1.71833e+01  6.10981e+00 -7.78563e+00 
-1.65043e+01  5.68211e+00 -7.85982e+00 
-1.58462e+01  5.28496e+00 -7.87311e+00 
-1.52102e+01  4.91775e+00 -7.83971e+00 
-1.45962e+01  4.57872e+00 -7.77104e+00 
-1.40037e+01  4.26608e+00 -7.67627e+00 
-1.34314e+01  3.97753e+00 -7.56263e+00 
-1.28783e+01  3.71114e+00 -7.43584e+00 
-1.23428e+01  3.46468e+00 -7.30037e+00 
-1.18238e+01  3.23645e+00 -7.15968e+00 
-1.13199e+01  3.02452e+00 -7.01651e+00 
-1.08299e+01  2.82748e+00 -6.87294e+00 
-1.03525e+01  2.64371e+00 -6.73059e+00 
-9.88697e+00  2.47208e+00 -6.59072e+00 
-9.43204e+00  2.31128e+00 -6.45427e+00 
-8.98703e+00  2.16041e+00 -6.32196e+00 
-8.55094e+00  2.01837e+00 -6.19433e+00 
-8.12319e+00  1.88450e+00 -6.07178e+00 
-7.70293e+00  1.75785e+00 -5.95460e+00 
-7.28970e+00  1.63792e+00 -5.84297e+00 
-6.88275e+00  1.52392e+00 -5.73705e+00 
-6.48171e+00  1.41545e+00 -5.63690e+00 
-6.08592e+00  1.31184e+00 -5.54258e+00 
-5.69509e+00  1.21279e+00 -5.45410e+00 
-5.30863e+00  1.11770e+00 -5.37144e+00 
-4.92630e+00  1.02635e+00 -5.29458e+00 
-4.54758e+00  9.38217e-01 -5.22350e+00 
-4.17227e+00  8.53125e-01 -5.15813e+00 
-3.79988e+00  7.70606e-01 -5.09843e+00 
-3.43025e+00  6.90526e-01 -5.04436e+00 
-3.06295e+00  6.12456e-01 -4.99586e+00 
-2.69782e+00  5.36293e-01 -4.95288e+00 
-2.33445e+00  4.61640e-01 -4.91539e+00 
-1.97273e+00  3.88417e-01 -4.88333e+00 
-1.61225e+00  3.16247e-01 -4.85668e+00 
-1.25291e+00  2.45068e-01 -4.83539e+00 
-8.94320e-01  1.74517e-01 -4.81945e+00 
-5.36390e-01  1.04542e-01 -4.80883e+00 
-1.78740e-01  3.47901e-02 -4.80353e+00 
 1.78740e-01 -3.47901e-02 -4.80353e+00 
 5.36390e-01 -1.04542e-01 -4.80883e+00 
 8.94320e-01 -1.74517e-01 -4.81945e+00 
 1.25291e+00 -2.45068e-01 -4.83539e+00 
 1.61225e+00 -3.16247e-01 -4.85668e+00 
 1.97273e+00 -3.88417e-01 -4.88333e+00 
 2.33445e+00 -4.61640e-01 -4.91539e+00 
 2.69782e+00 -5.36293e-01 -4.95288e+00 
 3.06295e+00 -6.12456e-01 -4.99586e+00 
 3.43025e+00 -6.90526e-01 -5.04436e+00 
 3.79988e+00 -7.70606e-01 -5.09843e+00 
 4.17227e+00 -8.53125e-01 -5.15813e+00 
 4.54758e+00 -9.38217e-01 -5.22350e+00 
 4.92630e+00 -1.02635e+00 -5.29458e+00 
 5.30863e+00 -1.11770e+00 -5.37144e+00 
 5.69509e+00 -1.21279e+00 -5.45410e+00 
 6.08592e+00 -1.31184e+00 -5.54258e+00 
 6.48171e+00 -1.41545e+00 -5.63690e+00 
 6.88275e+00 -1.52392e+00 -5.73705e+00 
 7.28970e+00 -1.63792e+00 -5.84297e+00 
 7.70293e+00 -1.75785e+00 -5.95460e+00 
 8.12319e+00 -1.88450e+00 -6.07178e+00 
 8.55094e+00 -2.01837e+00 -6.19433e+00 
 8.98703e+00 -2.16041e+00 -6.32196e+00 
 9.43204e+00 -2.31128e+00 -6.45427e+00 
 9.88697e+00 -2.47208e+00 -6.59072e+00 
 1.03525e+01 -2.64371e+00 -6.73059e+00 
 1.08299e+01 -2.82748e+00 -6.87294e+00 
 1.13199e+01 -3.02452e+00 -7.01651e+00 
 1.18238e+01 -3.23645e+00 -7.15968e+00 
 1.23428e+01 -3.46468e+00 -7.30037e+00 
 1.28783e+01 -3.71114e+00 -7.43584e+00 
 1.34314e+01 -3.97753e+00 -7.56263e+00 
 1.40037e+01 -4.26608e+00 -7.67627e+00 
 1.45962e+01 -4.57872e+00 -7.77104e+00 
 1.52102e+01 -4.91775e+00 -7.83971e+00 
 1.58462e+01 -5.28496e+00 -7.87311e+00 
 1.65043e+01 -5.68211e+00 -7.85982e+00 
 1.71833e+01 -6.10981e+00 -7.78563e+00 
 1.78805e+01 -6.56767e+00 -7.63354e+00 
 1.85900e+01 -7.05268e+00 -7.38339e+00 
 1.93024e+01 -7.55867e+00 -7.01323e+00 
 2.00020e+01 -8.07405e+00 -6.50082e+00 
 2.06661e+01 -8.58065e+00 -5.82932e+00 
 2.12626e+01 -9.05217e+00 -4.99461e+00 
 2.17528e+01 -9.45605e+00 -4.02069e+00 
 2.20990e+01 -9.76412e+00 -2.95705e+00 
 2.22874e+01 -9.95753e+00 -1.87973e+00 
 2.22971e+01 -1.00226e+01 -8.97182e-01 
 2.21760e+01 -9.97053e+00 -4.55417e-01 
-2.17443e+01  9.79477e+00 -3.28245e-01 
-2.17417e+01  9.78699e+00 -6.43755e-01 
-2.16544e+01  9.71096e+00 -1.36471e+00 
-2.14694e+01  9.56256e+00 -2.16667e+00 
-2.11792e+01  9.33861e+00 -2.99685e+00 
-2.07922e+01  9.04617e+00 -3.80443e+00 
-2.03213e+01  8.69788e+00 -4.55088e+00 
-1.97849e+01  8.30900e+00 -5.21052e+00 
-1.92022e+01  7.89586e+00 -5.77077e+00 
-1.85902e+01  7.47252e+00 -6.22981e+00 
-1.79630e+01  7.05033e+00 -6.59358e+00 
-1.73310e+01  6.63724e+00 -6.87162e+00 
-1.67019e+01  6.23884e+00 -7.07535e+00 
-1.60808e+01  5.85832e+00 -7.21601e+00 
-1.54711e+01  5.49761e+00 -7.30430e+00 
-1.48747e+01  5.15719e+00 -7.34962e+00 
-1.42929e+01  4.83715e+00 -7.36027e+00 
-1.37259e+01  4.53670e+00 -7.34319e+00 
-1.31738e+01  4.25510e+00 -7.30433e+00 
-1.26361e+01  3.99111e+00 -7.24855e+00 
-1.21123e+01  3.74373e+00 -7.17992e+00 
-1.16017e+01  3.51161e+00 -7.10175e+00 
-1.11036e+01  3.29376e+00 -7.01678e+00 
-1.06171e+01  3.08890e+00 -6.92723e+00 
-1.01417e+01  2.89613e+00 -6.83492e+00 
-9.67637e+00  2.71431e+00 -6.74132e+00 
-9.22063e+00  2.54268e+00 -6.64764e+00 
-8.77361e+00  2.38023e+00 -6.55483e+00 
-8.33484e+00  2.22634e+00 -6.46369e+00 
-7.90353e+00  2.08012e+00 -6.37484e+00 
-7.47930e+00  1.94107e+00 -6.28879e+00 
-7.06143e+00  1.80841e+00 -6.20593e+00 
-6.64959e+00  1.68174e+00 -6.12660e+00 
-6.24314e+00  1.56039e+00 -6.05105e+00 
-5.84179e+00  1.44402e+00 -5.97948e+00 
-5.44498e+00  1.33204e+00 -5.91204e+00 
-5.05245e+00  1.22419e+00 -5.84884e+00 
-4.66368e+00  1.11992e+00 -5.79000e+00 
-4.27847e+00  1.01903e+00 -5.73556e+00 
-3.89633e+00  9.21038e-01 -5.68559e+00 
-3.51709e+00  8.25767e-01 -5.64011e+00 
-3.14029e+00  7.32767e-01 -5.59915e+00 
-2.76579e+00  6.41906e-01 -5.56273e+00 
-2.39315e+00  5.52759e-01 -5.53086e+00 
-2.02224e+00  4.65220e-01 -5.50354e+00 
-1.65265e+00  3.78883e-01 -5.48077e+00 
-1.28427e+00  2.93658e-01 -5.46256e+00 
-9.16685e-01  2.09157e-01 -5.44891e+00 
-5.49796e-01  1.25299e-01 -5.43980e+00 
-1.83206e-01  4.17050e-02 -5.43525e+00 
 1.83206e-01 -4.17050e-02 -5.43525e+00 
 5.49796e-01 -1.25299e-01 -5.43980e+00 
 9.16685e-01 -2.09157e-01 -5.44891e+00 
 1.28427e+00 -2.93658e-01 -5.46256e+00 
 1.65265e+00 -3.78883e-01 -5.48077e+00 
 2.02224e+00 -4.65220e-01 -5.50354e+00 
 2.39315e+00 -5.52759e-01 -5.53086e+00 
 2.76579e+00 -6.41906e-01 -5.56273e+00 
 3.14029e+00 -7.32767e-01 -5.59915e+00 
 3.51709e+00 -8.25767e-01 -5.64011e+00 
 3.89633e+00 -9.21038e-01 -5.68559e+00 
 4.27847e+00 -1.01903e+00 -5.73556e+00 
 4.66368e+00 -1.11992e+00 -5.79000e+00 
 5.05245e+00 -1.22419e+00 -5.84884e+00 
 5.44498e+00 -1.33204e+00 -5.91204e+00 
 5.84179e+00 -1.44402e+00 -5.97948e+00 
 6.24314e+00 -1.56039e+00 -6.05105e+00 
 6.64959e+00 -1.68174e+00 -6.12660e+00 
 7.06143e+00 -1.80841e+00 -6.20593e+00 
 7.47930e+00 -1.94107e+00 -6.28879e+00 
 7.90353e+00 -2.08012e+00 -6.37484e+00 
 8.33484e+00 -2.22634e+00 -6.46369e+00 
 8.77361e+00 -2.38023e+00 -6.55483e+00 
 9.22063e+00 -2.54268e+00 -6.64764e+00 
 9.67637e+00 -2.71431e+00 -6.74132e+00 
 1.01417e+01 -2.89613e+00 -6.83492e+00 
 1.06171e+01 -3.08890e+00 -6.92723e+00 
 1.11036e+01 -3.29376e+00 -7.01678e+00 
 1.16017e+01 -3.51161e+00 -7.10175e+00 
 1.21123e+01 -3.74373e+00 -7.17992e+00 
 1.26361e+01 -3.99111e+00 -7.24855e+00 
 1.31738e+01 -4.25510e+00 -7.30433e+00 
 1.37259e+01 -4.53670e+00 -7.34319e+00 
 1.42929e+01 -4.83715e+00 -7.36027e+00 
 1.48747e+01 -5.15719e+00 -7.34962e+00 
 1.54711e+01 -5.49761e+00 -7.30430e+00 
 1.60808e+01 -5.85832e+00 -7.21601e+00 
 1.67019e+01 -6.23884e+00 -7.07535e+00 
 1.73310e+01 -6.63724e+00 -6.87162e+00 
 1.79630e+01 -7.05033e+00 -6.59358e+00 
 1.85902e+01 -7.47252e+00 -6.22981e+00 
 1.92022e+01 -7.89586e+00 -5.77077e+00 
 1.97849e+01 -8.30900e+00 -5.21052e+00 
 2.03213e+01 -8.69788e+00 -4.55088e+00 
 2.07922e+01 -9.04617e+00 -3.80443e+00 
 2.11792e+01 -9.33861e+00 -2.99685e+00 
 2.14694e+01 -9.56256e+00 -2.16667e+00 
 2.16544e+01 -9.71096e+00 -1.36471e+00 
 2.17417e+01 -9.78699e+00 -6.43755e-01 
 2.17443e+01 -9.79477e+00 -3.28245e-01 
-2.14242e+01  9.66634e+00 -2.53183e-01 
-2.13275e+01  9.60717e+00 -4.98214e-01 
-2.11817e+01  9.51933e+00 -1.05553e+00 
-2.09735e+01  9.38512e+00 -1.68308e+00 
-2.06985e+01  9.20182e+00 -2.34748e+00 
-2.03563e+01  8.97048e+00 -3.01740e+00 
-1.99524e+01  8.69625e+00 -3.66562e+00 
-1.94947e+01  8.38674e+00 -4.27046e+00 
-1.89940e+01  8.05101e+00 -4.81760e+00 
-1.84605e+01  7.69809e+00 -5.29879e+00 
-1.79046e+01  7.33648e+00 -5.71177e+00 
-1.73347e+01  6.97306e+00 -6.05801e+00 
-1.67580e+01  6.61356e+00 -6.34204e+00 
-1.61798e+01  6.26198e+00 -6.56953e+00 
-1.56046e+01  5.92138e+00 -6.74707e+00 
-1.50351e+01  5.59354e+00 -6.88107e+00 
-1.44736e+01  5.27974e+00 -6.97782e+00 
-1.39214e+01  4.98034e+00 -7.04295e+00 
-1.33795e+01  4.69559e+00 -7.08165e+00 
-1.28481e+01  4.42510e+00 -7.09837e+00 
-1.23275e+01  4.16859e+00 -7.09708e+00 
-1.18174e+01  3.92530e+00 -7.08115e+00 
-1.13179e+01  3.69472e+00 -7.05349e+00 
-1.08282e+01  3.47598e+00 -7.01656e+00 
-1.03483e+01  3.26850e+00 -6.97247e+00 
-9.87747e+00  3.07138e+00 -6.92299e+00 
-9.41537e+00  2.88407e+00 -6.86962e+00 
-8.96134e+00  2.70572e+00 -6.81362e+00 
-8.51507e+00  2.53582e+00 -6.75605e+00 
-8.07589e+00  2.37359e+00 -6.69780e+00 
-7.64351e+00  2.21859e+00 -6.63962e+00 
-7.21730e+00  2.07010e+00 -6.58214e+00 
-6.79698e+00  1.92777e+00 -6.52588e+00 
-6.38196e+00  1.79092e+00 -6.47128e+00 
-5.97200e+00  1.65926e+00 -6.41870e+00 
-5.56654e+00  1.53219e+00 -6.36846e+00 
-5.16539e+00  1.40947e+00 -6.32080e+00 
-4.76801e+00  1.29053e+00 -6.27593e+00 
-4.37422e+00  1.17518e+00 -6.23404e+00 
-3.98355e+00  1.06291e+00 -6.19526e+00 
-3.59582e+00  9.53552e-01 -6.15972e+00 
-3.21058e+00  8.46631e-01 -6.12751e+00 
-2.82768e+00  7.42002e-01 -6.09871e+00 
-2.44669e+00  6.39226e-01 -6.07340e+00 
-2.06747e+00  5.38176e-01 -6.05161e+00 
-1.68960e+00  4.38433e-01 -6.03340e+00 
-1.31298e+00  3.39886e-01 -6.01880e+00 
-9.37172e-01  2.42130e-01 -6.00783e+00 
-5.62082e-01  1.45064e-01 -6.00050e+00 
-1.87300e-01  4.82903e-02 -5.99684e+00 
 1.87300e-01 -4.82903e-02 -5.99684e+00 
 5.62082e-01 -1.45064e-01 -6.00050e+00 
 9.37172e-01 -2.42130e-01 -6.00783e+00 
 1.31298e+00 -3.39886e-01 -6.01880e+00 
 1.68960e+00 -4.38433e-01 -6.03340e+00 
 2.06747e+00 -5.38176e-01 -6.05161e+00 
 2.44669e+00 -6.39226e-01 -6.07340e+00 
 2.82768e+00 -7.42002e-01 -6.09871e+00 
 3.21058e+00 -8.46631e-01 -6.12751e+00 
 3.59582e+00 -9.53552e-01 -6.15972e+00 
 3.98355e+00 -1.06291e+00 -6.19526e+00 
 4.37422e+00 -1.17518e+00 -6.23404e+00 
 4.76801e+00 -1.29053e+00 -6.27593e+00 
 5.16539e+00 -1.40947e+00 -6.32080e+00 
 5.56654e+00 -1.53219e+00 -6.36846e+00 
 5.97200e+00 -1.65926e+00 -6.41870e+00 
 6.38196e+00 -1.79092e+00 -6.47128e+00 
 6.79698e+00 -1.92777e+00 -6.52588e+00 
 7.21730e+00 -2.07010e+00 -6.58214e+00 
 7.64351e+00 -2.21859e+00 -6.63962e+00 
 8.07589e+00 -2.37359e+00 -6.69780e+00 
 8.51507e+00 -2.53582e+00 -6.75605e+00 
 8.96134e+00 -2.70572e+00 -6.81362e+00 
 9.41537e+00 -2.88407e+00 -6.86962e+00 
 9.87747e+00 -3.07138e+00 -6.92299e+00 
 1.03483e+01 -3.26850e+00 -6.97247e+00 
 1.08282e+01 -3.47598e+00 -7.01656e+00 
 1.13179e+01 -3.69472e+00 -7.05349e+00 
 1.18174e+01 -3.92530e+00 -7.08115e+00 
 1.23275e+01 -4.16859e+00 -7.09708e+00 
 1.28481e+01 -4.42510e+00 -7.09837e+00 
 1.33795e+01 -4.69559e+00 -7.08165e+00 
 1.39214e+01 -4.98034e+00 -7.04295e+00 
 1.44736e+01 -5.27974e+00 -6.97782e+00 
 1.50351e+01 -5.59354e+00 -6.88107e+00 
 1.56046e+01 -5.92138e+00 -6.74707e+00 
 1.61798e+01 -6.26198e+00 -6.56953e+00 
 1.67580e+01 -6.61356e+00 -6.34204e+00 
 1.73347e+01 -6.97306e+00 -6.05801e+00 
 1.79046e+01 -7.33648e+00 -5.71177e+00 
 1.84605e+01 -7.69809e+00 -5.29879e+00 
 1.89940e+01 -8.05101e+00 -4.81760e+00 
 1.94947e+01 -8.38674e+00 -4.27046e+00 
 1.99524e+01 -8.69625e+00 -3.66562e+00 
 2.03563e+01 -8.97048e+00 -3.01740e+00 
 2.06985e+01 -9.20182e+00 -2.34748e+00 
 2.09735e+01 -9.38512e+00 -1.68308e+00 
 2.11817e+01 -9.51933e+00 -1.05553e+00 
 2.13275e+01 -9.60717e+00 -4.98214e-01 
 2.14242e+01 -9.66634e+00 -2.53183e-01 
-2.11644e+01  9.55922e+00 -2.08456e-01 
-2.10007e+01  9.46410e+00 -4.09077e-01 
-2.08064e+01  9.36266e+00 -8.64671e-01 
-2.05725e+01  9.23153e+00 -1.37720e+00 
-2.02940e+01  9.06750e+00 -1.92640e+00 
-1.99692e+01  8.86985e+00 -2.49159e+00 
-1.95994e+01  8.64038e+00 -3.05404e+00 
-1.91881e+01  8.38257e+00 -3.59727e+00 
-1.87407e+01  8.10142e+00 -4.10872e+00 
-1.82633e+01  7.80232e+00 -4.57917e+00 
-1.77626e+01  7.49099e+00 -5.00343e+00 
-1.72444e+01  7.17254e+00 -5.37901e+00 
-1.67147e+01  6.85170e+00 -5.70623e+00 
-1.61779e+01  6.53218e+00 -5.98684e+00 
-1.56383e+01  6.21718e+00 -6.22406e+00 
-1.50988e+01  5.90891e+00 -6.42147e+00 
-1.45621e+01  5.60922e+00 -6.58322e+00 
-1.40300e+01  5.31912e+00 -6.71324e+00 
-1.35039e+01  5.03951e+00 -6.81553e+00 
-1.29845e+01  4.77060e+00 -6.89368e+00 
-1.24729e+01  4.51267e+00 -6.95112e+00 
-1.19690e+01  4.26549e+00 -6.99084e+00 
-1.14732e+01  4.02897e+00 -7.01560e+00 
-1.09854e+01  3.80261e+00 -7.02777e+00 
-1.05057e+01  3.58616e+00 -7.02949e+00 
-1.00336e+01  3.37901e+00 -7.02260e+00 
-9.56913e+00  3.18081e+00 -7.00873e+00 
-9.11176e+00  2.99091e+00 -6.98926e+00 
-8.66136e+00  2.80896e+00 -6.96542e+00 
-8.21740e+00  2.63430e+00 -6.93825e+00 
-7.77971e+00  2.46661e+00 -6.90866e+00 
-7.34775e+00  2.30525e+00 -6.87744e+00 
-6.92133e+00  2.14991e+00 -6.84525e+00 
-6.49993e+00  2.00000e+00 -6.81267e+00 
-6.08337e+00  1.85526e+00 -6.78021e+00 
-5.67113e+00  1.71513e+00 -6.74828e+00 
-5.26306e+00  1.57936e+00 -6.71726e+00 
-4.85865e+00  1.44745e+00 -6.68744e+00 
-4.45776e+00  1.31918e+00 -6.65912e+00 
-4.05992e+00  1.19406e+00 -6.63250e+00 
-3.66498e+00  1.07192e+00 -6.60779e+00 
-3.27250e+00  9.52305e-01 -6.58516e+00 
-2.88234e+00  8.35050e-01 -6.56473e+00 
-2.49407e+00  7.19717e-01 -6.54662e+00 
-2.10757e+00  6.06171e-01 -6.53094e+00 
-1.72241e+00  4.93987e-01 -6.51776e+00 
-1.33850e+00  3.83046e-01 -6.50715e+00 
-9.55400e-01  2.72932e-01 -6.49915e+00 
-5.73019e-01  1.63534e-01 -6.49379e+00 
-1.90945e-01  5.44457e-02 -6.49111e+00 
 1.90945e-01 -5.44457e-02 -6.49111e+00 
 5.73019e-01 -1.63534e-01 -6.49379e+00 
 9.55400e-01 -2.72932e-01 -6.49915e+00 
 1.33850e+00 -3.83046e-01 -6.50715e+00 
 1.72241e+00 -4.93987e-01 -6.51776e+00 
 2.10757e+00 -6.06171e-01 -6.53094e+00 
 2.49407e+00 -7.19717e-01 -6.54662e+00 
 2.88234e+00 -8.35050e-01 -6.56473e+00 
 3.27250e+00 -9.52305e-01 -6.58516e+00 
 3.66498e+00 -1.07192e+00 -6.60779e+00 
 4.05992e+00 -1.19406e+00 -6.63250e+00 
 4.45776e+00 -1.31918e+00 -6.65912e+00 
 4.85865e+00 -1.44745e+00 -6.68744e+00 
 5.26306e+00 -1.57936e+00 -6.71726e+00 
 5.67113e+00 -1.71513e+00 -6.74828e+00 
 6.08337e+00 -1.85526e+00 -6.78021e+00 
 6.49993e+00 -2.00000e+00 -6.81267e+00 
 6.92133e+00 -2.14991e+00 -6.84525e+00 
 7.34775e+00 -2.30525e+00 -6.87744e+00 
 7.77971e+00 -2.46661e+00 -6.90866e+00 
 8.21740e+00 -2.63430e+00 -6.93825e+00 
 8.66136e+00 -2.80896e+00 -6.96542e+00 
 9.11176e+00 -2.99091e+00 -6.98926e+00 
 9.56913e+00 -3.18081e+00 -7.00873e+00 
 1.00336e+01 -3.37901e+00 -7.02260e+00 
 1.05057e+01 -3.58616e+00 -7.02949e+00 
 1.09854e+01 -3.80261e+00 -7.02777e+00 
 1.14732e+01 -4.02897e+00 -7.01560e+00 
 1.19690e+01 -4.26549e+00 -6.99084e+00 
 1.24729e+01 -4.51267e+00 -6.95112e+00 
 1.29845e+01 -4.77060e+00 -6.89368e+00 
 1.35039e+01 -5.03951e+00 -6.81553e+00 
 1.40300e+01 -5.31912e+00 -6.71324e+00 
 1.45621e+01 -5.60922e+00 -6.58322e+00 
 1.50988e+01 -5.90891e+00 -6.42147e+00 
 1.56383e+01 -6.21718e+00 -6.22406e+00 
 1.61779e+01 -6.53218e+00 -5.98684e+00 
 1.67147e+01 -6.85170e+00 -5.70623e+00 
 1.72444e+01 -7.17254e+00 -5.37901e+00 
 1.77626e+01 -7.49099e+00 -5.00343e+00 
 1.82633e+01 -7.80232e+00 -4.57917e+00 
 1.87407e+01 -8.10142e+00 -4.10872e+00 
 1.91881e+01 -8.38257e+00 -3.59727e+00 
 1.95994e+01 -8.64038e+00 -3.05404e+00 
 1.99692e+01 -8.86985e+00 -2.49159e+00 
 2.02940e+01 -9.06750e+00 -1.92640e+00 
 2.05725e+01 -9.23153e+00 -1.37720e+00 
 2.08064e+01 -9.36266e+00 -8.64671e-01 
 2.10007e+01 -9.46410e+00 -4.09077e-01 
 2.11644e+01 -9.55922e+00 -2.08456e-01 
-2.09409e+01  9.46570e+00 -1.81038e-01 
-2.07273e+01  9.34335e+00 -3.53960e-01 
-2.04946e+01  9.22977e+00 -7.44224e-01 
-2.02360e+01  9.09671e+00 -1.18034e+00 
-1.99474e+01  8.94139e+00 -1.64917e+00 
-1.96266e+01  8.76241e+00 -2.13695e+00 
-1.92731e+01  8.56007e+00 -2.63067e+00 
-1.88882e+01  8.33578e+00 -3.11812e+00 
-1.84746e+01  8.09218e+00 -3.58928e+00 
-1.80354e+01  7.83236e+00 -4.03584e+00 
-1.75750e+01  7.56002e+00 -4.45209e+00 
-1.70971e+01  7.27862e+00 -4.83408e+00 
-1.66060e+01  6.99175e+00 -5.18004e+00 
-1.61054e+01  6.70239e+00 -5.48943e+00 
-1.55985e+01  6.41337e+00 -5.76316e+00 
-1.50882e+01  6.12680e+00 -6.00273e+00 
-1.45771e+01  5.84465e+00 -6.21043e+00 
-1.40668e+01  5.56818e+00 -6.38865e+00 
-1.35591e+01  5.29859e+00 -6.54016e+00 
-1.30551e+01  5.03648e+00 -6.66754e+00 
-1.25559e+01  4.78248e+00 -6.77348e+00 
-1.20619e+01  4.53670e+00 -6.86039e+00 
-1.15737e+01  4.29941e+00 -6.93064e+00 
-1.10915e+01  4.07041e+00 -6.98632e+00 
-1.06156e+01  3.84973e+00 -7.02940e+00 
-1.01458e+01  3.63699e+00 -7.06161e+00 
-9.68228e+00  3.43208e+00 -7.08455e+00 
-9.22474e+00  3.23453e+00 -7.09961e+00 
-8.77320e+00  3.04415e+00 -7.10804e+00 
-8.32726e+00  2.86042e+00 -7.11095e+00 
-7.88688e+00  2.68313e+00 -7.10932e+00 
-7.45162e+00  2.51175e+00 -7.10401e+00 
-7.02139e+00  2.34606e+00 -7.09579e+00 
-6.59575e+00  2.18553e+00 -7.08532e+00 
-6.17458e+00  2.02996e+00 -7.07318e+00 
-5.75743e+00  1.87884e+00 -7.05988e+00 
-5.34418e+00  1.73196e+00 -7.04587e+00 
-4.93438e+00  1.58885e+00 -7.03154e+00 
-4.52792e+00  1.44932e+00 -7.01724e+00 
-4.12435e+00  1.31291e+00 -7.00325e+00 
-3.72357e+00  1.17945e+00 -6.98983e+00 
-3.32514e+00  1.04850e+00 -6.97720e+00 
-2.92895e+00  9.19904e-01 -6.96555e+00 
-2.53458e+00  7.93235e-01 -6.95503e+00 
-2.14193e+00  6.68358e-01 -6.94578e+00 
-1.75058e+00  5.44853e-01 -6.93791e+00 
-1.36043e+00  4.22596e-01 -6.93152e+00 
-9.71086e-01  3.01176e-01 -6.92666e+00 
-5.82437e-01  1.80478e-01 -6.92339e+00 
-1.94085e-01  6.00936e-02 -6.92175e+00 
 1.94085e-01 -6.00936e-02 -6.92175e+00 
 5.82437e-01 -1.80478e-01 -6.92339e+00 
 9.71086e-01 -3.01176e-01 -6.92666e+00 
 1.36043e+00 -4.22596e-01 -6.93152e+00 
 1.75058e+00 -5.44853e-01 -6.93791e+00 
 2.14193e+00 -6.68358e-01 -6.94578e+00 
 2.53458e+00 -7.93235e-01 -6.95503e+00 
 2.92895e+00 -9.19904e-01 -6.96555e+00 
 3.32514e+00 -1.04850e+00 -6.97720e+00 
 3.72357e+00 -1.17945e+00 -6.98983e+00 
 4.12435e+00 -1.31291e+00 -7.00325e+00 
 4.52792e+00 -1.44932e+00 -7.01724e+00 
 4.93438e+00 -1.58885e+00 -7.03154e+00 
 5.34418e+00 -1.73196e+00 -7.04587e+00 
 5.75743e+00 -1.87884e+00 -7.05988e+00 
 6.17458e+00 -2.02996e+00 -7.07318e+00 
 6.59575e+00 -2.18553e+00 -7.08532e+00 
 7.02139e+00 -2.34606e+00 -7.09579e+00 
 7.45162e+00 -2.51175e+00 -7.10401e+00 
 7.88688e+00 -2.68313e+00 -7.10932e+00 
 8.32726e+00 -2.86042e+00 -7.11095e+00 
 8.77320e+00 -3.04415e+00 -7.10804e+00 
 9.22474e+00 -3.23453e+00 -7.09961e+00 
 9.68228e+00 -3.43208e+00 -7.08455e+00 
 1.01458e+01 -3.63699e+00 -7.06161e+00 
 1.06156e+01 -3.84973e+00 -7.02940e+00 
 1.10915e+01 -4.07041e+00 -6.98632e+00 
 1.15737e+01 -4.29941e+00 -6.93064e+00 
 1.20619e+01 -4.53670e+00 -6.86039e+00 
 1.25559e+01 -4.78248e+00 -6.77348e+00 
 1.30551e+01 -5.03648e+00 -6.66754e+00 
 1.35591e+01 -5.29859e+00 -6.54016e+00 
 1.40668e+01 -5.56818e+00 -6.38865e+00 
 1.45771e+01 -5.84465e+00 -6.21043e+00 
 1.50882e+01 -6.12680e+00 -6.00273e+00 
 1.55985e+01 -6.41337e+00 -5.76316e+00 
 1.61054e+01 -6.70239e+00 -5.48943e+00 
 1.66060e+01 -6.99175e+00 -5.18004e+00 
 1.70971e+01 -7.27862e+00 -4.83408e+00 
 1.75750e+01 -7.56002e+00 -4.45209e+00 
 1.80354e+01 -7.83236e+00 -4.03584e+00 
 1.84746e+01 -8.09218e+00 -3.58928e+00 
 1.88882e+01 -8.33578e+00 -3.11812e+00 
 1.92731e+01 -8.56007e+00 -2.63067e+00 
 1.96266e+01 -8.76241e+00 -2.13695e+00 
 1.99474e+01 -8.94139e+00 -1.64917e+00 
 2.02360e+01 -9.09671e+00 -1.18034e+00 
 2.04946e+01 -9.22977e+00 -7.44224e-01 
 2.07273e+01 -9.34335e+00 -3.53960e-01 
 2.09409e+01 -9.46570e+00 -1.81038e-01 
-2.07386e+01  9.37971e+00 -1.64334e-01 
-2.04873e+01  9.23674e+00 -3.19753e-01 
-2.02242e+01  9.11273e+00 -6.67949e-01 
-1.99440e+01  8.97589e+00 -1.05273e+00 
-1.96436e+01  8.82388e+00 -1.46543e+00 
-1.93204e+01  8.65515e+00 -1.89663e+00 
-1.89737e+01  8.46935e+00 -2.33722e+00 
-1.86033e+01  8.26682e+00 -2.77823e+00 
-1.82105e+01  8.04888e+00 -3.21190e+00 
-1.77969e+01  7.81721e+00 -3.63134e+00 
-1.73650e+01  7.57412e+00 -4.03131e+00 
-1.69173e+01  7.32187e+00 -4.40762e+00 
-1.64567e+01  7.06303e+00 -4.75770e+00 
-1.59857e+01  6.79980e+00 -5.07986e+00 
-1.55071e+01  6.53449e+00 -5.37366e+00 
-1.50230e+01  6.26890e+00 -5.63922e+00 
-1.45358e+01  6.00483e+00 -5.87751e+00 
-1.40470e+01  5.74353e+00 -6.08971e+00 
-1.35583e+01  5.48628e+00 -6.27751e+00 
-1.30708e+01  5.23383e+00 -6.44257e+00 
-1.25857e+01  4.98700e+00 -6.58682e+00 
-1.21037e+01  4.74612e+00 -6.71206e+00 
-1.16255e+01  4.51167e+00 -6.82016e+00 
-1.11513e+01  4.28368e+00 -6.91281e+00 
-1.06818e+01  4.06237e+00 -6.99173e+00 
-1.02170e+01  3.84758e+00 -7.05841e+00 
-9.75702e+00  3.63937e+00 -7.11431e+00 
-9.30187e+00  3.43743e+00 -7.16071e+00 
-8.85167e+00  3.24173e+00 -7.19883e+00 
-8.40614e+00  3.05188e+00 -7.22973e+00 
-7.96536e+00  2.86778e+00 -7.25440e+00 
-7.52899e+00  2.68900e+00 -7.27370e+00 
-7.09704e+00  2.51542e+00 -7.28844e+00 
-6.66913e+00  2.34658e+00 -7.29930e+00 
-6.24522e+00  2.18235e+00 -7.30693e+00 
-5.82493e+00  2.02228e+00 -7.31188e+00 
-5.40820e+00  1.86621e+00 -7.31465e+00 
-4.99461e+00  1.71370e+00 -7.31566e+00 
-4.58410e+00  1.56460e+00 -7.31532e+00 
-4.17627e+00  1.41849e+00 -7.31396e+00 
-3.77103e+00  1.27522e+00 -7.31188e+00 
-3.36797e+00  1.13437e+00 -7.30933e+00 
-2.96703e+00  9.95807e-01 -7.30655e+00 
-2.56779e+00  8.59111e-01 -7.30372e+00 
-2.17018e+00  7.24163e-01 -7.30101e+00 
-1.77379e+00  5.90552e-01 -7.29855e+00 
-1.37855e+00  4.58164e-01 -7.29645e+00 
-9.84054e-01  3.26595e-01 -7.29481e+00 
-5.90231e-01  1.95734e-01 -7.29367e+00 
-1.96685e-01  6.51801e-02 -7.29310e+00 
 1.96685e-01 -6.51801e-02 -7.29310e+00 
 5.90231e-01 -1.95734e-01 -7.29367e+00 
 9.84054e-01 -3.26595e-01 -7.29481e+00 
 1.37855e+00 -4.58164e-01 -7.29645e+00 
 1.77379e+00 -5.90552e-01 -7.29855e+00 
 2.17018e+00 -7.24163e-01 -7.30101e+00 
 2.56779e+00 -8.59111e-01 -7.30372e+00 
 2.96703e+00 -9.95807e-01 -7.30655e+00 
 3.36797e+00 -1.13437e+00 -7.30933e+00 
 3.77103e+00 -1.27522e+00 -7.31188e+00 
 4.17627e+00 -1.41849e+00 -7.31396e+00 
 4.58410e+00 -1.56460e+00 -7.31532e+00 
 4.99461e+00 -1.71370e+00 -7.31566e+00 
 5.40820e+00 -1.86621e+00 -7.31465e+00 
 5.82493e+00 -2.02228e+00 -7.31188e+00 
 6.24522e+00 -2.18235e+00 -7.30693e+00 
 6.66913e+00 -2.34658e+00 -7.29930e+00 
 7.09704e+00 -2.51542e+00 -7.28844e+00 
 7.52899e+00 -2.68900e+00 -7.27370e+00 
 7.96536e+00 -2.86778e+00 -7.25440e+00 
 8.40614e+00 -3.05188e+00 -7.22973e+00 
 8.85167e+00 -3.24173e+00 -7.19883e+00 
 9.30187e+00 -3.43743e+00 -7.16071e+00 
 9.75702e+00 -3.63937e+00 -7.11431e+00 
 1.02170e+01 -3.84758e+00 -7.05841e+00 
 1.06818e+01 -4.06237e+00 -6.99173e+00 
 1.11513e+01 -4.28368e+00 -6.91281e+00 
 1.16255e+01 -4.51167e+00 -6.82016e+00 
 1.21037e+01 -4.74612e+00 -6.71206e+00 
 1.25857e+01 -4.98700e+00 -6.58682e+00 
 1.30708e+01 -5.23383e+00 -6.44257e+00 
 1.35583e+01 -5.48628e+00 -6.27751e+00 
 1.40470e+01 -5.74353e+00 -6.08971e+00 
 1.45358e+01 -6.00483e+00 -5.87751e+00 
 1.50230e+01 -6.26890e+00 -5.63922e+00 
 1.55071e+01 -6.53449e+00 -5.37366e+00 
 1.59857e+01 -6.79980e+00 -5.07986e+00 
 1.64567e+01 -7.06303e+00 -4.75770e+00 
 1.69173e+01 -7.32187e+00 -4.40762e+00 
 1.73650e+01 -7.57412e+00 -4.03131e+00 
 1.77969e+01 -7.81721e+00 -3.63134e+00 
 1.82105e+01 -8.04888e+00 -3.21190e+00 
 1.86033e+01 -8.26682e+00 -2.77823e+00 
 1.89737e+01 -8.46935e+00 -2.33722e+00 
 1.93204e+01 -8.65515e+00 -1.89663e+00 
 1.96436e+01 -8.82388e+00 -1.46543e+00 
 1.99440e+01 -8.97589e+00 -1.05273e+00 
 2.02242e+01 -9.11273e+00 -6.67949e-01 
 2.04873e+01 -9.23674e+00 -3.19753e-01 
 2.07386e+01 -9.37971e+00 -1.64334e-01 
-2.05481e+01  9.29772e+00 -1.54424e-01 
-2.02681e+01  9.13895e+00 -2.98966e-01 
-1.99810e+01  9.00627e+00 -6.20199e-01 
-1.96827e+01  8.86517e+00 -9.70476e-01 
-1.93706e+01  8.71374e+00 -1.34394e+00 
-1.90425e+01  8.55048e+00 -1.73405e+00 
-1.86974e+01  8.37478e+00 -2.13433e+00 
-1.83346e+01  8.18644e+00 -2.53818e+00 
-1.79545e+01  7.98604e+00 -2.93970e+00 
-1.75578e+01  7.77442e+00 -3.33335e+00 
-1.71459e+01  7.55297e+00 -3.71467e+00 
-1.67204e+01  7.32311e+00 -4.07978e+00 
-1.62831e+01  7.08660e+00 -4.42597e+00 
-1.58358e+01  6.84503e+00 -4.75112e+00 
-1.53805e+01  6.60016e+00 -5.05410e+00 
-1.49190e+01  6.35341e+00 -5.33423e+00 
-1.44530e+01  6.10631e+00 -5.59161e+00 
-1.39840e+01  5.85999e+00 -5.82656e+00 
-1.35134e+01  5.61564e+00 -6.03996e+00 
-1.30422e+01  5.37402e+00 -6.23273e+00 
-1.25717e+01  5.13601e+00 -6.40613e+00 
-1.21025e+01  4.90205e+00 -6.56138e+00 
-1.16354e+01  4.67271e+00 -6.69987e+00 
-1.11708e+01  4.44818e+00 -6.82289e+00 
-1.07094e+01  4.22881e+00 -6.93181e+00 
-1.02513e+01  4.01458e+00 -7.02786e+00 
-9.79677e+00  3.80569e+00 -7.11230e+00 
-9.34594e+00  3.60197e+00 -7.18623e+00 
-8.89900e+00  3.40348e+00 -7.25076e+00 
-8.45581e+00  3.20998e+00 -7.30685e+00 
-8.01653e+00  3.02145e+00 -7.35545e+00 
-7.58091e+00  2.83758e+00 -7.39737e+00 
-7.14903e+00  2.65830e+00 -7.43341e+00 
-6.72061e+00  2.48326e+00 -7.46423e+00 
-6.29566e+00  2.31237e+00 -7.49049e+00 
-5.87387e+00  2.14525e+00 -7.51275e+00 
-5.45521e+00  1.98180e+00 -7.53153e+00 
-5.03935e+00  1.82162e+00 -7.54727e+00 
-4.62625e+00  1.66462e+00 -7.56040e+00 
-4.21555e+00  1.51039e+00 -7.57128e+00 
-3.80721e+00  1.35882e+00 -7.58023e+00 
-3.40084e+00  1.20951e+00 -7.58754e+00 
-2.99641e+00  1.06237e+00 -7.59345e+00 
-2.59354e+00  9.16988e-01 -7.59818e+00 
-2.19216e+00  7.73270e-01 -7.60191e+00 
-1.79191e+00  6.30820e-01 -7.60479e+00 
-1.39272e+00  4.89538e-01 -7.60695e+00 
-9.94225e-01  3.49033e-01 -7.60848e+00 
-5.96351e-01  2.09208e-01 -7.60946e+00 
-1.98728e-01  6.96737e-02 -7.60994e+00 
 1.98728e-01 -6.96737e-02 -7.60994e+00 
 5.96351e-01 -2.09208e-01 -7.60946e+00 
 9.94225e-01 -3.49033e-01 -7.60848e+00 
 1.39272e+00 -4.89538e-01 -7.60695e+00 
 1.79191e+00 -6.30820e-01 -7.60479e+00 
 2.19216e+00 -7.73270e-01 -7.60191e+00 
 2.59354e+00 -9.16988e-01 -7.59818e+00 
 2.99641e+00 -1.06237e+00 -7.59345e+00 
 3.40084e+00 -1.20951e+00 -7.58754e+00 
 3.80721e+00 -1.35882e+00 -7.58023e+00 
 4.21555e+00 -1.51039e+00 -7.57128e+00 
 4.62625e+00 -1.66462e+00 -7.56040e+00 
 5.03935e+00 -1.82162e+00 -7.54727e+00 
 5.45521e+00 -1.98180e+00 -7.53153e+00 
 5.87387e+00 -2.14525e+00 -7.51275e+00 
 6.29566e+00 -2.31237e+00 -7.49049e+00 
 6.72061e+00 -2.48326e+00 -7.46423e+00 
 7.14903e+00 -2.65830e+00 -7.43341e+00 
 7.58091e+00 -2.83758e+00 -7.39737e+00 
 8.01653e+00 -3.02145e+00 -7.35545e+00 
 8.45581e+00 -3.20998e+00 -7.30685e+00 
 8.89900e+00 -3.40348e+00 -7.25076e+00 
 9.34594e+00 -3.60197e+00 -7.18623e+00 
 9.79677e+00 -3.80569e+00 -7.11230e+00 
 1.02513e+01 -4.01458e+00 -7.02786e+00 
 1.07094e+01 -4.22881e+00 -6.93181e+00 
 1.11708e+01 -4.44818e+00 -6.82289e+00 
 1.16354e+01 -4.67271e+00 -6.69987e+00 
 1.21025e+01 -4.90205e+00 -6.56138e+00 
 1.25717e+01 -5.13601e+00 -6.40613e+00 
 1.30422e+01 -5.37402e+00 -6.23273e+00 
 1.35134e+01 -5.61564e+00 -6.03996e+00 
 1.39840e+01 -5.85999e+00 -5.82656e+00 
 1.44530e+01 -6.10631e+00 -5.59161e+00 
 1.49190e+01 -6.35341e+00 -5.33423e+00 
 1.53805e+01 -6.60016e+00 -5.05410e+00 
 1.58358e+01 -6.84503e+00 -4.75112e+00 
 1.62831e+01 -7.08660e+00 -4.42597e+00 
 1.67204e+01 -7.32311e+00 -4.07978e+00 
 1.71459e+01 -7.55297e+00 -3.71467e+00 
 1.75578e+01 -7.77442e+00 -3.33335e+00 
 1.79545e+01 -7.98604e+00 -2.93970e+00 
 1.83346e+01 -8.18644e+00 -2.53818e+00 
 1.86974e+01 -8.37478e+00 -2.13433e+00 
 1.90425e+01 -8.55048e+00 -1.73405e+00 
 1.93706e+01 -8.71374e+00 -1.34394e+00 
 1.96827e+01 -8.86517e+00 -9.70476e-01 
 1.99810e+01 -9.00627e+00 -6.20199e-01 
 2.02681e+01 -9.13895e+00 -2.98966e-01 
 2.05481e+01 -9.29772e+00 -1.54424e-01 
-2.03637e+01  9.21746e+00 -1.48940e-01 
-2.00617e+01  9.04653e+00 -2.86967e-01 
-1.97557e+01  8.90676e+00 -5.91320e-01 
-1.94425e+01  8.76158e+00 -9.18577e-01 
-1.91199e+01  8.60941e+00 -1.26473e+00 
-1.87861e+01  8.44889e+00 -1.62515e+00 
-1.84400e+01  8.27934e+00 -1.99520e+00 
-1.80807e+01  8.10031e+00 -2.37000e+00 
-1.77082e+01  7.91196e+00 -2.74508e+00 
-1.73227e+01  7.71461e+00 -3.11606e+00 
-1.69248e+01  7.50909e+00 -3.47929e+00 
-1.65154e+01  7.29621e+00 -3.83139e+00 
-1.60958e+01  7.07721e+00 -4.16983e+00 
-1.56671e+01  6.85312e+00 -4.49241e+00 
-1.52308e+01  6.62528e+00 -4.79777e+00 
-1.47881e+01  6.39475e+00 -5.08481e+00 
-1.43404e+01  6.16279e+00 -5.35311e+00 
-1.38888e+01  5.93029e+00 -5.60244e+00 
-1.34347e+01  5.69834e+00 -5.83312e+00 
-1.29789e+01  5.46761e+00 -6.04550e+00 
-1.25225e+01  5.23895e+00 -6.24033e+00 
-1.20661e+01  5.01283e+00 -6.41834e+00 
-1.16105e+01  4.78985e+00 -6.58050e+00 
-1.11562e+01  4.57027e+00 -6.72771e+00 
-1.07037e+01  4.35452e+00 -6.86102e+00 
-1.02534e+01  4.14267e+00 -6.98138e+00 
-9.80558e+00  3.93500e+00 -7.08982e+00 
-9.36040e+00  3.73144e+00 -7.18725e+00 
-8.91816e+00  3.53215e+00 -7.27462e+00 
-8.47878e+00  3.33697e+00 -7.35277e+00 
-8.04249e+00  3.14598e+00 -7.42255e+00 
-7.60913e+00  2.95894e+00 -7.48468e+00 
-7.17884e+00  2.77585e+00 -7.53992e+00 
-6.75139e+00  2.59644e+00 -7.58890e+00 
-6.32687e+00  2.42068e+00 -7.63223e+00 
-5.90501e+00  2.24824e+00 -7.67046e+00 
-5.48585e+00  2.07908e+00 -7.70410e+00 
-5.06909e+00  1.91285e+00 -7.73360e+00 
-4.65475e+00  1.74949e+00 -7.75938e+00 
-4.24249e+00  1.58864e+00 -7.78180e+00 
-3.83232e+00  1.43022e+00 -7.80121e+00 
-3.42390e+00  1.27387e+00 -7.81788e+00 
-3.01721e+00  1.11952e+00 -7.83209e+00 
-2.61189e+00  9.66787e-01 -7.84404e+00 
-2.20793e+00  8.15596e-01 -7.85395e+00 
-1.80498e+00  6.65578e-01 -7.86196e+00 
-1.40299e+00  5.16649e-01 -7.86821e+00 
-1.00161e+00  3.68440e-01 -7.87281e+00 
-6.00801e-01  2.20868e-01 -7.87583e+00 
-2.00214e-01  7.35635e-02 -7.87733e+00 
 2.00214e-01 -7.35635e-02 -7.87733e+00 
 6.00801e-01 -2.20868e-01 -7.87583e+00 
 1.00161e+00 -3.68440e-01 -7.87281e+00 
 1.40299e+00 -5.16649e-01 -7.86821e+00 
 1.80498e+00 -6.65578e-01 -7.86196e+00 
 2.20793e+00 -8.15596e-01 -7.85395e+00 
 2.61189e+00 -9.66787e-01 -7.84404e+00 
 3.01721e+00 -1.11952e+00 -7.83209e+00 
 3.42390e+00 -1.27387e+00 -7.81788e+00 
 3.83232e+00 -1.43022e+00 -7.80121e+00 
 4.24249e+00 -1.58864e+00 -7.78180e+00 
 4.65475e+00 -1.74949e+00 -7.75938e+00 
 5.06909e+00 -1.91285e+00 -7.73360e+00 
 5.48585e+00 -2.07908e+00 -7.70410e+00 
 5.90501e+00 -2.24824e+00 -7.67046e+00 
 6.32687e+00 -2.42068e+00 -7.63223e+00 
 6.75139e+00 -2.59644e+00 -7.58890e+00 
 7.17884e+00 -2.77585e+00 -7.53992e+00 
 7.60913e+00 -2.95894e+00 -7.48468e+00 
 8.04249e+00 -3.14598e+00 -7.42255e+00 
 8.47878e+00 -3.33697e+00 -7.35277e+00 
 8.91816e+00 -3.53215e+00 -7.27462e+00 
 9.36040e+00 -3.73144e+00 -7.18725e+00 
 9.80558e+00 -3.93500e+00 -7.08982e+00 
 1.02534e+01 -4.14267e+00 -6.98138e+00 
 1.07037e+01 -4.35452e+00 -6.86102e+00 
 1.11562e+01 -4.57027e+00 -6.72771e+00 
 1.16105e+01 -4.78985e+00 -6.58050e+00 
 1.20661e+01 -5.01283e+00 -6.41834e+00 
 1.25225e+01 -5.23895e+00 -6.24033e+00 
 1.29789e+01 -5.46761e+00 -6.04550e+00 
 1.34347e+01 -5.69834e+00 -5.83312e+00 
 1.38888e+01 -5.93029e+00 -5.60244e+00 
 1.43404e+01 -6.16279e+00 -5.35311e+00 
 1.47881e+01 -6.39475e+00 -5.08481e+00 
 1.52308e+01 -6.62528e+00 -4.79777e+00 
 1.56671e+01 -6.85312e+00 -4.49241e+00 
 1.60958e+01 -7.07721e+00 -4.16983e+00 
 1.65154e+01 -7.29621e+00 -3.83139e+00 
 1.69248e+01 -7.50909e+00 -3.47929e+00 
 1.73227e+01 -7.71461e+00 -3.11606e+00 
 1.77082e+01 -7.91196e+00 -2.74508e+00 
 1.80807e+01 -8.10031e+00 -2.37000e+00 
 1.84400e+01 -8.27934e+00 -1.99520e+00 
 1.87861e+01 -8.44889e+00 -1.62515e+00 
 1.91199e+01 -8.60941e+00 -1.26473e+00 
 1.94425e+01 -8.76158e+00 -9.18577e-01 
 1.97557e+01 -8.90676e+00 -5.91320e-01 
 2.00617e+01 -9.04653e+00 -2.86967e-01 
 2.03637e+01 -9.21746e+00 -1.48940e-01 
-2.01814e+01  9.13745e+00 -1.46376e-01 
-1.98625e+01  8.95719e+00 -2.80812e-01 
-1.95417e+01  8.81172e+00 -5.75112e-01 
-1.92165e+01  8.66289e+00 -8.87304e-01 
-1.88850e+01  8.50943e+00 -1.21463e+00 
-1.85457e+01  8.35012e+00 -1.55375e+00 
-1.81975e+01  8.18431e+00 -1.90136e+00 
-1.78396e+01  8.01141e+00 -2.25378e+00 
-1.74716e+01  7.83139e+00 -2.60767e+00 
-1.70934e+01  7.64424e+00 -2.95958e+00 
-1.67053e+01  7.45045e+00 -3.30657e+00 
-1.63078e+01  7.25043e+00 -3.64580e+00 
-1.59015e+01  7.04500e+00 -3.97504e+00 
-1.54873e+01  6.83484e+00 -4.29225e+00 
-1.50662e+01  6.62093e+00 -4.59599e+00 
-1.46390e+01  6.40401e+00 -4.88503e+00 
-1.42067e+01  6.18509e+00 -5.15869e+00 
-1.37704e+01  5.96487e+00 -5.41642e+00 
-1.33309e+01  5.74425e+00 -5.65815e+00 
-1.28890e+01  5.52382e+00 -5.88386e+00 
-1.24457e+01  5.30434e+00 -6.09392e+00 
-1.20015e+01  5.08624e+00 -6.28867e+00 
-1.15572e+01  4.87013e+00 -6.46874e+00 
-1.11132e+01  4.65626e+00 -6.63471e+00 
-1.06701e+01  4.44511e+00 -6.78734e+00 
-1.02281e+01  4.23679e+00 -6.92731e+00 
-9.78770e+00  4.03164e+00 -7.05544e+00 
-9.34904e+00  3.82964e+00 -7.17242e+00 
-8.91247e+00  3.63103e+00 -7.27906e+00 
-8.47796e+00  3.43570e+00 -7.37603e+00 
-8.04579e+00  3.24380e+00 -7.46409e+00 
-7.61585e+00  3.05515e+00 -7.54385e+00 
-7.18835e+00  2.86982e+00 -7.61599e+00 
-6.76310e+00  2.68760e+00 -7.68107e+00 
-6.34024e+00  2.50850e+00 -7.73967e+00 
-5.91954e+00  2.33226e+00 -7.79228e+00 
-5.50111e+00  2.15887e+00 -7.83939e+00 
-5.08467e+00  1.98805e+00 -7.88143e+00 
-4.67029e+00  1.81976e+00 -7.91880e+00 
-4.25768e+00  1.65368e+00 -7.95185e+00 
-3.84687e+00  1.48978e+00 -7.98091e+00 
-3.43755e+00  1.32773e+00 -8.00628e+00 
-3.02974e+00  1.16747e+00 -8.02820e+00 
-2.62313e+00  1.00866e+00 -8.04691e+00 
-2.21770e+00  8.51258e-01 -8.06259e+00 
-1.81315e+00  6.94910e-01 -8.07541e+00 
-1.40945e+00  5.39558e-01 -8.08551e+00 
-1.00628e+00  3.84854e-01 -8.09299e+00 
-6.03630e-01  2.30736e-01 -8.09793e+00 
-2.01161e-01  7.68566e-02 -8.10039e+00 
 2.01161e-01 -7.68566e-02 -8.10039e+00 
 6.03630e-01 -2.30736e-01 -8.09793e+00 
 1.00628e+00 -3.84854e-01 -8.09299e+00 
 1.40945e+00 -5.39558e-01 -8.08551e+00 
 1.81315e+00 -6.94910e-01 -8.07541e+00 
 2.21770e+00 -8.51258e-01 -8.06259e+00 
 2.62313e+00 -1.00866e+00 -8.04691e+00 
 3.02974e+00 -1.16747e+00 -8.02820e+00 
 3.43755e+00 -1.32773e+00 -8.00628e+00 
 3.84687e+00 -1.48978e+00 -7.98091e+00 
 4.25768e+00 -1.65368e+00 -7.95185e+00 
 4.67029e+00 -1.81976e+00 -7.91880e+00 
 5.08467e+00 -1.98805e+00 -7.88143e+00 
 5.50111e+00 -2.15887e+00 -7.83939e+00 
 5.91954e+00 -2.33226e+00 -7.79228e+00 
 6.34024e+00 -2.50850e+00 -7.73967e+00 
 6.76310e+00 -2.68760e+00 -7.68107e+00 
 7.18835e+00 -2.86982e+00 -7.61599e+00 
 7.61585e+00 -3.05515e+00 -7.54385e+00 
 8.04579e+00 -3.24380e+00 -7.46409e+00 
 8.47796e+00 -3.43570e+00 -7.37603e+00 
 8.91247e+00 -3.63103e+00 -7.27906e+00 
 9.34904e+00 -3.82964e+00 -7.17242e+00 
 9.78770e+00 -4.03164e+00 -7.05544e+00 
 1.02281e+01 -4.23679e+00 -6.92731e+00 
 1.06701e+01 -4.44511e+00 -6.78734e+00 
 1.11132e+01 -4.65626e+00 -6.63471e+00 
 1.15572e+01 -4.87013e+00 -6.46874e+00 
 1.20015e+01 -5.08624e+00 -6.28867e+00 
 1.24457e+01 -5.30434e+00 -6.09392e+00 
 1.28890e+01 -5.52382e+00 -5.88386e+00 
 1.33309e+01 -5.74425e+00 -5.65815e+00 
 1.37704e+01 -5.96487e+00 -5.41642e+00 
 1.42067e+01 -6.18509e+00 -5.15869e+00 
 1.46390e+01 -6.40401e+00 -4.88503e+00 
 1.50662e+01 -6.62093e+00 -4.59599e+00 
 1.54873e+01 -6.83484e+00 -4.29225e+00 
 1.59015e+01 -7.04500e+00 -3.97504e+00 
 1.63078e+01 -7.25043e+00 -3.64580e+00 
 1.67053e+01 -7.45045e+00 -3.30657e+00 
 1.70934e+01 -7.64424e+00 -2.95958e+00 
 1.74716e+01 -7.83139e+00 -2.60767e+00 
 1.78396e+01 -8.01141e+00 -2.25378e+00 
 1.81975e+01 -8.18431e+00 -1.90136e+00 
 1.85457e+01 -8.35012e+00 -1.55375e+00 
 1.88850e+01 -8.50943e+00 -1.21463e+00 
 1.92165e+01 -8.66289e+00 -8.87304e-01 
 1.95417e+01 -8.81172e+00 -5.75112e-01 
 1.98625e+01 -8.95719e+00 -2.80812e-01 
 2.01814e+01 -9.13745e+00 -1.46376e-01 
-1.99989e+01  9.05677e+00 -1.45748e-01 
-1.96671e+01  8.86936e+00 -2.78567e-01 
-1.93349e+01  8.71938e+00 -5.67477e-01 
-1.90001e+01  8.56746e+00 -8.70170e-01 
-1.86613e+01  8.41257e+00 -1.18474e+00 
-1.83170e+01  8.25366e+00 -1.50877e+00 
-1.79665e+01  8.09010e+00 -1.83987e+00 
-1.76087e+01  7.92129e+00 -2.17528e+00 
-1.72434e+01  7.74708e+00 -2.51249e+00 
-1.68701e+01  7.56729e+00 -2.84877e+00 
-1.64891e+01  7.38217e+00 -3.18182e+00 
-1.61003e+01  7.19188e+00 -3.50927e+00 
-1.57042e+01  6.99697e+00 -3.82923e+00 
-1.53014e+01  6.79783e+00 -4.13988e+00 
-1.48924e+01  6.59518e+00 -4.43987e+00 
-1.44779e+01  6.38952e+00 -4.72794e+00 
-1.40586e+01  6.18163e+00 -5.00333e+00 
-1.36352e+01  5.97203e+00 -5.26532e+00 
-1.32085e+01  5.76147e+00 -5.51361e+00 
-1.27791e+01  5.55041e+00 -5.74794e+00 
-1.23478e+01  5.33952e+00 -5.96840e+00 
-1.19149e+01  5.12917e+00 -6.17508e+00 
-1.14813e+01  4.91993e+00 -6.36834e+00 
-1.10473e+01  4.71204e+00 -6.54848e+00 
-1.06134e+01  4.50597e+00 -6.71603e+00 
-1.01799e+01  4.30184e+00 -6.87145e+00 
-9.74728e+00  4.10001e+00 -7.01534e+00 
-9.31561e+00  3.90052e+00 -7.14823e+00 
-8.88531e+00  3.70363e+00 -7.27075e+00 
-8.45639e+00  3.50927e+00 -7.38344e+00 
-8.02914e+00  3.31765e+00 -7.48692e+00 
-7.60351e+00  3.12862e+00 -7.58172e+00 
-7.17972e+00  2.94232e+00 -7.66840e+00 
-6.75763e+00  2.75856e+00 -7.74745e+00 
-6.33744e+00  2.57742e+00 -7.81940e+00 
-5.91894e+00  2.39868e+00 -7.88467e+00 
-5.50228e+00  2.22236e+00 -7.94372e+00 
-5.08722e+00  2.04823e+00 -7.99693e+00 
-4.67386e+00  1.87628e+00 -8.04468e+00 
-4.26195e+00  1.70624e+00 -8.08730e+00 
-3.85155e+00  1.53811e+00 -8.12510e+00 
-3.44240e+00  1.37158e+00 -8.15835e+00 
-3.03453e+00  1.20663e+00 -8.18731e+00 
-2.62765e+00  1.04296e+00 -8.21217e+00 
-2.22181e+00  8.80529e-01 -8.23315e+00 
-1.81669e+00  7.19031e-01 -8.25038e+00 
-1.41232e+00  5.58423e-01 -8.26401e+00 
-1.00839e+00  3.98386e-01 -8.27415e+00 
-6.04922e-01  2.38877e-01 -8.28086e+00 
-2.01596e-01  7.95745e-02 -8.28420e+00 
 2.01596e-01 -7.95745e-02 -8.28420e+00 
 6.04922e-01 -2.38877e-01 -8.28086e+00 
 1.00839e+00 -3.98386e-01 -8.27415e+00 
 1.41232e+00 -5.58423e-01 -8.26401e+00 
 1.81669e+00 -7.19031e-01 -8.25038e+00 
 2.22181e+00 -8.80529e-01 -8.23315e+00 
 2.62765e+00 -1.04296e+00 -8.21217e+00 
 3.03453e+00 -1.20663e+00 -8.18731e+00 
 3.44240e+00 -1.37158e+00 -8.15835e+00 
 3.85155e+00 -1.53811e+00 -8.12510e+00 
 4.26195e+00 -1.70624e+00 -8.08730e+00 
 4.67386e+00 -1.87628e+00 -8.04468e+00 
 5.08722e+00 -2.04823e+00 -7.99693e+00 
 5.50228e+00 -2.22236e+00 -7.94372e+00 
 5.91894e+00 -2.39868e+00 -7.88467e+00 
 6.33744e+00 -2.57742e+00 -7.81940e+00 
 6.75763e+00 -2.75856e+00 -7.74745e+00 
 7.17972e+00 -2.94232e+00 -7.66840e+00 
 7.60351e+00 -3.12862e+00 -7.58172e+00 
 8.02914e+00 -3.31765e+00 -7.48692e+00 
 8.45639e+00 -3.50927e+00 -7.38344e+00 
 8.88531e+00 -3.70363e+00 -7.27075e+00 
 9.31561e+00 -3.90052e+00 -7.14823e+00 
 9.74728e+00 -4.10001e+00 -7.01534e+00 
 1.01799e+01 -4.30184e+00 -6.87145e+00 
 1.06134e+01 -4.50597e+00 -6.71603e+00 
 1.10473e+01 -4.71204e+00 -6.54848e+00 
 1.14813e+01 -4.91993e+00 -6.36834e+00 
 1.19149e+01 -5.12917e+00 -6.17508e+00 
 1.23478e+01 -5.33952e+00 -5.96840e+00 
 1.27791e+01 -5.55041e+00 -5.74794e+00 
 1.32085e+01 -5.76147e+00 -5.51361e+00 
 1.36352e+01 -5.97203e+00 -5.26532e+00 
 1.40586e+01 -6.18163e+00 -5.00333e+00 
 1.44779e+01 -6.38952e+00 -4.72794e+00 
 1.48924e+01 -6.59518e+00 -4.43987e+00 
 1.53014e+01 -6.79783e+00 -4.13988e+00 
 1.57042e+01 -6.99697e+00 -3.82923e+00 
 1.61003e+01 -7.19188e+00 -3.50927e+00 
 1.64891e+01 -7.38217e+00 -3.18182e+00 
 1.68701e+01 -7.56729e+00 -2.84877e+00 
 1.72434e+01 -7.74708e+00 -2.51249e+00 
 1.76087e+01 -7.92129e+00 -2.17528e+00 
 1.79665e+01 -8.09010e+00 -1.83987e+00 
 1.83170e+01 -8.25366e+00 -1.50877e+00 
 1.86613e+01 -8.41257e+00 -1.18474e+00 
 1.90001e+01 -8.56746e+00 -8.70170e-01 
 1.93349e+01 -8.71938e+00 -5.67477e-01 
 1.96671e+01 -8.86936e+00 -2.78567e-01 
 1.99989e+01 -9.05677e+00 -1.45748e-01 
-1.98144e+01  8.97481e+00 -1.46397e-01 
-1.94730e+01  8.78203e+00 -2.78929e-01 
-1.91321e+01  8.62853e+00 -5.65643e-01 
-1.87898e+01  8.47410e+00 -8.62753e-01 
-1.84452e+01  8.31788e+00 -1.16895e+00 
-1.80968e+01  8.15894e+00 -1.48247e+00 
-1.77441e+01  7.99675e+00 -1.80159e+00 
-1.73860e+01  7.83071e+00 -2.12422e+00 
-1.70223e+01  7.66062e+00 -2.44846e+00 
-1.66525e+01  7.48619e+00 -2.77220e+00 
-1.62766e+01  7.30753e+00 -3.09360e+00 
-1.58944e+01  7.12465e+00 -3.41074e+00 
-1.55063e+01  6.93790e+00 -3.72205e+00 
-1.51124e+01  6.74747e+00 -4.02592e+00 
-1.47132e+01  6.55389e+00 -4.32118e+00 
-1.43091e+01  6.35747e+00 -4.60663e+00 
-1.39007e+01  6.15881e+00 -4.88148e+00 
-1.34883e+01  5.95826e+00 -5.14495e+00 
-1.30728e+01  5.75646e+00 -5.39665e+00 
-1.26543e+01  5.55372e+00 -5.63616e+00 
-1.22337e+01  5.35065e+00 -5.86341e+00 
-1.18113e+01  5.14753e+00 -6.07827e+00 
-1.13877e+01  4.94486e+00 -6.28093e+00 
-1.09631e+01  4.74288e+00 -6.47149e+00 
-1.05381e+01  4.54200e+00 -6.65028e+00 
-1.01130e+01  4.34236e+00 -6.81758e+00 
-9.68815e+00  4.14432e+00 -6.97382e+00 
-9.26368e+00  3.94792e+00 -7.11937e+00 
-8.83998e+00  3.75344e+00 -7.25470e+00 
-8.41707e+00  3.56086e+00 -7.38023e+00 
-7.99529e+00  3.37038e+00 -7.49646e+00 
-7.57457e+00  3.18192e+00 -7.60380e+00 
-7.15519e+00  2.99564e+00 -7.70274e+00 
-6.73702e+00  2.81138e+00 -7.79367e+00 
-6.32028e+00  2.62926e+00 -7.87705e+00 
-5.90482e+00  2.44909e+00 -7.95324e+00 
-5.49078e+00  2.27095e+00 -8.02265e+00 
-5.07799e+00  2.09462e+00 -8.08562e+00 
-4.66656e+00  1.92013e+00 -8.14248e+00 
-4.25628e+00  1.74725e+00 -8.19354e+00 
-3.84723e+00  1.57600e+00 -8.23908e+00 
-3.43917e+00  1.40611e+00 -8.27934e+00 
-3.03218e+00  1.23758e+00 -8.31456e+00 
-2.62600e+00  1.07015e+00 -8.34494e+00 
-2.22068e+00  9.03804e-01 -8.37066e+00 
-1.81596e+00  7.38253e-01 -8.39186e+00 
-1.41186e+00  5.73484e-01 -8.40868e+00 
-1.00813e+00  4.09203e-01 -8.42120e+00 
-6.04788e-01  2.45391e-01 -8.42951e+00 
-2.01555e-01  8.17498e-02 -8.43365e+00 
 2.01555e-01 -8.17498e-02 -8.43365e+00 
 6.04788e-01 -2.45391e-01 -8.42951e+00 
 1.00813e+00 -4.09203e-01 -8.42120e+00 
 1.41186e+00 -5.73484e-01 -8.40868e+00 
 1.81596e+00 -7.38253e-01 -8.39186e+00 
 2.22068e+00 -9.03804e-01 -8.37066e+00 
 2.62600e+00 -1.07015e+00 -8.34494e+00 
 3.03218e+00 -1.23758e+00 -8.31456e+00 
 3.43917e+00 -1.40611e+00 -8.27934e+00 
 3.84723e+00 -1.57600e+00 -8.23908e+00 
 4.25628e+00 -1.74725e+00 -8.19354e+00 
 4.66656e+00 -1.92013e+00 -8.14248e+00 
 5.07799e+00 -2.09462e+00 -8.08562e+00 
 5.49078e+00 -2.27095e+00 -8.02265e+00 
 5.90482e+00 -2.44909e+00 -7.95324e+00 
 6.32028e+00 -2.62926e+00 -7.87705e+00 
 6.73702e+00 -2.81138e+00 -7.79367e+00 
 7.15519e+00 -2.99564e+00 -7.70274e+00 
 7.57457e+00 -3.18192e+00 -7.60380e+00 
 7.99529e+00 -3.37038e+00 -7.49646e+00 
 8.41707e+00 -3.56086e+00 -7.38023e+00 
 8.83998e+00 -3.75344e+00 -7.25470e+00 
 9.26368e+00 -3.94792e+00 -7.11937e+00 
 9.68815e+00 -4.14432e+00 -6.97382e+00 
 1.01130e+01 -4.34236e+00 -6.81758e+00 
 1.05381e+01 -4.54200e+00 -6.65028e+00 
 1.09631e+01 -4.74288e+00 -6.47149e+00 
 1.13877e+01 -4.94486e+00 -6.28093e+00 
 1.18113e+01 -5.14753e+00 -6.07827e+00 
 1.22337e+01 -5.35065e+00 -5.86341e+00 
 1.26543e+01 -5.55372e+00 -5.63616e+00 
 1.30728e+01 -5.75646e+00 -5.39665e+00 
 1.34883e+01 -5.95826e+00 -5.14495e+00 
 1.39007e+01 -6.15881e+00 -4.88148e+00 
 1.43091e+01 -6.35747e+00 -4.60663e+00 
 1.47132e+01 -6.55389e+00 -4.32118e+00 
 1.51124e+01 -6.74747e+00 -4.02592e+00 
 1.55063e+01 -6.93790e+00 -3.72205e+00 
 1.58944e+01 -7.12465e+00 -3.41074e+00 
 1.62766e+01 -7.30753e+00 -3.09360e+00 
 1.66525e+01 -7.48619e+00 -2.77220e+00 
 1.70223e+01 -7.66062e+00 -2.44846e+00 
 1.73860e+01 -7.83071e+00 -2.12422e+00 
 1.77441e+01 -7.99675e+00 -1.80159e+00 
 1.80968e+01 -8.15894e+00 -1.48247e+00 
 1.84452e+01 -8.31788e+00 -1.16895e+00 
 1.87898e+01 -8.47410e+00 -8.62753e-01 
 1.91321e+01 -8.62853e+00 -5.65643e-01 
 1.94730e+01 -8.78203e+00 -2.78929e-01 
 1.98144e+01 -8.97481e+00 -1.46397e-01 
-1.96272e+01  8.89123e+00 -1.47872e-01 
-1.92786e+01  8.69447e+00 -2.81007e-01 
-1.89311e+01  8.53832e+00 -5.67701e-01 
-1.85833e+01  8.38192e+00 -8.61983e-01 
-1.82341e+01  8.22457e+00 -1.16297e+00 
-1.78826e+01  8.06547e+00 -1.46937e+00 
-1.75281e+01  7.90415e+00 -1.77994e+00 
-1.71697e+01  7.74004e+00 -2.09309e+00 
-1.68071e+01  7.57291e+00 -2.40740e+00 
-1.64398e+01  7.40246e+00 -2.72121e+00 
-1.60678e+01  7.22869e+00 -3.03309e+00 
-1.56907e+01  7.05150e+00 -3.34146e+00 
-1.53089e+01  6.87112e+00 -3.64505e+00 
-1.49222e+01  6.68760e+00 -3.94248e+00 
-1.45311e+01  6.50133e+00 -4.23273e+00 
-1.41356e+01  6.31246e+00 -4.51472e+00 
-1.37363e+01  6.12148e+00 -4.78770e+00 
-1.33334e+01  5.92860e+00 -5.05089e+00 
-1.29274e+01  5.73432e+00 -5.30385e+00 
-1.25187e+01  5.53889e+00 -5.54610e+00 
-1.21077e+01  5.34279e+00 -5.77745e+00 
-1.16946e+01  5.14624e+00 -5.99766e+00 
-1.12802e+01  4.94970e+00 -6.20677e+00 
-1.08645e+01  4.75334e+00 -6.40474e+00 
-1.04480e+01  4.55756e+00 -6.59178e+00 
-1.00310e+01  4.36246e+00 -6.76799e+00 
-9.61376e+00  4.16839e+00 -6.93368e+00 
-9.19647e+00  3.97541e+00 -7.08907e+00 
-8.77949e+00  3.78378e+00 -7.23453e+00 
-8.36284e+00  3.59350e+00 -7.37033e+00 
-7.94684e+00  3.40480e+00 -7.49688e+00 
-7.53146e+00  3.21761e+00 -7.61448e+00 
-7.11697e+00  3.03209e+00 -7.72354e+00 
-6.70328e+00  2.84815e+00 -7.82437e+00 
-6.29061e+00  2.66591e+00 -7.91734e+00 
-5.87883e+00  2.48521e+00 -8.00277e+00 
-5.46813e+00  2.30617e+00 -8.08101e+00 
-5.05834e+00  2.12858e+00 -8.15232e+00 
-4.64960e+00  1.95251e+00 -8.21703e+00 
-4.24172e+00  1.77776e+00 -8.27538e+00 
-3.83482e+00  1.60438e+00 -8.32764e+00 
-3.42869e+00  1.43212e+00 -8.37401e+00 
-3.02341e+00  1.26102e+00 -8.41472e+00 
-2.61876e+00  1.09082e+00 -8.44994e+00 
-2.21482e+00  9.21558e-01 -8.47983e+00 
-1.81134e+00  7.52957e-01 -8.50453e+00 
-1.40838e+00  5.85030e-01 -8.52415e+00 
-1.00570e+00  4.17510e-01 -8.53878e+00 
-6.03354e-01  2.50398e-01 -8.54850e+00 
-2.01081e-01  8.34232e-02 -8.55335e+00 
 2.01081e-01 -8.34232e-02 -8.55335e+00 
 6.03354e-01 -2.50398e-01 -8.54850e+00 
 1.00570e+00 -4.17510e-01 -8.53878e+00 
 1.40838e+00 -5.85030e-01 -8.52415e+00 
 1.81134e+00 -7.52957e-01 -8.50453e+00 
 2.21482e+00 -9.21558e-01 -8.47983e+00 
 2.61876e+00 -1.09082e+00 -8.44994e+00 
 3.02341e+00 -1.26102e+00 -8.41472e+00 
 3.42869e+00 -1.43212e+00 -8.37401e+00 
 3.83482e+00 -1.60438e+00 -8.32764e+00 
 4.24172e+00 -1.77776e+00 -8.27538e+00 
 4.64960e+00 -1.95251e+00 -8.21703e+00 
 5.05834e+00 -2.12858e+00 -8.15232e+00 
 5.46813e+00 -2.30617e+00 -8.08101e+00 
 5.87883e+00 -2.48521e+00 -8.00277e+00 
 6.29061e+00 -2.66591e+00 -7.91734e+00 
 6.70328e+00 -2.84815e+00 -7.82437e+00 
 7.11697e+00 -3.03209e+00 -7.72354e+00 
 7.53146e+00 -3.21761e+00 -7.61448e+00 
 7.94684e+00 -3.40480e+00 -7.49688e+00 
 8.36284e+00 -3.59350e+00 -7.37033e+00 
 8.77949e+00 -3.78378e+00 -7.23453e+00 
 9.19647e+00 -3.97541e+00 -7.08907e+00 
 9.61376e+00 -4.16839e+00 -6.93368e+00 
 1.00310e+01 -4.36246e+00 -6.76799e+00 
 1.04480e+01 -4.55756e+00 -6.59178e+00 
 1.08645e+01 -4.75334e+00 -6.40474e+00 
 1.12802e+01 -4.94970e+00 -6.20677e+00 
 1.16946e+01 -5.14624e+00 -5.99766e+00 
 1.21077e+01 -5.34279e+00 -5.77745e+00 
 1.25187e+01 -5.53889e+00 -5.54610e+00 
 1.29274e+01 -5.73432e+00 -5.30385e+00 
 1.33334e+01 -5.92860e+00 -5.05089e+00 
 1.37363e+01 -6.12148e+00 -4.78770e+00 
 1.41356e+01 -6.31246e+00 -4.51472e+00 
 1.45311e+01 -6.50133e+00 -4.23273e+00 
 1.49222e+01 -6.68760e+00 -3.94248e+00 
 1.53089e+01 -6.87112e+00 -3.64505e+00 
 1.56907e+01 -7.05150e+00 -3.34146e+00 
 1.60678e+01 -7.22869e+00 -3.03309e+00 
 1.64398e+01 -7.40246e+00 -2.72121e+00 
 1.68071e+01 -7.57291e+00 -2.40740e+00 
 1.71697e+01 -7.74004e+00 -2.09309e+00 
 1.75281e+01 -7.90415e+00 -1.77994e+00 
 1.78826e+01 -8.06547e+00 -1.46937e+00 
 1.82341e+01 -8.22457e+00 -1.16297e+00 
 1.85833e+01 -8.38192e+00 -8.61983e-01 
 1.89311e+01 -8.53832e+00 -5.67701e-01 
 1.92786e+01 -8.69447e+00 -2.81007e-01 
 1.96272e+01 -8.89123e+00 -1.47872e-01 
-1.94364e+01  8.80582e+00 -1.49862e-01 
-1.90828e+01  8.60624e+00 -2.84179e-01 
-1.87307e+01  8.44816e+00 -5.72315e-01 
-1.83788e+01  8.29030e+00 -8.65702e-01 
-1.80264e+01  8.13209e+00 -1.16377e+00 
-1.76725e+01  7.97282e+00 -1.46555e+00 
-1.73167e+01  7.81210e+00 -1.77016e+00 
-1.69581e+01  7.64940e+00 -2.07640e+00 
-1.65964e+01  7.48449e+00 -2.38320e+00 
-1.62312e+01  7.31705e+00 -2.68926e+00 
-1.58624e+01  7.14703e+00 -2.99347e+00 
-1.54895e+01  6.97427e+00 -3.29454e+00 
-1.51128e+01  6.79892e+00 -3.59144e+00 
-1.47321e+01  6.62092e+00 -3.88302e+00 
-1.43476e+01  6.44056e+00 -4.16841e+00 
-1.39594e+01  6.25790e+00 -4.44664e+00 
-1.35679e+01  6.07330e+00 -4.71704e+00 
-1.31731e+01  5.88688e+00 -4.97886e+00 
-1.27755e+01  5.69905e+00 -5.23168e+00 
-1.23752e+01  5.50996e+00 -5.47497e+00 
-1.19728e+01  5.32002e+00 -5.70849e+00 
-1.15683e+01  5.12938e+00 -5.93193e+00 
-1.11622e+01  4.93845e+00 -6.14524e+00 
-1.07547e+01  4.74733e+00 -6.34829e+00 
-1.03463e+01  4.55640e+00 -6.54117e+00 
-9.93692e+00  4.36574e+00 -6.72388e+00 
-9.52710e+00  4.17567e+00 -6.89661e+00 
-9.11686e+00  3.98623e+00 -7.05948e+00 
-8.70658e+00  3.79770e+00 -7.21275e+00 
-8.29626e+00  3.61007e+00 -7.35660e+00 
-7.88622e+00  3.42356e+00 -7.49133e+00 
-7.47643e+00  3.23813e+00 -7.61715e+00 
-7.06716e+00  3.05396e+00 -7.73440e+00 
-6.65834e+00  2.87095e+00 -7.84331e+00 
-6.25019e+00  2.68926e+00 -7.94419e+00 
-5.84261e+00  2.50876e+00 -8.03727e+00 
-5.43580e+00  2.32956e+00 -8.12287e+00 
-5.02960e+00  2.15150e+00 -8.20120e+00 
-4.62417e+00  1.97468e+00 -8.27253e+00 
-4.21936e+00  1.79890e+00 -8.33707e+00 
-3.81530e+00  1.62423e+00 -8.39505e+00 
-3.41178e+00  1.45047e+00 -8.44665e+00 
-3.00894e+00  1.27767e+00 -8.49207e+00 
-2.60656e+00  1.10560e+00 -8.53145e+00 
-2.20474e+00  9.34316e-01 -8.56494e+00 
-1.80325e+00  7.63567e-01 -8.59266e+00 
-1.40220e+00  5.93388e-01 -8.61472e+00 
-1.00134e+00  4.23537e-01 -8.63119e+00 
-6.00759e-01  2.54037e-01 -8.64213e+00 
-2.00220e-01  8.46403e-02 -8.64759e+00 
 2.00220e-01 -8.46403e-02 -8.64759e+00 
 6.00759e-01 -2.54037e-01 -8.64213e+00 
 1.00134e+00 -4.23537e-01 -8.63119e+00 
 1.40220e+00 -5.93388e-01 -8.61472e+00 
 1.80325e+00 -7.63567e-01 -8.59266e+00 
 2.20474e+00 -9.34316e-01 -8.56494e+00 
 2.60656e+00 -1.10560e+00 -8.53145e+00 
 3.00894e+00 -1.27767e+00 -8.49207e+00 
 3.41178e+00 -1.45047e+00 -8.44665e+00 
 3.81530e+00 -1.62423e+00 -8.39505e+00 
 4.21936e+00 -1.79890e+00 -8.33707e+00 
 4.62417e+00 -1.97468e+00 -8.27253e+00 
 5.02960e+00 -2.15150e+00 -8.20120e+00 
 5.43580e+00 -2.32956e+00 -8.12287e+00 
 5.84261e+00 -2.50876e+00 -8.03727e+00 
 6.25019e+00 -2.68926e+00 -7.94419e+00 
 6.65834e+00 -2.87095e+00 -7.84331e+00 
 7.06716e+00 -3.05396e+00 -7.73440e+00 
 7.47643e+00 -3.23813e+00 -7.61715e+00 
 7.88622e+00 -3.42356e+00 -7.49133e+00 
 8.29626e+00 -3.61007e+00 -7.35660e+00 
 8.70658e+00 -3.79770e+00 -7.21275e+00 
 9.11686e+00 -3.98623e+00 -7.05948e+00 
 9.52710e+00 -4.17567e+00 -6.89661e+00 
 9.93692e+00 -4.36574e+00 -6.72388e+00 
 1.03463e+01 -4.55640e+00 -6.54117e+00 
 1.07547e+01 -4.74733e+00 -6.34829e+00 
 1.11622e+01 -4.93845e+00 -6.14524e+00 
 1.15683e+01 -5.12938e+00 -5.93193e+00 
 1.19728e+01 -5.32002e+00 -5.70849e+00 
 1.23752e+01 -5.50996e+00 -5.47497e+00 
 1.27755e+01 -5.69905e+00 -5.23168e+00 
 1.31731e+01 -5.88688e+00 -4.97886e+00 
 1.35679e+01 -6.07330e+00 -4.71704e+00 
 1.39594e+01 -6.25790e+00 -4.44664e+00 
 1.43476e+01 -6.44056e+00 -4.16841e+00 
 1.47321e+01 -6.62092e+00 -3.88302e+00 
 1.51128e+01 -6.79892e+00 -3.59144e+00 
 1.54895e+01 -6.97427e+00 -3.29454e+00 
 1.58624e+01 -7.14703e+00 -2.99347e+00 
 1.62312e+01 -7.31705e+00 -2.68926e+00 
 1.65964e+01 -7.48449e+00 -2.38320e+00 
 1.69581e+01 -7.64940e+00 -2.07640e+00 
 1.73167e+01 -7.81210e+00 -1.77016e+00 
 1.76725e+01 -7.97282e+00 -1.46555e+00 
 1.80264e+01 -8.13209e+00 -1.16377e+00 
 1.83788e+01 -8.29030e+00 -8.65702e-01 
 1.87307e+01 -8.44816e+00 -5.72315e-01 
 1.90828e+01 -8.60624e+00 -2.84179e-01 
 1.94364e+01 -8.80582e+00 -1.49862e-01 
-1.92419e+01  8.71851e+00 -1.52149e-01 
-1.88849e+01  8.51704e+00 -2.88012e-01 
-1.85296e+01  8.35765e+00 -5.78543e-01 
-1.81750e+01  8.19878e+00 -8.72373e-01 
-1.78204e+01  8.03999e+00 -1.16915e+00 
-1.74651e+01  7.88065e+00 -1.46815e+00 
-1.71085e+01  7.72042e+00 -1.76878e+00 
-1.67501e+01  7.55881e+00 -2.07009e+00 
-1.63894e+01  7.39564e+00 -2.37130e+00 
-1.60260e+01  7.23055e+00 -2.67139e+00 
-1.56599e+01  7.06349e+00 -2.96950e+00 
-1.52906e+01  6.89424e+00 -3.26459e+00 
-1.49182e+01  6.72291e+00 -3.55583e+00 
-1.45425e+01  6.54938e+00 -3.84226e+00 
-1.41637e+01  6.37384e+00 -4.12314e+00 
-1.37818e+01  6.19631e+00 -4.39763e+00 
-1.33969e+01  6.01703e+00 -4.66514e+00 
-1.30092e+01  5.83607e+00 -4.92500e+00 
-1.26190e+01  5.65376e+00 -5.17677e+00 
-1.22263e+01  5.47016e+00 -5.41996e+00 
-1.18315e+01  5.28563e+00 -5.65429e+00 
-1.14347e+01  5.10026e+00 -5.87942e+00 
-1.10364e+01  4.91439e+00 -6.09525e+00 
-1.06365e+01  4.72810e+00 -6.30158e+00 
-1.02355e+01  4.54172e+00 -6.49842e+00 
-9.83345e+00  4.35530e+00 -6.68569e+00 
-9.43071e+00  4.16914e+00 -6.86351e+00 
-9.02732e+00  3.98326e+00 -7.03190e+00 
-8.62362e+00  3.79792e+00 -7.19105e+00 
-8.21961e+00  3.61312e+00 -7.34104e+00 
-7.81559e+00  3.42909e+00 -7.48211e+00 
-7.41152e+00  3.24576e+00 -7.61439e+00 
-7.00768e+00  3.06334e+00 -7.73813e+00 
-6.60400e+00  2.88175e+00 -7.85349e+00 
-6.20071e+00  2.70114e+00 -7.96075e+00 
-5.79772e+00  2.52140e+00 -8.06006e+00 
-5.39521e+00  2.34266e+00 -8.15168e+00 
-4.99307e+00  2.16478e+00 -8.23578e+00 
-4.59148e+00  1.98787e+00 -8.31260e+00 
-4.19027e+00  1.81176e+00 -8.38229e+00 
-3.78960e+00  1.63655e+00 -8.44506e+00 
-3.38930e+00  1.46204e+00 -8.50105e+00 
-2.98950e+00  1.28830e+00 -8.55043e+00 
-2.59002e+00  1.11514e+00 -8.59332e+00 
-2.19096e+00  9.42621e-01 -8.62987e+00 
-1.79213e+00  7.70522e-01 -8.66015e+00 
-1.39364e+00  5.98897e-01 -8.68428e+00 
-9.95280e-01  4.27526e-01 -8.70230e+00 
-5.97143e-01  2.56451e-01 -8.71429e+00 
-1.99018e-01  8.54488e-02 -8.72028e+00 
 1.99018e-01 -8.54488e-02 -8.72028e+00 
 5.97143e-01 -2.56451e-01 -8.71429e+00 
 9.95280e-01 -4.27526e-01 -8.70230e+00 
 1.39364e+00 -5.98897e-01 -8.68428e+00 
 1.79213e+00 -7.70522e-01 -8.66015e+00 
 2.19096e+00 -9.42621e-01 -8.62987e+00 
 2.59002e+00 -1.11514e+00 -8.59332e+00 
 2.98950e+00 -1.28830e+00 -8.55043e+00 
 3.38930e+00 -1.46204e+00 -8.50105e+00 
 3.78960e+00 -1.63655e+00 -8.44506e+00 
 4.19027e+00 -1.81176e+00 -8.38229e+00 
 4.59148e+00 -1.98787e+00 -8.31260e+00 
 4.99307e+00 -2.16478e+00 -8.23578e+00 
 5.39521e+00 -2.34266e+00 -8.15168e+00 
 5.79772e+00 -2.52140e+00 -8.06006e+00 
 6.20071e+00 -2.70114e+00 -7.96075e+00 
 6.60400e+00 -2.88175e+00 -7.85349e+00 
 7.00768e+00 -3.06334e+00 -7.73813e+00 
 7.41152e+00 -3.24576e+00 -7.61439e+00 
 7.81559e+00 -3.42909e+00 -7.48211e+00 
 8.21961e+00 -3.61312e+00 -7.34104e+00 
 8.62362e+00 -3.79792e+00 -7.19105e+00 
 9.02732e+00 -3.98326e+00 -7.03190e+00 
 9.43071e+00 -4.16914e+00 -6.86351e+00 
 9.83345e+00 -4.35530e+00 -6.68569e+00 
 1.02355e+01 -4.54172e+00 -6.49842e+00 
 1.06365e+01 -4.72810e+00 -6.30158e+00 
 1.10364e+01 -4.91439e+00 -6.09525e+00 
 1.14347e+01 -5.10026e+00 -5.87942e+00 
 1.18315e+01 -5.28563e+00 -5.65429e+00 
 1.22263e+01 -5.47016e+00 -5.41996e+00 
 1.26190e+01 -5.65376e+00 -5.17677e+00 
 1.30092e+01 -5.83607e+00 -4.92500e+00 
 1.33969e+01 -6.01703e+00 -4.66514e+00 
 1.37818e+01 -6.19631e+00 -4.39763e+00 
 1.41637e+01 -6.37384e+00 -4.12314e+00 
 1.45425e+01 -6.54938e+00 -3.84226e+00 
 1.49182e+01 -6.72291e+00 -3.55583e+00 
 1.52906e+01 -6.89424e+00 -3.26459e+00 
 1.56599e+01 -7.06349e+00 -2.96950e+00 
 1.60260e+01 -7.23055e+00 -2.67139e+00 
 1.63894e+01 -7.39564e+00 -2.37130e+00 
 1.67501e+01 -7.55881e+00 -2.07009e+00 
 1.71085e+01 -7.72042e+00 -1.76878e+00 
 1.74651e+01 -7.88065e+00 -1.46815e+00 
 1.78204e+01 -8.03999e+00 -1.16915e+00 
 1.81750e+01 -8.19878e+00 -8.72373e-01 
 1.85296e+01 -8.35765e+00 -5.78543e-01 
 1.88849e+01 -8.51704e+00 -2.88012e-01 
 1.92419e+01 -8.71851e+00 -1.52149e-01 
-1.90435e+01  8.62928e+00 -1.54580e-01 
-1.86846e+01  8.42670e+00 -2.92198e-01 
-1.83274e+01  8.26652e+00 -5.85718e-01 
-1.79712e+01  8.10706e+00 -8.80897e-01 
-1.76154e+01  7.94796e+00 -1.17754e+00 
-1.72593e+01  7.78868e+00 -1.47512e+00 
-1.69026e+01  7.62893e+00 -1.77323e+00 
-1.65446e+01  7.46827e+00 -2.07113e+00 
-1.61850e+01  7.30651e+00 -2.36828e+00 
-1.58235e+01  7.14333e+00 -2.66383e+00 
-1.54598e+01  6.97866e+00 -2.95716e+00 
-1.50937e+01  6.81228e+00 -3.24741e+00 
-1.47252e+01  6.64422e+00 -3.53394e+00 
-1.43539e+01  6.47435e+00 -3.81591e+00 
-1.39801e+01  6.30281e+00 -4.09275e+00 
-1.36036e+01  6.12954e+00 -4.36370e+00 
-1.32247e+01  5.95475e+00 -4.62829e+00 
-1.28432e+01  5.77843e+00 -4.88587e+00 
-1.24595e+01  5.60084e+00 -5.13609e+00 
-1.20736e+01  5.42201e+00 -5.37843e+00 
-1.16857e+01  5.24223e+00 -5.61264e+00 
-1.12960e+01  5.06154e+00 -5.83837e+00 
-1.09047e+01  4.88024e+00 -6.05547e+00 
-1.05119e+01  4.69836e+00 -6.26371e+00 
-1.01179e+01  4.51619e+00 -6.46306e+00 
-9.72271e+00  4.33377e+00 -6.65338e+00 
-9.32674e+00  4.15136e+00 -6.83473e+00 
-8.92995e+00  3.96897e+00 -7.00706e+00 
-8.53267e+00  3.78685e+00 -7.17049e+00 
-8.13487e+00  3.60497e+00 -7.32505e+00 
-7.73685e+00  3.42356e+00 -7.47090e+00 
-7.33856e+00  3.24257e+00 -7.60811e+00 
-6.94027e+00  3.06220e+00 -7.73687e+00 
-6.54191e+00  2.88236e+00 -7.85729e+00 
-6.14370e+00  2.70323e+00 -7.96958e+00 
-5.74556e+00  2.52470e+00 -8.07384e+00 
-5.34770e+00  2.34691e+00 -8.17029e+00 
-4.94999e+00  2.16974e+00 -8.25905e+00 
-4.55262e+00  1.99330e+00 -8.34032e+00 
-4.15545e+00  1.81746e+00 -8.41421e+00 
-3.75864e+00  1.64230e+00 -8.48090e+00 
-3.36205e+00  1.46768e+00 -8.54050e+00 
-2.96581e+00  1.29366e+00 -8.59315e+00 
-2.56975e+00  1.12009e+00 -8.63896e+00 
-2.17400e+00  9.47015e-01 -8.67803e+00 
-1.77839e+00  7.74264e-01 -8.71045e+00 
-1.38304e+00  6.01897e-01 -8.73630e+00 
-9.87751e-01  4.29718e-01 -8.75563e+00 
-5.92644e-01  2.57785e-01 -8.76850e+00 
-1.97521e-01  8.58972e-02 -8.77492e+00 
 1.97521e-01 -8.58972e-02 -8.77492e+00 
 5.92644e-01 -2.57785e-01 -8.76850e+00 
 9.87751e-01 -4.29718e-01 -8.75563e+00 
 1.38304e+00 -6.01897e-01 -8.73630e+00 
 1.77839e+00 -7.74264e-01 -8.71045e+00 
 2.17400e+00 -9.47015e-01 -8.67803e+00 
 2.56975e+00 -1.12009e+00 -8.63896e+00 
 2.96581e+00 -1.29366e+00 -8.59315e+00 
 3.36205e+00 -1.46768e+00 -8.54050e+00 
 3.75864e+00 -1.64230e+00 -8.48090e+00 
 4.15545e+00 -1.81746e+00 -8.41421e+00 
 4.55262e+00 -1.99330e+00 -8.34032e+00 
 4.94999e+00 -2.16974e+00 -8.25905e+00 
 5.34770e+00 -2.34691e+00 -8.17029e+00 
 5.74556e+00 -2.52470e+00 -8.07384e+00 
 6.14370e+00 -2.70323e+00 -7.96958e+00 
 6.54191e+00 -2.88236e+00 -7.85729e+00 
 6.94027e+00 -3.06220e+00 -7.73687e+00 
 7.33856e+00 -3.24257e+00 -7.60811e+00 
 7.73685e+00 -3.42356e+00 -7.47090e+00 
 8.13487e+00 -3.60497e+00 -7.32505e+00 
 8.53267e+00 -3.78685e+00 -7.17049e+00 
 8.92995e+00 -3.96897e+00 -7.00706e+00 
 9.32674e+00 -4.15136e+00 -6.83473e+00 
 9.72271e+00 -4.33377e+00 -6.65338e+00 
 1.01179e+01 -4.51619e+00 -6.46306e+00 
 1.05119e+01 -4.69836e+00 -6.26371e+00 
 1.09047e+01 -4.88024e+00 -6.05547e+00 
 1.12960e+01 -5.06154e+00 -5.83837e+00 
 1.16857e+01 -5.24223e+00 -5.61264e+00 
 1.20736e+01 -5.42201e+00 -5.37843e+00 
 1.24595e+01 -5.60084e+00 -5.13609e+00 
 1.28432e+01 -5.77843e+00 -4.88587e+00 
 1.32247e+01 -5.95475e+00 -4.62829e+00 
 1.36036e+01 -6.12954e+00 -4.36370e+00 
 1.39801e+01 -6.30281e+00 -4.09275e+00 
 1.43539e+01 -6.47435e+00 -3.81591e+00 
 1.47252e+01 -6.64422e+00 -3.53394e+00 
 1.50937e+01 -6.81228e+00 -3.24741e+00 
 1.54598e+01 -6.97866e+00 -2.95716e+00 
 1.58235e+01 -7.14333e+00 -2.66383e+00 
 1.61850e+01 -7.30651e+00 -2.36828e+00 
 1.65446e+01 -7.46827e+00 -2.07113e+00 
 1.69026e+01 -7.62893e+00 -1.77323e+00 
 1.72593e+01 -7.78868e+00 -1.47512e+00 
 1.76154e+01 -7.94796e+00 -1.17754e+00 
 1.79712e+01 -8.10706e+00 -8.80897e-01 
 1.83274e+01 -8.26652e+00 -5.85718e-01 
 1.86846e+01 -8.42670e+00 -2.92198e-01 
 1.90435e+01 -8.62928e+00 -1.54580e-01 
-1.88413e+01  8.53818e+00 -1.57050e-01 
-1.84815e+01  8.33512e+00 -2.96523e-01 
-1.81236e+01  8.17459e+00 -5.93366e-01 
-1.77667e+01  8.01491e+00 -8.90486e-01 
-1.74106e+01  7.85578e+00 -1.18781e+00 
-1.70544e+01  7.69672e+00 -1.48494e+00 
-1.66981e+01  7.53750e+00 -1.78162e+00 
-1.63409e+01  7.37770e+00 -2.07729e+00 
-1.59827e+01  7.21719e+00 -2.37154e+00 
-1.56231e+01  7.05564e+00 -2.66372e+00 
-1.52618e+01  6.89298e+00 -2.95335e+00 
-1.48987e+01  6.72897e+00 -3.23973e+00 
-1.45336e+01  6.56365e+00 -3.52237e+00 
-1.41664e+01  6.39684e+00 -3.80057e+00 
-1.37971e+01  6.22866e+00 -4.07385e+00 
-1.34255e+01  6.05899e+00 -4.34158e+00 
-1.30519e+01  5.88801e+00 -4.60334e+00 
-1.26760e+01  5.71566e+00 -4.85857e+00 
-1.22982e+01  5.54216e+00 -5.10694e+00 
-1.19184e+01  5.36750e+00 -5.34799e+00 
-1.15369e+01  5.19190e+00 -5.58147e+00 
-1.11536e+01  5.01537e+00 -5.80702e+00 
-1.07688e+01  4.83818e+00 -6.02451e+00 
-1.03825e+01  4.66032e+00 -6.23366e+00 
-9.99510e+00  4.48204e+00 -6.43442e+00 
-9.60646e+00  4.30336e+00 -6.62661e+00 
-9.21694e+00  4.12452e+00 -6.81026e+00 
-8.82650e+00  3.94550e+00 -6.98526e+00 
-8.43545e+00  3.76654e+00 -7.15169e+00 
-8.04374e+00  3.58760e+00 -7.30951e+00 
-7.65165e+00  3.40891e+00 -7.45885e+00 
-7.25914e+00  3.23040e+00 -7.59972e+00 
-6.86644e+00  3.05226e+00 -7.73227e+00 
-6.47349e+00  2.87443e+00 -7.85654e+00 
-6.08052e+00  2.69708e+00 -7.97269e+00 
-5.68744e+00  2.52010e+00 -8.08080e+00 
-5.29445e+00  2.34365e+00 -8.18103e+00 
-4.90145e+00  2.16760e+00 -8.27347e+00 
-4.50862e+00  1.99210e+00 -8.35826e+00 
-4.11583e+00  1.81700e+00 -8.43551e+00 
-3.72327e+00  1.64242e+00 -8.50534e+00 
-3.33078e+00  1.46822e+00 -8.56784e+00 
-2.93851e+00  1.29448e+00 -8.62314e+00 
-2.54632e+00  1.12105e+00 -8.67131e+00 
-2.15435e+00  9.48022e-01 -8.71245e+00 
-1.76243e+00  7.75217e-01 -8.74661e+00 
-1.37070e+00  6.02719e-01 -8.77387e+00 
-9.78972e-01  4.30348e-01 -8.79426e+00 
-5.87392e-01  2.58180e-01 -8.80784e+00 
-1.95773e-01  8.60321e-02 -8.81463e+00 
 1.95773e-01 -8.60321e-02 -8.81463e+00 
 5.87392e-01 -2.58180e-01 -8.80784e+00 
 9.78972e-01 -4.30348e-01 -8.79426e+00 
 1.37070e+00 -6.02719e-01 -8.77387e+00 
 1.76243e+00 -7.75217e-01 -8.74661e+00 
 2.15435e+00 -9.48022e-01 -8.71245e+00 
 2.54632e+00 -1.12105e+00 -8.67131e+00 
 2.93851e+00 -1.29448e+00 -8.62314e+00 
 3.33078e+00 -1.46822e+00 -8.56784e+00 
 3.72327e+00 -1.64242e+00 -8.50534e+00 
 4.11583e+00 -1.81700e+00 -8.43551e+00 
 4.50862e+00 -1.99210e+00 -8.35826e+00 
 4.90145e+00 -2.16760e+00 -8.27347e+00 
 5.29445e+00 -2.34365e+00 -8.18103e+00 
 5.68744e+00 -2.52010e+00 -8.08080e+00 
 6.08052e+00 -2.69708e+00 -7.97269e+00 
 6.47349e+00 -2.87443e+00 -7.85654e+00 
 6.86644e+00 -3.05226e+00 -7.73227e+00 
 7.25914e+00 -3.23040e+00 -7.59972e+00 
 7.65165e+00 -3.40891e+00 -7.45885e+00 
 8.04374e+00 -3.58760e+00 -7.30951e+00 
 8.43545e+00 -3.76654e+00 -7.15169e+00 
 8.82650e+00 -3.94550e+00 -6.98526e+00 
 9.21694e+00 -4.12452e+00 -6.81026e+00 
 9.60646e+00 -4.30336e+00 -6.62661e+00 
 9.99510e+00 -4.48204e+00 -6.43442e+00 
 1.03825e+01 -4.66032e+00 -6.23366e+00 
 1.07688e+01 -4.83818e+00 -6.02451e+00 
 1.11536e+01 -5.01537e+00 -5.80702e+00 
 1.15369e+01 -5.19190e+00 -5.58147e+00 
 1.19184e+01 -5.36750e+00 -5.34799e+00 
 1.22982e+01 -5.54216e+00 -5.10694e+00 
 1.26760e+01 -5.71566e+00 -4.85857e+00 
 1.30519e+01 -5.88801e+00 -4.60334e+00 
 1.34255e+01 -6.05899e+00 -4.34158e+00 
 1.37971e+01 -6.22866e+00 -4.07385e+00 
 1.41664e+01 -6.39684e+00 -3.80057e+00 
 1.45336e+01 -6.56365e+00 -3.52237e+00 
 1.48987e+01 -6.72897e+00 -3.23973e+00 
 1.52618e+01 -6.89298e+00 -2.95335e+00 
 1.56231e+01 -7.05564e+00 -2.66372e+00 
 1.59827e+01 -7.21719e+00 -2.37154e+00 
 1.63409e+01 -7.37770e+00 -2.07729e+00 
 1.66981e+01 -7.53750e+00 -1.78162e+00 
 1.70544e+01 -7.69672e+00 -1.48494e+00 
 1.74106e+01 -7.85578e+00 -1.18781e+00 
 1.77667e+01 -8.01491e+00 -8.90486e-01 
 1.81236e+01 -8.17459e+00 -5.93366e-01 
 1.84815e+01 -8.33512e+00 -2.96523e-01 
 1.88413e+01 -8.53818e+00 -1.57050e-01 
-1.86354e+01  8.44527e+00 -1.59485e-01 
-1.82757e+01  8.24228e+00 -3.00836e-01 
-1.79179e+01  8.08178e+00 -6.01150e-01 
-1.75612e+01  7.92219e+00 -9.00578e-01 
-1.72054e+01  7.76328e+00 -1.19913e+00 
-1.68498e+01  7.60461e+00 -1.49651e+00 
-1.64943e+01  7.44600e+00 -1.79257e+00 
-1.61384e+01  7.28708e+00 -2.08688e+00 
-1.57818e+01  7.12772e+00 -2.37915e+00 
-1.54242e+01  6.96761e+00 -2.66887e+00 
-1.50654e+01  6.80670e+00 -2.95568e+00 
-1.47052e+01  6.64475e+00 -3.23902e+00 
-1.43435e+01  6.48177e+00 -3.51849e+00 
-1.39800e+01  6.31758e+00 -3.79352e+00 
-1.36148e+01  6.15227e+00 -4.06373e+00 
-1.32477e+01  5.98569e+00 -4.32858e+00 
-1.28789e+01  5.81800e+00 -4.58770e+00 
-1.25083e+01  5.64910e+00 -4.84062e+00 
-1.21359e+01  5.47916e+00 -5.08704e+00 
-1.17617e+01  5.30815e+00 -5.32654e+00 
-1.13860e+01  5.13626e+00 -5.55890e+00 
-1.10087e+01  4.96346e+00 -5.78377e+00 
-1.06300e+01  4.78997e+00 -6.00100e+00 
-1.02498e+01  4.61577e+00 -6.21033e+00 
-9.86857e+00  4.44109e+00 -6.41168e+00 
-9.48612e+00  4.26590e+00 -6.60486e+00 
-9.10274e+00  4.09043e+00 -6.78985e+00 
-8.71842e+00  3.91464e+00 -6.96653e+00 
-8.33340e+00  3.73876e+00 -7.13493e+00 
-7.94764e+00  3.56274e+00 -7.29498e+00 
-7.56139e+00  3.38678e+00 -7.44676e+00 
-7.17460e+00  3.21083e+00 -7.59024e+00 
-6.78750e+00  3.03507e+00 -7.72553e+00 
-6.40001e+00  2.85942e+00 -7.85263e+00 
-6.01237e+00  2.68406e+00 -7.97168e+00 
-5.62447e+00  2.50890e+00 -8.08269e+00 
-5.23654e+00  2.33408e+00 -8.18580e+00 
-4.84845e+00  2.15950e+00 -8.28105e+00 
-4.46040e+00  1.98529e+00 -8.36858e+00 
-4.07227e+00  1.81134e+00 -8.44843e+00 
-3.68424e+00  1.63776e+00 -8.52073e+00 
-3.29617e+00  1.46441e+00 -8.58552e+00 
-2.90823e+00  1.29142e+00 -8.64291e+00 
-2.52027e+00  1.11862e+00 -8.69295e+00 
-2.13245e+00  9.46130e-01 -8.73572e+00 
-1.74461e+00  7.73782e-01 -8.77127e+00 
-1.35689e+00  6.01672e-01 -8.79966e+00 
-9.69146e-01  4.29639e-01 -8.82090e+00 
-5.81509e-01  2.57770e-01 -8.83506e+00 
-1.93815e-01  8.58980e-02 -8.84213e+00 
 1.93815e-01 -8.58980e-02 -8.84213e+00 
 5.81509e-01 -2.57770e-01 -8.83506e+00 
 9.69146e-01 -4.29639e-01 -8.82090e+00 
 1.35689e+00 -6.01672e-01 -8.79966e+00 
 1.74461e+00 -7.73782e-01 -8.77127e+00 
 2.13245e+00 -9.46130e-01 -8.73572e+00 
 2.52027e+00 -1.11862e+00 -8.69295e+00 
 2.90823e+00 -1.29142e+00 -8.64291e+00 
 3.29617e+00 -1.46441e+00 -8.58552e+00 
 3.68424e+00 -1.63776e+00 -8.52073e+00 
 4.07227e+00 -1.81134e+00 -8.44843e+00 
 4.46040e+00 -1.98529e+00 -8.36858e+00 
 4.84845e+00 -2.15950e+00 -8.28105e+00 
 5.23654e+00 -2.33408e+00 -8.18580e+00 
 5.62447e+00 -2.50890e+00 -8.08269e+00 
 6.01237e+00 -2.68406e+00 -7.97168e+00 
 6.40001e+00 -2.85942e+00 -7.85263e+00 
 6.78750e+00 -3.03507e+00 -7.72553e+00 
 7.17460e+00 -3.21083e+00 -7.59024e+00 
 7.56139e+00 -3.38678e+00 -7.44676e+00 
 7.94764e+00 -3.56274e+00 -7.29498e+00 
 8.33340e+00 -3.73876e+00 -7.13493e+00 
 8.71842e+00 -3.91464e+00 -6.96653e+00 
 9.10274e+00 -4.09043e+00 -6.78985e+00 
 9.48612e+00 -4.26590e+00 -6.60486e+00 
 9.86857e+00 -4.44109e+00 -6.41168e+00 
 1.02498e+01 -4.61577e+00 -6.21033e+00 
 1.06300e+01 -4.78997e+00 -6.00100e+00 
 1.10087e+01 -4.96346e+00 -5.78377e+00 
 1.13860e+01 -5.13626e+00 -5.55890e+00 
 1.17617e+01 -5.30815e+00 -5.32654e+00 
 1.21359e+01 -5.47916e+00 -5.08704e+00 
 1.25083e+01 -5.64910e+00 -4.84062e+00 
 1.28789e+01 -5.81800e+00 -4.58770e+00 
 1.32477e+01 -5.98569e+00 -4.32858e+00 
 1.36148e+01 -6.15227e+00 -4.06373e+00 
 1.39800e+01 -6.31758e+00 -3.79352e+00 
 1.43435e+01 -6.48177e+00 -3.51849e+00 
 1.47052e+01 -6.64475e+00 -3.23902e+00 
 1.50654e+01 -6.80670e+00 -2.95568e+00 
 1.54242e+01 -6.96761e+00 -2.66887e+00 
 1.57818e+01 -7.12772e+00 -2.37915e+00 
 1.61384e+01 -7.28708e+00 -2.08688e+00 
 1.64943e+01 -7.44600e+00 -1.79257e+00 
 1.68498e+01 -7.60461e+00 -1.49651e+00 
 1.72054e+01 -7.76328e+00 -1.19913e+00 
 1.75612e+01 -7.92219e+00 -9.00578e-01 
 1.79179e+01 -8.08178e+00 -6.01150e-01 
 1.82757e+01 -8.24228e+00 -3.00836e-01 
 1.86354e+01 -8.44527e+00 -1.59485e-01 
-1.84258e+01  8.35066e+00 -1.61836e-01 
-1.80671e+01  8.14818e+00 -3.05034e-01 
-1.77101e+01  7.98804e+00 -6.08838e-01 
-1.73543e+01  7.82883e+00 -9.10770e-01 
-1.69995e+01  7.67036e+00 -1.21090e+00 
-1.66451e+01  7.51225e+00 -1.50902e+00 
-1.62909e+01  7.35436e+00 -1.80505e+00 
-1.59366e+01  7.19634e+00 -2.09865e+00 
-1.55819e+01  7.03810e+00 -2.38966e+00 
-1.52265e+01  6.87934e+00 -2.67763e+00 
-1.48703e+01  6.72002e+00 -2.96234e+00 
-1.45130e+01  6.55990e+00 -3.24329e+00 
-1.41545e+01  6.39899e+00 -3.52022e+00 
-1.37946e+01  6.23710e+00 -3.79262e+00 
-1.34333e+01  6.07429e+00 -4.06022e+00 
-1.30705e+01  5.91042e+00 -4.32251e+00 
-1.27063e+01  5.74561e+00 -4.57925e+00 
-1.23404e+01  5.57974e+00 -4.82997e+00 
-1.19731e+01  5.41295e+00 -5.07445e+00 
-1.16042e+01  5.24519e+00 -5.31229e+00 
-1.12339e+01  5.07661e+00 -5.54330e+00 
-1.08621e+01  4.90716e+00 -5.76715e+00 
-1.04891e+01  4.73704e+00 -5.98371e+00 
-1.01148e+01  4.56619e+00 -6.19270e+00 
-9.73937e+00  4.39483e+00 -6.39405e+00 
-9.36280e+00  4.22290e+00 -6.58754e+00 
-8.98532e+00  4.05061e+00 -6.77316e+00 
-8.60688e+00  3.87792e+00 -6.95074e+00 
-8.22771e+00  3.70501e+00 -7.12030e+00 
-7.84775e+00  3.53185e+00 -7.28175e+00 
-7.46723e+00  3.35863e+00 -7.43512e+00 
-7.08610e+00  3.18526e+00 -7.58037e+00 
-6.70457e+00  3.01195e+00 -7.71755e+00 
-6.32256e+00  2.83861e+00 -7.84666e+00 
-5.94029e+00  2.66540e+00 -7.96777e+00 
-5.55766e+00  2.49224e+00 -8.08089e+00 
-5.17489e+00  2.31929e+00 -8.18611e+00 
-4.79187e+00  2.14643e+00 -8.28347e+00 
-4.40878e+00  1.97381e+00 -8.37304e+00 
-4.02551e+00  1.80132e+00 -8.45486e+00 
-3.64225e+00  1.62907e+00 -8.52902e+00 
-3.25886e+00  1.45696e+00 -8.59556e+00 
-2.87551e+00  1.28509e+00 -8.65456e+00 
-2.49207e+00  1.11333e+00 -8.70604e+00 
-2.10870e+00  9.41790e-01 -8.75009e+00 
-1.72526e+00  7.70327e-01 -8.78671e+00 
-1.34189e+00  5.99045e-01 -8.81597e+00 
-9.58458e-01  4.27795e-01 -8.83789e+00 
-5.75106e-01  2.56676e-01 -8.85249e+00 
-1.91683e-01  8.55358e-02 -8.85978e+00 
 1.91683e-01 -8.55358e-02 -8.85978e+00 
 5.75106e-01 -2.56676e-01 -8.85249e+00 
 9.58458e-01 -4.27795e-01 -8.83789e+00 
 1.34189e+00 -5.99045e-01 -8.81597e+00 
 1.72526e+00 -7.70327e-01 -8.78671e+00 
 2.10870e+00 -9.41790e-01 -8.75009e+00 
 2.49207e+00 -1.11333e+00 -8.70604e+00 
 2.87551e+00 -1.28509e+00 -8.65456e+00 
 3.25886e+00 -1.45696e+00 -8.59556e+00 
 3.64225e+00 -1.62907e+00 -8.52902e+00 
 4.02551e+00 -1.80132e+00 -8.45486e+00 
 4.40878e+00 -1.97381e+00 -8.37304e+00 
 4.79187e+00 -2.14643e+00 -8.28347e+00 
 5.17489e+00 -2.31929e+00 -8.18611e+00 
 5.55766e+00 -2.49224e+00 -8.08089e+00 
 5.94029e+00 -2.66540e+00 -7.96777e+00 
 6.32256e+00 -2.83861e+00 -7.84666e+00 
 6.70457e+00 -3.01195e+00 -7.71755e+00 
 7.08610e+00 -3.18526e+00 -7.58037e+00 
 7.46723e+00 -3.35863e+00 -7.43512e+00 
 7.84775e+00 -3.53185e+00 -7.28175e+00 
 8.22771e+00 -3.70501e+00 -7.12030e+00 
 8.60688e+00 -3.87792e+00 -6.95074e+00 
 8.98532e+00 -4.05061e+00 -6.77316e+00 
 9.36280e+00 -4.22290e+00 -6.58754e+00 
 9.73937e+00 -4.39483e+00 -6.39405e+00 
 1.01148e+01 -4.56619e+00 -6.19270e+00 
 1.04891e+01 -4.73704e+00 -5.98371e+00 
 1.08621e+01 -4.90716e+00 -5.76715e+00 
 1.12339e+01 -5.07661e+00 -5.54330e+00 
 1.16042e+01 -5.24519e+00 -5.31229e+00 
 1.19731e+01 -5.41295e+00 -5.07445e+00 
 1.23404e+01 -5.57974e+00 -4.82997e+00 
 1.27063e+01 -5.74561e+00 -4.57925e+00 
 1.30705e+01 -5.91042e+00 -4.32251e+00 
 1.34333e+01 -6.07429e+00 -4.06022e+00 
 1.37946e+01 -6.23710e+00 -3.79262e+00 
 1.41545e+01 -6.39899e+00 -3.52022e+00 
 1.45130e+01 -6.55990e+00 -3.24329e+00 
 1.48703e+01 -6.72002e+00 -2.96234e+00 
 1.52265e+01 -6.87934e+00 -2.67763e+00 
 1.55819e+01 -7.03810e+00 -2.38966e+00 
 1.59366e+01 -7.19634e+00 -2.09865e+00 
 1.62909e+01 -7.35436e+00 -1.80505e+00 
 1.66451e+01 -7.51225e+00 -1.50902e+00 
 1.69995e+01 -7.67036e+00 -1.21090e+00 
 1.73543e+01 -7.82883e+00 -9.10770e-01 
 1.77101e+01 -7.98804e+00 -6.08838e-01 
 1.80671e+01 -8.14818e+00 -3.05034e-01 
 1.84258e+01 -8.35066e+00 -1.61836e-01 
-1.82130e+01  8.25446e+00 -1.64068e-01 
-1.78558e+01  8.05286e+00 -3.09047e-01 
-1.75003e+01  7.89335e+00 -6.16268e-01 
-1.71460e+01  7.73476e+00 -9.20783e-01 
-1.67927e+01  7.57695e+00 -1.22271e+00 
-1.64399e+01  7.41957e+00 -1.52189e+00 
-1.60876e+01  7.26251e+00 -1.81830e+00 
-1.57352e+01  7.10547e+00 -2.11169e+00 
-1.53827e+01  6.94835e+00 -2.40196e+00 
-1.50297e+01  6.79090e+00 -2.68876e+00 
-1.46762e+01  6.63307e+00 -2.97192e+00 
-1.43218e+01  6.47463e+00 -3.25105e+00 
-1.39666e+01  6.31559e+00 -3.52594e+00 
-1.36102e+01  6.15577e+00 -3.79619e+00 
-1.32527e+01  5.99521e+00 -4.06156e+00 
-1.28940e+01  5.83376e+00 -4.32165e+00 
-1.25340e+01  5.67151e+00 -4.57624e+00 
-1.21727e+01  5.50835e+00 -4.82493e+00 
-1.18102e+01  5.34439e+00 -5.06754e+00 
-1.14462e+01  5.17954e+00 -5.30370e+00 
-1.10811e+01  5.01395e+00 -5.53325e+00 
-1.07146e+01  4.84755e+00 -5.75589e+00 
-1.03470e+01  4.68051e+00 -5.97149e+00 
-9.97819e+00  4.51275e+00 -6.17980e+00 
-9.60835e+00  4.34447e+00 -6.38072e+00 
-9.23741e+00  4.17559e+00 -6.57405e+00 
-8.86560e+00  4.00631e+00 -6.75975e+00 
-8.49284e+00  3.83656e+00 -6.93765e+00 
-8.11934e+00  3.66654e+00 -7.10776e+00 
-7.74504e+00  3.49617e+00 -7.26995e+00 
-7.37015e+00  3.32564e+00 -7.42425e+00 
-6.99459e+00  3.15488e+00 -7.57058e+00 
-6.61858e+00  2.98405e+00 -7.70897e+00 
-6.24203e+00  2.81309e+00 -7.83940e+00 
-5.86515e+00  2.64214e+00 -7.96191e+00 
-5.48785e+00  2.47114e+00 -8.07649e+00 
-5.11032e+00  2.30021e+00 -8.18320e+00 
-4.73246e+00  2.12928e+00 -8.28203e+00 
-4.35446e+00  1.95848e+00 -8.37308e+00 
-3.97621e+00  1.78770e+00 -8.45633e+00 
-3.59788e+00  1.61707e+00 -8.53186e+00 
-3.21936e+00  1.44648e+00 -8.59969e+00 
-2.84082e+00  1.27605e+00 -8.65988e+00 
-2.46213e+00  1.10565e+00 -8.71244e+00 
-2.08346e+00  9.35410e-01 -8.75743e+00 
-1.70467e+00  7.65187e-01 -8.79487e+00 
-1.32592e+00  5.95097e-01 -8.82479e+00 
-9.47071e-01  4.25002e-01 -8.84721e+00 
-5.68282e-01  2.55010e-01 -8.86214e+00 
-1.89410e-01  8.49828e-02 -8.86961e+00 
 1.89410e-01 -8.49828e-02 -8.86961e+00 
 5.68282e-01 -2.55010e-01 -8.86214e+00 
 9.47071e-01 -4.25002e-01 -8.84721e+00 
 1.32592e+00 -5.95097e-01 -8.82479e+00 
 1.70467e+00 -7.65187e-01 -8.79487e+00 
 2.08346e+00 -9.35410e-01 -8.75743e+00 
 2.46213e+00 -1.10565e+00 -8.71244e+00 
 2.84082e+00 -1.27605e+00 -8.65988e+00 
 3.21936e+00 -1.44648e+00 -8.59969e+00 
 3.59788e+00 -1.61707e+00 -8.53186e+00 
 3.97621e+00 -1.78770e+00 -8.45633e+00 
 4.35446e+00 -1.95848e+00 -8.37308e+00 
 4.73246e+00 -2.12928e+00 -8.28203e+00 
 5.11032e+00 -2.30021e+00 -8.18320e+00 
 5.48785e+00 -2.47114e+00 -8.07649e+00 
 5.86515e+00 -2.64214e+00 -7.96191e+00 
 6.24203e+00 -2.81309e+00 -7.83940e+00 
 6.61858e+00 -2.98405e+00 -7.70897e+00 
 6.99459e+00 -3.15488e+00 -7.57058e+00 
 7.37015e+00 -3.32564e+00 -7.42425e+00 
 7.74504e+00 -3.49617e+00 -7.26995e+00 
 8.11934e+00 -3.66654e+00 -7.10776e+00 
 8.49284e+00 -3.83656e+00 -6.93765e+00 
 8.86560e+00 -4.00631e+00 -6.75975e+00 
 9.23741e+00 -4.17559e+00 -6.57405e+00 
 9.60835e+00 -4.34447e+00 -6.38072e+00 
 9.97819e+00 -4.51275e+00 -6.17980e+00 
 1.03470e+01 -4.68051e+00 -5.97149e+00 
 1.07146e+01 -4.84755e+00 -5.75589e+00 
 1.10811e+01 -5.01395e+00 -5.53325e+00 
 1.14462e+01 -5.17954e+00 -5.30370e+00 
 1.18102e+01 -5.34439e+00 -5.06754e+00 
 1.21727e+01 -5.50835e+00 -4.82493e+00 
 1.25340e+01 -5.67151e+00 -4.57624e+00 
 1.28940e+01 -5.83376e+00 -4.32165e+00 
 1.32527e+01 -5.99521e+00 -4.06156e+00 
 1.36102e+01 -6.15577e+00 -3.79619e+00 
 1.39666e+01 -6.31559e+00 -3.52594e+00 
 1.43218e+01 -6.47463e+00 -3.25105e+00 
 1.46762e+01 -6.63307e+00 -2.97192e+00 
 1.50297e+01 -6.79090e+00 -2.68876e+00 
 1.53827e+01 -6.94835e+00 -2.40196e+00 
 1.57352e+01 -7.10547e+00 -2.11169e+00 
 1.60876e+01 -7.26251e+00 -1.81830e+00 
 1.64399e+01 -7.41957e+00 -1.52189e+00 
 1.67927e+01 -7.57695e+00 -1.22271e+00 
 1.71460e+01 -7.73476e+00 -9.20783e-01 
 1.75003e+01 -7.89335e+00 -6.16268e-01 
 1.78558e+01 -8.05286e+00 -3.09047e-01 
 1.82130e+01 -8.25446e+00 -1.64068e-01 
-1.79970e+01  8.15678e+00 -1.66164e-01 
-1.76419e+01  7.95638e+00 -3.12832e-01 
-1.72885e+01  7.79774e+00 -6.23334e-01 
-1.69362e+01  7.63999e+00 -9.30423e-01 
-1.65849e+01  7.48302e+00 -1.23425e+00 
-1.62342e+01  7.32652e+00 -1.53469e+00 
-1.58840e+01  7.17042e+00 -1.83178e+00 
-1.55339e+01  7.01442e+00 -2.12532e+00 
-1.51838e+01  6.85847e+00 -2.41525e+00 
-1.48335e+01  6.70231e+00 -2.70130e+00 
-1.44828e+01  6.54592e+00 -2.98336e+00 
-1.41315e+01  6.38908e+00 -3.26111e+00 
-1.37795e+01  6.23179e+00 -3.53441e+00 
-1.34266e+01  6.07388e+00 -3.80289e+00 
-1.30729e+01  5.91537e+00 -4.06641e+00 
-1.27181e+01  5.75613e+00 -4.32459e+00 
-1.23624e+01  5.59622e+00 -4.57728e+00 
-1.20054e+01  5.43551e+00 -4.82413e+00 
-1.16475e+01  5.27412e+00 -5.06497e+00 
-1.12883e+01  5.11193e+00 -5.29950e+00 
-1.09280e+01  4.94909e+00 -5.52757e+00 
-1.05666e+01  4.78548e+00 -5.74890e+00 
-1.02042e+01  4.62128e+00 -5.96338e+00 
-9.84064e+00  4.45639e+00 -6.17076e+00 
-9.47616e+00  4.29098e+00 -6.37097e+00 
-9.11065e+00  4.12497e+00 -6.56379e+00 
-8.74431e+00  3.95854e+00 -6.74918e+00 
-8.37705e+00  3.79162e+00 -6.92698e+00 
-8.00907e+00  3.62437e+00 -7.09716e+00 
-7.64029e+00  3.45672e+00 -7.25960e+00 
-7.27092e+00  3.28884e+00 -7.41431e+00 
-6.90086e+00  3.12066e+00 -7.56118e+00 
-6.53032e+00  2.95234e+00 -7.70025e+00 
-6.15920e+00  2.78380e+00 -7.83145e+00 
-5.78771e+00  2.61520e+00 -7.95482e+00 
-5.41574e+00  2.44644e+00 -8.07032e+00 
-5.04350e+00  2.27768e+00 -8.17800e+00 
-4.67087e+00  2.10883e+00 -8.27783e+00 
-4.29805e+00  1.94001e+00 -8.36987e+00 
-3.92492e+00  1.77114e+00 -8.45410e+00 
-3.55166e+00  1.60235e+00 -8.53059e+00 
-3.17816e+00  1.43352e+00 -8.59932e+00 
-2.80460e+00  1.26478e+00 -8.66035e+00 
-2.43083e+00  1.09601e+00 -8.71368e+00 
-2.05705e+00  9.27349e-01 -8.75935e+00 
-1.68311e+00  7.58657e-01 -8.79737e+00 
-1.30918e+00  5.90058e-01 -8.82777e+00 
-9.35130e-01  4.21425e-01 -8.85055e+00 
-5.61124e-01  2.52873e-01 -8.86573e+00 
-1.87025e-01  8.42721e-02 -8.87332e+00 
 1.87025e-01 -8.42721e-02 -8.87332e+00 
 5.61124e-01 -2.52873e-01 -8.86573e+00 
 9.35130e-01 -4.21425e-01 -8.85055e+00 
 1.30918e+00 -5.90058e-01 -8.82777e+00 
 1.68311e+00 -7.58657e-01 -8.79737e+00 
 2.05705e+00 -9.27349e-01 -8.75935e+00 
 2.43083e+00 -1.09601e+00 -8.71368e+00 
 2.80460e+00 -1.26478e+00 -8.66035e+00 
 3.17816e+00 -1.43352e+00 -8.59932e+00 
 3.55166e+00 -1.60235e+00 -8.53059e+00 
 3.92492e+00 -1.77114e+00 -8.45410e+00 
 4.29805e+00 -1.94001e+00 -8.36987e+00 
 4.67087e+00 -2.10883e+00 -8.27783e+00 
 5.04350e+00 -2.27768e+00 -8.17800e+00 
 5.41574e+00 -2.44644e+00 -8.07032e+00 
 5.78771e+00 -2.61520e+00 -7.95482e+00 
 6.15920e+00 -2.78380e+00 -7.83145e+00 
 6.53032e+00 -2.95234e+00 -7.70025e+00 
 6.90086e+00 -3.12066e+00 -7.56118e+00 
 7.27092e+00 -3.28884e+00 -7.41431e+00 
 7.64029e+00 -3.45672e+00 -7.25960e+00 
 8.00907e+00 -3.62437e+00 -7.09716e+00 
 8.37705e+00 -3.79162e+00 -6.92698e+00 
 8.74431e+00 -3.95854e+00 -6.74918e+00 
 9.11065e+00 -4.12497e+00 -6.56379e+00 
 9.47616e+00 -4.29098e+00 -6.37097e+00 
 9.84064e+00 -4.45639e+00 -6.17076e+00 
 1.02042e+01 -4.62128e+00 -5.96338e+00 
 1.05666e+01 -4.78548e+00 -5.74890e+00 
 1.09280e+01 -4.94909e+00 -5.52757e+00 
 1.12883e+01 -5.11193e+00 -5.29950e+00 
 1.16475e+01 -5.27412e+00 -5.06497e+00 
 1.20054e+01 -5.43551e+00 -4.82413e+00 
 1.23624e+01 -5.59622e+00 -4.57728e+00 
 1.27181e+01 -5.75613e+00 -4.32459e+00 
 1.30729e+01 -5.91537e+00 -4.06641e+00 
 1.34266e+01 -6.07388e+00 -3.80289e+00 
 1.37795e+01 -6.23179e+00 -3.53441e+00 
 1.41315e+01 -6.38908e+00 -3.26111e+00 
 1.44828e+01 -6.54592e+00 -2.98336e+00 
 1.48335e+01 -6.70231e+00 -2.70130e+00 
 1.51838e+01 -6.85847e+00 -2.41525e+00 
 1.55339e+01 -7.01442e+00 -2.12532e+00 
 1.58840e+01 -7.17042e+00 -1.83178e+00 
 1.62342e+01 -7.32652e+00 -1.53469e+00 
 1.65849e+01 -7.48302e+00 -1.23425e+00 
 1.69362e+01 -7.63999e+00 -9.30423e-01 
 1.72885e+01 -7.79774e+00 -6.23334e-01 
 1.76419e+01 -7.95638e+00 -3.12832e-01 
 1.79970e+01 -8.15678e+00 -1.66164e-01 
-1.77781e+01  8.05775e+00 -1.68110e-01 
-1.74256e+01  7.85880e+00 -3.16363e-01 
-1.70747e+01  7.70123e+00 -6.29969e-01 
-1.67248e+01  7.54451e+00 -9.39565e-01 
-1.63759e+01  7.38855e+00 -1.24532e+00 
-1.60277e+01  7.23309e+00 -1.54714e+00 
-1.56800e+01  7.07805e+00 -1.84510e+00 
-1.53325e+01  6.92319e+00 -2.13902e+00 
-1.49851e+01  6.76845e+00 -2.42892e+00 
-1.46376e+01  6.61361e+00 -2.71455e+00 
-1.42899e+01  6.45865e+00 -2.99587e+00 
-1.39418e+01  6.30336e+00 -3.27260e+00 
-1.35932e+01  6.14774e+00 -3.54465e+00 
-1.32438e+01  5.99163e+00 -3.81171e+00 
-1.28938e+01  5.83505e+00 -4.07368e+00 
-1.25430e+01  5.67785e+00 -4.33024e+00 
-1.21913e+01  5.52011e+00 -4.58126e+00 
-1.18387e+01  5.36168e+00 -4.82645e+00 
-1.14851e+01  5.20266e+00 -5.06567e+00 
-1.11305e+01  5.04294e+00 -5.29865e+00 
-1.07750e+01  4.88262e+00 -5.52526e+00 
-1.04185e+01  4.72162e+00 -5.74525e+00 
-1.00611e+01  4.56006e+00 -5.95852e+00 
-9.70260e+00  4.39785e+00 -6.16484e+00 
-9.34330e+00  4.23515e+00 -6.36415e+00 
-8.98304e+00  4.07186e+00 -6.55622e+00 
-8.62201e+00  3.90814e+00 -6.74103e+00 
-8.26011e+00  3.74392e+00 -6.91841e+00 
-7.89752e+00  3.57935e+00 -7.08832e+00 
-7.53415e+00  3.41435e+00 -7.25064e+00 
-7.17019e+00  3.24907e+00 -7.40536e+00 
-6.80555e+00  3.08345e+00 -7.55237e+00 
-6.44041e+00  2.91764e+00 -7.69169e+00 
-6.07468e+00  2.75154e+00 -7.82324e+00 
-5.70856e+00  2.58532e+00 -7.94705e+00 
-5.34193e+00  2.41889e+00 -8.06305e+00 
-4.97500e+00  2.25238e+00 -8.17127e+00 
-4.60764e+00  2.08572e+00 -8.27169e+00 
-4.24006e+00  1.91903e+00 -8.36434e+00 
-3.87213e+00  1.75223e+00 -8.44919e+00 
-3.50403e+00  1.58543e+00 -8.52628e+00 
-3.13566e+00  1.41855e+00 -8.59561e+00 
-2.76718e+00  1.25170e+00 -8.65719e+00 
-2.39848e+00  1.08479e+00 -8.71103e+00 
-2.02972e+00  9.17923e-01 -8.75716e+00 
-1.66078e+00  7.50998e-01 -8.79558e+00 
-1.29184e+00  5.84133e-01 -8.82630e+00 
-9.22758e-01  4.17211e-01 -8.84933e+00 
-5.53705e-01  2.50351e-01 -8.86468e+00 
-1.84553e-01  8.34329e-02 -8.87235e+00 
 1.84553e-01 -8.34329e-02 -8.87235e+00 
 5.53705e-01 -2.50351e-01 -8.86468e+00 
 9.22758e-01 -4.17211e-01 -8.84933e+00 
 1.29184e+00 -5.84133e-01 -8.82630e+00 
 1.66078e+00 -7.50998e-01 -8.79558e+00 
 2.02972e+00 -9.17923e-01 -8.75716e+00 
 2.39848e+00 -1.08479e+00 -8.71103e+00 
 2.76718e+00 -1.25170e+00 -8.65719e+00 
 3.13566e+00 -1.41855e+00 -8.59561e+00 
 3.50403e+00 -1.58543e+00 -8.52628e+00 
 3.87213e+00 -1.75223e+00 -8.44919e+00 
 4.24006e+00 -1.91903e+00 -8.36434e+00 
 4.60764e+00 -2.08572e+00 -8.27169e+00 
 4.97500e+00 -2.25238e+00 -8.17127e+00 
 5.34193e+00 -2.41889e+00 -8.06305e+00 
 5.70856e+00 -2.58532e+00 -7.94705e+00 
 6.07468e+00 -2.75154e+00 -7.82324e+00 
 6.44041e+00 -2.91764e+00 -7.69169e+00 
 6.80555e+00 -3.08345e+00 -7.55237e+00 
 7.17019e+00 -3.24907e+00 -7.40536e+00 
 7.53415e+00 -3.41435e+00 -7.25064e+00 
 7.89752e+00 -3.57935e+00 -7.08832e+00 
 8.26011e+00 -3.74392e+00 -6.91841e+00 
 8.62201e+00 -3.90814e+00 -6.74103e+00 
 8.98304e+00 -4.07186e+00 -6.55622e+00 
 9.34330e+00 -4.23515e+00 -6.36415e+00 
 9.70260e+00 -4.39785e+00 -6.16484e+00 
 1.00611e+01 -4.56006e+00 -5.95852e+00 
 1.04185e+01 -4.72162e+00 -5.74525e+00 
 1.07750e+01 -4.88262e+00 -5.52526e+00 
 1.11305e+01 -5.04294e+00 -5.29865e+00 
 1.14851e+01 -5.20266e+00 -5.06567e+00 
 1.18387e+01 -5.36168e+00 -4.82645e+00 
 1.21913e+01 -5.52011e+00 -4.58126e+00 
 1.25430e+01 -5.67785e+00 -4.33024e+00 
 1.28938e+01 -5.83505e+00 -4.07368e+00 
 1.32438e+01 -5.99163e+00 -3.81171e+00 
 1.35932e+01 -6.14774e+00 -3.54465e+00 
 1.39418e+01 -6.30336e+00 -3.27260e+00 
 1.42899e+01 -6.45865e+00 -2.99587e+00 
 1.46376e+01 -6.61361e+00 -2.71455e+00 
 1.49851e+01 -6.76845e+00 -2.42892e+00 
 1.53325e+01 -6.92319e+00 -2.13902e+00 
 1.56800e+01 -7.07805e+00 -1.84510e+00 
 1.60277e+01 -7.23309e+00 -1.54714e+00 
 1.63759e+01 -7.38855e+00 -1.24532e+00 
 1.67248e+01 -7.54451e+00 -9.39565e-01 
 1.70747e+01 -7.70123e+00 -6.29969e-01 
 1.74256e+01 -7.85880e+00 -3.16363e-01 
 1.77781e+01 -8.05775e+00 -1.68110e-01 
-1.75565e+01  7.95747e+00 -1.69903e-01 
-1.72071e+01  7.76020e+00 -3.19626e-01 
-1.68590e+01  7.60388e+00 -6.36137e-01 
-1.65119e+01  7.44834e+00 -9.48130e-01 
-1.61658e+01  7.29355e+00 -1.25579e+00 
-1.58204e+01  7.13925e+00 -1.55904e+00 
-1.54755e+01  6.98540e+00 -1.85798e+00 
-1.51308e+01  6.83176e+00 -2.15246e+00 
-1.47864e+01  6.67831e+00 -2.44254e+00 
-1.44420e+01  6.52482e+00 -2.72800e+00 
-1.40974e+01  6.37130e+00 -3.00885e+00 
-1.37526e+01  6.21753e+00 -3.28484e+00 
-1.34074e+01  6.06355e+00 -3.55593e+00 
-1.30617e+01  5.90917e+00 -3.82186e+00 
-1.27155e+01  5.75443e+00 -4.08255e+00 
-1.23685e+01  5.59918e+00 -4.33772e+00 
-1.20209e+01  5.44348e+00 -4.58730e+00 
-1.16724e+01  5.28719e+00 -4.83101e+00 
-1.13233e+01  5.13039e+00 -5.06876e+00 
-1.09732e+01  4.97297e+00 -5.30028e+00 
-1.06223e+01  4.81504e+00 -5.52550e+00 
-1.02705e+01  4.65648e+00 -5.74417e+00 
-9.91791e+00  4.49741e+00 -5.95620e+00 
-9.56441e+00  4.33774e+00 -6.16140e+00 
-9.21015e+00  4.17760e+00 -6.35968e+00 
-8.85501e+00  4.01690e+00 -6.55087e+00 
-8.49916e+00  3.85578e+00 -6.73491e+00 
-8.14248e+00  3.69415e+00 -6.91164e+00 
-7.78517e+00  3.53217e+00 -7.08104e+00 
-7.42710e+00  3.36975e+00 -7.24297e+00 
-7.06847e+00  3.20703e+00 -7.39741e+00 
-6.70916e+00  3.04394e+00 -7.54425e+00 
-6.34937e+00  2.88061e+00 -7.68351e+00 
-5.98899e+00  2.71697e+00 -7.81508e+00 
-5.62820e+00  2.55317e+00 -7.93898e+00 
-5.26691e+00  2.38910e+00 -8.05515e+00 
-4.90528e+00  2.22492e+00 -8.16360e+00 
-4.54322e+00  2.06053e+00 -8.26429e+00 
-4.18090e+00  1.89607e+00 -8.35724e+00 
-3.81822e+00  1.73144e+00 -8.44241e+00 
-3.45535e+00  1.56678e+00 -8.51984e+00 
-3.09218e+00  1.40199e+00 -8.58949e+00 
-2.72888e+00  1.23719e+00 -8.65140e+00 
-2.36533e+00  1.07229e+00 -8.70554e+00 
-2.00171e+00  9.07405e-01 -8.75195e+00 
-1.63789e+00  7.42432e-01 -8.79060e+00 
-1.27405e+00  5.77496e-01 -8.82152e+00 
-9.10060e-01  4.12484e-01 -8.84471e+00 
-5.46090e-01  2.47520e-01 -8.86016e+00 
-1.82015e-01  8.24905e-02 -8.86789e+00 
 1.82015e-01 -8.24905e-02 -8.86789e+00 
 5.46090e-01 -2.47520e-01 -8.86016e+00 
 9.10060e-01 -4.12484e-01 -8.84471e+00 
 1.27405e+00 -5.77496e-01 -8.82152e+00 
 1.63789e+00 -7.42432e-01 -8.79060e+00 
 2.00171e+00 -9.07405e-01 -8.75195e+00 
 2.36533e+00 -1.07229e+00 -8.70554e+00 
 2.72888e+00 -1.23719e+00 -8.65140e+00 
 3.09218e+00 -1.40199e+00 -8.58949e+00 
 3.45535e+00 -1.56678e+00 -8.51984e+00 
 3.81822e+00 -1.73144e+00 -8.44241e+00 
 4.18090e+00 -1.89607e+00 -8.35724e+00 
 4.54322e+00 -2.06053e+00 -8.26429e+00 
 4.90528e+00 -2.22492e+00 -8.16360e+00 
 5.26691e+00 -2.38910e+00 -8.05515e+00 
 5.62820e+00 -2.55317e+00 -7.93898e+00 
 5.98899e+00 -2.71697e+00 -7.81508e+00 
 6.34937e+00 -2.88061e+00 -7.68351e+00 
 6.70916e+00 -3.04394e+00 -7.54425e+00 
 7.06847e+00 -3.20703e+00 -7.39741e+00 
 7.42710e+00 -3.36975e+00 -7.24297e+00 
 7.78517e+00 -3.53217e+00 -7.08104e+00 
 8.14248e+00 -3.69415e+00 -6.91164e+00 
 8.49916e+00 -3.85578e+00 -6.73491e+00 
 8.85501e+00 -4.01690e+00 -6.55087e+00 
 9.21015e+00 -4.17760e+00 -6.35968e+00 
 9.56441e+00 -4.33774e+00 -6.16140e+00 
 9.91791e+00 -4.49741e+00 -5.95620e+00 
 1.02705e+01 -4.65648e+00 -5.74417e+00 
 1.06223e+01 -4.81504e+00 -5.52550e+00 
 1.09732e+01 -4.97297e+00 -5.30028e+00 
 1.13233e+01 -5.13039e+00 -5.06876e+00 
 1.16724e+01 -5.28719e+00 -4.83101e+00 
 1.20209e+01 -5.44348e+00 -4.58730e+00 
 1.23685e+01 -5.59918e+00 -4.33772e+00 
 1.27155e+01 -5.75443e+00 -4.08255e+00 
 1.30617e+01 -5.90917e+00 -3.82186e+00 
 1.34074e+01 -6.06355e+00 -3.55593e+00 
 1.37526e+01 -6.21753e+00 -3.28484e+00 
 1.40974e+01 -6.37130e+00 -3.00885e+00 
 1.44420e+01 -6.52482e+00 -2.72800e+00 
 1.47864e+01 -6.67831e+00 -2.44254e+00 
 1.51308e+01 -6.83176e+00 -2.15246e+00 
 1.54755e+01 -6.98540e+00 -1.85798e+00 
 1.58204e+01 -7.13925e+00 -1.55904e+00 
 1.61658e+01 -7.29355e+00 -1.25579e+00 
 1.65119e+01 -7.44834e+00 -9.48130e-01 
 1.68590e+01 -7.60388e+00 -6.36137e-01 
 1.72071e+01 -7.76020e+00 -3.19626e-01 
 1.75565e+01 -7.95747e+00 -1.69903e-01 
-1.73325e+01  7.85607e+00 -1.71544e-01 
-1.69864e+01  7.66066e+00 -3.22621e-01 
-1.66415e+01  7.50573e+00 -6.41823e-01 
-1.62976e+01  7.35153e+00 -9.56076e-01 
-1.59546e+01  7.19804e+00 -1.26557e+00 
-1.56122e+01  7.04502e+00 -1.57025e+00 
-1.52704e+01  6.89246e+00 -1.87023e+00 
-1.49289e+01  6.74013e+00 -2.16539e+00 
-1.45876e+01  6.58803e+00 -2.45579e+00 
-1.42464e+01  6.43594e+00 -2.74128e+00 
-1.39052e+01  6.28388e+00 -3.02186e+00 
-1.35638e+01  6.13166e+00 -3.29735e+00 
-1.32222e+01  5.97929e+00 -3.56771e+00 
-1.28801e+01  5.82661e+00 -3.83273e+00 
-1.25377e+01  5.67366e+00 -4.09236e+00 
-1.21946e+01  5.52028e+00 -4.34637e+00 
-1.18511e+01  5.36654e+00 -4.59470e+00 
-1.15068e+01  5.21229e+00 -4.83711e+00 
-1.11619e+01  5.05761e+00 -5.07352e+00 
-1.08163e+01  4.90239e+00 -5.30371e+00 
-1.04699e+01  4.74671e+00 -5.52762e+00 
-1.01228e+01  4.59046e+00 -5.74501e+00 
-9.77497e+00  4.43377e+00 -5.95583e+00 
-9.42632e+00  4.27651e+00 -6.15987e+00 
-9.07699e+00  4.11882e+00 -6.35709e+00 
-8.72685e+00  3.96060e+00 -6.54730e+00 
-8.37607e+00  3.80198e+00 -6.73046e+00 
-8.02453e+00  3.64287e+00 -6.90641e+00 
-7.67239e+00  3.48340e+00 -7.07512e+00 
-7.31954e+00  3.32350e+00 -7.23646e+00 
-6.96615e+00  3.16329e+00 -7.39042e+00 
-6.61212e+00  3.00268e+00 -7.53687e+00 
-6.25762e+00  2.84183e+00 -7.67582e+00 
-5.90254e+00  2.68065e+00 -7.80716e+00 
-5.54705e+00  2.51926e+00 -7.93091e+00 
-5.19106e+00  2.35759e+00 -8.04700e+00 
-4.83474e+00  2.19577e+00 -8.15542e+00 
-4.47797e+00  2.03371e+00 -8.25613e+00 
-4.12094e+00  1.87155e+00 -8.34914e+00 
-3.76353e+00  1.70919e+00 -8.43441e+00 
-3.40593e+00  1.54676e+00 -8.51195e+00 
-3.04800e+00  1.38417e+00 -8.58173e+00 
-2.68994e+00  1.22155e+00 -8.64378e+00 
-2.33161e+00  1.05879e+00 -8.69806e+00 
-1.97320e+00  8.96026e-01 -8.74459e+00 
-1.61458e+00  7.33153e-01 -8.78336e+00 
-1.25593e+00  5.70298e-01 -8.81438e+00 
-8.97125e-01  4.07353e-01 -8.83764e+00 
-5.38330e-01  2.44445e-01 -8.85315e+00 
-1.79430e-01  8.14665e-02 -8.86091e+00 
 1.79430e-01 -8.14665e-02 -8.86091e+00 
 5.38330e-01 -2.44445e-01 -8.85315e+00 
 8.97125e-01 -4.07353e-01 -8.83764e+00 
 1.25593e+00 -5.70298e-01 -8.81438e+00 
 1.61458e+00 -7.33153e-01 -8.78336e+00 
 1.97320e+00 -8.96026e-01 -8.74459e+00 
 2.33161e+00 -1.05879e+00 -8.69806e+00 
 2.68994e+00 -1.22155e+00 -8.64378e+00 
 3.04800e+00 -1.38417e+00 -8.58173e+00 
 3.40593e+00 -1.54676e+00 -8.51195e+00 
 3.76353e+00 -1.70919e+00 -8.43441e+00 
 4.12094e+00 -1.87155e+00 -8.34914e+00 
 4.47797e+00 -2.03371e+00 -8.25613e+00 
 4.83474e+00 -2.19577e+00 -8.15542e+00 
 5.19106e+00 -2.35759e+00 -8.04700e+00 
 5.54705e+00 -2.51926e+00 -7.93091e+00 
 5.90254e+00 -2.68065e+00 -7.80716e+00 
 6.25762e+00 -2.84183e+00 -7.67582e+00 
 6.61212e+00 -3.00268e+00 -7.53687e+00 
 6.96615e+00 -3.16329e+00 -7.39042e+00 
 7.31954e+00 -3.32350e+00 -7.23646e+00 
 7.67239e+00 -3.48340e+00 -7.07512e+00 
 8.02453e+00 -3.64287e+00 -6.90641e+00 
 8.37607e+00 -3.80198e+00 -6.73046e+00 
 8.72685e+00 -3.96060e+00 -6.54730e+00 
 9.07699e+00 -4.11882e+00 -6.35709e+00 
 9.42632e+00 -4.27651e+00 -6.15987e+00 
 9.77497e+00 -4.43377e+00 -5.95583e+00 
 1.01228e+01 -4.59046e+00 -5.74501e+00 
 1.04699e+01 -4.74671e+00 -5.52762e+00 
 1.08163e+01 -4.90239e+00 -5.30371e+00 
 1.11619e+01 -5.05761e+00 -5.07352e+00 
 1.15068e+01 -5.21229e+00 -4.83711e+00 
 1.18511e+01 -5.36654e+00 -4.59470e+00 
 1.21946e+01 -5.52028e+00 -4.34637e+00 
 1.25377e+01 -5.67366e+00 -4.09236e+00 
 1.28801e+01 -5.82661e+00 -3.83273e+00 
 1.32222e+01 -5.97929e+00 -3.56771e+00 
 1.35638e+01 -6.13166e+00 -3.29735e+00 
 1.39052e+01 -6.28388e+00 -3.02186e+00 
 1.42464e+01 -6.43594e+00 -2.74128e+00 
 1.45876e+01 -6.58803e+00 -2.45579e+00 
 1.49289e+01 -6.74013e+00 -2.16539e+00 
 1.52704e+01 -6.89246e+00 -1.87023e+00 
 1.56122e+01 -7.04502e+00 -1.57025e+00 
 1.59546e+01 -7.19804e+00 -1.26557e+00 
 1.62976e+01 -7.35153e+00 -9.56076e-01 
 1.66415e+01 -7.50573e+00 -6.41823e-01 
 1.69864e+01 -7.66066e+00 -3.22621e-01 
 1.73325e+01 -7.85607e+00 -1.71544e-01 
-1.71064e+01  7.75364e+00 -1.73036e-01 
-1.67638e+01  7.56025e+00 -3.25350e-01 
-1.64225e+01  7.40685e+00 -6.47026e-01 
-1.60819e+01  7.25410e+00 -9.63387e-01 
-1.57423e+01  7.10203e+00 -1.27463e+00 
-1.54032e+01  6.95040e+00 -1.58071e+00 
-1.50647e+01  6.79923e+00 -1.88174e+00 
-1.47265e+01  6.64830e+00 -2.17763e+00 
-1.43887e+01  6.49762e+00 -2.46847e+00 
-1.40509e+01  6.34699e+00 -2.75411e+00 
-1.37132e+01  6.19644e+00 -3.03459e+00 
-1.33753e+01  6.04577e+00 -3.30974e+00 
-1.30373e+01  5.89503e+00 -3.57956e+00 
-1.26990e+01  5.74403e+00 -3.84387e+00 
-1.23604e+01  5.59284e+00 -4.10264e+00 
-1.20214e+01  5.44129e+00 -4.35567e+00 
-1.16819e+01  5.28945e+00 -4.60292e+00 
-1.13418e+01  5.13717e+00 -4.84418e+00 
-1.10012e+01  4.98454e+00 -5.07941e+00 
-1.06599e+01  4.83142e+00 -5.30839e+00 
-1.03181e+01  4.67791e+00 -5.53107e+00 
-9.97553e+00  4.52389e+00 -5.74726e+00 
-9.63238e+00  4.36947e+00 -5.95690e+00 
-9.28850e+00  4.21454e+00 -6.15981e+00 
-8.94401e+00  4.05921e+00 -6.35595e+00 
-8.59880e+00  3.90338e+00 -6.54515e+00 
-8.25301e+00  3.74718e+00 -6.72736e+00 
-7.90651e+00  3.59051e+00 -6.90244e+00 
-7.55947e+00  3.43349e+00 -7.07037e+00 
-7.21176e+00  3.27604e+00 -7.23100e+00 
-6.86355e+00  3.11829e+00 -7.38432e+00 
-6.51473e+00  2.96015e+00 -7.53022e+00 
-6.16546e+00  2.80175e+00 -7.66869e+00 
-5.81564e+00  2.64301e+00 -7.79963e+00 
-5.46542e+00  2.48405e+00 -7.92305e+00 
-5.11471e+00  2.32479e+00 -8.03886e+00 
-4.76367e+00  2.16536e+00 -8.14707e+00 
-4.41219e+00  2.00567e+00 -8.24761e+00 
-4.06045e+00  1.84586e+00 -8.34050e+00 
-3.70833e+00  1.68582e+00 -8.42568e+00 
-3.35600e+00  1.52570e+00 -8.50317e+00 
-3.00336e+00  1.36539e+00 -8.57293e+00 
-2.65056e+00  1.20503e+00 -8.63496e+00 
-2.29751e+00  1.04452e+00 -8.68925e+00 
-1.94435e+00  8.83983e-01 -8.73580e+00 
-1.59099e+00  7.23322e-01 -8.77459e+00 
-1.23759e+00  5.62665e-01 -8.80563e+00 
-8.84025e-01  4.01909e-01 -8.82891e+00 
-5.30471e-01  2.41181e-01 -8.84443e+00 
-1.76810e-01  8.03793e-02 -8.85219e+00 
 1.76810e-01 -8.03793e-02 -8.85219e+00 
 5.30471e-01 -2.41181e-01 -8.84443e+00 
 8.84025e-01 -4.01909e-01 -8.82891e+00 
 1.23759e+00 -5.62665e-01 -8.80563e+00 
 1.59099e+00 -7.23322e-01 -8.77459e+00 
 1.94435e+00 -8.83983e-01 -8.73580e+00 
 2.29751e+00 -1.04452e+00 -8.68925e+00 
 2.65056e+00 -1.20503e+00 -8.63496e+00 
 3.00336e+00 -1.36539e+00 -8.57293e+00 
 3.35600e+00 -1.52570e+00 -8.50317e+00 
 3.70833e+00 -1.68582e+00 -8.42568e+00 
 4.06045e+00 -1.84586e+00 -8.34050e+00 
 4.41219e+00 -2.00567e+00 -8.24761e+00 
 4.76367e+00 -2.16536e+00 -8.14707e+00 
 5.11471e+00 -2.32479e+00 -8.03886e+00 
 5.46542e+00 -2.48405e+00 -7.92305e+00 
 5.81564e+00 -2.64301e+00 -7.79963e+00 
 6.16546e+00 -2.80175e+00 -7.66869e+00 
 6.51473e+00 -2.96015e+00 -7.53022e+00 
 6.86355e+00 -3.11829e+00 -7.38432e+00 
 7.21176e+00 -3.27604e+00 -7.23100e+00 
 7.55947e+00 -3.43349e+00 -7.07037e+00 
 7.90651e+00 -3.59051e+00 -6.90244e+00 
 8.25301e+00 -3.74718e+00 -6.72736e+00 
 8.59880e+00 -3.90338e+00 -6.54515e+00 
 8.94401e+00 -4.05921e+00 -6.35595e+00 
 9.28850e+00 -4.21454e+00 -6.15981e+00 
 9.63238e+00 -4.36947e+00 -5.95690e+00 
 9.97553e+00 -4.52389e+00 -5.74726e+00 
 1.03181e+01 -4.67791e+00 -5.53107e+00 
 1.06599e+01 -4.83142e+00 -5.30839e+00 
 1.10012e+01 -4.98454e+00 -5.07941e+00 
 1.13418e+01 -5.13717e+00 -4.84418e+00 
 1.16819e+01 -5.28945e+00 -4.60292e+00 
 1.20214e+01 -5.44129e+00 -4.35567e+00 
 1.23604e+01 -5.59284e+00 -4.10264e+00 
 1.26990e+01 -5.74403e+00 -3.84387e+00 
 1.30373e+01 -5.89503e+00 -3.57956e+00 
 1.33753e+01 -6.04577e+00 -3.30974e+00 
 1.37132e+01 -6.19644e+00 -3.03459e+00 
 1.40509e+01 -6.34699e+00 -2.75411e+00 
 1.43887e+01 -6.49762e+00 -2.46847e+00 
 1.47265e+01 -6.64830e+00 -2.17763e+00 
 1.50647e+01 -6.79923e+00 -1.88174e+00 
 1.54032e+01 -6.95040e+00 -1.58071e+00 
 1.57423e+01 -7.10203e+00 -1.27463e+00 
 1.60819e+01 -7.25410e+00 -9.63387e-01 
 1.64225e+01 -7.40685e+00 -6.47026e-01 
 1.67638e+01 -7.56025e+00 -3.25350e-01 
 1.71064e+01 -7.75364e+00 -1.73036e-01 
-1.68782e+01  7.65030e+00 -1.74385e-01 
-1.65395e+01  7.45906e+00 -3.27824e-01 
-1.62019e+01  7.30728e+00 -6.51757e-01 
-1.58650e+01  7.15611e+00 -9.70067e-01 
-1.55289e+01  7.00556e+00 -1.28296e+00 
-1.51934e+01  6.85542e+00 -1.59037e+00 
-1.48584e+01  6.70573e+00 -1.89245e+00 
-1.45238e+01  6.55628e+00 -2.18910e+00 
-1.41895e+01  6.40709e+00 -2.48043e+00 
-1.38553e+01  6.25798e+00 -2.76631e+00 
-1.35212e+01  6.10897e+00 -3.04680e+00 
-1.31870e+01  5.95989e+00 -3.32175e+00 
-1.28528e+01  5.81079e+00 -3.59119e+00 
-1.25184e+01  5.66148e+00 -3.85495e+00 
-1.21837e+01  5.51204e+00 -4.11302e+00 
-1.18486e+01  5.36230e+00 -4.36523e+00 
-1.15132e+01  5.21232e+00 -4.61156e+00 
-1.11773e+01  5.06198e+00 -4.85182e+00 
-1.08410e+01  4.91133e+00 -5.08599e+00 
-1.05041e+01  4.76027e+00 -5.31387e+00 
-1.01667e+01  4.60886e+00 -5.53543e+00 
-9.82874e+00  4.45700e+00 -5.75050e+00 
-9.49023e+00  4.30479e+00 -5.95903e+00 
-9.15106e+00  4.15210e+00 -6.16084e+00 
-8.81137e+00  3.99906e+00 -6.35592e+00 
-8.47102e+00  3.84556e+00 -6.54410e+00 
-8.13015e+00  3.69171e+00 -6.72535e+00 
-7.78863e+00  3.53741e+00 -6.89952e+00 
-7.44662e+00  3.38279e+00 -7.06659e+00 
-7.10400e+00  3.22775e+00 -7.22644e+00 
-6.76091e+00  3.07242e+00 -7.37904e+00 
-6.41724e+00  2.91671e+00 -7.52428e+00 
-6.07316e+00  2.76074e+00 -7.66216e+00 
-5.72854e+00  2.60442e+00 -7.79258e+00 
-5.38356e+00  2.44788e+00 -7.91553e+00 
-5.03810e+00  2.29104e+00 -8.03093e+00 
-4.69232e+00  2.13402e+00 -8.13879e+00 
-4.34612e+00  1.97672e+00 -8.23903e+00 
-3.99965e+00  1.81929e+00 -8.33166e+00 
-3.65282e+00  1.66163e+00 -8.41663e+00 
-3.30578e+00  1.50386e+00 -8.49394e+00 
-2.95843e+00  1.34590e+00 -8.56355e+00 
-2.61092e+00  1.18787e+00 -8.62546e+00 
-2.26315e+00  1.02967e+00 -8.67966e+00 
-1.91529e+00  8.71438e-01 -8.72613e+00 
-1.56722e+00  7.13073e-01 -8.76487e+00 
-1.21910e+00  5.54702e-01 -8.79587e+00 
-8.70819e-01  3.96227e-01 -8.81912e+00 
-5.22547e-01  2.37774e-01 -8.83463e+00 
-1.74169e-01  7.92440e-02 -8.84238e+00 
 1.74169e-01 -7.92440e-02 -8.84238e+00 
 5.22547e-01 -2.37774e-01 -8.83463e+00 
 8.70819e-01 -3.96227e-01 -8.81912e+00 
 1.21910e+00 -5.54702e-01 -8.79587e+00 
 1.56722e+00 -7.13073e-01 -8.76487e+00 
 1.91529e+00 -8.71438e-01 -8.72613e+00 
 2.26315e+00 -1.02967e+00 -8.67966e+00 
 2.61092e+00 -1.18787e+00 -8.62546e+00 
 2.95843e+00 -1.34590e+00 -8.56355e+00 
 3.30578e+00 -1.50386e+00 -8.49394e+00 
 3.65282e+00 -1.66163e+00 -8.41663e+00 
 3.99965e+00 -1.81929e+00 -8.33166e+00 
 4.34612e+00 -1.97672e+00 -8.23903e+00 
 4.69232e+00 -2.13402e+00 -8.13879e+00 
 5.03810e+00 -2.29104e+00 -8.03093e+00 
 5.38356e+00 -2.44788e+00 -7.91553e+00 
 5.72854e+00 -2.60442e+00 -7.79258e+00 
 6.07316e+00 -2.76074e+00 -7.66216e+00 
 6.41724e+00 -2.91671e+00 -7.52428e+00 
 6.76091e+00 -3.07242e+00 -7.37904e+00 
 7.10400e+00 -3.22775e+00 -7.22644e+00 
 7.44662e+00 -3.38279e+00 -7.06659e+00 
 7.78863e+00 -3.53741e+00 -6.89952e+00 
 8.13015e+00 -3.69171e+00 -6.72535e+00 
 8.47102e+00 -3.84556e+00 -6.54410e+00 
 8.81137e+00 -3.99906e+00 -6.35592e+00 
 9.15106e+00 -4.15210e+00 -6.16084e+00 
 9.49023e+00 -4.30479e+00 -5.95903e+00 
 9.82874e+00 -4.45700e+00 -5.75050e+00 
 1.01667e+01 -4.60886e+00 -5.53543e+00 
 1.05041e+01 -4.76027e+00 -5.31387e+00 
 1.08410e+01 -4.91133e+00 -5.08599e+00 
 1.11773e+01 -5.06198e+00 -4.85182e+00 
 1.15132e+01 -5.21232e+00 -4.61156e+00 
 1.18486e+01 -5.36230e+00 -4.36523e+00 
 1.21837e+01 -5.51204e+00 -4.11302e+00 
 1.25184e+01 -5.66148e+00 -3.85495e+00 
 1.28528e+01 -5.81079e+00 -3.59119e+00 
 1.31870e+01 -5.95989e+00 -3.32175e+00 
 1.35212e+01 -6.10897e+00 -3.04680e+00 
 1.38553e+01 -6.25798e+00 -2.76631e+00 
 1.41895e+01 -6.40709e+00 -2.48043e+00 
 1.45238e+01 -6.55628e+00 -2.18910e+00 
 1.48584e+01 -6.70573e+00 -1.89245e+00 
 1.51934e+01 -6.85542e+00 -1.59037e+00 
 1.55289e+01 -7.00556e+00 -1.28296e+00 
 1.58650e+01 -7.15611e+00 -9.70067e-01 
 1.62019e+01 -7.30728e+00 -6.51757e-01 
 1.65395e+01 -7.45906e+00 -3.27824e-01 
 1.68782e+01 -7.65030e+00 -1.74385e-01 
-1.66483e+01  7.54614e+00 -1.75599e-01 
-1.63136e+01  7.35716e+00 -3.30054e-01 
-1.59799e+01  7.20710e+00 -6.56035e-01 
-1.56469e+01  7.05759e+00 -9.76133e-01 
-1.53146e+01  6.90865e+00 -1.29055e+00 
-1.49828e+01  6.76010e+00 -1.59922e+00 
-1.46516e+01  6.61197e+00 -1.90231e+00 
-1.43206e+01  6.46407e+00 -2.19973e+00 
-1.39900e+01  6.31644e+00 -2.49159e+00 
-1.36596e+01  6.16890e+00 -2.77778e+00 
-1.33293e+01  6.02150e+00 -3.05837e+00 
-1.29989e+01  5.87405e+00 -3.33322e+00 
-1.26686e+01  5.72660e+00 -3.60239e+00 
-1.23380e+01  5.57901e+00 -3.86572e+00 
-1.20073e+01  5.43131e+00 -4.12323e+00 
-1.16763e+01  5.28337e+00 -4.37475e+00 
-1.13451e+01  5.13525e+00 -4.62029e+00 
-1.10134e+01  4.98681e+00 -4.85969e+00 
-1.06814e+01  4.83813e+00 -5.09292e+00 
-1.03489e+01  4.68907e+00 -5.31982e+00 
-1.00160e+01  4.53972e+00 -5.54036e+00 
-9.68249e+00  4.38997e+00 -5.75439e+00 
-9.34858e+00  4.23991e+00 -5.96188e+00 
-9.01410e+00  4.08942e+00 -6.16266e+00 
-8.67915e+00  3.93861e+00 -6.35672e+00 
-8.34362e+00  3.78737e+00 -6.54390e+00 
-8.00762e+00  3.63582e+00 -6.72419e+00 
-7.67104e+00  3.48385e+00 -6.89744e+00 
-7.33401e+00  3.33158e+00 -7.06364e+00 
-6.99641e+00  3.17891e+00 -7.22266e+00 
-6.65839e+00  3.02597e+00 -7.37449e+00 
-6.31983e+00  2.87265e+00 -7.51902e+00 
-5.98089e+00  2.71908e+00 -7.65624e+00 
-5.64145e+00  2.56518e+00 -7.78605e+00 
-5.30166e+00  2.41105e+00 -7.90844e+00 
-4.96142e+00  2.25662e+00 -8.02335e+00 
-4.62088e+00  2.10201e+00 -8.13075e+00 
-4.27993e+00  1.94713e+00 -8.23059e+00 
-3.93873e+00  1.79210e+00 -8.32287e+00 
-3.59717e+00  1.63683e+00 -8.40753e+00 
-3.25542e+00  1.48146e+00 -8.48457e+00 
-2.91335e+00  1.32588e+00 -8.55395e+00 
-2.57114e+00  1.17022e+00 -8.61567e+00 
-2.22867e+00  1.01440e+00 -8.66970e+00 
-1.88611e+00  8.58526e-01 -8.71604e+00 
-1.54334e+00  7.02518e-01 -8.75466e+00 
-1.20052e+00  5.46498e-01 -8.78558e+00 
-8.57554e-01  3.90370e-01 -8.80876e+00 
-5.14588e-01  2.34261e-01 -8.82423e+00 
-1.71516e-01  7.80735e-02 -8.83196e+00 
 1.71516e-01 -7.80735e-02 -8.83196e+00 
 5.14588e-01 -2.34261e-01 -8.82423e+00 
 8.57554e-01 -3.90370e-01 -8.80876e+00 
 1.20052e+00 -5.46498e-01 -8.78558e+00 
 1.54334e+00 -7.02518e-01 -8.75466e+00 
 1.88611e+00 -8.58526e-01 -8.71604e+00 
 2.22867e+00 -1.01440e+00 -8.66970e+00 
 2.57114e+00 -1.17022e+00 -8.61567e+00 
 2.91335e+00 -1.32588e+00 -8.55395e+00 
 3.25542e+00 -1.48146e+00 -8.48457e+00 
 3.59717e+00 -1.63683e+00 -8.40753e+00 
 3.93873e+00 -1.79210e+00 -8.32287e+00 
 4.27993e+00 -1.94713e+00 -8.23059e+00 
 4.62088e+00 -2.10201e+00 -8.13075e+00 
 4.96142e+00 -2.25662e+00 -8.02335e+00 
 5.30166e+00 -2.41105e+00 -7.90844e+00 
 5.64145e+00 -2.56518e+00 -7.78605e+00 
 5.98089e+00 -2.71908e+00 -7.65624e+00 
 6.31983e+00 -2.87265e+00 -7.51902e+00 
 6.65839e+00 -3.02597e+00 -7.37449e+00 
 6.99641e+00 -3.17891e+00 -7.22266e+00 
 7.33401e+00 -3.33158e+00 -7.06364e+00 
 7.67104e+00 -3.48385e+00 -6.89744e+00 
 8.00762e+00 -3.63582e+00 -6.72419e+00 
 8.34362e+00 -3.78737e+00 -6.54390e+00 
 8.67915e+00 -3.93861e+00 -6.35672e+00 
 9.01410e+00 -4.08942e+00 -6.16266e+00 
 9.34858e+00 -4.23991e+00 -5.96188e+00 
 9.68249e+00 -4.38997e+00 -5.75439e+00 
 1.00160e+01 -4.53972e+00 -5.54036e+00 
 1.03489e+01 -4.68907e+00 -5.31982e+00 
 1.06814e+01 -4.83813e+00 -5.09292e+00 
 1.10134e+01 -4.98681e+00 -4.85969e+00 
 1.13451e+01 -5.13525e+00 -4.62029e+00 
 1.16763e+01 -5.28337e+00 -4.37475e+00 
 1.20073e+01 -5.43131e+00 -4.12323e+00 
 1.23380e+01 -5.57901e+00 -3.86572e+00 
 1.26686e+01 -5.72660e+00 -3.60239e+00 
 1.29989e+01 -5.87405e+00 -3.33322e+00 
 1.33293e+01 -6.02150e+00 -3.05837e+00 
 1.36596e+01 -6.16890e+00 -2.77778e+00 
 1.39900e+01 -6.31644e+00 -2.49159e+00 
 1.43206e+01 -6.46407e+00 -2.19973e+00 
 1.46516e+01 -6.61197e+00 -1.90231e+00 
 1.49828e+01 -6.76010e+00 -1.59922e+00 
 1.53146e+01 -6.90865e+00 -1.29055e+00 
 1.56469e+01 -7.05759e+00 -9.76133e-01 
 1.59799e+01 -7.20710e+00 -6.56035e-01 
 1.63136e+01 -7.35716e+00 -3.30054e-01 
 1.66483e+01 -7.54614e+00 -1.75599e-01 
-1.64168e+01  7.44125e+00 -1.76687e-01 
-1.60863e+01  7.25462e+00 -3.32056e-01 
-1.57566e+01  7.10636e+00 -6.59885e-01 
-1.54276e+01  6.95858e+00 -9.81610e-01 
-1.50993e+01  6.81134e+00 -1.29743e+00 
-1.47714e+01  6.66445e+00 -1.60729e+00 
-1.44441e+01  6.51796e+00 -1.91134e+00 
-1.41170e+01  6.37169e+00 -2.20950e+00 
-1.37903e+01  6.22569e+00 -2.50190e+00 
-1.34637e+01  6.07978e+00 -2.78843e+00 
-1.31373e+01  5.93402e+00 -3.06918e+00 
-1.28109e+01  5.78824e+00 -3.34401e+00 
-1.24845e+01  5.64249e+00 -3.61301e+00 
-1.21580e+01  5.49662e+00 -3.87601e+00 
-1.18314e+01  5.35070e+00 -4.13307e+00 
-1.15045e+01  5.20456e+00 -4.38402e+00 
-1.11774e+01  5.05829e+00 -4.62890e+00 
-1.08500e+01  4.91174e+00 -4.86754e+00 
-1.05223e+01  4.76500e+00 -5.09995e+00 
-1.01942e+01  4.61792e+00 -5.32597e+00 
-9.86572e+00  4.47061e+00 -5.54560e+00 
-9.53678e+00  4.32293e+00 -5.75868e+00 
-9.20747e+00  4.17498e+00 -5.96520e+00 
-8.87764e+00  4.02665e+00 -6.16501e+00 
-8.54742e+00  3.87803e+00 -6.35811e+00 
-8.21666e+00  3.72902e+00 -6.54434e+00 
-7.88550e+00  3.57973e+00 -6.72370e+00 
-7.55381e+00  3.43004e+00 -6.89604e+00 
-7.22172e+00  3.28008e+00 -7.06137e+00 
-6.88911e+00  3.12975e+00 -7.21956e+00 
-6.55612e+00  2.97916e+00 -7.37060e+00 
-6.22263e+00  2.82821e+00 -7.51438e+00 
-5.88880e+00  2.67702e+00 -7.65090e+00 
-5.55449e+00  2.52551e+00 -7.78005e+00 
-5.21986e+00  2.37379e+00 -7.90185e+00 
-4.88481e+00  2.22176e+00 -8.01619e+00 
-4.54948e+00  2.06956e+00 -8.12309e+00 
-4.21376e+00  1.91709e+00 -8.22247e+00 
-3.87781e+00  1.76448e+00 -8.31433e+00 
-3.54151e+00  1.61163e+00 -8.39861e+00 
-3.20503e+00  1.45866e+00 -8.47532e+00 
-2.86825e+00  1.30549e+00 -8.54441e+00 
-2.53132e+00  1.15225e+00 -8.60588e+00 
-2.19415e+00  9.98824e-01 -8.65969e+00 
-1.85689e+00  8.45356e-01 -8.70584e+00 
-1.51943e+00  6.91747e-01 -8.74432e+00 
-1.18192e+00  5.38123e-01 -8.77511e+00 
-8.44266e-01  3.84390e-01 -8.79822e+00 
-5.06614e-01  2.30673e-01 -8.81362e+00 
-1.68859e-01  7.68778e-02 -8.82132e+00 
 1.68859e-01 -7.68778e-02 -8.82132e+00 
 5.06614e-01 -2.30673e-01 -8.81362e+00 
 8.44266e-01 -3.84390e-01 -8.79822e+00 
 1.18192e+00 -5.38123e-01 -8.77511e+00 
 1.51943e+00 -6.91747e-01 -8.74432e+00 
 1.85689e+00 -8.45356e-01 -8.70584e+00 
 2.19415e+00 -9.98824e-01 -8.65969e+00 
 2.53132e+00 -1.15225e+00 -8.60588e+00 
 2.86825e+00 -1.30549e+00 -8.54441e+00 
 3.20503e+00 -1.45866e+00 -8.47532e+00 
 3.54151e+00 -1.61163e+00 -8.39861e+00 
 3.87781e+00 -1.76448e+00 -8.31433e+00 
 4.21376e+00 -1.91709e+00 -8.22247e+00 
 4.54948e+00 -2.06956e+00 -8.12309e+00 
 4.88481e+00 -2.22176e+00 -8.01619e+00 
 5.21986e+00 -2.37379e+00 -7.90185e+00 
 5.55449e+00 -2.52551e+00 -7.78005e+00 
 5.88880e+00 -2.67702e+00 -7.65090e+00 
 6.22263e+00 -2.82821e+00 -7.51438e+00 
 6.55612e+00 -2.97916e+00 -7.37060e+00 
 6.88911e+00 -3.12975e+00 -7.21956e+00 
 7.22172e+00 -3.28008e+00 -7.06137e+00 
 7.55381e+00 -3.43004e+00 -6.89604e+00 
 7.88550e+00 -3.57973e+00 -6.72370e+00 
 8.21666e+00 -3.72902e+00 -6.54434e+00 
 8.54742e+00 -3.87803e+00 -6.35811e+00 
 8.87764e+00 -4.02665e+00 -6.16501e+00 
 9.20747e+00 -4.17498e+00 -5.96520e+00 
 9.53678e+00 -4.32293e+00 -5.75868e+00 
 9.86572e+00 -4.47061e+00 -5.54560e+00 
 1.01942e+01 -4.61792e+00 -5.32597e+00 
 1.05223e+01 -4.76500e+00 -5.09995e+00 
 1.08500e+01 -4.91174e+00 -4.86754e+00 
 1.11774e+01 -5.05829e+00 -4.62890e+00 
 1.15045e+01 -5.20456e+00 -4.38402e+00 
 1.18314e+01 -5.35070e+00 -4.13307e+00 
 1.21580e+01 -5.49662e+00 -3.87601e+00 
 1.24845e+01 -5.64249e+00 -3.61301e+00 
 1.28109e+01 -5.78824e+00 -3.34401e+00 
 1.31373e+01 -5.93402e+00 -3.06918e+00 
 1.34637e+01 -6.07978e+00 -2.78843e+00 
 1.37903e+01 -6.22569e+00 -2.50190e+00 
 1.41170e+01 -6.37169e+00 -2.20950e+00 
 1.44441e+01 -6.51796e+00 -1.91134e+00 
 1.47714e+01 -6.66445e+00 -1.60729e+00 
 1.50993e+01 -6.81134e+00 -1.29743e+00 
 1.54276e+01 -6.95858e+00 -9.81610e-01 
 1.57566e+01 -7.10636e+00 -6.59885e-01 
 1.60863e+01 -7.25462e+00 -3.32056e-01 
 1.64168e+01 -7.44125e+00 -1.76687e-01 
-1.61839e+01  7.33570e+00 -1.77657e-01 
-1.58577e+01  7.15150e+00 -3.33844e-01 
-1.55323e+01  7.00510e+00 -6.63333e-01 
-1.52074e+01  6.85914e+00 -9.86532e-01 
-1.48832e+01  6.71367e+00 -1.30363e+00 
-1.45594e+01  6.56851e+00 -1.61458e+00 
-1.42361e+01  6.42373e+00 -1.91954e+00 
-1.39130e+01  6.27915e+00 -2.21842e+00 
-1.35903e+01  6.13483e+00 -2.51136e+00 
-1.32677e+01  5.99061e+00 -2.79825e+00 
-1.29453e+01  5.84655e+00 -3.07919e+00 
-1.26229e+01  5.70248e+00 -3.35407e+00 
-1.23006e+01  5.55846e+00 -3.62295e+00 
-1.19782e+01  5.41435e+00 -3.88572e+00 
-1.16557e+01  5.27021e+00 -4.14241e+00 
-1.13330e+01  5.12590e+00 -4.39290e+00 
-1.10102e+01  4.98148e+00 -4.63721e+00 
-1.06871e+01  4.83683e+00 -4.87520e+00 
-1.03637e+01  4.69201e+00 -5.10689e+00 
-1.00400e+01  4.54691e+00 -5.33213e+00 
-9.71602e+00  4.40161e+00 -5.55093e+00 
-9.39162e+00  4.25598e+00 -5.76315e+00 
-9.06690e+00  4.11012e+00 -5.96879e+00 
-8.74172e+00  3.96391e+00 -6.16771e+00 
-8.41620e+00  3.81745e+00 -6.35990e+00 
-8.09020e+00  3.67064e+00 -6.54523e+00 
-7.76386e+00  3.52357e+00 -6.72370e+00 
-7.43703e+00  3.37614e+00 -6.89518e+00 
-7.10985e+00  3.22846e+00 -7.05966e+00 
-6.78219e+00  3.08043e+00 -7.21703e+00 
-6.45420e+00  2.93216e+00 -7.36728e+00 
-6.12574e+00  2.78356e+00 -7.51031e+00 
-5.79697e+00  2.63474e+00 -7.64612e+00 
-5.46777e+00  2.48560e+00 -7.77460e+00 
-5.13828e+00  2.33626e+00 -7.89577e+00 
-4.80838e+00  2.18664e+00 -8.00953e+00 
-4.47824e+00  2.03684e+00 -8.11588e+00 
-4.14772e+00  1.88679e+00 -8.21476e+00 
-3.81699e+00  1.73659e+00 -8.30617e+00 
-3.48593e+00  1.58616e+00 -8.39004e+00 
-3.15470e+00  1.43562e+00 -8.46637e+00 
-2.82319e+00  1.28487e+00 -8.53513e+00 
-2.49155e+00  1.13405e+00 -8.59631e+00 
-2.15966e+00  9.83056e-01 -8.64986e+00 
-1.82770e+00  8.32014e-01 -8.69581e+00 
-1.49553e+00  6.80832e-01 -8.73411e+00 
-1.16333e+00  5.29634e-01 -8.76476e+00 
-8.30985e-01  3.78327e-01 -8.78776e+00 
-4.98644e-01  2.27035e-01 -8.80310e+00 
-1.66202e-01  7.56654e-02 -8.81077e+00 
 1.66202e-01 -7.56654e-02 -8.81077e+00 
 4.98644e-01 -2.27035e-01 -8.80310e+00 
 8.30985e-01 -3.78327e-01 -8.78776e+00 
 1.16333e+00 -5.29634e-01 -8.76476e+00 
 1.49553e+00 -6.80832e-01 -8.73411e+00 
 1.82770e+00 -8.32014e-01 -8.69581e+00 
 2.15966e+00 -9.83056e-01 -8.64986e+00 
 2.49155e+00 -1.13405e+00 -8.59631e+00 
 2.82319e+00 -1.28487e+00 -8.53513e+00 
 3.15470e+00 -1.43562e+00 -8.46637e+00 
 3.48593e+00 -1.58616e+00 -8.39004e+00 
 3.81699e+00 -1.73659e+00 -8.30617e+00 
 4.14772e+00 -1.88679e+00 -8.21476e+00 
 4.47824e+00 -2.03684e+00 -8.11588e+00 
 4.80838e+00 -2.18664e+00 -8.00953e+00 
 5.13828e+00 -2.33626e+00 -7.89577e+00 
 5.46777e+00 -2.48560e+00 -7.77460e+00 
 5.79697e+00 -2.63474e+00 -7.64612e+00 
 6.12574e+00 -2.78356e+00 -7.51031e+00 
 6.45420e+00 -2.93216e+00 -7.36728e+00 
 6.78219e+00 -3.08043e+00 -7.21703e+00 
 7.10985e+00 -3.22846e+00 -7.05966e+00 
 7.43703e+00 -3.37614e+00 -6.89518e+00 
 7.76386e+00 -3.52357e+00 -6.72370e+00 
 8.09020e+00 -3.67064e+00 -6.54523e+00 
 8.41620e+00 -3.81745e+00 -6.35990e+00 
 8.74172e+00 -3.96391e+00 -6.16771e+00 
 9.06690e+00 -4.11012e+00 -5.96879e+00 
 9.39162e+00 -4.25598e+00 -5.76315e+00 
 9.71602e+00 -4.40161e+00 -5.55093e+00 
 1.00400e+01 -4.54691e+00 -5.33213e+00 
 1.03637e+01 -4.69201e+00 -5.10689e+00 
 1.06871e+01 -4.83683e+00 -4.87520e+00 
 1.10102e+01 -4.98148e+00 -4.63721e+00 
 1.13330e+01 -5.12590e+00 -4.39290e+00 
 1.16557e+01 -5.27021e+00 -4.14241e+00 
 1.19782e+01 -5.41435e+00 -3.88572e+00 
 1.23006e+01 -5.55846e+00 -3.62295e+00 
 1.26229e+01 -5.70248e+00 -3.35407e+00 
 1.29453e+01 -5.84655e+00 -3.07919e+00 
 1.32677e+01 -5.99061e+00 -2.79825e+00 
 1.35903e+01 -6.13483e+00 -2.51136e+00 
 1.39130e+01 -6.27915e+00 -2.21842e+00 
 1.42361e+01 -6.42373e+00 -1.91954e+00 
 1.45594e+01 -6.56851e+00 -1.61458e+00 
 1.48832e+01 -6.71367e+00 -1.30363e+00 
 1.52074e+01 -6.85914e+00 -9.86532e-01 
 1.55323e+01 -7.00510e+00 -6.63333e-01 
 1.58577e+01 -7.15150e+00 -3.33844e-01 
 1.61839e+01 -7.33570e+00 -1.77657e-01 
-1.59497e+01  7.22958e+00 -1.78520e-01 
-1.56279e+01  7.04787e+00 -3.35436e-01 
-1.53069e+01  6.90339e+00 -6.66409e-01 
-1.49863e+01  6.75931e+00 -9.90935e-01 
-1.46663e+01  6.61566e+00 -1.30920e+00 
-1.43467e+01  6.47230e+00 -1.62116e+00 
-1.40275e+01  6.32928e+00 -1.92695e+00 
-1.37086e+01  6.18646e+00 -2.22651e+00 
-1.33900e+01  6.04389e+00 -2.51997e+00 
-1.30715e+01  5.90141e+00 -2.80722e+00 
-1.27532e+01  5.75908e+00 -3.08839e+00 
-1.24350e+01  5.61677e+00 -3.36334e+00 
-1.21168e+01  5.47452e+00 -3.63218e+00 
-1.17986e+01  5.33220e+00 -3.89477e+00 
-1.14803e+01  5.18987e+00 -4.15118e+00 
-1.11619e+01  5.04739e+00 -4.40127e+00 
-1.08434e+01  4.90484e+00 -4.64511e+00 
-1.05246e+01  4.76209e+00 -4.88254e+00 
-1.02056e+01  4.61921e+00 -5.11360e+00 
-9.88634e+00  4.47608e+00 -5.33815e+00 
-9.56685e+00  4.33277e+00 -5.55622e+00 
-9.24698e+00  4.18918e+00 -5.76767e+00 
-8.92686e+00  4.04540e+00 -5.97250e+00 
-8.60632e+00  3.90129e+00 -6.17060e+00 
-8.28550e+00  3.75698e+00 -6.36195e+00 
-7.96425e+00  3.61233e+00 -6.54644e+00 
-7.64270e+00  3.46747e+00 -6.72408e+00 
-7.32071e+00  3.32227e+00 -6.89473e+00 
-6.99842e+00  3.17684e+00 -7.05840e+00 
-6.67569e+00  3.03109e+00 -7.21498e+00 
-6.35267e+00  2.88513e+00 -7.36446e+00 
-6.02922e+00  2.73885e+00 -7.50676e+00 
-5.70549e+00  2.59237e+00 -7.64186e+00 
-5.38136e+00  2.44559e+00 -7.76967e+00 
-5.05697e+00  2.29863e+00 -7.89021e+00 
-4.73221e+00  2.15139e+00 -8.00337e+00 
-4.40722e+00  2.00399e+00 -8.10917e+00 
-4.08188e+00  1.85634e+00 -8.20753e+00 
-3.75635e+00  1.70855e+00 -8.29846e+00 
-3.43051e+00  1.56054e+00 -8.38190e+00 
-3.10452e+00  1.41243e+00 -8.45785e+00 
-2.77825e+00  1.26412e+00 -8.52625e+00 
-2.45186e+00  1.11573e+00 -8.58712e+00 
-2.12525e+00  9.67173e-01 -8.64041e+00 
-1.79856e+00  8.18571e-01 -8.68612e+00 
-1.47169e+00  6.69832e-01 -8.72423e+00 
-1.14478e+00  5.21076e-01 -8.75473e+00 
-8.17730e-01  3.72214e-01 -8.77761e+00 
-4.90689e-01  2.23366e-01 -8.79287e+00 
-1.63551e-01  7.44429e-02 -8.80050e+00 
 1.63551e-01 -7.44429e-02 -8.80050e+00 
 4.90689e-01 -2.23366e-01 -8.79287e+00 
 8.17730e-01 -3.72214e-01 -8.77761e+00 
 1.14478e+00 -5.21076e-01 -8.75473e+00 
 1.47169e+00 -6.69832e-01 -8.72423e+00 
 1.79856e+00 -8.18571e-01 -8.68612e+00 
 2.12525e+00 -9.67173e-01 -8.64041e+00 
 2.45186e+00 -1.11573e+00 -8.58712e+00 
 2.77825e+00 -1.26412e+00 -8.52625e+00 
 3.10452e+00 -1.41243e+00 -8.45785e+00 
 3.43051e+00 -1.56054e+00 -8.38190e+00 
 3.75635e+00 -1.70855e+00 -8.29846e+00 
 4.08188e+00 -1.85634e+00 -8.20753e+00 
 4.40722e+00 -2.00399e+00 -8.10917e+00 
 4.73221e+00 -2.15139e+00 -8.00337e+00 
 5.05697e+00 -2.29863e+00 -7.89021e+00 
 5.38136e+00 -2.44559e+00 -7.76967e+00 
 5.70549e+00 -2.59237e+00 -7.64186e+00 
 6.02922e+00 -2.73885e+00 -7.50676e+00 
 6.35267e+00 -2.88513e+00 -7.36446e+00 
 6.67569e+00 -3.03109e+00 -7.21498e+00 
 6.99842e+00 -3.17684e+00 -7.05840e+00 
 7.32071e+00 -3.32227e+00 -6.89473e+00 
 7.64270e+00 -3.46747e+00 -6.72408e+00 
 7.96425e+00 -3.61233e+00 -6.54644e+00 
 8.28550e+00 -3.75698e+00 -6.36195e+00 
 8.60632e+00 -3.90129e+00 -6.17060e+00 
 8.92686e+00 -4.04540e+00 -5.97250e+00 
 9.24698e+00 -4.18918e+00 -5.76767e+00 
 9.56685e+00 -4.33277e+00 -5.55622e+00 
 9.88634e+00 -4.47608e+00 -5.33815e+00 
 1.02056e+01 -4.61921e+00 -5.11360e+00 
 1.05246e+01 -4.76209e+00 -4.88254e+00 
 1.08434e+01 -4.90484e+00 -4.64511e+00 
 1.11619e+01 -5.04739e+00 -4.40127e+00 
 1.14803e+01 -5.18987e+00 -4.15118e+00 
 1.17986e+01 -5.33220e+00 -3.89477e+00 
 1.21168e+01 -5.47452e+00 -3.63218e+00 
 1.24350e+01 -5.61677e+00 -3.36334e+00 
 1.27532e+01 -5.75908e+00 -3.08839e+00 
 1.30715e+01 -5.90141e+00 -2.80722e+00 
 1.33900e+01 -6.04389e+00 -2.51997e+00 
 1.37086e+01 -6.18646e+00 -2.22651e+00 
 1.40275e+01 -6.32928e+00 -1.92695e+00 
 1.43467e+01 -6.47230e+00 -1.62116e+00 
 1.46663e+01 -6.61566e+00 -1.30920e+00 
 1.49863e+01 -6.75931e+00 -9.90935e-01 
 1.53069e+01 -6.90339e+00 -6.66409e-01 
 1.56279e+01 -7.04787e+00 -3.35436e-01 
 1.59497e+01 -7.22958e+00 -1.78520e-01 
-1.57144e+01  7.12295e+00 -1.79284e-01 
-1.53972e+01  6.94378e+00 -3.36847e-01 
-1.50806e+01  6.80128e+00 -6.69140e-01 
-1.47644e+01  6.65911e+00 -9.94856e-01 
-1.44487e+01  6.51735e+00 -1.31418e+00 
-1.41334e+01  6.37584e+00 -1.62705e+00 
-1.38185e+01  6.23465e+00 -1.93361e+00 
-1.35038e+01  6.09363e+00 -2.23381e+00 
-1.31894e+01  5.95285e+00 -2.52776e+00 
-1.28751e+01  5.81216e+00 -2.81538e+00 
-1.25611e+01  5.67163e+00 -3.09677e+00 
-1.22471e+01  5.53111e+00 -3.37183e+00 
-1.19331e+01  5.39066e+00 -3.64066e+00 
-1.16191e+01  5.25016e+00 -3.90312e+00 
-1.13052e+01  5.10967e+00 -4.15931e+00 
-1.09910e+01  4.96906e+00 -4.40909e+00 
-1.06769e+01  4.82839e+00 -4.65252e+00 
-1.03625e+01  4.68755e+00 -4.88947e+00 
-1.00479e+01  4.54661e+00 -5.11998e+00 
-9.73314e+00  4.40545e+00 -5.34393e+00 
-9.41816e+00  4.26415e+00 -5.56135e+00 
-9.10286e+00  4.12259e+00 -5.77210e+00 
-8.78733e+00  3.98087e+00 -5.97621e+00 
-8.47145e+00  3.83886e+00 -6.17355e+00 
-8.15532e+00  3.69667e+00 -6.36414e+00 
-7.83882e+00  3.55418e+00 -6.54786e+00 
-7.52205e+00  3.41149e+00 -6.72471e+00 
-7.20489e+00  3.26851e+00 -6.89459e+00 
-6.88746e+00  3.12532e+00 -7.05750e+00 
-6.56965e+00  2.98183e+00 -7.21333e+00 
-6.25157e+00  2.83815e+00 -7.36208e+00 
-5.93310e+00  2.69417e+00 -7.50367e+00 
-5.61439e+00  2.55002e+00 -7.63809e+00 
-5.29531e+00  2.40558e+00 -7.76525e+00 
-4.97600e+00  2.26097e+00 -7.88516e+00 
-4.65634e+00  2.11611e+00 -7.99773e+00 
-4.33648e+00  1.97110e+00 -8.10298e+00 
-4.01630e+00  1.82584e+00 -8.20083e+00 
-3.69594e+00  1.68047e+00 -8.29128e+00 
-3.37529e+00  1.53487e+00 -8.37428e+00 
-3.05450e+00  1.38918e+00 -8.44983e+00 
-2.73346e+00  1.24330e+00 -8.51787e+00 
-2.41232e+00  1.09735e+00 -8.57842e+00 
-2.09096e+00  9.51237e-01 -8.63143e+00 
-1.76953e+00  8.05080e-01 -8.67690e+00 
-1.44792e+00  6.58790e-01 -8.71481e+00 
-1.12629e+00  5.12485e-01 -8.74516e+00 
-8.04517e-01  3.66077e-01 -8.76792e+00 
-4.82760e-01  2.19683e-01 -8.78310e+00 
-1.60907e-01  7.32152e-02 -8.79069e+00 
 1.60907e-01 -7.32152e-02 -8.79069e+00 
 4.82760e-01 -2.19683e-01 -8.78310e+00 
 8.04517e-01 -3.66077e-01 -8.76792e+00 
 1.12629e+00 -5.12485e-01 -8.74516e+00 
 1.44792e+00 -6.58790e-01 -8.71481e+00 
 1.76953e+00 -8.05080e-01 -8.67690e+00 
 2.09096e+00 -9.51237e-01 -8.63143e+00 
 2.41232e+00 -1.09735e+00 -8.57842e+00 
 2.73346e+00 -1.24330e+00 -8.51787e+00 
 3.05450e+00 -1.38918e+00 -8.44983e+00 
 3.37529e+00 -1.53487e+00 -8.37428e+00 
 3.69594e+00 -1.68047e+00 -8.29128e+00 
 4.01630e+00 -1.82584e+00 -8.20083e+00 
 4.33648e+00 -1.97110e+00 -8.10298e+00 
 4.65634e+00 -2.11611e+00 -7.99773e+00 
 4.97600e+00 -2.26097e+00 -7.88516e+00 
 5.29531e+00 -2.40558e+00 -7.76525e+00 
 5.61439e+00 -2.55002e+00 -7.63809e+00 
 5.93310e+00 -2.69417e+00 -7.50367e+00 
 6.25157e+00 -2.83815e+00 -7.36208e+00 
 6.56965e+00 -2.98183e+00 -7.21333e+00 
 6.88746e+00 -3.12532e+00 -7.05750e+00 
 7.20489e+00 -3.26851e+00 -6.89459e+00 
 7.52205e+00 -3.41149e+00 -6.72471e+00 
 7.83882e+00 -3.55418e+00 -6.54786e+00 
 8.15532e+00 -3.69667e+00 -6.36414e+00 
 8.47145e+00 -3.83886e+00 -6.17355e+00 
 8.78733e+00 -3.98087e+00 -5.97621e+00 
 9.10286e+00 -4.12259e+00 -5.77210e+00 
 9.41816e+00 -4.26415e+00 -5.56135e+00 
 9.73314e+00 -4.40545e+00 -5.34393e+00 
 1.00479e+01 -4.54661e+00 -5.11998e+00 
 1.03625e+01 -4.68755e+00 -4.88947e+00 
 1.06769e+01 -4.82839e+00 -4.65252e+00 
 1.09910e+01 -4.96906e+00 -4.40909e+00 
 1.13052e+01 -5.10967e+00 -4.15931e+00 
 1.16191e+01 -5.25016e+00 -3.90312e+00 
 1.19331e+01 -5.39066e+00 -3.64066e+00 
 1.22471e+01 -5.53111e+00 -3.37183e+00 
 1.25611e+01 -5.67163e+00 -3.09677e+00 
 1.28751e+01 -5.81216e+00 -2.81538e+00 
 1.31894e+01 -5.95285e+00 -2.52776e+00 
 1.35038e+01 -6.09363e+00 -2.23381e+00 
 1.38185e+01 -6.23465e+00 -1.93361e+00 
 1.41334e+01 -6.37584e+00 -1.62705e+00 
 1.44487e+01 -6.51735e+00 -1.31418e+00 
 1.47644e+01 -6.65911e+00 -9.94856e-01 
 1.50806e+01 -6.80128e+00 -6.69140e-01 
 1.53972e+01 -6.94378e+00 -3.36847e-01 
 1.57144e+01 -7.12295e+00 -1.79284e-01 
-1.54782e+01  7.01587e+00 -1.79958e-01 
-1.51655e+01  6.83929e+00 -3.38093e-01 
-1.48534e+01  6.69880e+00 -6.71558e-01 
-1.45417e+01  6.55860e+00 -9.98334e-01 
-1.42305e+01  6.41877e+00 -1.31860e+00 
-1.39195e+01  6.27916e+00 -1.63230e+00 
-1.36090e+01  6.13984e+00 -1.93957e+00 
-1.32986e+01  6.00068e+00 -2.24035e+00 
-1.29885e+01  5.86174e+00 -2.53477e+00 
-1.26786e+01  5.72289e+00 -2.82274e+00 
-1.23688e+01  5.58419e+00 -3.10436e+00 
-1.20591e+01  5.44550e+00 -3.37955e+00 
-1.17495e+01  5.30690e+00 -3.64839e+00 
-1.14399e+01  5.16825e+00 -3.91078e+00 
-1.11302e+01  5.02963e+00 -4.16679e+00 
-1.08205e+01  4.89090e+00 -4.41631e+00 
-1.05107e+01  4.75214e+00 -4.65940e+00 
-1.02007e+01  4.61323e+00 -4.89594e+00 
-9.89067e+00  4.47424e+00 -5.12598e+00 
-9.58037e+00  4.33505e+00 -5.34940e+00 
-9.26993e+00  4.19576e+00 -5.56624e+00 
-8.95920e+00  4.05623e+00 -5.77637e+00 
-8.64830e+00  3.91657e+00 -5.97983e+00 
-8.33707e+00  3.77665e+00 -6.17649e+00 
-8.02565e+00  3.63657e+00 -6.36638e+00 
-7.71388e+00  3.49623e+00 -6.54939e+00 
-7.40189e+00  3.35571e+00 -6.72553e+00 
-7.08955e+00  3.21492e+00 -6.89469e+00 
-6.77698e+00  3.07395e+00 -7.05688e+00 
-6.46406e+00  2.93271e+00 -7.21201e+00 
-6.15091e+00  2.79130e+00 -7.36007e+00 
-5.83741e+00  2.64961e+00 -7.50099e+00 
-5.52369e+00  2.50776e+00 -7.63476e+00 
-5.20964e+00  2.36565e+00 -7.76129e+00 
-4.89538e+00  2.22339e+00 -7.88060e+00 
-4.58080e+00  2.08088e+00 -7.99261e+00 
-4.26604e+00  1.93824e+00 -8.09732e+00 
-3.95099e+00  1.79538e+00 -8.19467e+00 
-3.63578e+00  1.65240e+00 -8.28465e+00 
-3.32031e+00  1.50921e+00 -8.36722e+00 
-3.00470e+00  1.36594e+00 -8.44237e+00 
-2.68887e+00  1.22249e+00 -8.51006e+00 
-2.37293e+00  1.07897e+00 -8.57029e+00 
-2.05680e+00  9.35294e-01 -8.62302e+00 
-1.74061e+00  7.91581e-01 -8.66825e+00 
-1.42425e+00  6.47740e-01 -8.70596e+00 
-1.10787e+00  5.03887e-01 -8.73615e+00 
-7.91357e-01  3.59934e-01 -8.75879e+00 
-4.74862e-01  2.15996e-01 -8.77389e+00 
-1.58275e-01  7.19865e-02 -8.78144e+00 
 1.58275e-01 -7.19865e-02 -8.78144e+00 
 4.74862e-01 -2.15996e-01 -8.77389e+00 
 7.91357e-01 -3.59934e-01 -8.75879e+00 
 1.10787e+00 -5.03887e-01 -8.73615e+00 
 1.42425e+00 -6.47740e-01 -8.70596e+00 
 1.74061e+00 -7.91581e-01 -8.66825e+00 
 2.05680e+00 -9.35294e-01 -8.62302e+00 
 2.37293e+00 -1.07897e+00 -8.57029e+00 
 2.68887e+00 -1.22249e+00 -8.51006e+00 
 3.00470e+00 -1.36594e+00 -8.44237e+00 
 3.32031e+00 -1.50921e+00 -8.36722e+00 
 3.63578e+00 -1.65240e+00 -8.28465e+00 
 3.95099e+00 -1.79538e+00 -8.19467e+00 
 4.26604e+00 -1.93824e+00 -8.09732e+00 
 4.58080e+00 -2.08088e+00 -7.99261e+00 
 4.89538e+00 -2.22339e+00 -7.88060e+00 
 5.20964e+00 -2.36565e+00 -7.76129e+00 
 5.52369e+00 -2.50776e+00 -7.63476e+00 
 5.83741e+00 -2.64961e+00 -7.50099e+00 
 6.15091e+00 -2.79130e+00 -7.36007e+00 
 6.46406e+00 -2.93271e+00 -7.21201e+00 
 6.77698e+00 -3.07395e+00 -7.05688e+00 
 7.08955e+00 -3.21492e+00 -6.89469e+00 
 7.40189e+00 -3.35571e+00 -6.72553e+00 
 7.71388e+00 -3.49623e+00 -6.54939e+00 
 8.02565e+00 -3.63657e+00 -6.36638e+00 
 8.33707e+00 -3.77665e+00 -6.17649e+00 
 8.64830e+00 -3.91657e+00 -5.97983e+00 
 8.95920e+00 -4.05623e+00 -5.77637e+00 
 9.26993e+00 -4.19576e+00 -5.56624e+00 
 9.58037e+00 -4.33505e+00 -5.34940e+00 
 9.89067e+00 -4.47424e+00 -5.12598e+00 
 1.02007e+01 -4.61323e+00 -4.89594e+00 
 1.05107e+01 -4.75214e+00 -4.65940e+00 
 1.08205e+01 -4.89090e+00 -4.41631e+00 
 1.11302e+01 -5.02963e+00 -4.16679e+00 
 1.14399e+01 -5.16825e+00 -3.91078e+00 
 1.17495e+01 -5.30690e+00 -3.64839e+00 
 1.20591e+01 -5.44550e+00 -3.37955e+00 
 1.23688e+01 -5.58419e+00 -3.10436e+00 
 1.26786e+01 -5.72289e+00 -2.82274e+00 
 1.29885e+01 -5.86174e+00 -2.53477e+00 
 1.32986e+01 -6.00068e+00 -2.24035e+00 
 1.36090e+01 -6.13984e+00 -1.93957e+00 
 1.39195e+01 -6.27916e+00 -1.63230e+00 
 1.42305e+01 -6.41877e+00 -1.31860e+00 
 1.45417e+01 -6.55860e+00 -9.98334e-01 
 1.48534e+01 -6.69880e+00 -6.71558e-01 
 1.51655e+01 -6.83929e+00 -3.38093e-01 
 1.54782e+01 -7.01587e+00 -1.79958e-01 
-1.52410e+01  6.90839e+00 -1.80550e-01 
-1.49331e+01  6.73444e+00 -3.39191e-01 
-1.46256e+01  6.59600e+00 -6.73690e-01 
-1.43184e+01  6.45781e+00 -1.00141e+00 
-1.40117e+01  6.31994e+00 -1.32252e+00 
-1.37052e+01  6.18228e+00 -1.63696e+00 
-1.33991e+01  6.04488e+00 -1.94488e+00 
-1.30931e+01  5.90762e+00 -2.24619e+00 
-1.27875e+01  5.77057e+00 -2.54105e+00 
-1.24819e+01  5.63359e+00 -2.82934e+00 
-1.21765e+01  5.49676e+00 -3.11120e+00 
-1.18712e+01  5.35995e+00 -3.38652e+00 
-1.15659e+01  5.22322e+00 -3.65540e+00 
-1.12607e+01  5.08646e+00 -3.91774e+00 
-1.09555e+01  4.94973e+00 -4.17362e+00 
-1.06501e+01  4.81291e+00 -4.42292e+00 
-1.03448e+01  4.67608e+00 -4.66573e+00 
-1.00393e+01  4.53911e+00 -4.90192e+00 
-9.73376e+00  4.40209e+00 -5.13155e+00 
-9.42799e+00  4.26489e+00 -5.35451e+00 
-9.12212e+00  4.12760e+00 -5.57083e+00 
-8.81599e+00  3.99012e+00 -5.78042e+00 
-8.50972e+00  3.85251e+00 -5.98329e+00 
-8.20317e+00  3.71468e+00 -6.17935e+00 
-7.89645e+00  3.57671e+00 -6.36861e+00 
-7.58942e+00  3.43851e+00 -6.55097e+00 
-7.28221e+00  3.30015e+00 -6.72645e+00 
-6.97469e+00  3.16155e+00 -6.89495e+00 
-6.66697e+00  3.02279e+00 -7.05649e+00 
-6.35893e+00  2.88378e+00 -7.21096e+00 
-6.05069e+00  2.74462e+00 -7.35839e+00 
-5.74214e+00  2.60521e+00 -7.49867e+00 
-5.43340e+00  2.46565e+00 -7.63183e+00 
-5.12435e+00  2.32585e+00 -7.75777e+00 
-4.81512e+00  2.18592e+00 -7.87652e+00 
-4.50561e+00  2.04576e+00 -7.98799e+00 
-4.19593e+00  1.90548e+00 -8.09218e+00 
-3.88598e+00  1.76499e+00 -8.18905e+00 
-3.57590e+00  1.62440e+00 -8.27858e+00 
-3.26557e+00  1.48362e+00 -8.36073e+00 
-2.95513e+00  1.34275e+00 -8.43550e+00 
-2.64447e+00  1.20172e+00 -8.50284e+00 
-2.33373e+00  1.06062e+00 -8.56276e+00 
-2.02280e+00  9.19382e-01 -8.61522e+00 
-1.71182e+00  7.78107e-01 -8.66022e+00 
-1.40068e+00  6.36709e-01 -8.69773e+00 
-1.08953e+00  4.95303e-01 -8.72776e+00 
-7.78256e-01  3.53800e-01 -8.75028e+00 
-4.66999e-01  2.12315e-01 -8.76531e+00 
-1.55654e-01  7.07595e-02 -8.77282e+00 
 1.55654e-01 -7.07595e-02 -8.77282e+00 
 4.66999e-01 -2.12315e-01 -8.76531e+00 
 7.78256e-01 -3.53800e-01 -8.75028e+00 
 1.08953e+00 -4.95303e-01 -8.72776e+00 
 1.40068e+00 -6.36709e-01 -8.69773e+00 
 1.71182e+00 -7.78107e-01 -8.66022e+00 
 2.02280e+00 -9.19382e-01 -8.61522e+00 
 2.33373e+00 -1.06062e+00 -8.56276e+00 
 2.64447e+00 -1.20172e+00 -8.50284e+00 
 2.95513e+00 -1.34275e+00 -8.43550e+00 
 3.26557e+00 -1.48362e+00 -8.36073e+00 
 3.57590e+00 -1.62440e+00 -8.27858e+00 
 3.88598e+00 -1.76499e+00 -8.18905e+00 
 4.19593e+00 -1.90548e+00 -8.09218e+00 
 4.50561e+00 -2.04576e+00 -7.98799e+00 
 4.81512e+00 -2.18592e+00 -7.87652e+00 
 5.12435e+00 -2.32585e+00 -7.75777e+00 
 5.43340e+00 -2.46565e+00 -7.63183e+00 
 5.74214e+00 -2.60521e+00 -7.49867e+00 
 6.05069e+00 -2.74462e+00 -7.35839e+00 
 6.35893e+00 -2.88378e+00 -7.21096e+00 
 6.66697e+00 -3.02279e+00 -7.05649e+00 
 6.97469e+00 -3.16155e+00 -6.89495e+00 
 7.28221e+00 -3.30015e+00 -6.72645e+00 
 7.58942e+00 -3.43851e+00 -6.55097e+00 
 7.89645e+00 -3.57671e+00 -6.36861e+00 
 8.20317e+00 -3.71468e+00 -6.17935e+00 
 8.50972e+00 -3.85251e+00 -5.98329e+00 
 8.81599e+00 -3.99012e+00 -5.78042e+00 
 9.12212e+00 -4.12760e+00 -5.57083e+00 
 9.42799e+00 -4.26489e+00 -5.35451e+00 
 9.73376e+00 -4.40209e+00 -5.13155e+00 
 1.00393e+01 -4.53911e+00 -4.90192e+00 
 1.03448e+01 -4.67608e+00 -4.66573e+00 
 1.06501e+01 -4.81291e+00 -4.42292e+00 
 1.09555e+01 -4.94973e+00 -4.17362e+00 
 1.12607e+01 -5.08646e+00 -3.91774e+00 
 1.15659e+01 -5.22322e+00 -3.65540e+00 
 1.18712e+01 -5.35995e+00 -3.38652e+00 
 1.21765e+01 -5.49676e+00 -3.11120e+00 
 1.24819e+01 -5.63359e+00 -2.82934e+00 
 1.27875e+01 -5.77057e+00 -2.54105e+00 
 1.30931e+01 -5.90762e+00 -2.24619e+00 
 1.33991e+01 -6.04488e+00 -1.94488e+00 
 1.37052e+01 -6.18228e+00 -1.63696e+00 
 1.40117e+01 -6.31994e+00 -1.32252e+00 
 1.43184e+01 -6.45781e+00 -1.00141e+00 
 1.46256e+01 -6.59600e+00 -6.73690e-01 
 1.49331e+01 -6.73444e+00 -3.39191e-01 
 1.52410e+01 -6.90839e+00 -1.80550e-01 
-1.50032e+01  6.80058e+00 -1.81069e-01 
-1.46999e+01  6.62928e+00 -3.40153e-01 
-1.43971e+01  6.49291e+00 -6.75562e-01 
-1.40945e+01  6.35676e+00 -1.00411e+00 
-1.37924e+01  6.22090e+00 -1.32598e+00 
-1.34904e+01  6.08522e+00 -1.64108e+00 
-1.31888e+01  5.94977e+00 -1.94958e+00 
-1.28873e+01  5.81445e+00 -2.25138e+00 
-1.25861e+01  5.67933e+00 -2.54663e+00 
-1.22850e+01  5.54427e+00 -2.83524e+00 
-1.19841e+01  5.40935e+00 -3.11732e+00 
-1.16832e+01  5.27444e+00 -3.39277e+00 
-1.13824e+01  5.13963e+00 -3.66171e+00 
-1.10816e+01  5.00478e+00 -3.92402e+00 
-1.07808e+01  4.86997e+00 -4.17980e+00 
-1.04800e+01  4.73509e+00 -4.42893e+00 
-1.01792e+01  4.60020e+00 -4.67150e+00 
-9.87819e+00  4.46520e+00 -4.90739e+00 
-9.57717e+00  4.33016e+00 -5.13667e+00 
-9.27597e+00  4.19496e+00 -5.35922e+00 
-8.97469e+00  4.05970e+00 -5.57510e+00 
-8.67319e+00  3.92425e+00 -5.78420e+00 
-8.37157e+00  3.78871e+00 -5.98656e+00 
-8.06970e+00  3.65297e+00 -6.18207e+00 
-7.76770e+00  3.51711e+00 -6.37076e+00 
-7.46542e+00  3.38104e+00 -6.55254e+00 
-7.16299e+00  3.24484e+00 -6.72743e+00 
-6.86028e+00  3.10841e+00 -6.89533e+00 
-6.55740e+00  2.97185e+00 -7.05627e+00 
-6.25424e+00  2.83507e+00 -7.21014e+00 
-5.95091e+00  2.69815e+00 -7.35697e+00 
-5.64729e+00  2.56100e+00 -7.49668e+00 
-5.34351e+00  2.42372e+00 -7.62927e+00 
-5.03945e+00  2.28623e+00 -7.75466e+00 
-4.73524e+00  2.14861e+00 -7.87288e+00 
-4.43076e+00  2.01079e+00 -7.98383e+00 
-4.12614e+00  1.87286e+00 -8.08755e+00 
-3.82128e+00  1.73473e+00 -8.18396e+00 
-3.51630e+00  1.59651e+00 -8.27307e+00 
-3.21109e+00  1.45812e+00 -8.35482e+00 
-2.90579e+00  1.31965e+00 -8.42923e+00 
-2.60028e+00  1.18102e+00 -8.49624e+00 
-2.29471e+00  1.04234e+00 -8.55586e+00 
-1.98896e+00  9.03523e-01 -8.60805e+00 
-1.68317e+00  7.64677e-01 -8.65283e+00 
-1.37723e+00  6.25714e-01 -8.69015e+00 
-1.07128e+00  4.86747e-01 -8.72003e+00 
-7.65216e-01  3.47687e-01 -8.74244e+00 
-4.59173e-01  2.08645e-01 -8.75739e+00 
-1.53045e-01  6.95363e-02 -8.76486e+00 
 1.53045e-01 -6.95363e-02 -8.76486e+00 
 4.59173e-01 -2.08645e-01 -8.75739e+00 
 7.65216e-01 -3.47687e-01 -8.74244e+00 
 1.07128e+00 -4.86747e-01 -8.72003e+00 
 1.37723e+00 -6.25714e-01 -8.69015e+00 
 1.68317e+00 -7.64677e-01 -8.65283e+00 
 1.98896e+00 -9.03523e-01 -8.60805e+00 
 2.29471e+00 -1.04234e+00 -8.55586e+00 
 2.60028e+00 -1.18102e+00 -8.49624e+00 
 2.90579e+00 -1.31965e+00 -8.42923e+00 
 3.21109e+00 -1.45812e+00 -8.35482e+00 
 3.51630e+00 -1.59651e+00 -8.27307e+00 
 3.82128e+00 -1.73473e+00 -8.18396e+00 
 4.12614e+00 -1.87286e+00 -8.08755e+00 
 4.43076e+00 -2.01079e+00 -7.98383e+00 
 4.73524e+00 -2.14861e+00 -7.87288e+00 
 5.03945e+00 -2.28623e+00 -7.75466e+00 
 5.34351e+00 -2.42372e+00 -7.62927e+00 
 5.64729e+00 -2.56100e+00 -7.49668e+00 
 5.95091e+00 -2.69815e+00 -7.35697e+00 
 6.25424e+00 -2.83507e+00 -7.21014e+00 
 6.55740e+00 -2.97185e+00 -7.05627e+00 
 6.86028e+00 -3.10841e+00 -6.89533e+00 
 7.16299e+00 -3.24484e+00 -6.72743e+00 
 7.46542e+00 -3.38104e+00 -6.55254e+00 
 7.76770e+00 -3.51711e+00 -6.37076e+00 
 8.06970e+00 -3.65297e+00 -6.18207e+00 
 8.37157e+00 -3.78871e+00 -5.98656e+00 
 8.67319e+00 -3.92425e+00 -5.78420e+00 
 8.97469e+00 -4.05970e+00 -5.57510e+00 
 9.27597e+00 -4.19496e+00 -5.35922e+00 
 9.57717e+00 -4.33016e+00 -5.13667e+00 
 9.87819e+00 -4.46520e+00 -4.90739e+00 
 1.01792e+01 -4.60020e+00 -4.67150e+00 
 1.04800e+01 -4.73509e+00 -4.42893e+00 
 1.07808e+01 -4.86997e+00 -4.17980e+00 
 1.10816e+01 -5.00478e+00 -3.92402e+00 
 1.13824e+01 -5.13963e+00 -3.66171e+00 
 1.16832e+01 -5.27444e+00 -3.39277e+00 
 1.19841e+01 -5.40935e+00 -3.11732e+00 
 1.22850e+01 -5.54427e+00 -2.83524e+00 
 1.25861e+01 -5.67933e+00 -2.54663e+00 
 1.28873e+01 -5.81445e+00 -2.25138e+00 
 1.31888e+01 -5.94977e+00 -1.94958e+00 
 1.34904e+01 -6.08522e+00 -1.64108e+00 
 1.37924e+01 -6.22090e+00 -1.32598e+00 
 1.40945e+01 -6.35676e+00 -1.00411e+00 
 1.43971e+01 -6.49291e+00 -6.75562e-01 
 1.46999e+01 -6.62928e+00 -3.40153e-01 
 1.50032e+01 -6.80058e+00 -1.81069e-01 
-1.47646e+01  6.69246e+00 -1.81523e-01 
-1.44661e+01  6.52385e+00 -3.40994e-01 
-1.41680e+01  6.38957e+00 -6.77202e-01 
-1.38701e+01  6.25549e+00 -1.00649e+00 
-1.35726e+01  6.12167e+00 -1.32902e+00 
-1.32753e+01  5.98800e+00 -1.64471e+00 
-1.29782e+01  5.85455e+00 -1.95373e+00 
-1.26813e+01  5.72120e+00 -2.25597e+00 
-1.23846e+01  5.58803e+00 -2.55159e+00 
-1.20880e+01  5.45492e+00 -2.84048e+00 
-1.17916e+01  5.32194e+00 -3.12277e+00 
-1.14952e+01  5.18898e+00 -3.39836e+00 
-1.11989e+01  5.05611e+00 -3.66736e+00 
-1.09026e+01  4.92320e+00 -3.92966e+00 
-1.06064e+01  4.79035e+00 -4.18536e+00 
-1.03100e+01  4.65742e+00 -4.43436e+00 
-1.00137e+01  4.52451e+00 -4.67673e+00 
-9.71732e+00  4.39149e+00 -4.91237e+00 
-9.42088e+00  4.25844e+00 -5.14134e+00 
-9.12428e+00  4.12526e+00 -5.36354e+00 
-8.82761e+00  3.99203e+00 -5.57903e+00 
-8.53076e+00  3.85863e+00 -5.78770e+00 
-8.23381e+00  3.72516e+00 -5.98960e+00 
-7.93664e+00  3.59151e+00 -6.18463e+00 
-7.63936e+00  3.45776e+00 -6.37282e+00 
-7.34184e+00  3.32382e+00 -6.55407e+00 
-7.04420e+00  3.18978e+00 -6.72843e+00 
-6.74630e+00  3.05552e+00 -6.89579e+00 
-6.44826e+00  2.92116e+00 -7.05617e+00 
-6.14996e+00  2.78659e+00 -7.20950e+00 
-5.85153e+00  2.65190e+00 -7.35579e+00 
-5.55283e+00  2.51701e+00 -7.49496e+00 
-5.25400e+00  2.38200e+00 -7.62703e+00 
-4.95492e+00  2.24680e+00 -7.75192e+00 
-4.65571e+00  2.11149e+00 -7.86964e+00 
-4.35625e+00  1.97598e+00 -7.98013e+00 
-4.05668e+00  1.84039e+00 -8.08340e+00 
-3.75688e+00  1.70461e+00 -8.17938e+00 
-3.45698e+00  1.56876e+00 -8.26809e+00 
-3.15687e+00  1.43273e+00 -8.34947e+00 
-2.85668e+00  1.29665e+00 -8.42354e+00 
-2.55630e+00  1.16042e+00 -8.49024e+00 
-2.25587e+00  1.02414e+00 -8.54958e+00 
-1.95528e+00  8.87736e-01 -8.60153e+00 
-1.65465e+00  7.51307e-01 -8.64609e+00 
-1.35389e+00  6.14768e-01 -8.68324e+00 
-1.05312e+00  4.78228e-01 -8.71297e+00 
-7.52239e-01  3.41600e-01 -8.73527e+00 
-4.51384e-01  2.04992e-01 -8.75015e+00 
-1.50449e-01  6.83185e-02 -8.75758e+00 
 1.50449e-01 -6.83185e-02 -8.75758e+00 
 4.51384e-01 -2.04992e-01 -8.75015e+00 
 7.52239e-01 -3.41600e-01 -8.73527e+00 
 1.05312e+00 -4.78228e-01 -8.71297e+00 
 1.35389e+00 -6.14768e-01 -8.68324e+00 
 1.65465e+00 -7.51307e-01 -8.64609e+00 
 1.95528e+00 -8.87736e-01 -8.60153e+00 
 2.25587e+00 -1.02414e+00 -8.54958e+00 
 2.55630e+00 -1.16042e+00 -8.49024e+00 
 2.85668e+00 -1.29665e+00 -8.42354e+00 
 3.15687e+00 -1.43273e+00 -8.34947e+00 
 3.45698e+00 -1.56876e+00 -8.26809e+00 
 3.75688e+00 -1.70461e+00 -8.17938e+00 
 4.05668e+00 -1.84039e+00 -8.08340e+00 
 4.35625e+00 -1.97598e+00 -7.98013e+00 
 4.65571e+00 -2.11149e+00 -7.86964e+00 
 4.95492e+00 -2.24680e+00 -7.75192e+00 
 5.25400e+00 -2.38200e+00 -7.62703e+00 
 5.55283e+00 -2.51701e+00 -7.49496e+00 
 5.85153e+00 -2.65190e+00 -7.35579e+00 
 6.14996e+00 -2.78659e+00 -7.20950e+00 
 6.44826e+00 -2.92116e+00 -7.05617e+00 
 6.74630e+00 -3.05552e+00 -6.89579e+00 
 7.04420e+00 -3.18978e+00 -6.72843e+00 
 7.34184e+00 -3.32382e+00 -6.55407e+00 
 7.63936e+00 -3.45776e+00 -6.37282e+00 
 7.93664e+00 -3.59151e+00 -6.18463e+00 
 8.23381e+00 -3.72516e+00 -5.98960e+00 
 8.53076e+00 -3.85863e+00 -5.78770e+00 
 8.82761e+00 -3.99203e+00 -5.57903e+00 
 9.12428e+00 -4.12526e+00 -5.36354e+00 
 9.42088e+00 -4.25844e+00 -5.14134e+00 
 9.71732e+00 -4.39149e+00 -4.91237e+00 
 1.00137e+01 -4.52451e+00 -4.67673e+00 
 1.03100e+01 -4.65742e+00 -4.43436e+00 
 1.06064e+01 -4.79035e+00 -4.18536e+00 
 1.09026e+01 -4.92320e+00 -3.92966e+00 
 1.11989e+01 -5.05611e+00 -3.66736e+00 
 1.14952e+01 -5.18898e+00 -3.39836e+00 
 1.17916e+01 -5.32194e+00 -3.12277e+00 
 1.20880e+01 -5.45492e+00 -2.84048e+00 
 1.23846e+01 -5.58803e+00 -2.55159e+00 
 1.26813e+01 -5.72120e+00 -2.25597e+00 
 1.29782e+01 -5.85455e+00 -1.95373e+00 
 1.32753e+01 -5.98800e+00 -1.64471e+00 
 1.35726e+01 -6.12167e+00 -1.32902e+00 
 1.38701e+01 -6.25549e+00 -1.00649e+00 
 1.41680e+01 -6.38957e+00 -6.77202e-01 
 1.44661e+01 -6.52385e+00 -3.40994e-01 
 1.47646e+01 -6.69246e+00 -1.81523e-01 
-1.45255e+01  6.58408e+00 -1.81917e-01 
-1.42318e+01  6.41817e+00 -3.41727e-01 
-1.39385e+01  6.28602e+00 -6.78631e-01 
-1.36453e+01  6.15402e+00 -1.00856e+00 
-1.33524e+01  6.02227e+00 -1.33168e+00 
-1.30597e+01  5.89064e+00 -1.64790e+00 
-1.27673e+01  5.75921e+00 -1.95737e+00 
-1.24750e+01  5.62787e+00 -2.26001e+00 
-1.21829e+01  5.49669e+00 -2.55596e+00 
-1.18908e+01  5.36556e+00 -2.84511e+00 
-1.15990e+01  5.23456e+00 -3.12760e+00 
-1.13071e+01  5.10357e+00 -3.40332e+00 
-1.10154e+01  4.97266e+00 -3.67238e+00 
-1.07237e+01  4.84173e+00 -3.93469e+00 
-1.04320e+01  4.71085e+00 -4.19033e+00 
-1.01402e+01  4.57991e+00 -4.43922e+00 
-9.84851e+00  4.44898e+00 -4.68142e+00 
-9.55668e+00  4.31796e+00 -4.91685e+00 
-9.26485e+00  4.18693e+00 -5.14556e+00 
-8.97287e+00  4.05578e+00 -5.36746e+00 
-8.68085e+00  3.92459e+00 -5.58261e+00 
-8.38866e+00  3.79325e+00 -5.79090e+00 
-8.09640e+00  3.66186e+00 -5.99240e+00 
-7.80395e+00  3.53030e+00 -6.18700e+00 
-7.51141e+00  3.39867e+00 -6.37474e+00 
-7.21865e+00  3.26686e+00 -6.55553e+00 
-6.92580e+00  3.13497e+00 -6.72941e+00 
-6.63271e+00  3.00289e+00 -6.89628e+00 
-6.33951e+00  2.87071e+00 -7.05617e+00 
-6.04608e+00  2.73835e+00 -7.20901e+00 
-5.75254e+00  2.60589e+00 -7.35481e+00 
-5.45876e+00  2.47324e+00 -7.49350e+00 
-5.16487e+00  2.34050e+00 -7.62509e+00 
-4.87075e+00  2.20757e+00 -7.74951e+00 
-4.57651e+00  2.07455e+00 -7.86679e+00 
-4.28206e+00  1.94136e+00 -7.97684e+00 
-3.98752e+00  1.80809e+00 -8.07970e+00 
-3.69276e+00  1.67465e+00 -8.17529e+00 
-3.39792e+00  1.54114e+00 -8.26363e+00 
-3.10289e+00  1.40748e+00 -8.34467e+00 
-2.80780e+00  1.27377e+00 -8.41842e+00 
-2.51253e+00  1.13992e+00 -8.48483e+00 
-2.21722e+00  1.00604e+00 -8.54391e+00 
-1.92175e+00  8.72030e-01 -8.59563e+00 
-1.62627e+00  7.38005e-01 -8.64000e+00 
-1.33065e+00  6.03878e-01 -8.67698e+00 
-1.03504e+00  4.69752e-01 -8.70658e+00 
-7.39324e-01  3.35544e-01 -8.72878e+00 
-4.43633e-01  2.01357e-01 -8.74359e+00 
-1.47865e-01  6.71069e-02 -8.75099e+00 
 1.47865e-01 -6.71069e-02 -8.75099e+00 
 4.43633e-01 -2.01357e-01 -8.74359e+00 
 7.39324e-01 -3.35544e-01 -8.72878e+00 
 1.03504e+00 -4.69752e-01 -8.70658e+00 
 1.33065e+00 -6.03878e-01 -8.67698e+00 
 1.62627e+00 -7.38005e-01 -8.64000e+00 
 1.92175e+00 -8.72030e-01 -8.59563e+00 
 2.21722e+00 -1.00604e+00 -8.54391e+00 
 2.51253e+00 -1.13992e+00 -8.48483e+00 
 2.80780e+00 -1.27377e+00 -8.41842e+00 
 3.10289e+00 -1.40748e+00 -8.34467e+00 
 3.39792e+00 -1.54114e+00 -8.26363e+00 
 3.69276e+00 -1.67465e+00 -8.17529e+00 
 3.98752e+00 -1.80809e+00 -8.07970e+00 
 4.28206e+00 -1.94136e+00 -7.97684e+00 
 4.57651e+00 -2.07455e+00 -7.86679e+00 
 4.87075e+00 -2.20757e+00 -7.74951e+00 
 5.16487e+00 -2.34050e+00 -7.62509e+00 
 5.45876e+00 -2.47324e+00 -7.49350e+00 
 5.75254e+00 -2.60589e+00 -7.35481e+00 
 6.04608e+00 -2.73835e+00 -7.20901e+00 
 6.33951e+00 -2.87071e+00 -7.05617e+00 
 6.63271e+00 -3.00289e+00 -6.89628e+00 
 6.92580e+00 -3.13497e+00 -6.72941e+00 
 7.21865e+00 -3.26686e+00 -6.55553e+00 
 7.51141e+00 -3.39867e+00 -6.37474e+00 
 7.80395e+00 -3.53030e+00 -6.18700e+00 
 8.09640e+00 -3.66186e+00 -5.99240e+00 
 8.38866e+00 -3.79325e+00 -5.79090e+00 
 8.68085e+00 -3.92459e+00 -5.58261e+00 
 8.97287e+00 -4.05578e+00 -5.36746e+00 
 9.26485e+00 -4.18693e+00 -5.14556e+00 
 9.55668e+00 -4.31796e+00 -4.91685e+00 
 9.84851e+00 -4.44898e+00 -4.68142e+00 
 1.01402e+01 -4.57991e+00 -4.43922e+00 
 1.04320e+01 -4.71085e+00 -4.19033e+00 
 1.07237e+01 -4.84173e+00 -3.93469e+00 
 1.10154e+01 -4.97266e+00 -3.67238e+00 
 1.13071e+01 -5.10357e+00 -3.40332e+00 
 1.15990e+01 -5.23456e+00 -3.12760e+00 
 1.18908e+01 -5.36556e+00 -2.84511e+00 
 1.21829e+01 -5.49669e+00 -2.55596e+00 
 1.24750e+01 -5.62787e+00 -2.26001e+00 
 1.27673e+01 -5.75921e+00 -1.95737e+00 
 1.30597e+01 -5.89064e+00 -1.64790e+00 
 1.33524e+01 -6.02227e+00 -1.33168e+00 
 1.36453e+01 -6.15402e+00 -1.00856e+00 
 1.39385e+01 -6.28602e+00 -6.78631e-01 
 1.42318e+01 -6.41817e+00 -3.41727e-01 
 1.45255e+01 -6.58408e+00 -1.81917e-01 
-1.42860e+01  6.47547e+00 -1.82259e-01 
-1.39971e+01  6.31228e+00 -3.42362e-01 
-1.37085e+01  6.18227e+00 -6.79872e-01 
-1.34200e+01  6.05239e+00 -1.01036e+00 
-1.31319e+01  5.92272e+00 -1.33399e+00 
-1.28439e+01  5.79315e+00 -1.65068e+00 
-1.25561e+01  5.66377e+00 -1.96056e+00 
-1.22685e+01  5.53446e+00 -2.26355e+00 
-1.19810e+01  5.40530e+00 -2.55979e+00 
-1.16936e+01  5.27618e+00 -2.84918e+00 
-1.14063e+01  5.14718e+00 -3.13185e+00 
-1.11191e+01  5.01819e+00 -3.40769e+00 
-1.08319e+01  4.88928e+00 -3.67682e+00 
-1.05448e+01  4.76034e+00 -3.93914e+00 
-1.02577e+01  4.63146e+00 -4.19475e+00 
-9.97054e+00  4.50252e+00 -4.44354e+00 
-9.68344e+00  4.37361e+00 -4.68561e+00 
-9.39624e+00  4.24461e+00 -4.92085e+00 
-9.10904e+00  4.11561e+00 -5.14934e+00 
-8.82172e+00  3.98650e+00 -5.37098e+00 
-8.53437e+00  3.85737e+00 -5.58584e+00 
-8.24687e+00  3.72810e+00 -5.79381e+00 
-7.95932e+00  3.59879e+00 -5.99495e+00 
-7.67160e+00  3.46934e+00 -6.18917e+00 
-7.38380e+00  3.33982e+00 -6.37651e+00 
-7.09582e+00  3.21015e+00 -6.55689e+00 
-6.80776e+00  3.08040e+00 -6.73034e+00 
-6.51949e+00  2.95049e+00 -6.89678e+00 
-6.23113e+00  2.82050e+00 -7.05624e+00 
-5.94257e+00  2.69034e+00 -7.20864e+00 
-5.65391e+00  2.56010e+00 -7.35400e+00 
-5.36504e+00  2.42969e+00 -7.49225e+00 
-5.07607e+00  2.29920e+00 -7.62341e+00 
-4.78690e+00  2.16855e+00 -7.74742e+00 
-4.49764e+00  2.03782e+00 -7.86428e+00 
-4.20819e+00  1.90692e+00 -7.97395e+00 
-3.91865e+00  1.77596e+00 -8.07642e+00 
-3.62892e+00  1.64485e+00 -8.17166e+00 
-3.33912e+00  1.51368e+00 -8.25966e+00 
-3.04916e+00  1.38237e+00 -8.34039e+00 
-2.75913e+00  1.25102e+00 -8.41385e+00 
-2.46895e+00  1.11954e+00 -8.47999e+00 
-2.17874e+00  9.88032e-01 -8.53884e+00 
-1.88838e+00  8.56410e-01 -8.59035e+00 
-1.59802e+00  7.24777e-01 -8.63453e+00 
-1.30753e+00  5.93048e-01 -8.67136e+00 
-1.01705e+00  4.61324e-01 -8.70083e+00 
-7.26468e-01  3.29521e-01 -8.72294e+00 
-4.35918e-01  1.97742e-01 -8.73769e+00 
-1.45294e-01  6.59020e-02 -8.74506e+00 
 1.45294e-01 -6.59020e-02 -8.74506e+00 
 4.35918e-01 -1.97742e-01 -8.73769e+00 
 7.26468e-01 -3.29521e-01 -8.72294e+00 
 1.01705e+00 -4.61324e-01 -8.70083e+00 
 1.30753e+00 -5.93048e-01 -8.67136e+00 
 1.59802e+00 -7.24777e-01 -8.63453e+00 
 1.88838e+00 -8.56410e-01 -8.59035e+00 
 2.17874e+00 -9.88032e-01 -8.53884e+00 
 2.46895e+00 -1.11954e+00 -8.47999e+00 
 2.75913e+00 -1.25102e+00 -8.41385e+00 
 3.04916e+00 -1.38237e+00 -8.34039e+00 
 3.33912e+00 -1.51368e+00 -8.25966e+00 
 3.62892e+00 -1.64485e+00 -8.17166e+00 
 3.91865e+00 -1.77596e+00 -8.07642e+00 
 4.20819e+00 -1.90692e+00 -7.97395e+00 
 4.49764e+00 -2.03782e+00 -7.86428e+00 
 4.78690e+00 -2.16855e+00 -7.74742e+00 
 5.07607e+00 -2.29920e+00 -7.62341e+00 
 5.36504e+00 -2.42969e+00 -7.49225e+00 
 5.65391e+00 -2.56010e+00 -7.35400e+00 
 5.94257e+00 -2.69034e+00 -7.20864e+00 
 6.23113e+00 -2.82050e+00 -7.05624e+00 
 6.51949e+00 -2.95049e+00 -6.89678e+00 
 6.80776e+00 -3.08040e+00 -6.73034e+00 
 7.09582e+00 -3.21015e+00 -6.55689e+00 
 7.38380e+00 -3.33982e+00 -6.37651e+00 
 7.67160e+00 -3.46934e+00 -6.18917e+00 
 7.95932e+00 -3.59879e+00 -5.99495e+00 
 8.24687e+00 -3.72810e+00 -5.79381e+00 
 8.53437e+00 -3.85737e+00 -5.58584e+00 
 8.82172e+00 -3.98650e+00 -5.37098e+00 
 9.10904e+00 -4.11561e+00 -5.14934e+00 
 9.39624e+00 -4.24461e+00 -4.92085e+00 
 9.68344e+00 -4.37361e+00 -4.68561e+00 
 9.97054e+00 -4.50252e+00 -4.44354e+00 
 1.02577e+01 -4.63146e+00 -4.19475e+00 
 1.05448e+01 -4.76034e+00 -3.93914e+00 
 1.08319e+01 -4.88928e+00 -3.67682e+00 
 1.11191e+01 -5.01819e+00 -3.40769e+00 
 1.14063e+01 -5.14718e+00 -3.13185e+00 
 1.16936e+01 -5.27618e+00 -2.84918e+00 
 1.19810e+01 -5.40530e+00 -2.55979e+00 
 1.22685e+01 -5.53446e+00 -2.26355e+00 
 1.25561e+01 -5.66377e+00 -1.96056e+00 
 1.28439e+01 -5.79315e+00 -1.65068e+00 
 1.31319e+01 -5.92272e+00 -1.33399e+00 
 1.34200e+01 -6.05239e+00 -1.01036e+00 
 1.37085e+01 -6.18227e+00 -6.79872e-01 
 1.39971e+01 -6.31228e+00 -3.42362e-01 
 1.42860e+01 -6.47547e+00 -1.82259e-01 
-1.40459e+01  6.36668e+00 -1.82554e-01 
-1.37619e+01  6.20622e+00 -3.42911e-01 
-1.34781e+01  6.07836e+00 -6.80945e-01 
-1.31945e+01  5.95060e+00 -1.01192e+00 
-1.29111e+01  5.82304e+00 -1.33600e+00 
-1.26278e+01  5.69556e+00 -1.65309e+00 
-1.23447e+01  5.56825e+00 -1.96333e+00 
-1.20617e+01  5.44100e+00 -2.26664e+00 
-1.17789e+01  5.31388e+00 -2.56314e+00 
-1.14962e+01  5.18679e+00 -2.85274e+00 
-1.12135e+01  5.05982e+00 -3.13557e+00 
-1.09309e+01  4.93285e+00 -3.41153e+00 
-1.06484e+01  4.80596e+00 -3.68072e+00 
-1.03659e+01  4.67904e+00 -3.94306e+00 
-1.00835e+01  4.55218e+00 -4.19864e+00 
-9.80098e+00  4.42527e+00 -4.44737e+00 
-9.51852e+00  4.29838e+00 -4.68932e+00 
-9.23597e+00  4.17142e+00 -4.92441e+00 
-8.95344e+00  4.04447e+00 -5.15271e+00 
-8.67080e+00  3.91741e+00 -5.37412e+00 
-8.38814e+00  3.79034e+00 -5.58872e+00 
-8.10535e+00  3.66316e+00 -5.79641e+00 
-7.82252e+00  3.53594e+00 -5.99724e+00 
-7.53954e+00  3.40859e+00 -6.19114e+00 
-7.25651e+00  3.28120e+00 -6.37813e+00 
-6.97331e+00  3.15366e+00 -6.55815e+00 
-6.69005e+00  3.02607e+00 -6.73123e+00 
-6.40660e+00  2.89833e+00 -6.89728e+00 
-6.12308e+00  2.77052e+00 -7.05635e+00 
-5.83938e+00  2.64257e+00 -7.20835e+00 
-5.55560e+00  2.51454e+00 -7.35332e+00 
-5.27164e+00  2.38636e+00 -7.49118e+00 
-4.98759e+00  2.25812e+00 -7.62196e+00 
-4.70337e+00  2.12973e+00 -7.74559e+00 
-4.41907e+00  2.00127e+00 -7.86209e+00 
-4.13459e+00  1.87267e+00 -7.97140e+00 
-3.85005e+00  1.74401e+00 -8.07354e+00 
-3.56533e+00  1.61521e+00 -8.16846e+00 
-3.28056e+00  1.48637e+00 -8.25616e+00 
-2.99564e+00  1.35740e+00 -8.33660e+00 
-2.71067e+00  1.22839e+00 -8.40980e+00 
-2.42556e+00  1.09927e+00 -8.47570e+00 
-2.14042e+00  9.70127e-01 -8.53433e+00 
-1.85516e+00  8.40878e-01 -8.58565e+00 
-1.56988e+00  7.11623e-01 -8.62967e+00 
-1.28450e+00  5.82278e-01 -8.66636e+00 
-9.99131e-01  4.52943e-01 -8.69572e+00 
-7.13668e-01  3.23532e-01 -8.71775e+00 
-4.28236e-01  1.94147e-01 -8.73243e+00 
-1.42733e-01  6.47039e-02 -8.73978e+00 
 1.42733e-01 -6.47039e-02 -8.73978e+00 
 4.28236e-01 -1.94147e-01 -8.73243e+00 
 7.13668e-01 -3.23532e-01 -8.71775e+00 
 9.99131e-01 -4.52943e-01 -8.69572e+00 
 1.28450e+00 -5.82278e-01 -8.66636e+00 
 1.56988e+00 -7.11623e-01 -8.62967e+00 
 1.85516e+00 -8.40878e-01 -8.58565e+00 
 2.14042e+00 -9.70127e-01 -8.53433e+00 
 2.42556e+00 -1.09927e+00 -8.47570e+00 
 2.71067e+00 -1.22839e+00 -8.40980e+00 
 2.99564e+00 -1.35740e+00 -8.33660e+00 
 3.28056e+00 -1.48637e+00 -8.25616e+00 
 3.56533e+00 -1.61521e+00 -8.16846e+00 
 3.85005e+00 -1.74401e+00 -8.07354e+00 
 4.13459e+00 -1.87267e+00 -7.97140e+00 
 4.41907e+00 -2.00127e+00 -7.86209e+00 
 4.70337e+00 -2.12973e+00 -7.74559e+00 
 4.98759e+00 -2.25812e+00 -7.62196e+00 
 5.27164e+00 -2.38636e+00 -7.49118e+00 
 5.55560e+00 -2.51454e+00 -7.35332e+00 
 5.83938e+00 -2.64257e+00 -7.20835e+00 
 6.12308e+00 -2.77052e+00 -7.05635e+00 
 6.40660e+00 -2.89833e+00 -6.89728e+00 
 6.69005e+00 -3.02607e+00 -6.73123e+00 
 6.97331e+00 -3.15366e+00 -6.55815e+00 
 7.25651e+00 -3.28120e+00 -6.37813e+00 
 7.53954e+00 -3.40859e+00 -6.19114e+00 
 7.82252e+00 -3.53594e+00 -5.99724e+00 
 8.10535e+00 -3.66316e+00 -5.79641e+00 
 8.38814e+00 -3.79034e+00 -5.58872e+00 
 8.67080e+00 -3.91741e+00 -5.37412e+00 
 8.95344e+00 -4.04447e+00 -5.15271e+00 
 9.23597e+00 -4.17142e+00 -4.92441e+00 
 9.51852e+00 -4.29838e+00 -4.68932e+00 
 9.80098e+00 -4.42527e+00 -4.44737e+00 
 1.00835e+01 -4.55218e+00 -4.19864e+00 
 1.03659e+01 -4.67904e+00 -3.94306e+00 
 1.06484e+01 -4.80596e+00 -3.68072e+00 
 1.09309e+01 -4.93285e+00 -3.41153e+00 
 1.12135e+01 -5.05982e+00 -3.13557e+00 
 1.14962e+01 -5.18679e+00 -2.85274e+00 
 1.17789e+01 -5.31388e+00 -2.56314e+00 
 1.20617e+01 -5.44100e+00 -2.26664e+00 
 1.23447e+01 -5.56825e+00 -1.96333e+00 
 1.26278e+01 -5.69556e+00 -1.65309e+00 
 1.29111e+01 -5.82304e+00 -1.33600e+00 
 1.31945e+01 -5.95060e+00 -1.01192e+00 
 1.34781e+01 -6.07836e+00 -6.80945e-01 
 1.37619e+01 -6.20622e+00 -3.42911e-01 
 1.40459e+01 -6.36668e+00 -1.82554e-01 
-1.38056e+01  6.25771e+00 -1.82807e-01 
-1.35264e+01  6.10000e+00 -3.43382e-01 
-1.32474e+01  5.97430e+00 -6.81867e-01 
-1.29686e+01  5.84869e+00 -1.01327e+00 
-1.26900e+01  5.72325e+00 -1.33773e+00 
-1.24114e+01  5.59788e+00 -1.65517e+00 
-1.21331e+01  5.47265e+00 -1.96573e+00 
-1.18548e+01  5.34748e+00 -2.26931e+00 
-1.15767e+01  5.22242e+00 -2.56604e+00 
-1.12987e+01  5.09740e+00 -2.85583e+00 
-1.10207e+01  4.97247e+00 -3.13881e+00 
-1.07428e+01  4.84754e+00 -3.41487e+00 
-1.04650e+01  4.72269e+00 -3.68413e+00 
-1.01871e+01  4.59781e+00 -3.94649e+00 
-9.90933e+00  4.47299e+00 -4.20205e+00 
-9.63151e+00  4.34812e+00 -4.45072e+00 
-9.35372e+00  4.22328e+00 -4.69257e+00 
-9.07586e+00  4.09837e+00 -4.92754e+00 
-8.79802e+00  3.97348e+00 -5.15567e+00 
-8.52008e+00  3.84849e+00 -5.37690e+00 
-8.24213e+00  3.72350e+00 -5.59128e+00 
-7.96407e+00  3.59841e+00 -5.79872e+00 
-7.68598e+00  3.47329e+00 -5.99929e+00 
-7.40776e+00  3.34806e+00 -6.19289e+00 
-7.12950e+00  3.22279e+00 -6.37959e+00 
-6.85109e+00  3.09739e+00 -6.55929e+00 
-6.57263e+00  2.97196e+00 -6.73204e+00 
-6.29401e+00  2.84638e+00 -6.89776e+00 
-6.01534e+00  2.72076e+00 -7.05648e+00 
-5.73649e+00  2.59500e+00 -7.20814e+00 
-5.45760e+00  2.46919e+00 -7.35276e+00 
-5.17853e+00  2.34324e+00 -7.49028e+00 
-4.89940e+00  2.21724e+00 -7.62072e+00 
-4.62011e+00  2.09110e+00 -7.74402e+00 
-4.34076e+00  1.96491e+00 -7.86019e+00 
-4.06125e+00  1.83859e+00 -7.96919e+00 
-3.78169e+00  1.71222e+00 -8.07103e+00 
-3.50198e+00  1.58573e+00 -8.16566e+00 
-3.22222e+00  1.45920e+00 -8.25309e+00 
-2.94232e+00  1.33256e+00 -8.33328e+00 
-2.66239e+00  1.20589e+00 -8.40624e+00 
-2.38233e+00  1.07911e+00 -8.47193e+00 
-2.10226e+00  9.52320e-01 -8.53037e+00 
-1.82206e+00  8.25431e-01 -8.58151e+00 
-1.54187e+00  6.98542e-01 -8.62538e+00 
-1.26157e+00  5.71569e-01 -8.66194e+00 
-9.81287e-01  4.44608e-01 -8.69121e+00 
-7.00920e-01  3.17577e-01 -8.71316e+00 
-4.20586e-01  1.90573e-01 -8.72779e+00 
-1.40183e-01  6.35124e-02 -8.73511e+00 
 1.40183e-01 -6.35124e-02 -8.73511e+00 
 4.20586e-01 -1.90573e-01 -8.72779e+00 
 7.00920e-01 -3.17577e-01 -8.71316e+00 
 9.81287e-01 -4.44608e-01 -8.69121e+00 
 1.26157e+00 -5.71569e-01 -8.66194e+00 
 1.54187e+00 -6.98542e-01 -8.62538e+00 
 1.82206e+00 -8.25431e-01 -8.58151e+00 
 2.10226e+00 -9.52320e-01 -8.53037e+00 
 2.38233e+00 -1.07911e+00 -8.47193e+00 
 2.66239e+00 -1.20589e+00 -8.40624e+00 
 2.94232e+00 -1.33256e+00 -8.33328e+00 
 3.22222e+00 -1.45920e+00 -8.25309e+00 
 3.50198e+00 -1.58573e+00 -8.16566e+00 
 3.78169e+00 -1.71222e+00 -8.07103e+00 
 4.06125e+00 -1.83859e+00 -7.96919e+00 
 4.34076e+00 -1.96491e+00 -7.86019e+00 
 4.62011e+00 -2.09110e+00 -7.74402e+00 
 4.89940e+00 -2.21724e+00 -7.62072e+00 
 5.17853e+00 -2.34324e+00 -7.49028e+00 
 5.45760e+00 -2.46919e+00 -7.35276e+00 
 5.73649e+00 -2.59500e+00 -7.20814e+00 
 6.01534e+00 -2.72076e+00 -7.05648e+00 
 6.29401e+00 -2.84638e+00 -6.89776e+00 
 6.57263e+00 -2.97196e+00 -6.73204e+00 
 6.85109e+00 -3.09739e+00 -6.55929e+00 
 7.12950e+00 -3.22279e+00 -6.37959e+00 
 7.40776e+00 -3.34806e+00 -6.19289e+00 
 7.68598e+00 -3.47329e+00 -5.99929e+00 
 7.96407e+00 -3.59841e+00 -5.79872e+00 
 8.24213e+00 -3.72350e+00 -5.59128e+00 
 8.52008e+00 -3.84849e+00 -5.37690e+00 
 8.79802e+00 -3.97348e+00 -5.15567e+00 
 9.07586e+00 -4.09837e+00 -4.92754e+00 
 9.35372e+00 -4.22328e+00 -4.69257e+00 
 9.63151e+00 -4.34812e+00 -4.45072e+00 
 9.90933e+00 -4.47299e+00 -4.20205e+00 
 1.01871e+01 -4.59781e+00 -3.94649e+00 
 1.04650e+01 -4.72269e+00 -3.68413e+00 
 1.07428e+01 -4.84754e+00 -3.41487e+00 
 1.10207e+01 -4.97247e+00 -3.13881e+00 
 1.12987e+01 -5.09740e+00 -2.85583e+00 
 1.15767e+01 -5.22242e+00 -2.56604e+00 
 1.18548e+01 -5.34748e+00 -2.26931e+00 
 1.21331e+01 -5.47265e+00 -1.96573e+00 
 1.24114e+01 -5.59788e+00 -1.65517e+00 
 1.26900e+01 -5.72325e+00 -1.33773e+00 
 1.29686e+01 -5.84869e+00 -1.01327e+00 
 1.32474e+01 -5.97430e+00 -6.81867e-01 
 1.35264e+01 -6.10000e+00 -3.43382e-01 
 1.38056e+01 -6.25771e+00 -1.82807e-01 
-1.35649e+01  6.14860e+00 -1.83024e-01 
-1.32905e+01  5.99364e+00 -3.43784e-01 
-1.30164e+01  5.87012e+00 -6.82655e-01 
-1.27424e+01  5.74667e+00 -1.01442e+00 
-1.24686e+01  5.62336e+00 -1.33921e+00 
-1.21949e+01  5.50011e+00 -1.65696e+00 
-1.19213e+01  5.37699e+00 -1.96778e+00 
-1.16478e+01  5.25391e+00 -2.27160e+00 
-1.13744e+01  5.13094e+00 -2.56853e+00 
-1.11011e+01  5.00799e+00 -2.85850e+00 
-1.08278e+01  4.88513e+00 -3.14160e+00 
-1.05546e+01  4.76226e+00 -3.41776e+00 
-1.02815e+01  4.63947e+00 -3.68707e+00 
-1.00083e+01  4.51665e+00 -3.94946e+00 
-9.73525e+00  4.39388e+00 -4.20500e+00 
-9.46212e+00  4.27107e+00 -4.45362e+00 
-9.18903e+00  4.14830e+00 -4.69541e+00 
-8.91588e+00  4.02546e+00 -4.93026e+00 
-8.64275e+00  3.90263e+00 -5.15826e+00 
-8.36953e+00  3.77973e+00 -5.37932e+00 
-8.09632e+00  3.65683e+00 -5.59352e+00 
-7.82299e+00  3.53383e+00 -5.80075e+00 
-7.54966e+00  3.41082e+00 -6.00109e+00 
-7.27621e+00  3.28771e+00 -6.19445e+00 
-7.00273e+00  3.16457e+00 -6.38088e+00 
-6.72912e+00  3.04132e+00 -6.56031e+00 
-6.45547e+00  2.91804e+00 -6.73277e+00 
-6.18168e+00  2.79464e+00 -6.89820e+00 
-5.90785e+00  2.67120e+00 -7.05663e+00 
-5.63387e+00  2.54763e+00 -7.20798e+00 
-5.35985e+00  2.42403e+00 -7.35230e+00 
-5.08568e+00  2.30030e+00 -7.48952e+00 
-4.81147e+00  2.17654e+00 -7.61966e+00 
-4.53710e+00  2.05264e+00 -7.74267e+00 
-4.26270e+00  1.92872e+00 -7.85856e+00 
-3.98814e+00  1.80467e+00 -7.96728e+00 
-3.71356e+00  1.68059e+00 -8.06886e+00 
-3.43883e+00  1.55639e+00 -8.16323e+00 
-3.16407e+00  1.43217e+00 -8.25042e+00 
-2.88919e+00  1.30785e+00 -8.33039e+00 
-2.61428e+00  1.18350e+00 -8.40314e+00 
-2.33926e+00  1.05906e+00 -8.46864e+00 
-2.06423e+00  9.34606e-01 -8.52691e+00 
-1.78908e+00  8.10065e-01 -8.57790e+00 
-1.51395e+00  6.85529e-01 -8.62164e+00 
-1.23872e+00  5.60915e-01 -8.65809e+00 
-9.63509e-01  4.36317e-01 -8.68727e+00 
-6.88219e-01  3.11653e-01 -8.70915e+00 
-4.12963e-01  1.87017e-01 -8.72374e+00 
-1.37642e-01  6.23273e-02 -8.73104e+00 
 1.37642e-01 -6.23273e-02 -8.73104e+00 
 4.12963e-01 -1.87017e-01 -8.72374e+00 
 6.88219e-01 -3.11653e-01 -8.70915e+00 
 9.63509e-01 -4.36317e-01 -8.68727e+00 
 1.23872e+00 -5.60915e-01 -8.65809e+00 
 1.51395e+00 -6.85529e-01 -8.62164e+00 
 1.78908e+00 -8.10065e-01 -8.57790e+00 
 2.06423e+00 -9.34606e-01 -8.52691e+00 
 2.33926e+00 -1.05906e+00 -8.46864e+00 
 2.61428e+00 -1.18350e+00 -8.40314e+00 
 2.88919e+00 -1.30785e+00 -8.33039e+00 
 3.16407e+00 -1.43217e+00 -8.25042e+00 
 3.43883e+00 -1.55639e+00 -8.16323e+00 
 3.71356e+00 -1.68059e+00 -8.06886e+00 
 3.98814e+00 -1.80467e+00 -7.96728e+00 
 4.26270e+00 -1.92872e+00 -7.85856e+00 
 4.53710e+00 -2.05264e+00 -7.74267e+00 
 4.81147e+00 -2.17654e+00 -7.61966e+00 
 5.08568e+00 -2.30030e+00 -7.48952e+00 
 5.35985e+00 -2.42403e+00 -7.35230e+00 
 5.63387e+00 -2.54763e+00 -7.20798e+00 
 5.90785e+00 -2.67120e+00 -7.05663e+00 
 6.18168e+00 -2.79464e+00 -6.89820e+00 
 6.45547e+00 -2.91804e+00 -6.73277e+00 
 6.72912e+00 -3.04132e+00 -6.56031e+00 
 7.00273e+00 -3.16457e+00 -6.38088e+00 
 7.27621e+00 -3.28771e+00 -6.19445e+00 
 7.54966e+00 -3.41082e+00 -6.00109e+00 
 7.82299e+00 -3.53383e+00 -5.80075e+00 
 8.09632e+00 -3.65683e+00 -5.59352e+00 
 8.36953e+00 -3.77973e+00 -5.37932e+00 
 8.64275e+00 -3.90263e+00 -5.15826e+00 
 8.91588e+00 -4.02546e+00 -4.93026e+00 
 9.18903e+00 -4.14830e+00 -4.69541e+00 
 9.46212e+00 -4.27107e+00 -4.45362e+00 
 9.73525e+00 -4.39388e+00 -4.20500e+00 
 1.00083e+01 -4.51665e+00 -3.94946e+00 
 1.02815e+01 -4.63947e+00 -3.68707e+00 
 1.05546e+01 -4.76226e+00 -3.41776e+00 
 1.08278e+01 -4.88513e+00 -3.14160e+00 
 1.11011e+01 -5.00799e+00 -2.85850e+00 
 1.13744e+01 -5.13094e+00 -2.56853e+00 
 1.16478e+01 -5.25391e+00 -2.27160e+00 
 1.19213e+01 -5.37699e+00 -1.96778e+00 
 1.21949e+01 -5.50011e+00 -1.65696e+00 
 1.24686e+01 -5.62336e+00 -1.33921e+00 
 1.27424e+01 -5.74667e+00 -1.01442e+00 
 1.30164e+01 -5.87012e+00 -6.82655e-01 
 1.32905e+01 -5.99364e+00 -3.43784e-01 
 1.35649e+01 -6.14860e+00 -1.83024e-01 
-1.33239e+01  6.03937e+00 -1.83206e-01 
-1.30545e+01  5.88718e+00 -3.44125e-01 
-1.27852e+01  5.76584e+00 -6.83323e-01 
-1.25161e+01  5.64455e+00 -1.01539e+00 
-1.22471e+01  5.52339e+00 -1.34047e+00 
-1.19782e+01  5.40228e+00 -1.65848e+00 
-1.17094e+01  5.28128e+00 -1.96953e+00 
-1.14406e+01  5.16030e+00 -2.27355e+00 
-1.11720e+01  5.03943e+00 -2.57066e+00 
-1.09034e+01  4.91857e+00 -2.86077e+00 
-1.06349e+01  4.79779e+00 -3.14398e+00 
-1.03664e+01  4.67701e+00 -3.42022e+00 
-1.00980e+01  4.55629e+00 -3.68959e+00 
-9.82958e+00  4.43554e+00 -3.95200e+00 
-9.56121e+00  4.31485e+00 -4.20754e+00 
-9.29280e+00  4.19412e+00 -4.45612e+00 
-9.02444e+00  4.07341e+00 -4.69784e+00 
-8.75601e+00  3.95265e+00 -4.93260e+00 
-8.48761e+00  3.83192e+00 -5.16049e+00 
-8.21913e+00  3.71110e+00 -5.38141e+00 
-7.95067e+00  3.59030e+00 -5.59545e+00 
-7.68210e+00  3.46941e+00 -5.80251e+00 
-7.41354e+00  3.34852e+00 -6.00265e+00 
-7.14486e+00  3.22753e+00 -6.19580e+00 
-6.87618e+00  3.10653e+00 -6.38201e+00 
-6.60737e+00  2.98542e+00 -6.56120e+00 
-6.33854e+00  2.86430e+00 -6.73342e+00 
-6.06958e+00  2.74307e+00 -6.89860e+00 
-5.80060e+00  2.62181e+00 -7.05677e+00 
-5.53149e+00  2.50044e+00 -7.20787e+00 
-5.26235e+00  2.37904e+00 -7.35193e+00 
-4.99307e+00  2.25754e+00 -7.48888e+00 
-4.72376e+00  2.13600e+00 -7.61877e+00 
-4.45432e+00  2.01435e+00 -7.74152e+00 
-4.18485e+00  1.89268e+00 -7.85717e+00 
-3.91524e+00  1.77090e+00 -7.96565e+00 
-3.64562e+00  1.64910e+00 -8.06699e+00 
-3.37587e+00  1.52719e+00 -8.16115e+00 
-3.10610e+00  1.40527e+00 -8.24813e+00 
-2.83622e+00  1.28325e+00 -8.32790e+00 
-2.56632e+00  1.16122e+00 -8.40048e+00 
-2.29632e+00  1.03910e+00 -8.46582e+00 
-2.02632e+00  9.16976e-01 -8.52393e+00 
-1.75621e+00  7.94773e-01 -8.57479e+00 
-1.48612e+00  6.72580e-01 -8.61842e+00 
-1.21594e+00  5.50314e-01 -8.65477e+00 
-9.45790e-01  4.28067e-01 -8.68387e+00 
-6.75560e-01  3.05758e-01 -8.70569e+00 
-4.05366e-01  1.83479e-01 -8.72025e+00 
-1.35110e-01  6.11480e-02 -8.72752e+00 
 1.35110e-01 -6.11480e-02 -8.72752e+00 
 4.05366e-01 -1.83479e-01 -8.72025e+00 
 6.75560e-01 -3.05758e-01 -8.70569e+00 
 9.45790e-01 -4.28067e-01 -8.68387e+00 
 1.21594e+00 -5.50314e-01 -8.65477e+00 
 1.48612e+00 -6.72580e-01 -8.61842e+00 
 1.75621e+00 -7.94773e-01 -8.57479e+00 
 2.02632e+00 -9.16976e-01 -8.52393e+00 
 2.29632e+00 -1.03910e+00 -8.46582e+00 
 2.56632e+00 -1.16122e+00 -8.40048e+00 
 2.83622e+00 -1.28325e+00 -8.32790e+00 
 3.10610e+00 -1.40527e+00 -8.24813e+00 
 3.37587e+00 -1.52719e+00 -8.16115e+00 
 3.64562e+00 -1.64910e+00 -8.06699e+00 
 3.91524e+00 -1.77090e+00 -7.96565e+00 
 4.18485e+00 -1.89268e+00 -7.85717e+00 
 4.45432e+00 -2.01435e+00 -7.74152e+00 
 4.72376e+00 -2.13600e+00 -7.61877e+00 
 4.99307e+00 -2.25754e+00 -7.48888e+00 
 5.26235e+00 -2.37904e+00 -7.35193e+00 
 5.53149e+00 -2.50044e+00 -7.20787e+00 
 5.80060e+00 -2.62181e+00 -7.05677e+00 
 6.06958e+00 -2.74307e+00 -6.89860e+00 
 6.33854e+00 -2.86430e+00 -6.73342e+00 
 6.60737e+00 -2.98542e+00 -6.56120e+00 
 6.87618e+00 -3.10653e+00 -6.38201e+00 
 7.14486e+00 -3.22753e+00 -6.19580e+00 
 7.41354e+00 -3.34852e+00 -6.00265e+00 
 7.68210e+00 -3.46941e+00 -5.80251e+00 
 7.95067e+00 -3.59030e+00 -5.59545e+00 
 8.21913e+00 -3.71110e+00 -5.38141e+00 
 8.48761e+00 -3.83192e+00 -5.16049e+00 
 8.75601e+00 -3.95265e+00 -4.93260e+00 
 9.02444e+00 -4.07341e+00 -4.69784e+00 
 9.29280e+00 -4.19412e+00 -4.45612e+00 
 9.56121e+00 -4.31485e+00 -4.20754e+00 
 9.82958e+00 -4.43554e+00 -3.95200e+00 
 1.00980e+01 -4.55629e+00 -3.68959e+00 
 1.03664e+01 -4.67701e+00 -3.42022e+00 
 1.06349e+01 -4.79779e+00 -3.14398e+00 
 1.09034e+01 -4.91857e+00 -2.86077e+00 
 1.11720e+01 -5.03943e+00 -2.57066e+00 
 1.14406e+01 -5.16030e+00 -2.27355e+00 
 1.17094e+01 -5.28128e+00 -1.96953e+00 
 1.19782e+01 -5.40228e+00 -1.65848e+00 
 1.22471e+01 -5.52339e+00 -1.34047e+00 
 1.25161e+01 -5.64455e+00 -1.01539e+00 
 1.27852e+01 -5.76584e+00 -6.83323e-01 
 1.30545e+01 -5.88718e+00 -3.44125e-01 
 1.33239e+01 -6.03937e+00 -1.83206e-01 
-1.30827e+01  5.93004e+00 -1.83359e-01 
-1.28182e+01  5.78061e+00 -3.44410e-01 
-1.25538e+01  5.66146e+00 -6.83883e-01 
-1.22895e+01  5.54235e+00 -1.01621e+00 
-1.20254e+01  5.42335e+00 -1.34153e+00 
-1.17613e+01  5.30438e+00 -1.65975e+00 
-1.14973e+01  5.18552e+00 -1.97100e+00 
-1.12333e+01  5.06667e+00 -2.27520e+00 
-1.09695e+01  4.94791e+00 -2.57245e+00 
-1.07057e+01  4.82915e+00 -2.86268e+00 
-1.04419e+01  4.71047e+00 -3.14599e+00 
-1.01782e+01  4.59178e+00 -3.42230e+00 
-9.91453e+00  4.47315e+00 -3.69172e+00 
-9.65084e+00  4.35449e+00 -3.95414e+00 
-9.38721e+00  4.23588e+00 -4.20968e+00 
-9.12354e+00  4.11723e+00 -4.45823e+00 
-8.85992e+00  3.99862e+00 -4.69990e+00 
-8.59624e+00  3.87995e+00 -4.93459e+00 
-8.33259e+00  3.76131e+00 -5.16238e+00 
-8.06887e+00  3.64259e+00 -5.38319e+00 
-7.80516e+00  3.52390e+00 -5.59709e+00 
-7.54137e+00  3.40512e+00 -5.80400e+00 
-7.27758e+00  3.28635e+00 -6.00398e+00 
-7.01369e+00  3.16749e+00 -6.19695e+00 
-6.74981e+00  3.04863e+00 -6.38297e+00 
-6.48581e+00  2.92968e+00 -6.56197e+00 
-6.22181e+00  2.81071e+00 -6.73398e+00 
-5.95769e+00  2.69165e+00 -6.89894e+00 
-5.69356e+00  2.57258e+00 -7.05690e+00 
-5.42930e+00  2.45340e+00 -7.20778e+00 
-5.16504e+00  2.33421e+00 -7.35162e+00 
-4.90065e+00  2.21492e+00 -7.48836e+00 
-4.63625e+00  2.09561e+00 -7.61802e+00 
-4.37172e+00  1.97620e+00 -7.74056e+00 
-4.10718e+00  1.85678e+00 -7.85599e+00 
-3.84252e+00  1.73726e+00 -7.96427e+00 
-3.57786e+00  1.61773e+00 -8.06542e+00 
-3.31307e+00  1.49810e+00 -8.15939e+00 
-3.04828e+00  1.37847e+00 -8.24620e+00 
-2.78339e+00  1.25875e+00 -8.32580e+00 
-2.51849e+00  1.13903e+00 -8.39822e+00 
-2.25350e+00  1.01922e+00 -8.46342e+00 
-1.98851e+00  8.99421e-01 -8.52141e+00 
-1.72344e+00  7.79547e-01 -8.57216e+00 
-1.45838e+00  6.59686e-01 -8.61568e+00 
-1.19323e+00  5.39758e-01 -8.65195e+00 
-9.28122e-01  4.19853e-01 -8.68098e+00 
-6.62937e-01  2.99889e-01 -8.70276e+00 
-3.97791e-01  1.79956e-01 -8.71728e+00 
-1.32585e-01  5.99739e-02 -8.72454e+00 
 1.32585e-01 -5.99739e-02 -8.72454e+00 
 3.97791e-01 -1.79956e-01 -8.71728e+00 
 6.62937e-01 -2.99889e-01 -8.70276e+00 
 9.28122e-01 -4.19853e-01 -8.68098e+00 
 1.19323e+00 -5.39758e-01 -8.65195e+00 
 1.45838e+00 -6.59686e-01 -8.61568e+00 
 1.72344e+00 -7.79547e-01 -8.57216e+00 
 1.98851e+00 -8.99421e-01 -8.52141e+00 
 2.25350e+00 -1.01922e+00 -8.46342e+00 
 2.51849e+00 -1.13903e+00 -8.39822e+00 
 2.78339e+00 -1.25875e+00 -8.32580e+00 
 3.04828e+00 -1.37847e+00 -8.24620e+00 
 3.31307e+00 -1.49810e+00 -8.15939e+00 
 3.57786e+00 -1.61773e+00 -8.06542e+00 
 3.84252e+00 -1.73726e+00 -7.96427e+00 
 4.10718e+00 -1.85678e+00 -7.85599e+00 
 4.37172e+00 -1.97620e+00 -7.74056e+00 
 4.63625e+00 -2.09561e+00 -7.61802e+00 
 4.90065e+00 -2.21492e+00 -7.48836e+00 
 5.16504e+00 -2.33421e+00 -7.35162e+00 
 5.42930e+00 -2.45340e+00 -7.20778e+00 
 5.69356e+00 -2.57258e+00 -7.05690e+00 
 5.95769e+00 -2.69165e+00 -6.89894e+00 
 6.22181e+00 -2.81071e+00 -6.73398e+00 
 6.48581e+00 -2.92968e+00 -6.56197e+00 
 6.74981e+00 -3.04863e+00 -6.38297e+00 
 7.01369e+00 -3.16749e+00 -6.19695e+00 
 7.27758e+00 -3.28635e+00 -6.00398e+00 
 7.54137e+00 -3.40512e+00 -5.80400e+00 
 7.80516e+00 -3.52390e+00 -5.59709e+00 
 8.06887e+00 -3.64259e+00 -5.38319e+00 
 8.33259e+00 -3.76131e+00 -5.16238e+00 
 8.59624e+00 -3.87995e+00 -4.93459e+00 
 8.85992e+00 -3.99862e+00 -4.69990e+00 
 9.12354e+00 -4.11723e+00 -4.45823e+00 
 9.38721e+00 -4.23588e+00 -4.20968e+00 
 9.65084e+00 -4.35449e+00 -3.95414e+00 
 9.91453e+00 -4.47315e+00 -3.69172e+00 
 1.01782e+01 -4.59178e+00 -3.42230e+00 
 1.04419e+01 -4.71047e+00 -3.14599e+00 
 1.07057e+01 -4.82915e+00 -2.86268e+00 
 1.09695e+01 -4.94791e+00 -2.57245e+00 
 1.12333e+01 -5.06667e+00 -2.27520e+00 
 1.14973e+01 -5.18552e+00 -1.97100e+00 
 1.17613e+01 -5.30438e+00 -1.65975e+00 
 1.20254e+01 -5.42335e+00 -1.34153e+00 
 1.22895e+01 -5.54235e+00 -1.01621e+00 
 1.25538e+01 -5.66146e+00 -6.83883e-01 
 1.28182e+01 -5.78061e+00 -3.44410e-01 
 1.30827e+01 -5.93004e+00 -1.83359e-01 
-1.28413e+01  5.82063e+00 -1.83486e-01 
-1.25817e+01  5.67397e+00 -3.44645e-01 
-1.23223e+01  5.55701e+00 -6.84345e-01 
-1.20628e+01  5.44008e+00 -1.01688e+00 
-1.18035e+01  5.32325e+00 -1.34240e+00 
-1.15443e+01  5.20644e+00 -1.66080e+00 
-1.12851e+01  5.08971e+00 -1.97222e+00 
-1.10260e+01  4.97300e+00 -2.27655e+00 
-1.07669e+01  4.85636e+00 -2.57393e+00 
-1.05079e+01  4.73972e+00 -2.86426e+00 
-1.02489e+01  4.62315e+00 -3.14766e+00 
-9.98994e+00  4.50656e+00 -3.42403e+00 
-9.73104e+00  4.39003e+00 -3.69348e+00 
-9.47211e+00  4.27347e+00 -3.95592e+00 
-9.21325e+00  4.15696e+00 -4.21145e+00 
-8.95433e+00  4.04041e+00 -4.45998e+00 
-8.69547e+00  3.92390e+00 -4.70161e+00 
-8.43655e+00  3.80733e+00 -4.93623e+00 
-8.17766e+00  3.69079e+00 -5.16395e+00 
-7.91870e+00  3.57418e+00 -5.38467e+00 
-7.65977e+00  3.45760e+00 -5.59846e+00 
-7.40076e+00  3.34094e+00 -5.80524e+00 
-7.14176e+00  3.22430e+00 -6.00509e+00 
-6.88267e+00  3.10758e+00 -6.19791e+00 
-6.62359e+00  2.99086e+00 -6.38378e+00 
-6.36441e+00  2.87406e+00 -6.56261e+00 
-6.10524e+00  2.75726e+00 -6.73445e+00 
-5.84596e+00  2.64037e+00 -6.89924e+00 
-5.58668e+00  2.52348e+00 -7.05701e+00 
-5.32729e+00  2.40649e+00 -7.20771e+00 
-5.06790e+00  2.28951e+00 -7.35137e+00 
-4.80840e+00  2.17243e+00 -7.48792e+00 
-4.54890e+00  2.05535e+00 -7.61741e+00 
-4.28929e+00  1.93817e+00 -7.73976e+00 
-4.02967e+00  1.82100e+00 -7.85503e+00 
-3.76995e+00  1.70373e+00 -7.96314e+00 
-3.51023e+00  1.58647e+00 -8.06412e+00 
-3.25041e+00  1.46912e+00 -8.15793e+00 
-2.99059e+00  1.35177e+00 -8.24459e+00 
-2.73068e+00  1.23434e+00 -8.32406e+00 
-2.47078e+00  1.11691e+00 -8.39635e+00 
-2.21078e+00  9.99417e-01 -8.46143e+00 
-1.95080e+00  8.81931e-01 -8.51931e+00 
-1.69074e+00  7.64377e-01 -8.56997e+00 
-1.43070e+00  6.46841e-01 -8.61341e+00 
-1.17058e+00  5.29243e-01 -8.64961e+00 
-9.10497e-01  4.11670e-01 -8.67859e+00 
-6.50346e-01  2.94042e-01 -8.70032e+00 
-3.90235e-01  1.76447e-01 -8.71481e+00 
-1.30066e-01  5.88042e-02 -8.72206e+00 
 1.30066e-01 -5.88042e-02 -8.72206e+00 
 3.90235e-01 -1.76447e-01 -8.71481e+00 
 6.50346e-01 -2.94042e-01 -8.70032e+00 
 9.10497e-01 -4.11670e-01 -8.67859e+00 
 1.17058e+00 -5.29243e-01 -8.64961e+00 
 1.43070e+00 -6.46841e-01 -8.61341e+00 
 1.69074e+00 -7.64377e-01 -8.56997e+00 
 1.95080e+00 -8.81931e-01 -8.51931e+00 
 2.21078e+00 -9.99417e-01 -8.46143e+00 
 2.47078e+00 -1.11691e+00 -8.39635e+00 
 2.73068e+00 -1.23434e+00 -8.32406e+00 
 2.99059e+00 -1.35177e+00 -8.24459e+00 
 3.25041e+00 -1.46912e+00 -8.15793e+00 
 3.51023e+00 -1.58647e+00 -8.06412e+00 
 3.76995e+00 -1.70373e+00 -7.96314e+00 
 4.02967e+00 -1.82100e+00 -7.85503e+00 
 4.28929e+00 -1.93817e+00 -7.73976e+00 
 4.54890e+00 -2.05535e+00 -7.61741e+00 
 4.80840e+00 -2.17243e+00 -7.48792e+00 
 5.06790e+00 -2.28951e+00 -7.35137e+00 
 5.32729e+00 -2.40649e+00 -7.20771e+00 
 5.58668e+00 -2.52348e+00 -7.05701e+00 
 5.84596e+00 -2.64037e+00 -6.89924e+00 
 6.10524e+00 -2.75726e+00 -6.73445e+00 
 6.36441e+00 -2.87406e+00 -6.56261e+00 
 6.62359e+00 -2.99086e+00 -6.38378e+00 
 6.88267e+00 -3.10758e+00 -6.19791e+00 
 7.14176e+00 -3.22430e+00 -6.00509e+00 
 7.40076e+00 -3.34094e+00 -5.80524e+00 
 7.65977e+00 -3.45760e+00 -5.59846e+00 
 7.91870e+00 -3.57418e+00 -5.38467e+00 
 8.17766e+00 -3.69079e+00 -5.16395e+00 
 8.43655e+00 -3.80733e+00 -4.93623e+00 
 8.69547e+00 -3.92390e+00 -4.70161e+00 
 8.95433e+00 -4.04041e+00 -4.45998e+00 
 9.21325e+00 -4.15696e+00 -4.21145e+00 
 9.47211e+00 -4.27347e+00 -3.95592e+00 
 9.73104e+00 -4.39003e+00 -3.69348e+00 
 9.98994e+00 -4.50656e+00 -3.42403e+00 
 1.02489e+01 -4.62315e+00 -3.14766e+00 
 1.05079e+01 -4.73972e+00 -2.86426e+00 
 1.07669e+01 -4.85636e+00 -2.57393e+00 
 1.10260e+01 -4.97300e+00 -2.27655e+00 
 1.12851e+01 -5.08971e+00 -1.97222e+00 
 1.15443e+01 -5.20644e+00 -1.66080e+00 
 1.18035e+01 -5.32325e+00 -1.34240e+00 
 1.20628e+01 -5.44008e+00 -1.01688e+00 
 1.23223e+01 -5.55701e+00 -6.84345e-01 
 1.25817e+01 -5.67397e+00 -3.44645e-01 
 1.28413e+01 -5.82063e+00 -1.83486e-01 
-1.25998e+01  5.71114e+00 -1.83588e-01 
-1.23451e+01  5.56726e+00 -3.44835e-01 
-1.20905e+01  5.45251e+00 -6.84717e-01 
-1.18360e+01  5.33776e+00 -1.01743e+00 
-1.15816e+01  5.22310e+00 -1.34311e+00 
-1.13271e+01  5.10845e+00 -1.66165e+00 
-1.10728e+01  4.99388e+00 -1.97320e+00 
-1.08185e+01  4.87931e+00 -2.27765e+00 
-1.05643e+01  4.76481e+00 -2.57513e+00 
-1.03100e+01  4.65029e+00 -2.86554e+00 
-1.00559e+01  4.53584e+00 -3.14900e+00 
-9.80167e+00  4.42137e+00 -3.42541e+00 
-9.54755e+00  4.30695e+00 -3.69489e+00 
-9.29340e+00  4.19249e+00 -3.95735e+00 
-9.03931e+00  4.07809e+00 -4.21288e+00 
-8.78517e+00  3.96364e+00 -4.46139e+00 
-8.53107e+00  3.84923e+00 -4.70298e+00 
-8.27692e+00  3.73477e+00 -4.93756e+00 
-8.02281e+00  3.62034e+00 -5.16521e+00 
-7.76863e+00  3.50586e+00 -5.38585e+00 
-7.51448e+00  3.39139e+00 -5.59956e+00 
-7.26026e+00  3.27686e+00 -5.80624e+00 
-7.00606e+00  3.16235e+00 -6.00598e+00 
-6.75177e+00  3.04776e+00 -6.19869e+00 
-6.49750e+00  2.93319e+00 -6.38443e+00 
-6.24315e+00  2.81855e+00 -6.56312e+00 
-5.98880e+00  2.70391e+00 -6.73483e+00 
-5.73437e+00  2.58919e+00 -6.89947e+00 
-5.47994e+00  2.47448e+00 -7.05710e+00 
-5.22542e+00  2.35970e+00 -7.20765e+00 
-4.97090e+00  2.24491e+00 -7.35116e+00 
-4.71629e+00  2.13005e+00 -7.48757e+00 
-4.46169e+00  2.01519e+00 -7.61691e+00 
-4.20699e+00  1.90025e+00 -7.73912e+00 
-3.95229e+00  1.78531e+00 -7.85424e+00 
-3.69751e+00  1.67030e+00 -7.96222e+00 
-3.44273e+00  1.55529e+00 -8.06307e+00 
-3.18786e+00  1.44021e+00 -8.15676e+00 
-2.93301e+00  1.32514e+00 -8.24330e+00 
-2.67807e+00  1.21000e+00 -8.32266e+00 
-2.42315e+00  1.09487e+00 -8.39484e+00 
-2.16814e+00  9.79673e-01 -8.45983e+00 
-1.91316e+00  8.64495e-01 -8.51762e+00 
-1.65810e+00  7.49254e-01 -8.56821e+00 
-1.40307e+00  6.34036e-01 -8.61158e+00 
-1.14797e+00  5.18760e-01 -8.64773e+00 
-8.92908e-01  4.03513e-01 -8.67666e+00 
-6.37780e-01  2.88214e-01 -8.69836e+00 
-3.82694e-01  1.72949e-01 -8.71283e+00 
-1.27553e-01  5.76383e-02 -8.72006e+00 
 1.27553e-01 -5.76383e-02 -8.72006e+00 
 3.82694e-01 -1.72949e-01 -8.71283e+00 
 6.37780e-01 -2.88214e-01 -8.69836e+00 
 8.92908e-01 -4.03513e-01 -8.67666e+00 
 1.14797e+00 -5.18760e-01 -8.64773e+00 
 1.40307e+00 -6.34036e-01 -8.61158e+00 
 1.65810e+00 -7.49254e-01 -8.56821e+00 
 1.91316e+00 -8.64495e-01 -8.51762e+00 
 2.16814e+00 -9.79673e-01 -8.45983e+00 
 2.42315e+00 -1.09487e+00 -8.39484e+00 
 2.67807e+00 -1.21000e+00 -8.32266e+00 
 2.93301e+00 -1.32514e+00 -8.24330e+00 
 3.18786e+00 -1.44021e+00 -8.15676e+00 
 3.44273e+00 -1.55529e+00 -8.06307e+00 
 3.69751e+00 -1.67030e+00 -7.96222e+00 
 3.95229e+00 -1.78531e+00 -7.85424e+00 
 4.20699e+00 -1.90025e+00 -7.73912e+00 
 4.46169e+00 -2.01519e+00 -7.61691e+00 
 4.71629e+00 -2.13005e+00 -7.48757e+00 
 4.97090e+00 -2.24491e+00 -7.35116e+00 
 5.22542e+00 -2.35970e+00 -7.20765e+00 
 5.47994e+00 -2.47448e+00 -7.05710e+00 
 5.73437e+00 -2.58919e+00 -6.89947e+00 
 5.98880e+00 -2.70391e+00 -6.73483e+00 
 6.24315e+00 -2.81855e+00 -6.56312e+00 
 6.49750e+00 -2.93319e+00 -6.38443e+00 
 6.75177e+00 -3.04776e+00 -6.19869e+00 
 7.00606e+00 -3.16235e+00 -6.00598e+00 
 7.26026e+00 -3.27686e+00 -5.80624e+00 
 7.51448e+00 -3.39139e+00 -5.59956e+00 
 7.76863e+00 -3.50586e+00 -5.38585e+00 
 8.02281e+00 -3.62034e+00 -5.16521e+00 
 8.27692e+00 -3.73477e+00 -4.93756e+00 
 8.53107e+00 -3.84923e+00 -4.70298e+00 
 8.78517e+00 -3.96364e+00 -4.46139e+00 
 9.03931e+00 -4.07809e+00 -4.21288e+00 
 9.29340e+00 -4.19249e+00 -3.95735e+00 
 9.54755e+00 -4.30695e+00 -3.69489e+00 
 9.80167e+00 -4.42137e+00 -3.42541e+00 
 1.00559e+01 -4.53584e+00 -3.14900e+00 
 1.03100e+01 -4.65029e+00 -2.86554e+00 
 1.05643e+01 -4.76481e+00 -2.57513e+00 
 1.08185e+01 -4.87931e+00 -2.27765e+00 
 1.10728e+01 -4.99388e+00 -1.97320e+00 
 1.13271e+01 -5.10845e+00 -1.66165e+00 
 1.15816e+01 -5.22310e+00 -1.34311e+00 
 1.18360e+01 -5.33776e+00 -1.01743e+00 
 1.20905e+01 -5.45251e+00 -6.84717e-01 
 1.23451e+01 -5.56726e+00 -3.44835e-01 
 1.25998e+01 -5.71114e+00 -1.83588e-01 
-1.23582e+01  5.60160e+00 -1.83667e-01 
-1.21084e+01  5.46050e+00 -3.44983e-01 
-1.18587e+01  5.34795e+00 -6.85007e-01 
-1.16091e+01  5.23540e+00 -1.01785e+00 
-1.13595e+01  5.12292e+00 -1.34365e+00 
-1.11099e+01  5.01044e+00 -1.66231e+00 
-1.08605e+01  4.89802e+00 -1.97396e+00 
-1.06110e+01  4.78560e+00 -2.27850e+00 
-1.03616e+01  4.67324e+00 -2.57605e+00 
-1.01121e+01  4.56086e+00 -2.86652e+00 
-9.86278e+00  4.44853e+00 -3.15003e+00 
-9.61339e+00  4.33618e+00 -3.42648e+00 
-9.36406e+00  4.22388e+00 -3.69599e+00 
-9.11470e+00  4.11154e+00 -3.95845e+00 
-8.86539e+00  3.99925e+00 -4.21398e+00 
-8.61603e+00  3.88691e+00 -4.46248e+00 
-8.36672e+00  3.77462e+00 -4.70404e+00 
-8.11735e+00  3.66227e+00 -4.93858e+00 
-7.86802e+00  3.54996e+00 -5.16618e+00 
-7.61863e+00  3.43759e+00 -5.38676e+00 
-7.36927e+00  3.32525e+00 -5.60040e+00 
-7.11984e+00  3.21285e+00 -5.80701e+00 
-6.87044e+00  3.10047e+00 -6.00666e+00 
-6.62097e+00  2.98803e+00 -6.19927e+00 
-6.37151e+00  2.87561e+00 -6.38492e+00 
-6.12198e+00  2.76312e+00 -6.56351e+00 
-5.87247e+00  2.65065e+00 -6.73511e+00 
-5.62288e+00  2.53811e+00 -6.89965e+00 
-5.37331e+00  2.42558e+00 -7.05717e+00 
-5.12365e+00  2.31298e+00 -7.20760e+00 
-4.87401e+00  2.20040e+00 -7.35100e+00 
-4.62429e+00  2.08774e+00 -7.48729e+00 
-4.37458e+00  1.97510e+00 -7.61652e+00 
-4.12479e+00  1.86239e+00 -7.73863e+00 
-3.87501e+00  1.74970e+00 -7.85364e+00 
-3.62516e+00  1.63694e+00 -7.96151e+00 
-3.37532e+00  1.52419e+00 -8.06226e+00 
-3.12540e+00  1.41137e+00 -8.15585e+00 
-2.87551e+00  1.29858e+00 -8.24231e+00 
-2.62554e+00  1.18572e+00 -8.32158e+00 
-2.37559e+00  1.07288e+00 -8.39369e+00 
-2.12557e+00  9.59976e-01 -8.45860e+00 
-1.87558e+00  8.47099e-01 -8.51633e+00 
-1.62552e+00  7.34167e-01 -8.56685e+00 
-1.37549e+00  6.21261e-01 -8.61018e+00 
-1.12540e+00  5.08302e-01 -8.64629e+00 
-8.75347e-01  3.95375e-01 -8.67518e+00 
-6.25235e-01  2.82400e-01 -8.69686e+00 
-3.75166e-01  1.69459e-01 -8.71131e+00 
-1.25043e-01  5.64752e-02 -8.71853e+00 
 1.25043e-01 -5.64752e-02 -8.71853e+00 
 3.75166e-01 -1.69459e-01 -8.71131e+00 
 6.25235e-01 -2.82400e-01 -8.69686e+00 
 8.75347e-01 -3.95375e-01 -8.67518e+00 
 1.12540e+00 -5.08302e-01 -8.64629e+00 
 1.37549e+00 -6.21261e-01 -8.61018e+00 
 1.62552e+00 -7.34167e-01 -8.56685e+00 
 1.87558e+00 -8.47099e-01 -8.51633e+00 
 2.12557e+00 -9.59976e-01 -8.45860e+00 
 2.37559e+00 -1.07288e+00 -8.39369e+00 
 2.62554e+00 -1.18572e+00 -8.32158e+00 
 2.87551e+00 -1.29858e+00 -8.24231e+00 
 3.12540e+00 -1.41137e+00 -8.15585e+00 
 3.37532e+00 -1.52419e+00 -8.06226e+00 
 3.62516e+00 -1.63694e+00 -7.96151e+00 
 3.87501e+00 -1.74970e+00 -7.85364e+00 
 4.12479e+00 -1.86239e+00 -7.73863e+00 
 4.37458e+00 -1.97510e+00 -7.61652e+00 
 4.62429e+00 -2.08774e+00 -7.48729e+00 
 4.87401e+00 -2.20040e+00 -7.35100e+00 
 5.12365e+00 -2.31298e+00 -7.20760e+00 
 5.37331e+00 -2.42558e+00 -7.05717e+00 
 5.62288e+00 -2.53811e+00 -6.89965e+00 
 5.87247e+00 -2.65065e+00 -6.73511e+00 
 6.12198e+00 -2.76312e+00 -6.56351e+00 
 6.37151e+00 -2.87561e+00 -6.38492e+00 
 6.62097e+00 -2.98803e+00 -6.19927e+00 
 6.87044e+00 -3.10047e+00 -6.00666e+00 
 7.11984e+00 -3.21285e+00 -5.80701e+00 
 7.36927e+00 -3.32525e+00 -5.60040e+00 
 7.61863e+00 -3.43759e+00 -5.38676e+00 
 7.86802e+00 -3.54996e+00 -5.16618e+00 
 8.11735e+00 -3.66227e+00 -4.93858e+00 
 8.36672e+00 -3.77462e+00 -4.70404e+00 
 8.61603e+00 -3.88691e+00 -4.46248e+00 
 8.86539e+00 -3.99925e+00 -4.21398e+00 
 9.11470e+00 -4.11154e+00 -3.95845e+00 
 9.36406e+00 -4.22388e+00 -3.69599e+00 
 9.61339e+00 -4.33618e+00 -3.42648e+00 
 9.86278e+00 -4.44853e+00 -3.15003e+00 
 1.01121e+01 -4.56086e+00 -2.86652e+00 
 1.03616e+01 -4.67324e+00 -2.57605e+00 
 1.06110e+01 -4.78560e+00 -2.27850e+00 
 1.08605e+01 -4.89802e+00 -1.97396e+00 
 1.11099e+01 -5.01044e+00 -1.66231e+00 
 1.13595e+01 -5.12292e+00 -1.34365e+00 
 1.16091e+01 -5.23540e+00 -1.01785e+00 
 1.18587e+01 -5.34795e+00 -6.85007e-01 
 1.21084e+01 -5.46050e+00 -3.44983e-01 
 1.23582e+01 -5.60160e+00 -1.83667e-01 
-1.21164e+01  5.49202e+00 -1.83746e-01 
-1.18716e+01  5.35370e+00 -3.45115e-01 
-1.16268e+01  5.24336e+00 -6.85248e-01 
-1.13821e+01  5.13300e+00 -1.01819e+00 
-1.11374e+01  5.02271e+00 -1.34408e+00 
-1.08927e+01  4.91240e+00 -1.66282e+00 
-1.06481e+01  4.80215e+00 -1.97454e+00 
-1.04034e+01  4.69188e+00 -2.27914e+00 
-1.01588e+01  4.58166e+00 -2.57674e+00 
-9.91422e+00  4.47142e+00 -2.86726e+00 
-9.66968e+00  4.36123e+00 -3.15080e+00 
-9.42510e+00  4.25100e+00 -3.42728e+00 
-9.18057e+00  4.14082e+00 -3.69680e+00 
-8.93600e+00  4.03061e+00 -3.95926e+00 
-8.69148e+00  3.92043e+00 -4.21479e+00 
-8.44691e+00  3.81022e+00 -4.46327e+00 
-8.20239e+00  3.70004e+00 -4.70481e+00 
-7.95781e+00  3.58981e+00 -4.93932e+00 
-7.71327e+00  3.47962e+00 -5.16689e+00 
-7.46867e+00  3.36937e+00 -5.38742e+00 
-7.22411e+00  3.25916e+00 -5.60101e+00 
-6.97948e+00  3.14889e+00 -5.80756e+00 
-6.73489e+00  3.03865e+00 -6.00715e+00 
-6.49023e+00  2.92835e+00 -6.19970e+00 
-6.24559e+00  2.81808e+00 -6.38527e+00 
-6.00089e+00  2.70775e+00 -6.56380e+00 
-5.75622e+00  2.59744e+00 -6.73532e+00 
-5.51147e+00  2.48708e+00 -6.89978e+00 
-5.26676e+00  2.37673e+00 -7.05722e+00 
-5.02196e+00  2.26633e+00 -7.20758e+00 
-4.77720e+00  2.15594e+00 -7.35089e+00 
-4.53236e+00  2.04550e+00 -7.48711e+00 
-4.28755e+00  1.93508e+00 -7.61626e+00 
-4.04266e+00  1.82460e+00 -7.73829e+00 
-3.79781e+00  1.71414e+00 -7.85323e+00 
-3.55288e+00  1.60362e+00 -7.96102e+00 
-3.30798e+00  1.49313e+00 -8.06171e+00 
-3.06301e+00  1.38258e+00 -8.15523e+00 
-2.81806e+00  1.27205e+00 -8.24162e+00 
-2.57306e+00  1.16147e+00 -8.32084e+00 
-2.32808e+00  1.05092e+00 -8.39289e+00 
-2.08304e+00  9.40310e-01 -8.45775e+00 
-1.83804e+00  8.29732e-01 -8.51544e+00 
-1.59297e+00  7.19104e-01 -8.56592e+00 
-1.34794e+00  6.08507e-01 -8.60922e+00 
-1.10285e+00  4.97862e-01 -8.64529e+00 
-8.57804e-01  3.87251e-01 -8.67417e+00 
-6.12703e-01  2.76595e-01 -8.69582e+00 
-3.67645e-01  1.65975e-01 -8.71026e+00 
-1.22537e-01  5.53140e-02 -8.71748e+00 
 1.22537e-01 -5.53140e-02 -8.71748e+00 
 3.67645e-01 -1.65975e-01 -8.71026e+00 
 6.12703e-01 -2.76595e-01 -8.69582e+00 
 8.57804e-01 -3.87251e-01 -8.67417e+00 
 1.10285e+00 -4.97862e-01 -8.64529e+00 
 1.34794e+00 -6.08507e-01 -8.60922e+00 
 1.59297e+00 -7.19104e-01 -8.56592e+00 
 1.83804e+00 -8.29732e-01 -8.51544e+00 
 2.08304e+00 -9.40310e-01 -8.45775e+00 
 2.32808e+00 -1.05092e+00 -8.39289e+00 
 2.57306e+00 -1.16147e+00 -8.32084e+00 
 2.81806e+00 -1.27205e+00 -8.24162e+00 
 3.06301e+00 -1.38258e+00 -8.15523e+00 
 3.30798e+00 -1.49313e+00 -8.06171e+00 
 3.55288e+00 -1.60362e+00 -7.96102e+00 
 3.79781e+00 -1.71414e+00 -7.85323e+00 
 4.04266e+00 -1.82460e+00 -7.73829e+00 
 4.28755e+00 -1.93508e+00 -7.61626e+00 
 4.53236e+00 -2.04550e+00 -7.48711e+00 
 4.77720e+00 -2.15594e+00 -7.35089e+00 
 5.02196e+00 -2.26633e+00 -7.20758e+00 
 5.26676e+00 -2.37673e+00 -7.05722e+00 
 5.51147e+00 -2.48708e+00 -6.89978e+00 
 5.75622e+00 -2.59744e+00 -6.73532e+00 
 6.00089e+00 -2.70775e+00 -6.56380e+00 
 6.24559e+00 -2.81808e+00 -6.38527e+00 
 6.49023e+00 -2.92835e+00 -6.19970e+00 
 6.73489e+00 -3.03865e+00 -6.00715e+00 
 6.97948e+00 -3.14889e+00 -5.80756e+00 
 7.22411e+00 -3.25916e+00 -5.60101e+00 
 7.46867e+00 -3.36937e+00 -5.38742e+00 
 7.71327e+00 -3.47962e+00 -5.16689e+00 
 7.95781e+00 -3.58981e+00 -4.93932e+00 
 8.20239e+00 -3.70004e+00 -4.70481e+00 
 8.44691e+00 -3.81022e+00 -4.46327e+00 
 8.69148e+00 -3.92043e+00 -4.21479e+00 
 8.93600e+00 -4.03061e+00 -3.95926e+00 
 9.18057e+00 -4.14082e+00 -3.69680e+00 
 9.42510e+00 -4.25100e+00 -3.42728e+00 
 9.66968e+00 -4.36123e+00 -3.15080e+00 
 9.91422e+00 -4.47142e+00 -2.86726e+00 
 1.01588e+01 -4.58166e+00 -2.57674e+00 
 1.04034e+01 -4.69188e+00 -2.27914e+00 
 1.06481e+01 -4.80215e+00 -1.97454e+00 
 1.08927e+01 -4.91240e+00 -1.66282e+00 
 1.11374e+01 -5.02271e+00 -1.34408e+00 
 1.13821e+01 -5.13300e+00 -1.01819e+00 
 1.16268e+01 -5.24336e+00 -6.85248e-01 
 1.18716e+01 -5.35370e+00 -3.45115e-01 
 1.21164e+01 -5.49202e+00 -1.83746e-01 
-1.18746e+01  5.38241e+00 -1.83752e-01 
-1.16347e+01  5.24687e+00 -3.45146e-01 
-1.13949e+01  5.13873e+00 -6.85340e-01 
-1.11550e+01  5.03057e+00 -1.01834e+00 
-1.09152e+01  4.92247e+00 -1.34429e+00 
-1.06754e+01  4.81433e+00 -1.66308e+00 
-1.04356e+01  4.70625e+00 -1.97484e+00 
-1.01958e+01  4.59814e+00 -2.27948e+00 
-9.95608e+00  4.49007e+00 -2.57712e+00 
-9.71630e+00  4.38197e+00 -2.86766e+00 
-9.47657e+00  4.27392e+00 -3.15122e+00 
-9.23680e+00  4.16582e+00 -3.42771e+00 
-8.99708e+00  4.05777e+00 -3.69723e+00 
-8.75731e+00  3.94968e+00 -3.95970e+00 
-8.51759e+00  3.84162e+00 -4.21521e+00 
-8.27782e+00  3.73353e+00 -4.46368e+00 
-8.03808e+00  3.62547e+00 -4.70521e+00 
-7.79830e+00  3.51736e+00 -4.93970e+00 
-7.55855e+00  3.40929e+00 -5.16724e+00 
-7.31875e+00  3.30118e+00 -5.38774e+00 
-7.07899e+00  3.19309e+00 -5.60130e+00 
-6.83917e+00  3.08496e+00 -5.80781e+00 
-6.59938e+00  2.97685e+00 -6.00737e+00 
-6.35954e+00  2.86870e+00 -6.19987e+00 
-6.11973e+00  2.76058e+00 -6.38540e+00 
-5.87985e+00  2.65241e+00 -6.56388e+00 
-5.64002e+00  2.54427e+00 -6.73536e+00 
-5.40012e+00  2.43607e+00 -6.89977e+00 
-5.16026e+00  2.32791e+00 -7.05717e+00 
-4.92033e+00  2.21970e+00 -7.20748e+00 
-4.68044e+00  2.11151e+00 -7.35075e+00 
-4.44049e+00  2.00328e+00 -7.48692e+00 
-4.20057e+00  1.89508e+00 -7.61602e+00 
-3.96059e+00  1.78682e+00 -7.73801e+00 
-3.72064e+00  1.67860e+00 -7.85290e+00 
-3.48064e+00  1.57033e+00 -7.96066e+00 
-3.24067e+00  1.46209e+00 -8.06131e+00 
-3.00065e+00  1.35380e+00 -8.15480e+00 
-2.76066e+00  1.24555e+00 -8.24115e+00 
-2.52061e+00  1.13724e+00 -8.32033e+00 
-2.28061e+00  1.02897e+00 -8.39236e+00 
-2.04054e+00  9.20659e-01 -8.45719e+00 
-1.80052e+00  8.12377e-01 -8.51486e+00 
-1.56044e+00  7.04052e-01 -8.56532e+00 
-1.32041e+00  5.95762e-01 -8.60859e+00 
-1.08032e+00  4.87429e-01 -8.64465e+00 
-8.40275e-01  3.79133e-01 -8.67351e+00 
-6.00180e-01  2.70795e-01 -8.69516e+00 
-3.60130e-01  1.62494e-01 -8.70959e+00 
-1.20032e-01  5.41536e-02 -8.71681e+00 
 1.20032e-01 -5.41536e-02 -8.71681e+00 
 3.60130e-01 -1.62494e-01 -8.70959e+00 
 6.00180e-01 -2.70795e-01 -8.69516e+00 
 8.40275e-01 -3.79133e-01 -8.67351e+00 
 1.08032e+00 -4.87429e-01 -8.64465e+00 
 1.32041e+00 -5.95762e-01 -8.60859e+00 
 1.56044e+00 -7.04052e-01 -8.56532e+00 
 1.80052e+00 -8.12377e-01 -8.51486e+00 
 2.04054e+00 -9.20659e-01 -8.45719e+00 
 2.28061e+00 -1.02897e+00 -8.39236e+00 
 2.52061e+00 -1.13724e+00 -8.32033e+00 
 2.76066e+00 -1.24555e+00 -8.24115e+00 
 3.00065e+00 -1.35380e+00 -8.15480e+00 
 3.24067e+00 -1.46209e+00 -8.06131e+00 
 3.48064e+00 -1.57033e+00 -7.96066e+00 
 3.72064e+00 -1.67860e+00 -7.85290e+00 
 3.96059e+00 -1.78682e+00 -7.73801e+00 
 4.20057e+00 -1.89508e+00 -7.61602e+00 
 4.44049e+00 -2.00328e+00 -7.48692e+00 
 4.68044e+00 -2.11151e+00 -7.35075e+00 
 4.92033e+00 -2.21970e+00 -7.20748e+00 
 5.16026e+00 -2.32791e+00 -7.05717e+00 
 5.40012e+00 -2.43607e+00 -6.89977e+00 
 5.64002e+00 -2.54427e+00 -6.73536e+00 
 5.87985e+00 -2.65241e+00 -6.56388e+00 
 6.11973e+00 -2.76058e+00 -6.38540e+00 
 6.35954e+00 -2.86870e+00 -6.19987e+00 
 6.59938e+00 -2.97685e+00 -6.00737e+00 
 6.83917e+00 -3.08496e+00 -5.80781e+00 
 7.07899e+00 -3.19309e+00 -5.60130e+00 
 7.31875e+00 -3.30118e+00 -5.38774e+00 
 7.55855e+00 -3.40929e+00 -5.16724e+00 
 7.79830e+00 -3.51736e+00 -4.93970e+00 
 8.03808e+00 -3.62547e+00 -4.70521e+00 
 8.27782e+00 -3.73353e+00 -4.46368e+00 
 8.51759e+00 -3.84162e+00 -4.21521e+00 
 8.75731e+00 -3.94968e+00 -3.95970e+00 
 8.99708e+00 -4.05777e+00 -3.69723e+00 
 9.23680e+00 -4.16582e+00 -3.42771e+00 
 9.47657e+00 -4.27392e+00 -3.15122e+00 
 9.71630e+00 -4.38197e+00 -2.86766e+00 
 9.95608e+00 -4.49007e+00 -2.57712e+00 
 1.01958e+01 -4.59814e+00 -2.27948e+00 
 1.04356e+01 -4.70625e+00 -1.97484e+00 
 1.06754e+01 -4.81433e+00 -1.66308e+00 
 1.09152e+01 -4.92247e+00 -1.34429e+00 
 1.11550e+01 -5.03057e+00 -1.01834e+00 
 1.13949e+01 -5.13873e+00 -6.85340e-01 
 1.16347e+01 -5.24687e+00 -3.45146e-01 
 1.18746e+01 -5.38241e+00 -1.83752e-01 
-1.16327e+01  5.27277e+00 -1.83784e-01 
-1.13978e+01  5.14003e+00 -3.45201e-01 
-1.11629e+01  5.03410e+00 -6.85431e-01 
-1.09279e+01  4.92814e+00 -1.01846e+00 
-1.06930e+01  4.82222e+00 -1.34443e+00 
-1.04581e+01  4.71627e+00 -1.66325e+00 
-1.02232e+01  4.61035e+00 -1.97502e+00 
-9.98821e+00  4.50440e+00 -2.27968e+00 
-9.75331e+00  4.39849e+00 -2.57732e+00 
-9.51836e+00  4.29253e+00 -2.86787e+00 
-9.28346e+00  4.18661e+00 -3.15143e+00 
-9.04850e+00  4.08065e+00 -3.42792e+00 
-8.81359e+00  3.97473e+00 -3.69744e+00 
-8.57862e+00  3.86876e+00 -3.95990e+00 
-8.34370e+00  3.76283e+00 -4.21540e+00 
-8.10872e+00  3.65685e+00 -4.46387e+00 
-7.87379e+00  3.55091e+00 -4.70538e+00 
-7.63880e+00  3.44493e+00 -4.93985e+00 
-7.40385e+00  3.33898e+00 -5.16738e+00 
-7.16885e+00  3.23299e+00 -5.38787e+00 
-6.93388e+00  3.12703e+00 -5.60141e+00 
-6.69887e+00  3.02104e+00 -5.80791e+00 
-6.46389e+00  2.91507e+00 -6.00744e+00 
-6.22886e+00  2.80906e+00 -6.19993e+00 
-5.99387e+00  2.70309e+00 -6.38545e+00 
-5.75883e+00  2.59708e+00 -6.56391e+00 
-5.52383e+00  2.49110e+00 -6.73537e+00 
-5.28878e+00  2.38508e+00 -6.89977e+00 
-5.05377e+00  2.27910e+00 -7.05715e+00 
-4.81871e+00  2.17308e+00 -7.20745e+00 
-4.58369e+00  2.06710e+00 -7.35070e+00 
-4.34862e+00  1.96107e+00 -7.48686e+00 
-4.11360e+00  1.85508e+00 -7.61595e+00 
-3.87853e+00  1.74906e+00 -7.73793e+00 
-3.64349e+00  1.64307e+00 -7.85281e+00 
-3.40842e+00  1.53704e+00 -7.96056e+00 
-3.17338e+00  1.43106e+00 -8.06120e+00 
-2.93830e+00  1.32503e+00 -8.15468e+00 
-2.70326e+00  1.21904e+00 -8.24103e+00 
-2.46818e+00  1.11302e+00 -8.32020e+00 
-2.23314e+00  1.00703e+00 -8.39222e+00 
-1.99805e+00  9.01009e-01 -8.45706e+00 
-1.76301e+00  7.95025e-01 -8.51471e+00 
-1.52792e+00  6.89002e-01 -8.56517e+00 
-1.29288e+00  5.83019e-01 -8.60844e+00 
-1.05779e+00  4.76998e-01 -8.64450e+00 
-8.22748e-01  3.71015e-01 -8.67336e+00 
-5.87659e-01  2.64995e-01 -8.69501e+00 
-3.52616e-01  1.59013e-01 -8.70944e+00 
-1.17527e-01  5.29934e-02 -8.71666e+00 
 1.17527e-01 -5.29934e-02 -8.71666e+00 
 3.52616e-01 -1.59013e-01 -8.70944e+00 
 5.87659e-01 -2.64995e-01 -8.69501e+00 
 8.22748e-01 -3.71015e-01 -8.67336e+00 
 1.05779e+00 -4.76998e-01 -8.64450e+00 
 1.29288e+00 -5.83019e-01 -8.60844e+00 
 1.52792e+00 -6.89002e-01 -8.56517e+00 
 1.76301e+00 -7.95025e-01 -8.51471e+00 
 1.99805e+00 -9.01009e-01 -8.45706e+00 
 2.23314e+00 -1.00703e+00 -8.39222e+00 
 2.46818e+00 -1.11302e+00 -8.32020e+00 
 2.70326e+00 -1.21904e+00 -8.24103e+00 
 2.93830e+00 -1.32503e+00 -8.15468e+00 
 3.17338e+00 -1.43106e+00 -8.06120e+00 
 3.40842e+00 -1.53704e+00 -7.96056e+00 
 3.64349e+00 -1.64307e+00 -7.85281e+00 
 3.87853e+00 -1.74906e+00 -7.73793e+00 
 4.11360e+00 -1.85508e+00 -7.61595e+00 
 4.34862e+00 -1.96107e+00 -7.48686e+00 
 4.58369e+00 -2.06710e+00 -7.35070e+00 
 4.81871e+00 -2.17308e+00 -7.20745e+00 
 5.05377e+00 -2.27910e+00 -7.05715e+00 
 5.28878e+00 -2.38508e+00 -6.89977e+00 
 5.52383e+00 -2.49110e+00 -6.73537e+00 
 5.75883e+00 -2.59708e+00 -6.56391e+00 
 5.99387e+00 -2.70309e+00 -6.38545e+00 
 6.22886e+00 -2.80906e+00 -6.19993e+00 
 6.46389e+00 -2.91507e+00 -6.00744e+00 
 6.69887e+00 -3.02104e+00 -5.80791e+00 
 6.93388e+00 -3.12703e+00 -5.60141e+00 
 7.16885e+00 -3.23299e+00 -5.38787e+00 
 7.40385e+00 -3.33898e+00 -5.16738e+00 
 7.63880e+00 -3.44493e+00 -4.93985e+00 
 7.87379e+00 -3.55091e+00 -4.70538e+00 
 8.10872e+00 -3.65685e+00 -4.46387e+00 
 8.34370e+00 -3.76283e+00 -4.21540e+00 
 8.57862e+00 -3.86876e+00 -3.95990e+00 
 8.81359e+00 -3.97473e+00 -3.69744e+00 
 9.04850e+00 -4.08065e+00 -3.42792e+00 
 9.28346e+00 -4.18661e+00 -3.15143e+00 
 9.51836e+00 -4.29253e+00 -2.86787e+00 
 9.75331e+00 -4.39849e+00 -2.57732e+00 
 9.98821e+00 -4.50440e+00 -2.27968e+00 
 1.02232e+01 -4.61035e+00 -1.97502e+00 
 1.04581e+01 -4.71627e+00 -1.66325e+00 
 1.06930e+01 -4.82222e+00 -1.34443e+00 
 1.09279e+01 -4.92814e+00 -1.01846e+00 
 1.11629e+01 -5.03410e+00 -6.85431e-01 
 1.13978e+01 -5.14003e+00 -3.45201e-01 
 1.16327e+01 -5.27277e+00 -1.83784e-01 
-1.13909e+01  5.16314e+00 -1.83785e-01 
-1.11608e+01  5.03318e+00 -3.45201e-01 
-1.09309e+01  4.92946e+00 -6.85429e-01 
-1.07008e+01  4.82570e+00 -1.01846e+00 
-1.04708e+01  4.72198e+00 -1.34442e+00 
-1.02407e+01  4.61820e+00 -1.66322e+00 
-1.00107e+01  4.51445e+00 -1.97499e+00 
-9.78060e+00  4.41066e+00 -2.27962e+00 
-9.55055e+00  4.30690e+00 -2.57726e+00 
-9.32043e+00  4.20309e+00 -2.86779e+00 
-9.09035e+00  4.09931e+00 -3.15134e+00 
-8.86021e+00  3.99548e+00 -3.42781e+00 
-8.63011e+00  3.89168e+00 -3.69732e+00 
-8.39994e+00  3.78784e+00 -3.95977e+00 
-8.16982e+00  3.68403e+00 -4.21526e+00 
-7.93964e+00  3.58017e+00 -4.46371e+00 
-7.70950e+00  3.47635e+00 -4.70522e+00 
-7.47930e+00  3.37249e+00 -4.93969e+00 
-7.24915e+00  3.26866e+00 -5.16721e+00 
-7.01894e+00  3.16480e+00 -5.38770e+00 
-6.78878e+00  3.06097e+00 -5.60124e+00 
-6.55857e+00  2.95710e+00 -5.80774e+00 
-6.32840e+00  2.85327e+00 -6.00728e+00 
-6.09818e+00  2.74941e+00 -6.19978e+00 
-5.86802e+00  2.64559e+00 -6.38530e+00 
-5.63780e+00  2.54173e+00 -6.56378e+00 
-5.40764e+00  2.43792e+00 -6.73526e+00 
-5.17743e+00  2.33407e+00 -6.89967e+00 
-4.94728e+00  2.23027e+00 -7.05707e+00 
-4.71708e+00  2.12644e+00 -7.20738e+00 
-4.48694e+00  2.02265e+00 -7.35066e+00 
-4.25675e+00  1.91884e+00 -7.48684e+00 
-4.02662e+00  1.81507e+00 -7.61595e+00 
-3.79645e+00  1.71127e+00 -7.73795e+00 
-3.56633e+00  1.60752e+00 -7.85286e+00 
-3.33618e+00  1.50374e+00 -7.96063e+00 
-3.10608e+00  1.40000e+00 -8.06129e+00 
-2.87594e+00  1.29624e+00 -8.15480e+00 
-2.64585e+00  1.19252e+00 -8.24117e+00 
-2.41573e+00  1.08878e+00 -8.32036e+00 
-2.18566e+00  9.85074e-01 -8.39240e+00 
-1.95555e+00  8.81343e-01 -8.45725e+00 
-1.72549e+00  7.77657e-01 -8.51493e+00 
-1.49539e+00  6.73939e-01 -8.56540e+00 
-1.26534e+00  5.70264e-01 -8.60869e+00 
-1.03526e+00  4.66556e-01 -8.64476e+00 
-8.05216e-01  3.62890e-01 -8.67363e+00 
-5.75134e-01  2.59190e-01 -8.69528e+00 
-3.45100e-01  1.55529e-01 -8.70972e+00 
-1.15022e-01  5.18321e-02 -8.71694e+00 
 1.15022e-01 -5.18321e-02 -8.71694e+00 
 3.45100e-01 -1.55529e-01 -8.70972e+00 
 5.75134e-01 -2.59190e-01 -8.69528e+00 
 8.05216e-01 -3.62890e-01 -8.67363e+00 
 1.03526e+00 -4.66556e-01 -8.64476e+00 
 1.26534e+00 -5.70264e-01 -8.60869e+00 
 1.49539e+00 -6.73939e-01 -8.56540e+00 
 1.72549e+00 -7.77657e-01 -8.51493e+00 
 1.95555e+00 -8.81343e-01 -8.45725e+00 
 2.18566e+00 -9.85074e-01 -8.39240e+00 
 2.41573e+00 -1.08878e+00 -8.32036e+00 
 2.64585e+00 -1.19252e+00 -8.24117e+00 
 2.87594e+00 -1.29624e+00 -8.15480e+00 
 3.10608e+00 -1.40000e+00 -8.06129e+00 
 3.33618e+00 -1.50374e+00 -7.96063e+00 
 3.56633e+00 -1.60752e+00 -7.85286e+00 
 3.79645e+00 -1.71127e+00 -7.73795e+00 
 4.02662e+00 -1.81507e+00 -7.61595e+00 
 4.25675e+00 -1.91884e+00 -7.48684e+00 
 4.48694e+00 -2.02265e+00 -7.35066e+00 
 4.71708e+00 -2.12644e+00 -7.20738e+00 
 4.94728e+00 -2.23027e+00 -7.05707e+00 
 5.17743e+00 -2.33407e+00 -6.89967e+00 
 5.40764e+00 -2.43792e+00 -6.73526e+00 
 5.63780e+00 -2.54173e+00 -6.56378e+00 
 5.86802e+00 -2.64559e+00 -6.38530e+00 
 6.09818e+00 -2.74941e+00 -6.19978e+00 
 6.32840e+00 -2.85327e+00 -6.00728e+00 
 6.55857e+00 -2.95710e+00 -5.80774e+00 
 6.78878e+00 -3.06097e+00 -5.60124e+00 
 7.01894e+00 -3.16480e+00 -5.38770e+00 
 7.24915e+00 -3.26866e+00 -5.16721e+00 
 7.47930e+00 -3.37249e+00 -4.93969e+00 
 7.70950e+00 -3.47635e+00 -4.70522e+00 
 7.93964e+00 -3.58017e+00 -4.46371e+00 
 8.16982e+00 -3.68403e+00 -4.21526e+00 
 8.39994e+00 -3.78784e+00 -3.95977e+00 
 8.63011e+00 -3.89168e+00 -3.69732e+00 
 8.86021e+00 -3.99548e+00 -3.42781e+00 
 9.09035e+00 -4.09931e+00 -3.15134e+00 
 9.32043e+00 -4.20309e+00 -2.86779e+00 
 9.55055e+00 -4.30690e+00 -2.57726e+00 
 9.78060e+00 -4.41066e+00 -2.27962e+00 
 1.00107e+01 -4.51445e+00 -1.97499e+00 
 1.02407e+01 -4.61820e+00 -1.66322e+00 
 1.04708e+01 -4.72198e+00 -1.34442e+00 
 1.07008e+01 -4.82570e+00 -1.01846e+00 
 1.09309e+01 -4.92946e+00 -6.85429e-01 
 1.11608e+01 -5.03318e+00 -3.45201e-01 
 1.13909e+01 -5.16314e+00 -1.83785e-01 
-1.11490e+01  5.05351e+00 -1.83765e-01 
-1.09239e+01  4.92633e+00 -3.45164e-01 
-1.06989e+01  4.82483e+00 -6.85353e-01 
-1.04737e+01  4.72327e+00 -1.01834e+00 
-1.02486e+01  4.62173e+00 -1.34426e+00 
-1.00234e+01  4.52014e+00 -1.66302e+00 
-9.79825e+00  4.41856e+00 -1.97475e+00 
-9.57302e+00  4.31693e+00 -2.27935e+00 
-9.34780e+00  4.21531e+00 -2.57694e+00 
-9.12251e+00  4.11364e+00 -2.86744e+00 
-8.89725e+00  4.01200e+00 -3.15096e+00 
-8.67193e+00  3.91030e+00 -3.42740e+00 
-8.44663e+00  3.80862e+00 -3.69688e+00 
-8.22127e+00  3.70690e+00 -3.95932e+00 
-7.99594e+00  3.60521e+00 -4.21480e+00 
-7.77055e+00  3.50348e+00 -4.46324e+00 
-7.54520e+00  3.40177e+00 -4.70474e+00 
-7.31980e+00  3.30003e+00 -4.93922e+00 
-7.09443e+00  3.19832e+00 -5.16675e+00 
-6.86902e+00  3.09657e+00 -5.38725e+00 
-6.64365e+00  2.99487e+00 -5.60080e+00 
-6.41824e+00  2.89313e+00 -5.80733e+00 
-6.19288e+00  2.79144e+00 -6.00690e+00 
-5.96748e+00  2.68971e+00 -6.19943e+00 
-5.74213e+00  2.58804e+00 -6.38499e+00 
-5.51674e+00  2.48634e+00 -6.56351e+00 
-5.29141e+00  2.38469e+00 -6.73503e+00 
-5.06605e+00  2.28301e+00 -6.89949e+00 
-4.84074e+00  2.18139e+00 -7.05694e+00 
-4.61541e+00  2.07975e+00 -7.20731e+00 
-4.39014e+00  1.97816e+00 -7.35064e+00 
-4.16484e+00  1.87655e+00 -7.48688e+00 
-3.93960e+00  1.77500e+00 -7.61605e+00 
-3.71433e+00  1.67343e+00 -7.73810e+00 
-3.48913e+00  1.57191e+00 -7.85307e+00 
-3.26390e+00  1.47038e+00 -7.96090e+00 
-3.03873e+00  1.36890e+00 -8.06161e+00 
-2.81354e+00  1.26740e+00 -8.15517e+00 
-2.58840e+00  1.16596e+00 -8.24159e+00 
-2.36324e+00  1.06449e+00 -8.32084e+00 
-2.13814e+00  9.63079e-01 -8.39293e+00 
-1.91301e+00  8.61644e-01 -8.45782e+00 
-1.68794e+00  7.60259e-01 -8.51553e+00 
-1.46284e+00  6.58849e-01 -8.56604e+00 
-1.23779e+00  5.57486e-01 -8.60936e+00 
-1.01270e+00  4.56096e-01 -8.64546e+00 
-7.87670e-01  3.54750e-01 -8.67435e+00 
-5.62600e-01  2.53374e-01 -8.69601e+00 
-3.37578e-01  1.52038e-01 -8.71046e+00 
-1.12515e-01  5.06686e-02 -8.71769e+00 
 1.12515e-01 -5.06686e-02 -8.71769e+00 
 3.37578e-01 -1.52038e-01 -8.71046e+00 
 5.62600e-01 -2.53374e-01 -8.69601e+00 
 7.87670e-01 -3.54750e-01 -8.67435e+00 
 1.01270e+00 -4.56096e-01 -8.64546e+00 
 1.23779e+00 -5.57486e-01 -8.60936e+00 
 1.46284e+00 -6.58849e-01 -8.56604e+00 
 1.68794e+00 -7.60259e-01 -8.51553e+00 
 1.91301e+00 -8.61644e-01 -8.45782e+00 
 2.13814e+00 -9.63079e-01 -8.39293e+00 
 2.36324e+00 -1.06449e+00 -8.32084e+00 
 2.58840e+00 -1.16596e+00 -8.24159e+00 
 2.81354e+00 -1.26740e+00 -8.15517e+00 
 3.03873e+00 -1.36890e+00 -8.06161e+00 
 3.26390e+00 -1.47038e+00 -7.96090e+00 
 3.48913e+00 -1.57191e+00 -7.85307e+00 
 3.71433e+00 -1.67343e+00 -7.73810e+00 
 3.93960e+00 -1.77500e+00 -7.61605e+00 
 4.16484e+00 -1.87655e+00 -7.48688e+00 
 4.39014e+00 -1.97816e+00 -7.35064e+00 
 4.61541e+00 -2.07975e+00 -7.20731e+00 
 4.84074e+00 -2.18139e+00 -7.05694e+00 
 5.06605e+00 -2.28301e+00 -6.89949e+00 
 5.29141e+00 -2.38469e+00 -6.73503e+00 
 5.51674e+00 -2.48634e+00 -6.56351e+00 
 5.74213e+00 -2.58804e+00 -6.38499e+00 
 5.96748e+00 -2.68971e+00 -6.19943e+00 
 6.19288e+00 -2.79144e+00 -6.00690e+00 
 6.41824e+00 -2.89313e+00 -5.80733e+00 
 6.64365e+00 -2.99487e+00 -5.60080e+00 
 6.86902e+00 -3.09657e+00 -5.38725e+00 
 7.09443e+00 -3.19832e+00 -5.16675e+00 
 7.31980e+00 -3.30003e+00 -4.93922e+00 
 7.54520e+00 -3.40177e+00 -4.70474e+00 
 7.77055e+00 -3.50348e+00 -4.46324e+00 
 7.99594e+00 -3.60521e+00 -4.21480e+00 
 8.22127e+00 -3.70690e+00 -3.95932e+00 
 8.44663e+00 -3.80862e+00 -3.69688e+00 
 8.67193e+00 -3.91030e+00 -3.42740e+00 
 8.89725e+00 -4.01200e+00 -3.15096e+00 
 9.12251e+00 -4.11364e+00 -2.86744e+00 
 9.34780e+00 -4.21531e+00 -2.57694e+00 
 9.57302e+00 -4.31693e+00 -2.27935e+00 
 9.79825e+00 -4.41856e+00 -1.97475e+00 
 1.00234e+01 -4.52014e+00 -1.66302e+00 
 1.02486e+01 -4.62173e+00 -1.34426e+00 
 1.04737e+01 -4.72327e+00 -1.01834e+00 
 1.06989e+01 -4.82483e+00 -6.85353e-01 
 1.09239e+01 -4.92633e+00 -3.45164e-01 
 1.11490e+01 -5.05351e+00 -1.83765e-01 
-1.09072e+01  4.94389e+00 -1.83725e-01 
-1.06871e+01  4.81951e+00 -3.45088e-01 
-1.04669e+01  4.72022e+00 -6.85200e-01 
-1.02467e+01  4.62086e+00 -1.01811e+00 
-1.00265e+01  4.52151e+00 -1.34396e+00 
-9.80615e+00  4.42209e+00 -1.66264e+00 
-9.58585e+00  4.32267e+00 -1.97430e+00 
-9.36546e+00  4.22320e+00 -2.27883e+00 
-9.14508e+00  4.12373e+00 -2.57636e+00 
-8.92462e+00  4.02420e+00 -2.86681e+00 
-8.70417e+00  3.92468e+00 -3.15027e+00 
-8.48366e+00  3.82511e+00 -3.42668e+00 
-8.26316e+00  3.72555e+00 -3.69613e+00 
-8.04259e+00  3.62595e+00 -3.95854e+00 
-7.82205e+00  3.52637e+00 -4.21400e+00 
-7.60145e+00  3.42675e+00 -4.46244e+00 
-7.38089e+00  3.32715e+00 -4.70394e+00 
-7.16027e+00  3.22752e+00 -4.93842e+00 
-6.93969e+00  3.12792e+00 -5.16597e+00 
-6.71906e+00  3.02830e+00 -5.38650e+00 
-6.49849e+00  2.92871e+00 -5.60010e+00 
-6.27787e+00  2.82910e+00 -5.80667e+00 
-6.05731e+00  2.72954e+00 -6.00629e+00 
-5.83671e+00  2.62995e+00 -6.19888e+00 
-5.61618e+00  2.53042e+00 -6.38451e+00 
-5.39561e+00  2.43087e+00 -6.56309e+00 
-5.17511e+00  2.33138e+00 -6.73469e+00 
-4.95459e+00  2.23188e+00 -6.89923e+00 
-4.73414e+00  2.13243e+00 -7.05677e+00 
-4.51366e+00  2.03298e+00 -7.20723e+00 
-4.29326e+00  1.93359e+00 -7.35065e+00 
-4.07284e+00  1.83419e+00 -7.48698e+00 
-3.85250e+00  1.73485e+00 -7.61624e+00 
-3.63213e+00  1.63551e+00 -7.73839e+00 
-3.41185e+00  1.53623e+00 -7.85345e+00 
-3.19154e+00  1.43695e+00 -7.96137e+00 
-2.97131e+00  1.33773e+00 -8.06218e+00 
-2.75107e+00  1.23850e+00 -8.15582e+00 
-2.53089e+00  1.13933e+00 -8.24233e+00 
-2.31070e+00  1.04015e+00 -8.32165e+00 
-2.09057e+00  9.41028e-01 -8.39381e+00 
-1.87043e+00  8.41893e-01 -8.45877e+00 
-1.65035e+00  7.42815e-01 -8.51655e+00 
-1.43024e+00  6.43718e-01 -8.56711e+00 
-1.21019e+00  5.44674e-01 -8.61048e+00 
-9.90120e-01  4.45607e-01 -8.64661e+00 
-7.70101e-01  3.46588e-01 -8.67554e+00 
-5.50048e-01  2.47542e-01 -8.69723e+00 
-3.30046e-01  1.48538e-01 -8.71169e+00 
-1.10004e-01  4.95018e-02 -8.71893e+00 
 1.10004e-01 -4.95018e-02 -8.71893e+00 
 3.30046e-01 -1.48538e-01 -8.71169e+00 
 5.50048e-01 -2.47542e-01 -8.69723e+00 
 7.70101e-01 -3.46588e-01 -8.67554e+00 
 9.90120e-01 -4.45607e-01 -8.64661e+00 
 1.21019e+00 -5.44674e-01 -8.61048e+00 
 1.43024e+00 -6.43718e-01 -8.56711e+00 
 1.65035e+00 -7.42815e-01 -8.51655e+00 
 1.87043e+00 -8.41893e-01 -8.45877e+00 
 2.09057e+00 -9.41028e-01 -8.39381e+00 
 2.31070e+00 -1.04015e+00 -8.32165e+00 
 2.53089e+00 -1.13933e+00 -8.24233e+00 
 2.75107e+00 -1.23850e+00 -8.15582e+00 
 2.97131e+00 -1.33773e+00 -8.06218e+00 
 3.19154e+00 -1.43695e+00 -7.96137e+00 
 3.41185e+00 -1.53623e+00 -7.85345e+00 
 3.63213e+00 -1.63551e+00 -7.73839e+00 
 3.85250e+00 -1.73485e+00 -7.61624e+00 
 4.07284e+00 -1.83419e+00 -7.48698e+00 
 4.29326e+00 -1.93359e+00 -7.35065e+00 
 4.51366e+00 -2.03298e+00 -7.20723e+00 
 4.73414e+00 -2.13243e+00 -7.05677e+00 
 4.95459e+00 -2.23188e+00 -6.89923e+00 
 5.17511e+00 -2.33138e+00 -6.73469e+00 
 5.39561e+00 -2.43087e+00 -6.56309e+00 
 5.61618e+00 -2.53042e+00 -6.38451e+00 
 5.83671e+00 -2.62995e+00 -6.19888e+00 
 6.05731e+00 -2.72954e+00 -6.00629e+00 
 6.27787e+00 -2.82910e+00 -5.80667e+00 
 6.49849e+00 -2.92871e+00 -5.60010e+00 
 6.71906e+00 -3.02830e+00 -5.38650e+00 
 6.93969e+00 -3.12792e+00 -5.16597e+00 
 7.16027e+00 -3.22752e+00 -4.93842e+00 
 7.38089e+00 -3.32715e+00 -4.70394e+00 
 7.60145e+00 -3.42675e+00 -4.46244e+00 
 7.82205e+00 -3.52637e+00 -4.21400e+00 
 8.04259e+00 -3.62595e+00 -3.95854e+00 
 8.26316e+00 -3.72555e+00 -3.69613e+00 
 8.48366e+00 -3.82511e+00 -3.42668e+00 
 8.70417e+00 -3.92468e+00 -3.15027e+00 
 8.92462e+00 -4.02420e+00 -2.86681e+00 
 9.14508e+00 -4.12373e+00 -2.57636e+00 
 9.36546e+00 -4.22320e+00 -2.27883e+00 
 9.58585e+00 -4.32267e+00 -1.97430e+00 
 9.80615e+00 -4.42209e+00 -1.66264e+00 
 1.00265e+01 -4.52151e+00 -1.34396e+00 
 1.02467e+01 -4.62086e+00 -1.01811e+00 
 1.04669e+01 -4.72022e+00 -6.85200e-01 
 1.06871e+01 -4.81951e+00 -3.45088e-01 
 1.09072e+01 -4.94389e+00 -1.83725e-01 
-1.06655e+01  4.83430e+00 -1.83663e-01 
-1.04503e+01  4.71271e+00 -3.44970e-01 
-1.02350e+01  4.61563e+00 -6.84965e-01 
-1.00197e+01  4.51848e+00 -1.01776e+00 
-9.80438e+00  4.42131e+00 -1.34349e+00 
-9.58894e+00  4.32406e+00 -1.66207e+00 
-9.37349e+00  4.22681e+00 -1.97362e+00 
-9.15795e+00  4.12948e+00 -2.27806e+00 
-8.94240e+00  4.03215e+00 -2.57551e+00 
-8.72676e+00  3.93475e+00 -2.86587e+00 
-8.51112e+00  3.83736e+00 -3.14927e+00 
-8.29540e+00  3.73990e+00 -3.42562e+00 
-8.07969e+00  3.64246e+00 -3.69503e+00 
-7.86392e+00  3.54497e+00 -3.95740e+00 
-7.64816e+00  3.44749e+00 -4.21285e+00 
-7.43234e+00  3.34997e+00 -4.46128e+00 
-7.21654e+00  3.25248e+00 -4.70279e+00 
-7.00070e+00  3.15496e+00 -4.93729e+00 
-6.78490e+00  3.05747e+00 -5.16487e+00 
-6.56905e+00  2.95995e+00 -5.38545e+00 
-6.35326e+00  2.86248e+00 -5.59909e+00 
-6.13743e+00  2.76498e+00 -5.80573e+00 
-5.92166e+00  2.66754e+00 -6.00543e+00 
-5.70586e+00  2.57009e+00 -6.19811e+00 
-5.49013e+00  2.47270e+00 -6.38383e+00 
-5.27439e+00  2.37530e+00 -6.56252e+00 
-5.05871e+00  2.27797e+00 -6.73423e+00 
-4.84303e+00  2.18063e+00 -6.89890e+00 
-4.62742e+00  2.08336e+00 -7.05655e+00 
-4.41180e+00  1.98610e+00 -7.20714e+00 
-4.19627e+00  1.88890e+00 -7.35069e+00 
-3.98073e+00  1.79171e+00 -7.48715e+00 
-3.76528e+00  1.69460e+00 -7.61655e+00 
-3.54983e+00  1.59749e+00 -7.73883e+00 
-3.33446e+00  1.50045e+00 -7.85402e+00 
-3.11908e+00  1.40342e+00 -7.96207e+00 
-2.90379e+00  1.30646e+00 -8.06300e+00 
-2.68850e+00  1.20950e+00 -8.15677e+00 
-2.47328e+00  1.11261e+00 -8.24339e+00 
-2.25806e+00  1.01572e+00 -8.32282e+00 
-2.04292e+00  9.18899e-01 -8.39508e+00 
-1.82777e+00  8.22072e-01 -8.46014e+00 
-1.61268e+00  7.25307e-01 -8.51800e+00 
-1.39758e+00  6.28532e-01 -8.56864e+00 
-1.18255e+00  5.31814e-01 -8.61207e+00 
-9.67496e-01  4.35079e-01 -8.64826e+00 
-7.52499e-01  3.38394e-01 -8.67723e+00 
-5.37473e-01  2.41687e-01 -8.69896e+00 
-3.22499e-01  1.45024e-01 -8.71345e+00 
-1.07489e-01  4.83306e-02 -8.72069e+00 
 1.07489e-01 -4.83306e-02 -8.72069e+00 
 3.22499e-01 -1.45024e-01 -8.71345e+00 
 5.37473e-01 -2.41687e-01 -8.69896e+00 
 7.52499e-01 -3.38394e-01 -8.67723e+00 
 9.67496e-01 -4.35079e-01 -8.64826e+00 
 1.18255e+00 -5.31814e-01 -8.61207e+00 
 1.39758e+00 -6.28532e-01 -8.56864e+00 
 1.61268e+00 -7.25307e-01 -8.51800e+00 
 1.82777e+00 -8.22072e-01 -8.46014e+00 
 2.04292e+00 -9.18899e-01 -8.39508e+00 
 2.25806e+00 -1.01572e+00 -8.32282e+00 
 2.47328e+00 -1.11261e+00 -8.24339e+00 
 2.68850e+00 -1.20950e+00 -8.15677e+00 
 2.90379e+00 -1.30646e+00 -8.06300e+00 
 3.11908e+00 -1.40342e+00 -7.96207e+00 
 3.33446e+00 -1.50045e+00 -7.85402e+00 
 3.54983e+00 -1.59749e+00 -7.73883e+00 
 3.76528e+00 -1.69460e+00 -7.61655e+00 
 3.98073e+00 -1.79171e+00 -7.48715e+00 
 4.19627e+00 -1.88890e+00 -7.35069e+00 
 4.41180e+00 -1.98610e+00 -7.20714e+00 
 4.62742e+00 -2.08336e+00 -7.05655e+00 
 4.84303e+00 -2.18063e+00 -6.89890e+00 
 5.05871e+00 -2.27797e+00 -6.73423e+00 
 5.27439e+00 -2.37530e+00 -6.56252e+00 
 5.49013e+00 -2.47270e+00 -6.38383e+00 
 5.70586e+00 -2.57009e+00 -6.19811e+00 
 5.92166e+00 -2.66754e+00 -6.00543e+00 
 6.13743e+00 -2.76498e+00 -5.80573e+00 
 6.35326e+00 -2.86248e+00 -5.59909e+00 
 6.56905e+00 -2.95995e+00 -5.38545e+00 
 6.78490e+00 -3.05747e+00 -5.16487e+00 
 7.00070e+00 -3.15496e+00 -4.93729e+00 
 7.21654e+00 -3.25248e+00 -4.70279e+00 
 7.43234e+00 -3.34997e+00 -4.46128e+00 
 7.64816e+00 -3.44749e+00 -4.21285e+00 
 7.86392e+00 -3.54497e+00 -3.95740e+00 
 8.07969e+00 -3.64246e+00 -3.69503e+00 
 8.29540e+00 -3.73990e+00 -3.42562e+00 
 8.51112e+00 -3.83736e+00 -3.14927e+00 
 8.72676e+00 -3.93475e+00 -2.86587e+00 
 8.94240e+00 -4.03215e+00 -2.57551e+00 
 9.15795e+00 -4.12948e+00 -2.27806e+00 
 9.37349e+00 -4.22681e+00 -1.97362e+00 
 9.58894e+00 -4.32406e+00 -1.66207e+00 
 9.80438e+00 -4.42131e+00 -1.34349e+00 
 1.00197e+01 -4.51848e+00 -1.01776e+00 
 1.02350e+01 -4.61563e+00 -6.84965e-01 
 1.04503e+01 -4.71271e+00 -3.44970e-01 
 1.06655e+01 -4.83430e+00 -1.83663e-01 
-1.04238e+01  4.72476e+00 -1.83577e-01 
-1.02136e+01  4.60596e+00 -3.44808e-01 
-1.00033e+01  4.51109e+00 -6.84641e-01 
-9.79284e+00  4.41613e+00 -1.01728e+00 
-9.58238e+00  4.32114e+00 -1.34286e+00 
-9.37181e+00  4.22606e+00 -1.66129e+00 
-9.16121e+00  4.13096e+00 -1.97270e+00 
-8.95050e+00  4.03578e+00 -2.27701e+00 
-8.73977e+00  3.94058e+00 -2.57434e+00 
-8.52894e+00  3.84531e+00 -2.86461e+00 
-8.31810e+00  3.75003e+00 -3.14792e+00 
-8.10717e+00  3.65468e+00 -3.42420e+00 
-7.89624e+00  3.55934e+00 -3.69355e+00 
-7.68524e+00  3.46395e+00 -3.95589e+00 
-7.47425e+00  3.36857e+00 -4.21131e+00 
-7.26319e+00  3.27314e+00 -4.45974e+00 
-7.05216e+00  3.17774e+00 -4.70126e+00 
-6.84108e+00  3.08231e+00 -4.93579e+00 
-6.63004e+00  2.98692e+00 -5.16342e+00 
-6.41896e+00  2.89150e+00 -5.38406e+00 
-6.20794e+00  2.79614e+00 -5.59778e+00 
-5.99689e+00  2.70076e+00 -5.80451e+00 
-5.78590e+00  2.60543e+00 -6.00431e+00 
-5.57490e+00  2.51011e+00 -6.19711e+00 
-5.36397e+00  2.41485e+00 -6.38296e+00 
-5.15303e+00  2.31959e+00 -6.56179e+00 
-4.94217e+00  2.22441e+00 -6.73365e+00 
-4.73132e+00  2.12924e+00 -6.89847e+00 
-4.52056e+00  2.03415e+00 -7.05629e+00 
-4.30980e+00  1.93907e+00 -7.20704e+00 
-4.09913e+00  1.84407e+00 -7.35077e+00 
-3.88848e+00  1.74909e+00 -7.48740e+00 
-3.67792e+00  1.65420e+00 -7.61697e+00 
-3.46737e+00  1.55932e+00 -7.73943e+00 
-3.25692e+00  1.46453e+00 -7.85479e+00 
-3.04648e+00  1.36975e+00 -7.96301e+00 
-2.83614e+00  1.27506e+00 -8.06410e+00 
-2.62580e+00  1.18038e+00 -8.15802e+00 
-2.41555e+00  1.08578e+00 -8.24479e+00 
-2.20532e+00  9.91187e-01 -8.32437e+00 
-1.99516e+00  8.96672e-01 -8.39676e+00 
-1.78501e+00  8.02161e-01 -8.46194e+00 
-1.57493e+00  7.07719e-01 -8.51991e+00 
-1.36485e+00  6.13275e-01 -8.57065e+00 
-1.15484e+00  5.18893e-01 -8.61417e+00 
-9.44817e-01  4.24500e-01 -8.65044e+00 
-7.34854e-01  3.30162e-01 -8.67946e+00 
-5.24867e-01  2.35804e-01 -8.70123e+00 
-3.14934e-01  1.41493e-01 -8.71575e+00 
-1.04967e-01  4.71537e-02 -8.72301e+00 
 1.04967e-01 -4.71537e-02 -8.72301e+00 
 3.14934e-01 -1.41493e-01 -8.71575e+00 
 5.24867e-01 -2.35804e-01 -8.70123e+00 
 7.34854e-01 -3.30162e-01 -8.67946e+00 
 9.44817e-01 -4.24500e-01 -8.65044e+00 
 1.15484e+00 -5.18893e-01 -8.61417e+00 
 1.36485e+00 -6.13275e-01 -8.57065e+00 
 1.57493e+00 -7.07719e-01 -8.51991e+00 
 1.78501e+00 -8.02161e-01 -8.46194e+00 
 1.99516e+00 -8.96672e-01 -8.39676e+00 
 2.20532e+00 -9.91187e-01 -8.32437e+00 
 2.41555e+00 -1.08578e+00 -8.24479e+00 
 2.62580e+00 -1.18038e+00 -8.15802e+00 
 2.83614e+00 -1.27506e+00 -8.06410e+00 
 3.04648e+00 -1.36975e+00 -7.96301e+00 
 3.25692e+00 -1.46453e+00 -7.85479e+00 
 3.46737e+00 -1.55932e+00 -7.73943e+00 
 3.67792e+00 -1.65420e+00 -7.61697e+00 
 3.88848e+00 -1.74909e+00 -7.48740e+00 
 4.09913e+00 -1.84407e+00 -7.35077e+00 
 4.30980e+00 -1.93907e+00 -7.20704e+00 
 4.52056e+00 -2.03415e+00 -7.05629e+00 
 4.73132e+00 -2.12924e+00 -6.89847e+00 
 4.94217e+00 -2.22441e+00 -6.73365e+00 
 5.15303e+00 -2.31959e+00 -6.56179e+00 
 5.36397e+00 -2.41485e+00 -6.38296e+00 
 5.57490e+00 -2.51011e+00 -6.19711e+00 
 5.78590e+00 -2.60543e+00 -6.00431e+00 
 5.99689e+00 -2.70076e+00 -5.80451e+00 
 6.20794e+00 -2.79614e+00 -5.59778e+00 
 6.41896e+00 -2.89150e+00 -5.38406e+00 
 6.63004e+00 -2.98692e+00 -5.16342e+00 
 6.84108e+00 -3.08231e+00 -4.93579e+00 
 7.05216e+00 -3.17774e+00 -4.70126e+00 
 7.26319e+00 -3.27314e+00 -4.45974e+00 
 7.47425e+00 -3.36857e+00 -4.21131e+00 
 7.68524e+00 -3.46395e+00 -3.95589e+00 
 7.89624e+00 -3.55934e+00 -3.69355e+00 
 8.10717e+00 -3.65468e+00 -3.42420e+00 
 8.31810e+00 -3.75003e+00 -3.14792e+00 
 8.52894e+00 -3.84531e+00 -2.86461e+00 
 8.73977e+00 -3.94058e+00 -2.57434e+00 
 8.95050e+00 -4.03578e+00 -2.27701e+00 
 9.16121e+00 -4.13096e+00 -1.97270e+00 
 9.37181e+00 -4.22606e+00 -1.66129e+00 
 9.58238e+00 -4.32114e+00 -1.34286e+00 
 9.79284e+00 -4.41613e+00 -1.01728e+00 
 1.00033e+01 -4.51109e+00 -6.84641e-01 
 1.02136e+01 -4.60596e+00 -3.44808e-01 
 1.04238e+01 -4.72476e+00 -1.83577e-01 
-1.01823e+01  4.61528e+00 -1.83463e-01 
-9.97698e+00  4.49927e+00 -3.44595e-01 
-9.77160e+00  4.40661e+00 -6.84218e-01 
-9.56608e+00  4.31383e+00 -1.01665e+00 
-9.36050e+00  4.22102e+00 -1.34203e+00 
-9.15479e+00  4.12810e+00 -1.66027e+00 
-8.94903e+00  4.03515e+00 -1.97151e+00 
-8.74314e+00  3.94210e+00 -2.27566e+00 
-8.53722e+00  3.84902e+00 -2.57285e+00 
-8.33119e+00  3.75586e+00 -2.86299e+00 
-8.12513e+00  3.66269e+00 -3.14619e+00 
-7.91897e+00  3.56944e+00 -3.42238e+00 
-7.71280e+00  3.47619e+00 -3.69167e+00 
-7.50656e+00  3.38288e+00 -3.95396e+00 
-7.30031e+00  3.28958e+00 -4.20936e+00 
-7.09401e+00  3.19624e+00 -4.45778e+00 
-6.88773e+00  3.10292e+00 -4.69932e+00 
-6.68139e+00  3.00957e+00 -4.93390e+00 
-6.47510e+00  2.91627e+00 -5.16158e+00 
-6.26878e+00  2.82294e+00 -5.38230e+00 
-6.06251e+00  2.72967e+00 -5.59613e+00 
-5.85622e+00  2.63639e+00 -5.80298e+00 
-5.65000e+00  2.54318e+00 -6.00292e+00 
-5.44378e+00  2.44997e+00 -6.19586e+00 
-5.23764e+00  2.35684e+00 -6.38188e+00 
-5.03151e+00  2.26372e+00 -6.56089e+00 
-4.82546e+00  2.17069e+00 -6.73294e+00 
-4.61944e+00  2.07768e+00 -6.89795e+00 
-4.41351e+00  1.98475e+00 -7.05598e+00 
-4.20761e+00  1.89186e+00 -7.20694e+00 
-4.00181e+00  1.79906e+00 -7.35088e+00 
-3.79603e+00  1.70629e+00 -7.48773e+00 
-3.59037e+00  1.61362e+00 -7.61753e+00 
-3.38473e+00  1.52098e+00 -7.74020e+00 
-3.17920e+00  1.42844e+00 -7.85578e+00 
-2.97370e+00  1.33592e+00 -7.96421e+00 
-2.76831e+00  1.24350e+00 -8.06550e+00 
-2.56294e+00  1.15111e+00 -8.15962e+00 
-2.35767e+00  1.05880e+00 -8.24658e+00 
-2.15242e+00  9.66521e-01 -8.32633e+00 
-1.94727e+00  8.74323e-01 -8.39889e+00 
-1.74213e+00  7.82139e-01 -8.46422e+00 
-1.53707e+00  6.90032e-01 -8.52234e+00 
-1.33202e+00  5.97930e-01 -8.57320e+00 
-1.12705e+00  5.05897e-01 -8.61682e+00 
-9.22069e-01  4.13860e-01 -8.65318e+00 
-7.17156e-01  3.21880e-01 -8.68228e+00 
-5.12223e-01  2.29887e-01 -8.70411e+00 
-3.07346e-01  1.37941e-01 -8.71866e+00 
-1.02437e-01  4.59697e-02 -8.72594e+00 
 1.02437e-01 -4.59697e-02 -8.72594e+00 
 3.07346e-01 -1.37941e-01 -8.71866e+00 
 5.12223e-01 -2.29887e-01 -8.70411e+00 
 7.17156e-01 -3.21880e-01 -8.68228e+00 
 9.22069e-01 -4.13860e-01 -8.65318e+00 
 1.12705e+00 -5.05897e-01 -8.61682e+00 
 1.33202e+00 -5.97930e-01 -8.57320e+00 
 1.53707e+00 -6.90032e-01 -8.52234e+00 
 1.74213e+00 -7.82139e-01 -8.46422e+00 
 1.94727e+00 -8.74323e-01 -8.39889e+00 
 2.15242e+00 -9.66521e-01 -8.32633e+00 
 2.35767e+00 -1.05880e+00 -8.24658e+00 
 2.56294e+00 -1.15111e+00 -8.15962e+00 
 2.76831e+00 -1.24350e+00 -8.06550e+00 
 2.97370e+00 -1.33592e+00 -7.96421e+00 
 3.17920e+00 -1.42844e+00 -7.85578e+00 
 3.38473e+00 -1.52098e+00 -7.74020e+00 
 3.59037e+00 -1.61362e+00 -7.61753e+00 
 3.79603e+00 -1.70629e+00 -7.48773e+00 
 4.00181e+00 -1.79906e+00 -7.35088e+00 
 4.20761e+00 -1.89186e+00 -7.20694e+00 
 4.41351e+00 -1.98475e+00 -7.05598e+00 
 4.61944e+00 -2.07768e+00 -6.89795e+00 
 4.82546e+00 -2.17069e+00 -6.73294e+00 
 5.03151e+00 -2.26372e+00 -6.56089e+00 
 5.23764e+00 -2.35684e+00 -6.38188e+00 
 5.44378e+00 -2.44997e+00 -6.19586e+00 
 5.65000e+00 -2.54318e+00 -6.00292e+00 
 5.85622e+00 -2.63639e+00 -5.80298e+00 
 6.06251e+00 -2.72967e+00 -5.59613e+00 
 6.26878e+00 -2.82294e+00 -5.38230e+00 
 6.47510e+00 -2.91627e+00 -5.16158e+00 
 6.68139e+00 -3.00957e+00 -4.93390e+00 
 6.88773e+00 -3.10292e+00 -4.69932e+00 
 7.09401e+00 -3.19624e+00 -4.45778e+00 
 7.30031e+00 -3.28958e+00 -4.20936e+00 
 7.50656e+00 -3.38288e+00 -3.95396e+00 
 7.71280e+00 -3.47619e+00 -3.69167e+00 
 7.91897e+00 -3.56944e+00 -3.42238e+00 
 8.12513e+00 -3.66269e+00 -3.14619e+00 
 8.33119e+00 -3.75586e+00 -2.86299e+00 
 8.53722e+00 -3.84902e+00 -2.57285e+00 
 8.74314e+00 -3.94210e+00 -2.27566e+00 
 8.94903e+00 -4.03515e+00 -1.97151e+00 
 9.15479e+00 -4.12810e+00 -1.66027e+00 
 9.36050e+00 -4.22102e+00 -1.34203e+00 
 9.56608e+00 -4.31383e+00 -1.01665e+00 
 9.77160e+00 -4.40661e+00 -6.84218e-01 
 9.97698e+00 -4.49927e+00 -3.44595e-01 
 1.01823e+01 -4.61528e+00 -1.83463e-01 
-9.94095e+00  4.50587e+00 -1.83320e-01 
-9.74057e+00  4.39265e+00 -3.44326e-01 
-9.54010e+00  4.30219e+00 -6.83685e-01 
-9.33947e+00  4.21160e+00 -1.01586e+00 
-9.13877e+00  4.12096e+00 -1.34099e+00 
-8.93790e+00  4.03019e+00 -1.65900e+00 
-8.73697e+00  3.93938e+00 -1.97003e+00 
-8.53589e+00  3.84845e+00 -2.27398e+00 
-8.33476e+00  3.75748e+00 -2.57099e+00 
-8.13350e+00  3.66642e+00 -2.86097e+00 
-7.93221e+00  3.57533e+00 -3.14405e+00 
-7.73080e+00  3.48417e+00 -3.42013e+00 
-7.52938e+00  3.39299e+00 -3.68933e+00 
-7.32787e+00  3.30175e+00 -3.95157e+00 
-7.12636e+00  3.21052e+00 -4.20695e+00 
-6.92478e+00  3.11924e+00 -4.45537e+00 
-6.72322e+00  3.02800e+00 -4.69694e+00 
-6.52162e+00  2.93672e+00 -4.93157e+00 
-6.32006e+00  2.84548e+00 -5.15933e+00 
-6.11847e+00  2.75423e+00 -5.38016e+00 
-5.91694e+00  2.66304e+00 -5.59411e+00 
-5.71540e+00  2.57185e+00 -5.80110e+00 
-5.51394e+00  2.48074e+00 -6.00121e+00 
-5.31248e+00  2.38964e+00 -6.19435e+00 
-5.11112e+00  2.29863e+00 -6.38057e+00 
-4.90978e+00  2.20764e+00 -6.55980e+00 
-4.70854e+00  2.11675e+00 -6.73208e+00 
-4.50733e+00  2.02590e+00 -6.89734e+00 
-4.30624e+00  1.93515e+00 -7.05562e+00 
-4.10518e+00  1.84444e+00 -7.20684e+00 
-3.90425e+00  1.75383e+00 -7.35105e+00 
-3.70336e+00  1.66328e+00 -7.48817e+00 
-3.50259e+00  1.57283e+00 -7.61823e+00 
-3.30186e+00  1.48243e+00 -7.74117e+00 
-3.10127e+00  1.39214e+00 -7.85701e+00 
-2.90071e+00  1.30190e+00 -7.96569e+00 
-2.70027e+00  1.21176e+00 -8.06724e+00 
-2.49988e+00  1.12166e+00 -8.16160e+00 
-2.29960e+00  1.03166e+00 -8.24879e+00 
-2.09935e+00  9.41697e-01 -8.32875e+00 
-1.89921e+00  8.51828e-01 -8.40152e+00 
-1.69910e+00  7.61984e-01 -8.46703e+00 
-1.49908e+00  6.72225e-01 -8.52531e+00 
-1.29908e+00  5.82481e-01 -8.57632e+00 
-1.09916e+00  4.92812e-01 -8.62008e+00 
-8.99238e-01  4.03145e-01 -8.65655e+00 
-6.99391e-01  3.13541e-01 -8.68573e+00 
-4.99531e-01  2.23928e-01 -8.70763e+00 
-2.99729e-01  1.34364e-01 -8.72223e+00 
-9.98985e-02  4.47775e-02 -8.72953e+00 
 9.98985e-02 -4.47775e-02 -8.72953e+00 
 2.99729e-01 -1.34364e-01 -8.72223e+00 
 4.99531e-01 -2.23928e-01 -8.70763e+00 
 6.99391e-01 -3.13541e-01 -8.68573e+00 
 8.99238e-01 -4.03145e-01 -8.65655e+00 
 1.09916e+00 -4.92812e-01 -8.62008e+00 
 1.29908e+00 -5.82481e-01 -8.57632e+00 
 1.49908e+00 -6.72225e-01 -8.52531e+00 
 1.69910e+00 -7.61984e-01 -8.46703e+00 
 1.89921e+00 -8.51828e-01 -8.40152e+00 
 2.09935e+00 -9.41697e-01 -8.32875e+00 
 2.29960e+00 -1.03166e+00 -8.24879e+00 
 2.49988e+00 -1.12166e+00 -8.16160e+00 
 2.70027e+00 -1.21176e+00 -8.06724e+00 
 2.90071e+00 -1.30190e+00 -7.96569e+00 
 3.10127e+00 -1.39214e+00 -7.85701e+00 
 3.30186e+00 -1.48243e+00 -7.74117e+00 
 3.50259e+00 -1.57283e+00 -7.61823e+00 
 3.70336e+00 -1.66328e+00 -7.48817e+00 
 3.90425e+00 -1.75383e+00 -7.35105e+00 
 4.10518e+00 -1.84444e+00 -7.20684e+00 
 4.30624e+00 -1.93515e+00 -7.05562e+00 
 4.50733e+00 -2.02590e+00 -6.89734e+00 
 4.70854e+00 -2.11675e+00 -6.73208e+00 
 4.90978e+00 -2.20764e+00 -6.55980e+00 
 5.11112e+00 -2.29863e+00 -6.38057e+00 
 5.31248e+00 -2.38964e+00 -6.19435e+00 
 5.51394e+00 -2.48074e+00 -6.00121e+00 
 5.71540e+00 -2.57185e+00 -5.80110e+00 
 5.91694e+00 -2.66304e+00 -5.59411e+00 
 6.11847e+00 -2.75423e+00 -5.38016e+00 
 6.32006e+00 -2.84548e+00 -5.15933e+00 
 6.52162e+00 -2.93672e+00 -4.93157e+00 
 6.72322e+00 -3.02800e+00 -4.69694e+00 
 6.92478e+00 -3.11924e+00 -4.45537e+00 
 7.12636e+00 -3.21052e+00 -4.20695e+00 
 7.32787e+00 -3.30175e+00 -3.95157e+00 
 7.52938e+00 -3.39299e+00 -3.68933e+00 
 7.73080e+00 -3.48417e+00 -3.42013e+00 
 7.93221e+00 -3.57533e+00 -3.14405e+00 
 8.13350e+00 -3.66642e+00 -2.86097e+00 
 8.33476e+00 -3.75748e+00 -2.57099e+00 
 8.53589e+00 -3.84845e+00 -2.27398e+00 
 8.73697e+00 -3.93938e+00 -1.97003e+00 
 8.93790e+00 -4.03019e+00 -1.65900e+00 
 9.13877e+00 -4.12096e+00 -1.34099e+00 
 9.33947e+00 -4.21160e+00 -1.01586e+00 
 9.54010e+00 -4.30219e+00 -6.83685e-01 
 9.74057e+00 -4.39265e+00 -3.44326e-01 
 9.94095e+00 -4.50587e+00 -1.83320e-01 
-9.69981e+00  4.39655e+00 -1.83143e-01 
-9.50436e+00  4.28612e+00 -3.43994e-01 
-9.30881e+00  4.19786e+00 -6.83026e-01 
-9.11306e+00  4.10946e+00 -1.01488e+00 
-8.91721e+00  4.02097e+00 -1.33971e+00 
-8.72118e+00  3.93234e+00 -1.65744e+00 
-8.52506e+00  3.84365e+00 -1.96820e+00 
-8.32877e+00  3.75483e+00 -2.27191e+00 
-8.13241e+00  3.66596e+00 -2.56871e+00 
-7.93591e+00  3.57698e+00 -2.85851e+00 
-7.73935e+00  3.48796e+00 -3.14143e+00 
-7.54268e+00  3.39886e+00 -3.41739e+00 
-7.34597e+00  3.30974e+00 -3.68650e+00 
-7.14917e+00  3.22055e+00 -3.94868e+00 
-6.95237e+00  3.13137e+00 -4.20402e+00 
-6.75549e+00  3.04214e+00 -4.45246e+00 
-6.55864e+00  2.95294e+00 -4.69406e+00 
-6.36174e+00  2.86372e+00 -4.92876e+00 
-6.16489e+00  2.77453e+00 -5.15662e+00 
-5.96801e+00  2.68535e+00 -5.37757e+00 
-5.77120e+00  2.59623e+00 -5.59168e+00 
-5.57439e+00  2.50712e+00 -5.79886e+00 
-5.37767e+00  2.41809e+00 -5.99918e+00 
-5.18096e+00  2.32909e+00 -6.19254e+00 
-4.98437e+00  2.24019e+00 -6.37902e+00 
-4.78780e+00  2.15132e+00 -6.55851e+00 
-4.59136e+00  2.06257e+00 -6.73107e+00 
-4.39496e+00  1.97387e+00 -6.89663e+00 
-4.19870e+00  1.88528e+00 -7.05521e+00 
-4.00249e+00  1.79676e+00 -7.20675e+00 
-3.80641e+00  1.70835e+00 -7.35128e+00 
-3.61040e+00  1.62001e+00 -7.48872e+00 
-3.41453e+00  1.53179e+00 -7.61910e+00 
-3.21873e+00  1.44364e+00 -7.74236e+00 
-3.02306e+00  1.35561e+00 -7.85851e+00 
-2.82746e+00  1.26764e+00 -7.96750e+00 
-2.63199e+00  1.17979e+00 -8.06935e+00 
-2.43658e+00  1.09200e+00 -8.16399e+00 
-2.24130e+00  1.00432e+00 -8.25145e+00 
-2.04607e+00  9.16690e-01 -8.33168e+00 
-1.85096e+00  8.29164e-01 -8.40468e+00 
-1.65589e+00  7.41675e-01 -8.47042e+00 
-1.46093e+00  6.54280e-01 -8.52890e+00 
-1.26599e+00  5.66910e-01 -8.58009e+00 
-1.07114e+00  4.79622e-01 -8.62399e+00 
-8.76308e-01  3.92345e-01 -8.66059e+00 
-6.81550e-01  3.05134e-01 -8.68989e+00 
-4.86784e-01  2.17920e-01 -8.71186e+00 
-2.92079e-01  1.30758e-01 -8.72652e+00 
-9.73484e-02  4.35754e-02 -8.73384e+00 
 9.73484e-02 -4.35754e-02 -8.73384e+00 
 2.92079e-01 -1.30758e-01 -8.72652e+00 
 4.86784e-01 -2.17920e-01 -8.71186e+00 
 6.81550e-01 -3.05134e-01 -8.68989e+00 
 8.76308e-01 -3.92345e-01 -8.66059e+00 
 1.07114e+00 -4.79622e-01 -8.62399e+00 
 1.26599e+00 -5.66910e-01 -8.58009e+00 
 1.46093e+00 -6.54280e-01 -8.52890e+00 
 1.65589e+00 -7.41675e-01 -8.47042e+00 
 1.85096e+00 -8.29164e-01 -8.40468e+00 
 2.04607e+00 -9.16690e-01 -8.33168e+00 
 2.24130e+00 -1.00432e+00 -8.25145e+00 
 2.43658e+00 -1.09200e+00 -8.16399e+00 
 2.63199e+00 -1.17979e+00 -8.06935e+00 
 2.82746e+00 -1.26764e+00 -7.96750e+00 
 3.02306e+00 -1.35561e+00 -7.85851e+00 
 3.21873e+00 -1.44364e+00 -7.74236e+00 
 3.41453e+00 -1.53179e+00 -7.61910e+00 
 3.61040e+00 -1.62001e+00 -7.48872e+00 
 3.80641e+00 -1.70835e+00 -7.35128e+00 
 4.00249e+00 -1.79676e+00 -7.20675e+00 
 4.19870e+00 -1.88528e+00 -7.05521e+00 
 4.39496e+00 -1.97387e+00 -6.89663e+00 
 4.59136e+00 -2.06257e+00 -6.73107e+00 
 4.78780e+00 -2.15132e+00 -6.55851e+00 
 4.98437e+00 -2.24019e+00 -6.37902e+00 
 5.18096e+00 -2.32909e+00 -6.19254e+00 
 5.37767e+00 -2.41809e+00 -5.99918e+00 
 5.57439e+00 -2.50712e+00 -5.79886e+00 
 5.77120e+00 -2.59623e+00 -5.59168e+00 
 5.96801e+00 -2.68535e+00 -5.37757e+00 
 6.16489e+00 -2.77453e+00 -5.15662e+00 
 6.36174e+00 -2.86372e+00 -4.92876e+00 
 6.55864e+00 -2.95294e+00 -4.69406e+00 
 6.75549e+00 -3.04214e+00 -4.45246e+00 
 6.95237e+00 -3.13137e+00 -4.20402e+00 
 7.14917e+00 -3.22055e+00 -3.94868e+00 
 7.34597e+00 -3.30974e+00 -3.68650e+00 
 7.54268e+00 -3.39886e+00 -3.41739e+00 
 7.73935e+00 -3.48796e+00 -3.14143e+00 
 7.93591e+00 -3.57698e+00 -2.85851e+00 
 8.13241e+00 -3.66596e+00 -2.56871e+00 
 8.32877e+00 -3.75483e+00 -2.27191e+00 
 8.52506e+00 -3.84365e+00 -1.96820e+00 
 8.72118e+00 -3.93234e+00 -1.65744e+00 
 8.91721e+00 -4.02097e+00 -1.33971e+00 
 9.11306e+00 -4.10946e+00 -1.01488e+00 
 9.30881e+00 -4.19786e+00 -6.83026e-01 
 9.50436e+00 -4.28612e+00 -3.43994e-01 
 9.69981e+00 -4.39655e+00 -1.83143e-01 
-9.45892e+00  4.28735e+00 -1.82927e-01 
-9.26841e+00  4.17970e+00 -3.43589e-01 
-9.07776e+00  4.09364e+00 -6.82225e-01 
-8.88688e+00  4.00741e+00 -1.01370e+00 
-8.69587e+00  3.92107e+00 -1.33817e+00 
-8.50466e+00  3.83457e+00 -1.65555e+00 
-8.31332e+00  3.74799e+00 -1.96600e+00 
-8.12180e+00  3.66126e+00 -2.26942e+00 
-7.93019e+00  3.57446e+00 -2.56597e+00 
-7.73841e+00  3.48754e+00 -2.85555e+00 
-7.54657e+00  3.40058e+00 -3.13828e+00 
-7.35459e+00  3.31352e+00 -3.41410e+00 
-7.16258e+00  3.22643e+00 -3.68310e+00 
-6.97046e+00  3.13927e+00 -3.94522e+00 
-6.77833e+00  3.05212e+00 -4.20054e+00 
-6.58613e+00  2.96492e+00 -4.44898e+00 
-6.39395e+00  2.87774e+00 -4.69063e+00 
-6.20173e+00  2.79055e+00 -4.92542e+00 
-6.00956e+00  2.70340e+00 -5.15341e+00 
-5.81737e+00  2.61626e+00 -5.37452e+00 
-5.62526e+00  2.52919e+00 -5.58882e+00 
-5.43315e+00  2.44214e+00 -5.79622e+00 
-5.24115e+00  2.35519e+00 -5.99678e+00 
-5.04918e+00  2.26827e+00 -6.19042e+00 
-4.85733e+00  2.18147e+00 -6.37719e+00 
-4.66553e+00  2.09472e+00 -6.55701e+00 
-4.47387e+00  2.00810e+00 -6.72991e+00 
-4.28228e+00  1.92155e+00 -6.89582e+00 
-4.09083e+00  1.83512e+00 -7.05476e+00 
-3.89946e+00  1.74878e+00 -7.20667e+00 
-3.70825e+00  1.66257e+00 -7.35158e+00 
-3.51712e+00  1.57645e+00 -7.48940e+00 
-3.32615e+00  1.49047e+00 -7.62016e+00 
-3.13527e+00  1.40456e+00 -7.74379e+00 
-2.94455e+00  1.31880e+00 -7.86032e+00 
-2.75391e+00  1.23312e+00 -7.96967e+00 
-2.56342e+00  1.14757e+00 -8.07187e+00 
-2.37301e+00  1.06210e+00 -8.16685e+00 
-2.18275e+00  9.76754e-01 -8.25463e+00 
-1.99255e+00  8.91470e-01 -8.33516e+00 
-1.80249e+00  8.06303e-01 -8.40844e+00 
-1.61248e+00  7.21187e-01 -8.47444e+00 
-1.42259e+00  6.36175e-01 -8.53315e+00 
-1.23274e+00  5.51199e-01 -8.58455e+00 
-1.04299e+00  4.66313e-01 -8.62864e+00 
-8.53262e-01  3.81445e-01 -8.66539e+00 
-6.63617e-01  2.96650e-01 -8.69481e+00 
-4.73971e-01  2.11857e-01 -8.71688e+00 
-2.84389e-01  1.27118e-01 -8.73160e+00 
-9.47852e-02  4.23622e-02 -8.73896e+00 
 9.47852e-02 -4.23622e-02 -8.73896e+00 
 2.84389e-01 -1.27118e-01 -8.73160e+00 
 4.73971e-01 -2.11857e-01 -8.71688e+00 
 6.63617e-01 -2.96650e-01 -8.69481e+00 
 8.53262e-01 -3.81445e-01 -8.66539e+00 
 1.04299e+00 -4.66313e-01 -8.62864e+00 
 1.23274e+00 -5.51199e-01 -8.58455e+00 
 1.42259e+00 -6.36175e-01 -8.53315e+00 
 1.61248e+00 -7.21187e-01 -8.47444e+00 
 1.80249e+00 -8.06303e-01 -8.40844e+00 
 1.99255e+00 -8.91470e-01 -8.33516e+00 
 2.18275e+00 -9.76754e-01 -8.25463e+00 
 2.37301e+00 -1.06210e+00 -8.16685e+00 
 2.56342e+00 -1.14757e+00 -8.07187e+00 
 2.75391e+00 -1.23312e+00 -7.96967e+00 
 2.94455e+00 -1.31880e+00 -7.86032e+00 
 3.13527e+00 -1.40456e+00 -7.74379e+00 
 3.32615e+00 -1.49047e+00 -7.62016e+00 
 3.51712e+00 -1.57645e+00 -7.48940e+00 
 3.70825e+00 -1.66257e+00 -7.35158e+00 
 3.89946e+00 -1.74878e+00 -7.20667e+00 
 4.09083e+00 -1.83512e+00 -7.05476e+00 
 4.28228e+00 -1.92155e+00 -6.89582e+00 
 4.47387e+00 -2.00810e+00 -6.72991e+00 
 4.66553e+00 -2.09472e+00 -6.55701e+00 
 4.85733e+00 -2.18147e+00 -6.37719e+00 
 5.04918e+00 -2.26827e+00 -6.19042e+00 
 5.24115e+00 -2.35519e+00 -5.99678e+00 
 5.43315e+00 -2.44214e+00 -5.79622e+00 
 5.62526e+00 -2.52919e+00 -5.58882e+00 
 5.81737e+00 -2.61626e+00 -5.37452e+00 
 6.00956e+00 -2.70340e+00 -5.15341e+00 
 6.20173e+00 -2.79055e+00 -4.92542e+00 
 6.39395e+00 -2.87774e+00 -4.69063e+00 
 6.58613e+00 -2.96492e+00 -4.44898e+00 
 6.77833e+00 -3.05212e+00 -4.20054e+00 
 6.97046e+00 -3.13927e+00 -3.94522e+00 
 7.16258e+00 -3.22643e+00 -3.68310e+00 
 7.35459e+00 -3.31352e+00 -3.41410e+00 
 7.54657e+00 -3.40058e+00 -3.13828e+00 
 7.73841e+00 -3.48754e+00 -2.85555e+00 
 7.93019e+00 -3.57446e+00 -2.56597e+00 
 8.12180e+00 -3.66126e+00 -2.26942e+00 
 8.31332e+00 -3.74799e+00 -1.96600e+00 
 8.50466e+00 -3.83457e+00 -1.65555e+00 
 8.69587e+00 -3.92107e+00 -1.33817e+00 
 8.88688e+00 -4.00741e+00 -1.01370e+00 
 9.07776e+00 -4.09364e+00 -6.82225e-01 
 9.26841e+00 -4.17970e+00 -3.43589e-01 
 9.45892e+00 -4.28735e+00 -1.82927e-01 
-9.21835e+00  4.17829e+00 -1.82667e-01 
-9.03277e+00  4.07342e+00 -3.43102e-01 
-8.84700e+00  3.98955e+00 -6.81261e-01 
-8.66099e+00  3.90548e+00 -1.01228e+00 
-8.47480e+00  3.82127e+00 -1.33631e+00 
-8.28837e+00  3.73689e+00 -1.65329e+00 
-8.10180e+00  3.65239e+00 -1.96336e+00 
-7.91502e+00  3.56773e+00 -2.26645e+00 
-7.72812e+00  3.48299e+00 -2.56270e+00 
-7.54104e+00  3.39811e+00 -2.85202e+00 
-7.35388e+00  3.31317e+00 -3.13455e+00 
-7.16657e+00  3.22813e+00 -3.41020e+00 
-6.97921e+00  3.14305e+00 -3.67909e+00 
-6.79174e+00  3.05790e+00 -3.94112e+00 
-6.60425e+00  2.97274e+00 -4.19642e+00 
-6.41669e+00  2.88754e+00 -4.44488e+00 
-6.22915e+00  2.80237e+00 -4.68660e+00 
-6.04157e+00  2.71718e+00 -4.92149e+00 
-5.85405e+00  2.63205e+00 -5.14963e+00 
-5.66652e+00  2.54693e+00 -5.37093e+00 
-5.47907e+00  2.46189e+00 -5.58546e+00 
-5.29165e+00  2.37689e+00 -5.79313e+00 
-5.10434e+00  2.29200e+00 -5.99399e+00 
-4.91709e+00  2.20715e+00 -6.18796e+00 
-4.72997e+00  2.12244e+00 -6.37509e+00 
-4.54292e+00  2.03780e+00 -6.55528e+00 
-4.35603e+00  1.95330e+00 -6.72858e+00 
-4.16923e+00  1.86889e+00 -6.89490e+00 
-3.98260e+00  1.78463e+00 -7.05427e+00 
-3.79606e+00  1.70046e+00 -7.20662e+00 
-3.60971e+00  1.61646e+00 -7.35197e+00 
-3.42346e+00  1.53255e+00 -7.49023e+00 
-3.23740e+00  1.44881e+00 -7.62144e+00 
-3.05145e+00  1.36517e+00 -7.74552e+00 
-2.86567e+00  1.28168e+00 -7.86247e+00 
-2.68001e+00  1.19830e+00 -7.97225e+00 
-2.49451e+00  1.11507e+00 -8.07486e+00 
-2.30912e+00  1.03192e+00 -8.17023e+00 
-2.12389e+00  9.48927e-01 -8.25838e+00 
-1.93875e+00  8.66008e-01 -8.33926e+00 
-1.75375e+00  7.83220e-01 -8.41287e+00 
-1.56883e+00  7.00497e-01 -8.47917e+00 
-1.38404e+00  6.17889e-01 -8.53815e+00 
-1.19930e+00  5.35329e-01 -8.58980e+00 
-1.01468e+00  4.52867e-01 -8.63410e+00 
-8.30084e-01  3.70433e-01 -8.67102e+00 
-6.45581e-01  2.88078e-01 -8.70059e+00 
-4.61084e-01  2.05730e-01 -8.72276e+00 
-2.76654e-01  1.23440e-01 -8.73755e+00 
-9.22069e-02  4.11362e-02 -8.74495e+00 
 9.22069e-02 -4.11362e-02 -8.74495e+00 
 2.76654e-01 -1.23440e-01 -8.73755e+00 
 4.61084e-01 -2.05730e-01 -8.72276e+00 
 6.45581e-01 -2.88078e-01 -8.70059e+00 
 8.30084e-01 -3.70433e-01 -8.67102e+00 
 1.01468e+00 -4.52867e-01 -8.63410e+00 
 1.19930e+00 -5.35329e-01 -8.58980e+00 
 1.38404e+00 -6.17889e-01 -8.53815e+00 
 1.56883e+00 -7.00497e-01 -8.47917e+00 
 1.75375e+00 -7.83220e-01 -8.41287e+00 
 1.93875e+00 -8.66008e-01 -8.33926e+00 
 2.12389e+00 -9.48927e-01 -8.25838e+00 
 2.30912e+00 -1.03192e+00 -8.17023e+00 
 2.49451e+00 -1.11507e+00 -8.07486e+00 
 2.68001e+00 -1.19830e+00 -7.97225e+00 
 2.86567e+00 -1.28168e+00 -7.86247e+00 
 3.05145e+00 -1.36517e+00 -7.74552e+00 
 3.23740e+00 -1.44881e+00 -7.62144e+00 
 3.42346e+00 -1.53255e+00 -7.49023e+00 
 3.60971e+00 -1.61646e+00 -7.35197e+00 
 3.79606e+00 -1.70046e+00 -7.20662e+00 
 3.98260e+00 -1.78463e+00 -7.05427e+00 
 4.16923e+00 -1.86889e+00 -6.89490e+00 
 4.35603e+00 -1.95330e+00 -6.72858e+00 
 4.54292e+00 -2.03780e+00 -6.55528e+00 
 4.72997e+00 -2.12244e+00 -6.37509e+00 
 4.91709e+00 -2.20715e+00 -6.18796e+00 
 5.10434e+00 -2.29200e+00 -5.99399e+00 
 5.29165e+00 -2.37689e+00 -5.79313e+00 
 5.47907e+00 -2.46189e+00 -5.58546e+00 
 5.66652e+00 -2.54693e+00 -5.37093e+00 
 5.85405e+00 -2.63205e+00 -5.14963e+00 
 6.04157e+00 -2.71718e+00 -4.92149e+00 
 6.22915e+00 -2.80237e+00 -4.68660e+00 
 6.41669e+00 -2.88754e+00 -4.44488e+00 
 6.60425e+00 -2.97274e+00 -4.19642e+00 
 6.79174e+00 -3.05790e+00 -3.94112e+00 
 6.97921e+00 -3.14305e+00 -3.67909e+00 
 7.16657e+00 -3.22813e+00 -3.41020e+00 
 7.35388e+00 -3.31317e+00 -3.13455e+00 
 7.54104e+00 -3.39811e+00 -2.85202e+00 
 7.72812e+00 -3.48299e+00 -2.56270e+00 
 7.91502e+00 -3.56773e+00 -2.26645e+00 
 8.10180e+00 -3.65239e+00 -1.96336e+00 
 8.28837e+00 -3.73689e+00 -1.65329e+00 
 8.47480e+00 -3.82127e+00 -1.33631e+00 
 8.66099e+00 -3.90548e+00 -1.01228e+00 
 8.84700e+00 -3.98955e+00 -6.81261e-01 
 9.03277e+00 -4.07342e+00 -3.43102e-01 
 9.21835e+00 -4.17829e+00 -1.82667e-01 
-8.97815e+00  4.06940e+00 -1.82356e-01 
-8.79749e+00  3.96731e+00 -3.42520e-01 
-8.61660e+00  3.88561e+00 -6.80112e-01 
-8.43542e+00  3.80369e+00 -1.01058e+00 
-8.25403e+00  3.72160e+00 -1.33411e+00 
-8.07237e+00  3.63931e+00 -1.65061e+00 
-7.89053e+00  3.55688e+00 -1.96024e+00 
-7.70846e+00  3.47427e+00 -2.26294e+00 
-7.52623e+00  3.39155e+00 -2.55884e+00 
-7.34381e+00  3.30868e+00 -2.84787e+00 
-7.16129e+00  3.22574e+00 -3.13015e+00 
-6.97860e+00  3.14268e+00 -3.40561e+00 
-6.79585e+00  3.05959e+00 -3.67436e+00 
-6.61299e+00  2.97641e+00 -3.93632e+00 
-6.43010e+00  2.89323e+00 -4.19159e+00 
-6.24714e+00  2.81000e+00 -4.44008e+00 
-6.06420e+00  2.72680e+00 -4.68189e+00 
-5.88123e+00  2.64360e+00 -4.91691e+00 
-5.69832e+00  2.56046e+00 -5.14524e+00 
-5.51541e+00  2.47733e+00 -5.36677e+00 
-5.33260e+00  2.39431e+00 -5.58157e+00 
-5.14984e+00  2.31133e+00 -5.78956e+00 
-4.96720e+00  2.22847e+00 -5.99077e+00 
-4.78463e+00  2.14569e+00 -6.18513e+00 
-4.60222e+00  2.06305e+00 -6.37267e+00 
-4.41991e+00  1.98051e+00 -6.55331e+00 
-4.23777e+00  1.89812e+00 -6.72707e+00 
-4.05575e+00  1.81584e+00 -6.89388e+00 
-3.87393e+00  1.73374e+00 -7.05375e+00 
-3.69223e+00  1.65176e+00 -7.20661e+00 
-3.51073e+00  1.56995e+00 -7.35247e+00 
-3.32937e+00  1.48827e+00 -7.49125e+00 
-3.14822e+00  1.40678e+00 -7.62297e+00 
-2.96720e+00  1.32540e+00 -7.74756e+00 
-2.78639e+00  1.24421e+00 -7.86502e+00 
-2.60570e+00  1.16313e+00 -7.97528e+00 
-2.42522e+00  1.08223e+00 -8.07836e+00 
-2.24486e+00  1.00144e+00 -8.17419e+00 
-2.06468e+00  9.20809e-01 -8.26277e+00 
-1.88462e+00  8.40275e-01 -8.34405e+00 
-1.70472e+00  7.59887e-01 -8.41804e+00 
-1.52491e+00  6.79579e-01 -8.48468e+00 
-1.34525e+00  5.99400e-01 -8.54398e+00 
-1.16565e+00  5.19281e-01 -8.59590e+00 
-9.86182e-01  4.39269e-01 -8.64044e+00 
-8.06754e-01  3.59296e-01 -8.67757e+00 
-6.27425e-01  2.79407e-01 -8.70730e+00 
-4.48111e-01  1.99533e-01 -8.72960e+00 
-2.68868e-01  1.19720e-01 -8.74447e+00 
-8.96114e-02  3.98960e-02 -8.75191e+00 
 8.96114e-02 -3.98960e-02 -8.75191e+00 
 2.68868e-01 -1.19720e-01 -8.74447e+00 
 4.48111e-01 -1.99533e-01 -8.72960e+00 
 6.27425e-01 -2.79407e-01 -8.70730e+00 
 8.06754e-01 -3.59296e-01 -8.67757e+00 
 9.86182e-01 -4.39269e-01 -8.64044e+00 
 1.16565e+00 -5.19281e-01 -8.59590e+00 
 1.34525e+00 -5.99400e-01 -8.54398e+00 
 1.52491e+00 -6.79579e-01 -8.48468e+00 
 1.70472e+00 -7.59887e-01 -8.41804e+00 
 1.88462e+00 -8.40275e-01 -8.34405e+00 
 2.06468e+00 -9.20809e-01 -8.26277e+00 
 2.24486e+00 -1.00144e+00 -8.17419e+00 
 2.42522e+00 -1.08223e+00 -8.07836e+00 
 2.60570e+00 -1.16313e+00 -7.97528e+00 
 2.78639e+00 -1.24421e+00 -7.86502e+00 
 2.96720e+00 -1.32540e+00 -7.74756e+00 
 3.14822e+00 -1.40678e+00 -7.62297e+00 
 3.32937e+00 -1.48827e+00 -7.49125e+00 
 3.51073e+00 -1.56995e+00 -7.35247e+00 
 3.69223e+00 -1.65176e+00 -7.20661e+00 
 3.87393e+00 -1.73374e+00 -7.05375e+00 
 4.05575e+00 -1.81584e+00 -6.89388e+00 
 4.23777e+00 -1.89812e+00 -6.72707e+00 
 4.41991e+00 -1.98051e+00 -6.55331e+00 
 4.60222e+00 -2.06305e+00 -6.37267e+00 
 4.78463e+00 -2.14569e+00 -6.18513e+00 
 4.96720e+00 -2.22847e+00 -5.99077e+00 
 5.14984e+00 -2.31133e+00 -5.78956e+00 
 5.33260e+00 -2.39431e+00 -5.58157e+00 
 5.51541e+00 -2.47733e+00 -5.36677e+00 
 5.69832e+00 -2.56046e+00 -5.14524e+00 
 5.88123e+00 -2.64360e+00 -4.91691e+00 
 6.06420e+00 -2.72680e+00 -4.68189e+00 
 6.24714e+00 -2.81000e+00 -4.44008e+00 
 6.43010e+00 -2.89323e+00 -4.19159e+00 
 6.61299e+00 -2.97641e+00 -3.93632e+00 
 6.79585e+00 -3.05959e+00 -3.67436e+00 
 6.97860e+00 -3.14268e+00 -3.40561e+00 
 7.16129e+00 -3.22574e+00 -3.13015e+00 
 7.34381e+00 -3.30868e+00 -2.84787e+00 
 7.52623e+00 -3.39155e+00 -2.55884e+00 
 7.70846e+00 -3.47427e+00 -2.26294e+00 
 7.89053e+00 -3.55688e+00 -1.96024e+00 
 8.07237e+00 -3.63931e+00 -1.65061e+00 
 8.25403e+00 -3.72160e+00 -1.33411e+00 
 8.43542e+00 -3.80369e+00 -1.01058e+00 
 8.61660e+00 -3.88561e+00 -6.80112e-01 
 8.79749e+00 -3.96731e+00 -3.42520e-01 
 8.97815e+00 -4.06940e+00 -1.82356e-01 
-8.73840e+00  3.96072e+00 -1.81986e-01 
-8.56265e+00  3.86139e+00 -3.41829e-01 
-8.38662e+00  3.78186e+00 -6.78750e-01 
-8.21025e+00  3.70207e+00 -1.00858e+00 
-8.03363e+00  3.62208e+00 -1.33150e+00 
-7.85670e+00  3.54186e+00 -1.64744e+00 
-7.67955e+00  3.46147e+00 -1.95657e+00 
-7.50214e+00  3.38087e+00 -2.25881e+00 
-7.32456e+00  3.30015e+00 -2.55431e+00 
-7.14675e+00  3.21926e+00 -2.84300e+00 
-6.96881e+00  3.13829e+00 -3.12501e+00 
-6.79070e+00  3.05718e+00 -3.40025e+00 
-6.61252e+00  2.97603e+00 -3.66886e+00 
-6.43421e+00  2.89479e+00 -3.93073e+00 
-6.25587e+00  2.81355e+00 -4.18598e+00 
-6.07746e+00  2.73226e+00 -4.43452e+00 
-5.89908e+00  2.65101e+00 -4.67643e+00 
-5.72067e+00  2.56975e+00 -4.91162e+00 
-5.54233e+00  2.48857e+00 -5.14016e+00 
-5.36401e+00  2.40742e+00 -5.36197e+00 
-5.18581e+00  2.32638e+00 -5.57710e+00 
-5.00766e+00  2.24541e+00 -5.78545e+00 
-4.82966e+00  2.16458e+00 -5.98709e+00 
-4.65176e+00  2.08383e+00 -6.18189e+00 
-4.47404e+00  2.00326e+00 -6.36992e+00 
-4.29644e+00  1.92279e+00 -6.55108e+00 
-4.11904e+00  1.84252e+00 -6.72538e+00 
-3.94179e+00  1.76237e+00 -6.89275e+00 
-3.76476e+00  1.68242e+00 -7.05320e+00 
-3.58789e+00  1.60262e+00 -7.20665e+00 
-3.41125e+00  1.52302e+00 -7.35310e+00 
-3.23478e+00  1.44357e+00 -7.49248e+00 
-3.05854e+00  1.36433e+00 -7.62480e+00 
-2.88247e+00  1.28523e+00 -7.74997e+00 
-2.70663e+00  1.20634e+00 -7.86800e+00 
-2.53095e+00  1.12759e+00 -7.97883e+00 
-2.35549e+00  1.04904e+00 -8.08244e+00 
-2.18019e+00  9.70611e-01 -8.17879e+00 
-2.00509e+00  8.92368e-01 -8.26786e+00 
-1.83012e+00  8.14241e-01 -8.34960e+00 
-1.65535e+00  7.36278e-01 -8.42402e+00 
-1.48068e+00  6.58410e-01 -8.49105e+00 
-1.30618e+00  5.80686e-01 -8.55071e+00 
-1.13176e+00  5.03035e-01 -8.60295e+00 
-9.57478e-01  4.25503e-01 -8.64776e+00 
-7.83253e-01  3.48019e-01 -8.68513e+00 
-6.09136e-01  2.70628e-01 -8.71504e+00 
-4.35042e-01  1.93258e-01 -8.73748e+00 
-2.61024e-01  1.15952e-01 -8.75245e+00 
-8.69966e-02  3.86402e-02 -8.75993e+00 
 8.69966e-02 -3.86402e-02 -8.75993e+00 
 2.61024e-01 -1.15952e-01 -8.75245e+00 
 4.35042e-01 -1.93258e-01 -8.73748e+00 
 6.09136e-01 -2.70628e-01 -8.71504e+00 
 7.83253e-01 -3.48019e-01 -8.68513e+00 
 9.57478e-01 -4.25503e-01 -8.64776e+00 
 1.13176e+00 -5.03035e-01 -8.60295e+00 
 1.30618e+00 -5.80686e-01 -8.55071e+00 
 1.48068e+00 -6.58410e-01 -8.49105e+00 
 1.65535e+00 -7.36278e-01 -8.42402e+00 
 1.83012e+00 -8.14241e-01 -8.34960e+00 
 2.00509e+00 -8.92368e-01 -8.26786e+00 
 2.18019e+00 -9.70611e-01 -8.17879e+00 
 2.35549e+00 -1.04904e+00 -8.08244e+00 
 2.53095e+00 -1.12759e+00 -7.97883e+00 
 2.70663e+00 -1.20634e+00 -7.86800e+00 
 2.88247e+00 -1.28523e+00 -7.74997e+00 
 3.05854e+00 -1.36433e+00 -7.62480e+00 
 3.23478e+00 -1.44357e+00 -7.49248e+00 
 3.41125e+00 -1.52302e+00 -7.35310e+00 
 3.58789e+00 -1.60262e+00 -7.20665e+00 
 3.76476e+00 -1.68242e+00 -7.05320e+00 
 3.94179e+00 -1.76237e+00 -6.89275e+00 
 4.11904e+00 -1.84252e+00 -6.72538e+00 
 4.29644e+00 -1.92279e+00 -6.55108e+00 
 4.47404e+00 -2.00326e+00 -6.36992e+00 
 4.65176e+00 -2.08383e+00 -6.18189e+00 
 4.82966e+00 -2.16458e+00 -5.98709e+00 
 5.00766e+00 -2.24541e+00 -5.78545e+00 
 5.18581e+00 -2.32638e+00 -5.57710e+00 
 5.36401e+00 -2.40742e+00 -5.36197e+00 
 5.54233e+00 -2.48857e+00 -5.14016e+00 
 5.72067e+00 -2.56975e+00 -4.91162e+00 
 5.89908e+00 -2.65101e+00 -4.67643e+00 
 6.07746e+00 -2.73226e+00 -4.43452e+00 
 6.25587e+00 -2.81355e+00 -4.18598e+00 
 6.43421e+00 -2.89479e+00 -3.93073e+00 
 6.61252e+00 -2.97603e+00 -3.66886e+00 
 6.79070e+00 -3.05718e+00 -3.40025e+00 
 6.96881e+00 -3.13829e+00 -3.12501e+00 
 7.14675e+00 -3.21926e+00 -2.84300e+00 
 7.32456e+00 -3.30015e+00 -2.55431e+00 
 7.50214e+00 -3.38087e+00 -2.25881e+00 
 7.67955e+00 -3.46147e+00 -1.95657e+00 
 7.85670e+00 -3.54186e+00 -1.64744e+00 
 8.03363e+00 -3.62208e+00 -1.33150e+00 
 8.21025e+00 -3.70207e+00 -1.00858e+00 
 8.38662e+00 -3.78186e+00 -6.78750e-01 
 8.56265e+00 -3.86139e+00 -3.41829e-01 
 8.73840e+00 -3.96072e+00 -1.81986e-01 
-8.49918e+00  3.85227e+00 -1.81550e-01 
-8.32832e+00  3.75570e+00 -3.41014e-01 
-8.15712e+00  3.67832e+00 -6.77144e-01 
-7.98554e+00  3.60064e+00 -1.00623e+00 
-7.81365e+00  3.52273e+00 -1.32844e+00 
-7.64141e+00  3.44455e+00 -1.64373e+00 
-7.46892e+00  3.36617e+00 -1.95227e+00 
-7.29612e+00  3.28756e+00 -2.25398e+00 
-7.12311e+00  3.20880e+00 -2.54902e+00 
-6.94986e+00  3.12985e+00 -2.83732e+00 
-6.77646e+00  3.05080e+00 -3.11902e+00 
-6.60288e+00  2.97161e+00 -3.39403e+00 
-6.42920e+00  2.89236e+00 -3.66247e+00 
-6.25539e+00  2.81303e+00 -3.92426e+00 
-6.08155e+00  2.73368e+00 -4.17949e+00 
-5.90764e+00  2.65430e+00 -4.42809e+00 
-5.73376e+00  2.57496e+00 -4.67013e+00 
-5.55987e+00  2.49562e+00 -4.90553e+00 
-5.38605e+00  2.41637e+00 -5.13434e+00 
-5.21228e+00  2.33716e+00 -5.35647e+00 
-5.03863e+00  2.25808e+00 -5.57198e+00 
-4.86507e+00  2.17909e+00 -5.78078e+00 
-4.69168e+00  2.10026e+00 -5.98289e+00 
-4.51841e+00  2.02154e+00 -6.17823e+00 
-4.34535e+00  1.94301e+00 -6.36683e+00 
-4.17244e+00  1.86462e+00 -6.54858e+00 
-3.99977e+00  1.78644e+00 -6.72351e+00 
-3.82727e+00  1.70842e+00 -6.89153e+00 
-3.65503e+00  1.63062e+00 -7.05264e+00 
-3.48298e+00  1.55300e+00 -7.20676e+00 
-3.31120e+00  1.47561e+00 -7.35390e+00 
-3.13962e+00  1.39840e+00 -7.49396e+00 
-2.96830e+00  1.32142e+00 -7.62696e+00 
-2.79719e+00  1.24461e+00 -7.75280e+00 
-2.62634e+00  1.16804e+00 -7.87149e+00 
-2.45568e+00  1.09163e+00 -7.98295e+00 
-2.28527e+00  1.01544e+00 -8.08718e+00 
-2.11504e+00  9.39404e-01 -8.18411e+00 
-1.94505e+00  8.63572e-01 -8.27374e+00 
-1.77522e+00  7.87877e-01 -8.35601e+00 
-1.60559e+00  7.12364e-01 -8.43091e+00 
-1.43610e+00  6.36965e-01 -8.49839e+00 
-1.26680e+00  5.61725e-01 -8.55845e+00 
-1.09759e+00  4.86573e-01 -8.61104e+00 
-9.28543e-01  4.11552e-01 -8.65617e+00 
-7.59561e-01  3.36590e-01 -8.69380e+00 
-5.90696e-01  2.61729e-01 -8.72392e+00 
-4.21865e-01  1.86897e-01 -8.74652e+00 
-2.53115e-01  1.12134e-01 -8.76160e+00 
-8.43601e-02  3.73672e-02 -8.76913e+00 
 8.43601e-02 -3.73672e-02 -8.76913e+00 
 2.53115e-01 -1.12134e-01 -8.76160e+00 
 4.21865e-01 -1.86897e-01 -8.74652e+00 
 5.90696e-01 -2.61729e-01 -8.72392e+00 
 7.59561e-01 -3.36590e-01 -8.69380e+00 
 9.28543e-01 -4.11552e-01 -8.65617e+00 
 1.09759e+00 -4.86573e-01 -8.61104e+00 
 1.26680e+00 -5.61725e-01 -8.55845e+00 
 1.43610e+00 -6.36965e-01 -8.49839e+00 
 1.60559e+00 -7.12364e-01 -8.43091e+00 
 1.77522e+00 -7.87877e-01 -8.35601e+00 
 1.94505e+00 -8.63572e-01 -8.27374e+00 
 2.11504e+00 -9.39404e-01 -8.18411e+00 
 2.28527e+00 -1.01544e+00 -8.08718e+00 
 2.45568e+00 -1.09163e+00 -7.98295e+00 
 2.62634e+00 -1.16804e+00 -7.87149e+00 
 2.79719e+00 -1.24461e+00 -7.75280e+00 
 2.96830e+00 -1.32142e+00 -7.62696e+00 
 3.13962e+00 -1.39840e+00 -7.49396e+00 
 3.31120e+00 -1.47561e+00 -7.35390e+00 
 3.48298e+00 -1.55300e+00 -7.20676e+00 
 3.65503e+00 -1.63062e+00 -7.05264e+00 
 3.82727e+00 -1.70842e+00 -6.89153e+00 
 3.99977e+00 -1.78644e+00 -6.72351e+00 
 4.17244e+00 -1.86462e+00 -6.54858e+00 
 4.34535e+00 -1.94301e+00 -6.36683e+00 
 4.51841e+00 -2.02154e+00 -6.17823e+00 
 4.69168e+00 -2.10026e+00 -5.98289e+00 
 4.86507e+00 -2.17909e+00 -5.78078e+00 
 5.03863e+00 -2.25808e+00 -5.57198e+00 
 5.21228e+00 -2.33716e+00 -5.35647e+00 
 5.38605e+00 -2.41637e+00 -5.13434e+00 
 5.55987e+00 -2.49562e+00 -4.90553e+00 
 5.73376e+00 -2.57496e+00 -4.67013e+00 
 5.90764e+00 -2.65430e+00 -4.42809e+00 
 6.08155e+00 -2.73368e+00 -4.17949e+00 
 6.25539e+00 -2.81303e+00 -3.92426e+00 
 6.42920e+00 -2.89236e+00 -3.66247e+00 
 6.60288e+00 -2.97161e+00 -3.39403e+00 
 6.77646e+00 -3.05080e+00 -3.11902e+00 
 6.94986e+00 -3.12985e+00 -2.83732e+00 
 7.12311e+00 -3.20880e+00 -2.54902e+00 
 7.29612e+00 -3.28756e+00 -2.25398e+00 
 7.46892e+00 -3.36617e+00 -1.95227e+00 
 7.64141e+00 -3.44455e+00 -1.64373e+00 
 7.81365e+00 -3.52273e+00 -1.32844e+00 
 7.98554e+00 -3.60064e+00 -1.00623e+00 
 8.15712e+00 -3.67832e+00 -6.77144e-01 
 8.32832e+00 -3.75570e+00 -3.41014e-01 
 8.49918e+00 -3.85227e+00 -1.81550e-01 
-8.26059e+00  3.74411e+00 -1.81037e-01 
-8.09460e+00  3.65028e+00 -3.40056e-01 
-7.92821e+00  3.57504e+00 -6.75260e-01 
-7.76137e+00  3.49945e+00 -1.00346e+00 
-7.59417e+00  3.42358e+00 -1.32486e+00 
-7.42657e+00  3.34741e+00 -1.63940e+00 
-7.25867e+00  3.27101e+00 -1.94725e+00 
-7.09043e+00  3.19434e+00 -2.24836e+00 
-6.92195e+00  3.11750e+00 -2.54288e+00 
-6.75319e+00  3.04045e+00 -2.83074e+00 
-6.58426e+00  2.96328e+00 -3.11208e+00 
-6.41513e+00  2.88596e+00 -3.38683e+00 
-6.24589e+00  2.80857e+00 -3.65509e+00 
-6.07652e+00  2.73110e+00 -3.91680e+00 
-5.90712e+00  2.65361e+00 -4.17203e+00 
-5.73765e+00  2.57609e+00 -4.42071e+00 
-5.56821e+00  2.49862e+00 -4.66292e+00 
-5.39877e+00  2.42116e+00 -4.89856e+00 
-5.22943e+00  2.34380e+00 -5.12769e+00 
-5.06015e+00  2.26651e+00 -5.35021e+00 
-4.89102e+00  2.18936e+00 -5.56617e+00 
-4.72200e+00  2.11232e+00 -5.77548e+00 
-4.55318e+00  2.03546e+00 -5.97816e+00 
-4.38451e+00  1.95875e+00 -6.17411e+00 
-4.21609e+00  1.88225e+00 -6.36336e+00 
-4.04785e+00  1.80592e+00 -6.54580e+00 
-3.87988e+00  1.72983e+00 -6.72146e+00 
-3.71213e+00  1.65394e+00 -6.89021e+00 
-3.54467e+00  1.57829e+00 -7.05209e+00 
-3.37744e+00  1.50285e+00 -7.20698e+00 
-3.21051e+00  1.42767e+00 -7.35490e+00 
-3.04383e+00  1.35270e+00 -7.49574e+00 
-2.87744e+00  1.27800e+00 -7.62950e+00 
-2.71130e+00  1.20350e+00 -7.75610e+00 
-2.54545e+00  1.12925e+00 -7.87553e+00 
-2.37984e+00  1.05521e+00 -7.98771e+00 
-2.21450e+00  9.81405e-01 -8.09264e+00 
-2.04938e+00  9.07784e-01 -8.19023e+00 
-1.88452e+00  8.34389e-01 -8.28049e+00 
-1.71985e+00  7.61154e-01 -8.36334e+00 
-1.55542e+00  6.88120e-01 -8.43879e+00 
-1.39115e+00  6.15222e-01 -8.50677e+00 
-1.22708e+00  5.42497e-01 -8.56729e+00 
-1.06313e+00  4.69878e-01 -8.62028e+00 
-8.99350e-01  3.97402e-01 -8.66576e+00 
-7.35656e-01  3.24998e-01 -8.70368e+00 
-5.72091e-01  2.52702e-01 -8.73404e+00 
-4.08569e-01  1.80444e-01 -8.75682e+00 
-2.45134e-01  1.08260e-01 -8.77201e+00 
-8.16997e-02  3.60757e-02 -8.77961e+00 
 8.16997e-02 -3.60757e-02 -8.77961e+00 
 2.45134e-01 -1.08260e-01 -8.77201e+00 
 4.08569e-01 -1.80444e-01 -8.75682e+00 
 5.72091e-01 -2.52702e-01 -8.73404e+00 
 7.35656e-01 -3.24998e-01 -8.70368e+00 
 8.99350e-01 -3.97402e-01 -8.66576e+00 
 1.06313e+00 -4.69878e-01 -8.62028e+00 
 1.22708e+00 -5.42497e-01 -8.56729e+00 
 1.39115e+00 -6.15222e-01 -8.50677e+00 
 1.55542e+00 -6.88120e-01 -8.43879e+00 
 1.71985e+00 -7.61154e-01 -8.36334e+00 
 1.88452e+00 -8.34389e-01 -8.28049e+00 
 2.04938e+00 -9.07784e-01 -8.19023e+00 
 2.21450e+00 -9.81405e-01 -8.09264e+00 
 2.37984e+00 -1.05521e+00 -7.98771e+00 
 2.54545e+00 -1.12925e+00 -7.87553e+00 
 2.71130e+00 -1.20350e+00 -7.75610e+00 
 2.87744e+00 -1.27800e+00 -7.62950e+00 
 3.04383e+00 -1.35270e+00 -7.49574e+00 
 3.21051e+00 -1.42767e+00 -7.35490e+00 
 3.37744e+00 -1.50285e+00 -7.20698e+00 
 3.54467e+00 -1.57829e+00 -7.05209e+00 
 3.71213e+00 -1.65394e+00 -6.89021e+00 
 3.87988e+00 -1.72983e+00 -6.72146e+00 
 4.04785e+00 -1.80592e+00 -6.54580e+00 
 4.21609e+00 -1.88225e+00 -6.36336e+00 
 4.38451e+00 -1.95875e+00 -6.17411e+00 
 4.55318e+00 -2.03546e+00 -5.97816e+00 
 4.72200e+00 -2.11232e+00 -5.77548e+00 
 4.89102e+00 -2.18936e+00 -5.56617e+00 
 5.06015e+00 -2.26651e+00 -5.35021e+00 
 5.22943e+00 -2.34380e+00 -5.12769e+00 
 5.39877e+00 -2.42116e+00 -4.89856e+00 
 5.56821e+00 -2.49862e+00 -4.66292e+00 
 5.73765e+00 -2.57609e+00 -4.42071e+00 
 5.90712e+00 -2.65361e+00 -4.17203e+00 
 6.07652e+00 -2.73110e+00 -3.91680e+00 
 6.24589e+00 -2.80857e+00 -3.65509e+00 
 6.41513e+00 -2.88596e+00 -3.38683e+00 
 6.58426e+00 -2.96328e+00 -3.11208e+00 
 6.75319e+00 -3.04045e+00 -2.83074e+00 
 6.92195e+00 -3.11750e+00 -2.54288e+00 
 7.09043e+00 -3.19434e+00 -2.24836e+00 
 7.25867e+00 -3.27101e+00 -1.94725e+00 
 7.42657e+00 -3.34741e+00 -1.63940e+00 
 7.59417e+00 -3.42358e+00 -1.32486e+00 
 7.76137e+00 -3.49945e+00 -1.00346e+00 
 7.92821e+00 -3.57504e+00 -6.75260e-01 
 8.09460e+00 -3.65028e+00 -3.40056e-01 
 8.26059e+00 -3.74411e+00 -1.81037e-01 
-8.02274e+00  3.63628e+00 -1.80435e-01 
-7.86159e+00  3.54518e+00 -3.38934e-01 
-7.69996e+00  3.47205e+00 -6.73057e-01 
-7.53782e+00  3.39853e+00 -1.00024e+00 
-7.37526e+00  3.32467e+00 -1.32069e+00 
-7.21225e+00  3.25047e+00 -1.63435e+00 
-7.04888e+00  3.17600e+00 -1.94142e+00 
-6.88512e+00  3.10124e+00 -2.24184e+00 
-6.72109e+00  3.02627e+00 -2.53577e+00 
-6.55676e+00  2.95107e+00 -2.82314e+00 
-6.39222e+00  2.87572e+00 -3.10409e+00 
-6.22747e+00  2.80022e+00 -3.37854e+00 
-6.06260e+00  2.72465e+00 -3.64662e+00 
-5.89759e+00  2.64898e+00 -3.90824e+00 
-5.73255e+00  2.57330e+00 -4.16349e+00 
-5.56744e+00  2.49760e+00 -4.41229e+00 
-5.40238e+00  2.42195e+00 -4.65470e+00 
-5.23734e+00  2.34633e+00 -4.89063e+00 
-5.07241e+00  2.27083e+00 -5.12014e+00 
-4.90757e+00  2.19542e+00 -5.34311e+00 
-4.74290e+00  2.12017e+00 -5.55961e+00 
-4.57838e+00  2.04505e+00 -5.76951e+00 
-4.41409e+00  1.97015e+00 -5.97284e+00 
-4.24999e+00  1.89542e+00 -6.16950e+00 
-4.08617e+00  1.82094e+00 -6.35951e+00 
-3.92258e+00  1.74666e+00 -6.54274e+00 
-3.75930e+00  1.67265e+00 -6.71922e+00 
-3.59628e+00  1.59887e+00 -6.88883e+00 
-3.43359e+00  1.52538e+00 -7.05157e+00 
-3.27118e+00  1.45212e+00 -7.20734e+00 
-3.10911e+00  1.37916e+00 -7.35614e+00 
-2.94733e+00  1.30645e+00 -7.49785e+00 
-2.78589e+00  1.23403e+00 -7.63249e+00 
-2.62473e+00  1.16185e+00 -7.75994e+00 
-2.46391e+00  1.08996e+00 -7.88021e+00 
-2.30336e+00  1.01830e+00 -7.99320e+00 
-2.14313e+00  9.46904e-01 -8.09890e+00 
-1.98314e+00  8.75722e-01 -8.19724e+00 
-1.82345e+00  8.04791e-01 -8.28820e+00 
-1.66399e+00  7.34046e-01 -8.37172e+00 
-1.50478e+00  6.63524e-01 -8.44777e+00 
-1.34577e+00  5.93158e-01 -8.51632e+00 
-1.18698e+00  5.22985e-01 -8.57733e+00 
-1.02833e+00  4.52934e-01 -8.63078e+00 
-8.69875e-01  3.83039e-01 -8.67664e+00 
-7.11518e-01  3.13230e-01 -8.71489e+00 
-5.53303e-01  2.43538e-01 -8.74552e+00 
-3.95142e-01  1.73894e-01 -8.76849e+00 
-2.37075e-01  1.04326e-01 -8.78382e+00 
-7.90129e-02  3.47645e-02 -8.79148e+00 
 7.90129e-02 -3.47645e-02 -8.79148e+00 
 2.37075e-01 -1.04326e-01 -8.78382e+00 
 3.95142e-01 -1.73894e-01 -8.76849e+00 
 5.53303e-01 -2.43538e-01 -8.74552e+00 
 7.11518e-01 -3.13230e-01 -8.71489e+00 
 8.69875e-01 -3.83039e-01 -8.67664e+00 
 1.02833e+00 -4.52934e-01 -8.63078e+00 
 1.18698e+00 -5.22985e-01 -8.57733e+00 
 1.34577e+00 -5.93158e-01 -8.51632e+00 
 1.50478e+00 -6.63524e-01 -8.44777e+00 
 1.66399e+00 -7.34046e-01 -8.37172e+00 
 1.82345e+00 -8.04791e-01 -8.28820e+00 
 1.98314e+00 -8.75722e-01 -8.19724e+00 
 2.14313e+00 -9.46904e-01 -8.09890e+00 
 2.30336e+00 -1.01830e+00 -7.99320e+00 
 2.46391e+00 -1.08996e+00 -7.88021e+00 
 2.62473e+00 -1.16185e+00 -7.75994e+00 
 2.78589e+00 -1.23403e+00 -7.63249e+00 
 2.94733e+00 -1.30645e+00 -7.49785e+00 
 3.10911e+00 -1.37916e+00 -7.35614e+00 
 3.27118e+00 -1.45212e+00 -7.20734e+00 
 3.43359e+00 -1.52538e+00 -7.05157e+00 
 3.59628e+00 -1.59887e+00 -6.88883e+00 
 3.75930e+00 -1.67265e+00 -6.71922e+00 
 3.92258e+00 -1.74666e+00 -6.54274e+00 
 4.08617e+00 -1.82094e+00 -6.35951e+00 
 4.24999e+00 -1.89542e+00 -6.16950e+00 
 4.41409e+00 -1.97015e+00 -5.97284e+00 
 4.57838e+00 -2.04505e+00 -5.76951e+00 
 4.74290e+00 -2.12017e+00 -5.55961e+00 
 4.90757e+00 -2.19542e+00 -5.34311e+00 
 5.07241e+00 -2.27083e+00 -5.12014e+00 
 5.23734e+00 -2.34633e+00 -4.89063e+00 
 5.40238e+00 -2.42195e+00 -4.65470e+00 
 5.56744e+00 -2.49760e+00 -4.41229e+00 
 5.73255e+00 -2.57330e+00 -4.16349e+00 
 5.89759e+00 -2.64898e+00 -3.90824e+00 
 6.06260e+00 -2.72465e+00 -3.64662e+00 
 6.22747e+00 -2.80022e+00 -3.37854e+00 
 6.39222e+00 -2.87572e+00 -3.10409e+00 
 6.55676e+00 -2.95107e+00 -2.82314e+00 
 6.72109e+00 -3.02627e+00 -2.53577e+00 
 6.88512e+00 -3.10124e+00 -2.24184e+00 
 7.04888e+00 -3.17600e+00 -1.94142e+00 
 7.21225e+00 -3.25047e+00 -1.63435e+00 
 7.37526e+00 -3.32467e+00 -1.32069e+00 
 7.53782e+00 -3.39853e+00 -1.00024e+00 
 7.69996e+00 -3.47205e+00 -6.73057e-01 
 7.86159e+00 -3.54518e+00 -3.38934e-01 
 8.02274e+00 -3.63628e+00 -1.80435e-01 
-7.78576e+00  3.52885e+00 -1.79733e-01 
-7.62941e+00  3.44046e+00 -3.37626e-01 
-7.47250e+00  3.36941e+00 -6.70490e-01 
-7.31501e+00  3.29791e+00 -9.96491e-01 
-7.15702e+00  3.22603e+00 -1.31584e+00 
-6.99851e+00  3.15376e+00 -1.62851e+00 
-6.83960e+00  3.08117e+00 -1.93468e+00 
-6.68025e+00  3.00826e+00 -2.23432e+00 
-6.52059e+00  2.93510e+00 -2.52757e+00 
-6.36059e+00  2.86169e+00 -2.81439e+00 
-6.20036e+00  2.78813e+00 -3.09490e+00 
-6.03990e+00  2.71439e+00 -3.36904e+00 
-5.87931e+00  2.64056e+00 -3.63693e+00 
-5.71858e+00  2.56665e+00 -3.89847e+00 
-5.55781e+00  2.49273e+00 -4.15376e+00 
-5.39700e+00  2.41879e+00 -4.40270e+00 
-5.23624e+00  2.34492e+00 -4.64537e+00 
-5.07552e+00  2.27110e+00 -4.88165e+00 
-4.91494e+00  2.19741e+00 -5.11161e+00 
-4.75447e+00  2.12384e+00 -5.33512e+00 
-4.59422e+00  2.05045e+00 -5.55223e+00 
-4.43414e+00  1.97724e+00 -5.76282e+00 
-4.27434e+00  1.90427e+00 -5.96692e+00 
-4.11477e+00  1.83150e+00 -6.16439e+00 
-3.95552e+00  1.75902e+00 -6.35526e+00 
-3.79656e+00  1.68678e+00 -6.53940e+00 
-3.63794e+00  1.61484e+00 -6.71681e+00 
-3.47964e+00  1.54317e+00 -6.88739e+00 
-3.32172e+00  1.47183e+00 -7.05111e+00 
-3.16412e+00  1.40077e+00 -7.20787e+00 
-3.00692e+00  1.33004e+00 -7.35766e+00 
-2.85004e+00  1.25959e+00 -7.50037e+00 
-2.69356e+00  1.18947e+00 -7.63598e+00 
-2.53741e+00  1.11963e+00 -7.76439e+00 
-2.38164e+00  1.05011e+00 -7.88560e+00 
-2.22618e+00  9.80858e-01 -7.99949e+00 
-2.07108e+00  9.11904e-01 -8.10606e+00 
-1.91627e+00  8.43190e-01 -8.20523e+00 
-1.76179e+00  7.74755e-01 -8.29697e+00 
-1.60757e+00  7.06532e-01 -8.38122e+00 
-1.45364e+00  6.38555e-01 -8.45796e+00 
-1.29993e+00  5.70758e-01 -8.52712e+00 
-1.14647e+00  5.03172e-01 -8.58870e+00 
-9.93176e-01  4.35727e-01 -8.64264e+00 
-8.40091e-01  3.68453e-01 -8.68893e+00 
-6.87127e-01  3.01278e-01 -8.72754e+00 
-5.34316e-01  2.34231e-01 -8.75845e+00 
-3.81573e-01  1.67240e-01 -8.78165e+00 
-2.28929e-01  1.00331e-01 -8.79713e+00 
-7.62976e-02  3.34326e-02 -8.80486e+00 
 7.62976e-02 -3.34326e-02 -8.80486e+00 
 2.28929e-01 -1.00331e-01 -8.79713e+00 
 3.81573e-01 -1.67240e-01 -8.78165e+00 
 5.34316e-01 -2.34231e-01 -8.75845e+00 
 6.87127e-01 -3.01278e-01 -8.72754e+00 
 8.40091e-01 -3.68453e-01 -8.68893e+00 
 9.93176e-01 -4.35727e-01 -8.64264e+00 
 1.14647e+00 -5.03172e-01 -8.58870e+00 
 1.29993e+00 -5.70758e-01 -8.52712e+00 
 1.45364e+00 -6.38555e-01 -8.45796e+00 
 1.60757e+00 -7.06532e-01 -8.38122e+00 
 1.76179e+00 -7.74755e-01 -8.29697e+00 
 1.91627e+00 -8.43190e-01 -8.20523e+00 
 2.07108e+00 -9.11904e-01 -8.10606e+00 
 2.22618e+00 -9.80858e-01 -7.99949e+00 
 2.38164e+00 -1.05011e+00 -7.88560e+00 
 2.53741e+00 -1.11963e+00 -7.76439e+00 
 2.69356e+00 -1.18947e+00 -7.63598e+00 
 2.85004e+00 -1.25959e+00 -7.50037e+00 
 3.00692e+00 -1.33004e+00 -7.35766e+00 
 3.16412e+00 -1.40077e+00 -7.20787e+00 
 3.32172e+00 -1.47183e+00 -7.05111e+00 
 3.47964e+00 -1.54317e+00 -6.88739e+00 
 3.63794e+00 -1.61484e+00 -6.71681e+00 
 3.79656e+00 -1.68678e+00 -6.53940e+00 
 3.95552e+00 -1.75902e+00 -6.35526e+00 
 4.11477e+00 -1.83150e+00 -6.16439e+00 
 4.27434e+00 -1.90427e+00 -5.96692e+00 
 4.43414e+00 -1.97724e+00 -5.76282e+00 
 4.59422e+00 -2.05045e+00 -5.55223e+00 
 4.75447e+00 -2.12384e+00 -5.33512e+00 
 4.91494e+00 -2.19741e+00 -5.11161e+00 
 5.07552e+00 -2.27110e+00 -4.88165e+00 
 5.23624e+00 -2.34492e+00 -4.64537e+00 
 5.39700e+00 -2.41879e+00 -4.40270e+00 
 5.55781e+00 -2.49273e+00 -4.15376e+00 
 5.71858e+00 -2.56665e+00 -3.89847e+00 
 5.87931e+00 -2.64056e+00 -3.63693e+00 
 6.03990e+00 -2.71439e+00 -3.36904e+00 
 6.20036e+00 -2.78813e+00 -3.09490e+00 
 6.36059e+00 -2.86169e+00 -2.81439e+00 
 6.52059e+00 -2.93510e+00 -2.52757e+00 
 6.68025e+00 -3.00826e+00 -2.23432e+00 
 6.83960e+00 -3.08117e+00 -1.93468e+00 
 6.99851e+00 -3.15376e+00 -1.62851e+00 
 7.15702e+00 -3.22603e+00 -1.31584e+00 
 7.31501e+00 -3.29791e+00 -9.96491e-01 
 7.47250e+00 -3.36941e+00 -6.70490e-01 
 7.62941e+00 -3.44046e+00 -3.37626e-01 
 7.78576e+00 -3.52885e+00 -1.79733e-01 
-7.54979e+00  3.42188e+00 -1.78916e-01 
-7.39820e+00  3.33616e+00 -3.36104e-01 
-7.24595e+00  3.26717e+00 -6.67509e-01 
-7.09303e+00  3.19766e+00 -9.92145e-01 
-6.93953e+00  3.12771e+00 -1.31024e+00 
-6.78545e+00  3.05731e+00 -1.62176e+00 
-6.63090e+00  2.98655e+00 -1.92692e+00 
-6.47587e+00  2.91542e+00 -2.22566e+00 
-6.32047e+00  2.84402e+00 -2.51816e+00 
-6.16471e+00  2.77234e+00 -2.80436e+00 
-6.00869e+00  2.70048e+00 -3.08440e+00 
-5.85242e+00  2.62844e+00 -3.35820e+00 
-5.69601e+00  2.55631e+00 -3.62589e+00 
-5.53946e+00  2.48408e+00 -3.88736e+00 
-5.38288e+00  2.41186e+00 -4.14272e+00 
-5.22627e+00  2.33963e+00 -4.39185e+00 
-5.06973e+00  2.26748e+00 -4.63483e+00 
-4.91325e+00  2.19541e+00 -4.87154e+00 
-4.75695e+00  2.12349e+00 -5.10203e+00 
-4.60079e+00  2.05172e+00 -5.32617e+00 
-4.44489e+00  1.98017e+00 -5.54400e+00 
-4.28920e+00  1.90883e+00 -5.75539e+00 
-4.13384e+00  1.83776e+00 -5.96035e+00 
-3.97876e+00  1.76694e+00 -6.15876e+00 
-3.82406e+00  1.69644e+00 -6.35061e+00 
-3.66969e+00  1.62622e+00 -6.53578e+00 
-3.51572e+00  1.55636e+00 -6.71426e+00 
-3.36212e+00  1.48680e+00 -6.88592e+00 
-3.20896e+00  1.41761e+00 -7.05076e+00 
-3.05618e+00  1.34875e+00 -7.20863e+00 
-2.90384e+00  1.28026e+00 -7.35954e+00 
-2.75190e+00  1.21209e+00 -7.50335e+00 
-2.60039e+00  1.14430e+00 -7.64005e+00 
-2.44927e+00  1.07682e+00 -7.76954e+00 
-2.29857e+00  1.00969e+00 -7.89178e+00 
-2.14824e+00  9.42869e-01 -8.00668e+00 
-1.99831e+00  8.76382e-01 -8.11421e+00 
-1.84871e+00  8.10168e-01 -8.21429e+00 
-1.69948e+00  7.44260e-01 -8.30690e+00 
-1.55055e+00  6.78594e-01 -8.39196e+00 
-1.40194e+00  6.13200e-01 -8.46944e+00 
-1.25359e+00  5.48009e-01 -8.53928e+00 
-1.10551e+00  4.83048e-01 -8.60148e+00 
-9.57630e-01  4.18249e-01 -8.65596e+00 
-8.09976e-01  3.53636e-01 -8.70273e+00 
-6.62462e-01  2.89136e-01 -8.74173e+00 
-5.15116e-01  2.24776e-01 -8.77297e+00 
-3.67850e-01  1.60480e-01 -8.79641e+00 
-2.20692e-01  9.62725e-02 -8.81204e+00 
-7.35514e-02  3.20795e-02 -8.81986e+00 
 7.35514e-02 -3.20795e-02 -8.81986e+00 
 2.20692e-01 -9.62725e-02 -8.81204e+00 
 3.67850e-01 -1.60480e-01 -8.79641e+00 
 5.15116e-01 -2.24776e-01 -8.77297e+00 
 6.62462e-01 -2.89136e-01 -8.74173e+00 
 8.09976e-01 -3.53636e-01 -8.70273e+00 
 9.57630e-01 -4.18249e-01 -8.65596e+00 
 1.10551e+00 -4.83048e-01 -8.60148e+00 
 1.25359e+00 -5.48009e-01 -8.53928e+00 
 1.40194e+00 -6.13200e-01 -8.46944e+00 
 1.55055e+00 -6.78594e-01 -8.39196e+00 
 1.69948e+00 -7.44260e-01 -8.30690e+00 
 1.84871e+00 -8.10168e-01 -8.21429e+00 
 1.99831e+00 -8.76382e-01 -8.11421e+00 
 2.14824e+00 -9.42869e-01 -8.00668e+00 
 2.29857e+00 -1.00969e+00 -7.89178e+00 
 2.44927e+00 -1.07682e+00 -7.76954e+00 
 2.60039e+00 -1.14430e+00 -7.64005e+00 
 2.75190e+00 -1.21209e+00 -7.50335e+00 
 2.90384e+00 -1.28026e+00 -7.35954e+00 
 3.05618e+00 -1.34875e+00 -7.20863e+00 
 3.20896e+00 -1.41761e+00 -7.05076e+00 
 3.36212e+00 -1.48680e+00 -6.88592e+00 
 3.51572e+00 -1.55636e+00 -6.71426e+00 
 3.66969e+00 -1.62622e+00 -6.53578e+00 
 3.82406e+00 -1.69644e+00 -6.35061e+00 
 3.97876e+00 -1.76694e+00 -6.15876e+00 
 4.13384e+00 -1.83776e+00 -5.96035e+00 
 4.28920e+00 -1.90883e+00 -5.75539e+00 
 4.44489e+00 -1.98017e+00 -5.54400e+00 
 4.60079e+00 -2.05172e+00 -5.32617e+00 
 4.75695e+00 -2.12349e+00 -5.10203e+00 
 4.91325e+00 -2.19541e+00 -4.87154e+00 
 5.06973e+00 -2.26748e+00 -4.63483e+00 
 5.22627e+00 -2.33963e+00 -4.39185e+00 
 5.38288e+00 -2.41186e+00 -4.14272e+00 
 5.53946e+00 -2.48408e+00 -3.88736e+00 
 5.69601e+00 -2.55631e+00 -3.62589e+00 
 5.85242e+00 -2.62844e+00 -3.35820e+00 
 6.00869e+00 -2.70048e+00 -3.08440e+00 
 6.16471e+00 -2.77234e+00 -2.80436e+00 
 6.32047e+00 -2.84402e+00 -2.51816e+00 
 6.47587e+00 -2.91542e+00 -2.22566e+00 
 6.63090e+00 -2.98655e+00 -1.92692e+00 
 6.78545e+00 -3.05731e+00 -1.62176e+00 
 6.93953e+00 -3.12771e+00 -1.31024e+00 
 7.09303e+00 -3.19766e+00 -9.92145e-01 
 7.24595e+00 -3.26717e+00 -6.67509e-01 
 7.39820e+00 -3.33616e+00 -3.36104e-01 
 7.54979e+00 -3.42188e+00 -1.78916e-01 
-7.31500e+00  3.31544e+00 -1.77968e-01 
-7.16811e+00  3.23237e+00 -3.34340e-01 
-7.02045e+00  3.16539e+00 -6.64058e-01 
-6.87201e+00  3.09782e+00 -9.87121e-01 
-6.72292e+00  3.02975e+00 -1.30377e+00 
-6.57317e+00  2.96116e+00 -1.61399e+00 
-6.42288e+00  2.89216e+00 -1.91799e+00 
-6.27204e+00  2.82275e+00 -2.21573e+00 
-6.12080e+00  2.75303e+00 -2.50739e+00 
-5.96916e+00  2.68301e+00 -2.79291e+00 
-5.81723e+00  2.61278e+00 -3.07243e+00 
-5.66504e+00  2.54237e+00 -3.34587e+00 
-5.51270e+00  2.47186e+00 -3.61336e+00 
-5.36022e+00  2.40126e+00 -3.87479e+00 
-5.20772e+00  2.33066e+00 -4.13025e+00 
-5.05520e+00  2.26008e+00 -4.37963e+00 
-4.90279e+00  2.18960e+00 -4.62299e+00 
-4.75047e+00  2.11923e+00 -4.86021e+00 
-4.59836e+00  2.04904e+00 -5.09132e+00 
-4.44644e+00  1.97902e+00 -5.31620e+00 
-4.29482e+00  1.90927e+00 -5.53486e+00 
-4.14348e+00  1.83976e+00 -5.74717e+00 
-3.99251e+00  1.77057e+00 -5.95314e+00 
-3.84188e+00  1.70168e+00 -6.15261e+00 
-3.69168e+00  1.63315e+00 -6.34558e+00 
-3.54188e+00  1.56495e+00 -6.53192e+00 
-3.39255e+00  1.49715e+00 -6.71160e+00 
-3.24364e+00  1.42971e+00 -6.88448e+00 
-3.09524e+00  1.36269e+00 -7.05056e+00 
-2.94727e+00  1.29603e+00 -7.20968e+00 
-2.79982e+00  1.22979e+00 -7.36183e+00 
-2.65281e+00  1.16392e+00 -7.50687e+00 
-2.50630e+00  1.09847e+00 -7.64479e+00 
-2.36023e+00  1.03337e+00 -7.77545e+00 
-2.21465e+00  9.68674e-01 -7.89884e+00 
-2.06947e+00  9.04313e-01 -8.01485e+00 
-1.92475e+00  8.40323e-01 -8.12344e+00 
-1.78041e+00  7.76642e-01 -8.22453e+00 
-1.63648e+00  7.13298e-01 -8.31809e+00 
-1.49289e+00  6.50225e-01 -8.40403e+00 
-1.34966e+00  5.87451e-01 -8.48233e+00 
-1.20671e+00  5.24904e-01 -8.55292e+00 
-1.06408e+00  4.62610e-01 -8.61578e+00 
-9.21668e-01  4.00497e-01 -8.67086e+00 
-7.79506e-01  3.38585e-01 -8.71814e+00 
-6.37505e-01  2.76803e-01 -8.75757e+00 
-4.95688e-01  2.15171e-01 -8.78916e+00 
-3.53964e-01  1.53613e-01 -8.81285e+00 
-2.12356e-01  9.21496e-02 -8.82866e+00 
-7.07724e-02  3.07050e-02 -8.83657e+00 
 7.07724e-02 -3.07050e-02 -8.83657e+00 
 2.12356e-01 -9.21496e-02 -8.82866e+00 
 3.53964e-01 -1.53613e-01 -8.81285e+00 
 4.95688e-01 -2.15171e-01 -8.78916e+00 
 6.37505e-01 -2.76803e-01 -8.75757e+00 
 7.79506e-01 -3.38585e-01 -8.71814e+00 
 9.21668e-01 -4.00497e-01 -8.67086e+00 
 1.06408e+00 -4.62610e-01 -8.61578e+00 
 1.20671e+00 -5.24904e-01 -8.55292e+00 
 1.34966e+00 -5.87451e-01 -8.48233e+00 
 1.49289e+00 -6.50225e-01 -8.40403e+00 
 1.63648e+00 -7.13298e-01 -8.31809e+00 
 1.78041e+00 -7.76642e-01 -8.22453e+00 
 1.92475e+00 -8.40323e-01 -8.12344e+00 
 2.06947e+00 -9.04313e-01 -8.01485e+00 
 2.21465e+00 -9.68674e-01 -7.89884e+00 
 2.36023e+00 -1.03337e+00 -7.77545e+00 
 2.50630e+00 -1.09847e+00 -7.64479e+00 
 2.65281e+00 -1.16392e+00 -7.50687e+00 
 2.79982e+00 -1.22979e+00 -7.36183e+00 
 2.94727e+00 -1.29603e+00 -7.20968e+00 
 3.09524e+00 -1.36269e+00 -7.05056e+00 
 3.24364e+00 -1.42971e+00 -6.88448e+00 
 3.39255e+00 -1.49715e+00 -6.71160e+00 
 3.54188e+00 -1.56495e+00 -6.53192e+00 
 3.69168e+00 -1.63315e+00 -6.34558e+00 
 3.84188e+00 -1.70168e+00 -6.15261e+00 
 3.99251e+00 -1.77057e+00 -5.95314e+00 
 4.14348e+00 -1.83976e+00 -5.74717e+00 
 4.29482e+00 -1.90927e+00 -5.53486e+00 
 4.44644e+00 -1.97902e+00 -5.31620e+00 
 4.59836e+00 -2.04904e+00 -5.09132e+00 
 4.75047e+00 -2.11923e+00 -4.86021e+00 
 4.90279e+00 -2.18960e+00 -4.62299e+00 
 5.05520e+00 -2.26008e+00 -4.37963e+00 
 5.20772e+00 -2.33066e+00 -4.13025e+00 
 5.36022e+00 -2.40126e+00 -3.87479e+00 
 5.51270e+00 -2.47186e+00 -3.61336e+00 
 5.66504e+00 -2.54237e+00 -3.34587e+00 
 5.81723e+00 -2.61278e+00 -3.07243e+00 
 5.96916e+00 -2.68301e+00 -2.79291e+00 
 6.12080e+00 -2.75303e+00 -2.50739e+00 
 6.27204e+00 -2.82275e+00 -2.21573e+00 
 6.42288e+00 -2.89216e+00 -1.91799e+00 
 6.57317e+00 -2.96116e+00 -1.61399e+00 
 6.72292e+00 -3.02975e+00 -1.30377e+00 
 6.87201e+00 -3.09782e+00 -9.87121e-01 
 7.02045e+00 -3.16539e+00 -6.64058e-01 
 7.16811e+00 -3.23237e+00 -3.34340e-01 
 7.31500e+00 -3.31544e+00 -1.77968e-01 
-7.08158e+00  3.20963e+00 -1.76870e-01 
-6.93931e+00  3.12915e+00 -3.32301e-01 
-6.79615e+00  3.06415e+00 -6.60073e-01 
-6.65211e+00  2.99846e+00 -9.81334e-01 
-6.50731e+00  2.93219e+00 -1.29633e+00 
-6.36176e+00  2.86535e+00 -1.60507e+00 
-6.21560e+00  2.79803e+00 -1.90777e+00 
-6.06884e+00  2.73026e+00 -2.20439e+00 
-5.92162e+00  2.66215e+00 -2.49511e+00 
-5.77396e+00  2.59370e+00 -2.77988e+00 
-5.62599e+00  2.52503e+00 -3.05884e+00 
-5.47774e+00  2.45616e+00 -3.33191e+00 
-5.32934e+00  2.38719e+00 -3.59920e+00 
-5.18081e+00  2.31814e+00 -3.86062e+00 
-5.03228e+00  2.24911e+00 -4.11623e+00 
-4.88375e+00  2.18011e+00 -4.36592e+00 
-4.73536e+00  2.11124e+00 -4.60975e+00 
-4.58711e+00  2.04250e+00 -4.84758e+00 
-4.43910e+00  1.97399e+00 -5.07943e+00 
-4.29134e+00  1.90570e+00 -5.30516e+00 
-4.14394e+00  1.83770e+00 -5.52479e+00 
-3.99687e+00  1.77000e+00 -5.73816e+00 
-3.85024e+00  1.70267e+00 -5.94526e+00 
-3.70402e+00  1.63569e+00 -6.14594e+00 
-3.55830e+00  1.56912e+00 -6.34019e+00 
-3.41304e+00  1.50293e+00 -6.52784e+00 
-3.26832e+00  1.43720e+00 -6.70887e+00 
-3.12410e+00  1.37188e+00 -6.88312e+00 
-2.98045e+00  1.30702e+00 -7.05058e+00 
-2.83732e+00  1.24258e+00 -7.21109e+00 
-2.69475e+00  1.17862e+00 -7.36462e+00 
-2.55271e+00  1.11507e+00 -7.51102e+00 
-2.41122e+00  1.05198e+00 -7.65027e+00 
-2.27024e+00  9.89296e-01 -7.78224e+00 
-2.12980e+00  9.27051e-01 -7.90689e+00 
-1.98982e+00  8.65184e-01 -8.02410e+00 
-1.85036e+00  8.03726e-01 -8.13386e+00 
-1.71132e+00  7.42612e-01 -8.23604e+00 
-1.57274e+00  6.81868e-01 -8.33063e+00 
-1.43455e+00  6.21427e-01 -8.41753e+00 
-1.29675e+00  5.61311e-01 -8.49671e+00 
-1.15928e+00  5.01449e-01 -8.56811e+00 
-1.02215e+00  4.41861e-01 -8.63170e+00 
-8.85269e-01  3.82474e-01 -8.68742e+00 
-7.48664e-01  3.23306e-01 -8.73525e+00 
-6.12242e-01  2.64283e-01 -8.77515e+00 
-4.76020e-01  2.05420e-01 -8.80711e+00 
-3.39906e-01  1.46642e-01 -8.83109e+00 
-2.03917e-01  8.79639e-02 -8.84709e+00 
-6.79591e-02  2.93096e-02 -8.85509e+00 
 6.79591e-02 -2.93096e-02 -8.85509e+00 
 2.03917e-01 -8.79639e-02 -8.84709e+00 
 3.39906e-01 -1.46642e-01 -8.83109e+00 
 4.76020e-01 -2.05420e-01 -8.80711e+00 
 6.12242e-01 -2.64283e-01 -8.77515e+00 
 7.48664e-01 -3.23306e-01 -8.73525e+00 
 8.85269e-01 -3.82474e-01 -8.68742e+00 
 1.02215e+00 -4.41861e-01 -8.63170e+00 
 1.15928e+00 -5.01449e-01 -8.56811e+00 
 1.29675e+00 -5.61311e-01 -8.49671e+00 
 1.43455e+00 -6.21427e-01 -8.41753e+00 
 1.57274e+00 -6.81868e-01 -8.33063e+00 
 1.71132e+00 -7.42612e-01 -8.23604e+00 
 1.85036e+00 -8.03726e-01 -8.13386e+00 
 1.98982e+00 -8.65184e-01 -8.02410e+00 
 2.12980e+00 -9.27051e-01 -7.90689e+00 
 2.27024e+00 -9.89296e-01 -7.78224e+00 
 2.41122e+00 -1.05198e+00 -7.65027e+00 
 2.55271e+00 -1.11507e+00 -7.51102e+00 
 2.69475e+00 -1.17862e+00 -7.36462e+00 
 2.83732e+00 -1.24258e+00 -7.21109e+00 
 2.98045e+00 -1.30702e+00 -7.05058e+00 
 3.12410e+00 -1.37188e+00 -6.88312e+00 
 3.26832e+00 -1.43720e+00 -6.70887e+00 
 3.41304e+00 -1.50293e+00 -6.52784e+00 
 3.55830e+00 -1.56912e+00 -6.34019e+00 
 3.70402e+00 -1.63569e+00 -6.14594e+00 
 3.85024e+00 -1.70267e+00 -5.94526e+00 
 3.99687e+00 -1.77000e+00 -5.73816e+00 
 4.14394e+00 -1.83770e+00 -5.52479e+00 
 4.29134e+00 -1.90570e+00 -5.30516e+00 
 4.43910e+00 -1.97399e+00 -5.07943e+00 
 4.58711e+00 -2.04250e+00 -4.84758e+00 
 4.73536e+00 -2.11124e+00 -4.60975e+00 
 4.88375e+00 -2.18011e+00 -4.36592e+00 
 5.03228e+00 -2.24911e+00 -4.11623e+00 
 5.18081e+00 -2.31814e+00 -3.86062e+00 
 5.32934e+00 -2.38719e+00 -3.59920e+00 
 5.47774e+00 -2.45616e+00 -3.33191e+00 
 5.62599e+00 -2.52503e+00 -3.05884e+00 
 5.77396e+00 -2.59370e+00 -2.77988e+00 
 5.92162e+00 -2.66215e+00 -2.49511e+00 
 6.06884e+00 -2.73026e+00 -2.20439e+00 
 6.21560e+00 -2.79803e+00 -1.90777e+00 
 6.36176e+00 -2.86535e+00 -1.60507e+00 
 6.50731e+00 -2.93219e+00 -1.29633e+00 
 6.65211e+00 -2.99846e+00 -9.81334e-01 
 6.79615e+00 -3.06415e+00 -6.60073e-01 
 6.93931e+00 -3.12915e+00 -3.32301e-01 
 7.08158e+00 -3.20963e+00 -1.76870e-01 
-6.84975e+00  3.10454e+00 -1.75604e-01 
-6.71201e+00  3.02661e+00 -3.29950e-01 
-6.57324e+00  2.96352e+00 -6.55487e-01 
-6.43347e+00  2.89965e+00 -9.74684e-01 
-6.29283e+00  2.83511e+00 -1.28781e+00 
-6.15135e+00  2.76993e+00 -1.59487e+00 
-6.00917e+00  2.70421e+00 -1.89610e+00 
-5.86633e+00  2.63799e+00 -2.19147e+00 
-5.72297e+00  2.57138e+00 -2.48115e+00 
-5.57914e+00  2.50442e+00 -2.76511e+00 
-5.43499e+00  2.43721e+00 -3.04347e+00 
-5.29053e+00  2.36980e+00 -3.31616e+00 
-5.14593e+00  2.30229e+00 -3.58328e+00 
-5.00121e+00  2.23470e+00 -3.84472e+00 
-4.85651e+00  2.16716e+00 -4.10055e+00 
-4.71185e+00  2.09968e+00 -4.35064e+00 
-4.56737e+00  2.03235e+00 -4.59504e+00 
-4.42307e+00  1.96520e+00 -4.83359e+00 
-4.27908e+00  1.89831e+00 -5.06630e+00 
-4.13540e+00  1.83169e+00 -5.29304e+00 
-3.99213e+00  1.76543e+00 -5.51377e+00 
-3.84928e+00  1.69951e+00 -5.72835e+00 
-3.70694e+00  1.63401e+00 -5.93675e+00 
-3.56508e+00  1.56892e+00 -6.13880e+00 
-3.42380e+00  1.50430e+00 -6.33448e+00 
-3.28307e+00  1.44013e+00 -6.52360e+00 
-3.14295e+00  1.37647e+00 -6.70613e+00 
-3.00342e+00  1.31327e+00 -6.88192e+00 
-2.86453e+00  1.25060e+00 -7.05091e+00 
-2.72623e+00  1.18840e+00 -7.21295e+00 
-2.58858e+00  1.12673e+00 -7.36799e+00 
-2.45151e+00  1.06553e+00 -7.51589e+00 
-2.31509e+00  1.00483e+00 -7.65660e+00 
-2.17922e+00  9.44591e-01 -7.78999e+00 
-2.04397e+00  8.84831e-01 -7.91601e+00 
-1.90924e+00  8.25493e-01 -8.03454e+00 
-1.77508e+00  7.66602e-01 -8.14555e+00 
-1.64140e+00  7.08093e-01 -8.24891e+00 
-1.50823e+00  6.49988e-01 -8.34461e+00 
-1.37549e+00  5.92216e-01 -8.43254e+00 
-1.24319e+00  5.34797e-01 -8.51268e+00 
-1.11126e+00  4.77659e-01 -8.58495e+00 
-9.79692e-01  4.20816e-01 -8.64931e+00 
-8.48414e-01  3.64196e-01 -8.70572e+00 
-7.17434e-01  3.07811e-01 -8.75414e+00 
-5.86661e-01  2.51586e-01 -8.79454e+00 
-4.56104e-01  1.95532e-01 -8.82689e+00 
-3.25671e-01  1.39573e-01 -8.85117e+00 
-1.95371e-01  8.37193e-02 -8.86737e+00 
-6.51101e-02  2.78945e-02 -8.87547e+00 
 6.51101e-02 -2.78945e-02 -8.87547e+00 
 1.95371e-01 -8.37193e-02 -8.86737e+00 
 3.25671e-01 -1.39573e-01 -8.85117e+00 
 4.56104e-01 -1.95532e-01 -8.82689e+00 
 5.86661e-01 -2.51586e-01 -8.79454e+00 
 7.17434e-01 -3.07811e-01 -8.75414e+00 
 8.48414e-01 -3.64196e-01 -8.70572e+00 
 9.79692e-01 -4.20816e-01 -8.64931e+00 
 1.11126e+00 -4.77659e-01 -8.58495e+00 
 1.24319e+00 -5.34797e-01 -8.51268e+00 
 1.37549e+00 -5.92216e-01 -8.43254e+00 
 1.50823e+00 -6.49988e-01 -8.34461e+00 
 1.64140e+00 -7.08093e-01 -8.24891e+00 
 1.77508e+00 -7.66602e-01 -8.14555e+00 
 1.90924e+00 -8.25493e-01 -8.03454e+00 
 2.04397e+00 -8.84831e-01 -7.91601e+00 
 2.17922e+00 -9.44591e-01 -7.78999e+00 
 2.31509e+00 -1.00483e+00 -7.65660e+00 
 2.45151e+00 -1.06553e+00 -7.51589e+00 
 2.58858e+00 -1.12673e+00 -7.36799e+00 
 2.72623e+00 -1.18840e+00 -7.21295e+00 
 2.86453e+00 -1.25060e+00 -7.05091e+00 
 3.00342e+00 -1.31327e+00 -6.88192e+00 
 3.14295e+00 -1.37647e+00 -6.70613e+00 
 3.28307e+00 -1.44013e+00 -6.52360e+00 
 3.42380e+00 -1.50430e+00 -6.33448e+00 
 3.56508e+00 -1.56892e+00 -6.13880e+00 
 3.70694e+00 -1.63401e+00 -5.93675e+00 
 3.84928e+00 -1.69951e+00 -5.72835e+00 
 3.99213e+00 -1.76543e+00 -5.51377e+00 
 4.13540e+00 -1.83169e+00 -5.29304e+00 
 4.27908e+00 -1.89831e+00 -5.06630e+00 
 4.42307e+00 -1.96520e+00 -4.83359e+00 
 4.56737e+00 -2.03235e+00 -4.59504e+00 
 4.71185e+00 -2.09968e+00 -4.35064e+00 
 4.85651e+00 -2.16716e+00 -4.10055e+00 
 5.00121e+00 -2.23470e+00 -3.84472e+00 
 5.14593e+00 -2.30229e+00 -3.58328e+00 
 5.29053e+00 -2.36980e+00 -3.31616e+00 
 5.43499e+00 -2.43721e+00 -3.04347e+00 
 5.57914e+00 -2.50442e+00 -2.76511e+00 
 5.72297e+00 -2.57138e+00 -2.48115e+00 
 5.86633e+00 -2.63799e+00 -2.19147e+00 
 6.00917e+00 -2.70421e+00 -1.89610e+00 
 6.15135e+00 -2.76993e+00 -1.59487e+00 
 6.29283e+00 -2.83511e+00 -1.28781e+00 
 6.43347e+00 -2.89965e+00 -9.74684e-01 
 6.57324e+00 -2.96352e+00 -6.55487e-01 
 6.71201e+00 -3.02661e+00 -3.29950e-01 
 6.84975e+00 -3.10454e+00 -1.75604e-01 
-6.61975e+00  3.00028e+00 -1.74146e-01 
-6.48642e+00  2.92483e+00 -3.27247e-01 
-6.35192e+00  2.86359e+00 -6.50221e-01 
-6.21627e+00  2.80146e+00 -9.67067e-01 
-6.07963e+00  2.73857e+00 -1.27806e+00 
-5.94204e+00  2.67495e+00 -1.58324e+00 
-5.80368e+00  2.61073e+00 -1.88283e+00 
-5.66458e+00  2.54595e+00 -2.17681e+00 
-5.52492e+00  2.48075e+00 -2.46536e+00 
-5.38474e+00  2.41516e+00 -2.74844e+00 
-5.24422e+00  2.34932e+00 -3.02618e+00 
-5.10339e+00  2.28326e+00 -3.29849e+00 
-4.96243e+00  2.21712e+00 -3.56546e+00 
-4.82136e+00  2.15092e+00 -3.82698e+00 
-4.68035e+00  2.08479e+00 -4.08311e+00 
-4.53943e+00  2.01874e+00 -4.33370e+00 
-4.39873e+00  1.95290e+00 -4.57878e+00 
-4.25827e+00  1.88727e+00 -4.81819e+00 
-4.11819e+00  1.82197e+00 -5.05192e+00 
-3.97850e+00  1.75698e+00 -5.27980e+00 
-3.83931e+00  1.69241e+00 -5.50182e+00 
-3.70060e+00  1.62825e+00 -5.71778e+00 
-3.56250e+00  1.56457e+00 -5.92765e+00 
-3.42497e+00  1.50137e+00 -6.13124e+00 
-3.28810e+00  1.43870e+00 -6.32852e+00 
-3.15188e+00  1.37654e+00 -6.51928e+00 
-3.01635e+00  1.31496e+00 -6.70349e+00 
-2.88150e+00  1.25390e+00 -6.88096e+00 
-2.74738e+00  1.19343e+00 -7.05164e+00 
-2.61394e+00  1.13350e+00 -7.21536e+00 
-2.48122e+00  1.07415e+00 -7.37206e+00 
-2.34918e+00  1.01532e+00 -7.52159e+00 
-2.21784e+00  9.57051e-01 -7.66389e+00 
-2.08714e+00  8.99285e-01 -7.79881e+00 
-1.95712e+00  8.42046e-01 -7.92631e+00 
-1.82769e+00  7.85274e-01 -8.04625e+00 
-1.69889e+00  7.28988e-01 -8.15860e+00 
-1.57063e+00  6.73121e-01 -8.26324e+00 
-1.44293e+00  6.17691e-01 -8.36012e+00 
-1.31570e+00  5.62628e-01 -8.44915e+00 
-1.18897e+00  5.07944e-01 -8.53030e+00 
-1.06263e+00  4.53567e-01 -8.60349e+00 
-9.36705e-01  3.99507e-01 -8.66867e+00 
-8.11096e-01  3.45689e-01 -8.72580e+00 
-6.85811e-01  2.92123e-01 -8.77485e+00 
-5.60757e-01  2.38731e-01 -8.81577e+00 
-4.35937e-01  1.85521e-01 -8.84855e+00 
-3.11256e-01  1.32417e-01 -8.87314e+00 
-1.86718e-01  7.94228e-02 -8.88955e+00 
-6.22252e-02  2.64622e-02 -8.89776e+00 
 6.22252e-02 -2.64622e-02 -8.89776e+00 
 1.86718e-01 -7.94228e-02 -8.88955e+00 
 3.11256e-01 -1.32417e-01 -8.87314e+00 
 4.35937e-01 -1.85521e-01 -8.84855e+00 
 5.60757e-01 -2.38731e-01 -8.81577e+00 
 6.85811e-01 -2.92123e-01 -8.77485e+00 
 8.11096e-01 -3.45689e-01 -8.72580e+00 
 9.36705e-01 -3.99507e-01 -8.66867e+00 
 1.06263e+00 -4.53567e-01 -8.60349e+00 
 1.18897e+00 -5.07944e-01 -8.53030e+00 
 1.31570e+00 -5.62628e-01 -8.44915e+00 
 1.44293e+00 -6.17691e-01 -8.36012e+00 
 1.57063e+00 -6.73121e-01 -8.26324e+00 
 1.69889e+00 -7.28988e-01 -8.15860e+00 
 1.82769e+00 -7.85274e-01 -8.04625e+00 
 1.95712e+00 -8.42046e-01 -7.92631e+00 
 2.08714e+00 -8.99285e-01 -7.79881e+00 
 2.21784e+00 -9.57051e-01 -7.66389e+00 
 2.34918e+00 -1.01532e+00 -7.52159e+00 
 2.48122e+00 -1.07415e+00 -7.37206e+00 
 2.61394e+00 -1.13350e+00 -7.21536e+00 
 2.74738e+00 -1.19343e+00 -7.05164e+00 
 2.88150e+00 -1.25390e+00 -6.88096e+00 
 3.01635e+00 -1.31496e+00 -6.70349e+00 
 3.15188e+00 -1.37654e+00 -6.51928e+00 
 3.28810e+00 -1.43870e+00 -6.32852e+00 
 3.42497e+00 -1.50137e+00 -6.13124e+00 
 3.56250e+00 -1.56457e+00 -5.92765e+00 
 3.70060e+00 -1.62825e+00 -5.71778e+00 
 3.83931e+00 -1.69241e+00 -5.50182e+00 
 3.97850e+00 -1.75698e+00 -5.27980e+00 
 4.11819e+00 -1.82197e+00 -5.05192e+00 
 4.25827e+00 -1.88727e+00 -4.81819e+00 
 4.39873e+00 -1.95290e+00 -4.57878e+00 
 4.53943e+00 -2.01874e+00 -4.33370e+00 
 4.68035e+00 -2.08479e+00 -4.08311e+00 
 4.82136e+00 -2.15092e+00 -3.82698e+00 
 4.96243e+00 -2.21712e+00 -3.56546e+00 
 5.10339e+00 -2.28326e+00 -3.29849e+00 
 5.24422e+00 -2.34932e+00 -3.02618e+00 
 5.38474e+00 -2.41516e+00 -2.74844e+00 
 5.52492e+00 -2.48075e+00 -2.46536e+00 
 5.66458e+00 -2.54595e+00 -2.17681e+00 
 5.80368e+00 -2.61073e+00 -1.88283e+00 
 5.94204e+00 -2.67495e+00 -1.58324e+00 
 6.07963e+00 -2.73857e+00 -1.27806e+00 
 6.21627e+00 -2.80146e+00 -9.67067e-01 
 6.35192e+00 -2.86359e+00 -6.50221e-01 
 6.48642e+00 -2.92483e+00 -3.27247e-01 
 6.61975e+00 -3.00028e+00 -1.74146e-01 
-6.39186e+00  2.89700e+00 -1.72473e-01 
-6.26281e+00  2.82394e+00 -3.24147e-01 
-6.13241e+00  2.76446e+00 -6.44194e-01 
-6.00070e+00  2.70398e+00 -9.58366e-01 
-5.86788e+00  2.64263e+00 -1.26696e+00 
-5.73400e+00  2.58046e+00 -1.57002e+00 
-5.59924e+00  2.51763e+00 -1.86778e+00 
-5.46368e+00  2.45418e+00 -2.16023e+00 
-5.32750e+00  2.39027e+00 -2.44756e+00 
-5.19078e+00  2.32594e+00 -2.72970e+00 
-5.05369e+00  2.26135e+00 -3.00679e+00 
-4.91630e+00  2.19655e+00 -3.27873e+00 
-4.77879e+00  2.13167e+00 -3.54561e+00 
-4.64121e+00  2.06676e+00 -3.80729e+00 
-4.50373e+00  2.00195e+00 -4.06382e+00 
-4.36639e+00  1.93727e+00 -4.31503e+00 
-4.22934e+00  1.87284e+00 -4.56094e+00 
-4.09262e+00  1.80869e+00 -4.80136e+00 
-3.95635e+00  1.74492e+00 -5.03628e+00 
-3.82055e+00  1.68153e+00 -5.26549e+00 
-3.68535e+00  1.61863e+00 -5.48897e+00 
-3.55074e+00  1.55621e+00 -5.70649e+00 
-3.41682e+00  1.49434e+00 -5.91802e+00 
-3.28358e+00  1.43302e+00 -6.12335e+00 
-3.15110e+00  1.37230e+00 -6.32241e+00 
-3.01937e+00  1.31217e+00 -6.51500e+00 
-2.88844e+00  1.25268e+00 -6.70106e+00 
-2.75828e+00  1.19379e+00 -6.88038e+00 
-2.62894e+00  1.13555e+00 -7.05291e+00 
-2.50038e+00  1.07791e+00 -7.21845e+00 
-2.37263e+00  1.02091e+00 -7.37695e+00 
-2.24564e+00  9.64494e-01 -7.52823e+00 
-2.11944e+00  9.08688e-01 -7.67223e+00 
-1.99396e+00  8.53435e-01 -7.80880e+00 
-1.86922e+00  7.98756e-01 -7.93788e+00 
-1.74515e+00  7.44587e-01 -8.05933e+00 
-1.62177e+00  6.90943e-01 -8.17311e+00 
-1.49899e+00  6.37757e-01 -8.27908e+00 
-1.37682e+00  5.85040e-01 -8.37722e+00 
-1.25518e+00  5.32720e-01 -8.46741e+00 
-1.13407e+00  4.80806e-01 -8.54962e+00 
-1.01341e+00  4.29224e-01 -8.62376e+00 
-8.93186e-01  3.77979e-01 -8.68981e+00 
-7.73316e-01  3.26996e-01 -8.74769e+00 
-6.53797e-01  2.76279e-01 -8.79739e+00 
-5.34532e-01  2.25751e-01 -8.83885e+00 
-4.15520e-01  1.75414e-01 -8.87206e+00 
-2.96663e-01  1.25192e-01 -8.89699e+00 
-1.77957e-01  7.50852e-02 -8.91362e+00 
-5.93045e-02  2.50162e-02 -8.92193e+00 
 5.93045e-02 -2.50162e-02 -8.92193e+00 
 1.77957e-01 -7.50852e-02 -8.91362e+00 
 2.96663e-01 -1.25192e-01 -8.89699e+00 
 4.15520e-01 -1.75414e-01 -8.87206e+00 
 5.34532e-01 -2.25751e-01 -8.83885e+00 
 6.53797e-01 -2.76279e-01 -8.79739e+00 
 7.73316e-01 -3.26996e-01 -8.74769e+00 
 8.93186e-01 -3.77979e-01 -8.68981e+00 
 1.01341e+00 -4.29224e-01 -8.62376e+00 
 1.13407e+00 -4.80806e-01 -8.54962e+00 
 1.25518e+00 -5.32720e-01 -8.46741e+00 
 1.37682e+00 -5.85040e-01 -8.37722e+00 
 1.49899e+00 -6.37757e-01 -8.27908e+00 
 1.62177e+00 -6.90943e-01 -8.17311e+00 
 1.74515e+00 -7.44587e-01 -8.05933e+00 
 1.86922e+00 -7.98756e-01 -7.93788e+00 
 1.99396e+00 -8.53435e-01 -7.80880e+00 
 2.11944e+00 -9.08688e-01 -7.67223e+00 
 2.24564e+00 -9.64494e-01 -7.52823e+00 
 2.37263e+00 -1.02091e+00 -7.37695e+00 
 2.50038e+00 -1.07791e+00 -7.21845e+00 
 2.62894e+00 -1.13555e+00 -7.05291e+00 
 2.75828e+00 -1.19379e+00 -6.88038e+00 
 2.88844e+00 -1.25268e+00 -6.70106e+00 
 3.01937e+00 -1.31217e+00 -6.51500e+00 
 3.15110e+00 -1.37230e+00 -6.32241e+00 
 3.28358e+00 -1.43302e+00 -6.12335e+00 
 3.41682e+00 -1.49434e+00 -5.91802e+00 
 3.55074e+00 -1.55621e+00 -5.70649e+00 
 3.68535e+00 -1.61863e+00 -5.48897e+00 
 3.82055e+00 -1.68153e+00 -5.26549e+00 
 3.95635e+00 -1.74492e+00 -5.03628e+00 
 4.09262e+00 -1.80869e+00 -4.80136e+00 
 4.22934e+00 -1.87284e+00 -4.56094e+00 
 4.36639e+00 -1.93727e+00 -4.31503e+00 
 4.50373e+00 -2.00195e+00 -4.06382e+00 
 4.64121e+00 -2.06676e+00 -3.80729e+00 
 4.77879e+00 -2.13167e+00 -3.54561e+00 
 4.91630e+00 -2.19655e+00 -3.27873e+00 
 5.05369e+00 -2.26135e+00 -3.00679e+00 
 5.19078e+00 -2.32594e+00 -2.72970e+00 
 5.32750e+00 -2.39027e+00 -2.44756e+00 
 5.46368e+00 -2.45418e+00 -2.16023e+00 
 5.59924e+00 -2.51763e+00 -1.86778e+00 
 5.73400e+00 -2.58046e+00 -1.57002e+00 
 5.86788e+00 -2.64263e+00 -1.26696e+00 
 6.00070e+00 -2.70398e+00 -9.58366e-01 
 6.13241e+00 -2.76446e+00 -6.44194e-01 
 6.26281e+00 -2.82394e+00 -3.24147e-01 
 6.39186e+00 -2.89700e+00 -1.72473e-01 
-6.16640e+00  2.79482e+00 -1.70558e-01 
-6.04146e+00  2.72406e+00 -3.20602e-01 
-5.91496e+00  2.66625e+00 -6.37314e-01 
-5.78699e+00  2.60730e+00 -9.48457e-01 
-5.65775e+00  2.54737e+00 -1.25435e+00 
-5.52734e+00  2.48653e+00 -1.55504e+00 
-5.39596e+00  2.42495e+00 -1.85078e+00 
-5.26370e+00  2.36270e+00 -2.14157e+00 
-5.13077e+00  2.29994e+00 -2.42756e+00 
-4.99727e+00  2.23675e+00 -2.70872e+00 
-4.86339e+00  2.17329e+00 -2.98516e+00 
-4.72923e+00  2.10963e+00 -3.25677e+00 
-4.59497e+00  2.04591e+00 -3.52362e+00 
-4.46069e+00  1.98219e+00 -3.78557e+00 
-4.32656e+00  1.91862e+00 -4.04262e+00 
-4.19265e+00  1.85524e+00 -4.29461e+00 
-4.05911e+00  1.79216e+00 -4.54151e+00 
-3.92599e+00  1.72943e+00 -4.78313e+00 
-3.79342e+00  1.66715e+00 -5.01943e+00 
-3.66144e+00  1.60533e+00 -5.25017e+00 
-3.53015e+00  1.54408e+00 -5.47531e+00 
-3.39957e+00  1.48338e+00 -5.69461e+00 
-3.26979e+00  1.42332e+00 -5.90801e+00 
-3.14081e+00  1.36389e+00 -6.11526e+00 
-3.01271e+00  1.30515e+00 -6.31630e+00 
-2.88547e+00  1.24707e+00 -6.51090e+00 
-2.75914e+00  1.18970e+00 -6.69898e+00 
-2.63368e+00  1.13300e+00 -6.88032e+00 
-2.50916e+00  1.07703e+00 -7.05485e+00 
-2.38551e+00  1.02172e+00 -7.22237e+00 
-2.26277e+00  9.67104e-01 -7.38279e+00 
-2.14088e+00  9.13136e-01 -7.53595e+00 
-2.01987e+00  8.59834e-01 -7.68177e+00 
-1.89966e+00  8.07135e-01 -7.82008e+00 
-1.78027e+00  7.55055e-01 -7.95082e+00 
-1.66162e+00  7.03529e-01 -8.07385e+00 
-1.54372e+00  6.52566e-01 -8.18912e+00 
-1.42648e+00  6.02096e-01 -8.29649e+00 
-1.30992e+00  5.52125e-01 -8.39593e+00 
-1.19393e+00  5.02581e-01 -8.48731e+00 
-1.07852e+00  4.53467e-01 -8.57062e+00 
-9.63597e-01  4.04708e-01 -8.64576e+00 
-8.49152e-01  3.56304e-01 -8.71269e+00 
-7.35090e-01  3.08179e-01 -8.77135e+00 
-6.21406e-01  2.60334e-01 -8.82171e+00 
-5.08000e-01  2.12690e-01 -8.86373e+00 
-3.94864e-01  1.65246e-01 -8.89739e+00 
-2.81899e-01  1.17924e-01 -8.92265e+00 
-1.69094e-01  7.07221e-02 -8.93950e+00 
-5.63498e-02  2.35617e-02 -8.94793e+00 
 5.63498e-02 -2.35617e-02 -8.94793e+00 
 1.69094e-01 -7.07221e-02 -8.93950e+00 
 2.81899e-01 -1.17924e-01 -8.92265e+00 
 3.94864e-01 -1.65246e-01 -8.89739e+00 
 5.08000e-01 -2.12690e-01 -8.86373e+00 
 6.21406e-01 -2.60334e-01 -8.82171e+00 
 7.35090e-01 -3.08179e-01 -8.77135e+00 
 8.49152e-01 -3.56304e-01 -8.71269e+00 
 9.63597e-01 -4.04708e-01 -8.64576e+00 
 1.07852e+00 -4.53467e-01 -8.57062e+00 
 1.19393e+00 -5.02581e-01 -8.48731e+00 
 1.30992e+00 -5.52125e-01 -8.39593e+00 
 1.42648e+00 -6.02096e-01 -8.29649e+00 
 1.54372e+00 -6.52566e-01 -8.18912e+00 
 1.66162e+00 -7.03529e-01 -8.07385e+00 
 1.78027e+00 -7.55055e-01 -7.95082e+00 
 1.89966e+00 -8.07135e-01 -7.82008e+00 
 2.01987e+00 -8.59834e-01 -7.68177e+00 
 2.14088e+00 -9.13136e-01 -7.53595e+00 
 2.26277e+00 -9.67104e-01 -7.38279e+00 
 2.38551e+00 -1.02172e+00 -7.22237e+00 
 2.50916e+00 -1.07703e+00 -7.05485e+00 
 2.63368e+00 -1.13300e+00 -6.88032e+00 
 2.75914e+00 -1.18970e+00 -6.69898e+00 
 2.88547e+00 -1.24707e+00 -6.51090e+00 
 3.01271e+00 -1.30515e+00 -6.31630e+00 
 3.14081e+00 -1.36389e+00 -6.11526e+00 
 3.26979e+00 -1.42332e+00 -5.90801e+00 
 3.39957e+00 -1.48338e+00 -5.69461e+00 
 3.53015e+00 -1.54408e+00 -5.47531e+00 
 3.66144e+00 -1.60533e+00 -5.25017e+00 
 3.79342e+00 -1.66715e+00 -5.01943e+00 
 3.92599e+00 -1.72943e+00 -4.78313e+00 
 4.05911e+00 -1.79216e+00 -4.54151e+00 
 4.19265e+00 -1.85524e+00 -4.29461e+00 
 4.32656e+00 -1.91862e+00 -4.04262e+00 
 4.46069e+00 -1.98219e+00 -3.78557e+00 
 4.59497e+00 -2.04591e+00 -3.52362e+00 
 4.72923e+00 -2.10963e+00 -3.25677e+00 
 4.86339e+00 -2.17329e+00 -2.98516e+00 
 4.99727e+00 -2.23675e+00 -2.70872e+00 
 5.13077e+00 -2.29994e+00 -2.42756e+00 
 5.26370e+00 -2.36270e+00 -2.14157e+00 
 5.39596e+00 -2.42495e+00 -1.85078e+00 
 5.52734e+00 -2.48653e+00 -1.55504e+00 
 5.65775e+00 -2.54737e+00 -1.25435e+00 
 5.78699e+00 -2.60730e+00 -9.48457e-01 
 5.91496e+00 -2.66625e+00 -6.37314e-01 
 6.04146e+00 -2.72406e+00 -3.20602e-01 
 6.16640e+00 -2.79482e+00 -1.70558e-01 
-5.94373e+00  2.69392e+00 -1.68371e-01 
-5.82267e+00  2.62533e+00 -3.16560e-01 
-5.69984e+00  2.56907e+00 -6.29482e-01 
-5.57536e+00  2.51152e+00 -9.37207e-01 
-5.44945e+00  2.45287e+00 -1.24007e+00 
-5.32224e+00  2.39322e+00 -1.53814e+00 
-5.19395e+00  2.33274e+00 -1.83166e+00 
-5.06471e+00  2.27154e+00 -2.12063e+00 
-4.93476e+00  2.20979e+00 -2.40522e+00 
-4.80422e+00  2.14760e+00 -2.68536e+00 
-4.67330e+00  2.08514e+00 -2.96117e+00 
-4.54212e+00  2.02249e+00 -3.23251e+00 
-4.41089e+00  1.95982e+00 -3.49943e+00 
-4.27971e+00  1.89720e+00 -3.76176e+00 
-4.14875e+00  1.83478e+00 -4.01950e+00 
-4.01810e+00  1.77261e+00 -4.27244e+00 
-3.88793e+00  1.71083e+00 -4.52054e+00 
-3.75828e+00  1.64947e+00 -4.76357e+00 
-3.62931e+00  1.58865e+00 -5.00146e+00 
-3.50104e+00  1.52839e+00 -5.23397e+00 
-3.37360e+00  1.46877e+00 -5.46100e+00 
-3.24700e+00  1.40981e+00 -5.68229e+00 
-3.12133e+00  1.35157e+00 -5.89777e+00 
-2.99659e+00  1.29405e+00 -6.10716e+00 
-2.87286e+00  1.23730e+00 -6.31038e+00 
-2.75011e+00  1.18130e+00 -6.50718e+00 
-2.62840e+00  1.12609e+00 -6.69745e+00 
-2.50768e+00  1.07163e+00 -6.88097e+00 
-2.38800e+00  1.01796e+00 -7.05765e+00 
-2.26931e+00  9.65027e-01 -7.22727e+00 
-2.15164e+00  9.12853e-01 -7.38974e+00 
-2.03491e+00  8.61381e-01 -7.54488e+00 
-1.91914e+00  8.10626e-01 -7.69260e+00 
-1.80426e+00  7.60525e-01 -7.83273e+00 
-1.69029e+00  7.11086e-01 -7.96520e+00 
-1.57712e+00  6.62241e-01 -8.08987e+00 
-1.46478e+00  6.13994e-01 -8.20667e+00 
-1.35316e+00  5.66272e-01 -8.31548e+00 
-1.24226e+00  5.19078e-01 -8.41624e+00 
-1.13200e+00  4.72335e-01 -8.50885e+00 
-1.02236e+00  4.26043e-01 -8.59327e+00 
-9.13240e-01  3.80125e-01 -8.66941e+00 
-8.04638e-01  3.34578e-01 -8.73724e+00 
-6.96451e-01  2.89326e-01 -8.79668e+00 
-5.88667e-01  2.44362e-01 -8.84771e+00 
-4.81184e-01  1.99610e-01 -8.89029e+00 
-3.73989e-01  1.55065e-01 -8.92439e+00 
-2.66978e-01  1.10649e-01 -8.94998e+00 
-1.60137e-01  6.63548e-02 -8.96706e+00 
-5.33639e-02  2.21060e-02 -8.97560e+00 
 5.33639e-02 -2.21060e-02 -8.97560e+00 
 1.60137e-01 -6.63548e-02 -8.96706e+00 
 2.66978e-01 -1.10649e-01 -8.94998e+00 
 3.73989e-01 -1.55065e-01 -8.92439e+00 
 4.81184e-01 -1.99610e-01 -8.89029e+00 
 5.88667e-01 -2.44362e-01 -8.84771e+00 
 6.96451e-01 -2.89326e-01 -8.79668e+00 
 8.04638e-01 -3.34578e-01 -8.73724e+00 
 9.13240e-01 -3.80125e-01 -8.66941e+00 
 1.02236e+00 -4.26043e-01 -8.59327e+00 
 1.13200e+00 -4.72335e-01 -8.50885e+00 
 1.24226e+00 -5.19078e-01 -8.41624e+00 
 1.35316e+00 -5.66272e-01 -8.31548e+00 
 1.46478e+00 -6.13994e-01 -8.20667e+00 
 1.57712e+00 -6.62241e-01 -8.08987e+00 
 1.69029e+00 -7.11086e-01 -7.96520e+00 
 1.80426e+00 -7.60525e-01 -7.83273e+00 
 1.91914e+00 -8.10626e-01 -7.69260e+00 
 2.03491e+00 -8.61381e-01 -7.54488e+00 
 2.15164e+00 -9.12853e-01 -7.38974e+00 
 2.26931e+00 -9.65027e-01 -7.22727e+00 
 2.38800e+00 -1.01796e+00 -7.05765e+00 
 2.50768e+00 -1.07163e+00 -6.88097e+00 
 2.62840e+00 -1.12609e+00 -6.69745e+00 
 2.75011e+00 -1.18130e+00 -6.50718e+00 
 2.87286e+00 -1.23730e+00 -6.31038e+00 
 2.99659e+00 -1.29405e+00 -6.10716e+00 
 3.12133e+00 -1.35157e+00 -5.89777e+00 
 3.24700e+00 -1.40981e+00 -5.68229e+00 
 3.37360e+00 -1.46877e+00 -5.46100e+00 
 3.50104e+00 -1.52839e+00 -5.23397e+00 
 3.62931e+00 -1.58865e+00 -5.00146e+00 
 3.75828e+00 -1.64947e+00 -4.76357e+00 
 3.88793e+00 -1.71083e+00 -4.52054e+00 
 4.01810e+00 -1.77261e+00 -4.27244e+00 
 4.14875e+00 -1.83478e+00 -4.01950e+00 
 4.27971e+00 -1.89720e+00 -3.76176e+00 
 4.41089e+00 -1.95982e+00 -3.49943e+00 
 4.54212e+00 -2.02249e+00 -3.23251e+00 
 4.67330e+00 -2.08514e+00 -2.96117e+00 
 4.80422e+00 -2.14760e+00 -2.68536e+00 
 4.93476e+00 -2.20979e+00 -2.40522e+00 
 5.06471e+00 -2.27154e+00 -2.12063e+00 
 5.19395e+00 -2.33274e+00 -1.83166e+00 
 5.32224e+00 -2.39322e+00 -1.53814e+00 
 5.44945e+00 -2.45287e+00 -1.24007e+00 
 5.57536e+00 -2.51152e+00 -9.37207e-01 
 5.69984e+00 -2.56907e+00 -6.29482e-01 
 5.82267e+00 -2.62533e+00 -3.16560e-01 
 5.94373e+00 -2.69392e+00 -1.68371e-01 
-5.72424e+00  2.59448e+00 -1.65879e-01 
-5.60681e+00  2.52792e+00 -3.11961e-01 
-5.48737e+00  2.47306e+00 -6.20592e-01 
-5.36607e+00  2.41677e+00 -9.24474e-01 
-5.24317e+00  2.35923e+00 -1.22396e+00 
-5.11883e+00  2.30059e+00 -1.51913e+00 
-4.99332e+00  2.24105e+00 -1.81023e+00 
-4.86679e+00  2.18072e+00 -2.09725e+00 
-4.73951e+00  2.11983e+00 -2.38036e+00 
-4.61162e+00  2.05848e+00 -2.65949e+00 
-4.48338e+00  1.99687e+00 -2.93470e+00 
-4.35493e+00  1.93511e+00 -3.20586e+00 
-4.22648e+00  1.87338e+00 -3.47298e+00 
-4.09817e+00  1.81175e+00 -3.73587e+00 
-3.97018e+00  1.75040e+00 -3.99450e+00 
-3.84262e+00  1.68939e+00 -4.24861e+00 
-3.71566e+00  1.62885e+00 -4.49814e+00 
-3.58936e+00  1.56884e+00 -4.74283e+00 
-3.46388e+00  1.50946e+00 -4.98257e+00 
-3.33925e+00  1.45074e+00 -5.21708e+00 
-3.21559e+00  1.39276e+00 -5.44624e+00 
-3.09293e+00  1.33555e+00 -5.66977e+00 
-2.97135e+00  1.27916e+00 -5.88755e+00 
-2.85085e+00  1.22358e+00 -6.09930e+00 
-2.73149e+00  1.16888e+00 -6.30490e+00 
-2.61326e+00  1.11500e+00 -6.50407e+00 
-2.49619e+00  1.06200e+00 -6.69671e+00 
-2.38026e+00  1.00984e+00 -6.88255e+00 
-2.26548e+00  9.58531e-01 -7.06151e+00 
-2.15181e+00  9.08027e-01 -7.23334e+00 
-2.03926e+00  8.58344e-01 -7.39796e+00 
-1.92775e+00  8.09419e-01 -7.55515e+00 
-1.81730e+00  7.61261e-01 -7.70484e+00 
-1.70783e+00  7.13803e-01 -7.84684e+00 
-1.59934e+00  6.67045e-01 -7.98108e+00 
-1.49174e+00  6.20917e-01 -8.10741e+00 
-1.38502e+00  5.75418e-01 -8.22577e+00 
-1.27909e+00  5.30471e-01 -8.33602e+00 
-1.17393e+00  4.86074e-01 -8.43811e+00 
-1.06946e+00  4.42149e-01 -8.53194e+00 
-9.65648e-01  3.98690e-01 -8.61746e+00 
-8.62404e-01  3.55621e-01 -8.69459e+00 
-7.59707e-01  3.12933e-01 -8.76329e+00 
-6.57455e-01  2.70550e-01 -8.82350e+00 
-5.55629e-01  2.28463e-01 -8.87519e+00 
-4.54127e-01  1.86595e-01 -8.91831e+00 
-3.52927e-01  1.44937e-01 -8.95284e+00 
-2.51926e-01  1.03412e-01 -8.97876e+00 
-1.51101e-01  6.20115e-02 -8.99605e+00 
-5.03517e-02  2.06583e-02 -9.00470e+00 
 5.03517e-02 -2.06583e-02 -9.00470e+00 
 1.51101e-01 -6.20115e-02 -8.99605e+00 
 2.51926e-01 -1.03412e-01 -8.97876e+00 
 3.52927e-01 -1.44937e-01 -8.95284e+00 
 4.54127e-01 -1.86595e-01 -8.91831e+00 
 5.55629e-01 -2.28463e-01 -8.87519e+00 
 6.57455e-01 -2.70550e-01 -8.82350e+00 
 7.59707e-01 -3.12933e-01 -8.76329e+00 
 8.62404e-01 -3.55621e-01 -8.69459e+00 
 9.65648e-01 -3.98690e-01 -8.61746e+00 
 1.06946e+00 -4.42149e-01 -8.53194e+00 
 1.17393e+00 -4.86074e-01 -8.43811e+00 
 1.27909e+00 -5.30471e-01 -8.33602e+00 
 1.38502e+00 -5.75418e-01 -8.22577e+00 
 1.49174e+00 -6.20917e-01 -8.10741e+00 
 1.59934e+00 -6.67045e-01 -7.98108e+00 
 1.70783e+00 -7.13803e-01 -7.84684e+00 
 1.81730e+00 -7.61261e-01 -7.70484e+00 
 1.92775e+00 -8.09419e-01 -7.55515e+00 
 2.03926e+00 -8.58344e-01 -7.39796e+00 
 2.15181e+00 -9.08027e-01 -7.23334e+00 
 2.26548e+00 -9.58531e-01 -7.06151e+00 
 2.38026e+00 -1.00984e+00 -6.88255e+00 
 2.49619e+00 -1.06200e+00 -6.69671e+00 
 2.61326e+00 -1.11500e+00 -6.50407e+00 
 2.73149e+00 -1.16888e+00 -6.30490e+00 
 2.85085e+00 -1.22358e+00 -6.09930e+00 
 2.97135e+00 -1.27916e+00 -5.88755e+00 
 3.09293e+00 -1.33555e+00 -5.66977e+00 
 3.21559e+00 -1.39276e+00 -5.44624e+00 
 3.33925e+00 -1.45074e+00 -5.21708e+00 
 3.46388e+00 -1.50946e+00 -4.98257e+00 
 3.58936e+00 -1.56884e+00 -4.74283e+00 
 3.71566e+00 -1.62885e+00 -4.49814e+00 
 3.84262e+00 -1.68939e+00 -4.24861e+00 
 3.97018e+00 -1.75040e+00 -3.99450e+00 
 4.09817e+00 -1.81175e+00 -3.73587e+00 
 4.22648e+00 -1.87338e+00 -3.47298e+00 
 4.35493e+00 -1.93511e+00 -3.20586e+00 
 4.48338e+00 -1.99687e+00 -2.93470e+00 
 4.61162e+00 -2.05848e+00 -2.65949e+00 
 4.73951e+00 -2.11983e+00 -2.38036e+00 
 4.86679e+00 -2.18072e+00 -2.09725e+00 
 4.99332e+00 -2.24105e+00 -1.81023e+00 
 5.11883e+00 -2.30059e+00 -1.51913e+00 
 5.24317e+00 -2.35923e+00 -1.22396e+00 
 5.36607e+00 -2.41677e+00 -9.24474e-01 
 5.48737e+00 -2.47306e+00 -6.20592e-01 
 5.60681e+00 -2.52792e+00 -3.11961e-01 
 5.72424e+00 -2.59448e+00 -1.65879e-01 
-5.50839e+00  2.49671e+00 -1.63050e-01 
-5.39427e+00  2.43199e+00 -3.06746e-01 
-5.27787e+00  2.37838e+00 -6.10533e-01 
-5.15940e+00  2.32315e+00 -9.10111e-01 
-5.03914e+00  2.26654e+00 -1.20585e+00 
-4.91730e+00  2.20872e+00 -1.49783e+00 
-4.79419e+00  2.14992e+00 -1.78632e+00 
-4.67000e+00  2.09029e+00 -2.07128e+00 
-4.54503e+00  2.03006e+00 -2.35287e+00 
-4.41947e+00  1.96939e+00 -2.63100e+00 
-4.29359e+00  1.90849e+00 -2.90570e+00 
-4.16756e+00  1.84749e+00 -3.17682e+00 
-4.04164e+00  1.78657e+00 -3.44433e+00 
-3.91595e+00  1.72585e+00 -3.70799e+00 
-3.79073e+00  1.66549e+00 -3.96774e+00 
-3.66607e+00  1.60558e+00 -4.22329e+00 
-3.54217e+00  1.54625e+00 -4.47452e+00 
-3.41910e+00  1.48756e+00 -4.72114e+00 
-3.29701e+00  1.42962e+00 -4.96301e+00 
-3.17595e+00  1.37245e+00 -5.19979e+00 
-3.05604e+00  1.31616e+00 -5.43136e+00 
-2.93729e+00  1.26073e+00 -5.65737e+00 
-2.81979e+00  1.20624e+00 -5.87769e+00 
-2.70353e+00  1.15266e+00 -6.09201e+00 
-2.58859e+00  1.10006e+00 -6.30017e+00 
-2.47491e+00  1.04838e+00 -6.50189e+00 
-2.36255e+00  9.97661e-01 -6.69703e+00 
-2.25145e+00  9.47854e-01 -6.88533e+00 
-2.14165e+00  8.98977e-01 -7.06667e+00 
-2.03306e+00  8.50969e-01 -7.24080e+00 
-1.92571e+00  8.03838e-01 -7.40761e+00 
-1.81951e+00  7.57518e-01 -7.56691e+00 
-1.71446e+00  7.12008e-01 -7.71859e+00 
-1.61048e+00  6.67237e-01 -7.86247e+00 
-1.50755e+00  6.23199e-01 -7.99848e+00 
-1.40558e+00  5.79821e-01 -8.12646e+00 
-1.30456e+00  5.37093e-01 -8.24634e+00 
-1.20439e+00  4.94938e-01 -8.35800e+00 
-1.10504e+00  4.53347e-01 -8.46139e+00 
-1.00642e+00  4.12243e-01 -8.55639e+00 
-9.08504e-01  3.71614e-01 -8.64298e+00 
-8.11189e-01  3.31382e-01 -8.72105e+00 
-7.14450e-01  2.91538e-01 -8.79059e+00 
-6.18184e-01  2.52002e-01 -8.85153e+00 
-5.22364e-01  2.12765e-01 -8.90384e+00 
-4.26887e-01  1.73749e-01 -8.94747e+00 
-3.31725e-01  1.34945e-01 -8.98241e+00 
-2.36774e-01  9.62746e-02 -9.00864e+00 
-1.42007e-01  5.77285e-02 -9.02613e+00 
-4.73200e-02  1.92309e-02 -9.03488e+00 
 4.73200e-02 -1.92309e-02 -9.03488e+00 
 1.42007e-01 -5.77285e-02 -9.02613e+00 
 2.36774e-01 -9.62746e-02 -9.00864e+00 
 3.31725e-01 -1.34945e-01 -8.98241e+00 
 4.26887e-01 -1.73749e-01 -8.94747e+00 
 5.22364e-01 -2.12765e-01 -8.90384e+00 
 6.18184e-01 -2.52002e-01 -8.85153e+00 
 7.14450e-01 -2.91538e-01 -8.79059e+00 
 8.11189e-01 -3.31382e-01 -8.72105e+00 
 9.08504e-01 -3.71614e-01 -8.64298e+00 
 1.00642e+00 -4.12243e-01 -8.55639e+00 
 1.10504e+00 -4.53347e-01 -8.46139e+00 
 1.20439e+00 -4.94938e-01 -8.35800e+00 
 1.30456e+00 -5.37093e-01 -8.24634e+00 
 1.40558e+00 -5.79821e-01 -8.12646e+00 
 1.50755e+00 -6.23199e-01 -7.99848e+00 
 1.61048e+00 -6.67237e-01 -7.86247e+00 
 1.71446e+00 -7.12008e-01 -7.71859e+00 
 1.81951e+00 -7.57518e-01 -7.56691e+00 
 1.92571e+00 -8.03838e-01 -7.40761e+00 
 2.03306e+00 -8.50969e-01 -7.24080e+00 
 2.14165e+00 -8.98977e-01 -7.06667e+00 
 2.25145e+00 -9.47854e-01 -6.88533e+00 
 2.36255e+00 -9.97661e-01 -6.69703e+00 
 2.47491e+00 -1.04838e+00 -6.50189e+00 
 2.58859e+00 -1.10006e+00 -6.30017e+00 
 2.70353e+00 -1.15266e+00 -6.09201e+00 
 2.81979e+00 -1.20624e+00 -5.87769e+00 
 2.93729e+00 -1.26073e+00 -5.65737e+00 
 3.05604e+00 -1.31616e+00 -5.43136e+00 
 3.17595e+00 -1.37245e+00 -5.19979e+00 
 3.29701e+00 -1.42962e+00 -4.96301e+00 
 3.41910e+00 -1.48756e+00 -4.72114e+00 
 3.54217e+00 -1.54625e+00 -4.47452e+00 
 3.66607e+00 -1.60558e+00 -4.22329e+00 
 3.79073e+00 -1.66549e+00 -3.96774e+00 
 3.91595e+00 -1.72585e+00 -3.70799e+00 
 4.04164e+00 -1.78657e+00 -3.44433e+00 
 4.16756e+00 -1.84749e+00 -3.17682e+00 
 4.29359e+00 -1.90849e+00 -2.90570e+00 
 4.41947e+00 -1.96939e+00 -2.63100e+00 
 4.54503e+00 -2.03006e+00 -2.35287e+00 
 4.67000e+00 -2.09029e+00 -2.07128e+00 
 4.79419e+00 -2.14992e+00 -1.78632e+00 
 4.91730e+00 -2.20872e+00 -1.49783e+00 
 5.03914e+00 -2.26654e+00 -1.20585e+00 
 5.15940e+00 -2.32315e+00 -9.10111e-01 
 5.27787e+00 -2.37838e+00 -6.10533e-01 
 5.39427e+00 -2.43199e+00 -3.06746e-01 
 5.50839e+00 -2.49671e+00 -1.63050e-01 
-5.29667e+00  2.40085e+00 -1.59845e-01 
-5.18549e+00  2.33775e+00 -3.00848e-01 
-5.07172e+00  2.28517e+00 -5.99187e-01 
-4.95563e+00  2.23080e+00 -8.93965e-01 
-4.83757e+00  2.17490e+00 -1.18557e+00 
-4.71779e+00  2.11767e+00 -1.47409e+00 
-4.59664e+00  2.05939e+00 -1.75977e+00 
-4.47437e+00  2.00025e+00 -2.04259e+00 
-4.35131e+00  1.94051e+00 -2.32266e+00 
-4.22770e+00  1.88034e+00 -2.59985e+00 
-4.10383e+00  1.81998e+00 -2.87419e+00 
-3.97991e+00  1.75960e+00 -3.14545e+00 
-3.85622e+00  1.69939e+00 -3.41358e+00 
-3.73292e+00  1.63949e+00 -3.67829e+00 
-3.61025e+00  1.58007e+00 -3.93945e+00 
-3.48832e+00  1.52122e+00 -4.19674e+00 
-3.36734e+00  1.46308e+00 -4.45000e+00 
-3.24738e+00  1.40571e+00 -4.69887e+00 
-3.12861e+00  1.34924e+00 -4.94317e+00 
-3.01106e+00  1.29367e+00 -5.18253e+00 
-2.89487e+00  1.23911e+00 -5.41677e+00 
-2.78003e+00  1.18553e+00 -5.64552e+00 
-2.66663e+00  1.13302e+00 -5.86861e+00 
-2.55466e+00  1.08153e+00 -6.08569e+00 
-2.44417e+00  1.03111e+00 -6.29660e+00 
-2.33512e+00  9.81712e-01 -6.50101e+00 
-2.22754e+00  9.33361e-01 -6.69878e+00 
-2.12136e+00  8.85999e-01 -6.88961e+00 
-2.01661e+00  8.39633e-01 -7.07339e+00 
-1.91321e+00  7.94197e-01 -7.24985e+00 
-1.81114e+00  7.49687e-01 -7.41888e+00 
-1.71034e+00  7.06032e-01 -7.58027e+00 
-1.61078e+00  6.63223e-01 -7.73392e+00 
-1.51237e+00  6.21182e-01 -7.87964e+00 
-1.41508e+00  5.79898e-01 -8.01736e+00 
-1.31883e+00  5.39292e-01 -8.14692e+00 
-1.22358e+00  4.99348e-01 -8.26827e+00 
-1.12923e+00  4.59989e-01 -8.38126e+00 
-1.03576e+00  4.21199e-01 -8.48586e+00 
-9.43047e-01  3.82899e-01 -8.58196e+00 
-8.51075e-01  3.45075e-01 -8.66952e+00 
-7.59736e-01  3.07648e-01 -8.74846e+00 
-6.68996e-01  2.70606e-01 -8.81876e+00 
-5.78752e-01  2.33871e-01 -8.88036e+00 
-4.88970e-01  1.97430e-01 -8.93322e+00 
-3.99546e-01  1.61208e-01 -8.97731e+00 
-3.10448e-01  1.25193e-01 -9.01262e+00 
-2.21571e-01  8.93119e-02 -9.03912e+00 
-1.32882e-01  5.35514e-02 -9.05679e+00 
-4.42783e-02  1.78389e-02 -9.06563e+00 
 4.42783e-02 -1.78389e-02 -9.06563e+00 
 1.32882e-01 -5.35514e-02 -9.05679e+00 
 2.21571e-01 -8.93119e-02 -9.03912e+00 
 3.10448e-01 -1.25193e-01 -9.01262e+00 
 3.99546e-01 -1.61208e-01 -8.97731e+00 
 4.88970e-01 -1.97430e-01 -8.93322e+00 
 5.78752e-01 -2.33871e-01 -8.88036e+00 
 6.68996e-01 -2.70606e-01 -8.81876e+00 
 7.59736e-01 -3.07648e-01 -8.74846e+00 
 8.51075e-01 -3.45075e-01 -8.66952e+00 
 9.43047e-01 -3.82899e-01 -8.58196e+00 
 1.03576e+00 -4.21199e-01 -8.48586e+00 
 1.12923e+00 -4.59989e-01 -8.38126e+00 
 1.22358e+00 -4.99348e-01 -8.26827e+00 
 1.31883e+00 -5.39292e-01 -8.14692e+00 
 1.41508e+00 -5.79898e-01 -8.01736e+00 
 1.51237e+00 -6.21182e-01 -7.87964e+00 
 1.61078e+00 -6.63223e-01 -7.73392e+00 
 1.71034e+00 -7.06032e-01 -7.58027e+00 
 1.81114e+00 -7.49687e-01 -7.41888e+00 
 1.91321e+00 -7.94197e-01 -7.24985e+00 
 2.01661e+00 -8.39633e-01 -7.07339e+00 
 2.12136e+00 -8.85999e-01 -6.88961e+00 
 2.22754e+00 -9.33361e-01 -6.69878e+00 
 2.33512e+00 -9.81712e-01 -6.50101e+00 
 2.44417e+00 -1.03111e+00 -6.29660e+00 
 2.55466e+00 -1.08153e+00 -6.08569e+00 
 2.66663e+00 -1.13302e+00 -5.86861e+00 
 2.78003e+00 -1.18553e+00 -5.64552e+00 
 2.89487e+00 -1.23911e+00 -5.41677e+00 
 3.01106e+00 -1.29367e+00 -5.18253e+00 
 3.12861e+00 -1.34924e+00 -4.94317e+00 
 3.24738e+00 -1.40571e+00 -4.69887e+00 
 3.36734e+00 -1.46308e+00 -4.45000e+00 
 3.48832e+00 -1.52122e+00 -4.19674e+00 
 3.61025e+00 -1.58007e+00 -3.93945e+00 
 3.73292e+00 -1.63949e+00 -3.67829e+00 
 3.85622e+00 -1.69939e+00 -3.41358e+00 
 3.97991e+00 -1.75960e+00 -3.14545e+00 
 4.10383e+00 -1.81998e+00 -2.87419e+00 
 4.22770e+00 -1.88034e+00 -2.59985e+00 
 4.35131e+00 -1.94051e+00 -2.32266e+00 
 4.47437e+00 -2.00025e+00 -2.04259e+00 
 4.59664e+00 -2.05939e+00 -1.75977e+00 
 4.71779e+00 -2.11767e+00 -1.47409e+00 
 4.83757e+00 -2.17490e+00 -1.18557e+00 
 4.95563e+00 -2.23080e+00 -8.93965e-01 
 5.07172e+00 -2.28517e+00 -5.99187e-01 
 5.18549e+00 -2.33775e+00 -3.00848e-01 
 5.29667e+00 -2.40085e+00 -1.59845e-01 
-5.08965e+00  2.30715e+00 -1.56224e-01 
-4.98093e+00  2.24541e+00 -2.94198e-01 
-4.86929e+00  2.19363e+00 -5.86430e-01 
-4.75508e+00  2.13986e+00 -8.75885e-01 
-4.63870e+00  2.08441e+00 -1.16296e+00 
-4.52046e+00  2.02752e+00 -1.44775e+00 
-4.40077e+00  1.96952e+00 -1.73048e+00 
-4.27993e+00  1.91063e+00 -2.01109e+00 
-4.15833e+00  1.85116e+00 -2.28969e+00 
-4.03623e+00  1.79130e+00 -2.56609e+00 
-3.91399e+00  1.73134e+00 -2.84026e+00 
-3.79184e+00  1.67145e+00 -3.11193e+00 
-3.67009e+00  1.61186e+00 -3.38098e+00 
-3.54891e+00  1.55270e+00 -3.64707e+00 
-3.42857e+00  1.49417e+00 -3.91001e+00 
-3.30920e+00  1.43637e+00 -4.16941e+00 
-3.19100e+00  1.37944e+00 -4.42506e+00 
-3.07407e+00  1.32345e+00 -4.67653e+00 
-2.95856e+00  1.26849e+00 -4.92360e+00 
-2.84451e+00  1.21460e+00 -5.16585e+00 
-2.73204e+00  1.16186e+00 -5.40304e+00 
-2.62114e+00  1.11024e+00 -5.63478e+00 
-2.51190e+00  1.05980e+00 -5.86085e+00 
-2.40428e+00  1.01051e+00 -6.08088e+00 
-2.29834e+00  9.62396e-01 -6.29467e+00 
-2.19400e+00  9.15396e-01 -6.50187e+00 
-2.09130e+00  8.69522e-01 -6.70233e+00 
-1.99016e+00  8.24708e-01 -6.89575e+00 
-1.89057e+00  7.80949e-01 -7.08197e+00 
-1.79245e+00  7.38169e-01 -7.26074e+00 
-1.69579e+00  6.96356e-01 -7.43194e+00 
-1.60048e+00  6.55429e-01 -7.59534e+00 
-1.50650e+00  6.15370e-01 -7.75087e+00 
-1.41375e+00  5.76097e-01 -7.89832e+00 
-1.32220e+00  5.37590e-01 -8.03763e+00 
-1.23174e+00  4.99766e-01 -8.16865e+00 
-1.14233e+00  4.62604e-01 -8.29131e+00 
-1.05387e+00  4.26024e-01 -8.40550e+00 
-9.66313e-01  3.90006e-01 -8.51117e+00 
-8.79560e-01  3.54471e-01 -8.60823e+00 
-7.93569e-01  3.19399e-01 -8.69664e+00 
-7.08234e-01  2.84716e-01 -8.77632e+00 
-6.23516e-01  2.50404e-01 -8.84727e+00 
-5.39310e-01  2.16390e-01 -8.90941e+00 
-4.55578e-01  1.82658e-01 -8.96274e+00 
-3.72214e-01  1.49137e-01 -9.00721e+00 
-2.89182e-01  1.15813e-01 -9.04282e+00 
-2.06377e-01  8.26173e-02 -9.06954e+00 
-1.23764e-01  4.95362e-02 -9.08736e+00 
-4.12390e-02  1.65012e-02 -9.09627e+00 
 4.12390e-02 -1.65012e-02 -9.09627e+00 
 1.23764e-01 -4.95362e-02 -9.08736e+00 
 2.06377e-01 -8.26173e-02 -9.06954e+00 
 2.89182e-01 -1.15813e-01 -9.04282e+00 
 3.72214e-01 -1.49137e-01 -9.00721e+00 
 4.55578e-01 -1.82658e-01 -8.96274e+00 
 5.39310e-01 -2.16390e-01 -8.90941e+00 
 6.23516e-01 -2.50404e-01 -8.84727e+00 
 7.08234e-01 -2.84716e-01 -8.77632e+00 
 7.93569e-01 -3.19399e-01 -8.69664e+00 
 8.79560e-01 -3.54471e-01 -8.60823e+00 
 9.66313e-01 -3.90006e-01 -8.51117e+00 
 1.05387e+00 -4.26024e-01 -8.40550e+00 
 1.14233e+00 -4.62604e-01 -8.29131e+00 
 1.23174e+00 -4.99766e-01 -8.16865e+00 
 1.32220e+00 -5.37590e-01 -8.03763e+00 
 1.41375e+00 -5.76097e-01 -7.89832e+00 
 1.50650e+00 -6.15370e-01 -7.75087e+00 
 1.60048e+00 -6.55429e-01 -7.59534e+00 
 1.69579e+00 -6.96356e-01 -7.43194e+00 
 1.79245e+00 -7.38169e-01 -7.26074e+00 
 1.89057e+00 -7.80949e-01 -7.08197e+00 
 1.99016e+00 -8.24708e-01 -6.89575e+00 
 2.09130e+00 -8.69522e-01 -6.70233e+00 
 2.19400e+00 -9.15396e-01 -6.50187e+00 
 2.29834e+00 -9.62396e-01 -6.29467e+00 
 2.40428e+00 -1.01051e+00 -6.08088e+00 
 2.51190e+00 -1.05980e+00 -5.86085e+00 
 2.62114e+00 -1.11024e+00 -5.63478e+00 
 2.73204e+00 -1.16186e+00 -5.40304e+00 
 2.84451e+00 -1.21460e+00 -5.16585e+00 
 2.95856e+00 -1.26849e+00 -4.92360e+00 
 3.07407e+00 -1.32345e+00 -4.67653e+00 
 3.19100e+00 -1.37944e+00 -4.42506e+00 
 3.30920e+00 -1.43637e+00 -4.16941e+00 
 3.42857e+00 -1.49417e+00 -3.91001e+00 
 3.54891e+00 -1.55270e+00 -3.64707e+00 
 3.67009e+00 -1.61186e+00 -3.38098e+00 
 3.79184e+00 -1.67145e+00 -3.11193e+00 
 3.91399e+00 -1.73134e+00 -2.84026e+00 
 4.03623e+00 -1.79130e+00 -2.56609e+00 
 4.15833e+00 -1.85116e+00 -2.28969e+00 
 4.27993e+00 -1.91063e+00 -2.01109e+00 
 4.40077e+00 -1.96952e+00 -1.73048e+00 
 4.52046e+00 -2.02752e+00 -1.44775e+00 
 4.63870e+00 -2.08441e+00 -1.16296e+00 
 4.75508e+00 -2.13986e+00 -8.75885e-01 
 4.86929e+00 -2.19363e+00 -5.86430e-01 
 4.98093e+00 -2.24541e+00 -2.94198e-01 
 5.08965e+00 -2.30715e+00 -1.56224e-01 
-4.88796e+00  2.21592e+00 -1.52147e-01 
-4.78112e+00  2.15520e+00 -2.86724e-01 
-4.67102e+00  2.10393e+00 -5.72139e-01 
-4.55806e+00  2.05047e+00 -8.55721e-01 
-4.44274e+00  1.99517e+00 -1.13787e+00 
-4.32543e+00  1.93833e+00 -1.41868e+00 
-4.20662e+00  1.88033e+00 -1.69835e+00 
-4.08666e+00  1.82145e+00 -1.97678e+00 
-3.96600e+00  1.76202e+00 -2.25403e+00 
-3.84495e+00  1.70229e+00 -2.52984e+00 
-3.72392e+00  1.64256e+00 -2.80414e+00 
-3.60317e+00  1.58305e+00 -3.07657e+00 
-3.48303e+00  1.52399e+00 -3.34694e+00 
-3.36372e+00  1.46554e+00 -3.61483e+00 
-3.24551e+00  1.40790e+00 -3.87998e+00 
-3.12855e+00  1.35117e+00 -4.14192e+00 
-3.01304e+00  1.29551e+00 -4.40036e+00 
-2.89908e+00  1.24097e+00 -4.65483e+00 
-2.78681e+00  1.18764e+00 -4.90503e+00 
-2.67627e+00  1.13555e+00 -5.15048e+00 
-2.56757e+00  1.08476e+00 -5.39091e+00 
-2.46069e+00  1.03524e+00 -5.62587e+00 
-2.35569e+00  9.87037e-01 -5.85511e+00 
-2.25254e+00  9.40096e-01 -6.07821e+00 
-2.15126e+00  8.94427e-01 -6.29497e+00 
-2.05177e+00  8.49964e-01 -6.50502e+00 
-1.95408e+00  8.06700e-01 -6.70817e+00 
-1.85810e+00  7.64555e-01 -6.90411e+00 
-1.76381e+00  7.23511e-01 -7.09270e+00 
-1.67111e+00  6.83482e-01 -7.27367e+00 
-1.57997e+00  6.44442e-01 -7.44690e+00 
-1.49027e+00  6.06304e-01 -7.61217e+00 
-1.40198e+00  5.69040e-01 -7.76939e+00 
-1.31499e+00  5.32561e-01 -7.91839e+00 
-1.22925e+00  4.96839e-01 -8.05909e+00 
-1.14465e+00  4.61788e-01 -8.19135e+00 
-1.06114e+00  4.27383e-01 -8.31512e+00 
-9.78611e-01  3.93540e-01 -8.43029e+00 
-8.97017e-01  3.60236e-01 -8.53683e+00 
-8.16246e-01  3.27392e-01 -8.63464e+00 
-7.36252e-01  2.94988e-01 -8.72370e+00 
-6.56929e-01  2.62950e-01 -8.80396e+00 
-5.78231e-01  2.31259e-01 -8.87538e+00 
-5.00054e-01  1.99845e-01 -8.93793e+00 
-4.22354e-01  1.68694e-01 -8.99159e+00 
-3.45027e-01  1.37737e-01 -9.03634e+00 
-2.68034e-01  1.06962e-01 -9.07215e+00 
-1.91272e-01  7.63034e-02 -9.09902e+00 
-1.14700e-01  4.57508e-02 -9.11694e+00 
-3.82178e-02  1.52403e-02 -9.12591e+00 
 3.82178e-02 -1.52403e-02 -9.12591e+00 
 1.14700e-01 -4.57508e-02 -9.11694e+00 
 1.91272e-01 -7.63034e-02 -9.09902e+00 
 2.68034e-01 -1.06962e-01 -9.07215e+00 
 3.45027e-01 -1.37737e-01 -9.03634e+00 
 4.22354e-01 -1.68694e-01 -8.99159e+00 
 5.00054e-01 -1.99845e-01 -8.93793e+00 
 5.78231e-01 -2.31259e-01 -8.87538e+00 
 6.56929e-01 -2.62950e-01 -8.80396e+00 
 7.36252e-01 -2.94988e-01 -8.72370e+00 
 8.16246e-01 -3.27392e-01 -8.63464e+00 
 8.97017e-01 -3.60236e-01 -8.53683e+00 
 9.78611e-01 -3.93540e-01 -8.43029e+00 
 1.06114e+00 -4.27383e-01 -8.31512e+00 
 1.14465e+00 -4.61788e-01 -8.19135e+00 
 1.22925e+00 -4.96839e-01 -8.05909e+00 
 1.31499e+00 -5.32561e-01 -7.91839e+00 
 1.40198e+00 -5.69040e-01 -7.76939e+00 
 1.49027e+00 -6.06304e-01 -7.61217e+00 
 1.57997e+00 -6.44442e-01 -7.44690e+00 
 1.67111e+00 -6.83482e-01 -7.27367e+00 
 1.76381e+00 -7.23511e-01 -7.09270e+00 
 1.85810e+00 -7.64555e-01 -6.90411e+00 
 1.95408e+00 -8.06700e-01 -6.70817e+00 
 2.05177e+00 -8.49964e-01 -6.50502e+00 
 2.15126e+00 -8.94427e-01 -6.29497e+00 
 2.25254e+00 -9.40096e-01 -6.07821e+00 
 2.35569e+00 -9.87037e-01 -5.85511e+00 
 2.46069e+00 -1.03524e+00 -5.62587e+00 
 2.56757e+00 -1.08476e+00 -5.39091e+00 
 2.67627e+00 -1.13555e+00 -5.15048e+00 
 2.78681e+00 -1.18764e+00 -4.90503e+00 
 2.89908e+00 -1.24097e+00 -4.65483e+00 
 3.01304e+00 -1.29551e+00 -4.40036e+00 
 3.12855e+00 -1.35117e+00 -4.14192e+00 
 3.24551e+00 -1.40790e+00 -3.87998e+00 
 3.36372e+00 -1.46554e+00 -3.61483e+00 
 3.48303e+00 -1.52399e+00 -3.34694e+00 
 3.60317e+00 -1.58305e+00 -3.07657e+00 
 3.72392e+00 -1.64256e+00 -2.80414e+00 
 3.84495e+00 -1.70229e+00 -2.52984e+00 
 3.96600e+00 -1.76202e+00 -2.25403e+00 
 4.08666e+00 -1.82145e+00 -1.97678e+00 
 4.20662e+00 -1.88033e+00 -1.69835e+00 
 4.32543e+00 -1.93833e+00 -1.41868e+00 
 4.44274e+00 -1.99517e+00 -1.13787e+00 
 4.55806e+00 -2.05047e+00 -8.55721e-01 
 4.67102e+00 -2.10393e+00 -5.72139e-01 
 4.78112e+00 -2.15520e+00 -2.86724e-01 
 4.88796e+00 -2.21592e+00 -1.52147e-01 
-4.69229e+00  2.12747e+00 -1.47569e-01 
-4.58663e+00  2.06737e+00 -2.78352e-01 
-4.47733e+00  2.01629e+00 -5.56191e-01 
-4.36490e+00  1.96277e+00 -8.33338e-01 
-4.24990e+00  1.90727e+00 -1.11019e+00 
-4.13282e+00  1.85016e+00 -1.38682e+00 
-4.01420e+00  1.79185e+00 -1.66339e+00 
-3.89449e+00  1.73270e+00 -1.93975e+00 
-3.77418e+00  1.67308e+00 -2.21587e+00 
-3.65367e+00  1.61329e+00 -2.49143e+00 
-3.53340e+00  1.55366e+00 -2.76626e+00 
-3.41366e+00  1.49442e+00 -3.03991e+00 
-3.29484e+00  1.43585e+00 -3.31209e+00 
-3.17715e+00  1.37811e+00 -3.58229e+00 
-3.06090e+00  1.32140e+00 -3.85016e+00 
-2.94622e+00  1.26583e+00 -4.11513e+00 
-2.83334e+00  1.21155e+00 -4.37684e+00 
-2.72233e+00  1.15860e+00 -4.63472e+00 
-2.61334e+00  1.10707e+00 -4.88842e+00 
-2.50638e+00  1.05695e+00 -5.13739e+00 
-2.40155e+00  1.00831e+00 -5.38131e+00 
-2.29882e+00  9.61090e-01 -5.61968e+00 
-2.19822e+00  9.15313e-01 -5.85221e+00 
-2.09969e+00  8.70912e-01 -6.07846e+00 
-2.00324e+00  8.27876e-01 -6.29819e+00 
-1.90877e+00  7.86122e-01 -6.51103e+00 
-1.81626e+00  7.45623e-01 -6.71678e+00 
-1.72561e+00  7.06287e-01 -6.91512e+00 
-1.63677e+00  6.68076e-01 -7.10589e+00 
-1.54963e+00  6.30896e-01 -7.28885e+00 
-1.46414e+00  5.94706e-01 -7.46386e+00 
-1.38017e+00  5.59411e-01 -7.63073e+00 
-1.29768e+00  5.24971e-01 -7.78937e+00 
-1.21654e+00  4.91294e-01 -7.93960e+00 
-1.13668e+00  4.58343e-01 -8.08139e+00 
-1.05800e+00  4.26030e-01 -8.21459e+00 
-9.80441e-01  3.94323e-01 -8.33917e+00 
-9.03877e-01  3.63141e-01 -8.45502e+00 
-8.28257e-01  3.32455e-01 -8.56214e+00 
-7.53470e-01  3.02191e-01 -8.66043e+00 
-6.79463e-01  2.72325e-01 -8.74990e+00 
-6.06128e-01  2.42787e-01 -8.83047e+00 
-5.33417e-01  2.13560e-01 -8.90216e+00 
-4.61225e-01  1.84578e-01 -8.96492e+00 
-3.89506e-01  1.55827e-01 -9.01875e+00 
-3.18159e-01  1.27247e-01 -9.06362e+00 
-2.47140e-01  9.88253e-02 -9.09953e+00 
-1.76350e-01  7.05047e-02 -9.12646e+00 
-1.05747e-01  4.22761e-02 -9.14443e+00 
-3.52340e-02  1.40832e-02 -9.15341e+00 
 3.52340e-02 -1.40832e-02 -9.15341e+00 
 1.05747e-01 -4.22761e-02 -9.14443e+00 
 1.76350e-01 -7.05047e-02 -9.12646e+00 
 2.47140e-01 -9.88253e-02 -9.09953e+00 
 3.18159e-01 -1.27247e-01 -9.06362e+00 
 3.89506e-01 -1.55827e-01 -9.01875e+00 
 4.61225e-01 -1.84578e-01 -8.96492e+00 
 5.33417e-01 -2.13560e-01 -8.90216e+00 
 6.06128e-01 -2.42787e-01 -8.83047e+00 
 6.79463e-01 -2.72325e-01 -8.74990e+00 
 7.53470e-01 -3.02191e-01 -8.66043e+00 
 8.28257e-01 -3.32455e-01 -8.56214e+00 
 9.03877e-01 -3.63141e-01 -8.45502e+00 
 9.80441e-01 -3.94323e-01 -8.33917e+00 
 1.05800e+00 -4.26030e-01 -8.21459e+00 
 1.13668e+00 -4.58343e-01 -8.08139e+00 
 1.21654e+00 -4.91294e-01 -7.93960e+00 
 1.29768e+00 -5.24971e-01 -7.78937e+00 
 1.38017e+00 -5.59411e-01 -7.63073e+00 
 1.46414e+00 -5.94706e-01 -7.46386e+00 
 1.54963e+00 -6.30896e-01 -7.28885e+00 
 1.63677e+00 -6.68076e-01 -7.10589e+00 
 1.72561e+00 -7.06287e-01 -6.91512e+00 
 1.81626e+00 -7.45623e-01 -6.71678e+00 
 1.90877e+00 -7.86122e-01 -6.51103e+00 
 2.00324e+00 -8.27876e-01 -6.29819e+00 
 2.09969e+00 -8.70912e-01 -6.07846e+00 
 2.19822e+00 -9.15313e-01 -5.85221e+00 
 2.29882e+00 -9.61090e-01 -5.61968e+00 
 2.40155e+00 -1.00831e+00 -5.38131e+00 
 2.50638e+00 -1.05695e+00 -5.13739e+00 
 2.61334e+00 -1.10707e+00 -4.88842e+00 
 2.72233e+00 -1.15860e+00 -4.63472e+00 
 2.83334e+00 -1.21155e+00 -4.37684e+00 
 2.94622e+00 -1.26583e+00 -4.11513e+00 
 3.06090e+00 -1.32140e+00 -3.85016e+00 
 3.17715e+00 -1.37811e+00 -3.58229e+00 
 3.29484e+00 -1.43585e+00 -3.31209e+00 
 3.41366e+00 -1.49442e+00 -3.03991e+00 
 3.53340e+00 -1.55366e+00 -2.76626e+00 
 3.65367e+00 -1.61329e+00 -2.49143e+00 
 3.77418e+00 -1.67308e+00 -2.21587e+00 
 3.89449e+00 -1.73270e+00 -1.93975e+00 
 4.01420e+00 -1.79185e+00 -1.66339e+00 
 4.13282e+00 -1.85016e+00 -1.38682e+00 
 4.24990e+00 -1.90727e+00 -1.11019e+00 
 4.36490e+00 -1.96277e+00 -8.33338e-01 
 4.47733e+00 -2.01629e+00 -5.56191e-01 
 4.58663e+00 -2.06737e+00 -2.78352e-01 
 4.69229e+00 -2.12747e+00 -1.47569e-01 
-4.50340e+00  2.04217e+00 -1.42446e-01 
-4.39808e+00  1.98222e+00 -2.69009e-01 
-4.28870e+00  1.93089e+00 -5.38473e-01 
-4.17590e+00  1.87691e+00 -8.08623e-01 
-4.06036e+00  1.82081e+00 -1.07985e+00 
-3.94267e+00  1.76304e+00 -1.35218e+00 
-3.82346e+00  1.70409e+00 -1.62571e+00 
-3.70328e+00  1.64437e+00 -1.90022e+00 
-3.58269e+00  1.58433e+00 -2.17558e+00 
-3.46215e+00  1.52429e+00 -2.45136e+00 
-3.34216e+00  1.46465e+00 -2.72727e+00 
-3.22305e+00  1.40564e+00 -3.00274e+00 
-3.10524e+00  1.34756e+00 -3.27736e+00 
-2.98897e+00  1.29058e+00 -3.55050e+00 
-2.87453e+00  1.23492e+00 -3.82168e+00 
-2.76208e+00  1.18067e+00 -4.09025e+00 
-2.65182e+00  1.12795e+00 -4.35572e+00 
-2.54382e+00  1.07681e+00 -4.61746e+00 
-2.43821e+00  1.02731e+00 -4.87501e+00 
-2.33498e+00  9.79432e-01 -5.12779e+00 
-2.23420e+00  9.33191e-01 -5.37539e+00 
-2.13580e+00  8.88530e-01 -5.61729e+00 
-2.03981e+00  8.45432e-01 -5.85315e+00 
-1.94612e+00  8.03812e-01 -6.08252e+00 
-1.85471e+00  7.63631e-01 -6.30513e+00 
-1.76548e+00  7.24788e-01 -6.52059e+00 
-1.67836e+00  6.87233e-01 -6.72871e+00 
-1.59323e+00  6.50857e-01 -6.92916e+00 
-1.51002e+00  6.15605e-01 -7.12181e+00 
-1.42861e+00  5.81370e-01 -7.30639e+00 
-1.34891e+00  5.48097e-01 -7.48281e+00 
-1.27080e+00  5.15682e-01 -7.65087e+00 
-1.19421e+00  4.84075e-01 -7.81051e+00 
-1.11899e+00  4.53180e-01 -7.96157e+00 
-1.04509e+00  4.22952e-01 -8.10402e+00 
-9.72374e-01  3.93303e-01 -8.23774e+00 
-9.00777e-01  3.64197e-01 -8.36272e+00 
-8.30179e-01  3.35553e-01 -8.47887e+00 
-7.60519e-01  3.07342e-01 -8.58618e+00 
-6.91684e-01  2.79492e-01 -8.68460e+00 
-6.23616e-01  2.51982e-01 -8.77413e+00 
-5.56209e-01  2.24746e-01 -8.85473e+00 
-4.89411e-01  1.97768e-01 -8.92640e+00 
-4.23120e-01  1.70990e-01 -8.98912e+00 
-3.57287e-01  1.44402e-01 -9.04290e+00 
-2.91816e-01  1.17948e-01 -9.08771e+00 
-2.26661e-01  9.16239e-02 -9.12357e+00 
-1.61729e-01  6.53780e-02 -9.15046e+00 
-9.69765e-02  3.92064e-02 -9.16839e+00 
-3.23112e-02  1.30614e-02 -9.17735e+00 
 3.23112e-02 -1.30614e-02 -9.17735e+00 
 9.69765e-02 -3.92064e-02 -9.16839e+00 
 1.61729e-01 -6.53780e-02 -9.15046e+00 
 2.26661e-01 -9.16239e-02 -9.12357e+00 
 2.91816e-01 -1.17948e-01 -9.08771e+00 
 3.57287e-01 -1.44402e-01 -9.04290e+00 
 4.23120e-01 -1.70990e-01 -8.98912e+00 
 4.89411e-01 -1.97768e-01 -8.92640e+00 
 5.56209e-01 -2.24746e-01 -8.85473e+00 
 6.23616e-01 -2.51982e-01 -8.77413e+00 
 6.91684e-01 -2.79492e-01 -8.68460e+00 
 7.60519e-01 -3.07342e-01 -8.58618e+00 
 8.30179e-01 -3.35553e-01 -8.47887e+00 
 9.00777e-01 -3.64197e-01 -8.36272e+00 
 9.72374e-01 -3.93303e-01 -8.23774e+00 
 1.04509e+00 -4.22952e-01 -8.10402e+00 
 1.11899e+00 -4.53180e-01 -7.96157e+00 
 1.19421e+00 -4.84075e-01 -7.81051e+00 
 1.27080e+00 -5.15682e-01 -7.65087e+00 
 1.34891e+00 -5.48097e-01 -7.48281e+00 
 1.42861e+00 -5.81370e-01 -7.30639e+00 
 1.51002e+00 -6.15605e-01 -7.12181e+00 
 1.59323e+00 -6.50857e-01 -6.92916e+00 
 1.67836e+00 -6.87233e-01 -6.72871e+00 
 1.76548e+00 -7.24788e-01 -6.52059e+00 
 1.85471e+00 -7.63631e-01 -6.30513e+00 
 1.94612e+00 -8.03812e-01 -6.08252e+00 
 2.03981e+00 -8.45432e-01 -5.85315e+00 
 2.13580e+00 -8.88530e-01 -5.61729e+00 
 2.23420e+00 -9.33191e-01 -5.37539e+00 
 2.33498e+00 -9.79432e-01 -5.12779e+00 
 2.43821e+00 -1.02731e+00 -4.87501e+00 
 2.54382e+00 -1.07681e+00 -4.61746e+00 
 2.65182e+00 -1.12795e+00 -4.35572e+00 
 2.76208e+00 -1.18067e+00 -4.09025e+00 
 2.87453e+00 -1.23492e+00 -3.82168e+00 
 2.98897e+00 -1.29058e+00 -3.55050e+00 
 3.10524e+00 -1.34756e+00 -3.27736e+00 
 3.22305e+00 -1.40564e+00 -3.00274e+00 
 3.34216e+00 -1.46465e+00 -2.72727e+00 
 3.46215e+00 -1.52429e+00 -2.45136e+00 
 3.58269e+00 -1.58433e+00 -2.17558e+00 
 3.70328e+00 -1.64437e+00 -1.90022e+00 
 3.82346e+00 -1.70409e+00 -1.62571e+00 
 3.94267e+00 -1.76304e+00 -1.35218e+00 
 4.06036e+00 -1.82081e+00 -1.07985e+00 
 4.17590e+00 -1.87691e+00 -8.08623e-01 
 4.28870e+00 -1.93089e+00 -5.38473e-01 
 4.39808e+00 -1.98222e+00 -2.69009e-01 
 4.50340e+00 -2.04217e+00 -1.42446e-01 
-4.32215e+00  1.96042e+00 -1.36733e-01 
-4.21611e+00  1.90002e+00 -2.58625e-01 
-4.10558e+00  1.84796e+00 -5.18884e-01 
-3.99136e+00  1.79303e+00 -7.81503e-01 
-3.87424e+00  1.73586e+00 -1.04684e+00 
-3.75496e+00  1.67700e+00 -1.31486e+00 
-3.63426e+00  1.61704e+00 -1.58557e+00 
-3.51279e+00  1.55645e+00 -1.85864e+00 
-3.39121e+00  1.49575e+00 -2.13379e+00 
-3.27005e+00  1.43533e+00 -2.41045e+00 
-3.14985e+00  1.37559e+00 -2.68817e+00 
-3.03101e+00  1.31681e+00 -2.96624e+00 
-2.91394e+00  1.25931e+00 -3.24407e+00 
-2.79892e+00  1.20325e+00 -3.52088e+00 
-2.68623e+00  1.14883e+00 -3.79608e+00 
-2.57602e+00  1.09614e+00 -4.06885e+00 
-2.46848e+00  1.04529e+00 -4.33862e+00 
-2.36365e+00  9.96279e-01 -4.60464e+00 
-2.26161e+00  9.49147e-01 -4.86639e+00 
-2.16235e+00  9.03839e-01 -5.12318e+00 
-2.06587e+00  8.60344e-01 -5.37459e+00 
-1.97209e+00  8.18566e-01 -5.62002e+00 
-1.88098e+00  7.78460e-01 -5.85912e+00 
-1.79242e+00  7.39908e-01 -6.09142e+00 
-1.70634e+00  7.02844e-01 -6.31664e+00 
-1.62259e+00  6.67140e-01 -6.53439e+00 
-1.54110e+00  6.32724e-01 -6.74447e+00 
-1.46172e+00  5.99467e-01 -6.94660e+00 
-1.38434e+00  5.67297e-01 -7.14062e+00 
-1.30883e+00  5.36090e-01 -7.32631e+00 
-1.23507e+00  5.05781e-01 -7.50360e+00 
-1.16294e+00  4.76256e-01 -7.67230e+00 
-1.09233e+00  4.47457e-01 -7.83237e+00 
-1.02311e+00  4.19283e-01 -7.98369e+00 
-9.55196e-01  3.91686e-01 -8.12624e+00 
-8.88455e-01  3.64577e-01 -8.25994e+00 
-8.22813e-01  3.37919e-01 -8.38478e+00 
-7.58147e-01  3.11633e-01 -8.50071e+00 
-6.94392e-01  2.85693e-01 -8.60775e+00 
-6.31433e-01  2.60031e-01 -8.70584e+00 
-5.69213e-01  2.34628e-01 -8.79502e+00 
-5.07624e-01  2.09427e-01 -8.87525e+00 
-4.46616e-01  1.84416e-01 -8.94657e+00 
-3.86089e-01  1.59546e-01 -9.00894e+00 
-3.25996e-01  1.34810e-01 -9.06241e+00 
-2.66245e-01  1.10165e-01 -9.10694e+00 
-2.06791e-01  8.56095e-02 -9.14257e+00 
-1.47547e-01  6.11039e-02 -9.16928e+00 
-8.84708e-02  3.66501e-02 -9.18709e+00 
-2.94769e-02  1.22110e-02 -9.19599e+00 
 2.94769e-02 -1.22110e-02 -9.19599e+00 
 8.84708e-02 -3.66501e-02 -9.18709e+00 
 1.47547e-01 -6.11039e-02 -9.16928e+00 
 2.06791e-01 -8.56095e-02 -9.14257e+00 
 2.66245e-01 -1.10165e-01 -9.10694e+00 
 3.25996e-01 -1.34810e-01 -9.06241e+00 
 3.86089e-01 -1.59546e-01 -9.00894e+00 
 4.46616e-01 -1.84416e-01 -8.94657e+00 
 5.07624e-01 -2.09427e-01 -8.87525e+00 
 5.69213e-01 -2.34628e-01 -8.79502e+00 
 6.31433e-01 -2.60031e-01 -8.70584e+00 
 6.94392e-01 -2.85693e-01 -8.60775e+00 
 7.58147e-01 -3.11633e-01 -8.50071e+00 
 8.22813e-01 -3.37919e-01 -8.38478e+00 
 8.88455e-01 -3.64577e-01 -8.25994e+00 
 9.55196e-01 -3.91686e-01 -8.12624e+00 
 1.02311e+00 -4.19283e-01 -7.98369e+00 
 1.09233e+00 -4.47457e-01 -7.83237e+00 
 1.16294e+00 -4.76256e-01 -7.67230e+00 
 1.23507e+00 -5.05781e-01 -7.50360e+00 
 1.30883e+00 -5.36090e-01 -7.32631e+00 
 1.38434e+00 -5.67297e-01 -7.14062e+00 
 1.46172e+00 -5.99467e-01 -6.94660e+00 
 1.54110e+00 -6.32724e-01 -6.74447e+00 
 1.62259e+00 -6.67140e-01 -6.53439e+00 
 1.70634e+00 -7.02844e-01 -6.31664e+00 
 1.79242e+00 -7.39908e-01 -6.09142e+00 
 1.88098e+00 -7.78460e-01 -5.85912e+00 
 1.97209e+00 -8.18566e-01 -5.62002e+00 
 2.06587e+00 -8.60344e-01 -5.37459e+00 
 2.16235e+00 -9.03839e-01 -5.12318e+00 
 2.26161e+00 -9.49147e-01 -4.86639e+00 
 2.36365e+00 -9.96279e-01 -4.60464e+00 
 2.46848e+00 -1.04529e+00 -4.33862e+00 
 2.57602e+00 -1.09614e+00 -4.06885e+00 
 2.68623e+00 -1.14883e+00 -3.79608e+00 
 2.79892e+00 -1.20325e+00 -3.52088e+00 
 2.91394e+00 -1.25931e+00 -3.24407e+00 
 3.03101e+00 -1.31681e+00 -2.96624e+00 
 3.14985e+00 -1.37559e+00 -2.68817e+00 
 3.27005e+00 -1.43533e+00 -2.41045e+00 
 3.39121e+00 -1.49575e+00 -2.13379e+00 
 3.51279e+00 -1.55645e+00 -1.85864e+00 
 3.63426e+00 -1.61704e+00 -1.58557e+00 
 3.75496e+00 -1.67700e+00 -1.31486e+00 
 3.87424e+00 -1.73586e+00 -1.04684e+00 
 3.99136e+00 -1.79303e+00 -7.81503e-01 
 4.10558e+00 -1.84796e+00 -5.18884e-01 
 4.21611e+00 -1.90002e+00 -2.58625e-01 
 4.32215e+00 -1.96042e+00 -1.36733e-01 
-4.14946e+00  1.88268e+00 -1.30388e-01 
-4.04142e+00  1.82109e+00 -2.47136e-01 
-3.92844e+00  1.76770e+00 -4.97352e-01 
-3.81150e+00  1.71123e+00 -7.51967e-01 
-3.69158e+00  1.65245e+00 -1.01128e+00 
-3.56956e+00  1.59202e+00 -1.27517e+00 
-3.44634e+00  1.53065e+00 -1.54349e+00 
-3.32267e+00  1.46889e+00 -1.81575e+00 
-3.19933e+00  1.40733e+00 -2.09149e+00 
-3.07692e+00  1.34641e+00 -2.36994e+00 
-2.95604e+00  1.28659e+00 -2.65045e+00 
-2.83713e+00  1.22815e+00 -2.93207e+00 
-2.72062e+00  1.17141e+00 -3.21405e+00 
-2.60677e+00  1.11654e+00 -3.49542e+00 
-2.49588e+00  1.06370e+00 -3.77540e+00 
-2.38805e+00  1.01296e+00 -4.05304e+00 
-2.28344e+00  9.64390e-01 -4.32763e+00 
-2.18204e+00  9.17948e-01 -4.59832e+00 
-2.08391e+00  8.73631e-01 -4.86449e+00 
-1.98895e+00  8.31340e-01 -5.12541e+00 
-1.89715e+00  7.91019e-01 -5.38057e+00 
-1.80836e+00  7.52531e-01 -5.62937e+00 
-1.72251e+00  7.15790e-01 -5.87143e+00 
-1.63942e+00  6.80642e-01 -6.10627e+00 
-1.55900e+00  6.46988e-01 -6.33362e+00 
-1.48106e+00  6.14673e-01 -6.55311e+00 
-1.40548e+00  5.83597e-01 -6.76456e+00 
-1.33208e+00  5.53613e-01 -6.96768e+00 
-1.26074e+00  5.24627e-01 -7.16238e+00 
-1.19129e+00  4.96507e-01 -7.34846e+00 
-1.12362e+00  4.69171e-01 -7.52586e+00 
-1.05756e+00  4.42502e-01 -7.69445e+00 
-9.93009e-01  4.16434e-01 -7.85421e+00 
-9.29816e-01  3.90865e-01 -8.00506e+00 
-8.67889e-01  3.65744e-01 -8.14700e+00 
-8.07094e-01  3.40986e-01 -8.27998e+00 
-7.47350e-01  3.16554e-01 -8.40404e+00 
-6.88533e-01  2.92376e-01 -8.51912e+00 
-6.30575e-01  2.68427e-01 -8.62529e+00 
-5.73364e-01  2.44650e-01 -8.72251e+00 
-5.16840e-01  2.21030e-01 -8.81083e+00 
-4.60903e-01  1.97519e-01 -8.89024e+00 
-4.05502e-01  1.74114e-01 -8.96079e+00 
-3.50542e-01  1.50773e-01 -9.02246e+00 
-2.95981e-01  1.27501e-01 -9.07529e+00 
-2.41730e-01  1.04263e-01 -9.11929e+00 
-1.87751e-01  8.10671e-02 -9.15447e+00 
-1.33962e-01  5.78860e-02 -9.18085e+00 
-8.03253e-02  3.47294e-02 -9.19843e+00 
-2.67630e-02  1.15729e-02 -9.20721e+00 
 2.67630e-02 -1.15729e-02 -9.20721e+00 
 8.03253e-02 -3.47294e-02 -9.19843e+00 
 1.33962e-01 -5.78860e-02 -9.18085e+00 
 1.87751e-01 -8.10671e-02 -9.15447e+00 
 2.41730e-01 -1.04263e-01 -9.11929e+00 
 2.95981e-01 -1.27501e-01 -9.07529e+00 
 3.50542e-01 -1.50773e-01 -9.02246e+00 
 4.05502e-01 -1.74114e-01 -8.96079e+00 
 4.60903e-01 -1.97519e-01 -8.89024e+00 
 5.16840e-01 -2.21030e-01 -8.81083e+00 
 5.73364e-01 -2.44650e-01 -8.72251e+00 
 6.30575e-01 -2.68427e-01 -8.62529e+00 
 6.88533e-01 -2.92376e-01 -8.51912e+00 
 7.47350e-01 -3.16554e-01 -8.40404e+00 
 8.07094e-01 -3.40986e-01 -8.27998e+00 
 8.67889e-01 -3.65744e-01 -8.14700e+00 
 9.29816e-01 -3.90865e-01 -8.00506e+00 
 9.93009e-01 -4.16434e-01 -7.85421e+00 
 1.05756e+00 -4.42502e-01 -7.69445e+00 
 1.12362e+00 -4.69171e-01 -7.52586e+00 
 1.19129e+00 -4.96507e-01 -7.34846e+00 
 1.26074e+00 -5.24627e-01 -7.16238e+00 
 1.33208e+00 -5.53613e-01 -6.96768e+00 
 1.40548e+00 -5.83597e-01 -6.76456e+00 
 1.48106e+00 -6.14673e-01 -6.55311e+00 
 1.55900e+00 -6.46988e-01 -6.33362e+00 
 1.63942e+00 -6.80642e-01 -6.10627e+00 
 1.72251e+00 -7.15790e-01 -5.87143e+00 
 1.80836e+00 -7.52531e-01 -5.62937e+00 
 1.89715e+00 -7.91019e-01 -5.38057e+00 
 1.98895e+00 -8.31340e-01 -5.12541e+00 
 2.08391e+00 -8.73631e-01 -4.86449e+00 
 2.18204e+00 -9.17948e-01 -4.59832e+00 
 2.28344e+00 -9.64390e-01 -4.32763e+00 
 2.38805e+00 -1.01296e+00 -4.05304e+00 
 2.49588e+00 -1.06370e+00 -3.77540e+00 
 2.60677e+00 -1.11654e+00 -3.49542e+00 
 2.72062e+00 -1.17141e+00 -3.21405e+00 
 2.83713e+00 -1.22815e+00 -2.93207e+00 
 2.95604e+00 -1.28659e+00 -2.65045e+00 
 3.07692e+00 -1.34641e+00 -2.36994e+00 
 3.19933e+00 -1.40733e+00 -2.09149e+00 
 3.32267e+00 -1.46889e+00 -1.81575e+00 
 3.44634e+00 -1.53065e+00 -1.54349e+00 
 3.56956e+00 -1.59202e+00 -1.27517e+00 
 3.69158e+00 -1.65245e+00 -1.01128e+00 
 3.81150e+00 -1.71123e+00 -7.51967e-01 
 3.92844e+00 -1.76770e+00 -4.97352e-01 
 4.04142e+00 -1.82109e+00 -2.47136e-01 
 4.14946e+00 -1.88268e+00 -1.30388e-01 
-3.98635e+00  1.80943e+00 -1.23373e-01 
-3.87472e+00  1.74576e+00 -2.34497e-01 
-3.75769e+00  1.69030e+00 -4.73851e-01 
-3.63647e+00  1.63160e+00 -7.20105e-01 
-3.51228e+00  1.57058e+00 -9.73462e-01 
-3.38618e+00  1.50805e+00 -1.23364e+00 
-3.25925e+00  1.44484e+00 -1.50031e+00 
-3.13238e+00  1.38162e+00 -1.77273e+00 
-3.00647e+00  1.31906e+00 -2.05019e+00 
-2.88219e+00  1.25764e+00 -2.33165e+00 
-2.76021e+00  1.19785e+00 -2.61618e+00 
-2.64098e+00  1.14000e+00 -2.90257e+00 
-2.52495e+00  1.08437e+00 -3.18983e+00 
-2.41236e+00  1.03112e+00 -3.47674e+00 
-2.30345e+00  9.80371e-01 -3.76234e+00 
-2.19830e+00  9.32133e-01 -4.04550e+00 
-2.09700e+00  8.86422e-01 -4.32539e+00 
-1.99947e+00  8.43140e-01 -4.60102e+00 
-1.90571e+00  8.02221e-01 -4.87170e+00 
-1.81556e+00  7.63509e-01 -5.13663e+00 
-1.72893e+00  7.26889e-01 -5.39529e+00 
-1.64561e+00  6.92174e-01 -5.64704e+00 
-1.56547e+00  6.59228e-01 -5.89152e+00 
-1.48829e+00  6.27860e-01 -6.12824e+00 
-1.41391e+00  5.97930e-01 -6.35697e+00 
-1.34211e+00  5.69255e-01 -6.57736e+00 
-1.27274e+00  5.41708e-01 -6.78927e+00 
-1.20558e+00  5.15123e-01 -6.99247e+00 
-1.14049e+00  4.89389e-01 -7.18689e+00 
-1.07727e+00  4.64362e-01 -7.37238e+00 
-1.01579e+00  4.39953e-01 -7.54893e+00 
-9.55871e-01  4.16041e-01 -7.71644e+00 
-8.97399e-01  3.92556e-01 -7.87496e+00 
-8.40218e-01  3.69399e-01 -8.02441e+00 
-7.84228e-01  3.46519e-01 -8.16487e+00 
-7.29293e-01  3.23839e-01 -8.29629e+00 
-6.75328e-01  3.01324e-01 -8.41876e+00 
-6.22214e-01  2.78913e-01 -8.53225e+00 
-5.69879e-01  2.56588e-01 -8.63685e+00 
-5.18219e-01  2.34302e-01 -8.73255e+00 
-4.67175e-01  2.12049e-01 -8.81942e+00 
-4.16653e-01  1.89793e-01 -8.89747e+00 
-3.66604e-01  1.67539e-01 -8.96677e+00 
-3.16945e-01  1.45261e-01 -9.02731e+00 
-2.67635e-01  1.22970e-01 -9.07916e+00 
-2.18596e-01  1.00649e-01 -9.12231e+00 
-1.69793e-01  7.83130e-02 -9.15681e+00 
-1.21154e-01  5.59499e-02 -9.18266e+00 
-7.26478e-02  3.35796e-02 -9.19990e+00 
-2.42054e-02  1.11921e-02 -9.20851e+00 
 2.42054e-02 -1.11921e-02 -9.20851e+00 
 7.26478e-02 -3.35796e-02 -9.19990e+00 
 1.21154e-01 -5.59499e-02 -9.18266e+00 
 1.69793e-01 -7.83130e-02 -9.15681e+00 
 2.18596e-01 -1.00649e-01 -9.12231e+00 
 2.67635e-01 -1.22970e-01 -9.07916e+00 
 3.16945e-01 -1.45261e-01 -9.02731e+00 
 3.66604e-01 -1.67539e-01 -8.96677e+00 
 4.16653e-01 -1.89793e-01 -8.89747e+00 
 4.67175e-01 -2.12049e-01 -8.81942e+00 
 5.18219e-01 -2.34302e-01 -8.73255e+00 
 5.69879e-01 -2.56588e-01 -8.63685e+00 
 6.22214e-01 -2.78913e-01 -8.53225e+00 
 6.75328e-01 -3.01324e-01 -8.41876e+00 
 7.29293e-01 -3.23839e-01 -8.29629e+00 
 7.84228e-01 -3.46519e-01 -8.16487e+00 
 8.40218e-01 -3.69399e-01 -8.02441e+00 
 8.97399e-01 -3.92556e-01 -7.87496e+00 
 9.55871e-01 -4.16041e-01 -7.71644e+00 
 1.01579e+00 -4.39953e-01 -7.54893e+00 
 1.07727e+00 -4.64362e-01 -7.37238e+00 
 1.14049e+00 -4.89389e-01 -7.18689e+00 
 1.20558e+00 -5.15123e-01 -6.99247e+00 
 1.27274e+00 -5.41708e-01 -6.78927e+00 
 1.34211e+00 -5.69255e-01 -6.57736e+00 
 1.41391e+00 -5.97930e-01 -6.35697e+00 
 1.48829e+00 -6.27860e-01 -6.12824e+00 
 1.56547e+00 -6.59228e-01 -5.89152e+00 
 1.64561e+00 -6.92174e-01 -5.64704e+00 
 1.72893e+00 -7.26889e-01 -5.39529e+00 
 1.81556e+00 -7.63509e-01 -5.13663e+00 
 1.90571e+00 -8.02221e-01 -4.87170e+00 
 1.99947e+00 -8.43140e-01 -4.60102e+00 
 2.09700e+00 -8.86422e-01 -4.32539e+00 
 2.19830e+00 -9.32133e-01 -4.04550e+00 
 2.30345e+00 -9.80371e-01 -3.76234e+00 
 2.41236e+00 -1.03112e+00 -3.47674e+00 
 2.52495e+00 -1.08437e+00 -3.18983e+00 
 2.64098e+00 -1.14000e+00 -2.90257e+00 
 2.76021e+00 -1.19785e+00 -2.61618e+00 
 2.88219e+00 -1.25764e+00 -2.33165e+00 
 3.00647e+00 -1.31906e+00 -2.05019e+00 
 3.13238e+00 -1.38162e+00 -1.77273e+00 
 3.25925e+00 -1.44484e+00 -1.50031e+00 
 3.38618e+00 -1.50805e+00 -1.23364e+00 
 3.51228e+00 -1.57058e+00 -9.73462e-01 
 3.63647e+00 -1.63160e+00 -7.20105e-01 
 3.75769e+00 -1.69030e+00 -4.73851e-01 
 3.87472e+00 -1.74576e+00 -2.34497e-01 
 3.98635e+00 -1.80943e+00 -1.23373e-01 
-3.83394e+00  1.74123e+00 -1.15659e-01 
-3.71674e+00  1.67435e+00 -2.20683e-01 
-3.59367e+00  1.61594e+00 -4.48429e-01 
-3.46629e+00  1.55417e+00 -6.86159e-01 
-3.33607e+00  1.49018e+00 -9.33919e-01 
-3.20432e+00  1.42497e+00 -1.19120e+00 
-3.07233e+00  1.35950e+00 -1.45737e+00 
-2.94117e+00  1.29459e+00 -1.73137e+00 
-2.81185e+00  1.23097e+00 -2.01211e+00 
-2.68513e+00  1.16918e+00 -2.29819e+00 
-2.56173e+00  1.10973e+00 -2.58832e+00 
-2.44210e+00  1.05291e+00 -2.88096e+00 
-2.32666e+00  9.98970e-01 -3.17479e+00 
-2.21561e+00  9.48004e-01 -3.46834e+00 
-2.10911e+00  9.00077e-01 -3.76040e+00 
-2.00716e+00  8.55112e-01 -4.04968e+00 
-1.90976e+00  8.13041e-01 -4.33517e+00 
-1.81675e+00  7.73687e-01 -4.61580e+00 
-1.72802e+00  7.36901e-01 -4.89081e+00 
-1.64332e+00  7.02452e-01 -5.15936e+00 
-1.56248e+00  6.70155e-01 -5.42091e+00 
-1.48523e+00  6.39764e-01 -5.67485e+00 
-1.41134e+00  6.11088e-01 -5.92083e+00 
-1.34056e+00  5.83891e-01 -6.15841e+00 
-1.27265e+00  5.57995e-01 -6.38740e+00 
-1.20737e+00  5.33188e-01 -6.60752e+00 
-1.14451e+00  5.09318e-01 -6.81868e+00 
-1.08383e+00  4.86204e-01 -7.02070e+00 
-1.02516e+00  4.63720e-01 -7.21359e+00 
-9.68293e-01  4.41719e-01 -7.39725e+00 
-9.13067e-01  4.20104e-01 -7.57173e+00 
-8.59302e-01  3.98757e-01 -7.73698e+00 
-8.06873e-01  3.77609e-01 -7.89309e+00 
-7.55623e-01  3.56570e-01 -8.04004e+00 
-7.05446e-01  3.35593e-01 -8.17796e+00 
-6.56210e-01  3.14612e-01 -8.30682e+00 
-6.07830e-01  2.93601e-01 -8.42676e+00 
-5.60192e-01  2.72512e-01 -8.53779e+00 
-5.13228e-01  2.51337e-01 -8.64000e+00 
-4.66841e-01  2.30044e-01 -8.73343e+00 
-4.20978e-01  2.08636e-01 -8.81818e+00 
-3.75552e-01  1.87096e-01 -8.89426e+00 
-3.30523e-01  1.65437e-01 -8.96176e+00 
-2.85816e-01  1.43652e-01 -9.02071e+00 
-2.41396e-01  1.21761e-01 -9.07115e+00 
-1.97198e-01  9.97650e-02 -9.11313e+00 
-1.53193e-01  7.76901e-02 -9.14668e+00 
-1.09321e-01  5.55404e-02 -9.17181e+00 
-6.55570e-02  3.33474e-02 -9.18856e+00 
-2.18436e-02  1.11174e-02 -9.19693e+00 
 2.18436e-02 -1.11174e-02 -9.19693e+00 
 6.55570e-02 -3.33474e-02 -9.18856e+00 
 1.09321e-01 -5.55404e-02 -9.17181e+00 
 1.53193e-01 -7.76901e-02 -9.14668e+00 
 1.97198e-01 -9.97650e-02 -9.11313e+00 
 2.41396e-01 -1.21761e-01 -9.07115e+00 
 2.85816e-01 -1.43652e-01 -9.02071e+00 
 3.30523e-01 -1.65437e-01 -8.96176e+00 
 3.75552e-01 -1.87096e-01 -8.89426e+00 
 4.20978e-01 -2.08636e-01 -8.81818e+00 
 4.66841e-01 -2.30044e-01 -8.73343e+00 
 5.13228e-01 -2.51337e-01 -8.64000e+00 
 5.60192e-01 -2.72512e-01 -8.53779e+00 
 6.07830e-01 -2.93601e-01 -8.42676e+00 
 6.56210e-01 -3.14612e-01 -8.30682e+00 
 7.05446e-01 -3.35593e-01 -8.17796e+00 
 7.55623e-01 -3.56570e-01 -8.04004e+00 
 8.06873e-01 -3.77609e-01 -7.89309e+00 
 8.59302e-01 -3.98757e-01 -7.73698e+00 
 9.13067e-01 -4.20104e-01 -7.57173e+00 
 9.68293e-01 -4.41719e-01 -7.39725e+00 
 1.02516e+00 -4.63720e-01 -7.21359e+00 
 1.08383e+00 -4.86204e-01 -7.02070e+00 
 1.14451e+00 -5.09318e-01 -6.81868e+00 
 1.20737e+00 -5.33188e-01 -6.60752e+00 
 1.27265e+00 -5.57995e-01 -6.38740e+00 
 1.34056e+00 -5.83891e-01 -6.15841e+00 
 1.41134e+00 -6.11088e-01 -5.92083e+00 
 1.48523e+00 -6.39764e-01 -5.67485e+00 
 1.56248e+00 -6.70155e-01 -5.42091e+00 
 1.64332e+00 -7.02452e-01 -5.15936e+00 
 1.72802e+00 -7.36901e-01 -4.89081e+00 
 1.81675e+00 -7.73687e-01 -4.61580e+00 
 1.90976e+00 -8.13041e-01 -4.33517e+00 
 2.00716e+00 -8.55112e-01 -4.04968e+00 
 2.10911e+00 -9.00077e-01 -3.76040e+00 
 2.21561e+00 -9.48004e-01 -3.46834e+00 
 2.32666e+00 -9.98970e-01 -3.17479e+00 
 2.44210e+00 -1.05291e+00 -2.88096e+00 
 2.56173e+00 -1.10973e+00 -2.58832e+00 
 2.68513e+00 -1.16918e+00 -2.29819e+00 
 2.81185e+00 -1.23097e+00 -2.01211e+00 
 2.94117e+00 -1.29459e+00 -1.73137e+00 
 3.07233e+00 -1.35950e+00 -1.45737e+00 
 3.20432e+00 -1.42497e+00 -1.19120e+00 
 3.33607e+00 -1.49018e+00 -9.33919e-01 
 3.46629e+00 -1.55417e+00 -6.86159e-01 
 3.59367e+00 -1.61594e+00 -4.48429e-01 
 3.71674e+00 -1.67435e+00 -2.20683e-01 
 3.83394e+00 -1.74123e+00 -1.15659e-01 
-3.69344e+00  1.67868e+00 -1.07232e-01 
-3.56816e+00  1.60718e+00 -2.05714e-01 
-3.43661e+00  1.54471e+00 -4.21254e-01 
-3.30072e+00  1.47888e+00 -6.50615e-01 
-3.16236e+00  1.41109e+00 -8.93594e-01 
-3.02314e+00  1.34256e+00 -1.14933e+00 
-2.88459e+00  1.27446e+00 -1.41676e+00 
-2.74799e+00  1.20772e+00 -1.69434e+00 
-2.61448e+00  1.14317e+00 -1.98049e+00 
-2.48489e+00  1.08138e+00 -2.27331e+00 
-2.35995e+00  1.02284e+00 -2.57101e+00 
-2.24008e+00  9.67794e-01 -2.87164e+00 
-2.12563e+00  9.16430e-01 -3.17350e+00 
-2.01670e+00  8.68728e-01 -3.47478e+00 
-1.91334e+00  8.24645e-01 -3.77406e+00 
-1.81541e+00  7.83987e-01 -4.06981e+00 
-1.72278e+00  7.46571e-01 -4.36094e+00 
-1.63517e+00  7.12108e-01 -4.64627e+00 
-1.55233e+00  6.80345e-01 -4.92501e+00 
-1.47392e+00  6.50961e-01 -5.19632e+00 
-1.39964e+00  6.23688e-01 -5.45971e+00 
-1.32914e+00  5.98215e-01 -5.71458e+00 
-1.26213e+00  5.74291e-01 -5.96068e+00 
-1.19827e+00  5.51639e-01 -6.19764e+00 
-1.13728e+00  5.30042e-01 -6.42534e+00 
-1.07887e+00  5.09267e-01 -6.64359e+00 
-1.02280e+00  4.89140e-01 -6.85239e+00 
-9.68798e-01  4.69471e-01 -7.05164e+00 
-9.16673e-01  4.50130e-01 -7.24142e+00 
-8.66200e-01  4.30968e-01 -7.42170e+00 
-8.17215e-01  4.11893e-01 -7.59261e+00 
-7.69533e-01  3.92795e-01 -7.75415e+00 
-7.23021e-01  3.73612e-01 -7.90649e+00 
-6.77526e-01  3.54268e-01 -8.04965e+00 
-6.32946e-01  3.34728e-01 -8.18379e+00 
-5.89153e-01  3.14941e-01 -8.30895e+00 
-5.46067e-01  2.94894e-01 -8.42529e+00 
-5.03584e-01  2.74557e-01 -8.53286e+00 
-4.61643e-01  2.53935e-01 -8.63178e+00 
-4.20158e-01  2.33016e-01 -8.72212e+00 
-3.79082e-01  2.11817e-01 -8.80398e+00 
-3.38344e-01  1.90337e-01 -8.87742e+00 
-2.97909e-01  1.68606e-01 -8.94253e+00 
-2.57715e-01  1.46632e-01 -8.99935e+00 
-2.17738e-01  1.24452e-01 -9.04796e+00 
-1.77923e-01  1.02082e-01 -9.08839e+00 
-1.38252e-01  7.95630e-02 -9.12069e+00 
-9.86764e-02  5.69169e-02 -9.14488e+00 
-5.91808e-02  3.41881e-02 -9.16100e+00 
-1.97202e-02  1.14006e-02 -9.16905e+00 
 1.97202e-02 -1.14006e-02 -9.16905e+00 
 5.91808e-02 -3.41881e-02 -9.16100e+00 
 9.86764e-02 -5.69169e-02 -9.14488e+00 
 1.38252e-01 -7.95630e-02 -9.12069e+00 
 1.77923e-01 -1.02082e-01 -9.08839e+00 
 2.17738e-01 -1.24452e-01 -9.04796e+00 
 2.57715e-01 -1.46632e-01 -8.99935e+00 
 2.97909e-01 -1.68606e-01 -8.94253e+00 
 3.38344e-01 -1.90337e-01 -8.87742e+00 
 3.79082e-01 -2.11817e-01 -8.80398e+00 
 4.20158e-01 -2.33016e-01 -8.72212e+00 
 4.61643e-01 -2.53935e-01 -8.63178e+00 
 5.03584e-01 -2.74557e-01 -8.53286e+00 
 5.46067e-01 -2.94894e-01 -8.42529e+00 
 5.89153e-01 -3.14941e-01 -8.30895e+00 
 6.32946e-01 -3.34728e-01 -8.18379e+00 
 6.77526e-01 -3.54268e-01 -8.04965e+00 
 7.23021e-01 -3.73612e-01 -7.90649e+00 
 7.69533e-01 -3.92795e-01 -7.75415e+00 
 8.17215e-01 -4.11893e-01 -7.59261e+00 
 8.66200e-01 -4.30968e-01 -7.42170e+00 
 9.16673e-01 -4.50130e-01 -7.24142e+00 
 9.68798e-01 -4.69471e-01 -7.05164e+00 
 1.02280e+00 -4.89140e-01 -6.85239e+00 
 1.07887e+00 -5.09267e-01 -6.64359e+00 
 1.13728e+00 -5.30042e-01 -6.42534e+00 
 1.19827e+00 -5.51639e-01 -6.19764e+00 
 1.26213e+00 -5.74291e-01 -5.96068e+00 
 1.32914e+00 -5.98215e-01 -5.71458e+00 
 1.39964e+00 -6.23688e-01 -5.45971e+00 
 1.47392e+00 -6.50961e-01 -5.19632e+00 
 1.55233e+00 -6.80345e-01 -4.92501e+00 
 1.63517e+00 -7.12108e-01 -4.64627e+00 
 1.72278e+00 -7.46571e-01 -4.36094e+00 
 1.81541e+00 -7.83987e-01 -4.06981e+00 
 1.91334e+00 -8.24645e-01 -3.77406e+00 
 2.01670e+00 -8.68728e-01 -3.47478e+00 
 2.12563e+00 -9.16430e-01 -3.17350e+00 
 2.24008e+00 -9.67794e-01 -2.87164e+00 
 2.35995e+00 -1.02284e+00 -2.57101e+00 
 2.48489e+00 -1.08138e+00 -2.27331e+00 
 2.61448e+00 -1.14317e+00 -1.98049e+00 
 2.74799e+00 -1.20772e+00 -1.69434e+00 
 2.88459e+00 -1.27446e+00 -1.41676e+00 
 3.02314e+00 -1.34256e+00 -1.14933e+00 
 3.16236e+00 -1.41109e+00 -8.93594e-01 
 3.30072e+00 -1.47888e+00 -6.50615e-01 
 3.43661e+00 -1.54471e+00 -4.21254e-01 
 3.56816e+00 -1.60718e+00 -2.05714e-01 
 3.69344e+00 -1.67868e+00 -1.07232e-01 
-3.56614e+00  1.62244e+00 -9.81075e-02 
-3.42963e+00  1.54453e+00 -1.89678e-01 
-3.28648e+00  1.47665e+00 -3.92683e-01 
-3.13922e+00  1.40555e+00 -6.14337e-01 
-2.99018e+00  1.33301e+00 -8.54035e-01 
-2.84136e+00  1.26053e+00 -1.11038e+00 
-2.69463e+00  1.18951e+00 -1.38167e+00 
-2.55146e+00  1.12102e+00 -1.66566e+00 
-2.41311e+00  1.05595e+00 -1.96007e+00 
-2.28047e+00  9.94877e-01 -2.26230e+00 
-2.15421e+00  9.38232e-01 -2.56997e+00 
-2.03467e+00  8.86146e-01 -2.88055e+00 
-1.92204e+00  8.38660e-01 -3.19192e+00 
-1.81624e+00  7.95598e-01 -3.50192e+00 
-1.71715e+00  7.56745e-01 -3.80886e+00 
-1.62444e+00  7.21744e-01 -4.11107e+00 
-1.53778e+00  6.90252e-01 -4.40734e+00 
-1.45672e+00  6.61839e-01 -4.69648e+00 
-1.38085e+00  6.36129e-01 -4.97774e+00 
-1.30971e+00  6.12694e-01 -5.25032e+00 
-1.24288e+00  5.91180e-01 -5.51382e+00 
-1.17991e+00  5.71208e-01 -5.76777e+00 
-1.12042e+00  5.52472e-01 -6.01201e+00 
-1.06401e+00  5.34657e-01 -6.24630e+00 
-1.01036e+00  5.17522e-01 -6.47065e+00 
-9.59123e-01  5.00816e-01 -6.68496e+00 
-9.10038e-01  4.84358e-01 -6.88936e+00 
-8.62823e-01  4.67961e-01 -7.08384e+00 
-8.17262e-01  4.51495e-01 -7.26858e+00 
-7.73131e-01  4.34828e-01 -7.44363e+00 
-7.30261e-01  4.17875e-01 -7.60921e+00 
-6.88471e-01  4.00546e-01 -7.76538e+00 
-6.47632e-01  3.82794e-01 -7.91236e+00 
-6.07601e-01  3.64564e-01 -8.05025e+00 
-5.68281e-01  3.45839e-01 -8.17923e+00 
-5.29557e-01  3.26589e-01 -8.29941e+00 
-4.91360e-01  3.06819e-01 -8.41097e+00 
-4.53599e-01  2.86523e-01 -8.51398e+00 
-4.16224e-01  2.65722e-01 -8.60862e+00 
-3.79162e-01  2.44426e-01 -8.69496e+00 
-3.42379e-01  2.22668e-01 -8.77314e+00 
-3.05816e-01  2.00470e-01 -8.84321e+00 
-2.69451e-01  1.77876e-01 -8.90530e+00 
-2.33237e-01  1.54916e-01 -8.95945e+00 
-1.97159e-01  1.31640e-01 -9.00575e+00 
-1.61177e-01  1.08086e-01 -9.04424e+00 
-1.25283e-01  8.43082e-02 -9.07498e+00 
-8.94432e-02  6.03474e-02 -9.09800e+00 
-5.36526e-02  3.62621e-02 -9.11334e+00 
-1.78797e-02  1.20950e-02 -9.12100e+00 
 1.78797e-02 -1.20950e-02 -9.12100e+00 
 5.36526e-02 -3.62621e-02 -9.11334e+00 
 8.94432e-02 -6.03474e-02 -9.09800e+00 
 1.25283e-01 -8.43082e-02 -9.07498e+00 
 1.61177e-01 -1.08086e-01 -9.04424e+00 
 1.97159e-01 -1.31640e-01 -9.00575e+00 
 2.33237e-01 -1.54916e-01 -8.95945e+00 
 2.69451e-01 -1.77876e-01 -8.90530e+00 
 3.05816e-01 -2.00470e-01 -8.84321e+00 
 3.42379e-01 -2.22668e-01 -8.77314e+00 
 3.79162e-01 -2.44426e-01 -8.69496e+00 
 4.16224e-01 -2.65722e-01 -8.60862e+00 
 4.53599e-01 -2.86523e-01 -8.51398e+00 
 4.91360e-01 -3.06819e-01 -8.41097e+00 
 5.29557e-01 -3.26589e-01 -8.29941e+00 
 5.68281e-01 -3.45839e-01 -8.17923e+00 
 6.07601e-01 -3.64564e-01 -8.05025e+00 
 6.47632e-01 -3.82794e-01 -7.91236e+00 
 6.88471e-01 -4.00546e-01 -7.76538e+00 
 7.30261e-01 -4.17875e-01 -7.60921e+00 
 7.73131e-01 -4.34828e-01 -7.44363e+00 
 8.17262e-01 -4.51495e-01 -7.26858e+00 
 8.62823e-01 -4.67961e-01 -7.08384e+00 
 9.10038e-01 -4.84358e-01 -6.88936e+00 
 9.59123e-01 -5.00816e-01 -6.68496e+00 
 1.01036e+00 -5.17522e-01 -6.47065e+00 
 1.06401e+00 -5.34657e-01 -6.24630e+00 
 1.12042e+00 -5.52472e-01 -6.01201e+00 
 1.17991e+00 -5.71208e-01 -5.76777e+00 
 1.24288e+00 -5.91180e-01 -5.51382e+00 
 1.30971e+00 -6.12694e-01 -5.25032e+00 
 1.38085e+00 -6.36129e-01 -4.97774e+00 
 1.45672e+00 -6.61839e-01 -4.69648e+00 
 1.53778e+00 -6.90252e-01 -4.40734e+00 
 1.62444e+00 -7.21744e-01 -4.11107e+00 
 1.71715e+00 -7.56745e-01 -3.80886e+00 
 1.81624e+00 -7.95598e-01 -3.50192e+00 
 1.92204e+00 -8.38660e-01 -3.19192e+00 
 2.03467e+00 -8.86146e-01 -2.88055e+00 
 2.15421e+00 -9.38232e-01 -2.56997e+00 
 2.28047e+00 -9.94877e-01 -2.26230e+00 
 2.41311e+00 -1.05595e+00 -1.96007e+00 
 2.55146e+00 -1.12102e+00 -1.66566e+00 
 2.69463e+00 -1.18951e+00 -1.38167e+00 
 2.84136e+00 -1.26053e+00 -1.11038e+00 
 2.99018e+00 -1.33301e+00 -8.54035e-01 
 3.13922e+00 -1.40555e+00 -6.14337e-01 
 3.28648e+00 -1.47665e+00 -3.92683e-01 
 3.42963e+00 -1.54453e+00 -1.89678e-01 
 3.56614e+00 -1.62244e+00 -9.81075e-02 
-3.45346e+00  1.57326e+00 -8.83437e-02 
-3.30160e+00  1.48663e+00 -1.72779e-01 
-3.14291e+00  1.41161e+00 -3.63390e-01 
-2.98069e+00  1.33380e+00 -5.78802e-01 
-2.81791e+00  1.25545e+00 -8.17769e-01 
-2.65708e+00  1.17845e+00 -1.07805e+00 
-2.50046e+00  1.10444e+00 -1.35698e+00 
-2.34973e+00  1.03463e+00 -1.65129e+00 
-2.20625e+00  9.69949e-01 -1.95770e+00 
-2.07085e+00  9.10888e-01 -2.27268e+00 
-1.94407e+00  8.57718e-01 -2.59306e+00 
-1.82603e+00  8.10367e-01 -2.91565e+00 
-1.71665e+00  7.68633e-01 -3.23783e+00 
-1.61559e+00  7.32089e-01 -3.55709e+00 
-1.52242e+00  7.00278e-01 -3.87155e+00 
-1.43655e+00  6.72616e-01 -4.17942e+00 
-1.35741e+00  6.48563e-01 -4.47952e+00 
-1.28434e+00  6.27519e-01 -4.77071e+00 
-1.21674e+00  6.08968e-01 -5.05238e+00 
-1.15399e+00  5.92376e-01 -5.32387e+00 
-1.09555e+00  5.77304e-01 -5.58495e+00 
-1.04088e+00  5.63314e-01 -5.83533e+00 
-9.89524e-01  5.50062e-01 -6.07502e+00 
-9.41023e-01  5.37210e-01 -6.30394e+00 
-8.95015e-01  5.24505e-01 -6.52228e+00 
-8.51138e-01  5.11702e-01 -6.73007e+00 
-8.09105e-01  4.98626e-01 -6.92757e+00 
-7.68634e-01  4.85107e-01 -7.11490e+00 
-7.29506e-01  4.71034e-01 -7.29234e+00 
-6.91505e-01  4.56299e-01 -7.46003e+00 
-6.54467e-01  4.40841e-01 -7.61826e+00 
-6.18226e-01  4.24597e-01 -7.76717e+00 
-5.82665e-01  4.07546e-01 -7.90706e+00 
-5.47657e-01  3.89661e-01 -8.03804e+00 
-5.13120e-01  3.70948e-01 -8.16037e+00 
-4.78956e-01  3.51406e-01 -8.27419e+00 
-4.45111e-01  3.31064e-01 -8.37970e+00 
-4.11512e-01  3.09940e-01 -8.47701e+00 
-3.78123e-01  2.88077e-01 -8.56632e+00 
-3.44889e-01  2.65509e-01 -8.64772e+00 
-3.11789e-01  2.42290e-01 -8.72137e+00 
-2.78783e-01  2.18464e-01 -8.78733e+00 
-2.45860e-01  1.94092e-01 -8.84574e+00 
-2.12988e-01  1.69225e-01 -8.89665e+00 
-1.80167e-01  1.43932e-01 -8.94016e+00 
-1.47372e-01  1.18268e-01 -8.97632e+00 
-1.14605e-01  9.23043e-02 -9.00520e+00 
-8.18485e-02  6.61006e-02 -9.02681e+00 
-4.91082e-02  3.97300e-02 -9.04120e+00 
-1.63672e-02  1.32542e-02 -9.04839e+00 
 1.63672e-02 -1.32542e-02 -9.04839e+00 
 4.91082e-02 -3.97300e-02 -9.04120e+00 
 8.18485e-02 -6.61006e-02 -9.02681e+00 
 1.14605e-01 -9.23043e-02 -9.00520e+00 
 1.47372e-01 -1.18268e-01 -8.97632e+00 
 1.80167e-01 -1.43932e-01 -8.94016e+00 
 2.12988e-01 -1.69225e-01 -8.89665e+00 
 2.45860e-01 -1.94092e-01 -8.84574e+00 
 2.78783e-01 -2.18464e-01 -8.78733e+00 
 3.11789e-01 -2.42290e-01 -8.72137e+00 
 3.44889e-01 -2.65509e-01 -8.64772e+00 
 3.78123e-01 -2.88077e-01 -8.56632e+00 
 4.11512e-01 -3.09940e-01 -8.47701e+00 
 4.45111e-01 -3.31064e-01 -8.37970e+00 
 4.78956e-01 -3.51406e-01 -8.27419e+00 
 5.13120e-01 -3.70948e-01 -8.16037e+00 
 5.47657e-01 -3.89661e-01 -8.03804e+00 
 5.82665e-01 -4.07546e-01 -7.90706e+00 
 6.18226e-01 -4.24597e-01 -7.76717e+00 
 6.54467e-01 -4.40841e-01 -7.61826e+00 
 6.91505e-01 -4.56299e-01 -7.46003e+00 
 7.29506e-01 -4.71034e-01 -7.29234e+00 
 7.68634e-01 -4.85107e-01 -7.11490e+00 
 8.09105e-01 -4.98626e-01 -6.92757e+00 
 8.51138e-01 -5.11702e-01 -6.73007e+00 
 8.95015e-01 -5.24505e-01 -6.52228e+00 
 9.41023e-01 -5.37210e-01 -6.30394e+00 
 9.89524e-01 -5.50062e-01 -6.07502e+00 
 1.04088e+00 -5.63314e-01 -5.83533e+00 
 1.09555e+00 -5.77304e-01 -5.58495e+00 
 1.15399e+00 -5.92376e-01 -5.32387e+00 
 1.21674e+00 -6.08968e-01 -5.05238e+00 
 1.28434e+00 -6.27519e-01 -4.77071e+00 
 1.35741e+00 -6.48563e-01 -4.47952e+00 
 1.43655e+00 -6.72616e-01 -4.17942e+00 
 1.52242e+00 -7.00278e-01 -3.87155e+00 
 1.61559e+00 -7.32089e-01 -3.55709e+00 
 1.71665e+00 -7.68633e-01 -3.23783e+00 
 1.82603e+00 -8.10367e-01 -2.91565e+00 
 1.94407e+00 -8.57718e-01 -2.59306e+00 
 2.07085e+00 -9.10888e-01 -2.27268e+00 
 2.20625e+00 -9.69949e-01 -1.95770e+00 
 2.34973e+00 -1.03463e+00 -1.65129e+00 
 2.50046e+00 -1.10444e+00 -1.35698e+00 
 2.65708e+00 -1.17845e+00 -1.07805e+00 
 2.81791e+00 -1.25545e+00 -8.17769e-01 
 2.98069e+00 -1.33380e+00 -5.78802e-01 
 3.14291e+00 -1.41161e+00 -3.63390e-01 
 3.30160e+00 -1.48663e+00 -1.72779e-01 
 3.45346e+00 -1.57326e+00 -8.83437e-02 
-3.35688e+00  1.53196e+00 -7.80811e-02 
-3.18426e+00  1.43358e+00 -1.55421e-01 
-3.00489e+00  1.34921e+00 -3.34581e-01 
-2.82318e+00  1.26295e+00 -5.46512e-01 
-2.64299e+00  1.17768e+00 -7.88910e-01 
-2.46750e+00  1.09576e+00 -1.05819e+00 
-2.29940e+00  1.01915e+00 -1.35021e+00 
-2.14055e+00  9.49114e-01 -1.66016e+00 
-1.99230e+00  8.86518e-01 -1.98336e+00 
-1.85526e+00  8.31624e-01 -2.31503e+00 
-1.72965e+00  7.84389e-01 -2.65100e+00 
-1.61517e+00  7.44366e-01 -2.98736e+00 
-1.51132e+00  7.10972e-01 -3.32100e+00 
-1.41732e+00  6.83411e-01 -3.64915e+00 
-1.33233e+00  6.60894e-01 -3.96984e+00 
-1.25541e+00  6.42555e-01 -4.28138e+00 
-1.18569e+00  6.27620e-01 -4.58271e+00 
-1.12225e+00  6.15311e-01 -4.87295e+00 
-1.06432e+00  6.04975e-01 -5.15171e+00 
-1.01111e+00  5.95986e-01 -5.41863e+00 
-9.61967e-01  5.87842e-01 -5.67373e+00 
-9.16271e-01  5.80075e-01 -5.91698e+00 
-8.73509e-01  5.72328e-01 -6.14862e+00 
-8.33197e-01  5.64270e-01 -6.36880e+00 
-7.94950e-01  5.55664e-01 -6.57787e+00 
-7.58404e-01  5.46291e-01 -6.77605e+00 
-7.23274e-01  5.36007e-01 -6.96374e+00 
-6.89292e-01  5.24679e-01 -7.14118e+00 
-6.56253e-01  5.12231e-01 -7.30876e+00 
-6.23962e-01  4.98596e-01 -7.46671e+00 
-5.92274e-01  4.83746e-01 -7.61539e+00 
-5.61048e-01  4.67661e-01 -7.75503e+00 
-5.30188e-01  4.50350e-01 -7.88594e+00 
-4.99590e-01  4.31823e-01 -8.00831e+00 
-4.69194e-01  4.12118e-01 -8.12243e+00 
-4.38926e-01  3.91266e-01 -8.22845e+00 
-4.08749e-01  3.69322e-01 -8.32662e+00 
-3.78614e-01  3.46335e-01 -8.41706e+00 
-3.48501e-01  3.22370e-01 -8.49999e+00 
-3.18376e-01  2.97490e-01 -8.57550e+00 
-2.88234e-01  2.71766e-01 -8.64377e+00 
-2.58053e-01  2.45269e-01 -8.70488e+00 
-2.27836e-01  2.18077e-01 -8.75896e+00 
-1.97570e-01  1.90264e-01 -8.80608e+00 
-1.67266e-01  1.61914e-01 -8.84634e+00 
-1.36914e-01  1.33103e-01 -8.87977e+00 
-1.06532e-01  1.03918e-01 -8.90647e+00 
-7.61146e-02  7.44369e-02 -8.92644e+00 
-4.56806e-02  4.47474e-02 -8.93975e+00 
-1.52269e-02  1.49298e-02 -8.94639e+00 
 1.52269e-02 -1.49298e-02 -8.94639e+00 
 4.56806e-02 -4.47474e-02 -8.93975e+00 
 7.61146e-02 -7.44369e-02 -8.92644e+00 
 1.06532e-01 -1.03918e-01 -8.90647e+00 
 1.36914e-01 -1.33103e-01 -8.87977e+00 
 1.67266e-01 -1.61914e-01 -8.84634e+00 
 1.97570e-01 -1.90264e-01 -8.80608e+00 
 2.27836e-01 -2.18077e-01 -8.75896e+00 
 2.58053e-01 -2.45269e-01 -8.70488e+00 
 2.88234e-01 -2.71766e-01 -8.64377e+00 
 3.18376e-01 -2.97490e-01 -8.57550e+00 
 3.48501e-01 -3.22370e-01 -8.49999e+00 
 3.78614e-01 -3.46335e-01 -8.41706e+00 
 4.08749e-01 -3.69322e-01 -8.32662e+00 
 4.38926e-01 -3.91266e-01 -8.22845e+00 
 4.69194e-01 -4.12118e-01 -8.12243e+00 
 4.99590e-01 -4.31823e-01 -8.00831e+00 
 5.30188e-01 -4.50350e-01 -7.88594e+00 
 5.61048e-01 -4.67661e-01 -7.75503e+00 
 5.92274e-01 -4.83746e-01 -7.61539e+00 
 6.23962e-01 -4.98596e-01 -7.46671e+00 
 6.56253e-01 -5.12231e-01 -7.30876e+00 
 6.89292e-01 -5.24679e-01 -7.14118e+00 
 7.23274e-01 -5.36007e-01 -6.96374e+00 
 7.58404e-01 -5.46291e-01 -6.77605e+00 
 7.94950e-01 -5.55664e-01 -6.57787e+00 
 8.33197e-01 -5.64270e-01 -6.36880e+00 
 8.73509e-01 -5.72328e-01 -6.14862e+00 
 9.16271e-01 -5.80075e-01 -5.91698e+00 
 9.61967e-01 -5.87842e-01 -5.67373e+00 
 1.01111e+00 -5.95986e-01 -5.41863e+00 
 1.06432e+00 -6.04975e-01 -5.15171e+00 
 1.12225e+00 -6.15311e-01 -4.87295e+00 
 1.18569e+00 -6.27620e-01 -4.58271e+00 
 1.25541e+00 -6.42555e-01 -4.28138e+00 
 1.33233e+00 -6.60894e-01 -3.96984e+00 
 1.41732e+00 -6.83411e-01 -3.64915e+00 
 1.51132e+00 -7.10972e-01 -3.32100e+00 
 1.61517e+00 -7.44366e-01 -2.98736e+00 
 1.72965e+00 -7.84389e-01 -2.65100e+00 
 1.85526e+00 -8.31624e-01 -2.31503e+00 
 1.99230e+00 -8.86518e-01 -1.98336e+00 
 2.14055e+00 -9.49114e-01 -1.66016e+00 
 2.29940e+00 -1.01915e+00 -1.35021e+00 
 2.46750e+00 -1.09576e+00 -1.05819e+00 
 2.64299e+00 -1.17768e+00 -7.88910e-01 
 2.82318e+00 -1.26295e+00 -5.46512e-01 
 3.00489e+00 -1.34921e+00 -3.34581e-01 
 3.18426e+00 -1.43358e+00 -1.55421e-01 
 3.35688e+00 -1.53196e+00 -7.80811e-02 
-3.27798e+00  1.49950e+00 -6.76092e-02 
-3.07727e+00  1.38525e+00 -1.38361e-01 
-2.87040e+00  1.28866e+00 -3.08402e-01 
-2.66343e+00  1.19185e+00 -5.21732e-01 
-2.46148e+00  1.09861e+00 -7.74268e-01 
-2.26859e+00  1.01190e+00 -1.06021e+00 
-2.08789e+00  9.33922e-01 -1.37305e+00 
-1.92131e+00  8.65908e-01 -1.70571e+00 
-1.76988e+00  8.08397e-01 -2.05150e+00 
-1.63371e+00  7.61151e-01 -2.40405e+00 
-1.51234e+00  7.23535e-01 -2.75807e+00 
-1.40475e+00  6.94485e-01 -3.10891e+00 
-1.30977e+00  6.72842e-01 -3.45319e+00 
-1.22598e+00  6.57309e-01 -3.78811e+00 
-1.15204e+00  6.46684e-01 -4.11190e+00 
-1.08658e+00  6.39787e-01 -4.42321e+00 
-1.02838e+00  6.35609e-01 -4.72139e+00 
-9.76306e-01  6.33219e-01 -5.00597e+00 
-9.29370e-01  6.31864e-01 -5.27701e+00 
-8.86684e-01  6.30875e-01 -5.53455e+00 
-8.47513e-01  6.29734e-01 -5.77896e+00 
-8.11195e-01  6.27992e-01 -6.01055e+00 
-7.77198e-01  6.25321e-01 -6.22984e+00 
-7.45044e-01  6.21441e-01 -6.43721e+00 
-7.14359e-01  6.16162e-01 -6.63323e+00 
-6.84806e-01  6.09328e-01 -6.81829e+00 
-6.56128e-01  6.00847e-01 -6.99291e+00 
-6.28091e-01  5.90648e-01 -7.15747e+00 
-6.00524e-01  5.78709e-01 -7.31244e+00 
-5.73265e-01  5.65015e-01 -7.45814e+00 
-5.46205e-01  5.49589e-01 -7.59500e+00 
-5.19235e-01  5.32457e-01 -7.72326e+00 
-4.92290e-01  5.13671e-01 -7.84331e+00 
-4.65297e-01  4.93283e-01 -7.95535e+00 
-4.38222e-01  4.71365e-01 -8.05970e+00 
-4.11018e-01  4.47985e-01 -8.15652e+00 
-3.83673e-01  4.23227e-01 -8.24608e+00 
-3.56160e-01  3.97171e-01 -8.32852e+00 
-3.28481e-01  3.69908e-01 -8.40404e+00 
-3.00622e-01  3.41526e-01 -8.47277e+00 
-2.72596e-01  3.12119e-01 -8.53486e+00 
-2.44398e-01  2.81779e-01 -8.59042e+00 
-2.16049e-01  2.50605e-01 -8.63956e+00 
-1.87550e-01  2.18690e-01 -8.68235e+00 
-1.58928e-01  1.86134e-01 -8.71890e+00 
-1.30187e-01  1.53034e-01 -8.74926e+00 
-1.01359e-01  1.19490e-01 -8.77348e+00 
-7.24509e-02  8.55976e-02 -8.79161e+00 
-4.34947e-02  5.14582e-02 -8.80368e+00 
-1.45004e-02  1.71697e-02 -8.80971e+00 
 1.45004e-02 -1.71697e-02 -8.80971e+00 
 4.34947e-02 -5.14582e-02 -8.80368e+00 
 7.24509e-02 -8.55976e-02 -8.79161e+00 
 1.01359e-01 -1.19490e-01 -8.77348e+00 
 1.30187e-01 -1.53034e-01 -8.74926e+00 
 1.58928e-01 -1.86134e-01 -8.71890e+00 
 1.87550e-01 -2.18690e-01 -8.68235e+00 
 2.16049e-01 -2.50605e-01 -8.63956e+00 
 2.44398e-01 -2.81779e-01 -8.59042e+00 
 2.72596e-01 -3.12119e-01 -8.53486e+00 
 3.00622e-01 -3.41526e-01 -8.47277e+00 
 3.28481e-01 -3.69908e-01 -8.40404e+00 
 3.56160e-01 -3.97171e-01 -8.32852e+00 
 3.83673e-01 -4.23227e-01 -8.24608e+00 
 4.11018e-01 -4.47985e-01 -8.15652e+00 
 4.38222e-01 -4.71365e-01 -8.05970e+00 
 4.65297e-01 -4.93283e-01 -7.95535e+00 
 4.92290e-01 -5.13671e-01 -7.84331e+00 
 5.19235e-01 -5.32457e-01 -7.72326e+00 
 5.46205e-01 -5.49589e-01 -7.59500e+00 
 5.73265e-01 -5.65015e-01 -7.45814e+00 
 6.00524e-01 -5.78709e-01 -7.31244e+00 
 6.28091e-01 -5.90648e-01 -7.15747e+00 
 6.56128e-01 -6.00847e-01 -6.99291e+00 
 6.84806e-01 -6.09328e-01 -6.81829e+00 
 7.14359e-01 -6.16162e-01 -6.63323e+00 
 7.45044e-01 -6.21441e-01 -6.43721e+00 
 7.77198e-01 -6.25321e-01 -6.22984e+00 
 8.11195e-01 -6.27992e-01 -6.01055e+00 
 8.47513e-01 -6.29734e-01 -5.77896e+00 
 8.86684e-01 -6.30875e-01 -5.53455e+00 
 9.29370e-01 -6.31864e-01 -5.27701e+00 
 9.76306e-01 -6.33219e-01 -5.00597e+00 
 1.02838e+00 -6.35609e-01 -4.72139e+00 
 1.08658e+00 -6.39787e-01 -4.42321e+00 
 1.15204e+00 -6.46684e-01 -4.11190e+00 
 1.22598e+00 -6.57309e-01 -3.78811e+00 
 1.30977e+00 -6.72842e-01 -3.45319e+00 
 1.40475e+00 -6.94485e-01 -3.10891e+00 
 1.51234e+00 -7.23535e-01 -2.75807e+00 
 1.63371e+00 -7.61151e-01 -2.40405e+00 
 1.76988e+00 -8.08397e-01 -2.05150e+00 
 1.92131e+00 -8.65908e-01 -1.70571e+00 
 2.08789e+00 -9.33922e-01 -1.37305e+00 
 2.26859e+00 -1.01190e+00 -1.06021e+00 
 2.46148e+00 -1.09861e+00 -7.74268e-01 
 2.66343e+00 -1.19185e+00 -5.21732e-01 
 2.87040e+00 -1.28866e+00 -3.08402e-01 
 3.07727e+00 -1.38525e+00 -1.38361e-01 
 3.27798e+00 -1.49950e+00 -6.76092e-02 
-3.21832e+00  1.47692e+00 -5.74858e-02 
-2.97931e+00  1.34110e+00 -1.23054e-01 
-2.73560e+00  1.22847e+00 -2.88728e-01 
-2.49597e+00  1.11870e+00 -5.11962e-01 
-2.26730e+00  1.01684e+00 -7.85420e-01 
-2.05472e+00  9.26554e-01 -1.09955e+00 
-1.86165e+00  8.50159e-01 -1.44402e+00 
-1.68964e+00  7.88429e-01 -1.80829e+00 
-1.53886e+00  7.41096e-01 -2.18299e+00 
-1.40824e+00  7.06910e-01 -2.55985e+00 
-1.29612e+00  6.84195e-01 -2.93255e+00 
-1.20034e+00  6.70942e-01 -3.29613e+00 
-1.11872e+00  6.65206e-01 -3.64738e+00 
-1.04908e+00  6.65092e-01 -3.98399e+00 
-9.89479e-01  6.68969e-01 -4.30488e+00 
-9.38107e-01  6.75379e-01 -4.60941e+00 
-8.93453e-01  6.83151e-01 -4.89768e+00 
-8.54185e-01  6.91285e-01 -5.16989e+00 
-8.19212e-01  6.99021e-01 -5.42669e+00 
-7.87600e-01  7.05731e-01 -5.66862e+00 
-7.58599e-01  7.10963e-01 -5.89653e+00 
-7.31573e-01  7.14356e-01 -6.11104e+00 
-7.06024e-01  7.15672e-01 -6.31299e+00 
-6.81527e-01  7.14729e-01 -6.50300e+00 
-6.57760e-01  7.11429e-01 -6.68182e+00 
-6.34446e-01  7.05707e-01 -6.84998e+00 
-6.11382e-01  6.97554e-01 -7.00814e+00 
-5.88391e-01  6.86980e-01 -7.15675e+00 
-5.65351e-01  6.74030e-01 -7.29635e+00 
-5.42152e-01  6.58758e-01 -7.42731e+00 
-5.18727e-01  6.41243e-01 -7.55009e+00 
-4.95010e-01  6.21566e-01 -7.66497e+00 
-4.70972e-01  5.99824e-01 -7.77235e+00 
-4.46576e-01  5.76116e-01 -7.87244e+00 
-4.21818e-01  5.50548e-01 -7.96555e+00 
-3.96681e-01  5.23226e-01 -8.05188e+00 
-3.71179e-01  4.94264e-01 -8.13167e+00 
-3.45307e-01  4.63772e-01 -8.20506e+00 
-3.19091e-01  4.31865e-01 -8.27226e+00 
-2.92536e-01  3.98655e-01 -8.33338e+00 
-2.65673e-01  3.64258e-01 -8.38858e+00 
-2.38515e-01  3.28788e-01 -8.43794e+00 
-2.11098e-01  2.92358e-01 -8.48160e+00 
-1.83439e-01  2.55083e-01 -8.51960e+00 
-1.55578e-01  2.17076e-01 -8.55206e+00 
-1.27534e-01  1.78450e-01 -8.57900e+00 
-9.93493e-02  1.39319e-01 -8.60051e+00 
-7.10439e-02  9.97944e-02 -8.61660e+00 
-4.26619e-02  5.99889e-02 -8.62731e+00 
-1.42247e-02  2.00159e-02 -8.63266e+00 
 1.42247e-02 -2.00159e-02 -8.63266e+00 
 4.26619e-02 -5.99889e-02 -8.62731e+00 
 7.10439e-02 -9.97944e-02 -8.61660e+00 
 9.93493e-02 -1.39319e-01 -8.60051e+00 
 1.27534e-01 -1.78450e-01 -8.57900e+00 
 1.55578e-01 -2.17076e-01 -8.55206e+00 
 1.83439e-01 -2.55083e-01 -8.51960e+00 
 2.11098e-01 -2.92358e-01 -8.48160e+00 
 2.38515e-01 -3.28788e-01 -8.43794e+00 
 2.65673e-01 -3.64258e-01 -8.38858e+00 
 2.92536e-01 -3.98655e-01 -8.33338e+00 
 3.19091e-01 -4.31865e-01 -8.27226e+00 
 3.45307e-01 -4.63772e-01 -8.20506e+00 
 3.71179e-01 -4.94264e-01 -8.13167e+00 
 3.96681e-01 -5.23226e-01 -8.05188e+00 
 4.21818e-01 -5.50548e-01 -7.96555e+00 
 4.46576e-01 -5.76116e-01 -7.87244e+00 
 4.70972e-01 -5.99824e-01 -7.77235e+00 
 4.95010e-01 -6.21566e-01 -7.66497e+00 
 5.18727e-01 -6.41243e-01 -7.55009e+00 
 5.42152e-01 -6.58758e-01 -7.42731e+00 
 5.65351e-01 -6.74030e-01 -7.29635e+00 
 5.88391e-01 -6.86980e-01 -7.15675e+00 
 6.11382e-01 -6.97554e-01 -7.00814e+00 
 6.34446e-01 -7.05707e-01 -6.84998e+00 
 6.57760e-01 -7.11429e-01 -6.68182e+00 
 6.81527e-01 -7.14729e-01 -6.50300e+00 
 7.06024e-01 -7.15672e-01 -6.31299e+00 
 7.31573e-01 -7.14356e-01 -6.11104e+00 
 7.58599e-01 -7.10963e-01 -5.89653e+00 
 7.87600e-01 -7.05731e-01 -5.66862e+00 
 8.19212e-01 -6.99021e-01 -5.42669e+00 
 8.54185e-01 -6.91285e-01 -5.16989e+00 
 8.93453e-01 -6.83151e-01 -4.89768e+00 
 9.38107e-01 -6.75379e-01 -4.60941e+00 
 9.89479e-01 -6.68969e-01 -4.30488e+00 
 1.04908e+00 -6.65092e-01 -3.98399e+00 
 1.11872e+00 -6.65206e-01 -3.64738e+00 
 1.20034e+00 -6.70942e-01 -3.29613e+00 
 1.29612e+00 -6.84195e-01 -2.93255e+00 
 1.40824e+00 -7.06910e-01 -2.55985e+00 
 1.53886e+00 -7.41096e-01 -2.18299e+00 
 1.68964e+00 -7.88429e-01 -1.80829e+00 
 1.86165e+00 -8.50159e-01 -1.44402e+00 
 2.05472e+00 -9.26554e-01 -1.09955e+00 
 2.26730e+00 -1.01684e+00 -7.85420e-01 
 2.49597e+00 -1.11870e+00 -5.11962e-01 
 2.73560e+00 -1.22847e+00 -2.88728e-01 
 2.97931e+00 -1.34110e+00 -1.23054e-01 
 3.21832e+00 -1.47692e+00 -5.74858e-02 
-3.17963e+00  1.46570e+00 -4.89328e-02 
-2.88707e+00  1.29973e+00 -1.12222e-01 
-2.59355e+00  1.16600e+00 -2.83000e-01 
-2.31161e+00  1.04065e+00 -5.30908e-01 
-2.05126e+00  9.30805e-01 -8.42824e-01 
-1.81848e+00  8.40697e-01 -1.20232e+00 
-1.61641e+00  7.72115e-01 -1.59275e+00 
-1.44508e+00  7.24470e-01 -1.99856e+00 
-1.30248e+00  6.95637e-01 -2.40704e+00 
-1.18530e+00  6.82464e-01 -2.80834e+00 
-1.08984e+00  6.81636e-01 -3.19596e+00 
-1.01235e+00  6.89887e-01 -3.56565e+00 
-9.49468e-01  7.04403e-01 -3.91535e+00 
-8.98204e-01  7.22745e-01 -4.24411e+00 
-8.56063e-01  7.42993e-01 -4.55218e+00 
-8.20953e-01  7.63589e-01 -4.84011e+00 
-7.91199e-01  7.83379e-01 -5.10906e+00 
-7.65431e-01  8.01469e-01 -5.36006e+00 
-7.42578e-01  8.17239e-01 -5.59449e+00 
-7.21776e-01  8.30230e-01 -5.81343e+00 
-7.02361e-01  8.40160e-01 -6.01814e+00 
-6.83803e-01  8.46836e-01 -6.20961e+00 
-6.65703e-01  8.50177e-01 -6.38891e+00 
-6.47741e-01  8.50147e-01 -6.55683e+00 
-6.29687e-01  8.46779e-01 -6.71426e+00 
-6.11354e-01  8.40126e-01 -6.86183e+00 
-5.92618e-01  8.30281e-01 -7.00024e+00 
-5.73374e-01  8.17346e-01 -7.13000e+00 
-5.53565e-01  8.01444e-01 -7.25166e+00 
-5.33138e-01  7.82703e-01 -7.36561e+00 
-5.12078e-01  7.61259e-01 -7.47230e+00 
-4.90364e-01  7.37250e-01 -7.57202e+00 
-4.68007e-01  7.10818e-01 -7.66513e+00 
-4.45006e-01  6.82104e-01 -7.75186e+00 
-4.21388e-01  6.51250e-01 -7.83250e+00 
-3.97166e-01  6.18395e-01 -7.90722e+00 
-3.72377e-01  5.83679e-01 -7.97625e+00 
-3.47041e-01  5.47241e-01 -8.03973e+00 
-3.21202e-01  5.09214e-01 -8.09783e+00 
-2.94885e-01  4.69736e-01 -8.15066e+00 
-2.68138e-01  4.28935e-01 -8.19837e+00 
-2.40989e-01  3.86947e-01 -8.24102e+00 
-2.13488e-01  3.43898e-01 -8.27874e+00 
-1.85665e-01  2.99918e-01 -8.31158e+00 
-1.57572e-01  2.55132e-01 -8.33961e+00 
-1.29240e-01  2.09668e-01 -8.36289e+00 
-1.00722e-01  1.63648e-01 -8.38146e+00 
-7.20487e-02  1.17199e-01 -8.39536e+00 
-4.32746e-02  7.04420e-02 -8.40461e+00 
-1.44305e-02  2.35026e-02 -8.40923e+00 
 1.44305e-02 -2.35026e-02 -8.40923e+00 
 4.32746e-02 -7.04420e-02 -8.40461e+00 
 7.20487e-02 -1.17199e-01 -8.39536e+00 
 1.00722e-01 -1.63648e-01 -8.38146e+00 
 1.29240e-01 -2.09668e-01 -8.36289e+00 
 1.57572e-01 -2.55132e-01 -8.33961e+00 
 1.85665e-01 -2.99918e-01 -8.31158e+00 
 2.13488e-01 -3.43898e-01 -8.27874e+00 
 2.40989e-01 -3.86947e-01 -8.24102e+00 
 2.68138e-01 -4.28935e-01 -8.19837e+00 
 2.94885e-01 -4.69736e-01 -8.15066e+00 
 3.21202e-01 -5.09214e-01 -8.09783e+00 
 3.47041e-01 -5.47241e-01 -8.03973e+00 
 3.72377e-01 -5.83679e-01 -7.97625e+00 
 3.97166e-01 -6.18395e-01 -7.90722e+00 
 4.21388e-01 -6.51250e-01 -7.83250e+00 
 4.45006e-01 -6.82104e-01 -7.75186e+00 
 4.68007e-01 -7.10818e-01 -7.66513e+00 
 4.90364e-01 -7.37250e-01 -7.57202e+00 
 5.12078e-01 -7.61259e-01 -7.47230e+00 
 5.33138e-01 -7.82703e-01 -7.36561e+00 
 5.53565e-01 -8.01444e-01 -7.25166e+00 
 5.73374e-01 -8.17346e-01 -7.13000e+00 
 5.92618e-01 -8.30281e-01 -7.00024e+00 
 6.11354e-01 -8.40126e-01 -6.86183e+00 
 6.29687e-01 -8.46779e-01 -6.71426e+00 
 6.47741e-01 -8.50147e-01 -6.55683e+00 
 6.65703e-01 -8.50177e-01 -6.38891e+00 
 6.83803e-01 -8.46836e-01 -6.20961e+00 
 7.02361e-01 -8.40160e-01 -6.01814e+00 
 7.21776e-01 -8.30230e-01 -5.81343e+00 
 7.42578e-01 -8.17239e-01 -5.59449e+00 
 7.65431e-01 -8.01469e-01 -5.36006e+00 
 7.91199e-01 -7.83379e-01 -5.10906e+00 
 8.20953e-01 -7.63589e-01 -4.84011e+00 
 8.56063e-01 -7.42993e-01 -4.55218e+00 
 8.98204e-01 -7.22745e-01 -4.24411e+00 
 9.49468e-01 -7.04403e-01 -3.91535e+00 
 1.01235e+00 -6.89887e-01 -3.56565e+00 
 1.08984e+00 -6.81636e-01 -3.19596e+00 
 1.18530e+00 -6.82464e-01 -2.80834e+00 
 1.30248e+00 -6.95637e-01 -2.40704e+00 
 1.44508e+00 -7.24470e-01 -1.99856e+00 
 1.61641e+00 -7.72115e-01 -1.59275e+00 
 1.81848e+00 -8.40697e-01 -1.20232e+00 
 2.05126e+00 -9.30805e-01 -8.42824e-01 
 2.31161e+00 -1.04065e+00 -5.30908e-01 
 2.59355e+00 -1.16600e+00 -2.83000e-01 
 2.88707e+00 -1.29973e+00 -1.12222e-01 
 3.17963e+00 -1.46570e+00 -4.89328e-02 
-3.16256e+00  1.46665e+00 -4.42234e-02 
-2.79407e+00  1.25866e+00 -1.12301e-01 
-2.43052e+00  1.09610e+00 -3.05964e-01 
-2.09515e+00  9.53648e-01 -6.05504e-01 
-1.79984e+00  8.40039e-01 -9.84415e-01 
-1.55178e+00  7.59465e-01 -1.41378e+00 
-1.35124e+00  7.11464e-01 -1.86678e+00 
-1.19357e+00  6.91558e-01 -2.32105e+00 
-1.07215e+00  6.93786e-01 -2.76150e+00 
-9.79914e-01  7.11984e-01 -3.17887e+00 
-9.10507e-01  7.40805e-01 -3.56882e+00 
-8.58468e-01  7.75799e-01 -3.92978e+00 
-8.19401e-01  8.13585e-01 -4.26239e+00 
-7.89804e-01  8.51588e-01 -4.56805e+00 
-7.66986e-01  8.88003e-01 -4.84894e+00 
-7.48870e-01  9.21536e-01 -5.10717e+00 
-7.33899e-01  9.51355e-01 -5.34503e+00 
-7.20895e-01  9.76913e-01 -5.56447e+00 
-7.08985e-01  9.97919e-01 -5.76744e+00 
-6.97519e-01  1.01422e+00 -5.95551e+00 
-6.86027e-01  1.02581e+00 -6.13024e+00 
-6.74160e-01  1.03274e+00 -6.29280e+00 
-6.61679e-01  1.03512e+00 -6.44438e+00 
-6.48408e-01  1.03311e+00 -6.58587e+00 
-6.34238e-01  1.02688e+00 -6.71816e+00 
-6.19092e-01  1.01661e+00 -6.84189e+00 
-6.02934e-01  1.00251e+00 -6.95777e+00 
-5.85743e-01  9.84764e-01 -7.06626e+00 
-5.67526e-01  9.63574e-01 -7.16788e+00 
-5.48292e-01  9.39134e-01 -7.26299e+00 
-5.28073e-01  9.11633e-01 -7.35200e+00 
-5.06894e-01  8.81257e-01 -7.43516e+00 
-4.84801e-01  8.48186e-01 -7.51279e+00 
-4.61827e-01  8.12597e-01 -7.58509e+00 
-4.38028e-01  7.74658e-01 -7.65231e+00 
-4.13440e-01  7.34538e-01 -7.71459e+00 
-3.88123e-01  6.92395e-01 -7.77213e+00 
-3.62116e-01  6.48389e-01 -7.82504e+00 
-3.35479e-01  6.02670e-01 -7.87348e+00 
-3.08253e-01  5.55392e-01 -7.91752e+00 
-2.80501e-01  5.06695e-01 -7.95730e+00 
-2.52261e-01  4.56729e-01 -7.99287e+00 
-2.23596e-01  4.05628e-01 -8.02432e+00 
-1.94546e-01  3.53537e-01 -8.05171e+00 
-1.65174e-01  3.00586e-01 -8.07509e+00 
-1.35518e-01  2.46915e-01 -8.09450e+00 
-1.05641e-01  1.92653e-01 -8.11000e+00 
-7.55813e-02  1.37937e-01 -8.12159e+00 
-4.54018e-02  8.28913e-02 -8.12931e+00 
-1.51408e-02  2.76541e-02 -8.13316e+00 
 1.51408e-02 -2.76541e-02 -8.13316e+00 
 4.54018e-02 -8.28913e-02 -8.12931e+00 
 7.55813e-02 -1.37937e-01 -8.12159e+00 
 1.05641e-01 -1.92653e-01 -8.11000e+00 
 1.35518e-01 -2.46915e-01 -8.09450e+00 
 1.65174e-01 -3.00586e-01 -8.07509e+00 
 1.94546e-01 -3.53537e-01 -8.05171e+00 
 2.23596e-01 -4.05628e-01 -8.02432e+00 
 2.52261e-01 -4.56729e-01 -7.99287e+00 
 2.80501e-01 -5.06695e-01 -7.95730e+00 
 3.08253e-01 -5.55392e-01 -7.91752e+00 
 3.35479e-01 -6.02670e-01 -7.87348e+00 
 3.62116e-01 -6.48389e-01 -7.82504e+00 
 3.88123e-01 -6.92395e-01 -7.77213e+00 
 4.13440e-01 -7.34538e-01 -7.71459e+00 
 4.38028e-01 -7.74658e-01 -7.65231e+00 
 4.61827e-01 -8.12597e-01 -7.58509e+00 
 4.84801e-01 -8.48186e-01 -7.51279e+00 
 5.06894e-01 -8.81257e-01 -7.43516e+00 
 5.28073e-01 -9.11633e-01 -7.35200e+00 
 5.48292e-01 -9.39134e-01 -7.26299e+00 
 5.67526e-01 -9.63574e-01 -7.16788e+00 
 5.85743e-01 -9.84764e-01 -7.06626e+00 
 6.02934e-01 -1.00251e+00 -6.95777e+00 
 6.19092e-01 -1.01661e+00 -6.84189e+00 
 6.34238e-01 -1.02688e+00 -6.71816e+00 
 6.48408e-01 -1.03311e+00 -6.58587e+00 
 6.61679e-01 -1.03512e+00 -6.44438e+00 
 6.74160e-01 -1.03274e+00 -6.29280e+00 
 6.86027e-01 -1.02581e+00 -6.13024e+00 
 6.97519e-01 -1.01422e+00 -5.95551e+00 
 7.08985e-01 -9.97919e-01 -5.76744e+00 
 7.20895e-01 -9.76913e-01 -5.56447e+00 
 7.33899e-01 -9.51355e-01 -5.34503e+00 
 7.48870e-01 -9.21536e-01 -5.10717e+00 
 7.66986e-01 -8.88003e-01 -4.84894e+00 
 7.89804e-01 -8.51588e-01 -4.56805e+00 
 8.19401e-01 -8.13585e-01 -4.26239e+00 
 8.58468e-01 -7.75799e-01 -3.92978e+00 
 9.10507e-01 -7.40805e-01 -3.56882e+00 
 9.79914e-01 -7.11984e-01 -3.17887e+00 
 1.07215e+00 -6.93786e-01 -2.76150e+00 
 1.19357e+00 -6.91558e-01 -2.32105e+00 
 1.35124e+00 -7.11464e-01 -1.86678e+00 
 1.55178e+00 -7.59465e-01 -1.41378e+00 
 1.79984e+00 -8.40039e-01 -9.84415e-01 
 2.09515e+00 -9.53648e-01 -6.05504e-01 
 2.43052e+00 -1.09610e+00 -3.05964e-01 
 2.79407e+00 -1.25866e+00 -1.12301e-01 
 3.16256e+00 -1.46665e+00 -4.42234e-02 
-3.17168e+00  1.48733e+00 -5.12083e-02 
-2.68107e+00  1.20909e+00 -1.35181e-01 
-2.22273e+00  1.01097e+00 -3.92563e-01 
-1.81928e+00  8.52881e-01 -7.92344e-01 
-1.49621e+00  7.49720e-01 -1.28382e+00 
-1.25343e+00  7.01971e-01 -1.81366e+00 
-1.07894e+00  6.99126e-01 -2.33828e+00 
-9.57543e-01  7.27925e-01 -2.83253e+00 
-8.75442e-01  7.76668e-01 -3.28532e+00 
-8.21359e-01  8.36127e-01 -3.69360e+00 
-7.86735e-01  8.99725e-01 -4.05922e+00 
-7.65232e-01  9.62901e-01 -4.38576e+00 
-7.52303e-01  1.02273e+00 -4.67786e+00 
-7.44703e-01  1.07738e+00 -4.93983e+00 
-7.40163e-01  1.12582e+00 -5.17587e+00 
-7.37094e-01  1.16752e+00 -5.38944e+00 
-7.34409e-01  1.20231e+00 -5.58374e+00 
-7.31360e-01  1.23024e+00 -5.76124e+00 
-7.27454e-01  1.25149e+00 -5.92421e+00 
-7.22361e-01  1.26632e+00 -6.07436e+00 
-7.15883e-01  1.27502e+00 -6.21328e+00 
-7.07896e-01  1.27793e+00 -6.34213e+00 
-6.98347e-01  1.27536e+00 -6.46205e+00 
-6.87215e-01  1.26764e+00 -6.57381e+00 
-6.74517e-01  1.25508e+00 -6.67824e+00 
-6.60280e-01  1.23796e+00 -6.77588e+00 
-6.44555e-01  1.21659e+00 -6.86731e+00 
-6.27391e-01  1.19122e+00 -6.95292e+00 
-6.08855e-01  1.16210e+00 -7.03314e+00 
-5.89004e-01  1.12948e+00 -7.10826e+00 
-5.67912e-01  1.09359e+00 -7.17859e+00 
-5.45638e-01  1.05464e+00 -7.24434e+00 
-5.22257e-01  1.01284e+00 -7.30576e+00 
-4.97828e-01  9.68383e-01 -7.36299e+00 
-4.72427e-01  9.21459e-01 -7.41623e+00 
-4.46108e-01  8.72255e-01 -7.46558e+00 
-4.18947e-01  8.20935e-01 -7.51121e+00 
-3.90997e-01  7.67678e-01 -7.55318e+00 
-3.62330e-01  7.12636e-01 -7.59163e+00 
-3.32998e-01  6.55976e-01 -7.62660e+00 
-3.03073e-01  5.97844e-01 -7.65820e+00 
-2.72601e-01  5.38398e-01 -7.68646e+00 
-2.41655e-01  4.77777e-01 -7.71146e+00 
-2.10280e-01  4.16132e-01 -7.73323e+00 
-1.78547e-01  3.53598e-01 -7.75183e+00 
-1.46499e-01  2.90321e-01 -7.76727e+00 
-1.14207e-01  2.26432e-01 -7.77960e+00 
-8.17127e-02  1.62076e-01 -7.78882e+00 
-4.90861e-02  9.73785e-02 -7.79496e+00 
-1.63697e-02  3.24845e-02 -7.79803e+00 
 1.63697e-02 -3.24845e-02 -7.79803e+00 
 4.90861e-02 -9.73785e-02 -7.79496e+00 
 8.17127e-02 -1.62076e-01 -7.78882e+00 
 1.14207e-01 -2.26432e-01 -7.77960e+00 
 1.46499e-01 -2.90321e-01 -7.76727e+00 
 1.78547e-01 -3.53598e-01 -7.75183e+00 
 2.10280e-01 -4.16132e-01 -7.73323e+00 
 2.41655e-01 -4.77777e-01 -7.71146e+00 
 2.72601e-01 -5.38398e-01 -7.68646e+00 
 3.03073e-01 -5.97844e-01 -7.65820e+00 
 3.32998e-01 -6.55976e-01 -7.62660e+00 
 3.62330e-01 -7.12636e-01 -7.59163e+00 
 3.90997e-01 -7.67678e-01 -7.55318e+00 
 4.18947e-01 -8.20935e-01 -7.51121e+00 
 4.46108e-01 -8.72255e-01 -7.46558e+00 
 4.72427e-01 -9.21459e-01 -7.41623e+00 
 4.97828e-01 -9.68383e-01 -7.36299e+00 
 5.22257e-01 -1.01284e+00 -7.30576e+00 
 5.45638e-01 -1.05464e+00 -7.24434e+00 
 5.67912e-01 -1.09359e+00 -7.17859e+00 
 5.89004e-01 -1.12948e+00 -7.10826e+00 
 6.08855e-01 -1.16210e+00 -7.03314e+00 
 6.27391e-01 -1.19122e+00 -6.95292e+00 
 6.44555e-01 -1.21659e+00 -6.86731e+00 
 6.60280e-01 -1.23796e+00 -6.77588e+00 
 6.74517e-01 -1.25508e+00 -6.67824e+00 
 6.87215e-01 -1.26764e+00 -6.57381e+00 
 6.98347e-01 -1.27536e+00 -6.46205e+00 
 7.07896e-01 -1.27793e+00 -6.34213e+00 
 7.15883e-01 -1.27502e+00 -6.21328e+00 
 7.22361e-01 -1.26632e+00 -6.07436e+00 
 7.27454e-01 -1.25149e+00 -5.92421e+00 
 7.31360e-01 -1.23024e+00 -5.76124e+00 
 7.34409e-01 -1.20231e+00 -5.58374e+00 
 7.37094e-01 -1.16752e+00 -5.38944e+00 
 7.40163e-01 -1.12582e+00 -5.17587e+00 
 7.44703e-01 -1.07738e+00 -4.93983e+00 
 7.52303e-01 -1.02273e+00 -4.67786e+00 
 7.65232e-01 -9.62901e-01 -4.38576e+00 
 7.86735e-01 -8.99725e-01 -4.05922e+00 
 8.21359e-01 -8.36127e-01 -3.69360e+00 
 8.75442e-01 -7.76668e-01 -3.28532e+00 
 9.57543e-01 -7.27925e-01 -2.83253e+00 
 1.07894e+00 -6.99126e-01 -2.33828e+00 
 1.25343e+00 -7.01971e-01 -1.81366e+00 
 1.49621e+00 -7.49720e-01 -1.28382e+00 
 1.81928e+00 -8.52881e-01 -7.92344e-01 
 2.22273e+00 -1.01097e+00 -3.92563e-01 
 2.68107e+00 -1.20909e+00 -1.35181e-01 
 3.17168e+00 -1.48733e+00 -5.12083e-02 
-3.18087e+00  1.50513e+00 -8.27400e-02 
-2.52652e+00  1.14793e+00 -2.31786e-01 
-1.90266e+00  8.89426e-01 -6.27069e-01 
-1.44494e+00  7.38033e-01 -1.22325e+00 
-1.14316e+00  6.96888e-01 -1.89180e+00 
-9.57170e-01  7.31932e-01 -2.52729e+00 
-8.49327e-01  8.10557e-01 -3.09164e+00 
-7.91630e-01  9.09510e-01 -3.57725e+00 
-7.64946e-01  1.01406e+00 -3.99038e+00 
-7.56677e-01  1.11547e+00 -4.34125e+00 
-7.58740e-01  1.20904e+00 -4.64079e+00 
-7.66017e-01  1.29243e+00 -4.89846e+00 
-7.75310e-01  1.36480e+00 -5.12239e+00 
-7.84653e-01  1.42610e+00 -5.31887e+00 
-7.92859e-01  1.47671e+00 -5.49310e+00 
-7.99239e-01  1.51723e+00 -5.64897e+00 
-8.03410e-01  1.54834e+00 -5.78968e+00 
-8.05191e-01  1.57073e+00 -5.91761e+00 
-8.04521e-01  1.58504e+00 -6.03475e+00 
-8.01412e-01  1.59191e+00 -6.14255e+00 
-7.95924e-01  1.59190e+00 -6.24229e+00 
-7.88141e-01  1.58553e+00 -6.33489e+00 
-7.78166e-01  1.57327e+00 -6.42118e+00 
-7.66100e-01  1.55554e+00 -6.50175e+00 
-7.52057e-01  1.53274e+00 -6.57717e+00 
-7.36138e-01  1.50523e+00 -6.64784e+00 
-7.18456e-01  1.47331e+00 -6.71415e+00 
-6.99104e-01  1.43731e+00 -6.77636e+00 
-6.78189e-01  1.39749e+00 -6.83478e+00 
-6.55798e-01  1.35411e+00 -6.88958e+00 
-6.32028e-01  1.30741e+00 -6.94099e+00 
-6.06958e-01  1.25762e+00 -6.98912e+00 
-5.80682e-01  1.20495e+00 -7.03415e+00 
-5.53270e-01  1.14961e+00 -7.07616e+00 
-5.24809e-01  1.09177e+00 -7.11531e+00 
-4.95364e-01  1.03164e+00 -7.15163e+00 
-4.65020e-01  9.69387e-01 -7.18525e+00 
-4.33834e-01  9.05180e-01 -7.21621e+00 
-4.01887e-01  8.39176e-01 -7.24459e+00 
-3.69235e-01  7.71546e-01 -7.27043e+00 
-3.35955e-01  7.02434e-01 -7.29379e+00 
-3.02098e-01  6.32001e-01 -7.31470e+00 
-2.67741e-01  5.60384e-01 -7.33321e+00 
-2.32932e-01  4.87739e-01 -7.34933e+00 
-1.97745e-01  4.14196e-01 -7.36311e+00 
-1.62228e-01  3.39909e-01 -7.37456e+00 
-1.26454e-01  2.65004e-01 -7.38369e+00 
-9.04674e-02  1.89630e-01 -7.39053e+00 
-5.43420e-02  1.13912e-01 -7.39509e+00 
-1.81219e-02  3.79963e-02 -7.39736e+00 
 1.81219e-02 -3.79963e-02 -7.39736e+00 
 5.43420e-02 -1.13912e-01 -7.39509e+00 
 9.04674e-02 -1.89630e-01 -7.39053e+00 
 1.26454e-01 -2.65004e-01 -7.38369e+00 
 1.62228e-01 -3.39909e-01 -7.37456e+00 
 1.97745e-01 -4.14196e-01 -7.36311e+00 
 2.32932e-01 -4.87739e-01 -7.34933e+00 
 2.67741e-01 -5.60384e-01 -7.33321e+00 
 3.02098e-01 -6.32001e-01 -7.31470e+00 
 3.35955e-01 -7.02434e-01 -7.29379e+00 
 3.69235e-01 -7.71546e-01 -7.27043e+00 
 4.01887e-01 -8.39176e-01 -7.24459e+00 
 4.33834e-01 -9.05180e-01 -7.21621e+00 
 4.65020e-01 -9.69387e-01 -7.18525e+00 
 4.95364e-01 -1.03164e+00 -7.15163e+00 
 5.24809e-01 -1.09177e+00 -7.11531e+00 
 5.53270e-01 -1.14961e+00 -7.07616e+00 
 5.80682e-01 -1.20495e+00 -7.03415e+00 
 6.06958e-01 -1.25762e+00 -6.98912e+00 
 6.32028e-01 -1.30741e+00 -6.94099e+00 
 6.55798e-01 -1.35411e+00 -6.88958e+00 
 6.78189e-01 -1.39749e+00 -6.83478e+00 
 6.99104e-01 -1.43731e+00 -6.77636e+00 
 7.18456e-01 -1.47331e+00 -6.71415e+00 
 7.36138e-01 -1.50523e+00 -6.64784e+00 
 7.52057e-01 -1.53274e+00 -6.57717e+00 
 7.66100e-01 -1.55554e+00 -6.50175e+00 
 7.78166e-01 -1.57327e+00 -6.42118e+00 
 7.88141e-01 -1.58553e+00 -6.33489e+00 
 7.95924e-01 -1.59190e+00 -6.24229e+00 
 8.01412e-01 -1.59191e+00 -6.14255e+00 
 8.04521e-01 -1.58504e+00 -6.03475e+00 
 8.05191e-01 -1.57073e+00 -5.91761e+00 
 8.03410e-01 -1.54834e+00 -5.78968e+00 
 7.99239e-01 -1.51723e+00 -5.64897e+00 
 7.92859e-01 -1.47671e+00 -5.49310e+00 
 7.84653e-01 -1.42610e+00 -5.31887e+00 
 7.75310e-01 -1.36480e+00 -5.12239e+00 
 7.66017e-01 -1.29243e+00 -4.89846e+00 
 7.58740e-01 -1.20904e+00 -4.64079e+00 
 7.56677e-01 -1.11547e+00 -4.34125e+00 
 7.64946e-01 -1.01406e+00 -3.99038e+00 
 7.91630e-01 -9.09510e-01 -3.57725e+00 
 8.49327e-01 -8.10557e-01 -3.09164e+00 
 9.57170e-01 -7.31932e-01 -2.52729e+00 
 1.14316e+00 -6.96888e-01 -1.89180e+00 
 1.44494e+00 -7.38033e-01 -1.22325e+00 
 1.90266e+00 -8.89426e-01 -6.27069e-01 
 2.52652e+00 -1.14793e+00 -2.31786e-01 
 3.18087e+00 -1.50513e+00 -8.27400e-02 
-3.30874e+00  1.68347e+00 -2.61603e-01 
-2.10190e+00  9.67517e-01 -5.08078e-01 
-1.38024e+00  7.06009e-01 -1.28921e+00 
-1.01418e+00  7.11654e-01 -2.23343e+00 
-8.47783e-01  8.44646e-01 -3.03107e+00 
-7.85448e-01  1.01944e+00 -3.65643e+00 
-7.75571e-01  1.19687e+00 -4.13792e+00 
-7.90338e-01  1.35942e+00 -4.50961e+00 
-8.15135e-01  1.50106e+00 -4.80088e+00 
-8.42400e-01  1.62083e+00 -5.03353e+00 
-8.68327e-01  1.72004e+00 -5.22362e+00 
-8.91117e-01  1.80069e+00 -5.38227e+00 
-9.10010e-01  1.86494e+00 -5.51754e+00 
-9.24790e-01  1.91476e+00 -5.63495e+00 
-9.35508e-01  1.95188e+00 -5.73862e+00 
-9.42345e-01  1.97777e+00 -5.83135e+00 
-9.45530e-01  1.99367e+00 -5.91533e+00 
-9.45307e-01  2.00062e+00 -5.99204e+00 
-9.41917e-01  1.99950e+00 -6.06272e+00 
-9.35579e-01  1.99107e+00 -6.12817e+00 
-9.26506e-01  1.97595e+00 -6.18916e+00 
-9.14882e-01  1.95471e+00 -6.24613e+00 
-9.00886e-01  1.92782e+00 -6.29957e+00 
-8.84670e-01  1.89571e+00 -6.34975e+00 
-8.66387e-01  1.85875e+00 -6.39700e+00 
-8.46162e-01  1.81730e+00 -6.44147e+00 
-8.24127e-01  1.77164e+00 -6.48341e+00 
-8.00388e-01  1.72207e+00 -6.52292e+00 
-7.75061e-01  1.66884e+00 -6.56016e+00 
-7.48237e-01  1.61219e+00 -6.59521e+00 
-7.20022e-01  1.55235e+00 -6.62819e+00 
-6.90494e-01  1.48953e+00 -6.65915e+00 
-6.59751e-01  1.42393e+00 -6.68820e+00 
-6.27862e-01  1.35574e+00 -6.71536e+00 
-5.94919e-01  1.28514e+00 -6.74072e+00 
-5.60984e-01  1.21230e+00 -6.76429e+00 
-5.26144e-01  1.13739e+00 -6.78614e+00 
-4.90455e-01  1.06059e+00 -6.80629e+00 
-4.54002e-01  9.82022e-01 -6.82479e+00 
-4.16837e-01  9.01869e-01 -6.84165e+00 
-3.79040e-01  8.20264e-01 -6.85691e+00 
-3.40660e-01  7.37366e-01 -6.87058e+00 
-3.01778e-01  6.53306e-01 -6.88269e+00 
-2.62438e-01  5.68237e-01 -6.89324e+00 
-2.22718e-01  4.82285e-01 -6.90226e+00 
-1.82664e-01  3.95603e-01 -6.90976e+00 
-1.42352e-01  3.08311e-01 -6.91575e+00 
-1.01824e-01  2.20558e-01 -6.92024e+00 
-6.11570e-02  1.32466e-01 -6.92323e+00 
-2.03933e-02  4.41814e-02 -6.92472e+00 
 2.03933e-02 -4.41814e-02 -6.92472e+00 
 6.11570e-02 -1.32466e-01 -6.92323e+00 
 1.01824e-01 -2.20558e-01 -6.92024e+00 
 1.42352e-01 -3.08311e-01 -6.91575e+00 
 1.82664e-01 -3.95603e-01 -6.90976e+00 
 2.22718e-01 -4.82285e-01 -6.90226e+00 
 2.62438e-01 -5.68237e-01 -6.89324e+00 
 3.01778e-01 -6.53306e-01 -6.88269e+00 
 3.40660e-01 -7.37366e-01 -6.87058e+00 
 3.79040e-01 -8.20264e-01 -6.85691e+00 
 4.16837e-01 -9.01869e-01 -6.84165e+00 
 4.54002e-01 -9.82022e-01 -6.82479e+00 
 4.90455e-01 -1.06059e+00 -6.80629e+00 
 5.26144e-01 -1.13739e+00 -6.78614e+00 
 5.60984e-01 -1.21230e+00 -6.76429e+00 
 5.94919e-01 -1.28514e+00 -6.74072e+00 
 6.27862e-01 -1.35574e+00 -6.71536e+00 
 6.59751e-01 -1.42393e+00 -6.68820e+00 
 6.90494e-01 -1.48953e+00 -6.65915e+00 
 7.20022e-01 -1.55235e+00 -6.62819e+00 
 7.48237e-01 -1.61219e+00 -6.59521e+00 
 7.75061e-01 -1.66884e+00 -6.56016e+00 
 8.00388e-01 -1.72207e+00 -6.52292e+00 
 8.24127e-01 -1.77164e+00 -6.48341e+00 
 8.46162e-01 -1.81730e+00 -6.44147e+00 
 8.66387e-01 -1.85875e+00 -6.39700e+00 
 8.84670e-01 -1.89571e+00 -6.34975e+00 
 9.00886e-01 -1.92782e+00 -6.29957e+00 
 9.14882e-01 -1.95471e+00 -6.24613e+00 
 9.26506e-01 -1.97595e+00 -6.18916e+00 
 9.35579e-01 -1.99107e+00 -6.12817e+00 
 9.41917e-01 -1.99950e+00 -6.06272e+00 
 9.45307e-01 -2.00062e+00 -5.99204e+00 
 9.45530e-01 -1.99367e+00 -5.91533e+00 
 9.42345e-01 -1.97777e+00 -5.83135e+00 
 9.35508e-01 -1.95188e+00 -5.73862e+00 
 9.24790e-01 -1.91476e+00 -5.63495e+00 
 9.10010e-01 -1.86494e+00 -5.51754e+00 
 8.91117e-01 -1.80069e+00 -5.38227e+00 
 8.68327e-01 -1.72004e+00 -5.22362e+00 
 8.42400e-01 -1.62083e+00 -5.03353e+00 
 8.15135e-01 -1.50106e+00 -4.80088e+00 
 7.90338e-01 -1.35942e+00 -4.50961e+00 
 7.75571e-01 -1.19687e+00 -4.13792e+00 
 7.85448e-01 -1.01944e+00 -3.65643e+00 
 8.47783e-01 -8.44646e-01 -3.03107e+00 
 1.01418e+00 -7.11654e-01 -2.23343e+00 
 1.38024e+00 -7.06009e-01 -1.28921e+00 
 2.10190e+00 -9.67517e-01 -5.08078e-01 
 3.30874e+00 -1.68347e+00 -2.61603e-01 
-2.55496e+00  1.23189e+00 -8.81419e-01 
-1.32385e+00  6.52377e-01 -1.73970e+00 
-9.59802e-01  9.11328e-01 -3.16082e+00 
-8.90889e-01  1.29315e+00 -4.07972e+00 
-9.11045e-01  1.61493e+00 -4.63200e+00 
-9.57294e-01  1.86816e+00 -4.98108e+00 
-1.00579e+00  2.06043e+00 -5.21032e+00 
-1.04877e+00  2.20508e+00 -5.36852e+00 
-1.08416e+00  2.31341e+00 -5.48361e+00 
-1.11204e+00  2.39397e+00 -5.57162e+00 
-1.13311e+00  2.45293e+00 -5.64225e+00 
-1.14817e+00  2.49469e+00 -5.70115e+00 
-1.15797e+00  2.52236e+00 -5.75199e+00 
-1.16315e+00  2.53826e+00 -5.79695e+00 
-1.16422e+00  2.54403e+00 -5.83756e+00 
-1.16160e+00  2.54096e+00 -5.87472e+00 
-1.15564e+00  2.53001e+00 -5.90916e+00 
-1.14663e+00  2.51198e+00 -5.94127e+00 
-1.13481e+00  2.48748e+00 -5.97145e+00 
-1.12039e+00  2.45705e+00 -5.99986e+00 
-1.10355e+00  2.42110e+00 -6.02676e+00 
-1.08444e+00  2.38005e+00 -6.05221e+00 
-1.06322e+00  2.33421e+00 -6.07638e+00 
-1.04001e+00  2.28390e+00 -6.09930e+00 
-1.01493e+00  2.22937e+00 -6.12108e+00 
-9.88076e-01  2.17090e+00 -6.14174e+00 
-9.59564e-01  2.10869e+00 -6.16136e+00 
-9.29481e-01  2.04297e+00 -6.17995e+00 
-8.97923e-01  1.97394e+00 -6.19758e+00 
-8.64968e-01  1.90180e+00 -6.21423e+00 
-8.30705e-01  1.82673e+00 -6.22999e+00 
-7.95205e-01  1.74891e+00 -6.24481e+00 
-7.58553e-01  1.66849e+00 -6.25878e+00 
-7.20811e-01  1.58566e+00 -6.27187e+00 
-6.82061e-01  1.50056e+00 -6.28412e+00 
-6.42361e-01  1.41337e+00 -6.29553e+00 
-6.01791e-01  1.32420e+00 -6.30614e+00 
-5.60403e-01  1.23324e+00 -6.31593e+00 
-5.18276e-01  1.14060e+00 -6.32494e+00 
-4.75460e-01  1.04645e+00 -6.33315e+00 
-4.32031e-01  9.50912e-01 -6.34060e+00 
-3.88036e-01  8.54134e-01 -6.34727e+00 
-3.43551e-01  7.56236e-01 -6.35320e+00 
-2.98621e-01  6.57372e-01 -6.35836e+00 
-2.53320e-01  5.57654e-01 -6.36278e+00 
-2.07692e-01  4.57234e-01 -6.36645e+00 
-1.61811e-01  3.56224e-01 -6.36939e+00 
-1.15721e-01  2.54772e-01 -6.37158e+00 
-6.94938e-02  1.52989e-01 -6.37305e+00 
-2.31723e-02  5.10227e-02 -6.37378e+00 
 2.31723e-02 -5.10227e-02 -6.37378e+00 
 6.94938e-02 -1.52989e-01 -6.37305e+00 
 1.15721e-01 -2.54772e-01 -6.37158e+00 
 1.61811e-01 -3.56224e-01 -6.36939e+00 
 2.07692e-01 -4.57234e-01 -6.36645e+00 
 2.53320e-01 -5.57654e-01 -6.36278e+00 
 2.98621e-01 -6.57372e-01 -6.35836e+00 
 3.43551e-01 -7.56236e-01 -6.35320e+00 
 3.88036e-01 -8.54134e-01 -6.34727e+00 
 4.32031e-01 -9.50912e-01 -6.34060e+00 
 4.75460e-01 -1.04645e+00 -6.33315e+00 
 5.18276e-01 -1.14060e+00 -6.32494e+00 
 5.60403e-01 -1.23324e+00 -6.31593e+00 
 6.01791e-01 -1.32420e+00 -6.30614e+00 
 6.42361e-01 -1.41337e+00 -6.29553e+00 
 6.82061e-01 -1.50056e+00 -6.28412e+00 
 7.20811e-01 -1.58566e+00 -6.27187e+00 
 7.58553e-01 -1.66849e+00 -6.25878e+00 
 7.95205e-01 -1.74891e+00 -6.24481e+00 
 8.30705e-01 -1.82673e+00 -6.22999e+00 
 8.64968e-01 -1.90180e+00 -6.21423e+00 
 8.97923e-01 -1.97394e+00 -6.19758e+00 
 9.29481e-01 -2.04297e+00 -6.17995e+00 
 9.59564e-01 -2.10869e+00 -6.16136e+00 
 9.88076e-01 -2.17090e+00 -6.14174e+00 
 1.01493e+00 -2.22937e+00 -6.12108e+00 
 1.04001e+00 -2.28390e+00 -6.09930e+00 
 1.06322e+00 -2.33421e+00 -6.07638e+00 
 1.08444e+00 -2.38005e+00 -6.05221e+00 
 1.10355e+00 -2.42110e+00 -6.02676e+00 
 1.12039e+00 -2.45705e+00 -5.99986e+00 
 1.13481e+00 -2.48748e+00 -5.97145e+00 
 1.14663e+00 -2.51198e+00 -5.94127e+00 
 1.15564e+00 -2.53001e+00 -5.90916e+00 
 1.16160e+00 -2.54096e+00 -5.87472e+00 
 1.16422e+00 -2.54403e+00 -5.83756e+00 
 1.16315e+00 -2.53826e+00 -5.79695e+00 
 1.15797e+00 -2.52236e+00 -5.75199e+00 
 1.14817e+00 -2.49469e+00 -5.70115e+00 
 1.13311e+00 -2.45293e+00 -5.64225e+00 
 1.11204e+00 -2.39397e+00 -5.57162e+00 
 1.08416e+00 -2.31341e+00 -5.48361e+00 
 1.04877e+00 -2.20508e+00 -5.36852e+00 
 1.00579e+00 -2.06043e+00 -5.21032e+00 
 9.57294e-01 -1.86816e+00 -4.98108e+00 
 9.11045e-01 -1.61493e+00 -4.63200e+00 
 8.90889e-01 -1.29315e+00 -4.07972e+00 
 9.59802e-01 -9.11328e-01 -3.16082e+00 
 1.32385e+00 -6.52377e-01 -1.73970e+00 
 2.55496e+00 -1.23189e+00 -8.81419e-01 
-2.41992e+00  2.77058e+00 -1.45889e+00 
-1.65625e+00  2.72693e+00 -2.92651e+00 
-1.56625e+00  3.26725e+00 -4.65568e+00 
-1.52405e+00  3.41015e+00 -5.24145e+00 
-1.50734e+00  3.45358e+00 -5.50624e+00 
-1.49839e+00  3.45409e+00 -5.62667e+00 
-1.49270e+00  3.44027e+00 -5.68727e+00 
-1.48786e+00  3.42113e+00 -5.72134e+00 
-1.48272e+00  3.39982e+00 -5.74372e+00 
-1.47656e+00  3.37669e+00 -5.76075e+00 
-1.46902e+00  3.35156e+00 -5.77537e+00 
-1.45981e+00  3.32385e+00 -5.78876e+00 
-1.44881e+00  3.29320e+00 -5.80156e+00 
-1.43592e+00  3.25918e+00 -5.81390e+00 
-1.42111e+00  3.22163e+00 -5.82597e+00 
-1.40435e+00  3.18029e+00 -5.83770e+00 
-1.38567e+00  3.13516e+00 -5.84917e+00 
-1.36507e+00  3.08614e+00 -5.86029e+00 
-1.34261e+00  3.03329e+00 -5.87113e+00 
-1.31830e+00  2.97660e+00 -5.88159e+00 
-1.29222e+00  2.91618e+00 -5.89175e+00 
-1.26439e+00  2.85206e+00 -5.90152e+00 
-1.23491e+00  2.78439e+00 -5.91097e+00 
-1.20379e+00  2.71322e+00 -5.92002e+00 
-1.17113e+00  2.63872e+00 -5.92874e+00 
-1.13696e+00  2.56097e+00 -5.93707e+00 
-1.10136e+00  2.48012e+00 -5.94506e+00 
-1.06438e+00  2.39626e+00 -5.95267e+00 
-1.02610e+00  2.30956e+00 -5.95994e+00 
-9.86563e-01  2.22013e+00 -5.96683e+00 
-9.45847e-01  2.12810e+00 -5.97339e+00 
-9.03995e-01  2.03360e+00 -5.97957e+00 
-8.61088e-01  1.93678e+00 -5.98543e+00 
-8.17168e-01  1.83775e+00 -5.99092e+00 
-7.72315e-01  1.73665e+00 -5.99609e+00 
-7.26568e-01  1.63361e+00 -6.00089e+00 
-6.80008e-01  1.52875e+00 -6.00539e+00 
-6.32674e-01  1.42221e+00 -6.00953e+00 
-5.84642e-01  1.31412e+00 -6.01335e+00 
-5.35954e-01  1.20460e+00 -6.01684e+00 
-4.86684e-01  1.09378e+00 -6.02001e+00 
-4.36874e-01  9.81788e-01 -6.02285e+00 
-3.86595e-01  8.68741e-01 -6.02537e+00 
-3.35891e-01  7.54776e-01 -6.02757e+00 
-2.84830e-01  6.40004e-01 -6.02946e+00 
-2.33457e-01  5.24564e-01 -6.03102e+00 
-1.81840e-01  4.08563e-01 -6.03228e+00 
-1.30022e-01  2.92143e-01 -6.03322e+00 
-7.80717e-02  1.75405e-01 -6.03385e+00 
-2.60322e-02  5.84946e-02 -6.03415e+00 
 2.60322e-02 -5.84946e-02 -6.03415e+00 
 7.80717e-02 -1.75405e-01 -6.03385e+00 
 1.30022e-01 -2.92143e-01 -6.03322e+00 
 1.81840e-01 -4.08563e-01 -6.03228e+00 
 2.33457e-01 -5.24564e-01 -6.03102e+00 
 2.84830e-01 -6.40004e-01 -6.02946e+00 
 3.35891e-01 -7.54776e-01 -6.02757e+00 
 3.86595e-01 -8.68741e-01 -6.02537e+00 
 4.36874e-01 -9.81788e-01 -6.02285e+00 
 4.86684e-01 -1.09378e+00 -6.02001e+00 
 5.35954e-01 -1.20460e+00 -6.01684e+00 
 5.84642e-01 -1.31412e+00 -6.01335e+00 
 6.32674e-01 -1.42221e+00 -6.00953e+00 
 6.80008e-01 -1.52875e+00 -6.00539e+00 
 7.26568e-01 -1.63361e+00 -6.00089e+00 
 7.72315e-01 -1.73665e+00 -5.99609e+00 
 8.17168e-01 -1.83775e+00 -5.99092e+00 
 8.61088e-01 -1.93678e+00 -5.98543e+00 
 9.03995e-01 -2.03360e+00 -5.97957e+00 
 9.45847e-01 -2.12810e+00 -5.97339e+00 
 9.86563e-01 -2.22013e+00 -5.96683e+00 
 1.02610e+00 -2.30956e+00 -5.95994e+00 
 1.06438e+00 -2.39626e+00 -5.95267e+00 
 1.10136e+00 -2.48012e+00 -5.94506e+00 
 1.13696e+00 -2.56097e+00 -5.93707e+00 
 1.17113e+00 -2.63872e+00 -5.92874e+00 
 1.20379e+00 -2.71322e+00 -5.92002e+00 
 1.23491e+00 -2.78439e+00 -5.91097e+00 
 1.26439e+00 -2.85206e+00 -5.90152e+00 
 1.29222e+00 -2.91618e+00 -5.89175e+00 
 1.31830e+00 -2.97660e+00 -5.88159e+00 
 1.34261e+00 -3.03329e+00 -5.87113e+00 
 1.36507e+00 -3.08614e+00 -5.86029e+00 
 1.38567e+00 -3.13516e+00 -5.84917e+00 
 1.40435e+00 -3.18029e+00 -5.83770e+00 
 1.42111e+00 -3.22163e+00 -5.82597e+00 
 1.43592e+00 -3.25918e+00 -5.81390e+00 
 1.44881e+00 -3.29320e+00 -5.80156e+00 
 1.45981e+00 -3.32385e+00 -5.78876e+00 
 1.46902e+00 -3.35156e+00 -5.77537e+00 
 1.47656e+00 -3.37669e+00 -5.76075e+00 
 1.48272e+00 -3.39982e+00 -5.74372e+00 
 1.48786e+00 -3.42113e+00 -5.72134e+00 
 1.49270e+00 -3.44027e+00 -5.68727e+00 
 1.49839e+00 -3.45409e+00 -5.62667e+00 
 1.50734e+00 -3.45358e+00 -5.50624e+00 
 1.52405e+00 -3.41015e+00 -5.24145e+00 
 1.56625e+00 -3.26725e+00 -4.65568e+00 
 1.65625e+00 -2.72693e+00 -2.92651e+00 
 2.41992e+00 -2.77058e+00 -1.45889e+00 
-3.58883e+01  7.52281e+00 -2.48232e+01 
-2.65735e+01  5.25185e+00 -2.37920e+01 
-2.26423e+01  3.47077e+00 -1.98865e+01 
-2.03804e+01  2.54678e+00 -1.72643e+01 
-1.88378e+01  1.97063e+00 -1.52762e+01 
-1.76770e+01  1.58872e+00 -1.36915e+01 
-1.67415e+01  1.32055e+00 -1.23829e+01 
-1.59497e+01  1.12341e+00 -1.12725e+01 
-1.52556e+01  9.72939e-01 -1.03118e+01 
-1.46309e+01  8.54424e-01 -9.46761e+00 
-1.40577e+01  7.58671e-01 -8.71750e+00 
-1.35239e+01  6.79621e-01 -8.04474e+00 
-1.30211e+01  6.13202e-01 -7.43712e+00 
-1.25431e+01  5.56541e-01 -6.88500e+00 
-1.20857e+01  5.07594e-01 -6.38103e+00 
-1.16454e+01  4.64838e-01 -5.91906e+00 
-1.12195e+01  4.27145e-01 -5.49429e+00 
-1.08059e+01  3.93631e-01 -5.10255e+00 
-1.04031e+01  3.63624e-01 -4.74050e+00 
-1.00097e+01  3.36575e-01 -4.40519e+00 
-9.62451e+00  3.12057e-01 -4.09418e+00 
-9.24664e+00  2.89712e-01 -3.80529e+00 
-8.87536e+00  2.69253e-01 -3.53672e+00 
-8.50993e+00  2.50435e-01 -3.28679e+00 
-8.14984e+00  2.33060e-01 -3.05412e+00 
-7.79452e+00  2.16951e-01 -2.83742e+00 
-7.44360e+00  2.01967e-01 -2.63560e+00 
-7.09662e+00  1.87978e-01 -2.44764e+00 
-6.75331e+00  1.74879e-01 -2.27269e+00 
-6.41329e+00  1.62571e-01 -2.10992e+00 
-6.07635e+00  1.50975e-01 -1.95866e+00 
-5.74217e+00  1.40015e-01 -1.81823e+00 
-5.41058e+00  1.29627e-01 -1.68810e+00 
-5.08130e+00  1.19752e-01 -1.56771e+00 
-4.75420e+00  1.10339e-01 -1.45663e+00 
-4.42902e+00  1.01341e-01 -1.35441e+00 
-4.10567e+00  9.27145e-02 -1.26071e+00 
-3.78391e+00  8.44206e-02 -1.17516e+00 
-3.46366e+00  7.64249e-02 -1.09749e+00 
-3.14471e+00  6.86927e-02 -1.02740e+00 
-2.82697e+00  6.11953e-02 -9.64664e-01 
-2.51026e+00  5.39025e-02 -9.09068e-01 
-2.19451e+00  4.67891e-02 -8.60435e-01 
-1.87953e+00  3.98283e-02 -8.18594e-01 
-1.56526e+00  3.29975e-02 -7.83419e-01 
-1.25152e+00  2.62722e-02 -7.54788e-01 
-9.38265e-01  1.96318e-02 -7.32616e-01 
-6.25312e-01  1.30530e-02 -7.16827e-01 
-3.12612e-01  6.51647e-03 -7.07374e-01 
-8.39809e-13 -1.93857e-14 -7.04237e-01 
 3.12612e-01 -6.51647e-03 -7.07374e-01 
 6.25312e-01 -1.30530e-02 -7.16827e-01 
 9.38265e-01 -1.96318e-02 -7.32616e-01 
 1.25152e+00 -2.62722e-02 -7.54788e-01 
 1.56526e+00 -3.29975e-02 -7.83419e-01 
 1.87953e+00 -3.98283e-02 -8.18594e-01 
 2.19451e+00 -4.67891e-02 -8.60435e-01 
 2.51026e+00 -5.39025e-02 -9.09068e-01 
 2.82697e+00 -6.11953e-02 -9.64664e-01 
 3.14471e+00 -6.86927e-02 -1.02740e+00 
 3.46366e+00 -7.64249e-02 -1.09749e+00 
 3.78391e+00 -8.44206e-02 -1.17516e+00 
 4.10567e+00 -9.27145e-02 -1.26071e+00 
 4.42902e+00 -1.01341e-01 -1.35441e+00 
 4.75420e+00 -1.10339e-01 -1.45663e+00 
 5.08130e+00 -1.19752e-01 -1.56771e+00 
 5.41058e+00 -1.29627e-01 -1.68810e+00 
 5.74217e+00 -1.40015e-01 -1.81823e+00 
 6.07635e+00 -1.50975e-01 -1.95866e+00 
 6.41329e+00 -1.62571e-01 -2.10992e+00 
 6.75331e+00 -1.74879e-01 -2.27269e+00 
 7.09662e+00 -1.87978e-01 -2.44764e+00 
 7.44360e+00 -2.01967e-01 -2.63560e+00 
 7.79452e+00 -2.16951e-01 -2.83742e+00 
 8.14984e+00 -2.33060e-01 -3.05412e+00 
 8.50993e+00 -2.50435e-01 -3.28679e+00 
 8.87536e+00 -2.69253e-01 -3.53672e+00 
 9.24664e+00 -2.89712e-01 -3.80529e+00 
 9.62451e+00 -3.12057e-01 -4.09418e+00 
 1.00097e+01 -3.36575e-01 -4.40519e+00 
 1.04031e+01 -3.63624e-01 -4.74050e+00 
 1.08059e+01 -3.93631e-01 -5.10255e+00 
 1.12195e+01 -4.27145e-01 -5.49429e+00 
 1.16454e+01 -4.64838e-01 -5.91906e+00 
 1.20857e+01 -5.07594e-01 -6.38103e+00 
 1.25431e+01 -5.56541e-01 -6.88500e+00 
 1.30211e+01 -6.13202e-01 -7.43712e+00 
 1.35239e+01 -6.79621e-01 -8.04474e+00 
 1.40577e+01 -7.58671e-01 -8.71750e+00 
 1.46309e+01 -8.54424e-01 -9.46761e+00 
 1.52556e+01 -9.72939e-01 -1.03118e+01 
 1.59497e+01 -1.12341e+00 -1.12725e+01 
 1.67415e+01 -1.32055e+00 -1.23829e+01 
 1.76770e+01 -1.58872e+00 -1.36915e+01 
 1.88378e+01 -1.97063e+00 -1.52762e+01 
 2.03804e+01 -2.54678e+00 -1.72643e+01 
 2.26423e+01 -3.47077e+00 -1.98865e+01 
 2.65735e+01 -5.25185e+00 -2.37920e+01 
 3.58883e+01 -7.52281e+00 -2.48232e+01 
-2.72214e+01  1.37971e+01  1.03029e+00 
-2.83841e+01  1.07646e+01 -1.26691e+01 
-2.57514e+01  8.47713e+00 -1.52711e+01 
-2.33813e+01  6.74433e+00 -1.56259e+01 
-2.14983e+01  5.49794e+00 -1.50904e+01 
-1.99893e+01  4.57723e+00 -1.42573e+01 
-1.87510e+01  3.88248e+00 -1.33517e+01 
-1.77066e+01  3.34538e+00 -1.24647e+01 
-1.68037e+01  2.92091e+00 -1.16303e+01 
-1.60057e+01  2.57847e+00 -1.08586e+01 
-1.52876e+01  2.29717e+00 -1.01497e+01 
-1.46313e+01  2.06229e+00 -9.49980e+00 
-1.40238e+01  1.86340e+00 -8.90376e+00 
-1.34556e+01  1.69281e+00 -8.35628e+00 
-1.29195e+01  1.54491e+00 -7.85255e+00 
-1.24100e+01  1.41539e+00 -7.38806e+00 
-1.19229e+01  1.30101e+00 -6.95898e+00 
-1.14547e+01  1.19919e+00 -6.56184e+00 
-1.10028e+01  1.10796e+00 -6.19371e+00 
-1.05651e+01  1.02568e+00 -5.85193e+00 
-1.01397e+01  9.51071e-01 -5.53427e+00 
-9.72518e+00  8.83056e-01 -5.23868e+00 
-9.32027e+00  8.20774e-01 -4.96346e+00 
-8.92388e+00  7.63480e-01 -4.70698e+00 
-8.53518e+00  7.10572e-01 -4.46793e+00 
-8.15332e+00  6.61518e-01 -4.24504e+00 
-7.77769e+00  6.15884e-01 -4.03724e+00 
-7.40765e+00  5.73279e-01 -3.84354e+00 
-7.04272e+00  5.33378e-01 -3.66309e+00 
-6.68239e+00  4.95886e-01 -3.49507e+00 
-6.32630e+00  4.60556e-01 -3.33881e+00 
-5.97401e+00  4.27159e-01 -3.19364e+00 
-5.62525e+00  3.95504e-01 -3.05903e+00 
-5.27964e+00  3.65406e-01 -2.93442e+00 
-4.93698e+00  3.36713e-01 -2.81939e+00 
-4.59692e+00  3.09277e-01 -2.71348e+00 
-4.25929e+00  2.82974e-01 -2.61635e+00 
-3.92381e+00  2.57679e-01 -2.52763e+00 
-3.59032e+00  2.33290e-01 -2.44704e+00 
-3.25856e+00  2.09701e-01 -2.37430e+00 
-2.92841e+00  1.86824e-01 -2.30917e+00 
-2.59961e+00  1.64569e-01 -2.25143e+00 
-2.27207e+00  1.42858e-01 -2.20091e+00 
-1.94556e+00  1.21611e-01 -2.15743e+00 
-1.61996e+00  1.00757e-01 -2.12087e+00 
-1.29508e+00  8.02243e-02 -2.09111e+00 
-9.70815e-01  5.99485e-02 -2.06806e+00 
-6.46955e-01  3.98602e-02 -2.05165e+00 
-3.23417e-01  1.98996e-02 -2.04182e+00 
-8.02755e-13 -7.21919e-14 -2.03855e+00 
 3.23417e-01 -1.98996e-02 -2.04182e+00 
 6.46955e-01 -3.98602e-02 -2.05165e+00 
 9.70815e-01 -5.99485e-02 -2.06806e+00 
 1.29508e+00 -8.02243e-02 -2.09111e+00 
 1.61996e+00 -1.00757e-01 -2.12087e+00 
 1.94556e+00 -1.21611e-01 -2.15743e+00 
 2.27207e+00 -1.42858e-01 -2.20091e+00 
 2.59961e+00 -1.64569e-01 -2.25143e+00 
 2.92841e+00 -1.86824e-01 -2.30917e+00 
 3.25856e+00 -2.09701e-01 -2.37430e+00 
 3.59032e+00 -2.33290e-01 -2.44704e+00 
 3.92381e+00 -2.57679e-01 -2.52763e+00 
 4.25929e+00 -2.82974e-01 -2.61635e+00 
 4.59692e+00 -3.09277e-01 -2.71348e+00 
 4.93698e+00 -3.36713e-01 -2.81939e+00 
 5.27964e+00 -3.65406e-01 -2.93442e+00 
 5.62525e+00 -3.95504e-01 -3.05903e+00 
 5.97401e+00 -4.27159e-01 -3.19364e+00 
 6.32630e+00 -4.60556e-01 -3.33881e+00 
 6.68239e+00 -4.95886e-01 -3.49507e+00 
 7.04272e+00 -5.33378e-01 -3.66309e+00 
 7.40765e+00 -5.73279e-01 -3.84354e+00 
 7.77769e+00 -6.15884e-01 -4.03724e+00 
 8.15332e+00 -6.61518e-01 -4.24504e+00 
 8.53518e+00 -7.10572e-01 -4.46793e+00 
 8.92388e+00 -7.63480e-01 -4.70698e+00 
 9.32027e+00 -8.20774e-01 -4.96346e+00 
 9.72518e+00 -8.83056e-01 -5.23868e+00 
 1.01397e+01 -9.51071e-01 -5.53427e+00 
 1.05651e+01 -1.02568e+00 -5.85193e+00 
 1.10028e+01 -1.10796e+00 -6.19371e+00 
 1.14547e+01 -1.19919e+00 -6.56184e+00 
 1.19229e+01 -1.30101e+00 -6.95898e+00 
 1.24100e+01 -1.41539e+00 -7.38806e+00 
 1.29195e+01 -1.54491e+00 -7.85255e+00 
 1.34556e+01 -1.69281e+00 -8.35628e+00 
 1.40238e+01 -1.86340e+00 -8.90376e+00 
 1.46313e+01 -2.06229e+00 -9.49980e+00 
 1.52876e+01 -2.29717e+00 -1.01497e+01 
 1.60057e+01 -2.57847e+00 -1.08586e+01 
 1.68037e+01 -2.92091e+00 -1.16303e+01 
 1.77066e+01 -3.34538e+00 -1.24647e+01 
 1.87510e+01 -3.88248e+00 -1.33517e+01 
 1.99893e+01 -4.57723e+00 -1.42573e+01 
 2.14983e+01 -5.49794e+00 -1.50904e+01 
 2.33813e+01 -6.74433e+00 -1.56259e+01 
 2.57514e+01 -8.47713e+00 -1.52711e+01 
 2.83841e+01 -1.07646e+01 -1.26691e+01 
 2.72214e+01 -1.37971e+01  1.03029e+00 
-2.45294e+01  1.11727e+01  1.82915e-01 
-2.50103e+01  1.12861e+01 -3.89523e+00 
-2.48760e+01  1.02640e+01 -7.84738e+00 
-2.37819e+01  9.03507e+00 -1.00387e+01 
-2.24601e+01  7.87173e+00 -1.11345e+01 
-2.11676e+01  6.86296e+00 -1.15352e+01 
-1.99793e+01  6.01215e+00 -1.15303e+01 
-1.89071e+01  5.30041e+00 -1.12948e+01 
-1.79420e+01  4.70454e+00 -1.09338e+01 
-1.70691e+01  4.20281e+00 -1.05097e+01 
-1.62737e+01  3.77730e+00 -1.00595e+01 
-1.55427e+01  3.41330e+00 -9.60476e+00 
-1.48654e+01  3.09938e+00 -9.15819e+00 
-1.42328e+01  2.82632e+00 -8.72673e+00 
-1.36380e+01  2.58700e+00 -8.31421e+00 
-1.30749e+01  2.37566e+00 -7.92228e+00 
-1.25390e+01  2.18778e+00 -7.55155e+00 
-1.20264e+01  2.01967e+00 -7.20178e+00 
-1.15340e+01  1.86840e+00 -6.87244e+00 
-1.10590e+01  1.73151e+00 -6.56267e+00 
-1.05995e+01  1.60704e+00 -6.27160e+00 
-1.01535e+01  1.49331e+00 -5.99824e+00 
-9.71955e+00  1.38896e+00 -5.74169e+00 
-9.29622e+00  1.29281e+00 -5.50098e+00 
-8.88250e+00  1.20390e+00 -5.27528e+00 
-8.47730e+00  1.12136e+00 -5.06374e+00 
-8.07987e+00  1.04449e+00 -4.86563e+00 
-7.68937e+00  9.72648e-01 -4.68020e+00 
-7.30522e+00  9.05307e-01 -4.50684e+00 
-6.92675e+00  8.41978e-01 -4.34490e+00 
-6.55353e+00  7.82257e-01 -4.19386e+00 
-6.18499e+00  7.25761e-01 -4.05319e+00 
-5.82079e+00  6.72174e-01 -3.92244e+00 
-5.46047e+00  6.21191e-01 -3.80116e+00 
-5.10374e+00  5.72559e-01 -3.68898e+00 
-4.75021e+00  5.26030e-01 -3.58553e+00 
-4.39965e+00  4.81397e-01 -3.49050e+00 
-4.05170e+00  4.38453e-01 -3.40359e+00 
-3.70617e+00  3.97027e-01 -3.32454e+00 
-3.36275e+00  3.56942e-01 -3.25311e+00 
-3.02127e+00  3.18050e-01 -3.18909e+00 
-2.68145e+00  2.80201e-01 -3.13229e+00 
-2.34314e+00  2.43264e-01 -3.08256e+00 
-2.00607e+00  2.07104e-01 -3.03973e+00 
-1.67012e+00  1.71605e-01 -3.00370e+00 
-1.33502e+00  1.36644e-01 -2.97436e+00 
-1.00067e+00  1.02115e-01 -2.95162e+00 
-6.66805e-01  6.78995e-02 -2.93542e+00 
-3.33327e-01  3.38985e-02 -2.92572e+00 
-7.56117e-13 -1.46224e-13 -2.92249e+00 
 3.33327e-01 -3.38985e-02 -2.92572e+00 
 6.66805e-01 -6.78995e-02 -2.93542e+00 
 1.00067e+00 -1.02115e-01 -2.95162e+00 
 1.33502e+00 -1.36644e-01 -2.97436e+00 
 1.67012e+00 -1.71605e-01 -3.00370e+00 
 2.00607e+00 -2.07104e-01 -3.03973e+00 
 2.34314e+00 -2.43264e-01 -3.08256e+00 
 2.68145e+00 -2.80201e-01 -3.13229e+00 
 3.02127e+00 -3.18050e-01 -3.18909e+00 
 3.36275e+00 -3.56942e-01 -3.25311e+00 
 3.70617e+00 -3.97027e-01 -3.32454e+00 
 4.05170e+00 -4.38453e-01 -3.40359e+00 
 4.39965e+00 -4.81397e-01 -3.49050e+00 
 4.75021e+00 -5.26030e-01 -3.58553e+00 
 5.10374e+00 -5.72559e-01 -3.68898e+00 
 5.46047e+00 -6.21191e-01 -3.80116e+00 
 5.82079e+00 -6.72174e-01 -3.92244e+00 
 6.18499e+00 -7.25761e-01 -4.05319e+00 
 6.55353e+00 -7.82257e-01 -4.19386e+00 
 6.92675e+00 -8.41978e-01 -4.34490e+00 
 7.30522e+00 -9.05307e-01 -4.50684e+00 
 7.68937e+00 -9.72648e-01 -4.68020e+00 
 8.07987e+00 -1.04449e+00 -4.86563e+00 
 8.47730e+00 -1.12136e+00 -5.06374e+00 
 8.88250e+00 -1.20390e+00 -5.27528e+00 
 9.29622e+00 -1.29281e+00 -5.50098e+00 
 9.71955e+00 -1.38896e+00 -5.74169e+00 
 1.01535e+01 -1.49331e+00 -5.99824e+00 
 1.05995e+01 -1.60704e+00 -6.27160e+00 
 1.10590e+01 -1.73151e+00 -6.56267e+00 
 1.15340e+01 -1.86840e+00 -6.87244e+00 
 1.20264e+01 -2.01967e+00 -7.20178e+00 
 1.25390e+01 -2.18778e+00 -7.55155e+00 
 1.30749e+01 -2.37566e+00 -7.92228e+00 
 1.36380e+01 -2.58700e+00 -8.31421e+00 
 1.42328e+01 -2.82632e+00 -8.72673e+00 
 1.48654e+01 -3.09938e+00 -9.15819e+00 
 1.55427e+01 -3.41330e+00 -9.60476e+00 
 1.62737e+01 -3.77730e+00 -1.00595e+01 
 1.70691e+01 -4.20281e+00 -1.05097e+01 
 1.79420e+01 -4.70454e+00 -1.09338e+01 
 1.89071e+01 -5.30041e+00 -1.12948e+01 
 1.99793e+01 -6.01215e+00 -1.15303e+01 
 2.11676e+01 -6.86296e+00 -1.15352e+01 
 2.24601e+01 -7.87173e+00 -1.11345e+01 
 2.37819e+01 -9.03507e+00 -1.00387e+01 
 2.48760e+01 -1.02640e+01 -7.84738e+00 
 2.50103e+01 -1.12861e+01 -3.89523e+00 
 2.45294e+01 -1.11727e+01  1.82915e-01 
-2.32846e+01  1.06309e+01  5.32764e-02 
-2.35432e+01  1.05486e+01 -2.20827e+00 
-2.34358e+01  1.02764e+01 -4.22122e+00 
-2.30216e+01  9.66799e+00 -6.16159e+00 
-2.22904e+01  8.91151e+00 -7.60776e+00 
-2.14014e+01  8.12473e+00 -8.57505e+00 
-2.04630e+01  7.37207e+00 -9.15326e+00 
-1.95335e+01  6.68073e+00 -9.44445e+00 
-1.86408e+01  6.05915e+00 -9.53259e+00 
-1.77958e+01  5.50591e+00 -9.48144e+00 
-1.70008e+01  5.01570e+00 -9.33709e+00 
-1.62537e+01  4.58148e+00 -9.13225e+00 
-1.55508e+01  4.19634e+00 -8.88983e+00 
-1.48874e+01  3.85367e+00 -8.62573e+00 
-1.42594e+01  3.54775e+00 -8.35101e+00 
-1.36625e+01  3.27348e+00 -8.07320e+00 
-1.30932e+01  3.02661e+00 -7.79750e+00 
-1.25482e+01  2.80341e+00 -7.52736e+00 
-1.20246e+01  2.60082e+00 -7.26512e+00 
-1.15201e+01  2.41614e+00 -7.01221e+00 
-1.10325e+01  2.24719e+00 -6.76958e+00 
-1.05599e+01  2.09199e+00 -6.53769e+00 
-1.01009e+01  1.94894e+00 -6.31681e+00 
-9.65386e+00  1.81662e+00 -6.10690e+00 
-9.21777e+00  1.69382e+00 -5.90792e+00 
-8.79144e+00  1.57948e+00 -5.71962e+00 
-8.37401e+00  1.47270e+00 -5.54179e+00 
-7.96456e+00  1.37267e+00 -5.37412e+00 
-7.56243e+00  1.27870e+00 -5.21634e+00 
-7.16687e+00  1.19015e+00 -5.06810e+00 
-6.77737e+00  1.10650e+00 -4.92913e+00 
-6.39330e+00  1.02723e+00 -4.79910e+00 
-6.01425e+00  9.51931e-01 -4.67775e+00 
-5.63970e+00  8.80192e-01 -4.56477e+00 
-5.26932e+00  8.11673e-01 -4.45993e+00 
-4.90264e+00  7.46039e-01 -4.36296e+00 
-4.53940e+00  6.83011e-01 -4.27366e+00 
-4.17919e+00  6.22308e-01 -4.19178e+00 
-3.82179e+00  5.63695e-01 -4.11716e+00 
-3.46684e+00  5.06932e-01 -4.04961e+00 
-3.11413e+00  4.51817e-01 -3.98896e+00 
-2.76334e+00  3.98141e-01 -3.93508e+00 
-2.41430e+00  3.45727e-01 -3.88783e+00 
-2.06670e+00  2.94388e-01 -3.84711e+00 
-1.72038e+00  2.43965e-01 -3.81281e+00 
-1.37507e+00  1.94285e-01 -3.78486e+00 
-1.03060e+00  1.45203e-01 -3.76319e+00 
-6.86718e-01  9.65569e-02 -3.74775e+00 
-3.43271e-01  4.82075e-02 -3.73850e+00 
-6.95781e-13 -2.46058e-13 -3.73542e+00 
 3.43271e-01 -4.82075e-02 -3.73850e+00 
 6.86718e-01 -9.65569e-02 -3.74775e+00 
 1.03060e+00 -1.45203e-01 -3.76319e+00 
 1.37507e+00 -1.94285e-01 -3.78486e+00 
 1.72038e+00 -2.43965e-01 -3.81281e+00 
 2.06670e+00 -2.94388e-01 -3.84711e+00 
 2.41430e+00 -3.45727e-01 -3.88783e+00 
 2.76334e+00 -3.98141e-01 -3.93508e+00 
 3.11413e+00 -4.51817e-01 -3.98896e+00 
 3.46684e+00 -5.06932e-01 -4.04961e+00 
 3.82179e+00 -5.63695e-01 -4.11716e+00 
 4.17919e+00 -6.22308e-01 -4.19178e+00 
 4.53940e+00 -6.83011e-01 -4.27366e+00 
 4.90264e+00 -7.46039e-01 -4.36296e+00 
 5.26932e+00 -8.11673e-01 -4.45993e+00 
 5.63970e+00 -8.80192e-01 -4.56477e+00 
 6.01425e+00 -9.51931e-01 -4.67775e+00 
 6.39330e+00 -1.02723e+00 -4.79910e+00 
 6.77737e+00 -1.10650e+00 -4.92913e+00 
 7.16687e+00 -1.19015e+00 -5.06810e+00 
 7.56243e+00 -1.27870e+00 -5.21634e+00 
 7.96456e+00 -1.37267e+00 -5.37412e+00 
 8.37401e+00 -1.47270e+00 -5.54179e+00 
 8.79144e+00 -1.57948e+00 -5.71962e+00 
 9.21777e+00 -1.69382e+00 -5.90792e+00 
 9.65386e+00 -1.81662e+00 -6.10690e+00 
 1.01009e+01 -1.94894e+00 -6.31681e+00 
 1.05599e+01 -2.09199e+00 -6.53769e+00 
 1.10325e+01 -2.24719e+00 -6.76958e+00 
 1.15201e+01 -2.41614e+00 -7.01221e+00 
 1.20246e+01 -2.60082e+00 -7.26512e+00 
 1.25482e+01 -2.80341e+00 -7.52736e+00 
 1.30932e+01 -3.02661e+00 -7.79750e+00 
 1.36625e+01 -3.27348e+00 -8.07320e+00 
 1.42594e+01 -3.54775e+00 -8.35101e+00 
 1.48874e+01 -3.85367e+00 -8.62573e+00 
 1.55508e+01 -4.19634e+00 -8.88983e+00 
 1.62537e+01 -4.58148e+00 -9.13225e+00 
 1.70008e+01 -5.01570e+00 -9.33709e+00 
 1.77958e+01 -5.50591e+00 -9.48144e+00 
 1.86408e+01 -6.05915e+00 -9.53259e+00 
 1.95335e+01 -6.68073e+00 -9.44445e+00 
 2.04630e+01 -7.37207e+00 -9.15326e+00 
 2.14014e+01 -8.12473e+00 -8.57505e+00 
 2.22904e+01 -8.91151e+00 -7.60776e+00 
 2.30216e+01 -9.66799e+00 -6.16159e+00 
 2.34358e+01 -1.02764e+01 -4.22122e+00 
 2.35432e+01 -1.05486e+01 -2.20827e+00 
 2.32846e+01 -1.06309e+01  5.32764e-02 
-2.24658e+01  1.01787e+01  2.12124e-03 
-2.25770e+01  1.01694e+01 -1.39238e+00 
-2.24957e+01  9.99404e+00 -2.72278e+00 
-2.22115e+01  9.67112e+00 -4.05020e+00 
-2.17535e+01  9.21078e+00 -5.27408e+00 
-2.11484e+01  8.66726e+00 -6.28600e+00 
-2.04487e+01  8.08924e+00 -7.06186e+00 
-1.97007e+01  7.51122e+00 -7.61882e+00 
-1.89373e+01  6.95451e+00 -7.99069e+00 
-1.81795e+01  6.43040e+00 -8.21412e+00 
-1.74397e+01  5.94405e+00 -8.32225e+00 
-1.67243e+01  5.49647e+00 -8.34300e+00 
-1.60362e+01  5.08663e+00 -8.29878e+00 
-1.53757e+01  4.71214e+00 -8.20718e+00 
-1.47424e+01  4.37022e+00 -8.08180e+00 
-1.41346e+01  4.05781e+00 -7.93303e+00 
-1.35507e+01  3.77204e+00 -7.76878e+00 
-1.29886e+01  3.51009e+00 -7.59501e+00 
-1.24468e+01  3.26952e+00 -7.41623e+00 
-1.19231e+01  3.04798e+00 -7.23580e+00 
-1.14162e+01  2.84351e+00 -7.05625e+00 
-1.09244e+01  2.65425e+00 -6.87943e+00 
-1.04464e+01  2.47863e+00 -6.70673e+00 
-9.98083e+00  2.31522e+00 -6.53913e+00 
-9.52672e+00  2.16278e+00 -6.37737e+00 
-9.08292e+00  2.02018e+00 -6.22190e+00 
-8.64862e+00  1.88647e+00 -6.07311e+00 
-8.22288e+00  1.76073e+00 -5.93116e+00 
-7.80505e+00  1.64222e+00 -5.79620e+00 
-7.39436e+00  1.53021e+00 -5.66826e+00 
-6.99027e+00  1.42409e+00 -5.54735e+00 
-6.59212e+00  1.32329e+00 -5.43342e+00 
-6.19949e+00  1.22732e+00 -5.32641e+00 
-5.81180e+00  1.13570e+00 -5.22623e+00 
-5.42871e+00  1.04802e+00 -5.13280e+00 
-5.04972e+00  9.63878e-01 -5.04599e+00 
-4.67452e+00  8.82951e-01 -4.96572e+00 
-4.30270e+00  8.04894e-01 -4.89187e+00 
-3.93398e+00  7.29423e-01 -4.82434e+00 
-3.56798e+00  6.56245e-01 -4.76304e+00 
-3.20447e+00  5.85113e-01 -4.70787e+00 
-2.84311e+00  5.15770e-01 -4.65875e+00 
-2.48368e+00  4.47998e-01 -4.61560e+00 
-2.12586e+00  3.81565e-01 -4.57834e+00 
-1.76947e+00  3.16275e-01 -4.54692e+00 
-1.41420e+00  2.51912e-01 -4.52129e+00 
-1.05987e+00  1.88296e-01 -4.50139e+00 
-7.06191e-01  1.25224e-01 -4.48721e+00 
-3.52996e-01  6.25235e-02 -4.47871e+00 
-6.02923e-13 -3.92069e-13 -4.47588e+00 
 3.52996e-01 -6.25235e-02 -4.47871e+00 
 7.06191e-01 -1.25224e-01 -4.48721e+00 
 1.05987e+00 -1.88296e-01 -4.50139e+00 
 1.41420e+00 -2.51912e-01 -4.52129e+00 
 1.76947e+00 -3.16275e-01 -4.54692e+00 
 2.12586e+00 -3.81565e-01 -4.57834e+00 
 2.48368e+00 -4.47998e-01 -4.61560e+00 
 2.84311e+00 -5.15770e-01 -4.65875e+00 
 3.20447e+00 -5.85113e-01 -4.70787e+00 
 3.56798e+00 -6.56245e-01 -4.76304e+00 
 3.93398e+00 -7.29423e-01 -4.82434e+00 
 4.30270e+00 -8.04894e-01 -4.89187e+00 
 4.67452e+00 -8.82951e-01 -4.96572e+00 
 5.04972e+00 -9.63878e-01 -5.04599e+00 
 5.42871e+00 -1.04802e+00 -5.13280e+00 
 5.81180e+00 -1.13570e+00 -5.22623e+00 
 6.19949e+00 -1.22732e+00 -5.32641e+00 
 6.59212e+00 -1.32329e+00 -5.43342e+00 
 6.99027e+00 -1.42409e+00 -5.54735e+00 
 7.39436e+00 -1.53021e+00 -5.66826e+00 
 7.80505e+00 -1.64222e+00 -5.79620e+00 
 8.22288e+00 -1.76073e+00 -5.93116e+00 
 8.64862e+00 -1.88647e+00 -6.07311e+00 
 9.08292e+00 -2.02018e+00 -6.22190e+00 
 9.52672e+00 -2.16278e+00 -6.37737e+00 
 9.98083e+00 -2.31522e+00 -6.53913e+00 
 1.04464e+01 -2.47863e+00 -6.70673e+00 
 1.09244e+01 -2.65425e+00 -6.87943e+00 
 1.14162e+01 -2.84351e+00 -7.05625e+00 
 1.19231e+01 -3.04798e+00 -7.23580e+00 
 1.24468e+01 -3.26952e+00 -7.41623e+00 
 1.29886e+01 -3.51009e+00 -7.59501e+00 
 1.35507e+01 -3.77204e+00 -7.76878e+00 
 1.41346e+01 -4.05781e+00 -7.93303e+00 
 1.47424e+01 -4.37022e+00 -8.08180e+00 
 1.53757e+01 -4.71214e+00 -8.20718e+00 
 1.60362e+01 -5.08663e+00 -8.29878e+00 
 1.67243e+01 -5.49647e+00 -8.34300e+00 
 1.74397e+01 -5.94405e+00 -8.32225e+00 
 1.81795e+01 -6.43040e+00 -8.21412e+00 
 1.89373e+01 -6.95451e+00 -7.99069e+00 
 1.97007e+01 -7.51122e+00 -7.61882e+00 
 2.04487e+01 -8.08924e+00 -7.06186e+00 
 2.11484e+01 -8.66726e+00 -6.28600e+00 
 2.17535e+01 -9.21078e+00 -5.27408e+00 
 2.22115e+01 -9.67112e+00 -4.05020e+00 
 2.24957e+01 -9.99404e+00 -2.72278e+00 
 2.25770e+01 -1.01694e+01 -1.39238e+00 
 2.24658e+01 -1.01787e+01  2.12124e-03 
-2.19201e+01  9.91089e+00 -1.25644e-02 
-2.19145e+01  9.87386e+00 -9.72991e-01 
-2.17976e+01  9.75338e+00 -1.90086e+00 
-2.15607e+01  9.53205e+00 -2.88181e+00 
-2.12050e+01  9.22279e+00 -3.84029e+00 
-2.07459e+01  8.84095e+00 -4.72250e+00 
-2.02028e+01  8.40988e+00 -5.48758e+00 
-1.95998e+01  7.95233e+00 -6.11936e+00 
-1.89595e+01  7.48709e+00 -6.61891e+00 
-1.83005e+01  7.02768e+00 -6.99772e+00 
-1.76366e+01  6.58332e+00 -7.27152e+00 
-1.69771e+01  6.15942e+00 -7.45714e+00 
-1.63286e+01  5.75903e+00 -7.57041e+00 
-1.56947e+01  5.38321e+00 -7.62546e+00 
-1.50776e+01  5.03200e+00 -7.63435e+00 
-1.44781e+01  4.70454e+00 -7.60718e+00 
-1.38964e+01  4.39969e+00 -7.55227e+00 
-1.33321e+01  4.11594e+00 -7.47636e+00 
-1.27846e+01  3.85181e+00 -7.38494e+00 
-1.22529e+01  3.60570e+00 -7.28237e+00 
-1.17361e+01  3.37617e+00 -7.17219e+00 
-1.12332e+01  3.16175e+00 -7.05718e+00 
-1.07433e+01  2.96117e+00 -6.93958e+00 
-1.02652e+01  2.77316e+00 -6.82115e+00 
-9.79835e+00  2.59665e+00 -6.70328e+00 
-9.34164e+00  2.43056e+00 -6.58708e+00 
-8.89441e+00  2.27400e+00 -6.47341e+00 
-8.45583e+00  2.12609e+00 -6.36294e+00 
-8.02531e+00  1.98608e+00 -6.25621e+00 
-7.60211e+00  1.85324e+00 -6.15360e+00 
-7.18573e+00  1.72694e+00 -6.05544e+00 
-6.77553e+00  1.60659e+00 -5.96194e+00 
-6.37110e+00  1.49165e+00 -5.87329e+00 
-5.97186e+00  1.38163e+00 -5.78959e+00 
-5.57747e+00  1.27608e+00 -5.71094e+00 
-5.18741e+00  1.17457e+00 -5.63738e+00 
-4.80138e+00  1.07673e+00 -5.56896e+00 
-4.41893e+00  9.82185e-01 -5.50569e+00 
-4.03980e+00  8.90613e-01 -5.44757e+00 
-3.66357e+00  8.01684e-01 -5.39458e+00 
-3.29001e+00  7.15122e-01 -5.34673e+00 
-2.91874e+00  6.30630e-01 -5.30399e+00 
-2.54956e+00  5.47961e-01 -5.26634e+00 
-2.18210e+00  4.66847e-01 -5.23375e+00 
-1.81618e+00  3.87063e-01 -5.20622e+00 
-1.45146e+00  3.08359e-01 -5.18373e+00 
-1.08776e+00  2.30525e-01 -5.16625e+00 
-7.24751e-01  1.53326e-01 -5.15377e+00 
-3.62268e-01  7.65596e-02 -5.14629e+00 
-5.20550e-13 -5.52823e-13 -5.14379e+00 
 3.62268e-01 -7.65596e-02 -5.14629e+00 
 7.24751e-01 -1.53326e-01 -5.15377e+00 
 1.08776e+00 -2.30525e-01 -5.16625e+00 
 1.45146e+00 -3.08359e-01 -5.18373e+00 
 1.81618e+00 -3.87063e-01 -5.20622e+00 
 2.18210e+00 -4.66847e-01 -5.23375e+00 
 2.54956e+00 -5.47961e-01 -5.26634e+00 
 2.91874e+00 -6.30630e-01 -5.30399e+00 
 3.29001e+00 -7.15122e-01 -5.34673e+00 
 3.66357e+00 -8.01684e-01 -5.39458e+00 
 4.03980e+00 -8.90613e-01 -5.44757e+00 
 4.41893e+00 -9.82185e-01 -5.50569e+00 
 4.80138e+00 -1.07673e+00 -5.56896e+00 
 5.18741e+00 -1.17457e+00 -5.63738e+00 
 5.57747e+00 -1.27608e+00 -5.71094e+00 
 5.97186e+00 -1.38163e+00 -5.78959e+00 
 6.37110e+00 -1.49165e+00 -5.87329e+00 
 6.77553e+00 -1.60659e+00 -5.96194e+00 
 7.18573e+00 -1.72694e+00 -6.05544e+00 
 7.60211e+00 -1.85324e+00 -6.15360e+00 
 8.02531e+00 -1.98608e+00 -6.25621e+00 
 8.45583e+00 -2.12609e+00 -6.36294e+00 
 8.89441e+00 -2.27400e+00 -6.47341e+00 
 9.34164e+00 -2.43056e+00 -6.58708e+00 
 9.79835e+00 -2.59665e+00 -6.70328e+00 
 1.02652e+01 -2.77316e+00 -6.82115e+00 
 1.07433e+01 -2.96117e+00 -6.93958e+00 
 1.12332e+01 -3.16175e+00 -7.05718e+00 
 1.17361e+01 -3.37617e+00 -7.17219e+00 
 1.22529e+01 -3.60570e+00 -7.28237e+00 
 1.27846e+01 -3.85181e+00 -7.38494e+00 
 1.33321e+01 -4.11594e+00 -7.47636e+00 
 1.38964e+01 -4.39969e+00 -7.55227e+00 
 1.44781e+01 -4.70454e+00 -7.60718e+00 
 1.50776e+01 -5.03200e+00 -7.63435e+00 
 1.56947e+01 -5.38321e+00 -7.62546e+00 
 1.63286e+01 -5.75903e+00 -7.57041e+00 
 1.69771e+01 -6.15942e+00 -7.45714e+00 
 1.76366e+01 -6.58332e+00 -7.27152e+00 
 1.83005e+01 -7.02768e+00 -6.99772e+00 
 1.89595e+01 -7.48709e+00 -6.61891e+00 
 1.95998e+01 -7.95233e+00 -6.11936e+00 
 2.02028e+01 -8.40988e+00 -5.48758e+00 
 2.07459e+01 -8.84095e+00 -4.72250e+00 
 2.12050e+01 -9.22279e+00 -3.84029e+00 
 2.15607e+01 -9.53205e+00 -2.88181e+00 
 2.17976e+01 -9.75338e+00 -1.90086e+00 
 2.19145e+01 -9.87386e+00 -9.72991e-01 
 2.19201e+01 -9.91089e+00 -1.25644e-02 
-2.15188e+01  9.71368e+00 -2.08217e-02 
-2.14276e+01  9.65943e+00 -7.35823e-01 
-2.12684e+01  9.54721e+00 -1.42917e+00 
-2.10331e+01  9.37415e+00 -2.17899e+00 
-2.07197e+01  9.14001e+00 -2.94366e+00 
-2.03320e+01  8.85197e+00 -3.68456e+00 
-1.98791e+01  8.52026e+00 -4.37224e+00 
-1.93729e+01  8.15714e+00 -4.98660e+00 
-1.88264e+01  7.77492e+00 -5.51729e+00 
-1.82522e+01  7.38425e+00 -5.96240e+00 
-1.76612e+01  6.99386e+00 -6.32547e+00 
-1.70623e+01  6.61015e+00 -6.61355e+00 
-1.64624e+01  6.23775e+00 -6.83513e+00 
-1.58664e+01  5.87958e+00 -6.99918e+00 
-1.52780e+01  5.53750e+00 -7.11430e+00 
-1.46994e+01  5.21228e+00 -7.18848e+00 
-1.41321e+01  4.90422e+00 -7.22875e+00 
-1.35769e+01  4.61300e+00 -7.24132e+00 
-1.30342e+01  4.33815e+00 -7.23147e+00 
-1.25039e+01  4.07887e+00 -7.20373e+00 
-1.19858e+01  3.83436e+00 -7.16190e+00 
-1.14795e+01  3.60366e+00 -7.10916e+00 
-1.09844e+01  3.38593e+00 -7.04817e+00 
-1.05000e+01  3.18019e+00 -6.98115e+00 
-1.00257e+01  2.98561e+00 -6.90994e+00 
-9.56085e+00  2.80133e+00 -6.83604e+00 
-9.10494e+00  2.62658e+00 -6.76073e+00 
-8.65728e+00  2.46058e+00 -6.68504e+00 
-8.21742e+00  2.30267e+00 -6.60982e+00 
-7.78470e+00  2.15217e+00 -6.53577e+00 
-7.35870e+00  2.00849e+00 -6.46348e+00 
-6.93884e+00  1.87106e+00 -6.39341e+00 
-6.52475e+00  1.73936e+00 -6.32595e+00 
-6.11588e+00  1.61288e+00 -6.26142e+00 
-5.71191e+00  1.49120e+00 -6.20008e+00 
-5.31235e+00  1.37386e+00 -6.14212e+00 
-4.91690e+00  1.26048e+00 -6.08772e+00 
-4.52512e+00  1.15068e+00 -6.03702e+00 
-4.13675e+00  1.04411e+00 -5.99012e+00 
-3.75137e+00  9.40435e-01 -5.94711e+00 
-3.36875e+00  8.39349e-01 -5.90806e+00 
-2.98851e+00  7.40536e-01 -5.87301e+00 
-2.61042e+00  6.43729e-01 -5.84202e+00 
-2.23414e+00  5.48635e-01 -5.81511e+00 
-1.85945e+00  4.55009e-01 -5.79230e+00 
-1.48601e+00  3.62578e-01 -5.77362e+00 
-1.11363e+00  2.71109e-01 -5.75908e+00 
-7.41982e-01  1.80343e-01 -5.74869e+00 
-3.70878e-01  9.00571e-02 -5.74245e+00 
-4.22090e-13 -7.44560e-13 -5.74037e+00 
 3.70878e-01 -9.00571e-02 -5.74245e+00 
 7.41982e-01 -1.80343e-01 -5.74869e+00 
 1.11363e+00 -2.71109e-01 -5.75908e+00 
 1.48601e+00 -3.62578e-01 -5.77362e+00 
 1.85945e+00 -4.55009e-01 -5.79230e+00 
 2.23414e+00 -5.48635e-01 -5.81511e+00 
 2.61042e+00 -6.43729e-01 -5.84202e+00 
 2.98851e+00 -7.40536e-01 -5.87301e+00 
 3.36875e+00 -8.39349e-01 -5.90806e+00 
 3.75137e+00 -9.40435e-01 -5.94711e+00 
 4.13675e+00 -1.04411e+00 -5.99012e+00 
 4.52512e+00 -1.15068e+00 -6.03702e+00 
 4.91690e+00 -1.26048e+00 -6.08772e+00 
 5.31235e+00 -1.37386e+00 -6.14212e+00 
 5.71191e+00 -1.49120e+00 -6.20008e+00 
 6.11588e+00 -1.61288e+00 -6.26142e+00 
 6.52475e+00 -1.73936e+00 -6.32595e+00 
 6.93884e+00 -1.87106e+00 -6.39341e+00 
 7.35870e+00 -2.00849e+00 -6.46348e+00 
 7.78470e+00 -2.15217e+00 -6.53577e+00 
 8.21742e+00 -2.30267e+00 -6.60982e+00 
 8.65728e+00 -2.46058e+00 -6.68504e+00 
 9.10494e+00 -2.62658e+00 -6.76073e+00 
 9.56085e+00 -2.80133e+00 -6.83604e+00 
 1.00257e+01 -2.98561e+00 -6.90994e+00 
 1.05000e+01 -3.18019e+00 -6.98115e+00 
 1.09844e+01 -3.38593e+00 -7.04817e+00 
 1.14795e+01 -3.60366e+00 -7.10916e+00 
 1.19858e+01 -3.83436e+00 -7.16190e+00 
 1.25039e+01 -4.07887e+00 -7.20373e+00 
 1.30342e+01 -4.33815e+00 -7.23147e+00 
 1.35769e+01 -4.61300e+00 -7.24132e+00 
 1.41321e+01 -4.90422e+00 -7.22875e+00 
 1.46994e+01 -5.21228e+00 -7.18848e+00 
 1.52780e+01 -5.53750e+00 -7.11430e+00 
 1.58664e+01 -5.87958e+00 -6.99918e+00 
 1.64624e+01 -6.23775e+00 -6.83513e+00 
 1.70623e+01 -6.61015e+00 -6.61355e+00 
 1.76612e+01 -6.99386e+00 -6.32547e+00 
 1.82522e+01 -7.38425e+00 -5.96240e+00 
 1.88264e+01 -7.77492e+00 -5.51729e+00 
 1.93729e+01 -8.15714e+00 -4.98660e+00 
 1.98791e+01 -8.52026e+00 -4.37224e+00 
 2.03320e+01 -8.85197e+00 -3.68456e+00 
 2.07197e+01 -9.14001e+00 -2.94366e+00 
 2.10331e+01 -9.37415e+00 -2.17899e+00 
 2.12684e+01 -9.54721e+00 -1.42917e+00 
 2.14276e+01 -9.65943e+00 -7.35823e-01 
 2.15188e+01 -9.71368e+00 -2.08217e-02 
-2.12047e+01  9.56280e+00 -2.64421e-02 
-2.10486e+01  9.49031e+00 -5.95496e-01 
-2.08498e+01  9.37666e+00 -1.14292e+00 
-2.06016e+01  9.22311e+00 -1.74195e+00 
-2.03005e+01  9.02845e+00 -2.36633e+00 
-1.99470e+01  8.79443e+00 -2.99131e+00 
-1.95444e+01  8.52578e+00 -3.59503e+00 
-1.90986e+01  8.22882e+00 -4.16072e+00 
-1.86167e+01  7.91082e+00 -4.67655e+00 
-1.81066e+01  7.57893e+00 -5.13591e+00 
-1.75758e+01  7.23978e+00 -5.53632e+00 
-1.70312e+01  6.89892e+00 -5.87871e+00 
-1.64786e+01  6.56092e+00 -6.16610e+00 
-1.59227e+01  6.22920e+00 -6.40298e+00 
-1.53676e+01  5.90635e+00 -6.59436e+00 
-1.48159e+01  5.59405e+00 -6.74559e+00 
-1.42699e+01  5.29349e+00 -6.86177e+00 
-1.37311e+01  5.00520e+00 -6.94780e+00 
-1.32005e+01  4.72949e+00 -7.00810e+00 
-1.26786e+01  4.46623e+00 -7.04666e+00 
-1.21659e+01  4.21523e+00 -7.06703e+00 
-1.16623e+01  3.97604e+00 -7.07231e+00 
-1.11679e+01  3.74821e+00 -7.06520e+00 
-1.06824e+01  3.53113e+00 -7.04803e+00 
-1.02057e+01  3.32428e+00 -7.02281e+00 
-9.73718e+00  3.12699e+00 -6.99127e+00 
-9.27667e+00  2.93872e+00 -6.95489e+00 
-8.82365e+00  2.75883e+00 -6.91493e+00 
-8.37780e+00  2.58679e+00 -6.87246e+00 
-7.93862e+00  2.42201e+00 -6.82840e+00 
-7.50578e+00  2.26400e+00 -6.78352e+00 
-7.07879e+00  2.11221e+00 -6.73849e+00 
-6.65732e+00  1.96621e+00 -6.69387e+00 
-6.24092e+00  1.82550e+00 -6.65012e+00 
-5.82929e+00  1.68969e+00 -6.60767e+00 
-5.42197e+00  1.55834e+00 -6.56684e+00 
-5.01871e+00  1.43108e+00 -6.52793e+00 
-4.61908e+00  1.30752e+00 -6.49117e+00 
-4.22284e+00  1.18734e+00 -6.45677e+00 
-3.82958e+00  1.07017e+00 -6.42492e+00 
-3.43909e+00  9.55718e-01 -6.39574e+00 
-3.05098e+00  8.43657e-01 -6.36936e+00 
-2.66504e+00  7.33711e-01 -6.34588e+00 
-2.28091e+00  6.25575e-01 -6.32538e+00 
-1.89840e+00  5.18993e-01 -6.30794e+00 
-1.51715e+00  4.13675e-01 -6.29360e+00 
-1.13697e+00  3.09381e-01 -6.28240e+00 
-7.57538e-01  2.05832e-01 -6.27438e+00 
-3.78654e-01  1.02795e-01 -6.26956e+00 
-2.84707e-13 -9.46960e-13 -6.26795e+00 
 3.78654e-01 -1.02795e-01 -6.26956e+00 
 7.57538e-01 -2.05832e-01 -6.27438e+00 
 1.13697e+00 -3.09381e-01 -6.28240e+00 
 1.51715e+00 -4.13675e-01 -6.29360e+00 
 1.89840e+00 -5.18993e-01 -6.30794e+00 
 2.28091e+00 -6.25575e-01 -6.32538e+00 
 2.66504e+00 -7.33711e-01 -6.34588e+00 
 3.05098e+00 -8.43657e-01 -6.36936e+00 
 3.43909e+00 -9.55718e-01 -6.39574e+00 
 3.82958e+00 -1.07017e+00 -6.42492e+00 
 4.22284e+00 -1.18734e+00 -6.45677e+00 
 4.61908e+00 -1.30752e+00 -6.49117e+00 
 5.01871e+00 -1.43108e+00 -6.52793e+00 
 5.42197e+00 -1.55834e+00 -6.56684e+00 
 5.82929e+00 -1.68969e+00 -6.60767e+00 
 6.24092e+00 -1.82550e+00 -6.65012e+00 
 6.65732e+00 -1.96621e+00 -6.69387e+00 
 7.07879e+00 -2.11221e+00 -6.73849e+00 
 7.50578e+00 -2.26400e+00 -6.78352e+00 
 7.93862e+00 -2.42201e+00 -6.82840e+00 
 8.37780e+00 -2.58679e+00 -6.87246e+00 
 8.82365e+00 -2.75883e+00 -6.91493e+00 
 9.27667e+00 -2.93872e+00 -6.95489e+00 
 9.73718e+00 -3.12699e+00 -6.99127e+00 
 1.02057e+01 -3.32428e+00 -7.02281e+00 
 1.06824e+01 -3.53113e+00 -7.04803e+00 
 1.11679e+01 -3.74821e+00 -7.06520e+00 
 1.16623e+01 -3.97604e+00 -7.07231e+00 
 1.21659e+01 -4.21523e+00 -7.06703e+00 
 1.26786e+01 -4.46623e+00 -7.04666e+00 
 1.32005e+01 -4.72949e+00 -7.00810e+00 
 1.37311e+01 -5.00520e+00 -6.94780e+00 
 1.42699e+01 -5.29349e+00 -6.86177e+00 
 1.48159e+01 -5.59405e+00 -6.74559e+00 
 1.53676e+01 -5.90635e+00 -6.59436e+00 
 1.59227e+01 -6.22920e+00 -6.40298e+00 
 1.64786e+01 -6.56092e+00 -6.16610e+00 
 1.70312e+01 -6.89892e+00 -5.87871e+00 
 1.75758e+01 -7.23978e+00 -5.53632e+00 
 1.81066e+01 -7.57893e+00 -5.13591e+00 
 1.86167e+01 -7.91082e+00 -4.67655e+00 
 1.90986e+01 -8.22882e+00 -4.16072e+00 
 1.95444e+01 -8.52578e+00 -3.59503e+00 
 1.99470e+01 -8.79443e+00 -2.99131e+00 
 2.03005e+01 -9.02845e+00 -2.36633e+00 
 2.06016e+01 -9.22311e+00 -1.74195e+00 
 2.08498e+01 -9.37666e+00 -1.14292e+00 
 2.10486e+01 -9.49031e+00 -5.95496e-01 
 2.12047e+01 -9.56280e+00 -2.64421e-02 
-2.09433e+01  9.43867e+00 -3.12520e-02 
-2.07378e+01  9.35128e+00 -5.10798e-01 
-2.05049e+01  9.23151e+00 -9.64891e-01 
-2.02393e+01  9.08552e+00 -1.46289e+00 
-1.99376e+01  8.91123e+00 -1.98801e+00 
-1.95985e+01  8.70866e+00 -2.52360e+00 
-1.92231e+01  8.47964e+00 -3.05418e+00 
-1.88139e+01  8.22733e+00 -3.56671e+00 
-1.83749e+01  7.95586e+00 -4.05072e+00 
-1.79104e+01  7.66968e+00 -4.49891e+00 
-1.74256e+01  7.37338e+00 -4.90658e+00 
-1.69251e+01  7.07114e+00 -5.27169e+00 
-1.64135e+01  6.76677e+00 -5.59402e+00 
-1.58947e+01  6.46338e+00 -5.87494e+00 
-1.53722e+01  6.16361e+00 -6.11672e+00 
-1.48488e+01  5.86941e+00 -6.32234e+00 
-1.43267e+01  5.58237e+00 -6.49502e+00 
-1.38077e+01  5.30349e+00 -6.63816e+00 
-1.32932e+01  5.03355e+00 -6.75503e+00 
-1.27842e+01  4.77292e+00 -6.84882e+00 
-1.22814e+01  4.52185e+00 -6.92247e+00 
-1.17852e+01  4.28029e+00 -6.97868e+00 
-1.12960e+01  4.04816e+00 -7.01990e+00 
-1.08137e+01  3.82517e+00 -7.04835e+00 
-1.03385e+01  3.61107e+00 -7.06597e+00 
-9.87023e+00  3.40545e+00 -7.07451e+00 
-9.40870e+00  3.20795e+00 -7.07550e+00 
-8.95366e+00  3.01812e+00 -7.07028e+00 
-8.50495e+00  2.83557e+00 -7.06003e+00 
-8.06220e+00  2.65983e+00 -7.04579e+00 
-7.62518e+00  2.49051e+00 -7.02845e+00 
-7.19352e+00  2.32716e+00 -7.00878e+00 
-6.76698e+00  2.16939e+00 -6.98748e+00 
-6.34516e+00  2.01679e+00 -6.96514e+00 
-5.92782e+00  1.86898e+00 -6.94225e+00 
-5.51458e+00  1.72558e+00 -6.91927e+00 
-5.10520e+00  1.58624e+00 -6.89658e+00 
-4.69930e+00  1.45059e+00 -6.87452e+00 
-4.29666e+00  1.31833e+00 -6.85336e+00 
-3.89691e+00  1.18910e+00 -6.83335e+00 
-3.49985e+00  1.06262e+00 -6.81470e+00 
-3.10510e+00  9.38565e-01 -6.79759e+00 
-2.71248e+00  8.16659e-01 -6.78217e+00 
-2.32163e+00  6.96596e-01 -6.76858e+00 
-1.93237e+00  5.78122e-01 -6.75691e+00 
-1.54435e+00  4.60940e-01 -6.74725e+00 
-1.15739e+00  3.44807e-01 -6.73966e+00 
-7.71151e-01  2.29438e-01 -6.73421e+00 
-3.85463e-01  1.14595e-01 -6.73093e+00 
-1.62207e-13 -1.15424e-12 -6.72983e+00 
 3.85463e-01 -1.14595e-01 -6.73093e+00 
 7.71151e-01 -2.29438e-01 -6.73421e+00 
 1.15739e+00 -3.44807e-01 -6.73966e+00 
 1.54435e+00 -4.60940e-01 -6.74725e+00 
 1.93237e+00 -5.78122e-01 -6.75691e+00 
 2.32163e+00 -6.96596e-01 -6.76858e+00 
 2.71248e+00 -8.16659e-01 -6.78217e+00 
 3.10510e+00 -9.38565e-01 -6.79759e+00 
 3.49985e+00 -1.06262e+00 -6.81470e+00 
 3.89691e+00 -1.18910e+00 -6.83335e+00 
 4.29666e+00 -1.31833e+00 -6.85336e+00 
 4.69930e+00 -1.45059e+00 -6.87452e+00 
 5.10520e+00 -1.58624e+00 -6.89658e+00 
 5.51458e+00 -1.72558e+00 -6.91927e+00 
 5.92782e+00 -1.86898e+00 -6.94225e+00 
 6.34516e+00 -2.01679e+00 -6.96514e+00 
 6.76698e+00 -2.16939e+00 -6.98748e+00 
 7.19352e+00 -2.32716e+00 -7.00878e+00 
 7.62518e+00 -2.49051e+00 -7.02845e+00 
 8.06220e+00 -2.65983e+00 -7.04579e+00 
 8.50495e+00 -2.83557e+00 -7.06003e+00 
 8.95366e+00 -3.01812e+00 -7.07028e+00 
 9.40870e+00 -3.20795e+00 -7.07550e+00 
 9.87023e+00 -3.40545e+00 -7.07451e+00 
 1.03385e+01 -3.61107e+00 -7.06597e+00 
 1.08137e+01 -3.82517e+00 -7.04835e+00 
 1.12960e+01 -4.04816e+00 -7.01990e+00 
 1.17852e+01 -4.28029e+00 -6.97868e+00 
 1.22814e+01 -4.52185e+00 -6.92247e+00 
 1.27842e+01 -4.77292e+00 -6.84882e+00 
 1.32932e+01 -5.03355e+00 -6.75503e+00 
 1.38077e+01 -5.30349e+00 -6.63816e+00 
 1.43267e+01 -5.58237e+00 -6.49502e+00 
 1.48488e+01 -5.86941e+00 -6.32234e+00 
 1.53722e+01 -6.16361e+00 -6.11672e+00 
 1.58947e+01 -6.46338e+00 -5.87494e+00 
 1.64135e+01 -6.76677e+00 -5.59402e+00 
 1.69251e+01 -7.07114e+00 -5.27169e+00 
 1.74256e+01 -7.37338e+00 -4.90658e+00 
 1.79104e+01 -7.66968e+00 -4.49891e+00 
 1.83749e+01 -7.95586e+00 -4.05072e+00 
 1.88139e+01 -8.22733e+00 -3.56671e+00 
 1.92231e+01 -8.47964e+00 -3.05418e+00 
 1.95985e+01 -8.70866e+00 -2.52360e+00 
 1.99376e+01 -8.91123e+00 -1.98801e+00 
 2.02393e+01 -9.08552e+00 -1.46289e+00 
 2.05049e+01 -9.23151e+00 -9.64891e-01 
 2.07378e+01 -9.35128e+00 -5.10798e-01 
 2.09433e+01 -9.43867e+00 -3.12520e-02 
-2.07143e+01  9.33114e+00 -3.56993e-02 
-2.04708e+01  9.23149e+00 -4.59739e-01 
-2.02097e+01  9.10470e+00 -8.52998e-01 
-1.99265e+01  8.96037e+00 -1.28259e+00 
-1.96185e+01  8.79648e+00 -1.73736e+00 
-1.92838e+01  8.61226e+00 -2.20600e+00 
-1.89223e+01  8.40820e+00 -2.67746e+00 
-1.85349e+01  8.18572e+00 -3.14193e+00 
-1.81236e+01  7.94708e+00 -3.59090e+00 
-1.76908e+01  7.69496e+00 -4.01773e+00 
-1.72397e+01  7.43235e+00 -4.41740e+00 
-1.67734e+01  7.16220e+00 -4.78673e+00 
-1.62952e+01  6.88739e+00 -5.12391e+00 
-1.58081e+01  6.61046e+00 -5.42850e+00 
-1.53149e+01  6.33372e+00 -5.70092e+00 
-1.48180e+01  6.05903e+00 -5.94246e+00 
-1.43196e+01  5.78801e+00 -6.15478e+00 
-1.38212e+01  5.52184e+00 -6.33997e+00 
-1.33246e+01  5.26154e+00 -6.50019e+00 
-1.28307e+01  5.00773e+00 -6.63775e+00 
-1.23404e+01  4.76094e+00 -6.75487e+00 
-1.18545e+01  4.52142e+00 -6.85372e+00 
-1.13735e+01  4.28934e+00 -6.93634e+00 
-1.08975e+01  4.06469e+00 -7.00465e+00 
-1.04270e+01  3.84742e+00 -7.06040e+00 
-9.96185e+00  3.63735e+00 -7.10519e+00 
-9.50224e+00  3.43432e+00 -7.14048e+00 
-9.04800e+00  3.23801e+00 -7.16759e+00 
-8.59910e+00  3.04820e+00 -7.18770e+00 
-8.15532e+00  2.86455e+00 -7.20185e+00 
-7.71655e+00  2.68676e+00 -7.21100e+00 
-7.28249e+00  2.51448e+00 -7.21597e+00 
-6.85302e+00  2.34742e+00 -7.21751e+00 
-6.42780e+00  2.18520e+00 -7.21627e+00 
-6.00666e+00  2.02753e+00 -7.21283e+00 
-5.58928e+00  1.87406e+00 -7.20770e+00 
-5.17547e+00  1.72449e+00 -7.20133e+00 
-4.76490e+00  1.57849e+00 -7.19411e+00 
-4.35737e+00  1.43578e+00 -7.18639e+00 
-3.95256e+00  1.29601e+00 -7.17846e+00 
-3.55028e+00  1.15895e+00 -7.17059e+00 
-3.15020e+00  1.02425e+00 -7.16301e+00 
-2.75214e+00  8.91681e-01 -7.15590e+00 
-2.35577e+00  7.60928e-01 -7.14943e+00 
-1.96091e+00  6.31748e-01 -7.14373e+00 
-1.56724e+00  5.03850e-01 -7.13893e+00 
-1.17459e+00  3.76995e-01 -7.13510e+00 
-7.82639e-01  2.50898e-01 -7.13231e+00 
-3.91212e-01  1.25326e-01 -7.13062e+00 
-6.21719e-14 -1.32376e-12 -7.13006e+00 
 3.91212e-01 -1.25326e-01 -7.13062e+00 
 7.82639e-01 -2.50898e-01 -7.13231e+00 
 1.17459e+00 -3.76995e-01 -7.13510e+00 
 1.56724e+00 -5.03850e-01 -7.13893e+00 
 1.96091e+00 -6.31748e-01 -7.14373e+00 
 2.35577e+00 -7.60928e-01 -7.14943e+00 
 2.75214e+00 -8.91681e-01 -7.15590e+00 
 3.15020e+00 -1.02425e+00 -7.16301e+00 
 3.55028e+00 -1.15895e+00 -7.17059e+00 
 3.95256e+00 -1.29601e+00 -7.17846e+00 
 4.35737e+00 -1.43578e+00 -7.18639e+00 
 4.76490e+00 -1.57849e+00 -7.19411e+00 
 5.17547e+00 -1.72449e+00 -7.20133e+00 
 5.58928e+00 -1.87406e+00 -7.20770e+00 
 6.00666e+00 -2.02753e+00 -7.21283e+00 
 6.42780e+00 -2.18520e+00 -7.21627e+00 
 6.85302e+00 -2.34742e+00 -7.21751e+00 
 7.28249e+00 -2.51448e+00 -7.21597e+00 
 7.71655e+00 -2.68676e+00 -7.21100e+00 
 8.15532e+00 -2.86455e+00 -7.20185e+00 
 8.59910e+00 -3.04820e+00 -7.18770e+00 
 9.04800e+00 -3.23801e+00 -7.16759e+00 
 9.50224e+00 -3.43432e+00 -7.14048e+00 
 9.96185e+00 -3.63735e+00 -7.10519e+00 
 1.04270e+01 -3.84742e+00 -7.06040e+00 
 1.08975e+01 -4.06469e+00 -7.00465e+00 
 1.13735e+01 -4.28934e+00 -6.93634e+00 
 1.18545e+01 -4.52142e+00 -6.85372e+00 
 1.23404e+01 -4.76094e+00 -6.75487e+00 
 1.28307e+01 -5.00773e+00 -6.63775e+00 
 1.33246e+01 -5.26154e+00 -6.50019e+00 
 1.38212e+01 -5.52184e+00 -6.33997e+00 
 1.43196e+01 -5.78801e+00 -6.15478e+00 
 1.48180e+01 -6.05903e+00 -5.94246e+00 
 1.53149e+01 -6.33372e+00 -5.70092e+00 
 1.58081e+01 -6.61046e+00 -5.42850e+00 
 1.62952e+01 -6.88739e+00 -5.12391e+00 
 1.67734e+01 -7.16220e+00 -4.78673e+00 
 1.72397e+01 -7.43235e+00 -4.41740e+00 
 1.76908e+01 -7.69496e+00 -4.01773e+00 
 1.81236e+01 -7.94708e+00 -3.59090e+00 
 1.85349e+01 -8.18572e+00 -3.14193e+00 
 1.89223e+01 -8.40820e+00 -2.67746e+00 
 1.92838e+01 -8.61226e+00 -2.20600e+00 
 1.96185e+01 -8.79648e+00 -1.73736e+00 
 1.99265e+01 -8.96037e+00 -1.28259e+00 
 2.02097e+01 -9.10470e+00 -8.52998e-01 
 2.04708e+01 -9.23149e+00 -4.59739e-01 
 2.07143e+01 -9.33114e+00 -3.56993e-02 
-2.05051e+01  9.23373e+00 -3.99282e-02 
-2.02321e+01  9.12422e+00 -4.29830e-01 
-1.99479e+01  8.99064e+00 -7.83163e-01 
-1.96489e+01  8.84532e+00 -1.16607e+00 
-1.93326e+01  8.68641e+00 -1.57098e+00 
-1.89973e+01  8.51290e+00 -1.99004e+00 
-1.86422e+01  8.32462e+00 -2.41533e+00 
-1.82674e+01  8.12207e+00 -2.83954e+00 
-1.78738e+01  7.90640e+00 -3.25596e+00 
-1.74626e+01  7.67916e+00 -3.65903e+00 
-1.70358e+01  7.44224e+00 -4.04413e+00 
-1.65953e+01  7.19762e+00 -4.40791e+00 
-1.61434e+01  6.94738e+00 -4.74793e+00 
-1.56823e+01  6.69344e+00 -5.06286e+00 
-1.52141e+01  6.43768e+00 -5.35205e+00 
-1.47407e+01  6.18168e+00 -5.61567e+00 
-1.42640e+01  5.92692e+00 -5.85429e+00 
-1.37855e+01  5.67456e+00 -6.06898e+00 
-1.33066e+01  5.42564e+00 -6.26099e+00 
-1.28283e+01  5.18090e+00 -6.43183e+00 
-1.23518e+01  4.94102e+00 -6.58303e+00 
-1.18776e+01  4.70639e+00 -6.71622e+00 
-1.14066e+01  4.47738e+00 -6.83296e+00 
-1.09389e+01  4.25413e+00 -6.93482e+00 
-1.04752e+01  4.03679e+00 -7.02325e+00 
-1.00154e+01  3.82532e+00 -7.09965e+00 
-9.55995e+00  3.61971e+00 -7.16530e+00 
-9.10872e+00  3.41982e+00 -7.22142e+00 
-8.66182e+00  3.22552e+00 -7.26910e+00 
-8.21914e+00  3.03659e+00 -7.30935e+00 
-7.78068e+00  2.85286e+00 -7.34309e+00 
-7.34623e+00  2.67404e+00 -7.37115e+00 
-6.91574e+00  2.49994e+00 -7.39427e+00 
-6.48895e+00  2.33026e+00 -7.41314e+00 
-6.06578e+00  2.16475e+00 -7.42836e+00 
-5.64594e+00  2.00313e+00 -7.44047e+00 
-5.22931e+00  1.84515e+00 -7.44995e+00 
-4.81560e+00  1.69051e+00 -7.45724e+00 
-4.40466e+00  1.53897e+00 -7.46271e+00 
-3.99620e+00  1.39022e+00 -7.46670e+00 
-3.59007e+00  1.24404e+00 -7.46950e+00 
-3.18596e+00  1.10012e+00 -7.47138e+00 
-2.78372e+00  9.58231e-01 -7.47254e+00 
-2.38305e+00  8.18089e-01 -7.47318e+00 
-1.98379e+00  6.79464e-01 -7.47347e+00 
-1.58564e+00  5.42073e-01 -7.47353e+00 
-1.18845e+00  4.05692e-01 -7.47346e+00 
-7.91902e-01  2.70042e-01 -7.47336e+00 
-3.95851e-01  1.34902e-01 -7.47328e+00 
 6.97668e-14 -1.54563e-12 -7.47325e+00 
 3.95851e-01 -1.34902e-01 -7.47328e+00 
 7.91902e-01 -2.70042e-01 -7.47336e+00 
 1.18845e+00 -4.05692e-01 -7.47346e+00 
 1.58564e+00 -5.42073e-01 -7.47353e+00 
 1.98379e+00 -6.79464e-01 -7.47347e+00 
 2.38305e+00 -8.18089e-01 -7.47318e+00 
 2.78372e+00 -9.58231e-01 -7.47254e+00 
 3.18596e+00 -1.10012e+00 -7.47138e+00 
 3.59007e+00 -1.24404e+00 -7.46950e+00 
 3.99620e+00 -1.39022e+00 -7.46670e+00 
 4.40466e+00 -1.53897e+00 -7.46271e+00 
 4.81560e+00 -1.69051e+00 -7.45724e+00 
 5.22931e+00 -1.84515e+00 -7.44995e+00 
 5.64594e+00 -2.00313e+00 -7.44047e+00 
 6.06578e+00 -2.16475e+00 -7.42836e+00 
 6.48895e+00 -2.33026e+00 -7.41314e+00 
 6.91574e+00 -2.49994e+00 -7.39427e+00 
 7.34623e+00 -2.67404e+00 -7.37115e+00 
 7.78068e+00 -2.85286e+00 -7.34309e+00 
 8.21914e+00 -3.03659e+00 -7.30935e+00 
 8.66182e+00 -3.22552e+00 -7.26910e+00 
 9.10872e+00 -3.41982e+00 -7.22142e+00 
 9.55995e+00 -3.61971e+00 -7.16530e+00 
 1.00154e+01 -3.82532e+00 -7.09965e+00 
 1.04752e+01 -4.03679e+00 -7.02325e+00 
 1.09389e+01 -4.25413e+00 -6.93482e+00 
 1.14066e+01 -4.47738e+00 -6.83296e+00 
 1.18776e+01 -4.70639e+00 -6.71622e+00 
 1.23518e+01 -4.94102e+00 -6.58303e+00 
 1.28283e+01 -5.18090e+00 -6.43183e+00 
 1.33066e+01 -5.42564e+00 -6.26099e+00 
 1.37855e+01 -5.67456e+00 -6.06898e+00 
 1.42640e+01 -5.92692e+00 -5.85429e+00 
 1.47407e+01 -6.18168e+00 -5.61567e+00 
 1.52141e+01 -6.43768e+00 -5.35205e+00 
 1.56823e+01 -6.69344e+00 -5.06286e+00 
 1.61434e+01 -6.94738e+00 -4.74793e+00 
 1.65953e+01 -7.19762e+00 -4.40791e+00 
 1.70358e+01 -7.44224e+00 -4.04413e+00 
 1.74626e+01 -7.67916e+00 -3.65903e+00 
 1.78738e+01 -7.90640e+00 -3.25596e+00 
 1.82674e+01 -8.12207e+00 -2.83954e+00 
 1.86422e+01 -8.32462e+00 -2.41533e+00 
 1.89973e+01 -8.51290e+00 -1.99004e+00 
 1.93326e+01 -8.68641e+00 -1.57098e+00 
 1.96489e+01 -8.84532e+00 -1.16607e+00 
 1.99479e+01 -8.99064e+00 -7.83163e-01 
 2.02321e+01 -9.12422e+00 -4.29830e-01 
 2.05051e+01 -9.23373e+00 -3.99282e-02 
-2.03074e+01  9.14239e+00 -4.39636e-02 
-2.00116e+01  9.02497e+00 -4.13552e-01 
-1.97087e+01  8.88537e+00 -7.40800e-01 
-1.93960e+01  8.73793e+00 -1.09184e+00 
-1.90713e+01  8.58108e+00 -1.46142e+00 
-1.87330e+01  8.41375e+00 -1.84403e+00 
-1.83802e+01  8.23548e+00 -2.23392e+00 
-1.80125e+01  8.04630e+00 -2.62565e+00 
-1.76301e+01  7.84670e+00 -3.01402e+00 
-1.72337e+01  7.63751e+00 -3.39454e+00 
-1.68242e+01  7.41990e+00 -3.76323e+00 
-1.64029e+01  7.19514e+00 -4.11696e+00 
-1.59713e+01  6.96468e+00 -4.45323e+00 
-1.55310e+01  6.72991e+00 -4.77034e+00 
-1.50834e+01  6.49229e+00 -5.06712e+00 
-1.46302e+01  6.25308e+00 -5.34308e+00 
-1.41727e+01  6.01354e+00 -5.59808e+00 
-1.37122e+01  5.77468e+00 -5.83249e+00 
-1.32499e+01  5.53748e+00 -6.04686e+00 
-1.27869e+01  5.30270e+00 -6.24208e+00 
-1.23241e+01  5.07101e+00 -6.41909e+00 
-1.18622e+01  4.84291e+00 -6.57902e+00 
-1.14020e+01  4.61883e+00 -6.72299e+00 
-1.09438e+01  4.39905e+00 -6.85220e+00 
-1.04881e+01  4.18380e+00 -6.96778e+00 
-1.00352e+01  3.97318e+00 -7.07089e+00 
-9.58542e+00  3.76728e+00 -7.16260e+00 
-9.13883e+00  3.56606e+00 -7.24396e+00 
-8.69560e+00  3.36952e+00 -7.31593e+00 
-8.25571e+00  3.17752e+00 -7.37945e+00 
-7.81924e+00  2.98998e+00 -7.43533e+00 
-7.38606e+00  2.80671e+00 -7.48439e+00 
-6.95619e+00  2.62758e+00 -7.52732e+00 
-6.52945e+00  2.45235e+00 -7.56479e+00 
-6.10580e+00  2.28087e+00 -7.59739e+00 
-5.68502e+00  2.11287e+00 -7.62567e+00 
-5.26705e+00  1.94819e+00 -7.65010e+00 
-4.85163e+00  1.78654e+00 -7.67115e+00 
-4.43867e+00  1.62774e+00 -7.68919e+00 
-4.02791e+00  1.47152e+00 -7.70459e+00 
-3.61923e+00  1.31767e+00 -7.71765e+00 
-3.21237e+00  1.16593e+00 -7.72864e+00 
-2.80720e+00  1.01608e+00 -7.73781e+00 
-2.40344e+00  8.67870e-01 -7.74536e+00 
-2.00097e+00  7.21082e-01 -7.75145e+00 
-1.59951e+00  5.75452e-01 -7.75625e+00 
-1.19892e+00  4.30775e-01 -7.75987e+00 
-7.98912e-01  2.86787e-01 -7.76238e+00 
-3.99366e-01  1.43282e-01 -7.76387e+00 
 1.51581e-13 -1.75304e-12 -7.76436e+00 
 3.99366e-01 -1.43282e-01 -7.76387e+00 
 7.98912e-01 -2.86787e-01 -7.76238e+00 
 1.19892e+00 -4.30775e-01 -7.75987e+00 
 1.59951e+00 -5.75452e-01 -7.75625e+00 
 2.00097e+00 -7.21082e-01 -7.75145e+00 
 2.40344e+00 -8.67870e-01 -7.74536e+00 
 2.80720e+00 -1.01608e+00 -7.73781e+00 
 3.21237e+00 -1.16593e+00 -7.72864e+00 
 3.61923e+00 -1.31767e+00 -7.71765e+00 
 4.02791e+00 -1.47152e+00 -7.70459e+00 
 4.43867e+00 -1.62774e+00 -7.68919e+00 
 4.85163e+00 -1.78654e+00 -7.67115e+00 
 5.26705e+00 -1.94819e+00 -7.65010e+00 
 5.68502e+00 -2.11287e+00 -7.62567e+00 
 6.10580e+00 -2.28087e+00 -7.59739e+00 
 6.52945e+00 -2.45235e+00 -7.56479e+00 
 6.95619e+00 -2.62758e+00 -7.52732e+00 
 7.38606e+00 -2.80671e+00 -7.48439e+00 
 7.81924e+00 -2.98998e+00 -7.43533e+00 
 8.25571e+00 -3.17752e+00 -7.37945e+00 
 8.69560e+00 -3.36952e+00 -7.31593e+00 
 9.13883e+00 -3.56606e+00 -7.24396e+00 
 9.58542e+00 -3.76728e+00 -7.16260e+00 
 1.00352e+01 -3.97318e+00 -7.07089e+00 
 1.04881e+01 -4.18380e+00 -6.96778e+00 
 1.09438e+01 -4.39905e+00 -6.85220e+00 
 1.14020e+01 -4.61883e+00 -6.72299e+00 
 1.18622e+01 -4.84291e+00 -6.57902e+00 
 1.23241e+01 -5.07101e+00 -6.41909e+00 
 1.27869e+01 -5.30270e+00 -6.24208e+00 
 1.32499e+01 -5.53748e+00 -6.04686e+00 
 1.37122e+01 -5.77468e+00 -5.83249e+00 
 1.41727e+01 -6.01354e+00 -5.59808e+00 
 1.46302e+01 -6.25308e+00 -5.34308e+00 
 1.50834e+01 -6.49229e+00 -5.06712e+00 
 1.55310e+01 -6.72991e+00 -4.77034e+00 
 1.59713e+01 -6.96468e+00 -4.45323e+00 
 1.64029e+01 -7.19514e+00 -4.11696e+00 
 1.68242e+01 -7.41990e+00 -3.76323e+00 
 1.72337e+01 -7.63751e+00 -3.39454e+00 
 1.76301e+01 -7.84670e+00 -3.01402e+00 
 1.80125e+01 -8.04630e+00 -2.62565e+00 
 1.83802e+01 -8.23548e+00 -2.23392e+00 
 1.87330e+01 -8.41375e+00 -1.84403e+00 
 1.90713e+01 -8.58108e+00 -1.46142e+00 
 1.93960e+01 -8.73793e+00 -1.09184e+00 
 1.97087e+01 -8.88537e+00 -7.40800e-01 
 2.00116e+01 -9.02497e+00 -4.13552e-01 
 2.03074e+01 -9.14239e+00 -4.39636e-02 
-2.01159e+01  9.05444e+00 -4.77985e-02 
-1.98024e+01  8.93076e+00 -4.06196e-01 
-1.94847e+01  8.78601e+00 -7.16710e-01 
-1.91605e+01  8.63614e+00 -1.04614e+00 
-1.88281e+01  8.47979e+00 -1.39081e+00 
-1.84860e+01  8.31596e+00 -1.74678e+00 
-1.81333e+01  8.14408e+00 -2.10984e+00 
-1.77693e+01  7.96390e+00 -2.47596e+00 
-1.73941e+01  7.77558e+00 -2.84112e+00 
-1.70076e+01  7.57948e+00 -3.20175e+00 
-1.66105e+01  7.37630e+00 -3.55452e+00 
-1.62035e+01  7.16681e+00 -3.89674e+00 
-1.57876e+01  6.95201e+00 -4.22604e+00 
-1.53637e+01  6.73287e+00 -4.54069e+00 
-1.49330e+01  6.51047e+00 -4.83930e+00 
-1.44965e+01  6.28577e+00 -5.12106e+00 
-1.40555e+01  6.05979e+00 -5.38542e+00 
-1.36110e+01  5.83338e+00 -5.63228e+00 
-1.31638e+01  5.60741e+00 -5.86172e+00 
-1.27150e+01  5.38253e+00 -6.07416e+00 
-1.22654e+01  5.15943e+00 -6.27009e+00 
-1.18155e+01  4.93858e+00 -6.45023e+00 
-1.13662e+01  4.72046e+00 -6.61530e+00 
-1.09178e+01  4.50537e+00 -6.76619e+00 
-1.04709e+01  4.29363e+00 -6.90372e+00 
-1.00257e+01  4.08540e+00 -7.02880e+00 
-9.58263e+00  3.88085e+00 -7.14227e+00 
-9.14180e+00  3.68001e+00 -7.24502e+00 
-8.70346e+00  3.48296e+00 -7.33784e+00 
-8.26762e+00  3.28965e+00 -7.42155e+00 
-7.83445e+00  3.10006e+00 -7.49687e+00 
-7.40388e+00  2.91407e+00 -7.56452e+00 
-6.97599e+00  2.73162e+00 -7.62515e+00 
-6.55064e+00  2.55253e+00 -7.67938e+00 
-6.12786e+00  2.37671e+00 -7.72775e+00 
-5.70748e+00  2.20394e+00 -7.77080e+00 
-5.28947e+00  2.03410e+00 -7.80898e+00 
-4.87364e+00  1.86697e+00 -7.84275e+00 
-4.45993e+00  1.70238e+00 -7.87247e+00 
-4.04811e+00  1.54011e+00 -7.89851e+00 
-3.63812e+00  1.37999e+00 -7.92117e+00 
-3.22970e+00  1.22177e+00 -7.94074e+00 
-2.82278e+00  1.06529e+00 -7.95746e+00 
-2.41711e+00  9.10296e-01 -7.97153e+00 
-2.01257e+00  7.56610e-01 -7.98314e+00 
-1.60892e+00  6.03986e-01 -7.99244e+00 
-1.20606e+00  4.52240e-01 -7.99955e+00 
-8.03710e-01  3.01127e-01 -8.00456e+00 
-4.01777e-01  1.50461e-01 -8.00754e+00 
 2.43380e-13 -1.94706e-12 -8.00853e+00 
 4.01777e-01 -1.50461e-01 -8.00754e+00 
 8.03710e-01 -3.01127e-01 -8.00456e+00 
 1.20606e+00 -4.52240e-01 -7.99955e+00 
 1.60892e+00 -6.03986e-01 -7.99244e+00 
 2.01257e+00 -7.56610e-01 -7.98314e+00 
 2.41711e+00 -9.10296e-01 -7.97153e+00 
 2.82278e+00 -1.06529e+00 -7.95746e+00 
 3.22970e+00 -1.22177e+00 -7.94074e+00 
 3.63812e+00 -1.37999e+00 -7.92117e+00 
 4.04811e+00 -1.54011e+00 -7.89851e+00 
 4.45993e+00 -1.70238e+00 -7.87247e+00 
 4.87364e+00 -1.86697e+00 -7.84275e+00 
 5.28947e+00 -2.03410e+00 -7.80898e+00 
 5.70748e+00 -2.20394e+00 -7.77080e+00 
 6.12786e+00 -2.37671e+00 -7.72775e+00 
 6.55064e+00 -2.55253e+00 -7.67938e+00 
 6.97599e+00 -2.73162e+00 -7.62515e+00 
 7.40388e+00 -2.91407e+00 -7.56452e+00 
 7.83445e+00 -3.10006e+00 -7.49687e+00 
 8.26762e+00 -3.28965e+00 -7.42155e+00 
 8.70346e+00 -3.48296e+00 -7.33784e+00 
 9.14180e+00 -3.68001e+00 -7.24502e+00 
 9.58263e+00 -3.88085e+00 -7.14227e+00 
 1.00257e+01 -4.08540e+00 -7.02880e+00 
 1.04709e+01 -4.29363e+00 -6.90372e+00 
 1.09178e+01 -4.50537e+00 -6.76619e+00 
 1.13662e+01 -4.72046e+00 -6.61530e+00 
 1.18155e+01 -4.93858e+00 -6.45023e+00 
 1.22654e+01 -5.15943e+00 -6.27009e+00 
 1.27150e+01 -5.38253e+00 -6.07416e+00 
 1.31638e+01 -5.60741e+00 -5.86172e+00 
 1.36110e+01 -5.83338e+00 -5.63228e+00 
 1.40555e+01 -6.05979e+00 -5.38542e+00 
 1.44965e+01 -6.28577e+00 -5.12106e+00 
 1.49330e+01 -6.51047e+00 -4.83930e+00 
 1.53637e+01 -6.73287e+00 -4.54069e+00 
 1.57876e+01 -6.95201e+00 -4.22604e+00 
 1.62035e+01 -7.16681e+00 -3.89674e+00 
 1.66105e+01 -7.37630e+00 -3.55452e+00 
 1.70076e+01 -7.57948e+00 -3.20175e+00 
 1.73941e+01 -7.77558e+00 -2.84112e+00 
 1.77693e+01 -7.96390e+00 -2.47596e+00 
 1.81333e+01 -8.14408e+00 -2.10984e+00 
 1.84860e+01 -8.31596e+00 -1.74678e+00 
 1.88281e+01 -8.47979e+00 -1.39081e+00 
 1.91605e+01 -8.63614e+00 -1.04614e+00 
 1.94847e+01 -8.78601e+00 -7.16710e-01 
 1.98024e+01 -8.93076e+00 -4.06196e-01 
 2.01159e+01 -9.05444e+00 -4.77985e-02 
-1.99271e+01  8.96813e+00 -5.14192e-02 
-1.96000e+01  8.83952e+00 -4.04708e-01 
-1.92705e+01  8.69054e+00 -7.04904e-01 
-1.89370e+01  8.53830e+00 -1.01994e+00 
-1.85980e+01  8.38168e+00 -1.34719e+00 
-1.82520e+01  8.21977e+00 -1.68384e+00 
-1.78984e+01  8.05197e+00 -2.02678e+00 
-1.75363e+01  7.87792e+00 -2.37301e+00 
-1.71655e+01  7.69756e+00 -2.71942e+00 
-1.67860e+01  7.51100e+00 -3.06321e+00 
-1.63978e+01  7.31860e+00 -3.40166e+00 
-1.60015e+01  7.12083e+00 -3.73250e+00 
-1.55976e+01  6.91832e+00 -4.05362e+00 
-1.51867e+01  6.71174e+00 -4.36341e+00 
-1.47696e+01  6.50187e+00 -4.66046e+00 
-1.43472e+01  6.28942e+00 -4.94383e+00 
-1.39202e+01  6.07519e+00 -5.21274e+00 
-1.34894e+01  5.85986e+00 -5.46685e+00 
-1.30557e+01  5.64415e+00 -5.70592e+00 
-1.26197e+01  5.42863e+00 -5.93005e+00 
-1.21822e+01  5.21390e+00 -6.13939e+00 
-1.17438e+01  5.00042e+00 -6.33435e+00 
-1.13051e+01  4.78864e+00 -6.51535e+00 
-1.08665e+01  4.57888e+00 -6.68299e+00 
-1.04285e+01  4.37148e+00 -6.83782e+00 
-9.99146e+00  4.16662e+00 -6.98052e+00 
-9.55564e+00  3.96453e+00 -7.11175e+00 
-9.12127e+00  3.76530e+00 -7.23218e+00 
-8.68862e+00  3.56904e+00 -7.34248e+00 
-8.25775e+00  3.37576e+00 -7.44331e+00 
-7.82886e+00  3.18550e+00 -7.53528e+00 
-7.40193e+00  2.99820e+00 -7.61903e+00 
-6.97708e+00  2.81385e+00 -7.69511e+00 
-6.55422e+00  2.63232e+00 -7.76408e+00 
-6.13343e+00  2.45357e+00 -7.82643e+00 
-5.71458e+00  2.27743e+00 -7.88266e+00 
-5.29768e+00  2.10382e+00 -7.93319e+00 
-4.88257e+00  1.93255e+00 -7.97844e+00 
-4.46924e+00  1.76352e+00 -8.01877e+00 
-4.05749e+00  1.59652e+00 -8.05451e+00 
-3.64730e+00  1.43141e+00 -8.08596e+00 
-3.23844e+00  1.26800e+00 -8.11341e+00 
-2.83087e+00  1.10613e+00 -8.13708e+00 
-2.42436e+00  9.45588e-01 -8.15719e+00 
-2.01884e+00  7.86220e-01 -8.17390e+00 
-1.61409e+00  6.27803e-01 -8.18737e+00 
-1.21002e+00  4.70178e-01 -8.19773e+00 
-8.06390e-01  3.13121e-01 -8.20506e+00 
-4.03129e-01  1.56469e-01 -8.20943e+00 
 4.09351e-13 -2.18655e-12 -8.21088e+00 
 4.03129e-01 -1.56469e-01 -8.20943e+00 
 8.06390e-01 -3.13121e-01 -8.20506e+00 
 1.21002e+00 -4.70178e-01 -8.19773e+00 
 1.61409e+00 -6.27803e-01 -8.18737e+00 
 2.01884e+00 -7.86220e-01 -8.17390e+00 
 2.42436e+00 -9.45588e-01 -8.15719e+00 
 2.83087e+00 -1.10613e+00 -8.13708e+00 
 3.23844e+00 -1.26800e+00 -8.11341e+00 
 3.64730e+00 -1.43141e+00 -8.08596e+00 
 4.05749e+00 -1.59652e+00 -8.05451e+00 
 4.46924e+00 -1.76352e+00 -8.01877e+00 
 4.88257e+00 -1.93255e+00 -7.97844e+00 
 5.29768e+00 -2.10382e+00 -7.93319e+00 
 5.71458e+00 -2.27743e+00 -7.88266e+00 
 6.13343e+00 -2.45357e+00 -7.82643e+00 
 6.55422e+00 -2.63232e+00 -7.76408e+00 
 6.97708e+00 -2.81385e+00 -7.69511e+00 
 7.40193e+00 -2.99820e+00 -7.61903e+00 
 7.82886e+00 -3.18550e+00 -7.53528e+00 
 8.25775e+00 -3.37576e+00 -7.44331e+00 
 8.68862e+00 -3.56904e+00 -7.34248e+00 
 9.12127e+00 -3.76530e+00 -7.23218e+00 
 9.55564e+00 -3.96453e+00 -7.11175e+00 
 9.99146e+00 -4.16662e+00 -6.98052e+00 
 1.04285e+01 -4.37148e+00 -6.83782e+00 
 1.08665e+01 -4.57888e+00 -6.68299e+00 
 1.13051e+01 -4.78864e+00 -6.51535e+00 
 1.17438e+01 -5.00042e+00 -6.33435e+00 
 1.21822e+01 -5.21390e+00 -6.13939e+00 
 1.26197e+01 -5.42863e+00 -5.93005e+00 
 1.30557e+01 -5.64415e+00 -5.70592e+00 
 1.34894e+01 -5.85986e+00 -5.46685e+00 
 1.39202e+01 -6.07519e+00 -5.21274e+00 
 1.43472e+01 -6.28942e+00 -4.94383e+00 
 1.47696e+01 -6.50187e+00 -4.66046e+00 
 1.51867e+01 -6.71174e+00 -4.36341e+00 
 1.55976e+01 -6.91832e+00 -4.05362e+00 
 1.60015e+01 -7.12083e+00 -3.73250e+00 
 1.63978e+01 -7.31860e+00 -3.40166e+00 
 1.67860e+01 -7.51100e+00 -3.06321e+00 
 1.71655e+01 -7.69756e+00 -2.71942e+00 
 1.75363e+01 -7.87792e+00 -2.37301e+00 
 1.78984e+01 -8.05197e+00 -2.02678e+00 
 1.82520e+01 -8.21977e+00 -1.68384e+00 
 1.85980e+01 -8.38168e+00 -1.34719e+00 
 1.89370e+01 -8.53830e+00 -1.01994e+00 
 1.92705e+01 -8.69054e+00 -7.04904e-01 
 1.96000e+01 -8.83952e+00 -4.04708e-01 
 1.99271e+01 -8.96813e+00 -5.14192e-02 
-1.97387e+01  8.88230e+00 -5.48150e-02 
-1.94011e+01  8.74987e+00 -4.07059e-01 
-1.90626e+01  8.59747e+00 -7.01374e-01 
-1.87216e+01  8.44314e+00 -1.00711e+00 
-1.83771e+01  8.28593e+00 -1.32239e+00 
-1.80277e+01  8.12502e+00 -1.64518e+00 
-1.76728e+01  7.95987e+00 -1.97319e+00 
-1.73116e+01  7.79004e+00 -2.30416e+00 
-1.69438e+01  7.61537e+00 -2.63569e+00 
-1.65691e+01  7.43580e+00 -2.96559e+00 
-1.61876e+01  7.25150e+00 -3.29168e+00 
-1.57993e+01  7.06271e+00 -3.61207e+00 
-1.54048e+01  6.86983e+00 -3.92494e+00 
-1.50042e+01  6.67329e+00 -4.22886e+00 
-1.45982e+01  6.47364e+00 -4.52251e+00 
-1.41873e+01  6.27140e+00 -4.80491e+00 
-1.37721e+01  6.06716e+00 -5.07524e+00 
-1.33531e+01  5.86146e+00 -5.33299e+00 
-1.29312e+01  5.65488e+00 -5.57776e+00 
-1.25067e+01  5.44789e+00 -5.80942e+00 
-1.20803e+01  5.24100e+00 -6.02792e+00 
-1.16526e+01  5.03462e+00 -6.23341e+00 
-1.12239e+01  4.82917e+00 -6.42609e+00 
-1.07948e+01  4.62493e+00 -6.60633e+00 
-1.03656e+01  4.42226e+00 -6.77447e+00 
-9.93664e+00  4.22134e+00 -6.93101e+00 
-9.50832e+00  4.02242e+00 -7.07638e+00 
-9.08078e+00  3.82561e+00 -7.21113e+00 
-8.65431e+00  3.63106e+00 -7.33575e+00 
-8.22901e+00  3.43881e+00 -7.45078e+00 
-7.80509e+00  3.24895e+00 -7.55672e+00 
-7.38256e+00  3.06145e+00 -7.65410e+00 
-6.96158e+00  2.87633e+00 -7.74337e+00 
-6.54209e+00  2.69354e+00 -7.82504e+00 
-6.12420e+00  2.51304e+00 -7.89953e+00 
-5.70780e+00  2.33472e+00 -7.96728e+00 
-5.29297e+00  2.15854e+00 -8.02866e+00 
-4.87955e+00  1.98434e+00 -8.08406e+00 
-4.46759e+00  1.81205e+00 -8.13380e+00 
-4.05691e+00  1.64150e+00 -8.17820e+00 
-3.64751e+00  1.47260e+00 -8.21754e+00 
-3.23921e+00  1.30515e+00 -8.25207e+00 
-2.83199e+00  1.13906e+00 -8.28201e+00 
-2.42565e+00  9.74117e-01 -8.30757e+00 
-2.02015e+00  8.10209e-01 -8.32891e+00 
-1.61528e+00  6.47133e-01 -8.34618e+00 
-1.21100e+00  4.84756e-01 -8.35948e+00 
-8.07086e-01  3.22878e-01 -8.36893e+00 
-4.03489e-01  1.61359e-01 -8.37457e+00 
 4.39064e-13 -2.29586e-12 -8.37644e+00 
 4.03489e-01 -1.61359e-01 -8.37457e+00 
 8.07086e-01 -3.22878e-01 -8.36893e+00 
 1.21100e+00 -4.84756e-01 -8.35948e+00 
 1.61528e+00 -6.47133e-01 -8.34618e+00 
 2.02015e+00 -8.10209e-01 -8.32891e+00 
 2.42565e+00 -9.74117e-01 -8.30757e+00 
 2.83199e+00 -1.13906e+00 -8.28201e+00 
 3.23921e+00 -1.30515e+00 -8.25207e+00 
 3.64751e+00 -1.47260e+00 -8.21754e+00 
 4.05691e+00 -1.64150e+00 -8.17820e+00 
 4.46759e+00 -1.81205e+00 -8.13380e+00 
 4.87955e+00 -1.98434e+00 -8.08406e+00 
 5.29297e+00 -2.15854e+00 -8.02866e+00 
 5.70780e+00 -2.33472e+00 -7.96728e+00 
 6.12420e+00 -2.51304e+00 -7.89953e+00 
 6.54209e+00 -2.69354e+00 -7.82504e+00 
 6.96158e+00 -2.87633e+00 -7.74337e+00 
 7.38256e+00 -3.06145e+00 -7.65410e+00 
 7.80509e+00 -3.24895e+00 -7.55672e+00 
 8.22901e+00 -3.43881e+00 -7.45078e+00 
 8.65431e+00 -3.63106e+00 -7.33575e+00 
 9.08078e+00 -3.82561e+00 -7.21113e+00 
 9.50832e+00 -4.02242e+00 -7.07638e+00 
 9.93664e+00 -4.22134e+00 -6.93101e+00 
 1.03656e+01 -4.42226e+00 -6.77447e+00 
 1.07948e+01 -4.62493e+00 -6.60633e+00 
 1.12239e+01 -4.82917e+00 -6.42609e+00 
 1.16526e+01 -5.03462e+00 -6.23341e+00 
 1.20803e+01 -5.24100e+00 -6.02792e+00 
 1.25067e+01 -5.44789e+00 -5.80942e+00 
 1.29312e+01 -5.65488e+00 -5.57776e+00 
 1.33531e+01 -5.86146e+00 -5.33299e+00 
 1.37721e+01 -6.06716e+00 -5.07524e+00 
 1.41873e+01 -6.27140e+00 -4.80491e+00 
 1.45982e+01 -6.47364e+00 -4.52251e+00 
 1.50042e+01 -6.67329e+00 -4.22886e+00 
 1.54048e+01 -6.86983e+00 -3.92494e+00 
 1.57993e+01 -7.06271e+00 -3.61207e+00 
 1.61876e+01 -7.25150e+00 -3.29168e+00 
 1.65691e+01 -7.43580e+00 -2.96559e+00 
 1.69438e+01 -7.61537e+00 -2.63569e+00 
 1.73116e+01 -7.79004e+00 -2.30416e+00 
 1.76728e+01 -7.95987e+00 -1.97319e+00 
 1.80277e+01 -8.12502e+00 -1.64518e+00 
 1.83771e+01 -8.28593e+00 -1.32239e+00 
 1.87216e+01 -8.44314e+00 -1.00711e+00 
 1.90626e+01 -8.59747e+00 -7.01374e-01 
 1.94011e+01 -8.74987e+00 -4.07059e-01 
 1.97387e+01 -8.88230e+00 -5.48150e-02 
-1.95491e+01  8.79617e+00 -5.79797e-02 
-1.92037e+01  8.66084e+00 -4.11875e-01 
-1.88582e+01  8.50577e+00 -7.03383e-01 
-1.85116e+01  8.34970e+00 -1.00345e+00 
-1.81627e+01  8.19183e+00 -1.31072e+00 
-1.78105e+01  8.03144e+00 -1.62375e+00 
-1.74543e+01  7.86803e+00 -1.94080e+00 
-1.70935e+01  7.70116e+00 -2.26019e+00 
-1.67278e+01  7.53061e+00 -2.58008e+00 
-1.63567e+01  7.35624e+00 -2.89875e+00 
-1.59802e+01  7.17807e+00 -3.21446e+00 
-1.55982e+01  6.99621e+00 -3.52564e+00 
-1.52111e+01  6.81089e+00 -3.83079e+00 
-1.48188e+01  6.62237e+00 -4.12866e+00 
-1.44219e+01  6.43103e+00 -4.41803e+00 
-1.40205e+01  6.23723e+00 -4.69802e+00 
-1.36153e+01  6.04141e+00 -4.96778e+00 
-1.32066e+01  5.84397e+00 -5.22676e+00 
-1.27949e+01  5.64537e+00 -5.47446e+00 
-1.23806e+01  5.44599e+00 -5.71062e+00 
-1.19642e+01  5.24625e+00 -5.93505e+00 
-1.15461e+01  5.04649e+00 -6.14775e+00 
-1.11269e+01  4.84709e+00 -6.34873e+00 
-1.07067e+01  4.64831e+00 -6.53820e+00 
-1.02860e+01  4.45046e+00 -6.71633e+00 
-9.86504e+00  4.25373e+00 -6.88346e+00 
-9.44420e+00  4.05837e+00 -7.03986e+00 
-9.02362e+00  3.86449e+00 -7.18594e+00 
-8.60361e+00  3.67227e+00 -7.32205e+00 
-8.18424e+00  3.48176e+00 -7.44862e+00 
-7.76574e+00  3.29308e+00 -7.56603e+00 
-7.34816e+00  3.10623e+00 -7.67471e+00 
-6.93164e+00  2.92126e+00 -7.77504e+00 
-6.51619e+00  2.73814e+00 -7.86743e+00 
-6.10190e+00  2.55687e+00 -7.95224e+00 
-5.68873e+00  2.37737e+00 -8.02984e+00 
-5.27675e+00  2.19963e+00 -8.10057e+00 
-4.86585e+00  2.02354e+00 -8.16476e+00 
-4.45609e+00  1.84903e+00 -8.22270e+00 
-4.04733e+00  1.67599e+00 -8.27468e+00 
-3.63961e+00  1.50434e+00 -8.32093e+00 
-3.23275e+00  1.33392e+00 -8.36170e+00 
-2.82677e+00  1.16465e+00 -8.39719e+00 
-2.42149e+00  9.96364e-01 -8.42759e+00 
-2.01691e+00  8.28966e-01 -8.45304e+00 
-1.61284e+00  6.62281e-01 -8.47368e+00 
-1.20925e+00  4.96200e-01 -8.48963e+00 
-8.05962e-01  3.30546e-01 -8.50096e+00 
-4.02939e-01  1.65205e-01 -8.50773e+00 
 6.28215e-13 -2.65300e-12 -8.50998e+00 
 4.02939e-01 -1.65205e-01 -8.50773e+00 
 8.05962e-01 -3.30546e-01 -8.50096e+00 
 1.20925e+00 -4.96200e-01 -8.48963e+00 
 1.61284e+00 -6.62281e-01 -8.47368e+00 
 2.01691e+00 -8.28966e-01 -8.45304e+00 
 2.42149e+00 -9.96364e-01 -8.42759e+00 
 2.82677e+00 -1.16465e+00 -8.39719e+00 
 3.23275e+00 -1.33392e+00 -8.36170e+00 
 3.63961e+00 -1.50434e+00 -8.32093e+00 
 4.04733e+00 -1.67599e+00 -8.27468e+00 
 4.45609e+00 -1.84903e+00 -8.22270e+00 
 4.86585e+00 -2.02354e+00 -8.16476e+00 
 5.27675e+00 -2.19963e+00 -8.10057e+00 
 5.68873e+00 -2.37737e+00 -8.02984e+00 
 6.10190e+00 -2.55687e+00 -7.95224e+00 
 6.51619e+00 -2.73814e+00 -7.86743e+00 
 6.93164e+00 -2.92126e+00 -7.77504e+00 
 7.34816e+00 -3.10623e+00 -7.67471e+00 
 7.76574e+00 -3.29308e+00 -7.56603e+00 
 8.18424e+00 -3.48176e+00 -7.44862e+00 
 8.60361e+00 -3.67227e+00 -7.32205e+00 
 9.02362e+00 -3.86449e+00 -7.18594e+00 
 9.44420e+00 -4.05837e+00 -7.03986e+00 
 9.86504e+00 -4.25373e+00 -6.88346e+00 
 1.02860e+01 -4.45046e+00 -6.71633e+00 
 1.07067e+01 -4.64831e+00 -6.53820e+00 
 1.11269e+01 -4.84709e+00 -6.34873e+00 
 1.15461e+01 -5.04649e+00 -6.14775e+00 
 1.19642e+01 -5.24625e+00 -5.93505e+00 
 1.23806e+01 -5.44599e+00 -5.71062e+00 
 1.27949e+01 -5.64537e+00 -5.47446e+00 
 1.32066e+01 -5.84397e+00 -5.22676e+00 
 1.36153e+01 -6.04141e+00 -4.96778e+00 
 1.40205e+01 -6.23723e+00 -4.69802e+00 
 1.44219e+01 -6.43103e+00 -4.41803e+00 
 1.48188e+01 -6.62237e+00 -4.12866e+00 
 1.52111e+01 -6.81089e+00 -3.83079e+00 
 1.55982e+01 -6.99621e+00 -3.52564e+00 
 1.59802e+01 -7.17807e+00 -3.21446e+00 
 1.63567e+01 -7.35624e+00 -2.89875e+00 
 1.67278e+01 -7.53061e+00 -2.58008e+00 
 1.70935e+01 -7.70116e+00 -2.26019e+00 
 1.74543e+01 -7.86803e+00 -1.94080e+00 
 1.78105e+01 -8.03144e+00 -1.62375e+00 
 1.81627e+01 -8.19183e+00 -1.31072e+00 
 1.85116e+01 -8.34970e+00 -1.00345e+00 
 1.88582e+01 -8.50577e+00 -7.03383e-01 
 1.92037e+01 -8.66084e+00 -4.11875e-01 
 1.95491e+01 -8.79617e+00 -5.79797e-02 
-1.93573e+01  8.70925e+00 -6.09122e-02 
-1.90062e+01  8.57177e+00 -4.18207e-01 
-1.86557e+01  8.41469e+00 -7.09036e-01 
-1.83048e+01  8.25726e+00 -1.00602e+00 
-1.79526e+01  8.09881e+00 -1.30818e+00 
-1.75983e+01  7.93871e+00 -1.61448e+00 
-1.72412e+01  7.77651e+00 -1.92362e+00 
-1.68807e+01  7.61178e+00 -2.23436e+00 
-1.65166e+01  7.44429e+00 -2.54524e+00 
-1.61483e+01  7.27383e+00 -2.85497e+00 
-1.57757e+01  7.10038e+00 -3.16211e+00 
-1.53988e+01  6.92391e+00 -3.46543e+00 
-1.50177e+01  6.74456e+00 -3.76366e+00 
-1.46322e+01  6.56247e+00 -4.05573e+00 
-1.42428e+01  6.37789e+00 -4.34059e+00 
-1.38495e+01  6.19106e+00 -4.61743e+00 
-1.34528e+01  6.00230e+00 -4.88545e+00 
-1.30529e+01  5.81189e+00 -5.14409e+00 
-1.26501e+01  5.62020e+00 -5.39282e+00 
-1.22448e+01  5.42751e+00 -5.63132e+00 
-1.18375e+01  5.23419e+00 -5.85930e+00 
-1.14282e+01  5.04048e+00 -6.07667e+00 
-1.10176e+01  4.84673e+00 -6.28332e+00 
-1.06058e+01  4.65315e+00 -6.47933e+00 
-1.01931e+01  4.46003e+00 -6.66475e+00 
-9.77992e+00  4.26754e+00 -6.83978e+00 
-9.36642e+00  4.07590e+00 -7.00458e+00 
-8.95278e+00  3.88525e+00 -7.15943e+00 
-8.53929e+00  3.69574e+00 -7.30456e+00 
-8.12604e+00  3.50746e+00 -7.44031e+00 
-7.71325e+00  3.32052e+00 -7.56695e+00 
-7.30096e+00  3.13495e+00 -7.68483e+00 
-6.88936e+00  2.95082e+00 -7.79422e+00 
-6.47842e+00  2.76811e+00 -7.89548e+00 
-6.06830e+00  2.58685e+00 -7.98889e+00 
-5.65895e+00  2.40701e+00 -8.07478e+00 
-5.25046e+00  2.22856e+00 -8.15341e+00 
-4.84275e+00  2.05145e+00 -8.22507e+00 
-4.43590e+00  1.87563e+00 -8.29001e+00 
-4.02980e+00  1.70100e+00 -8.34848e+00 
-3.62448e+00  1.52752e+00 -8.40069e+00 
-3.21984e+00  1.35506e+00 -8.44686e+00 
-2.81588e+00  1.18356e+00 -8.48716e+00 
-2.41246e+00  1.01288e+00 -8.52176e+00 
-2.00959e+00  8.42942e-01 -8.55080e+00 
-1.60712e+00  6.73601e-01 -8.57439e+00 
-1.20505e+00  5.04771e-01 -8.59264e+00 
-8.03196e-01  3.36298e-01 -8.60562e+00 
-4.01568e-01  1.68093e-01 -8.61338e+00 
 7.35605e-13 -2.97956e-12 -8.61597e+00 
 4.01568e-01 -1.68093e-01 -8.61338e+00 
 8.03196e-01 -3.36298e-01 -8.60562e+00 
 1.20505e+00 -5.04771e-01 -8.59264e+00 
 1.60712e+00 -6.73601e-01 -8.57439e+00 
 2.00959e+00 -8.42942e-01 -8.55080e+00 
 2.41246e+00 -1.01288e+00 -8.52176e+00 
 2.81588e+00 -1.18356e+00 -8.48716e+00 
 3.21984e+00 -1.35506e+00 -8.44686e+00 
 3.62448e+00 -1.52752e+00 -8.40069e+00 
 4.02980e+00 -1.70100e+00 -8.34848e+00 
 4.43590e+00 -1.87563e+00 -8.29001e+00 
 4.84275e+00 -2.05145e+00 -8.22507e+00 
 5.25046e+00 -2.22856e+00 -8.15341e+00 
 5.65895e+00 -2.40701e+00 -8.07478e+00 
 6.06830e+00 -2.58685e+00 -7.98889e+00 
 6.47842e+00 -2.76811e+00 -7.89548e+00 
 6.88936e+00 -2.95082e+00 -7.79422e+00 
 7.30096e+00 -3.13495e+00 -7.68483e+00 
 7.71325e+00 -3.32052e+00 -7.56695e+00 
 8.12604e+00 -3.50746e+00 -7.44031e+00 
 8.53929e+00 -3.69574e+00 -7.30456e+00 
 8.95278e+00 -3.88525e+00 -7.15943e+00 
 9.36642e+00 -4.07590e+00 -7.00458e+00 
 9.77992e+00 -4.26754e+00 -6.83978e+00 
 1.01931e+01 -4.46003e+00 -6.66475e+00 
 1.06058e+01 -4.65315e+00 -6.47933e+00 
 1.10176e+01 -4.84673e+00 -6.28332e+00 
 1.14282e+01 -5.04048e+00 -6.07667e+00 
 1.18375e+01 -5.23419e+00 -5.85930e+00 
 1.22448e+01 -5.42751e+00 -5.63132e+00 
 1.26501e+01 -5.62020e+00 -5.39282e+00 
 1.30529e+01 -5.81189e+00 -5.14409e+00 
 1.34528e+01 -6.00230e+00 -4.88545e+00 
 1.38495e+01 -6.19106e+00 -4.61743e+00 
 1.42428e+01 -6.37789e+00 -4.34059e+00 
 1.46322e+01 -6.56247e+00 -4.05573e+00 
 1.50177e+01 -6.74456e+00 -3.76366e+00 
 1.53988e+01 -6.92391e+00 -3.46543e+00 
 1.57757e+01 -7.10038e+00 -3.16211e+00 
 1.61483e+01 -7.27383e+00 -2.85497e+00 
 1.65166e+01 -7.44429e+00 -2.54524e+00 
 1.68807e+01 -7.61178e+00 -2.23436e+00 
 1.72412e+01 -7.77651e+00 -1.92362e+00 
 1.75983e+01 -7.93871e+00 -1.61448e+00 
 1.79526e+01 -8.09881e+00 -1.30818e+00 
 1.83048e+01 -8.25726e+00 -1.00602e+00 
 1.86557e+01 -8.41469e+00 -7.09036e-01 
 1.90062e+01 -8.57177e+00 -4.18207e-01 
 1.93573e+01 -8.70925e+00 -6.09122e-02 
-1.91627e+01  8.62121e+00 -6.36154e-02 
-1.88077e+01  8.48222e+00 -4.25401e-01 
-1.84536e+01  8.32371e+00 -7.17002e-01 
-1.80998e+01  8.16530e+00 -1.01273e+00 
-1.77453e+01  8.00643e+00 -1.31189e+00 
-1.73896e+01  7.84655e+00 -1.61373e+00 
-1.70320e+01  7.68525e+00 -1.91730e+00 
-1.66719e+01  7.52214e+00 -2.22165e+00 
-1.63092e+01  7.35698e+00 -2.52567e+00 
-1.59432e+01  7.18955e+00 -2.82835e+00 
-1.55740e+01  7.01977e+00 -3.12855e+00 
-1.52013e+01  6.84756e+00 -3.42527e+00 
-1.48252e+01  6.67299e+00 -3.71747e+00 
-1.44455e+01  6.49609e+00 -4.00426e+00 
-1.40624e+01  6.31704e+00 -4.28471e+00 
-1.36760e+01  6.13597e+00 -4.55813e+00 
-1.32866e+01  5.95313e+00 -4.82377e+00 
-1.28943e+01  5.76871e+00 -5.08110e+00 
-1.24995e+01  5.58297e+00 -5.32961e+00 
-1.21022e+01  5.39614e+00 -5.56894e+00 
-1.17029e+01  5.20850e+00 -5.79877e+00 
-1.13017e+01  5.02026e+00 -6.01892e+00 
-1.08990e+01  4.83170e+00 -6.22923e+00 
-1.04950e+01  4.64299e+00 -6.42967e+00 
-1.00899e+01  4.45439e+00 -6.62022e+00 
-9.68409e+00  4.26604e+00 -6.80097e+00 
-9.27769e+00  4.07815e+00 -6.97199e+00 
-8.87086e+00  3.89084e+00 -7.13345e+00 
-8.46387e+00  3.70428e+00 -7.28552e+00 
-8.05679e+00  3.51853e+00 -7.42841e+00 
-7.64985e+00  3.33372e+00 -7.56232e+00 
-7.24308e+00  3.14988e+00 -7.68751e+00 
-6.83667e+00  2.96710e+00 -7.80419e+00 
-6.43062e+00  2.78538e+00 -7.91265e+00 
-6.02507e+00  2.60477e+00 -8.01309e+00 
-5.61999e+00  2.42524e+00 -8.10579e+00 
-5.21550e+00  2.24679e+00 -8.19096e+00 
-4.81153e+00  2.06939e+00 -8.26885e+00 
-4.40816e+00  1.89301e+00 -8.33965e+00 
-4.00532e+00  1.71758e+00 -8.40359e+00 
-3.60305e+00  1.54308e+00 -8.46084e+00 
-3.20127e+00  1.36939e+00 -8.51159e+00 
-2.80000e+00  1.19649e+00 -8.55598e+00 
-2.39913e+00  1.02425e+00 -8.59417e+00 
-1.99868e+00  8.52618e-01 -8.62627e+00 
-1.59852e+00  6.81474e-01 -8.65239e+00 
-1.19867e+00  5.10753e-01 -8.67262e+00 
-7.98979e-01  3.40323e-01 -8.68702e+00 
-3.99469e-01  1.70116e-01 -8.69563e+00 
 7.59542e-13 -3.09234e-12 -8.69850e+00 
 3.99469e-01 -1.70116e-01 -8.69563e+00 
 7.98979e-01 -3.40323e-01 -8.68702e+00 
 1.19867e+00 -5.10753e-01 -8.67262e+00 
 1.59852e+00 -6.81474e-01 -8.65239e+00 
 1.99868e+00 -8.52618e-01 -8.62627e+00 
 2.39913e+00 -1.02425e+00 -8.59417e+00 
 2.80000e+00 -1.19649e+00 -8.55598e+00 
 3.20127e+00 -1.36939e+00 -8.51159e+00 
 3.60305e+00 -1.54308e+00 -8.46084e+00 
 4.00532e+00 -1.71758e+00 -8.40359e+00 
 4.40816e+00 -1.89301e+00 -8.33965e+00 
 4.81153e+00 -2.06939e+00 -8.26885e+00 
 5.21550e+00 -2.24679e+00 -8.19096e+00 
 5.61999e+00 -2.42524e+00 -8.10579e+00 
 6.02507e+00 -2.60477e+00 -8.01309e+00 
 6.43062e+00 -2.78538e+00 -7.91265e+00 
 6.83667e+00 -2.96710e+00 -7.80419e+00 
 7.24308e+00 -3.14988e+00 -7.68751e+00 
 7.64985e+00 -3.33372e+00 -7.56232e+00 
 8.05679e+00 -3.51853e+00 -7.42841e+00 
 8.46387e+00 -3.70428e+00 -7.28552e+00 
 8.87086e+00 -3.89084e+00 -7.13345e+00 
 9.27769e+00 -4.07815e+00 -6.97199e+00 
 9.68409e+00 -4.26604e+00 -6.80097e+00 
 1.00899e+01 -4.45439e+00 -6.62022e+00 
 1.04950e+01 -4.64299e+00 -6.42967e+00 
 1.08990e+01 -4.83170e+00 -6.22923e+00 
 1.13017e+01 -5.02026e+00 -6.01892e+00 
 1.17029e+01 -5.20850e+00 -5.79877e+00 
 1.21022e+01 -5.39614e+00 -5.56894e+00 
 1.24995e+01 -5.58297e+00 -5.32961e+00 
 1.28943e+01 -5.76871e+00 -5.08110e+00 
 1.32866e+01 -5.95313e+00 -4.82377e+00 
 1.36760e+01 -6.13597e+00 -4.55813e+00 
 1.40624e+01 -6.31704e+00 -4.28471e+00 
 1.44455e+01 -6.49609e+00 -4.00426e+00 
 1.48252e+01 -6.67299e+00 -3.71747e+00 
 1.52013e+01 -6.84756e+00 -3.42527e+00 
 1.55740e+01 -7.01977e+00 -3.12855e+00 
 1.59432e+01 -7.18955e+00 -2.82835e+00 
 1.63092e+01 -7.35698e+00 -2.52567e+00 
 1.66719e+01 -7.52214e+00 -2.22165e+00 
 1.70320e+01 -7.68525e+00 -1.91730e+00 
 1.73896e+01 -7.84655e+00 -1.61373e+00 
 1.77453e+01 -8.00643e+00 -1.31189e+00 
 1.80998e+01 -8.16530e+00 -1.01273e+00 
 1.84536e+01 -8.32371e+00 -7.17002e-01 
 1.88077e+01 -8.48222e+00 -4.25401e-01 
 1.91627e+01 -8.62121e+00 -6.36154e-02 
-1.89651e+01  8.53188e+00 -6.60955e-02 
-1.86075e+01  8.39191e+00 -4.32998e-01 
-1.82512e+01  8.23247e+00 -7.26340e-01 
-1.78955e+01  8.07344e+00 -1.02210e+00 
-1.75397e+01  7.91434e+00 -1.31978e+00 
-1.71832e+01  7.75470e+00 -1.61886e+00 
-1.68255e+01  7.59415e+00 -1.91861e+00 
-1.64661e+01  7.43235e+00 -2.21835e+00 
-1.61048e+01  7.26905e+00 -2.51722e+00 
-1.57410e+01  7.10403e+00 -2.81442e+00 
-1.53747e+01  6.93719e+00 -3.10906e+00 
-1.50057e+01  6.76840e+00 -3.40034e+00 
-1.46339e+01  6.59769e+00 -3.68740e+00 
-1.42591e+01  6.42504e+00 -3.96949e+00 
-1.38816e+01  6.25055e+00 -4.24585e+00 
-1.35012e+01  6.07429e+00 -4.51584e+00 
-1.31182e+01  5.89644e+00 -4.77882e+00 
-1.27326e+01  5.71710e+00 -5.03431e+00 
-1.23448e+01  5.53650e+00 -5.28179e+00 
-1.19546e+01  5.35479e+00 -5.52094e+00 
-1.15626e+01  5.17218e+00 -5.75139e+00 
-1.11687e+01  4.98884e+00 -5.97295e+00 
-1.07734e+01  4.80499e+00 -6.18540e+00 
-1.03766e+01  4.62078e+00 -6.38867e+00 
-9.97875e+00  4.43643e+00 -6.58265e+00 
-9.57989e+00  4.25205e+00 -6.76738e+00 
-9.18031e+00  4.06784e+00 -6.94285e+00 
-8.78010e+00  3.88390e+00 -7.10917e+00 
-8.37949e+00  3.70037e+00 -7.26640e+00 
-7.97856e+00  3.51733e+00 -7.41471e+00 
-7.57752e+00  3.33490e+00 -7.55420e+00 
-7.17639e+00  3.15312e+00 -7.68509e+00 
-6.77536e+00  2.97208e+00 -7.80751e+00 
-6.37443e+00  2.79179e+00 -7.92167e+00 
-5.97375e+00  2.61231e+00 -8.02775e+00 
-5.57330e+00  2.43361e+00 -8.12595e+00 
-5.17319e+00  2.25574e+00 -8.21643e+00 
-4.77339e+00  2.07865e+00 -8.29940e+00 
-4.37397e+00  1.90235e+00 -8.37502e+00 
-3.97489e+00  1.72678e+00 -8.44348e+00 
-3.57620e+00  1.55193e+00 -8.50490e+00 
-3.17782e+00  1.37772e+00 -8.55946e+00 
-2.77981e+00  1.20413e+00 -8.60727e+00 
-2.38207e+00  1.03107e+00 -8.64846e+00 
-1.98464e+00  8.58486e-01 -8.68313e+00 
-1.58740e+00  6.86290e-01 -8.71138e+00 
-1.19039e+00  5.14437e-01 -8.73326e+00 
-7.93496e-01  3.42813e-01 -8.74886e+00 
-3.96737e-01  1.71371e-01 -8.75820e+00 
 6.97129e-13 -3.04901e-12 -8.76131e+00 
 3.96737e-01 -1.71371e-01 -8.75820e+00 
 7.93496e-01 -3.42813e-01 -8.74886e+00 
 1.19039e+00 -5.14437e-01 -8.73326e+00 
 1.58740e+00 -6.86290e-01 -8.71138e+00 
 1.98464e+00 -8.58486e-01 -8.68313e+00 
 2.38207e+00 -1.03107e+00 -8.64846e+00 
 2.77981e+00 -1.20413e+00 -8.60727e+00 
 3.17782e+00 -1.37772e+00 -8.55946e+00 
 3.57620e+00 -1.55193e+00 -8.50490e+00 
 3.97489e+00 -1.72678e+00 -8.44348e+00 
 4.37397e+00 -1.90235e+00 -8.37502e+00 
 4.77339e+00 -2.07865e+00 -8.29940e+00 
 5.17319e+00 -2.25574e+00 -8.21643e+00 
 5.57330e+00 -2.43361e+00 -8.12595e+00 
 5.97375e+00 -2.61231e+00 -8.02775e+00 
 6.37443e+00 -2.79179e+00 -7.92167e+00 
 6.77536e+00 -2.97208e+00 -7.80751e+00 
 7.17639e+00 -3.15312e+00 -7.68509e+00 
 7.57752e+00 -3.33490e+00 -7.55420e+00 
 7.97856e+00 -3.51733e+00 -7.41471e+00 
 8.37949e+00 -3.70037e+00 -7.26640e+00 
 8.78010e+00 -3.88390e+00 -7.10917e+00 
 9.18031e+00 -4.06784e+00 -6.94285e+00 
 9.57989e+00 -4.25205e+00 -6.76738e+00 
 9.97875e+00 -4.43643e+00 -6.58265e+00 
 1.03766e+01 -4.62078e+00 -6.38867e+00 
 1.07734e+01 -4.80499e+00 -6.18540e+00 
 1.11687e+01 -4.98884e+00 -5.97295e+00 
 1.15626e+01 -5.17218e+00 -5.75139e+00 
 1.19546e+01 -5.35479e+00 -5.52094e+00 
 1.23448e+01 -5.53650e+00 -5.28179e+00 
 1.27326e+01 -5.71710e+00 -5.03431e+00 
 1.31182e+01 -5.89644e+00 -4.77882e+00 
 1.35012e+01 -6.07429e+00 -4.51584e+00 
 1.38816e+01 -6.25055e+00 -4.24585e+00 
 1.42591e+01 -6.42504e+00 -3.96949e+00 
 1.46339e+01 -6.59769e+00 -3.68740e+00 
 1.50057e+01 -6.76840e+00 -3.40034e+00 
 1.53747e+01 -6.93719e+00 -3.10906e+00 
 1.57410e+01 -7.10403e+00 -2.81442e+00 
 1.61048e+01 -7.26905e+00 -2.51722e+00 
 1.64661e+01 -7.43235e+00 -2.21835e+00 
 1.68255e+01 -7.59415e+00 -1.91861e+00 
 1.71832e+01 -7.75470e+00 -1.61886e+00 
 1.75397e+01 -7.91434e+00 -1.31978e+00 
 1.78955e+01 -8.07344e+00 -1.02210e+00 
 1.82512e+01 -8.23247e+00 -7.26340e-01 
 1.86075e+01 -8.39191e+00 -4.32998e-01 
 1.89651e+01 -8.53188e+00 -6.60955e-02 
-1.87641e+01  8.44115e+00 -6.83611e-02 
-1.84052e+01  8.30066e+00 -4.40682e-01 
-1.80478e+01  8.14073e+00 -7.36386e-01 
-1.76912e+01  7.98140e+00 -1.03306e+00 
-1.73348e+01  7.82229e+00 -1.33035e+00 
-1.69782e+01  7.66297e+00 -1.62791e+00 
-1.66209e+01  7.50313e+00 -1.92520e+00 
-1.62625e+01  7.34244e+00 -2.22170e+00 
-1.59027e+01  7.18070e+00 -2.51676e+00 
-1.55411e+01  7.01767e+00 -2.80977e+00 
-1.51775e+01  6.85324e+00 -3.10001e+00 
-1.48118e+01  6.68728e+00 -3.38686e+00 
-1.44438e+01  6.51976e+00 -3.66959e+00 
-1.40735e+01  6.35063e+00 -3.94761e+00 
-1.37009e+01  6.17995e+00 -4.22026e+00 
-1.33258e+01  6.00774e+00 -4.48701e+00 
-1.29485e+01  5.83412e+00 -4.74728e+00 
-1.25690e+01  5.65915e+00 -5.00064e+00 
-1.21874e+01  5.48299e+00 -5.24662e+00 
-1.18038e+01  5.30574e+00 -5.48492e+00 
-1.14183e+01  5.12759e+00 -5.71516e+00 
-1.10312e+01  4.94863e+00 -5.93714e+00 
-1.06426e+01  4.76906e+00 -6.15062e+00 
-1.02526e+01  4.58899e+00 -6.35549e+00 
-9.86147e+00  4.40860e+00 -6.55161e+00 
-9.46925e+00  4.22799e+00 -6.73896e+00 
-9.07620e+00  4.04732e+00 -6.91747e+00 
-8.68239e+00  3.86668e+00 -7.08721e+00 
-8.28803e+00  3.68621e+00 -7.24817e+00 
-7.89316e+00  3.50597e+00 -7.40046e+00 
-7.49800e+00  3.32608e+00 -7.54413e+00 
-7.10255e+00  3.14657e+00 -7.67933e+00 
-6.70700e+00  2.96755e+00 -7.80615e+00 
-6.31136e+00  2.78900e+00 -7.92474e+00 
-5.91575e+00  2.61102e+00 -8.03522e+00 
-5.52018e+00  2.43358e+00 -8.13775e+00 
-5.12476e+00  2.25674e+00 -8.23245e+00 
-4.72945e+00  2.08046e+00 -8.31949e+00 
-4.33436e+00  1.90476e+00 -8.39899e+00 
-3.93943e+00  1.72960e+00 -8.47109e+00 
-3.54475e+00  1.55498e+00 -8.53590e+00 
-3.15023e+00  1.38084e+00 -8.59356e+00 
-2.75596e+00  1.20718e+00 -8.64417e+00 
-2.36183e+00  1.03391e+00 -8.68782e+00 
-1.96793e+00  8.61028e-01 -8.72461e+00 
-1.57413e+00  6.88434e-01 -8.75461e+00 
-1.18050e+00  5.16109e-01 -8.77787e+00 
-7.86928e-01  3.43958e-01 -8.79446e+00 
-3.93462e-01  1.71953e-01 -8.80439e+00 
 8.10094e-13 -2.98430e-12 -8.80770e+00 
 3.93462e-01 -1.71953e-01 -8.80439e+00 
 7.86928e-01 -3.43958e-01 -8.79446e+00 
 1.18050e+00 -5.16109e-01 -8.77787e+00 
 1.57413e+00 -6.88434e-01 -8.75461e+00 
 1.96793e+00 -8.61028e-01 -8.72461e+00 
 2.36183e+00 -1.03391e+00 -8.68782e+00 
 2.75596e+00 -1.20718e+00 -8.64417e+00 
 3.15023e+00 -1.38084e+00 -8.59356e+00 
 3.54475e+00 -1.55498e+00 -8.53590e+00 
 3.93943e+00 -1.72960e+00 -8.47109e+00 
 4.33436e+00 -1.90476e+00 -8.39899e+00 
 4.72945e+00 -2.08046e+00 -8.31949e+00 
 5.12476e+00 -2.25674e+00 -8.23245e+00 
 5.52018e+00 -2.43358e+00 -8.13775e+00 
 5.91575e+00 -2.61102e+00 -8.03522e+00 
 6.31136e+00 -2.78900e+00 -7.92474e+00 
 6.70700e+00 -2.96755e+00 -7.80615e+00 
 7.10255e+00 -3.14657e+00 -7.67933e+00 
 7.49800e+00 -3.32608e+00 -7.54413e+00 
 7.89316e+00 -3.50597e+00 -7.40046e+00 
 8.28803e+00 -3.68621e+00 -7.24817e+00 
 8.68239e+00 -3.86668e+00 -7.08721e+00 
 9.07620e+00 -4.04732e+00 -6.91747e+00 
 9.46925e+00 -4.22799e+00 -6.73896e+00 
 9.86147e+00 -4.40860e+00 -6.55161e+00 
 1.02526e+01 -4.58899e+00 -6.35549e+00 
 1.06426e+01 -4.76906e+00 -6.15062e+00 
 1.10312e+01 -4.94863e+00 -5.93714e+00 
 1.14183e+01 -5.12759e+00 -5.71516e+00 
 1.18038e+01 -5.30574e+00 -5.48492e+00 
 1.21874e+01 -5.48299e+00 -5.24662e+00 
 1.25690e+01 -5.65915e+00 -5.00064e+00 
 1.29485e+01 -5.83412e+00 -4.74728e+00 
 1.33258e+01 -6.00774e+00 -4.48701e+00 
 1.37009e+01 -6.17995e+00 -4.22026e+00 
 1.40735e+01 -6.35063e+00 -3.94761e+00 
 1.44438e+01 -6.51976e+00 -3.66959e+00 
 1.48118e+01 -6.68728e+00 -3.38686e+00 
 1.51775e+01 -6.85324e+00 -3.10001e+00 
 1.55411e+01 -7.01767e+00 -2.80977e+00 
 1.59027e+01 -7.18070e+00 -2.51676e+00 
 1.62625e+01 -7.34244e+00 -2.22170e+00 
 1.66209e+01 -7.50313e+00 -1.92520e+00 
 1.69782e+01 -7.66297e+00 -1.62791e+00 
 1.73348e+01 -7.82229e+00 -1.33035e+00 
 1.76912e+01 -7.98140e+00 -1.03306e+00 
 1.80478e+01 -8.14073e+00 -7.36386e-01 
 1.84052e+01 -8.30066e+00 -4.40682e-01 
 1.87641e+01 -8.44115e+00 -6.83611e-02 
-1.85598e+01  8.34901e+00 -7.04222e-02 
-1.82007e+01  8.20837e+00 -4.48233e-01 
-1.78430e+01  8.04832e+00 -7.46670e-01 
-1.74863e+01  7.88901e+00 -1.04485e+00 
-1.71301e+01  7.73009e+00 -1.34253e+00 
-1.67740e+01  7.57120e+00 -1.63948e+00 
-1.64176e+01  7.41208e+00 -1.93530e+00 
-1.60604e+01  7.25244e+00 -2.22963e+00 
-1.57023e+01  7.09206e+00 -2.52194e+00 
-1.53429e+01  6.93075e+00 -2.81179e+00 
-1.49820e+01  6.76837e+00 -3.09859e+00 
-1.46194e+01  6.60479e+00 -3.38186e+00 
-1.42551e+01  6.43996e+00 -3.66100e+00 
-1.38888e+01  6.27382e+00 -3.93555e+00 
-1.35206e+01  6.10638e+00 -4.20491e+00 
-1.31504e+01  5.93762e+00 -4.46868e+00 
-1.27783e+01  5.76763e+00 -4.72632e+00 
-1.24042e+01  5.59644e+00 -4.97747e+00 
-1.20284e+01  5.42415e+00 -5.22171e+00 
-1.16507e+01  5.25083e+00 -5.45874e+00 
-1.12714e+01  5.07662e+00 -5.68821e+00 
-1.08905e+01  4.90159e+00 -5.90993e+00 
-1.05081e+01  4.72590e+00 -6.12364e+00 
-1.01245e+01  4.54962e+00 -6.32921e+00 
-9.73966e+00  4.37291e+00 -6.52648e+00 
-9.35376e+00  4.19585e+00 -6.71539e+00 
-8.96696e+00  4.01857e+00 -6.89584e+00 
-8.57932e+00  3.84114e+00 -7.06785e+00 
-8.19103e+00  3.66369e+00 -7.23137e+00 
-7.80212e+00  3.48628e+00 -7.38647e+00 
-7.41277e+00  3.30901e+00 -7.53316e+00 
-7.02301e+00  3.13191e+00 -7.67152e+00 
-6.63299e+00  2.95508e+00 -7.80161e+00 
-6.24271e+00  2.77853e+00 -7.92353e+00 
-5.85232e+00  2.60233e+00 -8.03737e+00 
-5.46181e+00  2.42647e+00 -8.14323e+00 
-5.07129e+00  2.25101e+00 -8.24120e+00 
-4.68074e+00  2.07593e+00 -8.33142e+00 
-4.29026e+00  1.90126e+00 -8.41395e+00 
-3.89981e+00  1.72696e+00 -8.48893e+00 
-3.50947e+00  1.55306e+00 -8.55644e+00 
-3.11918e+00  1.37949e+00 -8.61657e+00 
-2.72903e+00  1.20628e+00 -8.66941e+00 
-2.33893e+00  1.03335e+00 -8.71505e+00 
-1.94897e+00  8.60702e-01 -8.75354e+00 
-1.55905e+00  6.88270e-01 -8.78495e+00 
-1.16924e+00  5.16042e-01 -8.80932e+00 
-7.79445e-01  3.43941e-01 -8.82671e+00 
-3.89727e-01  1.71953e-01 -8.83713e+00 
 8.92727e-13 -3.14116e-12 -8.84060e+00 
 3.89727e-01 -1.71953e-01 -8.83713e+00 
 7.79445e-01 -3.43941e-01 -8.82671e+00 
 1.16924e+00 -5.16042e-01 -8.80932e+00 
 1.55905e+00 -6.88270e-01 -8.78495e+00 
 1.94897e+00 -8.60702e-01 -8.75354e+00 
 2.33893e+00 -1.03335e+00 -8.71505e+00 
 2.72903e+00 -1.20628e+00 -8.66941e+00 
 3.11918e+00 -1.37949e+00 -8.61657e+00 
 3.50947e+00 -1.55306e+00 -8.55644e+00 
 3.89981e+00 -1.72696e+00 -8.48893e+00 
 4.29026e+00 -1.90126e+00 -8.41395e+00 
 4.68074e+00 -2.07593e+00 -8.33142e+00 
 5.07129e+00 -2.25101e+00 -8.24120e+00 
 5.46181e+00 -2.42647e+00 -8.14323e+00 
 5.85232e+00 -2.60233e+00 -8.03737e+00 
 6.24271e+00 -2.77853e+00 -7.92353e+00 
 6.63299e+00 -2.95508e+00 -7.80161e+00 
 7.02301e+00 -3.13191e+00 -7.67152e+00 
 7.41277e+00 -3.30901e+00 -7.53316e+00 
 7.80212e+00 -3.48628e+00 -7.38647e+00 
 8.19103e+00 -3.66369e+00 -7.23137e+00 
 8.57932e+00 -3.84114e+00 -7.06785e+00 
 8.96696e+00 -4.01857e+00 -6.89584e+00 
 9.35376e+00 -4.19585e+00 -6.71539e+00 
 9.73966e+00 -4.37291e+00 -6.52648e+00 
 1.01245e+01 -4.54962e+00 -6.32921e+00 
 1.05081e+01 -4.72590e+00 -6.12364e+00 
 1.08905e+01 -4.90159e+00 -5.90993e+00 
 1.12714e+01 -5.07662e+00 -5.68821e+00 
 1.16507e+01 -5.25083e+00 -5.45874e+00 
 1.20284e+01 -5.42415e+00 -5.22171e+00 
 1.24042e+01 -5.59644e+00 -4.97747e+00 
 1.27783e+01 -5.76763e+00 -4.72632e+00 
 1.31504e+01 -5.93762e+00 -4.46868e+00 
 1.35206e+01 -6.10638e+00 -4.20491e+00 
 1.38888e+01 -6.27382e+00 -3.93555e+00 
 1.42551e+01 -6.43996e+00 -3.66100e+00 
 1.46194e+01 -6.60479e+00 -3.38186e+00 
 1.49820e+01 -6.76837e+00 -3.09859e+00 
 1.53429e+01 -6.93075e+00 -2.81179e+00 
 1.57023e+01 -7.09206e+00 -2.52194e+00 
 1.60604e+01 -7.25244e+00 -2.22963e+00 
 1.64176e+01 -7.41208e+00 -1.93530e+00 
 1.67740e+01 -7.57120e+00 -1.63948e+00 
 1.71301e+01 -7.73009e+00 -1.34253e+00 
 1.74863e+01 -7.88901e+00 -1.04485e+00 
 1.78430e+01 -8.04832e+00 -7.46670e-01 
 1.82007e+01 -8.20837e+00 -4.48233e-01 
 1.85598e+01 -8.34901e+00 -7.04222e-02 
-1.83523e+01  8.25546e+00 -7.22902e-02 
-1.79937e+01  8.11500e+00 -4.55504e-01 
-1.76366e+01  7.95516e+00 -7.56865e-01 
-1.72805e+01  7.79612e+00 -1.05693e+00 
-1.69252e+01  7.63761e+00 -1.35552e+00 
-1.65700e+01  7.47929e+00 -1.65253e+00 
-1.62149e+01  7.32095e+00 -1.94763e+00 
-1.58593e+01  7.16231e+00 -2.24058e+00 
-1.55032e+01  7.00321e+00 -2.53097e+00 
-1.51460e+01  6.84343e+00 -2.81848e+00 
-1.47879e+01  6.68286e+00 -3.10263e+00 
-1.44283e+01  6.52136e+00 -3.38305e+00 
-1.40675e+01  6.35887e+00 -3.65925e+00 
-1.37050e+01  6.19530e+00 -3.93085e+00 
-1.33410e+01  6.03066e+00 -4.19737e+00 
-1.29753e+01  5.86490e+00 -4.45844e+00 
-1.26080e+01  5.69807e+00 -4.71362e+00 
-1.22390e+01  5.53018e+00 -4.96260e+00 
-1.18684e+01  5.36130e+00 -5.20499e+00 
-1.14962e+01  5.19147e+00 -5.44052e+00 
-1.11226e+01  5.02078e+00 -5.66888e+00 
-1.07475e+01  4.84930e+00 -5.88987e+00 
-1.03711e+01  4.67713e+00 -6.10324e+00 
-9.99337e+00  4.50433e+00 -6.30886e+00 
-9.61456e+00  4.33104e+00 -6.50653e+00 
-9.23467e+00  4.15730e+00 -6.69620e+00 
-8.85387e+00  3.98324e+00 -6.87774e+00 
-8.47219e+00  3.80891e+00 -7.05113e+00 
-8.08979e+00  3.63443e+00 -7.21629e+00 
-7.70671e+00  3.45982e+00 -7.37327e+00 
-7.32310e+00  3.28520e+00 -7.52201e+00 
-6.93898e+00  3.11060e+00 -7.66260e+00 
-6.55449e+00  2.93609e+00 -7.79502e+00 
-6.16963e+00  2.76169e+00 -7.91937e+00 
-5.78455e+00  2.58748e+00 -8.03567e+00 
-5.39921e+00  2.41346e+00 -8.14401e+00 
-5.01376e+00  2.23967e+00 -8.24444e+00 
-4.62815e+00  2.06610e+00 -8.33706e+00 
-4.24250e+00  1.89280e+00 -8.42192e+00 
-3.85677e+00  1.71973e+00 -8.49911e+00 
-3.47105e+00  1.54693e+00 -8.56870e+00 
-3.08528e+00  1.37435e+00 -8.63076e+00 
-2.69957e+00  1.20202e+00 -8.68534e+00 
-2.31383e+00  1.02988e+00 -8.73253e+00 
-1.92816e+00  8.57937e-01 -8.77235e+00 
-1.54247e+00  6.86141e-01 -8.80488e+00 
-1.15685e+00  5.14495e-01 -8.83013e+00 
-7.71203e-01  3.42932e-01 -8.84814e+00 
-3.85612e-01  1.71455e-01 -8.85894e+00 
 7.47523e-13 -2.90817e-12 -8.86254e+00 
 3.85612e-01 -1.71455e-01 -8.85894e+00 
 7.71203e-01 -3.42932e-01 -8.84814e+00 
 1.15685e+00 -5.14495e-01 -8.83013e+00 
 1.54247e+00 -6.86141e-01 -8.80488e+00 
 1.92816e+00 -8.57937e-01 -8.77235e+00 
 2.31383e+00 -1.02988e+00 -8.73253e+00 
 2.69957e+00 -1.20202e+00 -8.68534e+00 
 3.08528e+00 -1.37435e+00 -8.63076e+00 
 3.47105e+00 -1.54693e+00 -8.56870e+00 
 3.85677e+00 -1.71973e+00 -8.49911e+00 
 4.24250e+00 -1.89280e+00 -8.42192e+00 
 4.62815e+00 -2.06610e+00 -8.33706e+00 
 5.01376e+00 -2.23967e+00 -8.24444e+00 
 5.39921e+00 -2.41346e+00 -8.14401e+00 
 5.78455e+00 -2.58748e+00 -8.03567e+00 
 6.16963e+00 -2.76169e+00 -7.91937e+00 
 6.55449e+00 -2.93609e+00 -7.79502e+00 
 6.93898e+00 -3.11060e+00 -7.66260e+00 
 7.32310e+00 -3.28520e+00 -7.52201e+00 
 7.70671e+00 -3.45982e+00 -7.37327e+00 
 8.08979e+00 -3.63443e+00 -7.21629e+00 
 8.47219e+00 -3.80891e+00 -7.05113e+00 
 8.85387e+00 -3.98324e+00 -6.87774e+00 
 9.23467e+00 -4.15730e+00 -6.69620e+00 
 9.61456e+00 -4.33104e+00 -6.50653e+00 
 9.99337e+00 -4.50433e+00 -6.30886e+00 
 1.03711e+01 -4.67713e+00 -6.10324e+00 
 1.07475e+01 -4.84930e+00 -5.88987e+00 
 1.11226e+01 -5.02078e+00 -5.66888e+00 
 1.14962e+01 -5.19147e+00 -5.44052e+00 
 1.18684e+01 -5.36130e+00 -5.20499e+00 
 1.22390e+01 -5.53018e+00 -4.96260e+00 
 1.26080e+01 -5.69807e+00 -4.71362e+00 
 1.29753e+01 -5.86490e+00 -4.45844e+00 
 1.33410e+01 -6.03066e+00 -4.19737e+00 
 1.37050e+01 -6.19530e+00 -3.93085e+00 
 1.40675e+01 -6.35887e+00 -3.65925e+00 
 1.44283e+01 -6.52136e+00 -3.38305e+00 
 1.47879e+01 -6.68286e+00 -3.10263e+00 
 1.51460e+01 -6.84343e+00 -2.81848e+00 
 1.55032e+01 -7.00321e+00 -2.53097e+00 
 1.58593e+01 -7.16231e+00 -2.24058e+00 
 1.62149e+01 -7.32095e+00 -1.94763e+00 
 1.65700e+01 -7.47929e+00 -1.65253e+00 
 1.69252e+01 -7.63761e+00 -1.35552e+00 
 1.72805e+01 -7.79612e+00 -1.05693e+00 
 1.76366e+01 -7.95516e+00 -7.56865e-01 
 1.79937e+01 -8.11500e+00 -4.55504e-01 
 1.83523e+01 -8.25546e+00 -7.22902e-02 
-1.81416e+01  8.16056e+00 -7.39773e-02 
-1.77843e+01  8.02053e+00 -4.62400e-01 
-1.74284e+01  7.86119e+00 -7.66746e-01 
-1.70736e+01  7.70268e+00 -1.06891e+00 
-1.67196e+01  7.54476e+00 -1.36877e+00 
-1.63660e+01  7.38716e+00 -1.66629e+00 
-1.60125e+01  7.22967e+00 -1.96122e+00 
-1.56589e+01  7.07206e+00 -2.25340e+00 
-1.53049e+01  6.91418e+00 -2.54252e+00 
-1.49503e+01  6.75584e+00 -2.82834e+00 
-1.45948e+01  6.59692e+00 -3.11048e+00 
-1.42384e+01  6.43728e+00 -3.38866e+00 
-1.38809e+01  6.27687e+00 -3.66246e+00 
-1.35221e+01  6.11559e+00 -3.93160e+00 
-1.31621e+01  5.95342e+00 -4.19566e+00 
-1.28007e+01  5.79031e+00 -4.45434e+00 
-1.24379e+01  5.62628e+00 -4.70727e+00 
-1.20737e+01  5.46132e+00 -4.95418e+00 
-1.17081e+01  5.29548e+00 -5.19472e+00 
-1.13411e+01  5.12876e+00 -5.42866e+00 
-1.09727e+01  4.96126e+00 -5.65570e+00 
-1.06031e+01  4.79298e+00 -5.87566e+00 
-1.02323e+01  4.62404e+00 -6.08831e+00 
-9.86023e+00  4.45446e+00 -6.29350e+00 
-9.48714e+00  4.28434e+00 -6.49106e+00 
-9.11300e+00  4.11373e+00 -6.68089e+00 
-8.73797e+00  3.94273e+00 -6.86287e+00 
-8.36205e+00  3.77138e+00 -7.03694e+00 
-7.98539e+00  3.59977e+00 -7.20303e+00 
-7.60801e+00  3.42793e+00 -7.36113e+00 
-7.23005e+00  3.25597e+00 -7.51118e+00 
-6.85150e+00  3.08389e+00 -7.65322e+00 
-6.47252e+00  2.91179e+00 -7.78722e+00 
-6.09310e+00  2.73967e+00 -7.91323e+00 
-5.71336e+00  2.56760e+00 -8.03127e+00 
-5.33328e+00  2.39558e+00 -8.14137e+00 
-4.95300e+00  2.22368e+00 -8.24358e+00 
-4.57247e+00  2.05187e+00 -8.33796e+00 
-4.19181e+00  1.88021e+00 -8.42453e+00 
-3.81099e+00  1.70868e+00 -8.50337e+00 
-3.43010e+00  1.53730e+00 -8.57451e+00 
-3.04909e+00  1.36605e+00 -8.63802e+00 
-2.66805e+00  1.19495e+00 -8.69393e+00 
-2.28694e+00  1.02397e+00 -8.74229e+00 
-1.90584e+00  8.53121e-01 -8.78313e+00 
-1.52467e+00  6.82359e-01 -8.81651e+00 
-1.14353e+00  5.11699e-01 -8.84243e+00 
-7.62341e-01  3.41088e-01 -8.86093e+00 
-3.81186e-01  1.70539e-01 -8.87203e+00 
 4.62016e-13 -2.59359e-12 -8.87572e+00 
 3.81186e-01 -1.70539e-01 -8.87203e+00 
 7.62341e-01 -3.41088e-01 -8.86093e+00 
 1.14353e+00 -5.11699e-01 -8.84243e+00 
 1.52467e+00 -6.82359e-01 -8.81651e+00 
 1.90584e+00 -8.53121e-01 -8.78313e+00 
 2.28694e+00 -1.02397e+00 -8.74229e+00 
 2.66805e+00 -1.19495e+00 -8.69393e+00 
 3.04909e+00 -1.36605e+00 -8.63802e+00 
 3.43010e+00 -1.53730e+00 -8.57451e+00 
 3.81099e+00 -1.70868e+00 -8.50337e+00 
 4.19181e+00 -1.88021e+00 -8.42453e+00 
 4.57247e+00 -2.05187e+00 -8.33796e+00 
 4.95300e+00 -2.22368e+00 -8.24358e+00 
 5.33328e+00 -2.39558e+00 -8.14137e+00 
 5.71336e+00 -2.56760e+00 -8.03127e+00 
 6.09310e+00 -2.73967e+00 -7.91323e+00 
 6.47252e+00 -2.91179e+00 -7.78722e+00 
 6.85150e+00 -3.08389e+00 -7.65322e+00 
 7.23005e+00 -3.25597e+00 -7.51118e+00 
 7.60801e+00 -3.42793e+00 -7.36113e+00 
 7.98539e+00 -3.59977e+00 -7.20303e+00 
 8.36205e+00 -3.77138e+00 -7.03694e+00 
 8.73797e+00 -3.94273e+00 -6.86287e+00 
 9.11300e+00 -4.11373e+00 -6.68089e+00 
 9.48714e+00 -4.28434e+00 -6.49106e+00 
 9.86023e+00 -4.45446e+00 -6.29350e+00 
 1.02323e+01 -4.62404e+00 -6.08831e+00 
 1.06031e+01 -4.79298e+00 -5.87566e+00 
 1.09727e+01 -4.96126e+00 -5.65570e+00 
 1.13411e+01 -5.12876e+00 -5.42866e+00 
 1.17081e+01 -5.29548e+00 -5.19472e+00 
 1.20737e+01 -5.46132e+00 -4.95418e+00 
 1.24379e+01 -5.62628e+00 -4.70727e+00 
 1.28007e+01 -5.79031e+00 -4.45434e+00 
 1.31621e+01 -5.95342e+00 -4.19566e+00 
 1.35221e+01 -6.11559e+00 -3.93160e+00 
 1.38809e+01 -6.27687e+00 -3.66246e+00 
 1.42384e+01 -6.43728e+00 -3.38866e+00 
 1.45948e+01 -6.59692e+00 -3.11048e+00 
 1.49503e+01 -6.75584e+00 -2.82834e+00 
 1.53049e+01 -6.91418e+00 -2.54252e+00 
 1.56589e+01 -7.07206e+00 -2.25340e+00 
 1.60125e+01 -7.22967e+00 -1.96122e+00 
 1.63660e+01 -7.38716e+00 -1.66629e+00 
 1.67196e+01 -7.54476e+00 -1.36877e+00 
 1.70736e+01 -7.70268e+00 -1.06891e+00 
 1.74284e+01 -7.86119e+00 -7.66746e-01 
 1.77843e+01 -8.02053e+00 -4.62400e-01 
 1.81416e+01 -8.16056e+00 -7.39773e-02 
-1.79280e+01  8.06436e+00 -7.54957e-02 
-1.75726e+01  7.92501e+00 -4.68863e-01 
-1.72185e+01  7.76641e+00 -7.76162e-01 
-1.68655e+01  7.60863e+00 -1.08053e+00 
-1.65133e+01  7.45149e+00 -1.38188e+00 
-1.61616e+01  7.29473e+00 -1.68022e+00 
-1.58102e+01  7.13820e+00 -1.97537e+00 
-1.54588e+01  6.98167e+00 -2.26724e+00 
-1.51072e+01  6.82501e+00 -2.55558e+00 
-1.47552e+01  6.66805e+00 -2.84023e+00 
-1.44027e+01  6.51069e+00 -3.12087e+00 
-1.40494e+01  6.35278e+00 -3.39729e+00 
-1.36953e+01  6.19427e+00 -3.66917e+00 
-1.33401e+01  6.03506e+00 -3.93626e+00 
-1.29840e+01  5.87512e+00 -4.19823e+00 
-1.26266e+01  5.71439e+00 -4.45483e+00 
-1.22682e+01  5.55289e+00 -4.70573e+00 
-1.19085e+01  5.39057e+00 -4.95070e+00 
-1.15477e+01  5.22747e+00 -5.18945e+00 
-1.11856e+01  5.06359e+00 -5.42178e+00 
-1.08223e+01  4.89898e+00 -5.64741e+00 
-1.04579e+01  4.73365e+00 -5.86617e+00 
-1.00924e+01  4.56767e+00 -6.07785e+00 
-9.72576e+00  4.40107e+00 -6.28230e+00 
-9.35815e+00  4.23393e+00 -6.47936e+00 
-8.98955e+00  4.06627e+00 -6.66892e+00 
-8.62009e+00  3.89817e+00 -6.85085e+00 
-8.24975e+00  3.72967e+00 -7.02510e+00 
-7.87868e+00  3.56085e+00 -7.19155e+00 
-7.50687e+00  3.39173e+00 -7.35019e+00 
-7.13446e+00  3.22240e+00 -7.50096e+00 
-6.76143e+00  3.05287e+00 -7.64384e+00 
-6.38793e+00  2.88321e+00 -7.77881e+00 
-6.01392e+00  2.71344e+00 -7.90589e+00 
-5.63954e+00  2.54363e+00 -8.02505e+00 
-5.26477e+00  2.37376e+00 -8.13634e+00 
-4.88972e+00  2.20390e+00 -8.23976e+00 
-4.51437e+00  2.03405e+00 -8.33536e+00 
-4.13883e+00  1.86424e+00 -8.42313e+00 
-3.76305e+00  1.69447e+00 -8.50314e+00 
-3.38714e+00  1.52478e+00 -8.57540e+00 
-3.01106e+00  1.35513e+00 -8.63995e+00 
-2.63491e+00  1.18556e+00 -8.69682e+00 
-2.25863e+00  1.01604e+00 -8.74604e+00 
-1.88231e+00  8.46605e-01 -8.78764e+00 
-1.50589e+00  6.77204e-01 -8.82164e+00 
-1.12947e+00  5.07867e-01 -8.84806e+00 
-7.52981e-01  3.38550e-01 -8.86692e+00 
-3.76509e-01  1.69275e-01 -8.87823e+00 
 6.15140e-13 -2.72322e-12 -8.88200e+00 
 3.76509e-01 -1.69275e-01 -8.87823e+00 
 7.52981e-01 -3.38550e-01 -8.86692e+00 
 1.12947e+00 -5.07867e-01 -8.84806e+00 
 1.50589e+00 -6.77204e-01 -8.82164e+00 
 1.88231e+00 -8.46605e-01 -8.78764e+00 
 2.25863e+00 -1.01604e+00 -8.74604e+00 
 2.63491e+00 -1.18556e+00 -8.69682e+00 
 3.01106e+00 -1.35513e+00 -8.63995e+00 
 3.38714e+00 -1.52478e+00 -8.57540e+00 
 3.76305e+00 -1.69447e+00 -8.50314e+00 
 4.13883e+00 -1.86424e+00 -8.42313e+00 
 4.51437e+00 -2.03405e+00 -8.33536e+00 
 4.88972e+00 -2.20390e+00 -8.23976e+00 
 5.26477e+00 -2.37376e+00 -8.13634e+00 
 5.63954e+00 -2.54363e+00 -8.02505e+00 
 6.01392e+00 -2.71344e+00 -7.90589e+00 
 6.38793e+00 -2.88321e+00 -7.77881e+00 
 6.76143e+00 -3.05287e+00 -7.64384e+00 
 7.13446e+00 -3.22240e+00 -7.50096e+00 
 7.50687e+00 -3.39173e+00 -7.35019e+00 
 7.87868e+00 -3.56085e+00 -7.19155e+00 
 8.24975e+00 -3.72967e+00 -7.02510e+00 
 8.62009e+00 -3.89817e+00 -6.85085e+00 
 8.98955e+00 -4.06627e+00 -6.66892e+00 
 9.35815e+00 -4.23393e+00 -6.47936e+00 
 9.72576e+00 -4.40107e+00 -6.28230e+00 
 1.00924e+01 -4.56767e+00 -6.07785e+00 
 1.04579e+01 -4.73365e+00 -5.86617e+00 
 1.08223e+01 -4.89898e+00 -5.64741e+00 
 1.11856e+01 -5.06359e+00 -5.42178e+00 
 1.15477e+01 -5.22747e+00 -5.18945e+00 
 1.19085e+01 -5.39057e+00 -4.95070e+00 
 1.22682e+01 -5.55289e+00 -4.70573e+00 
 1.26266e+01 -5.71439e+00 -4.45483e+00 
 1.29840e+01 -5.87512e+00 -4.19823e+00 
 1.33401e+01 -6.03506e+00 -3.93626e+00 
 1.36953e+01 -6.19427e+00 -3.66917e+00 
 1.40494e+01 -6.35278e+00 -3.39729e+00 
 1.44027e+01 -6.51069e+00 -3.12087e+00 
 1.47552e+01 -6.66805e+00 -2.84023e+00 
 1.51072e+01 -6.82501e+00 -2.55558e+00 
 1.54588e+01 -6.98167e+00 -2.26724e+00 
 1.58102e+01 -7.13820e+00 -1.97537e+00 
 1.61616e+01 -7.29473e+00 -1.68022e+00 
 1.65133e+01 -7.45149e+00 -1.38188e+00 
 1.68655e+01 -7.60863e+00 -1.08053e+00 
 1.72185e+01 -7.76641e+00 -7.76162e-01 
 1.75726e+01 -7.92501e+00 -4.68863e-01 
 1.79280e+01 -8.06436e+00 -7.54957e-02 
-1.77117e+01  7.96695e+00 -7.68578e-02 
-1.73586e+01  7.82847e+00 -4.74861e-01 
-1.70068e+01  7.67082e+00 -7.85021e-01 
-1.66560e+01  7.51397e+00 -1.09160e+00 
-1.63061e+01  7.35777e+00 -1.39456e+00 
-1.59567e+01  7.20200e+00 -1.69393e+00 
-1.56077e+01  7.04651e+00 -1.98958e+00 
-1.52588e+01  6.89112e+00 -2.28148e+00 
-1.49099e+01  6.73572e+00 -2.56941e+00 
-1.45607e+01  6.58012e+00 -2.85328e+00 
-1.42112e+01  6.42426e+00 -3.13283e+00 
-1.38611e+01  6.26800e+00 -3.40791e+00 
-1.35104e+01  6.11127e+00 -3.67825e+00 
-1.31589e+01  5.95398e+00 -3.94365e+00 
-1.28066e+01  5.79611e+00 -4.20385e+00 
-1.24533e+01  5.63757e+00 -4.45863e+00 
-1.20990e+01  5.47838e+00 -4.70773e+00 
-1.17438e+01  5.31848e+00 -4.95094e+00 
-1.13875e+01  5.15790e+00 -5.18801e+00 
-1.10301e+01  4.99662e+00 -5.41876e+00 
-1.06718e+01  4.83468e+00 -5.64294e+00 
-1.03123e+01  4.67207e+00 -5.86042e+00 
-9.95193e+00  4.50886e+00 -6.07098e+00 
-9.59051e+00  4.34504e+00 -6.27450e+00 
-9.22820e+00  4.18069e+00 -6.47079e+00 
-8.86495e+00  4.01582e+00 -6.65978e+00 
-8.50088e+00  3.85050e+00 -6.84132e+00 
-8.13598e+00  3.68474e+00 -7.01535e+00 
-7.77036e+00  3.51862e+00 -7.18175e+00 
-7.40401e+00  3.35216e+00 -7.34050e+00 
-7.03706e+00  3.18543e+00 -7.49151e+00 
-6.66948e+00  3.01844e+00 -7.63477e+00 
-6.30139e+00  2.85125e+00 -7.77022e+00 
-5.93278e+00  2.68388e+00 -7.89788e+00 
-5.56376e+00  2.51638e+00 -8.01770e+00 
-5.19431e+00  2.34876e+00 -8.12971e+00 
-4.82454e+00  2.18108e+00 -8.23388e+00 
-4.45443e+00  2.01332e+00 -8.33025e+00 
-4.08407e+00  1.84554e+00 -8.41881e+00 
-3.71344e+00  1.67772e+00 -8.49960e+00 
-3.34264e+00  1.50990e+00 -8.57261e+00 
-2.97163e+00  1.34207e+00 -8.63787e+00 
-2.60049e+00  1.17427e+00 -8.69540e+00 
-2.22920e+00  1.00647e+00 -8.74521e+00 
-1.85783e+00  8.38695e-01 -8.78733e+00 
-1.48635e+00  6.70924e-01 -8.82177e+00 
-1.11483e+00  5.03185e-01 -8.84854e+00 
-7.43232e-01  3.35442e-01 -8.86766e+00 
-3.71637e-01  1.67725e-01 -8.87912e+00 
 3.25882e-13 -2.14174e-12 -8.88294e+00 
 3.71637e-01 -1.67725e-01 -8.87912e+00 
 7.43232e-01 -3.35442e-01 -8.86766e+00 
 1.11483e+00 -5.03185e-01 -8.84854e+00 
 1.48635e+00 -6.70924e-01 -8.82177e+00 
 1.85783e+00 -8.38695e-01 -8.78733e+00 
 2.22920e+00 -1.00647e+00 -8.74521e+00 
 2.60049e+00 -1.17427e+00 -8.69540e+00 
 2.97163e+00 -1.34207e+00 -8.63787e+00 
 3.34264e+00 -1.50990e+00 -8.57261e+00 
 3.71344e+00 -1.67772e+00 -8.49960e+00 
 4.08407e+00 -1.84554e+00 -8.41881e+00 
 4.45443e+00 -2.01332e+00 -8.33025e+00 
 4.82454e+00 -2.18108e+00 -8.23388e+00 
 5.19431e+00 -2.34876e+00 -8.12971e+00 
 5.56376e+00 -2.51638e+00 -8.01770e+00 
 5.93278e+00 -2.68388e+00 -7.89788e+00 
 6.30139e+00 -2.85125e+00 -7.77022e+00 
 6.66948e+00 -3.01844e+00 -7.63477e+00 
 7.03706e+00 -3.18543e+00 -7.49151e+00 
 7.40401e+00 -3.35216e+00 -7.34050e+00 
 7.77036e+00 -3.51862e+00 -7.18175e+00 
 8.13598e+00 -3.68474e+00 -7.01535e+00 
 8.50088e+00 -3.85050e+00 -6.84132e+00 
 8.86495e+00 -4.01582e+00 -6.65978e+00 
 9.22820e+00 -4.18069e+00 -6.47079e+00 
 9.59051e+00 -4.34504e+00 -6.27450e+00 
 9.95193e+00 -4.50886e+00 -6.07098e+00 
 1.03123e+01 -4.67207e+00 -5.86042e+00 
 1.06718e+01 -4.83468e+00 -5.64294e+00 
 1.10301e+01 -4.99662e+00 -5.41876e+00 
 1.13875e+01 -5.15790e+00 -5.18801e+00 
 1.17438e+01 -5.31848e+00 -4.95094e+00 
 1.20990e+01 -5.47838e+00 -4.70773e+00 
 1.24533e+01 -5.63757e+00 -4.45863e+00 
 1.28066e+01 -5.79611e+00 -4.20385e+00 
 1.31589e+01 -5.95398e+00 -3.94365e+00 
 1.35104e+01 -6.11127e+00 -3.67825e+00 
 1.38611e+01 -6.26800e+00 -3.40791e+00 
 1.42112e+01 -6.42426e+00 -3.13283e+00 
 1.45607e+01 -6.58012e+00 -2.85328e+00 
 1.49099e+01 -6.73572e+00 -2.56941e+00 
 1.52588e+01 -6.89112e+00 -2.28148e+00 
 1.56077e+01 -7.04651e+00 -1.98958e+00 
 1.59567e+01 -7.20200e+00 -1.69393e+00 
 1.63061e+01 -7.35777e+00 -1.39456e+00 
 1.66560e+01 -7.51397e+00 -1.09160e+00 
 1.70068e+01 -7.67082e+00 -7.85021e-01 
 1.73586e+01 -7.82847e+00 -4.74861e-01 
 1.77117e+01 -7.96695e+00 -7.68578e-02 
-1.74928e+01  7.86841e+00 -7.80759e-02 
-1.71424e+01  7.73096e+00 -4.80383e-01 
-1.67933e+01  7.57444e+00 -7.93267e-01 
-1.64452e+01  7.41870e+00 -1.10203e+00 
-1.60979e+01  7.26358e+00 -1.40663e+00 
-1.57511e+01  7.10892e+00 -1.70716e+00 
-1.54048e+01  6.95459e+00 -2.00350e+00 
-1.50588e+01  6.80041e+00 -2.29565e+00 
-1.47127e+01  6.64630e+00 -2.58345e+00 
-1.43666e+01  6.49209e+00 -2.86685e+00 
-1.40202e+01  6.33772e+00 -3.14563e+00 
-1.36735e+01  6.18305e+00 -3.41970e+00 
-1.33262e+01  6.02803e+00 -3.68882e+00 
-1.29784e+01  5.87257e+00 -3.95285e+00 
-1.26298e+01  5.71664e+00 -4.21155e+00 
-1.22805e+01  5.56016e+00 -4.46478e+00 
-1.19304e+01  5.40312e+00 -4.71228e+00 
-1.15795e+01  5.24547e+00 -4.95390e+00 
-1.12277e+01  5.08724e+00 -5.18941e+00 
-1.08749e+01  4.92838e+00 -5.41866e+00 
-1.05213e+01  4.76893e+00 -5.64143e+00 
-1.01667e+01  4.60887e+00 -5.85760e+00 
-9.81126e+00  4.44824e+00 -6.06696e+00 
-9.45490e+00  4.28705e+00 -6.26942e+00 
-9.09771e+00  4.12534e+00 -6.46479e+00 
-8.73967e+00  3.96313e+00 -6.65300e+00 
-8.38086e+00  3.80046e+00 -6.83391e+00 
-8.02126e+00  3.63735e+00 -7.00744e+00 
-7.66098e+00  3.47385e+00 -7.17349e+00 
-7.29999e+00  3.30999e+00 -7.33201e+00 
-6.93840e+00  3.14582e+00 -7.48292e+00 
-6.57620e+00  2.98135e+00 -7.62619e+00 
-6.21348e+00  2.81663e+00 -7.76176e+00 
-5.85023e+00  2.65169e+00 -7.88962e+00 
-5.48655e+00  2.48656e+00 -8.00972e+00 
-5.12243e+00  2.32126e+00 -8.12207e+00 
-4.75796e+00  2.15583e+00 -8.22663e+00 
-4.39312e+00  1.99027e+00 -8.32343e+00 
-4.02801e+00  1.82464e+00 -8.41244e+00 
-3.66259e+00  1.65891e+00 -8.49368e+00 
-3.29698e+00  1.49314e+00 -8.56714e+00 
-2.93112e+00  1.32731e+00 -8.63284e+00 
-2.56511e+00  1.16146e+00 -8.69078e+00 
-2.19892e+00  9.95560e-01 -8.74098e+00 
-1.83264e+00  8.29662e-01 -8.78343e+00 
-1.46622e+00  6.63734e-01 -8.81815e+00 
-1.09975e+00  4.97814e-01 -8.84515e+00 
-7.33184e-01  3.31872e-01 -8.86443e+00 
-3.66615e-01  1.65943e-01 -8.87600e+00 
-4.20088e-13 -1.02314e-12 -8.87985e+00 
 3.66615e-01 -1.65943e-01 -8.87600e+00 
 7.33184e-01 -3.31872e-01 -8.86443e+00 
 1.09975e+00 -4.97814e-01 -8.84515e+00 
 1.46622e+00 -6.63734e-01 -8.81815e+00 
 1.83264e+00 -8.29662e-01 -8.78343e+00 
 2.19892e+00 -9.95560e-01 -8.74098e+00 
 2.56511e+00 -1.16146e+00 -8.69078e+00 
 2.93112e+00 -1.32731e+00 -8.63284e+00 
 3.29698e+00 -1.49314e+00 -8.56714e+00 
 3.66259e+00 -1.65891e+00 -8.49368e+00 
 4.02801e+00 -1.82464e+00 -8.41244e+00 
 4.39312e+00 -1.99027e+00 -8.32343e+00 
 4.75796e+00 -2.15583e+00 -8.22663e+00 
 5.12243e+00 -2.32126e+00 -8.12207e+00 
 5.48655e+00 -2.48656e+00 -8.00972e+00 
 5.85023e+00 -2.65169e+00 -7.88962e+00 
 6.21348e+00 -2.81663e+00 -7.76176e+00 
 6.57620e+00 -2.98135e+00 -7.62619e+00 
 6.93840e+00 -3.14582e+00 -7.48292e+00 
 7.29999e+00 -3.30999e+00 -7.33201e+00 
 7.66098e+00 -3.47385e+00 -7.17349e+00 
 8.02126e+00 -3.63735e+00 -7.00744e+00 
 8.38086e+00 -3.80046e+00 -6.83391e+00 
 8.73967e+00 -3.96313e+00 -6.65300e+00 
 9.09771e+00 -4.12534e+00 -6.46479e+00 
 9.45490e+00 -4.28705e+00 -6.26942e+00 
 9.81126e+00 -4.44824e+00 -6.06696e+00 
 1.01667e+01 -4.60887e+00 -5.85760e+00 
 1.05213e+01 -4.76893e+00 -5.64143e+00 
 1.08749e+01 -4.92838e+00 -5.41866e+00 
 1.12277e+01 -5.08724e+00 -5.18941e+00 
 1.15795e+01 -5.24547e+00 -4.95390e+00 
 1.19304e+01 -5.40312e+00 -4.71228e+00 
 1.22805e+01 -5.56016e+00 -4.46478e+00 
 1.26298e+01 -5.71664e+00 -4.21155e+00 
 1.29784e+01 -5.87257e+00 -3.95285e+00 
 1.33262e+01 -6.02803e+00 -3.68882e+00 
 1.36735e+01 -6.18305e+00 -3.41970e+00 
 1.40202e+01 -6.33772e+00 -3.14563e+00 
 1.43666e+01 -6.49209e+00 -2.86685e+00 
 1.47127e+01 -6.64630e+00 -2.58345e+00 
 1.50588e+01 -6.80041e+00 -2.29565e+00 
 1.54048e+01 -6.95459e+00 -2.00350e+00 
 1.57511e+01 -7.10892e+00 -1.70716e+00 
 1.60979e+01 -7.26358e+00 -1.40663e+00 
 1.64452e+01 -7.41870e+00 -1.10203e+00 
 1.67933e+01 -7.57444e+00 -7.93267e-01 
 1.71424e+01 -7.73096e+00 -4.80383e-01 
 1.74928e+01 -7.86841e+00 -7.80759e-02 
-1.72715e+01  7.76883e+00 -7.91619e-02 
-1.69243e+01  7.63256e+00 -4.85432e-01 
-1.65782e+01  7.47733e+00 -8.00877e-01 
-1.62330e+01  7.32282e+00 -1.11173e+00 
-1.58887e+01  7.16894e+00 -1.41798e+00 
-1.55449e+01  7.01550e+00 -1.71972e+00 
-1.52016e+01  6.86242e+00 -2.01686e+00 
-1.48585e+01  6.70954e+00 -2.30944e+00 
-1.45156e+01  6.55677e+00 -2.59732e+00 
-1.41727e+01  6.40398e+00 -2.88048e+00 
-1.38296e+01  6.25110e+00 -3.15875e+00 
-1.34863e+01  6.09801e+00 -3.43206e+00 
-1.31426e+01  5.94467e+00 -3.70022e+00 
-1.27984e+01  5.79097e+00 -3.96314e+00 
-1.24538e+01  5.63690e+00 -4.22060e+00 
-1.21084e+01  5.48237e+00 -4.47249e+00 
-1.17625e+01  5.32738e+00 -4.71859e+00 
-1.14157e+01  5.17187e+00 -4.95879e+00 
-1.10683e+01  5.01585e+00 -5.19287e+00 
-1.07201e+01  4.85927e+00 -5.42072e+00 
-1.03711e+01  4.70217e+00 -5.64213e+00 
-1.00212e+01  4.54452e+00 -5.85701e+00 
-9.67064e+00  4.38635e+00 -6.06516e+00 
-9.31921e+00  4.22765e+00 -6.26650e+00 
-8.96704e+00  4.06846e+00 -6.46085e+00 
-8.61408e+00  3.90879e+00 -6.64816e+00 
-8.26041e+00  3.74867e+00 -6.82826e+00 
-7.90601e+00  3.58811e+00 -7.00111e+00 
-7.55097e+00  3.42717e+00 -7.16659e+00 
-7.19524e+00  3.26585e+00 -7.32466e+00 
-6.83895e+00  3.10420e+00 -7.47521e+00 
-6.48205e+00  2.94222e+00 -7.61822e+00 
-6.12465e+00  2.77998e+00 -7.75362e+00 
-5.76672e+00  2.61746e+00 -7.88140e+00 
-5.40837e+00  2.45474e+00 -8.00149e+00 
-5.04955e+00  2.29180e+00 -8.11389e+00 
-4.69039e+00  2.12869e+00 -8.21856e+00 
-4.33083e+00  1.96542e+00 -8.31550e+00 
-3.97100e+00  1.80202e+00 -8.40469e+00 
-3.61084e+00  1.63850e+00 -8.48614e+00 
-3.25046e+00  1.47489e+00 -8.55981e+00 
-2.88982e+00  1.31118e+00 -8.62574e+00 
-2.52903e+00  1.14743e+00 -8.68389e+00 
-2.16802e+00  9.83594e-01 -8.73429e+00 
-1.80692e+00  8.19733e-01 -8.77692e+00 
-1.44565e+00  6.55820e-01 -8.81181e+00 
-1.08434e+00  4.91895e-01 -8.83893e+00 
-7.22914e-01  3.27934e-01 -8.85831e+00 
-3.61482e-01  1.63976e-01 -8.86993e+00 
-1.11793e-12 -4.95200e-14 -8.87381e+00 
 3.61482e-01 -1.63976e-01 -8.86993e+00 
 7.22914e-01 -3.27934e-01 -8.85831e+00 
 1.08434e+00 -4.91895e-01 -8.83893e+00 
 1.44565e+00 -6.55820e-01 -8.81181e+00 
 1.80692e+00 -8.19733e-01 -8.77692e+00 
 2.16802e+00 -9.83594e-01 -8.73429e+00 
 2.52903e+00 -1.14743e+00 -8.68389e+00 
 2.88982e+00 -1.31118e+00 -8.62574e+00 
 3.25046e+00 -1.47489e+00 -8.55981e+00 
 3.61084e+00 -1.63850e+00 -8.48614e+00 
 3.97100e+00 -1.80202e+00 -8.40469e+00 
 4.33083e+00 -1.96542e+00 -8.31550e+00 
 4.69039e+00 -2.12869e+00 -8.21856e+00 
 5.04955e+00 -2.29180e+00 -8.11389e+00 
 5.40837e+00 -2.45474e+00 -8.00149e+00 
 5.76672e+00 -2.61746e+00 -7.88140e+00 
 6.12465e+00 -2.77998e+00 -7.75362e+00 
 6.48205e+00 -2.94222e+00 -7.61822e+00 
 6.83895e+00 -3.10420e+00 -7.47521e+00 
 7.19524e+00 -3.26585e+00 -7.32466e+00 
 7.55097e+00 -3.42717e+00 -7.16659e+00 
 7.90601e+00 -3.58811e+00 -7.00111e+00 
 8.26041e+00 -3.74867e+00 -6.82826e+00 
 8.61408e+00 -3.90879e+00 -6.64816e+00 
 8.96704e+00 -4.06846e+00 -6.46085e+00 
 9.31921e+00 -4.22765e+00 -6.26650e+00 
 9.67064e+00 -4.38635e+00 -6.06516e+00 
 1.00212e+01 -4.54452e+00 -5.85701e+00 
 1.03711e+01 -4.70217e+00 -5.64213e+00 
 1.07201e+01 -4.85927e+00 -5.42072e+00 
 1.10683e+01 -5.01585e+00 -5.19287e+00 
 1.14157e+01 -5.17187e+00 -4.95879e+00 
 1.17625e+01 -5.32738e+00 -4.71859e+00 
 1.21084e+01 -5.48237e+00 -4.47249e+00 
 1.24538e+01 -5.63690e+00 -4.22060e+00 
 1.27984e+01 -5.79097e+00 -3.96314e+00 
 1.31426e+01 -5.94467e+00 -3.70022e+00 
 1.34863e+01 -6.09801e+00 -3.43206e+00 
 1.38296e+01 -6.25110e+00 -3.15875e+00 
 1.41727e+01 -6.40398e+00 -2.88048e+00 
 1.45156e+01 -6.55677e+00 -2.59732e+00 
 1.48585e+01 -6.70954e+00 -2.30944e+00 
 1.52016e+01 -6.86242e+00 -2.01686e+00 
 1.55449e+01 -7.01550e+00 -1.71972e+00 
 1.58887e+01 -7.16894e+00 -1.41798e+00 
 1.62330e+01 -7.32282e+00 -1.11173e+00 
 1.65782e+01 -7.47733e+00 -8.00877e-01 
 1.69243e+01 -7.63256e+00 -4.85432e-01 
 1.72715e+01 -7.76883e+00 -7.91619e-02 
-1.70481e+01  7.66829e+00 -8.01273e-02 
-1.67043e+01  7.53332e+00 -4.90022e-01 
-1.63615e+01  7.37951e+00 -8.07849e-01 
-1.60196e+01  7.22639e+00 -1.12069e+00 
-1.56785e+01  7.07385e+00 -1.42854e+00 
-1.53379e+01  6.92175e+00 -1.73150e+00 
-1.49979e+01  6.77001e+00 -2.02951e+00 
-1.46581e+01  6.61850e+00 -2.32262e+00 
-1.43185e+01  6.46714e+00 -2.61072e+00 
-1.39789e+01  6.31581e+00 -2.89382e+00 
-1.36393e+01  6.16444e+00 -3.17177e+00 
-1.32995e+01  6.01294e+00 -3.44454e+00 
-1.29595e+01  5.86125e+00 -3.71197e+00 
-1.26191e+01  5.70929e+00 -3.97398e+00 
-1.22783e+01  5.55703e+00 -4.23041e+00 
-1.19369e+01  5.40439e+00 -4.48116e+00 
-1.15951e+01  5.25137e+00 -4.72604e+00 
-1.12526e+01  5.09790e+00 -4.96497e+00 
-1.09095e+01  4.94400e+00 -5.19776e+00 
-1.05657e+01  4.78961e+00 -5.42432e+00 
-1.02213e+01  4.63475e+00 -5.64446e+00 
-9.87611e+00  4.47939e+00 -5.85809e+00 
-9.53026e+00  4.32357e+00 -6.06505e+00 
-9.18368e+00  4.16726e+00 -6.26525e+00 
-8.83643e+00  4.01050e+00 -6.45855e+00 
-8.48845e+00  3.85327e+00 -6.64488e+00 
-8.13984e+00  3.69562e+00 -6.82409e+00 
-7.79054e+00  3.53754e+00 -6.99614e+00 
-7.44065e+00  3.37909e+00 -7.16090e+00 
-7.09012e+00  3.22025e+00 -7.31834e+00 
-6.73905e+00  3.06108e+00 -7.46835e+00 
-6.38740e+00  2.90157e+00 -7.61091e+00 
-6.03526e+00  2.74178e+00 -7.74594e+00 
-5.68261e+00  2.58171e+00 -7.87342e+00 
-5.32955e+00  2.42139e+00 -7.99328e+00 
-4.97603e+00  2.26084e+00 -8.10552e+00 
-4.62216e+00  2.10010e+00 -8.21007e+00 
-4.26790e+00  1.93916e+00 -8.30695e+00 
-3.91335e+00  1.77808e+00 -8.39612e+00 
-3.55847e+00  1.61684e+00 -8.47757e+00 
-3.20336e+00  1.45548e+00 -8.55127e+00 
-2.84799e+00  1.29401e+00 -8.61724e+00 
-2.49245e+00  1.13245e+00 -8.67546e+00 
-2.13669e+00  9.70804e-01 -8.72592e+00 
-1.78082e+00  8.09106e-01 -8.76862e+00 
-1.42478e+00  6.47339e-01 -8.80356e+00 
-1.06869e+00  4.85547e-01 -8.83074e+00 
-7.12486e-01  3.23708e-01 -8.85015e+00 
-3.56268e-01  1.61865e-01 -8.86180e+00 
-1.34863e-12  8.55726e-13 -8.86568e+00 
 3.56268e-01 -1.61865e-01 -8.86180e+00 
 7.12486e-01 -3.23708e-01 -8.85015e+00 
 1.06869e+00 -4.85547e-01 -8.83074e+00 
 1.42478e+00 -6.47339e-01 -8.80356e+00 
 1.78082e+00 -8.09106e-01 -8.76862e+00 
 2.13669e+00 -9.70804e-01 -8.72592e+00 
 2.49245e+00 -1.13245e+00 -8.67546e+00 
 2.84799e+00 -1.29401e+00 -8.61724e+00 
 3.20336e+00 -1.45548e+00 -8.55127e+00 
 3.55847e+00 -1.61684e+00 -8.47757e+00 
 3.91335e+00 -1.77808e+00 -8.39612e+00 
 4.26790e+00 -1.93916e+00 -8.30695e+00 
 4.62216e+00 -2.10010e+00 -8.21007e+00 
 4.97603e+00 -2.26084e+00 -8.10552e+00 
 5.32955e+00 -2.42139e+00 -7.99328e+00 
 5.68261e+00 -2.58171e+00 -7.87342e+00 
 6.03526e+00 -2.74178e+00 -7.74594e+00 
 6.38740e+00 -2.90157e+00 -7.61091e+00 
 6.73905e+00 -3.06108e+00 -7.46835e+00 
 7.09012e+00 -3.22025e+00 -7.31834e+00 
 7.44065e+00 -3.37909e+00 -7.16090e+00 
 7.79054e+00 -3.53754e+00 -6.99614e+00 
 8.13984e+00 -3.69562e+00 -6.82409e+00 
 8.48845e+00 -3.85327e+00 -6.64488e+00 
 8.83643e+00 -4.01050e+00 -6.45855e+00 
 9.18368e+00 -4.16726e+00 -6.26525e+00 
 9.53026e+00 -4.32357e+00 -6.06505e+00 
 9.87611e+00 -4.47939e+00 -5.85809e+00 
 1.02213e+01 -4.63475e+00 -5.64446e+00 
 1.05657e+01 -4.78961e+00 -5.42432e+00 
 1.09095e+01 -4.94400e+00 -5.19776e+00 
 1.12526e+01 -5.09790e+00 -4.96497e+00 
 1.15951e+01 -5.25137e+00 -4.72604e+00 
 1.19369e+01 -5.40439e+00 -4.48116e+00 
 1.22783e+01 -5.55703e+00 -4.23041e+00 
 1.26191e+01 -5.70929e+00 -3.97398e+00 
 1.29595e+01 -5.86125e+00 -3.71197e+00 
 1.32995e+01 -6.01294e+00 -3.44454e+00 
 1.36393e+01 -6.16444e+00 -3.17177e+00 
 1.39789e+01 -6.31581e+00 -2.89382e+00 
 1.43185e+01 -6.46714e+00 -2.61072e+00 
 1.46581e+01 -6.61850e+00 -2.32262e+00 
 1.49979e+01 -6.77001e+00 -2.02951e+00 
 1.53379e+01 -6.92175e+00 -1.73150e+00 
 1.56785e+01 -7.07385e+00 -1.42854e+00 
 1.60196e+01 -7.22639e+00 -1.12069e+00 
 1.63615e+01 -7.37951e+00 -8.07849e-01 
 1.67043e+01 -7.53332e+00 -4.90022e-01 
 1.70481e+01 -7.66829e+00 -8.01273e-02 
-1.68227e+01  7.56689e+00 -8.09829e-02 
-1.64826e+01  7.43331e+00 -4.94171e-01 
-1.61434e+01  7.28105e+00 -8.14195e-01 
-1.58050e+01  7.12941e+00 -1.12890e+00 
-1.54674e+01  6.97833e+00 -1.43827e+00 
-1.51302e+01  6.82767e+00 -1.74244e+00 
-1.47936e+01  6.67737e+00 -2.04134e+00 
-1.44573e+01  6.52730e+00 -2.33505e+00 
-1.41212e+01  6.37741e+00 -2.62347e+00 
-1.37851e+01  6.22759e+00 -2.90664e+00 
-1.34491e+01  6.07777e+00 -3.18442e+00 
-1.31130e+01  5.92787e+00 -3.45682e+00 
-1.27767e+01  5.77784e+00 -3.72368e+00 
-1.24402e+01  5.62760e+00 -3.98497e+00 
-1.21033e+01  5.47713e+00 -4.24054e+00 
-1.17660e+01  5.32634e+00 -4.49032e+00 
-1.14283e+01  5.17524e+00 -4.73416e+00 
-1.10900e+01  5.02376e+00 -4.97197e+00 
-1.07513e+01  4.87190e+00 -5.20360e+00 
-1.04119e+01  4.71962e+00 -5.42898e+00 
-1.00720e+01  4.56693e+00 -5.64793e+00 
-9.73141e+00  4.41379e+00 -5.86039e+00 
-9.39026e+00  4.26023e+00 -6.06619e+00 
-9.04845e+00  4.10622e+00 -6.26529e+00 
-8.70605e+00  3.95180e+00 -6.45752e+00 
-8.36299e+00  3.79695e+00 -6.64284e+00 
-8.01936e+00  3.64170e+00 -6.82111e+00 
-7.67510e+00  3.48603e+00 -6.99228e+00 
-7.33029e+00  3.33001e+00 -7.15624e+00 
-6.98488e+00  3.17361e+00 -7.31295e+00 
-6.63897e+00  3.01688e+00 -7.46231e+00 
-6.29251e+00  2.85981e+00 -7.60428e+00 
-5.94560e+00  2.70246e+00 -7.73879e+00 
-5.59819e+00  2.54481e+00 -7.86582e+00 
-5.25038e+00  2.38692e+00 -7.98530e+00 
-4.90213e+00  2.22878e+00 -8.09721e+00 
-4.55354e+00  2.07043e+00 -8.20149e+00 
-4.20456e+00  1.91186e+00 -8.29815e+00 
-3.85530e+00  1.75313e+00 -8.38713e+00 
-3.50571e+00  1.59423e+00 -8.46843e+00 
-3.15589e+00  1.43520e+00 -8.54203e+00 
-2.80580e+00  1.27603e+00 -8.60792e+00 
-2.45554e+00  1.11676e+00 -8.66607e+00 
-2.10506e+00  9.57383e-01 -8.71649e+00 
-1.75447e+00  7.97944e-01 -8.75916e+00 
-1.40371e+00  6.38424e-01 -8.79408e+00 
-1.05289e+00  4.78869e-01 -8.82125e+00 
-7.01952e-01  3.19260e-01 -8.84066e+00 
-3.51002e-01  1.59642e-01 -8.85230e+00 
-2.00301e-12  1.71434e-12 -8.85618e+00 
 3.51002e-01 -1.59642e-01 -8.85230e+00 
 7.01952e-01 -3.19260e-01 -8.84066e+00 
 1.05289e+00 -4.78869e-01 -8.82125e+00 
 1.40371e+00 -6.38424e-01 -8.79408e+00 
 1.75447e+00 -7.97944e-01 -8.75916e+00 
 2.10506e+00 -9.57383e-01 -8.71649e+00 
 2.45554e+00 -1.11676e+00 -8.66607e+00 
 2.80580e+00 -1.27603e+00 -8.60792e+00 
 3.15589e+00 -1.43520e+00 -8.54203e+00 
 3.50571e+00 -1.59423e+00 -8.46843e+00 
 3.85530e+00 -1.75313e+00 -8.38713e+00 
 4.20456e+00 -1.91186e+00 -8.29815e+00 
 4.55354e+00 -2.07043e+00 -8.20149e+00 
 4.90213e+00 -2.22878e+00 -8.09721e+00 
 5.25038e+00 -2.38692e+00 -7.98530e+00 
 5.59819e+00 -2.54481e+00 -7.86582e+00 
 5.94560e+00 -2.70246e+00 -7.73879e+00 
 6.29251e+00 -2.85981e+00 -7.60428e+00 
 6.63897e+00 -3.01688e+00 -7.46231e+00 
 6.98488e+00 -3.17361e+00 -7.31295e+00 
 7.33029e+00 -3.33001e+00 -7.15624e+00 
 7.67510e+00 -3.48603e+00 -6.99228e+00 
 8.01936e+00 -3.64170e+00 -6.82111e+00 
 8.36299e+00 -3.79695e+00 -6.64284e+00 
 8.70605e+00 -3.95180e+00 -6.45752e+00 
 9.04845e+00 -4.10622e+00 -6.26529e+00 
 9.39026e+00 -4.26023e+00 -6.06619e+00 
 9.73141e+00 -4.41379e+00 -5.86039e+00 
 1.00720e+01 -4.56693e+00 -5.64793e+00 
 1.04119e+01 -4.71962e+00 -5.42898e+00 
 1.07513e+01 -4.87190e+00 -5.20360e+00 
 1.10900e+01 -5.02376e+00 -4.97197e+00 
 1.14283e+01 -5.17524e+00 -4.73416e+00 
 1.17660e+01 -5.32634e+00 -4.49032e+00 
 1.21033e+01 -5.47713e+00 -4.24054e+00 
 1.24402e+01 -5.62760e+00 -3.98497e+00 
 1.27767e+01 -5.77784e+00 -3.72368e+00 
 1.31130e+01 -5.92787e+00 -3.45682e+00 
 1.34491e+01 -6.07777e+00 -3.18442e+00 
 1.37851e+01 -6.22759e+00 -2.90664e+00 
 1.41212e+01 -6.37741e+00 -2.62347e+00 
 1.44573e+01 -6.52730e+00 -2.33505e+00 
 1.47936e+01 -6.67737e+00 -2.04134e+00 
 1.51302e+01 -6.82767e+00 -1.74244e+00 
 1.54674e+01 -6.97833e+00 -1.43827e+00 
 1.58050e+01 -7.12941e+00 -1.12890e+00 
 1.61434e+01 -7.28105e+00 -8.14195e-01 
 1.64826e+01 -7.43331e+00 -4.94171e-01 
 1.68227e+01 -7.56689e+00 -8.09829e-02 
-1.65956e+01  7.46470e+00 -8.17392e-02 
-1.62593e+01  7.33260e+00 -4.97904e-01 
-1.59239e+01  7.18199e+00 -8.19939e-01 
-1.55893e+01  7.03194e+00 -1.13636e+00 
-1.52553e+01  6.88241e+00 -1.44718e+00 
-1.49218e+01  6.73328e+00 -1.75251e+00 
-1.45888e+01  6.58450e+00 -2.05230e+00 
-1.42561e+01  6.43595e+00 -2.34664e+00 
-1.39237e+01  6.28760e+00 -2.63545e+00 
-1.35913e+01  6.13933e+00 -2.91877e+00 
-1.32591e+01  5.99110e+00 -3.19650e+00 
-1.29267e+01  5.84283e+00 -3.46865e+00 
-1.25943e+01  5.69448e+00 -3.73509e+00 
-1.22617e+01  5.54596e+00 -3.99582e+00 
-1.19288e+01  5.39727e+00 -4.25068e+00 
-1.15956e+01  5.24832e+00 -4.49964e+00 
-1.12620e+01  5.09910e+00 -4.74257e+00 
-1.09280e+01  4.94957e+00 -4.97940e+00 
-1.05936e+01  4.79971e+00 -5.21000e+00 
-1.02586e+01  4.64949e+00 -5.43430e+00 
-9.92320e+00  4.49890e+00 -5.65216e+00 
-9.58722e+00  4.34792e+00 -5.86353e+00 
-9.25072e+00  4.19656e+00 -6.06825e+00 
-8.91364e+00  4.04480e+00 -6.26627e+00 
-8.57603e+00  3.89266e+00 -6.45747e+00 
-8.23784e+00  3.74011e+00 -6.64178e+00 
-7.89913e+00  3.58720e+00 -6.81909e+00 
-7.55984e+00  3.43390e+00 -6.98936e+00 
-7.22006e+00  3.28026e+00 -7.15247e+00 
-6.87972e+00  3.12625e+00 -7.30838e+00 
-6.53892e+00  2.97193e+00 -7.45701e+00 
-6.19761e+00  2.81728e+00 -7.59831e+00 
-5.85587e+00  2.66235e+00 -7.73222e+00 
-5.51366e+00  2.50712e+00 -7.85869e+00 
-5.17108e+00  2.35164e+00 -7.97767e+00 
-4.82807e+00  2.19590e+00 -8.08914e+00 
-4.48473e+00  2.03996e+00 -8.19304e+00 
-4.14102e+00  1.88379e+00 -8.28935e+00 
-3.79704e+00  1.72745e+00 -8.37804e+00 
-3.45273e+00  1.57093e+00 -8.45909e+00 
-3.10821e+00  1.41426e+00 -8.53247e+00 
-2.76341e+00  1.25745e+00 -8.59818e+00 
-2.41845e+00  1.10053e+00 -8.65618e+00 
-2.07327e+00  9.43492e-01 -8.70648e+00 
-1.72797e+00  7.86382e-01 -8.74905e+00 
-1.38252e+00  6.29185e-01 -8.78390e+00 
-1.03699e+00  4.71945e-01 -8.81100e+00 
-6.91355e-01  3.14647e-01 -8.83037e+00 
-3.45703e-01  1.57337e-01 -8.84199e+00 
-2.70185e-12  2.85935e-12 -8.84586e+00 
 3.45703e-01 -1.57337e-01 -8.84199e+00 
 6.91355e-01 -3.14647e-01 -8.83037e+00 
 1.03699e+00 -4.71945e-01 -8.81100e+00 
 1.38252e+00 -6.29185e-01 -8.78390e+00 
 1.72797e+00 -7.86382e-01 -8.74905e+00 
 2.07327e+00 -9.43492e-01 -8.70648e+00 
 2.41845e+00 -1.10053e+00 -8.65618e+00 
 2.76341e+00 -1.25745e+00 -8.59818e+00 
 3.10821e+00 -1.41426e+00 -8.53247e+00 
 3.45273e+00 -1.57093e+00 -8.45909e+00 
 3.79704e+00 -1.72745e+00 -8.37804e+00 
 4.14102e+00 -1.88379e+00 -8.28935e+00 
 4.48473e+00 -2.03996e+00 -8.19304e+00 
 4.82807e+00 -2.19590e+00 -8.08914e+00 
 5.17108e+00 -2.35164e+00 -7.97767e+00 
 5.51366e+00 -2.50712e+00 -7.85869e+00 
 5.85587e+00 -2.66235e+00 -7.73222e+00 
 6.19761e+00 -2.81728e+00 -7.59831e+00 
 6.53892e+00 -2.97193e+00 -7.45701e+00 
 6.87972e+00 -3.12625e+00 -7.30838e+00 
 7.22006e+00 -3.28026e+00 -7.15247e+00 
 7.55984e+00 -3.43390e+00 -6.98936e+00 
 7.89913e+00 -3.58720e+00 -6.81909e+00 
 8.23784e+00 -3.74011e+00 -6.64178e+00 
 8.57603e+00 -3.89266e+00 -6.45747e+00 
 8.91364e+00 -4.04480e+00 -6.26627e+00 
 9.25072e+00 -4.19656e+00 -6.06825e+00 
 9.58722e+00 -4.34792e+00 -5.86353e+00 
 9.92320e+00 -4.49890e+00 -5.65216e+00 
 1.02586e+01 -4.64949e+00 -5.43430e+00 
 1.05936e+01 -4.79971e+00 -5.21000e+00 
 1.09280e+01 -4.94957e+00 -4.97940e+00 
 1.12620e+01 -5.09910e+00 -4.74257e+00 
 1.15956e+01 -5.24832e+00 -4.49964e+00 
 1.19288e+01 -5.39727e+00 -4.25068e+00 
 1.22617e+01 -5.54596e+00 -3.99582e+00 
 1.25943e+01 -5.69448e+00 -3.73509e+00 
 1.29267e+01 -5.84283e+00 -3.46865e+00 
 1.32591e+01 -5.99110e+00 -3.19650e+00 
 1.35913e+01 -6.13933e+00 -2.91877e+00 
 1.39237e+01 -6.28760e+00 -2.63545e+00 
 1.42561e+01 -6.43595e+00 -2.34664e+00 
 1.45888e+01 -6.58450e+00 -2.05230e+00 
 1.49218e+01 -6.73328e+00 -1.75251e+00 
 1.52553e+01 -6.88241e+00 -1.44718e+00 
 1.55893e+01 -7.03194e+00 -1.13636e+00 
 1.59239e+01 -7.18199e+00 -8.19939e-01 
 1.62593e+01 -7.33260e+00 -4.97904e-01 
 1.65956e+01 -7.46470e+00 -8.17392e-02 
-1.63668e+01  7.36180e+00 -8.24058e-02 
-1.60346e+01  7.23127e+00 -5.01248e-01 
-1.57032e+01  7.08238e+00 -8.25112e-01 
-1.53725e+01  6.93401e+00 -1.14312e+00 
-1.50424e+01  6.78611e+00 -1.45529e+00 
-1.47127e+01  6.63860e+00 -1.76171e+00 
-1.43835e+01  6.49141e+00 -2.06238e+00 
-1.40546e+01  6.34446e+00 -2.35735e+00 
-1.37260e+01  6.19770e+00 -2.64659e+00 
-1.33975e+01  6.05104e+00 -2.93013e+00 
-1.30691e+01  5.90445e+00 -3.20789e+00 
-1.27407e+01  5.75784e+00 -3.47989e+00 
-1.24122e+01  5.61119e+00 -3.74602e+00 
-1.20835e+01  5.46441e+00 -4.00629e+00 
-1.17547e+01  5.31750e+00 -4.26058e+00 
-1.14256e+01  5.17038e+00 -4.50886e+00 
-1.10963e+01  5.02304e+00 -4.75100e+00 
-1.07665e+01  4.87543e+00 -4.98698e+00 
-1.04364e+01  4.72754e+00 -5.21666e+00 
-1.01059e+01  4.57934e+00 -5.44000e+00 
-9.77498e+00  4.43082e+00 -5.65687e+00 
-9.44355e+00  4.28195e+00 -5.86722e+00 
-9.11169e+00  4.13275e+00 -6.07092e+00 
-8.77930e+00  3.98318e+00 -6.26793e+00 
-8.44646e+00  3.83327e+00 -6.45813e+00 
-8.11309e+00  3.68299e+00 -6.64147e+00 
-7.77926e+00  3.53237e+00 -6.81784e+00 
-7.44490e+00  3.38139e+00 -6.98720e+00 
-7.11010e+00  3.23009e+00 -7.14945e+00 
-6.77479e+00  3.07844e+00 -7.30454e+00 
-6.43906e+00  2.92650e+00 -7.45240e+00 
-6.10285e+00  2.77423e+00 -7.59298e+00 
-5.76624e+00  2.62170e+00 -7.72621e+00 
-5.42920e+00  2.46887e+00 -7.85207e+00 
-5.09181e+00  2.31580e+00 -7.97049e+00 
-4.75401e+00  2.16248e+00 -8.08144e+00 
-4.41590e+00  2.00895e+00 -8.18487e+00 
-4.07745e+00  1.85519e+00 -8.28077e+00 
-3.73872e+00  1.70126e+00 -8.36909e+00 
-3.39969e+00  1.54713e+00 -8.44981e+00 
-3.06045e+00  1.39287e+00 -8.52290e+00 
-2.72095e+00  1.23845e+00 -8.58836e+00 
-2.38128e+00  1.08392e+00 -8.64614e+00 
-2.04140e+00  9.29264e-01 -8.69626e+00 
-1.70141e+00  7.74533e-01 -8.73868e+00 
-1.36126e+00  6.19711e-01 -8.77341e+00 
-1.02105e+00  4.64843e-01 -8.80042e+00 
-6.80727e-01  3.09914e-01 -8.81973e+00 
-3.40389e-01  1.54970e-01 -8.83131e+00 
-2.75321e-12  2.89298e-12 -8.83517e+00 
 3.40389e-01 -1.54970e-01 -8.83131e+00 
 6.80727e-01 -3.09914e-01 -8.81973e+00 
 1.02105e+00 -4.64843e-01 -8.80042e+00 
 1.36126e+00 -6.19711e-01 -8.77341e+00 
 1.70141e+00 -7.74533e-01 -8.73868e+00 
 2.04140e+00 -9.29264e-01 -8.69626e+00 
 2.38128e+00 -1.08392e+00 -8.64614e+00 
 2.72095e+00 -1.23845e+00 -8.58836e+00 
 3.06045e+00 -1.39287e+00 -8.52290e+00 
 3.39969e+00 -1.54713e+00 -8.44981e+00 
 3.73872e+00 -1.70126e+00 -8.36909e+00 
 4.07745e+00 -1.85519e+00 -8.28077e+00 
 4.41590e+00 -2.00895e+00 -8.18487e+00 
 4.75401e+00 -2.16248e+00 -8.08144e+00 
 5.09181e+00 -2.31580e+00 -7.97049e+00 
 5.42920e+00 -2.46887e+00 -7.85207e+00 
 5.76624e+00 -2.62170e+00 -7.72621e+00 
 6.10285e+00 -2.77423e+00 -7.59298e+00 
 6.43906e+00 -2.92650e+00 -7.45240e+00 
 6.77479e+00 -3.07844e+00 -7.30454e+00 
 7.11010e+00 -3.23009e+00 -7.14945e+00 
 7.44490e+00 -3.38139e+00 -6.98720e+00 
 7.77926e+00 -3.53237e+00 -6.81784e+00 
 8.11309e+00 -3.68299e+00 -6.64147e+00 
 8.44646e+00 -3.83327e+00 -6.45813e+00 
 8.77930e+00 -3.98318e+00 -6.26793e+00 
 9.11169e+00 -4.13275e+00 -6.07092e+00 
 9.44355e+00 -4.28195e+00 -5.86722e+00 
 9.77498e+00 -4.43082e+00 -5.65687e+00 
 1.01059e+01 -4.57934e+00 -5.44000e+00 
 1.04364e+01 -4.72754e+00 -5.21666e+00 
 1.07665e+01 -4.87543e+00 -4.98698e+00 
 1.10963e+01 -5.02304e+00 -4.75100e+00 
 1.14256e+01 -5.17038e+00 -4.50886e+00 
 1.17547e+01 -5.31750e+00 -4.26058e+00 
 1.20835e+01 -5.46441e+00 -4.00629e+00 
 1.24122e+01 -5.61119e+00 -3.74602e+00 
 1.27407e+01 -5.75784e+00 -3.47989e+00 
 1.30691e+01 -5.90445e+00 -3.20789e+00 
 1.33975e+01 -6.05104e+00 -2.93013e+00 
 1.37260e+01 -6.19770e+00 -2.64659e+00 
 1.40546e+01 -6.34446e+00 -2.35735e+00 
 1.43835e+01 -6.49141e+00 -2.06238e+00 
 1.47127e+01 -6.63860e+00 -1.76171e+00 
 1.50424e+01 -6.78611e+00 -1.45529e+00 
 1.53725e+01 -6.93401e+00 -1.14312e+00 
 1.57032e+01 -7.08238e+00 -8.25112e-01 
 1.60346e+01 -7.23127e+00 -5.01248e-01 
 1.63668e+01 -7.36180e+00 -8.24058e-02 
-1.61367e+01  7.25827e+00 -8.29917e-02 
-1.58087e+01  7.12935e+00 -5.04232e-01 
-1.54814e+01  6.98227e+00 -8.29750e-01 
-1.51548e+01  6.83565e+00 -1.14921e+00 
-1.48287e+01  6.68947e+00 -1.46261e+00 
-1.45030e+01  6.54364e+00 -1.77007e+00 
-1.41778e+01  6.39812e+00 -2.07157e+00 
-1.38528e+01  6.25283e+00 -2.36718e+00 
-1.35281e+01  6.10773e+00 -2.65685e+00 
-1.32035e+01  5.96273e+00 -2.94065e+00 
-1.28791e+01  5.81782e+00 -3.21850e+00 
-1.25547e+01  5.67291e+00 -3.49043e+00 
-1.22302e+01  5.52799e+00 -3.75635e+00 
-1.19057e+01  5.38297e+00 -4.01626e+00 
-1.15810e+01  5.23785e+00 -4.27008e+00 
-1.12561e+01  5.09256e+00 -4.51778e+00 
-1.09310e+01  4.94710e+00 -4.75925e+00 
-1.06055e+01  4.80140e+00 -4.99449e+00 
-1.02798e+01  4.65548e+00 -5.22335e+00 
-9.95373e+00  4.50927e+00 -5.44583e+00 
-9.62730e+00  4.36280e+00 -5.66180e+00 
-9.30043e+00  4.21601e+00 -5.87123e+00 
-8.97318e+00  4.06893e+00 -6.07399e+00 
-8.64548e+00  3.92152e+00 -6.27006e+00 
-8.31738e+00  3.77380e+00 -6.45931e+00 
-7.98880e+00  3.62574e+00 -6.64172e+00 
-7.65981e+00  3.47738e+00 -6.81718e+00 
-7.33036e+00  3.32868e+00 -6.98566e+00 
-7.00050e+00  3.17969e+00 -7.14705e+00 
-6.67018e+00  3.03038e+00 -7.30132e+00 
-6.33948e+00  2.88078e+00 -7.44840e+00 
-6.00834e+00  2.73088e+00 -7.58824e+00 
-5.67683e+00  2.58072e+00 -7.72078e+00 
-5.34492e+00  2.43029e+00 -7.84599e+00 
-5.01269e+00  2.27962e+00 -7.96380e+00 
-4.68007e+00  2.12870e+00 -8.07420e+00 
-4.34718e+00  1.97757e+00 -8.17712e+00 
-4.01394e+00  1.82623e+00 -8.27255e+00 
-3.68046e+00  1.67471e+00 -8.36044e+00 
-3.34669e+00  1.52301e+00 -8.44078e+00 
-3.01271e+00  1.37116e+00 -8.51354e+00 
-2.67849e+00  1.21916e+00 -8.57869e+00 
-2.34411e+00  1.06704e+00 -8.63622e+00 
-2.00953e+00  9.14804e-01 -8.68612e+00 
-1.67485e+00  7.62486e-01 -8.72836e+00 
-1.34001e+00  6.10075e-01 -8.76293e+00 
-1.00510e+00  4.57617e-01 -8.78983e+00 
-6.70095e-01  3.05098e-01 -8.80905e+00 
-3.35072e-01  1.52562e-01 -8.82059e+00 
-2.52656e-12  2.73673e-12 -8.82443e+00 
 3.35072e-01 -1.52562e-01 -8.82059e+00 
 6.70095e-01 -3.05098e-01 -8.80905e+00 
 1.00510e+00 -4.57617e-01 -8.78983e+00 
 1.34001e+00 -6.10075e-01 -8.76293e+00 
 1.67485e+00 -7.62486e-01 -8.72836e+00 
 2.00953e+00 -9.14804e-01 -8.68612e+00 
 2.34411e+00 -1.06704e+00 -8.63622e+00 
 2.67849e+00 -1.21916e+00 -8.57869e+00 
 3.01271e+00 -1.37116e+00 -8.51354e+00 
 3.34669e+00 -1.52301e+00 -8.44078e+00 
 3.68046e+00 -1.67471e+00 -8.36044e+00 
 4.01394e+00 -1.82623e+00 -8.27255e+00 
 4.34718e+00 -1.97757e+00 -8.17712e+00 
 4.68007e+00 -2.12870e+00 -8.07420e+00 
 5.01269e+00 -2.27962e+00 -7.96380e+00 
 5.34492e+00 -2.43029e+00 -7.84599e+00 
 5.67683e+00 -2.58072e+00 -7.72078e+00 
 6.00834e+00 -2.73088e+00 -7.58824e+00 
 6.33948e+00 -2.88078e+00 -7.44840e+00 
 6.67018e+00 -3.03038e+00 -7.30132e+00 
 7.00050e+00 -3.17969e+00 -7.14705e+00 
 7.33036e+00 -3.32868e+00 -6.98566e+00 
 7.65981e+00 -3.47738e+00 -6.81718e+00 
 7.98880e+00 -3.62574e+00 -6.64172e+00 
 8.31738e+00 -3.77380e+00 -6.45931e+00 
 8.64548e+00 -3.92152e+00 -6.27006e+00 
 8.97318e+00 -4.06893e+00 -6.07399e+00 
 9.30043e+00 -4.21601e+00 -5.87123e+00 
 9.62730e+00 -4.36280e+00 -5.66180e+00 
 9.95373e+00 -4.50927e+00 -5.44583e+00 
 1.02798e+01 -4.65548e+00 -5.22335e+00 
 1.06055e+01 -4.80140e+00 -4.99449e+00 
 1.09310e+01 -4.94710e+00 -4.75925e+00 
 1.12561e+01 -5.09256e+00 -4.51778e+00 
 1.15810e+01 -5.23785e+00 -4.27008e+00 
 1.19057e+01 -5.38297e+00 -4.01626e+00 
 1.22302e+01 -5.52799e+00 -3.75635e+00 
 1.25547e+01 -5.67291e+00 -3.49043e+00 
 1.28791e+01 -5.81782e+00 -3.21850e+00 
 1.32035e+01 -5.96273e+00 -2.94065e+00 
 1.35281e+01 -6.10773e+00 -2.65685e+00 
 1.38528e+01 -6.25283e+00 -2.36718e+00 
 1.41778e+01 -6.39812e+00 -2.07157e+00 
 1.45030e+01 -6.54364e+00 -1.77007e+00 
 1.48287e+01 -6.68947e+00 -1.46261e+00 
 1.51548e+01 -6.83565e+00 -1.14921e+00 
 1.54814e+01 -6.98227e+00 -8.29750e-01 
 1.58087e+01 -7.12935e+00 -5.04232e-01 
 1.61367e+01 -7.25827e+00 -8.29917e-02 
-1.59053e+01  7.15417e+00 -8.35053e-02 
-1.55816e+01  7.02693e+00 -5.06884e-01 
-1.52586e+01  6.88171e+00 -8.33889e-01 
-1.49361e+01  6.73691e+00 -1.15466e+00 
-1.46142e+01  6.59252e+00 -1.46920e+00 
-1.42926e+01  6.44843e+00 -1.77762e+00 
-1.39715e+01  6.30465e+00 -2.07990e+00 
-1.36506e+01  6.16107e+00 -2.37612e+00 
-1.33300e+01  6.01768e+00 -2.66624e+00 
-1.30095e+01  5.87440e+00 -2.95032e+00 
-1.26891e+01  5.73122e+00 -3.22830e+00 
-1.23688e+01  5.58805e+00 -3.50021e+00 
-1.20485e+01  5.44489e+00 -3.76598e+00 
-1.17281e+01  5.30166e+00 -4.02563e+00 
-1.14076e+01  5.15835e+00 -4.27906e+00 
-1.10870e+01  5.01491e+00 -4.52627e+00 
-1.07661e+01  4.87132e+00 -4.76718e+00 
-1.04450e+01  4.72754e+00 -5.00176e+00 
-1.01237e+01  4.58357e+00 -5.22992e+00 
-9.80208e+00  4.43935e+00 -5.45164e+00 
-9.48015e+00  4.29490e+00 -5.66680e+00 
-9.15785e+00  4.15018e+00 -5.87538e+00 
-8.83522e+00  4.00520e+00 -6.07728e+00 
-8.51219e+00  3.85992e+00 -6.27247e+00 
-8.18881e+00  3.71437e+00 -6.46085e+00 
-7.86501e+00  3.56851e+00 -6.64239e+00 
-7.54085e+00  3.42237e+00 -6.81698e+00 
-7.21626e+00  3.27593e+00 -6.98460e+00 
-6.89132e+00  3.12922e+00 -7.14517e+00 
-6.56596e+00  2.98221e+00 -7.29864e+00 
-6.24026e+00  2.83494e+00 -7.44495e+00 
-5.91415e+00  2.68738e+00 -7.58406e+00 
-5.58772e+00  2.53958e+00 -7.71590e+00 
-5.26091e+00  2.39152e+00 -7.84045e+00 
-4.93380e+00  2.24323e+00 -7.95764e+00 
-4.60635e+00  2.09471e+00 -8.06745e+00 
-4.27863e+00  1.94599e+00 -8.16984e+00 
-3.95060e+00  1.79706e+00 -8.26477e+00 
-3.62234e+00  1.64796e+00 -8.35221e+00 
-3.29380e+00  1.49868e+00 -8.43215e+00 
-2.96507e+00  1.34926e+00 -8.50454e+00 
-2.63612e+00  1.19969e+00 -8.56937e+00 
-2.30701e+00  1.05000e+00 -8.62661e+00 
-1.97772e+00  9.00197e-01 -8.67626e+00 
-1.64832e+00  7.50313e-01 -8.71829e+00 
-1.31878e+00  6.00336e-01 -8.75270e+00 
-9.89178e-01  4.50313e-01 -8.77947e+00 
-6.59477e-01  3.00228e-01 -8.79860e+00 
-3.29762e-01  1.50127e-01 -8.81008e+00 
-2.74391e-12  2.98517e-12 -8.81391e+00 
 3.29762e-01 -1.50127e-01 -8.81008e+00 
 6.59477e-01 -3.00228e-01 -8.79860e+00 
 9.89178e-01 -4.50313e-01 -8.77947e+00 
 1.31878e+00 -6.00336e-01 -8.75270e+00 
 1.64832e+00 -7.50313e-01 -8.71829e+00 
 1.97772e+00 -9.00197e-01 -8.67626e+00 
 2.30701e+00 -1.05000e+00 -8.62661e+00 
 2.63612e+00 -1.19969e+00 -8.56937e+00 
 2.96507e+00 -1.34926e+00 -8.50454e+00 
 3.29380e+00 -1.49868e+00 -8.43215e+00 
 3.62234e+00 -1.64796e+00 -8.35221e+00 
 3.95060e+00 -1.79706e+00 -8.26477e+00 
 4.27863e+00 -1.94599e+00 -8.16984e+00 
 4.60635e+00 -2.09471e+00 -8.06745e+00 
 4.93380e+00 -2.24323e+00 -7.95764e+00 
 5.26091e+00 -2.39152e+00 -7.84045e+00 
 5.58772e+00 -2.53958e+00 -7.71590e+00 
 5.91415e+00 -2.68738e+00 -7.58406e+00 
 6.24026e+00 -2.83494e+00 -7.44495e+00 
 6.56596e+00 -2.98221e+00 -7.29864e+00 
 6.89132e+00 -3.12922e+00 -7.14517e+00 
 7.21626e+00 -3.27593e+00 -6.98460e+00 
 7.54085e+00 -3.42237e+00 -6.81698e+00 
 7.86501e+00 -3.56851e+00 -6.64239e+00 
 8.18881e+00 -3.71437e+00 -6.46085e+00 
 8.51219e+00 -3.85992e+00 -6.27247e+00 
 8.83522e+00 -4.00520e+00 -6.07728e+00 
 9.15785e+00 -4.15018e+00 -5.87538e+00 
 9.48015e+00 -4.29490e+00 -5.66680e+00 
 9.80208e+00 -4.43935e+00 -5.45164e+00 
 1.01237e+01 -4.58357e+00 -5.22992e+00 
 1.04450e+01 -4.72754e+00 -5.00176e+00 
 1.07661e+01 -4.87132e+00 -4.76718e+00 
 1.10870e+01 -5.01491e+00 -4.52627e+00 
 1.14076e+01 -5.15835e+00 -4.27906e+00 
 1.17281e+01 -5.30166e+00 -4.02563e+00 
 1.20485e+01 -5.44489e+00 -3.76598e+00 
 1.23688e+01 -5.58805e+00 -3.50021e+00 
 1.26891e+01 -5.73122e+00 -3.22830e+00 
 1.30095e+01 -5.87440e+00 -2.95032e+00 
 1.33300e+01 -6.01768e+00 -2.66624e+00 
 1.36506e+01 -6.16107e+00 -2.37612e+00 
 1.39715e+01 -6.30465e+00 -2.07990e+00 
 1.42926e+01 -6.44843e+00 -1.77762e+00 
 1.46142e+01 -6.59252e+00 -1.46920e+00 
 1.49361e+01 -6.73691e+00 -1.15466e+00 
 1.52586e+01 -6.88171e+00 -8.33889e-01 
 1.55816e+01 -7.02693e+00 -5.06884e-01 
 1.59053e+01 -7.15417e+00 -8.35053e-02 
-1.56727e+01  7.04957e+00 -8.39543e-02 
-1.53535e+01  6.92405e+00 -5.09232e-01 
-1.50349e+01  6.78075e+00 -8.37569e-01 
-1.47167e+01  6.63783e+00 -1.15953e+00 
-1.43990e+01  6.49527e+00 -1.47510e+00 
-1.40817e+01  6.35300e+00 -1.78440e+00 
-1.37648e+01  6.21100e+00 -2.08741e+00 
-1.34481e+01  6.06919e+00 -2.38421e+00 
-1.31316e+01  5.92757e+00 -2.67476e+00 
-1.28153e+01  5.78606e+00 -2.95914e+00 
-1.24991e+01  5.64465e+00 -3.23727e+00 
-1.21830e+01  5.50326e+00 -3.50921e+00 
-1.18669e+01  5.36189e+00 -3.77489e+00 
-1.15507e+01  5.22048e+00 -4.03433e+00 
-1.12345e+01  5.07901e+00 -4.28745e+00 
-1.09182e+01  4.93743e+00 -4.53426e+00 
-1.06017e+01  4.79573e+00 -4.77468e+00 
-1.02850e+01  4.65387e+00 -5.00871e+00 
-9.96809e+00  4.51185e+00 -5.23624e+00 
-9.65092e+00  4.36962e+00 -5.45728e+00 
-9.33351e+00  4.22719e+00 -5.67171e+00 
-9.01578e+00  4.08452e+00 -5.87954e+00 
-8.69778e+00  3.94162e+00 -6.08066e+00 
-8.37942e+00  3.79846e+00 -6.27505e+00 
-8.06075e+00  3.65506e+00 -6.46261e+00 
-7.74172e+00  3.51138e+00 -6.64333e+00 
-7.42237e+00  3.36745e+00 -6.81711e+00 
-7.10264e+00  3.22324e+00 -6.98394e+00 
-6.78260e+00  3.07879e+00 -7.14371e+00 
-6.46217e+00  2.93406e+00 -7.29642e+00 
-6.14144e+00  2.78909e+00 -7.44198e+00 
-5.82035e+00  2.64386e+00 -7.58037e+00 
-5.49896e+00  2.49840e+00 -7.71153e+00 
-5.17723e+00  2.35269e+00 -7.83543e+00 
-4.85522e+00  2.20678e+00 -7.95200e+00 
-4.53290e+00  2.06064e+00 -8.06124e+00 
-4.21033e+00  1.91432e+00 -8.16308e+00 
-3.88747e+00  1.76780e+00 -8.25751e+00 
-3.56441e+00  1.62111e+00 -8.34449e+00 
-3.24108e+00  1.47425e+00 -8.42401e+00 
-2.91759e+00  1.32726e+00 -8.49601e+00 
-2.59387e+00  1.18012e+00 -8.56050e+00 
-2.27002e+00  1.03287e+00 -8.61745e+00 
-1.94600e+00  8.85510e-01 -8.66684e+00 
-1.62187e+00  7.38070e-01 -8.70865e+00 
-1.29761e+00  5.90540e-01 -8.74288e+00 
-9.73297e-01  4.42964e-01 -8.76951e+00 
-6.48887e-01  2.95328e-01 -8.78854e+00 
-3.24466e-01  1.47677e-01 -8.79996e+00 
-2.63608e-12  2.97532e-12 -8.80377e+00 
 3.24466e-01 -1.47677e-01 -8.79996e+00 
 6.48887e-01 -2.95328e-01 -8.78854e+00 
 9.73297e-01 -4.42964e-01 -8.76951e+00 
 1.29761e+00 -5.90540e-01 -8.74288e+00 
 1.62187e+00 -7.38070e-01 -8.70865e+00 
 1.94600e+00 -8.85510e-01 -8.66684e+00 
 2.27002e+00 -1.03287e+00 -8.61745e+00 
 2.59387e+00 -1.18012e+00 -8.56050e+00 
 2.91759e+00 -1.32726e+00 -8.49601e+00 
 3.24108e+00 -1.47425e+00 -8.42401e+00 
 3.56441e+00 -1.62111e+00 -8.34449e+00 
 3.88747e+00 -1.76780e+00 -8.25751e+00 
 4.21033e+00 -1.91432e+00 -8.16308e+00 
 4.53290e+00 -2.06064e+00 -8.06124e+00 
 4.85522e+00 -2.20678e+00 -7.95200e+00 
 5.17723e+00 -2.35269e+00 -7.83543e+00 
 5.49896e+00 -2.49840e+00 -7.71153e+00 
 5.82035e+00 -2.64386e+00 -7.58037e+00 
 6.14144e+00 -2.78909e+00 -7.44198e+00 
 6.46217e+00 -2.93406e+00 -7.29642e+00 
 6.78260e+00 -3.07879e+00 -7.14371e+00 
 7.10264e+00 -3.22324e+00 -6.98394e+00 
 7.42237e+00 -3.36745e+00 -6.81711e+00 
 7.74172e+00 -3.51138e+00 -6.64333e+00 
 8.06075e+00 -3.65506e+00 -6.46261e+00 
 8.37942e+00 -3.79846e+00 -6.27505e+00 
 8.69778e+00 -3.94162e+00 -6.08066e+00 
 9.01578e+00 -4.08452e+00 -5.87954e+00 
 9.33351e+00 -4.22719e+00 -5.67171e+00 
 9.65092e+00 -4.36962e+00 -5.45728e+00 
 9.96809e+00 -4.51185e+00 -5.23624e+00 
 1.02850e+01 -4.65387e+00 -5.00871e+00 
 1.06017e+01 -4.79573e+00 -4.77468e+00 
 1.09182e+01 -4.93743e+00 -4.53426e+00 
 1.12345e+01 -5.07901e+00 -4.28745e+00 
 1.15507e+01 -5.22048e+00 -4.03433e+00 
 1.18669e+01 -5.36189e+00 -3.77489e+00 
 1.21830e+01 -5.50326e+00 -3.50921e+00 
 1.24991e+01 -5.64465e+00 -3.23727e+00 
 1.28153e+01 -5.78606e+00 -2.95914e+00 
 1.31316e+01 -5.92757e+00 -2.67476e+00 
 1.34481e+01 -6.06919e+00 -2.38421e+00 
 1.37648e+01 -6.21100e+00 -2.08741e+00 
 1.40817e+01 -6.35300e+00 -1.78440e+00 
 1.43990e+01 -6.49527e+00 -1.47510e+00 
 1.47167e+01 -6.63783e+00 -1.15953e+00 
 1.50349e+01 -6.78075e+00 -8.37569e-01 
 1.53535e+01 -6.92405e+00 -5.09232e-01 
 1.56727e+01 -7.04957e+00 -8.39543e-02 
-1.54392e+01  6.94453e+00 -8.43459e-02 
-1.51245e+01  6.82076e+00 -5.11304e-01 
-1.48103e+01  6.67943e+00 -8.40829e-01 
-1.44966e+01  6.53843e+00 -1.16385e+00 
-1.41833e+01  6.39776e+00 -1.48036e+00 
-1.38703e+01  6.25735e+00 -1.79047e+00 
-1.35576e+01  6.11719e+00 -2.09415e+00 
-1.32452e+01  5.97722e+00 -2.39149e+00 
-1.29330e+01  5.83741e+00 -2.68246e+00 
-1.26210e+01  5.69771e+00 -2.96713e+00 
-1.23091e+01  5.55811e+00 -3.24543e+00 
-1.19972e+01  5.41854e+00 -3.51743e+00 
-1.16854e+01  5.27900e+00 -3.78305e+00 
-1.13735e+01  5.13943e+00 -4.04234e+00 
-1.10617e+01  4.99982e+00 -4.29521e+00 
-1.07497e+01  4.86013e+00 -4.54169e+00 
-1.04376e+01  4.72034e+00 -4.78170e+00 
-1.01253e+01  4.58041e+00 -5.01524e+00 
-9.81288e+00  4.44035e+00 -5.24223e+00 
-9.50022e+00  4.30011e+00 -5.46267e+00 
-9.18736e+00  4.15970e+00 -5.67646e+00 
-8.87422e+00  4.01907e+00 -5.88361e+00 
-8.56084e+00  3.87825e+00 -6.08402e+00 
-8.24716e+00  3.73720e+00 -6.27768e+00 
-7.93321e+00  3.59593e+00 -6.46450e+00 
-7.61894e+00  3.45441e+00 -6.64447e+00 
-7.30439e+00  3.31267e+00 -6.81749e+00 
-6.98950e+00  3.17068e+00 -6.98357e+00 
-6.67434e+00  3.02847e+00 -7.14260e+00 
-6.35884e+00  2.88600e+00 -7.29458e+00 
-6.04306e+00  2.74332e+00 -7.43944e+00 
-5.72695e+00  2.60039e+00 -7.57715e+00 
-5.41058e+00  2.45726e+00 -7.70764e+00 
-5.09390e+00  2.31390e+00 -7.83091e+00 
-4.77697e+00  2.17035e+00 -7.94688e+00 
-4.45975e+00  2.02658e+00 -8.05555e+00 
-4.14231e+00  1.88265e+00 -8.15686e+00 
-3.82461e+00  1.73852e+00 -8.25080e+00 
-3.50671e+00  1.59424e+00 -8.33732e+00 
-3.18858e+00  1.44980e+00 -8.41641e+00 
-2.87029e+00  1.30523e+00 -8.48803e+00 
-2.55179e+00  1.16052e+00 -8.55218e+00 
-2.23318e+00  1.01572e+00 -8.60883e+00 
-1.91439e+00  8.70794e-01 -8.65795e+00 
-1.59552e+00  7.25801e-01 -8.69954e+00 
-1.27652e+00  5.80721e-01 -8.73359e+00 
-9.57475e-01  4.35597e-01 -8.76008e+00 
-6.38336e-01  2.90416e-01 -8.77901e+00 
-3.19190e-01  1.45221e-01 -8.79037e+00 
-2.35878e-12  2.59786e-12 -8.79416e+00 
 3.19190e-01 -1.45221e-01 -8.79037e+00 
 6.38336e-01 -2.90416e-01 -8.77901e+00 
 9.57475e-01 -4.35597e-01 -8.76008e+00 
 1.27652e+00 -5.80721e-01 -8.73359e+00 
 1.59552e+00 -7.25801e-01 -8.69954e+00 
 1.91439e+00 -8.70794e-01 -8.65795e+00 
 2.23318e+00 -1.01572e+00 -8.60883e+00 
 2.55179e+00 -1.16052e+00 -8.55218e+00 
 2.87029e+00 -1.30523e+00 -8.48803e+00 
 3.18858e+00 -1.44980e+00 -8.41641e+00 
 3.50671e+00 -1.59424e+00 -8.33732e+00 
 3.82461e+00 -1.73852e+00 -8.25080e+00 
 4.14231e+00 -1.88265e+00 -8.15686e+00 
 4.45975e+00 -2.02658e+00 -8.05555e+00 
 4.77697e+00 -2.17035e+00 -7.94688e+00 
 5.09390e+00 -2.31390e+00 -7.83091e+00 
 5.41058e+00 -2.45726e+00 -7.70764e+00 
 5.72695e+00 -2.60039e+00 -7.57715e+00 
 6.04306e+00 -2.74332e+00 -7.43944e+00 
 6.35884e+00 -2.88600e+00 -7.29458e+00 
 6.67434e+00 -3.02847e+00 -7.14260e+00 
 6.98950e+00 -3.17068e+00 -6.98357e+00 
 7.30439e+00 -3.31267e+00 -6.81749e+00 
 7.61894e+00 -3.45441e+00 -6.64447e+00 
 7.93321e+00 -3.59593e+00 -6.46450e+00 
 8.24716e+00 -3.73720e+00 -6.27768e+00 
 8.56084e+00 -3.87825e+00 -6.08402e+00 
 8.87422e+00 -4.01907e+00 -5.88361e+00 
 9.18736e+00 -4.15970e+00 -5.67646e+00 
 9.50022e+00 -4.30011e+00 -5.46267e+00 
 9.81288e+00 -4.44035e+00 -5.24223e+00 
 1.01253e+01 -4.58041e+00 -5.01524e+00 
 1.04376e+01 -4.72034e+00 -4.78170e+00 
 1.07497e+01 -4.86013e+00 -4.54169e+00 
 1.10617e+01 -4.99982e+00 -4.29521e+00 
 1.13735e+01 -5.13943e+00 -4.04234e+00 
 1.16854e+01 -5.27900e+00 -3.78305e+00 
 1.19972e+01 -5.41854e+00 -3.51743e+00 
 1.23091e+01 -5.55811e+00 -3.24543e+00 
 1.26210e+01 -5.69771e+00 -2.96713e+00 
 1.29330e+01 -5.83741e+00 -2.68246e+00 
 1.32452e+01 -5.97722e+00 -2.39149e+00 
 1.35576e+01 -6.11719e+00 -2.09415e+00 
 1.38703e+01 -6.25735e+00 -1.79047e+00 
 1.41833e+01 -6.39776e+00 -1.48036e+00 
 1.44966e+01 -6.53843e+00 -1.16385e+00 
 1.48103e+01 -6.67943e+00 -8.40829e-01 
 1.51245e+01 -6.82076e+00 -5.11304e-01 
 1.54392e+01 -6.94453e+00 -8.43459e-02 
-1.52048e+01  6.83909e+00 -8.46863e-02 
-1.48947e+01  6.71711e+00 -5.13127e-01 
-1.45851e+01  6.57778e+00 -8.43705e-01 
-1.42758e+01  6.43876e+00 -1.16768e+00 
-1.39669e+01  6.30002e+00 -1.48503e+00 
-1.36584e+01  6.16152e+00 -1.79586e+00 
-1.33501e+01  6.02325e+00 -2.10016e+00 
-1.30421e+01  5.88514e+00 -2.39801e+00 
-1.27342e+01  5.74719e+00 -2.68938e+00 
-1.24265e+01  5.60935e+00 -2.97433e+00 
-1.21189e+01  5.47160e+00 -3.25281e+00 
-1.18114e+01  5.33389e+00 -3.52488e+00 
-1.15040e+01  5.19621e+00 -3.79049e+00 
-1.11965e+01  5.05852e+00 -4.04966e+00 
-1.08890e+01  4.92080e+00 -4.30233e+00 
-1.05814e+01  4.78301e+00 -4.54854e+00 
-1.02738e+01  4.64515e+00 -4.78819e+00 
-9.96598e+00  4.50717e+00 -5.02132e+00 
-9.65806e+00  4.36908e+00 -5.24783e+00 
-9.34994e+00  4.23083e+00 -5.46775e+00 
-9.04165e+00  4.09244e+00 -5.68097e+00 
-8.73312e+00  3.95386e+00 -5.88751e+00 
-8.42439e+00  3.81512e+00 -6.08729e+00 
-8.11539e+00  3.67616e+00 -6.28029e+00 
-7.80616e+00  3.53702e+00 -6.46643e+00 
-7.49665e+00  3.39766e+00 -6.64571e+00 
-7.18690e+00  3.25810e+00 -6.81804e+00 
-6.87684e+00  3.11831e+00 -6.98342e+00 
-6.56655e+00  2.97832e+00 -7.14177e+00 
-6.25595e+00  2.83811e+00 -7.29308e+00 
-5.94511e+00  2.69770e+00 -7.43727e+00 
-5.63397e+00  2.55706e+00 -7.57433e+00 
-5.32260e+00  2.41624e+00 -7.70420e+00 
-5.01095e+00  2.27521e+00 -7.82686e+00 
-4.69907e+00  2.13400e+00 -7.94226e+00 
-4.38694e+00  1.99260e+00 -8.05039e+00 
-4.07460e+00  1.85103e+00 -8.15118e+00 
-3.76202e+00  1.70929e+00 -8.24464e+00 
-3.44927e+00  1.56742e+00 -8.33071e+00 
-3.13630e+00  1.42538e+00 -8.40940e+00 
-2.82319e+00  1.28323e+00 -8.48065e+00 
-2.50990e+00  1.14095e+00 -8.54446e+00 
-2.19649e+00  9.98572e-01 -8.60080e+00 
-1.88293e+00  8.56088e-01 -8.64967e+00 
-1.56928e+00  7.13538e-01 -8.69104e+00 
-1.25552e+00  5.70906e-01 -8.72491e+00 
-9.41720e-01  4.28233e-01 -8.75126e+00 
-6.27831e-01  2.85506e-01 -8.77009e+00 
-3.13936e-01  1.42765e-01 -8.78139e+00 
-2.93791e-12  3.34934e-12 -8.78516e+00 
 3.13936e-01 -1.42765e-01 -8.78139e+00 
 6.27831e-01 -2.85506e-01 -8.77009e+00 
 9.41720e-01 -4.28233e-01 -8.75126e+00 
 1.25552e+00 -5.70906e-01 -8.72491e+00 
 1.56928e+00 -7.13538e-01 -8.69104e+00 
 1.88293e+00 -8.56088e-01 -8.64967e+00 
 2.19649e+00 -9.98572e-01 -8.60080e+00 
 2.50990e+00 -1.14095e+00 -8.54446e+00 
 2.82319e+00 -1.28323e+00 -8.48065e+00 
 3.13630e+00 -1.42538e+00 -8.40940e+00 
 3.44927e+00 -1.56742e+00 -8.33071e+00 
 3.76202e+00 -1.70929e+00 -8.24464e+00 
 4.07460e+00 -1.85103e+00 -8.15118e+00 
 4.38694e+00 -1.99260e+00 -8.05039e+00 
 4.69907e+00 -2.13400e+00 -7.94226e+00 
 5.01095e+00 -2.27521e+00 -7.82686e+00 
 5.32260e+00 -2.41624e+00 -7.70420e+00 
 5.63397e+00 -2.55706e+00 -7.57433e+00 
 5.94511e+00 -2.69770e+00 -7.43727e+00 
 6.25595e+00 -2.83811e+00 -7.29308e+00 
 6.56655e+00 -2.97832e+00 -7.14177e+00 
 6.87684e+00 -3.11831e+00 -6.98342e+00 
 7.18690e+00 -3.25810e+00 -6.81804e+00 
 7.49665e+00 -3.39766e+00 -6.64571e+00 
 7.80616e+00 -3.53702e+00 -6.46643e+00 
 8.11539e+00 -3.67616e+00 -6.28029e+00 
 8.42439e+00 -3.81512e+00 -6.08729e+00 
 8.73312e+00 -3.95386e+00 -5.88751e+00 
 9.04165e+00 -4.09244e+00 -5.68097e+00 
 9.34994e+00 -4.23083e+00 -5.46775e+00 
 9.65806e+00 -4.36908e+00 -5.24783e+00 
 9.96598e+00 -4.50717e+00 -5.02132e+00 
 1.02738e+01 -4.64515e+00 -4.78819e+00 
 1.05814e+01 -4.78301e+00 -4.54854e+00 
 1.08890e+01 -4.92080e+00 -4.30233e+00 
 1.11965e+01 -5.05852e+00 -4.04966e+00 
 1.15040e+01 -5.19621e+00 -3.79049e+00 
 1.18114e+01 -5.33389e+00 -3.52488e+00 
 1.21189e+01 -5.47160e+00 -3.25281e+00 
 1.24265e+01 -5.60935e+00 -2.97433e+00 
 1.27342e+01 -5.74719e+00 -2.68938e+00 
 1.30421e+01 -5.88514e+00 -2.39801e+00 
 1.33501e+01 -6.02325e+00 -2.10016e+00 
 1.36584e+01 -6.16152e+00 -1.79586e+00 
 1.39669e+01 -6.30002e+00 -1.48503e+00 
 1.42758e+01 -6.43876e+00 -1.16768e+00 
 1.45851e+01 -6.57778e+00 -8.43705e-01 
 1.48947e+01 -6.71711e+00 -5.13127e-01 
 1.52048e+01 -6.83909e+00 -8.46863e-02 
-1.49696e+01  6.73330e+00 -8.49816e-02 
-1.46642e+01  6.61313e+00 -5.14724e-01 
-1.43591e+01  6.47585e+00 -8.46234e-01 
-1.40545e+01  6.33883e+00 -1.17105e+00 
-1.37501e+01  6.20207e+00 -1.48915e+00 
-1.34460e+01  6.06552e+00 -1.80065e+00 
-1.31422e+01  5.92917e+00 -2.10551e+00 
-1.28386e+01  5.79298e+00 -2.40382e+00 
-1.25352e+01  5.65693e+00 -2.69555e+00 
-1.22319e+01  5.52098e+00 -2.98077e+00 
-1.19288e+01  5.38512e+00 -3.25944e+00 
-1.16257e+01  5.24931e+00 -3.53160e+00 
-1.13226e+01  5.11353e+00 -3.79720e+00 
-1.10196e+01  4.97774e+00 -4.05630e+00 
-1.07166e+01  4.84193e+00 -4.30881e+00 
-1.04134e+01  4.70607e+00 -4.55479e+00 
-1.01103e+01  4.57016e+00 -4.79415e+00 
-9.80699e+00  4.43414e+00 -5.02692e+00 
-9.50361e+00  4.29804e+00 -5.25302e+00 
-9.20005e+00  4.16180e+00 -5.47247e+00 
-8.89635e+00  4.02543e+00 -5.68520e+00 
-8.59245e+00  3.88891e+00 -5.89120e+00 
-8.28838e+00  3.75223e+00 -6.09041e+00 
-7.98407e+00  3.61538e+00 -6.28281e+00 
-7.67958e+00  3.47836e+00 -6.46834e+00 
-7.37482e+00  3.34114e+00 -6.64700e+00 
-7.06987e+00  3.20375e+00 -6.81870e+00 
-6.76464e+00  3.06616e+00 -6.98345e+00 
-6.45921e+00  2.92839e+00 -7.14116e+00 
-6.15350e+00  2.79041e+00 -7.29184e+00 
-5.84759e+00  2.65226e+00 -7.43542e+00 
-5.54140e+00  2.51390e+00 -7.57188e+00 
-5.23502e+00  2.37538e+00 -7.70116e+00 
-4.92837e+00  2.23666e+00 -7.82326e+00 
-4.62154e+00  2.09778e+00 -7.93812e+00 
-4.31446e+00  1.95873e+00 -8.04573e+00 
-4.00720e+00  1.81953e+00 -8.14604e+00 
-3.69973e+00  1.68016e+00 -8.23904e+00 
-3.39210e+00  1.54067e+00 -8.32468e+00 
-3.08428e+00  1.40103e+00 -8.40297e+00 
-2.77632e+00  1.26129e+00 -8.47386e+00 
-2.46820e+00  1.12142e+00 -8.53735e+00 
-2.15997e+00  9.81472e-01 -8.59341e+00 
-1.85161e+00  8.41420e-01 -8.64203e+00 
-1.54317e+00  7.01306e-01 -8.68319e+00 
-1.23462e+00  5.61114e-01 -8.71688e+00 
-9.26038e-01  4.20886e-01 -8.74309e+00 
-6.17374e-01  2.80606e-01 -8.76182e+00 
-3.08707e-01  1.40315e-01 -8.77306e+00 
-3.09558e-12  3.91581e-12 -8.77681e+00 
 3.08707e-01 -1.40315e-01 -8.77306e+00 
 6.17374e-01 -2.80606e-01 -8.76182e+00 
 9.26038e-01 -4.20886e-01 -8.74309e+00 
 1.23462e+00 -5.61114e-01 -8.71688e+00 
 1.54317e+00 -7.01306e-01 -8.68319e+00 
 1.85161e+00 -8.41420e-01 -8.64203e+00 
 2.15997e+00 -9.81472e-01 -8.59341e+00 
 2.46820e+00 -1.12142e+00 -8.53735e+00 
 2.77632e+00 -1.26129e+00 -8.47386e+00 
 3.08428e+00 -1.40103e+00 -8.40297e+00 
 3.39210e+00 -1.54067e+00 -8.32468e+00 
 3.69973e+00 -1.68016e+00 -8.23904e+00 
 4.00720e+00 -1.81953e+00 -8.14604e+00 
 4.31446e+00 -1.95873e+00 -8.04573e+00 
 4.62154e+00 -2.09778e+00 -7.93812e+00 
 4.92837e+00 -2.23666e+00 -7.82326e+00 
 5.23502e+00 -2.37538e+00 -7.70116e+00 
 5.54140e+00 -2.51390e+00 -7.57188e+00 
 5.84759e+00 -2.65226e+00 -7.43542e+00 
 6.15350e+00 -2.79041e+00 -7.29184e+00 
 6.45921e+00 -2.92839e+00 -7.14116e+00 
 6.76464e+00 -3.06616e+00 -6.98345e+00 
 7.06987e+00 -3.20375e+00 -6.81870e+00 
 7.37482e+00 -3.34114e+00 -6.64700e+00 
 7.67958e+00 -3.47836e+00 -6.46834e+00 
 7.98407e+00 -3.61538e+00 -6.28281e+00 
 8.28838e+00 -3.75223e+00 -6.09041e+00 
 8.59245e+00 -3.88891e+00 -5.89120e+00 
 8.89635e+00 -4.02543e+00 -5.68520e+00 
 9.20005e+00 -4.16180e+00 -5.47247e+00 
 9.50361e+00 -4.29804e+00 -5.25302e+00 
 9.80699e+00 -4.43414e+00 -5.02692e+00 
 1.01103e+01 -4.57016e+00 -4.79415e+00 
 1.04134e+01 -4.70607e+00 -4.55479e+00 
 1.07166e+01 -4.84193e+00 -4.30881e+00 
 1.10196e+01 -4.97774e+00 -4.05630e+00 
 1.13226e+01 -5.11353e+00 -3.79720e+00 
 1.16257e+01 -5.24931e+00 -3.53160e+00 
 1.19288e+01 -5.38512e+00 -3.25944e+00 
 1.22319e+01 -5.52098e+00 -2.98077e+00 
 1.25352e+01 -5.65693e+00 -2.69555e+00 
 1.28386e+01 -5.79298e+00 -2.40382e+00 
 1.31422e+01 -5.92917e+00 -2.10551e+00 
 1.34460e+01 -6.06552e+00 -1.80065e+00 
 1.37501e+01 -6.20207e+00 -1.48915e+00 
 1.40545e+01 -6.33883e+00 -1.17105e+00 
 1.43591e+01 -6.47585e+00 -8.46234e-01 
 1.46642e+01 -6.61313e+00 -5.14724e-01 
 1.49696e+01 -6.73330e+00 -8.49816e-02 
-1.47337e+01  6.62722e+00 -8.52370e-02 
-1.44330e+01  6.50888e+00 -5.16120e-01 
-1.41327e+01  6.37367e+00 -8.48450e-01 
-1.38326e+01  6.23869e+00 -1.17401e+00 
-1.35328e+01  6.10394e+00 -1.49278e+00 
-1.32333e+01  5.96937e+00 -1.80487e+00 
-1.29340e+01  5.83499e+00 -2.11024e+00 
-1.26349e+01  5.70074e+00 -2.40897e+00 
-1.23360e+01  5.56663e+00 -2.70104e+00 
-1.20372e+01  5.43261e+00 -2.98652e+00 
-1.17385e+01  5.29868e+00 -3.26536e+00 
-1.14399e+01  5.16479e+00 -3.53762e+00 
-1.11414e+01  5.03093e+00 -3.80324e+00 
-1.08428e+01  4.89708e+00 -4.06228e+00 
-1.05443e+01  4.76322e+00 -4.31467e+00 
-1.02457e+01  4.62931e+00 -4.56046e+00 
-9.94703e+00  4.49536e+00 -4.79957e+00 
-9.64829e+00  4.36133e+00 -5.03203e+00 
-9.34947e+00  4.22722e+00 -5.25778e+00 
-9.05051e+00  4.09299e+00 -5.47683e+00 
-8.75143e+00  3.95867e+00 -5.68911e+00 
-8.45218e+00  3.82420e+00 -5.89464e+00 
-8.15279e+00  3.68960e+00 -6.09334e+00 
-7.85319e+00  3.55485e+00 -6.28522e+00 
-7.55343e+00  3.41995e+00 -6.47020e+00 
-7.25344e+00  3.28488e+00 -6.64829e+00 
-6.95328e+00  3.14965e+00 -6.81943e+00 
-6.65288e+00  3.01424e+00 -6.98359e+00 
-6.35231e+00  2.87868e+00 -7.14073e+00 
-6.05149e+00  2.74293e+00 -7.29084e+00 
-5.75048e+00  2.60703e+00 -7.43384e+00 
-5.44924e+00  2.47094e+00 -7.56975e+00 
-5.14782e+00  2.33470e+00 -7.69849e+00 
-4.84617e+00  2.19829e+00 -7.82007e+00 
-4.54435e+00  2.06173e+00 -7.93442e+00 
-4.24231e+00  1.92501e+00 -8.04155e+00 
-3.94012e+00  1.78816e+00 -8.14140e+00 
-3.63773e+00  1.65116e+00 -8.23397e+00 
-3.33520e+00  1.51404e+00 -8.31922e+00 
-3.03249e+00  1.37679e+00 -8.39714e+00 
-2.72967e+00  1.23944e+00 -8.46769e+00 
-2.42670e+00  1.10198e+00 -8.53087e+00 
-2.12363e+00  9.64441e-01 -8.58665e+00 
-1.82044e+00  8.26809e-01 -8.63504e+00 
-1.51718e+00  6.89120e-01 -8.67599e+00 
-1.21382e+00  5.51361e-01 -8.70952e+00 
-9.10432e-01  4.13568e-01 -8.73560e+00 
-6.06967e-01  2.75726e-01 -8.75424e+00 
-3.03502e-01  1.37874e-01 -8.76542e+00 
-2.68203e-12  3.36905e-12 -8.76915e+00 
 3.03502e-01 -1.37874e-01 -8.76542e+00 
 6.06967e-01 -2.75726e-01 -8.75424e+00 
 9.10432e-01 -4.13568e-01 -8.73560e+00 
 1.21382e+00 -5.51361e-01 -8.70952e+00 
 1.51718e+00 -6.89120e-01 -8.67599e+00 
 1.82044e+00 -8.26809e-01 -8.63504e+00 
 2.12363e+00 -9.64441e-01 -8.58665e+00 
 2.42670e+00 -1.10198e+00 -8.53087e+00 
 2.72967e+00 -1.23944e+00 -8.46769e+00 
 3.03249e+00 -1.37679e+00 -8.39714e+00 
 3.33520e+00 -1.51404e+00 -8.31922e+00 
 3.63773e+00 -1.65116e+00 -8.23397e+00 
 3.94012e+00 -1.78816e+00 -8.14140e+00 
 4.24231e+00 -1.92501e+00 -8.04155e+00 
 4.54435e+00 -2.06173e+00 -7.93442e+00 
 4.84617e+00 -2.19829e+00 -7.82007e+00 
 5.14782e+00 -2.33470e+00 -7.69849e+00 
 5.44924e+00 -2.47094e+00 -7.56975e+00 
 5.75048e+00 -2.60703e+00 -7.43384e+00 
 6.05149e+00 -2.74293e+00 -7.29084e+00 
 6.35231e+00 -2.87868e+00 -7.14073e+00 
 6.65288e+00 -3.01424e+00 -6.98359e+00 
 6.95328e+00 -3.14965e+00 -6.81943e+00 
 7.25344e+00 -3.28488e+00 -6.64829e+00 
 7.55343e+00 -3.41995e+00 -6.47020e+00 
 7.85319e+00 -3.55485e+00 -6.28522e+00 
 8.15279e+00 -3.68960e+00 -6.09334e+00 
 8.45218e+00 -3.82420e+00 -5.89464e+00 
 8.75143e+00 -3.95867e+00 -5.68911e+00 
 9.05051e+00 -4.09299e+00 -5.47683e+00 
 9.34947e+00 -4.22722e+00 -5.25778e+00 
 9.64829e+00 -4.36133e+00 -5.03203e+00 
 9.94703e+00 -4.49536e+00 -4.79957e+00 
 1.02457e+01 -4.62931e+00 -4.56046e+00 
 1.05443e+01 -4.76322e+00 -4.31467e+00 
 1.08428e+01 -4.89708e+00 -4.06228e+00 
 1.11414e+01 -5.03093e+00 -3.80324e+00 
 1.14399e+01 -5.16479e+00 -3.53762e+00 
 1.17385e+01 -5.29868e+00 -3.26536e+00 
 1.20372e+01 -5.43261e+00 -2.98652e+00 
 1.23360e+01 -5.56663e+00 -2.70104e+00 
 1.26349e+01 -5.70074e+00 -2.40897e+00 
 1.29340e+01 -5.83499e+00 -2.11024e+00 
 1.32333e+01 -5.96937e+00 -1.80487e+00 
 1.35328e+01 -6.10394e+00 -1.49278e+00 
 1.38326e+01 -6.23869e+00 -1.17401e+00 
 1.41327e+01 -6.37367e+00 -8.48450e-01 
 1.44330e+01 -6.50888e+00 -5.16120e-01 
 1.47337e+01 -6.62722e+00 -8.52370e-02 
-1.44973e+01  6.52086e+00 -8.54572e-02 
-1.42013e+01  6.40438e+00 -5.17335e-01 
-1.39057e+01  6.27127e+00 -8.50385e-01 
-1.36103e+01  6.13835e+00 -1.17661e+00 
-1.33152e+01  6.00563e+00 -1.49597e+00 
-1.30202e+01  5.87308e+00 -1.80858e+00 
-1.27256e+01  5.74070e+00 -2.11440e+00 
-1.24310e+01  5.60844e+00 -2.41352e+00 
-1.21367e+01  5.47630e+00 -2.70590e+00 
-1.18424e+01  5.34424e+00 -2.99162e+00 
-1.15483e+01  5.21226e+00 -3.27062e+00 
-1.12542e+01  5.08033e+00 -3.54298e+00 
-1.09601e+01  4.94843e+00 -3.80863e+00 
-1.06661e+01  4.81653e+00 -4.06763e+00 
-1.03721e+01  4.68464e+00 -4.31993e+00 
-1.00781e+01  4.55271e+00 -4.56556e+00 
-9.78400e+00  4.42074e+00 -4.80446e+00 
-9.48984e+00  4.28871e+00 -5.03666e+00 
-9.19563e+00  4.15662e+00 -5.26210e+00 
-8.90129e+00  4.02442e+00 -5.48080e+00 
-8.60686e+00  3.89214e+00 -5.69270e+00 
-8.31227e+00  3.75973e+00 -5.89781e+00 
-8.01757e+00  3.62722e+00 -6.09606e+00 
-7.72269e+00  3.49457e+00 -6.28747e+00 
-7.42768e+00  3.36179e+00 -6.47197e+00 
-7.13247e+00  3.22886e+00 -6.64956e+00 
-6.83711e+00  3.09580e+00 -6.82017e+00 
-6.54154e+00  2.96258e+00 -6.98382e+00 
-6.24581e+00  2.82922e+00 -7.14044e+00 
-5.94987e+00  2.69569e+00 -7.29002e+00 
-5.65377e+00  2.56202e+00 -7.43251e+00 
-5.35746e+00  2.42819e+00 -7.56791e+00 
-5.06100e+00  2.29423e+00 -7.69616e+00 
-4.76432e+00  2.16011e+00 -7.81726e+00 
-4.46751e+00  2.02586e+00 -7.93115e+00 
-4.17049e+00  1.89146e+00 -8.03783e+00 
-3.87334e+00  1.75694e+00 -8.13726e+00 
-3.57601e+00  1.62229e+00 -8.22943e+00 
-3.27857e+00  1.48754e+00 -8.31430e+00 
-2.98095e+00  1.35266e+00 -8.39188e+00 
-2.68324e+00  1.21770e+00 -8.46211e+00 
-2.38539e+00  1.08263e+00 -8.52501e+00 
-2.08746e+00  9.47492e-01 -8.58053e+00 
-1.78941e+00  8.12268e-01 -8.62869e+00 
-1.49132e+00  6.76994e-01 -8.66946e+00 
-1.19312e+00  5.41653e-01 -8.70283e+00 
-8.94900e-01  4.06283e-01 -8.72879e+00 
-5.96611e-01  2.70868e-01 -8.74734e+00 
-2.98323e-01  1.35444e-01 -8.75847e+00 
-2.81300e-12  3.79364e-12 -8.76218e+00 
 2.98323e-01 -1.35444e-01 -8.75847e+00 
 5.96611e-01 -2.70868e-01 -8.74734e+00 
 8.94900e-01 -4.06283e-01 -8.72879e+00 
 1.19312e+00 -5.41653e-01 -8.70283e+00 
 1.49132e+00 -6.76994e-01 -8.66946e+00 
 1.78941e+00 -8.12268e-01 -8.62869e+00 
 2.08746e+00 -9.47492e-01 -8.58053e+00 
 2.38539e+00 -1.08263e+00 -8.52501e+00 
 2.68324e+00 -1.21770e+00 -8.46211e+00 
 2.98095e+00 -1.35266e+00 -8.39188e+00 
 3.27857e+00 -1.48754e+00 -8.31430e+00 
 3.57601e+00 -1.62229e+00 -8.22943e+00 
 3.87334e+00 -1.75694e+00 -8.13726e+00 
 4.17049e+00 -1.89146e+00 -8.03783e+00 
 4.46751e+00 -2.02586e+00 -7.93115e+00 
 4.76432e+00 -2.16011e+00 -7.81726e+00 
 5.06100e+00 -2.29423e+00 -7.69616e+00 
 5.35746e+00 -2.42819e+00 -7.56791e+00 
 5.65377e+00 -2.56202e+00 -7.43251e+00 
 5.94987e+00 -2.69569e+00 -7.29002e+00 
 6.24581e+00 -2.82922e+00 -7.14044e+00 
 6.54154e+00 -2.96258e+00 -6.98382e+00 
 6.83711e+00 -3.09580e+00 -6.82017e+00 
 7.13247e+00 -3.22886e+00 -6.64956e+00 
 7.42768e+00 -3.36179e+00 -6.47197e+00 
 7.72269e+00 -3.49457e+00 -6.28747e+00 
 8.01757e+00 -3.62722e+00 -6.09606e+00 
 8.31227e+00 -3.75973e+00 -5.89781e+00 
 8.60686e+00 -3.89214e+00 -5.69270e+00 
 8.90129e+00 -4.02442e+00 -5.48080e+00 
 9.19563e+00 -4.15662e+00 -5.26210e+00 
 9.48984e+00 -4.28871e+00 -5.03666e+00 
 9.78400e+00 -4.42074e+00 -4.80446e+00 
 1.00781e+01 -4.55271e+00 -4.56556e+00 
 1.03721e+01 -4.68464e+00 -4.31993e+00 
 1.06661e+01 -4.81653e+00 -4.06763e+00 
 1.09601e+01 -4.94843e+00 -3.80863e+00 
 1.12542e+01 -5.08033e+00 -3.54298e+00 
 1.15483e+01 -5.21226e+00 -3.27062e+00 
 1.18424e+01 -5.34424e+00 -2.99162e+00 
 1.21367e+01 -5.47630e+00 -2.70590e+00 
 1.24310e+01 -5.60844e+00 -2.41352e+00 
 1.27256e+01 -5.74070e+00 -2.11440e+00 
 1.30202e+01 -5.87308e+00 -1.80858e+00 
 1.33152e+01 -6.00563e+00 -1.49597e+00 
 1.36103e+01 -6.13835e+00 -1.17661e+00 
 1.39057e+01 -6.27127e+00 -8.50385e-01 
 1.42013e+01 -6.40438e+00 -5.17335e-01 
 1.44973e+01 -6.52086e+00 -8.54572e-02 
-1.42603e+01  6.41428e+00 -8.56465e-02 
-1.39691e+01  6.29967e+00 -5.18389e-01 
-1.36782e+01  6.16867e+00 -8.52067e-01 
-1.33876e+01  6.03784e+00 -1.17886e+00 
-1.30971e+01  5.90719e+00 -1.49875e+00 
-1.28069e+01  5.77668e+00 -1.81183e+00 
-1.25168e+01  5.64632e+00 -2.11805e+00 
-1.22269e+01  5.51607e+00 -2.41752e+00 
-1.19371e+01  5.38593e+00 -2.71018e+00 
-1.16475e+01  5.25586e+00 -2.99611e+00 
-1.13579e+01  5.12587e+00 -3.27527e+00 
-1.10684e+01  4.99592e+00 -3.54772e+00 
-1.07789e+01  4.86601e+00 -3.81341e+00 
-1.04895e+01  4.73609e+00 -4.07240e+00 
-1.02001e+01  4.60619e+00 -4.32461e+00 
-9.91062e+00  4.47626e+00 -4.57012e+00 
-9.62116e+00  4.34630e+00 -4.80884e+00 
-9.33162e+00  4.21628e+00 -5.04082e+00 
-9.04204e+00  4.08622e+00 -5.26600e+00 
-8.75235e+00  3.95606e+00 -5.48440e+00 
-8.46259e+00  3.82584e+00 -5.69596e+00 
-8.17269e+00  3.69551e+00 -5.90070e+00 
-7.88271e+00  3.56509e+00 -6.09856e+00 
-7.59256e+00  3.43454e+00 -6.28956e+00 
-7.30230e+00  3.30389e+00 -6.47362e+00 
-7.01187e+00  3.17310e+00 -6.65076e+00 
-6.72131e+00  3.04220e+00 -6.82092e+00 
-6.43057e+00  2.91115e+00 -6.98410e+00 
-6.13969e+00  2.77999e+00 -7.14025e+00 
-5.84863e+00  2.64868e+00 -7.28936e+00 
-5.55743e+00  2.51724e+00 -7.43139e+00 
-5.26604e+00  2.38566e+00 -7.56633e+00 
-4.97452e+00  2.25397e+00 -7.69413e+00 
-4.68282e+00  2.12213e+00 -7.81479e+00 
-4.39099e+00  1.99017e+00 -7.92825e+00 
-4.09898e+00  1.85809e+00 -8.03453e+00 
-3.80686e+00  1.72590e+00 -8.13357e+00 
-3.51457e+00  1.59358e+00 -8.22538e+00 
-3.22218e+00  1.46118e+00 -8.30991e+00 
-2.92965e+00  1.32866e+00 -8.38716e+00 
-2.63703e+00  1.19607e+00 -8.45711e+00 
-2.34428e+00  1.06338e+00 -8.51974e+00 
-2.05146e+00  9.30633e-01 -8.57503e+00 
-1.75854e+00  7.97804e-01 -8.62298e+00 
-1.46557e+00  6.64931e-01 -8.66357e+00 
-1.17252e+00  5.31997e-01 -8.69680e+00 
-8.79442e-01  3.99038e-01 -8.72265e+00 
-5.86303e-01  2.66036e-01 -8.74112e+00 
-2.93168e-01  1.33028e-01 -8.75220e+00 
-2.53969e-12  3.85506e-12 -8.75589e+00 
 2.93168e-01 -1.33028e-01 -8.75220e+00 
 5.86303e-01 -2.66036e-01 -8.74112e+00 
 8.79442e-01 -3.99038e-01 -8.72265e+00 
 1.17252e+00 -5.31997e-01 -8.69680e+00 
 1.46557e+00 -6.64931e-01 -8.66357e+00 
 1.75854e+00 -7.97804e-01 -8.62298e+00 
 2.05146e+00 -9.30633e-01 -8.57503e+00 
 2.34428e+00 -1.06338e+00 -8.51974e+00 
 2.63703e+00 -1.19607e+00 -8.45711e+00 
 2.92965e+00 -1.32866e+00 -8.38716e+00 
 3.22218e+00 -1.46118e+00 -8.30991e+00 
 3.51457e+00 -1.59358e+00 -8.22538e+00 
 3.80686e+00 -1.72590e+00 -8.13357e+00 
 4.09898e+00 -1.85809e+00 -8.03453e+00 
 4.39099e+00 -1.99017e+00 -7.92825e+00 
 4.68282e+00 -2.12213e+00 -7.81479e+00 
 4.97452e+00 -2.25397e+00 -7.69413e+00 
 5.26604e+00 -2.38566e+00 -7.56633e+00 
 5.55743e+00 -2.51724e+00 -7.43139e+00 
 5.84863e+00 -2.64868e+00 -7.28936e+00 
 6.13969e+00 -2.77999e+00 -7.14025e+00 
 6.43057e+00 -2.91115e+00 -6.98410e+00 
 6.72131e+00 -3.04220e+00 -6.82092e+00 
 7.01187e+00 -3.17310e+00 -6.65076e+00 
 7.30230e+00 -3.30389e+00 -6.47362e+00 
 7.59256e+00 -3.43454e+00 -6.28956e+00 
 7.88271e+00 -3.56509e+00 -6.09856e+00 
 8.17269e+00 -3.69551e+00 -5.90070e+00 
 8.46259e+00 -3.82584e+00 -5.69596e+00 
 8.75235e+00 -3.95606e+00 -5.48440e+00 
 9.04204e+00 -4.08622e+00 -5.26600e+00 
 9.33162e+00 -4.21628e+00 -5.04082e+00 
 9.62116e+00 -4.34630e+00 -4.80884e+00 
 9.91062e+00 -4.47626e+00 -4.57012e+00 
 1.02001e+01 -4.60619e+00 -4.32461e+00 
 1.04895e+01 -4.73609e+00 -4.07240e+00 
 1.07789e+01 -4.86601e+00 -3.81341e+00 
 1.10684e+01 -4.99592e+00 -3.54772e+00 
 1.13579e+01 -5.12587e+00 -3.27527e+00 
 1.16475e+01 -5.25586e+00 -2.99611e+00 
 1.19371e+01 -5.38593e+00 -2.71018e+00 
 1.22269e+01 -5.51607e+00 -2.41752e+00 
 1.25168e+01 -5.64632e+00 -2.11805e+00 
 1.28069e+01 -5.77668e+00 -1.81183e+00 
 1.30971e+01 -5.90719e+00 -1.49875e+00 
 1.33876e+01 -6.03784e+00 -1.17886e+00 
 1.36782e+01 -6.16867e+00 -8.52067e-01 
 1.39691e+01 -6.29967e+00 -5.18389e-01 
 1.42603e+01 -6.41428e+00 -8.56465e-02 
-1.40229e+01  6.30750e+00 -8.58087e-02 
-1.37365e+01  6.19477e+00 -5.19299e-01 
-1.34504e+01  6.06590e+00 -8.53524e-01 
-1.31645e+01  5.93718e+00 -1.18083e+00 
-1.28788e+01  5.80861e+00 -1.50117e+00 
-1.25932e+01  5.68017e+00 -1.81465e+00 
-1.23079e+01  5.55187e+00 -2.12124e+00 
-1.20226e+01  5.42365e+00 -2.42101e+00 
-1.17375e+01  5.29554e+00 -2.71392e+00 
-1.14524e+01  5.16749e+00 -3.00005e+00 
-1.11675e+01  5.03951e+00 -3.27936e+00 
-1.08826e+01  4.91156e+00 -3.55190e+00 
-1.05978e+01  4.78366e+00 -3.81763e+00 
-1.03129e+01  4.65576e+00 -4.07660e+00 
-1.00281e+01  4.52786e+00 -4.32877e+00 
-9.74332e+00  4.39995e+00 -4.57416e+00 
-9.45850e+00  4.27201e+00 -4.81274e+00 
-9.17360e+00  4.14403e+00 -5.04453e+00 
-8.88868e+00  4.01601e+00 -5.26948e+00 
-8.60367e+00  3.88791e+00 -5.48762e+00 
-8.31860e+00  3.75975e+00 -5.69889e+00 
-8.03341e+00  3.63150e+00 -5.90332e+00 
-7.74815e+00  3.50318e+00 -6.10083e+00 
-7.46275e+00  3.37474e+00 -6.29146e+00 
-7.17725e+00  3.24622e+00 -6.47514e+00 
-6.89161e+00  3.11758e+00 -6.65189e+00 
-6.60586e+00  2.98884e+00 -6.82164e+00 
-6.31995e+00  2.85997e+00 -6.98441e+00 
-6.03392e+00  2.73100e+00 -7.14014e+00 
-5.74773e+00  2.60189e+00 -7.28883e+00 
-5.46143e+00  2.47269e+00 -7.43044e+00 
-5.17496e+00  2.34335e+00 -7.56497e+00 
-4.88837e+00  2.21391e+00 -7.69237e+00 
-4.60162e+00  2.08434e+00 -7.81263e+00 
-4.31477e+00  1.95468e+00 -7.92572e+00 
-4.02775e+00  1.82489e+00 -8.03163e+00 
-3.74064e+00  1.69502e+00 -8.13032e+00 
-3.45338e+00  1.56503e+00 -8.22179e+00 
-3.16604e+00  1.43496e+00 -8.30601e+00 
-2.87856e+00  1.30480e+00 -8.38298e+00 
-2.59101e+00  1.17456e+00 -8.45266e+00 
-2.30334e+00  1.04424e+00 -8.51505e+00 
-2.01562e+00  9.13867e-01 -8.57012e+00 
-1.72780e+00  7.83420e-01 -8.61789e+00 
-1.43994e+00  6.52935e-01 -8.65831e+00 
-1.15200e+00  5.22395e-01 -8.69141e+00 
-8.64053e-01  3.91832e-01 -8.71715e+00 
-5.76041e-01  2.61231e-01 -8.73555e+00 
-2.88037e-01  1.30625e-01 -8.74658e+00 
-2.47688e-12  2.97698e-12 -8.75026e+00 
 2.88037e-01 -1.30625e-01 -8.74658e+00 
 5.76041e-01 -2.61231e-01 -8.73555e+00 
 8.64053e-01 -3.91832e-01 -8.71715e+00 
 1.15200e+00 -5.22395e-01 -8.69141e+00 
 1.43994e+00 -6.52935e-01 -8.65831e+00 
 1.72780e+00 -7.83420e-01 -8.61789e+00 
 2.01562e+00 -9.13867e-01 -8.57012e+00 
 2.30334e+00 -1.04424e+00 -8.51505e+00 
 2.59101e+00 -1.17456e+00 -8.45266e+00 
 2.87856e+00 -1.30480e+00 -8.38298e+00 
 3.16604e+00 -1.43496e+00 -8.30601e+00 
 3.45338e+00 -1.56503e+00 -8.22179e+00 
 3.74064e+00 -1.69502e+00 -8.13032e+00 
 4.02775e+00 -1.82489e+00 -8.03163e+00 
 4.31477e+00 -1.95468e+00 -7.92572e+00 
 4.60162e+00 -2.08434e+00 -7.81263e+00 
 4.88837e+00 -2.21391e+00 -7.69237e+00 
 5.17496e+00 -2.34335e+00 -7.56497e+00 
 5.46143e+00 -2.47269e+00 -7.43044e+00 
 5.74773e+00 -2.60189e+00 -7.28883e+00 
 6.03392e+00 -2.73100e+00 -7.14014e+00 
 6.31995e+00 -2.85997e+00 -6.98441e+00 
 6.60586e+00 -2.98884e+00 -6.82164e+00 
 6.89161e+00 -3.11758e+00 -6.65189e+00 
 7.17725e+00 -3.24622e+00 -6.47514e+00 
 7.46275e+00 -3.37474e+00 -6.29146e+00 
 7.74815e+00 -3.50318e+00 -6.10083e+00 
 8.03341e+00 -3.63150e+00 -5.90332e+00 
 8.31860e+00 -3.75975e+00 -5.69889e+00 
 8.60367e+00 -3.88791e+00 -5.48762e+00 
 8.88868e+00 -4.01601e+00 -5.26948e+00 
 9.17360e+00 -4.14403e+00 -5.04453e+00 
 9.45850e+00 -4.27201e+00 -4.81274e+00 
 9.74332e+00 -4.39995e+00 -4.57416e+00 
 1.00281e+01 -4.52786e+00 -4.32877e+00 
 1.03129e+01 -4.65576e+00 -4.07660e+00 
 1.05978e+01 -4.78366e+00 -3.81763e+00 
 1.08826e+01 -4.91156e+00 -3.55190e+00 
 1.11675e+01 -5.03951e+00 -3.27936e+00 
 1.14524e+01 -5.16749e+00 -3.00005e+00 
 1.17375e+01 -5.29554e+00 -2.71392e+00 
 1.20226e+01 -5.42365e+00 -2.42101e+00 
 1.23079e+01 -5.55187e+00 -2.12124e+00 
 1.25932e+01 -5.68017e+00 -1.81465e+00 
 1.28788e+01 -5.80861e+00 -1.50117e+00 
 1.31645e+01 -5.93718e+00 -1.18083e+00 
 1.34504e+01 -6.06590e+00 -8.53524e-01 
 1.37365e+01 -6.19477e+00 -5.19299e-01 
 1.40229e+01 -6.30750e+00 -8.58087e-02 
-1.37851e+01  6.20054e+00 -8.59470e-02 
-1.35036e+01  6.08971e+00 -5.20082e-01 
-1.32223e+01  5.96298e+00 -8.54779e-01 
-1.29411e+01  5.83639e+00 -1.18252e+00 
-1.26602e+01  5.70993e+00 -1.50326e+00 
-1.23793e+01  5.58358e+00 -1.81710e+00 
-1.20987e+01  5.45734e+00 -2.12400e+00 
-1.18181e+01  5.33119e+00 -2.42404e+00 
-1.15377e+01  5.20512e+00 -2.71718e+00 
-1.12573e+01  5.07911e+00 -3.00349e+00 
-1.09770e+01  4.95317e+00 -3.28292e+00 
-1.06968e+01  4.82725e+00 -3.55555e+00 
-1.04166e+01  4.70138e+00 -3.82133e+00 
-1.01364e+01  4.57550e+00 -4.08030e+00 
-9.85631e+00  4.44964e+00 -4.33241e+00 
-9.57614e+00  4.32376e+00 -4.57773e+00 
-9.29598e+00  4.19787e+00 -4.81618e+00 
-9.01576e+00  4.07194e+00 -5.04781e+00 
-8.73553e+00  3.94597e+00 -5.27257e+00 
-8.45521e+00  3.81994e+00 -5.49049e+00 
-8.17485e+00  3.69386e+00 -5.70151e+00 
-7.89439e+00  3.56770e+00 -5.90565e+00 
-7.61387e+00  3.44148e+00 -6.10287e+00 
-7.33322e+00  3.31516e+00 -6.29318e+00 
-7.05251e+00  3.18877e+00 -6.47652e+00 
-6.77166e+00  3.06228e+00 -6.65292e+00 
-6.49072e+00  2.93570e+00 -6.82232e+00 
-6.20964e+00  2.80900e+00 -6.98472e+00 
-5.92847e+00  2.68222e+00 -7.14008e+00 
-5.64715e+00  2.55533e+00 -7.28841e+00 
-5.36574e+00  2.42834e+00 -7.42965e+00 
-5.08418e+00  2.30124e+00 -7.56381e+00 
-4.80252e+00  2.17406e+00 -7.69084e+00 
-4.52072e+00  2.04675e+00 -7.81076e+00 
-4.23882e+00  1.91937e+00 -7.92350e+00 
-3.95679e+00  1.79187e+00 -8.02909e+00 
-3.67468e+00  1.66430e+00 -8.12746e+00 
-3.39243e+00  1.53663e+00 -8.21864e+00 
-3.11011e+00  1.40889e+00 -8.30258e+00 
-2.82767e+00  1.28106e+00 -8.37929e+00 
-2.54517e+00  1.15317e+00 -8.44873e+00 
-2.26257e+00  1.02521e+00 -8.51090e+00 
-1.97992e+00  8.97194e-01 -8.56578e+00 
-1.69718e+00  7.69117e-01 -8.61338e+00 
-1.41442e+00  6.41007e-01 -8.65366e+00 
-1.13158e+00  5.12846e-01 -8.68663e+00 
-8.48729e-01  3.84667e-01 -8.71228e+00 
-5.65823e-01  2.56452e-01 -8.73061e+00 
-2.82927e-01  1.28235e-01 -8.74161e+00 
-2.17666e-12  3.53530e-12 -8.74527e+00 
 2.82927e-01 -1.28235e-01 -8.74161e+00 
 5.65823e-01 -2.56452e-01 -8.73061e+00 
 8.48729e-01 -3.84667e-01 -8.71228e+00 
 1.13158e+00 -5.12846e-01 -8.68663e+00 
 1.41442e+00 -6.41007e-01 -8.65366e+00 
 1.69718e+00 -7.69117e-01 -8.61338e+00 
 1.97992e+00 -8.97194e-01 -8.56578e+00 
 2.26257e+00 -1.02521e+00 -8.51090e+00 
 2.54517e+00 -1.15317e+00 -8.44873e+00 
 2.82767e+00 -1.28106e+00 -8.37929e+00 
 3.11011e+00 -1.40889e+00 -8.30258e+00 
 3.39243e+00 -1.53663e+00 -8.21864e+00 
 3.67468e+00 -1.66430e+00 -8.12746e+00 
 3.95679e+00 -1.79187e+00 -8.02909e+00 
 4.23882e+00 -1.91937e+00 -7.92350e+00 
 4.52072e+00 -2.04675e+00 -7.81076e+00 
 4.80252e+00 -2.17406e+00 -7.69084e+00 
 5.08418e+00 -2.30124e+00 -7.56381e+00 
 5.36574e+00 -2.42834e+00 -7.42965e+00 
 5.64715e+00 -2.55533e+00 -7.28841e+00 
 5.92847e+00 -2.68222e+00 -7.14008e+00 
 6.20964e+00 -2.80900e+00 -6.98472e+00 
 6.49072e+00 -2.93570e+00 -6.82232e+00 
 6.77166e+00 -3.06228e+00 -6.65292e+00 
 7.05251e+00 -3.18877e+00 -6.47652e+00 
 7.33322e+00 -3.31516e+00 -6.29318e+00 
 7.61387e+00 -3.44148e+00 -6.10287e+00 
 7.89439e+00 -3.56770e+00 -5.90565e+00 
 8.17485e+00 -3.69386e+00 -5.70151e+00 
 8.45521e+00 -3.81994e+00 -5.49049e+00 
 8.73553e+00 -3.94597e+00 -5.27257e+00 
 9.01576e+00 -4.07194e+00 -5.04781e+00 
 9.29598e+00 -4.19787e+00 -4.81618e+00 
 9.57614e+00 -4.32376e+00 -4.57773e+00 
 9.85631e+00 -4.44964e+00 -4.33241e+00 
 1.01364e+01 -4.57550e+00 -4.08030e+00 
 1.04166e+01 -4.70138e+00 -3.82133e+00 
 1.06968e+01 -4.82725e+00 -3.55555e+00 
 1.09770e+01 -4.95317e+00 -3.28292e+00 
 1.12573e+01 -5.07911e+00 -3.00349e+00 
 1.15377e+01 -5.20512e+00 -2.71718e+00 
 1.18181e+01 -5.33119e+00 -2.42404e+00 
 1.20987e+01 -5.45734e+00 -2.12400e+00 
 1.23793e+01 -5.58358e+00 -1.81710e+00 
 1.26602e+01 -5.70993e+00 -1.50326e+00 
 1.29411e+01 -5.83639e+00 -1.18252e+00 
 1.32223e+01 -5.96298e+00 -8.54779e-01 
 1.35036e+01 -6.08971e+00 -5.20082e-01 
 1.37851e+01 -6.20054e+00 -8.59470e-02 
-1.35469e+01  6.09344e+00 -8.60646e-02 
-1.32703e+01  5.98450e+00 -5.20752e-01 
-1.29938e+01  5.85994e+00 -8.55854e-01 
-1.27175e+01  5.73548e+00 -1.18397e+00 
-1.24413e+01  5.61115e+00 -1.50506e+00 
-1.21653e+01  5.48690e+00 -1.81921e+00 
-1.18893e+01  5.36276e+00 -2.12638e+00 
-1.16135e+01  5.23868e+00 -2.42666e+00 
-1.13378e+01  5.11469e+00 -2.71999e+00 
-1.10621e+01  4.99074e+00 -3.00646e+00 
-1.07865e+01  4.86685e+00 -3.28602e+00 
-1.05110e+01  4.74299e+00 -3.55872e+00 
-1.02355e+01  4.61916e+00 -3.82454e+00 
-9.95999e+00  4.49533e+00 -4.08351e+00 
-9.68454e+00  4.37152e+00 -4.33559e+00 
-9.40906e+00  4.24769e+00 -4.58084e+00 
-9.13359e+00  4.12386e+00 -4.81919e+00 
-8.85807e+00  3.99999e+00 -5.05069e+00 
-8.58255e+00  3.87609e+00 -5.27528e+00 
-8.30694e+00  3.75214e+00 -5.49301e+00 
-8.03132e+00  3.62815e+00 -5.70381e+00 
-7.75559e+00  3.50409e+00 -5.90772e+00 
-7.47983e+00  3.37998e+00 -6.10468e+00 
-7.20396e+00  3.25579e+00 -6.29471e+00 
-6.92803e+00  3.13153e+00 -6.47777e+00 
-6.65198e+00  3.00718e+00 -6.65386e+00 
-6.37586e+00  2.88276e+00 -6.82294e+00 
-6.09962e+00  2.75825e+00 -6.98503e+00 
-5.82330e+00  2.63366e+00 -7.14007e+00 
-5.54685e+00  2.50897e+00 -7.28807e+00 
-5.27033e+00  2.38420e+00 -7.42898e+00 
-4.99367e+00  2.25933e+00 -7.56282e+00 
-4.71693e+00  2.13439e+00 -7.68954e+00 
-4.44007e+00  2.00934e+00 -7.80914e+00 
-4.16313e+00  1.88423e+00 -7.92159e+00 
-3.88607e+00  1.75902e+00 -8.02688e+00 
-3.60894e+00  1.63374e+00 -8.12498e+00 
-3.33169e+00  1.50838e+00 -8.21590e+00 
-3.05438e+00  1.38295e+00 -8.29959e+00 
-2.77697e+00  1.25745e+00 -8.37606e+00 
-2.49951e+00  1.13190e+00 -8.44529e+00 
-2.22195e+00  1.00627e+00 -8.50727e+00 
-1.94436e+00  8.80610e-01 -8.56198e+00 
-1.66669e+00  7.54890e-01 -8.60942e+00 
-1.38899e+00  6.29142e-01 -8.64957e+00 
-1.11123e+00  5.03349e-01 -8.68244e+00 
-8.33464e-01  3.77541e-01 -8.70801e+00 
-5.55645e-01  2.51700e-01 -8.72627e+00 
-2.77837e-01  1.25858e-01 -8.73723e+00 
-2.54396e-12  3.65323e-12 -8.74089e+00 
 2.77837e-01 -1.25858e-01 -8.73723e+00 
 5.55645e-01 -2.51700e-01 -8.72627e+00 
 8.33464e-01 -3.77541e-01 -8.70801e+00 
 1.11123e+00 -5.03349e-01 -8.68244e+00 
 1.38899e+00 -6.29142e-01 -8.64957e+00 
 1.66669e+00 -7.54890e-01 -8.60942e+00 
 1.94436e+00 -8.80610e-01 -8.56198e+00 
 2.22195e+00 -1.00627e+00 -8.50727e+00 
 2.49951e+00 -1.13190e+00 -8.44529e+00 
 2.77697e+00 -1.25745e+00 -8.37606e+00 
 3.05438e+00 -1.38295e+00 -8.29959e+00 
 3.33169e+00 -1.50838e+00 -8.21590e+00 
 3.60894e+00 -1.63374e+00 -8.12498e+00 
 3.88607e+00 -1.75902e+00 -8.02688e+00 
 4.16313e+00 -1.88423e+00 -7.92159e+00 
 4.44007e+00 -2.00934e+00 -7.80914e+00 
 4.71693e+00 -2.13439e+00 -7.68954e+00 
 4.99367e+00 -2.25933e+00 -7.56282e+00 
 5.27033e+00 -2.38420e+00 -7.42898e+00 
 5.54685e+00 -2.50897e+00 -7.28807e+00 
 5.82330e+00 -2.63366e+00 -7.14007e+00 
 6.09962e+00 -2.75825e+00 -6.98503e+00 
 6.37586e+00 -2.88276e+00 -6.82294e+00 
 6.65198e+00 -3.00718e+00 -6.65386e+00 
 6.92803e+00 -3.13153e+00 -6.47777e+00 
 7.20396e+00 -3.25579e+00 -6.29471e+00 
 7.47983e+00 -3.37998e+00 -6.10468e+00 
 7.75559e+00 -3.50409e+00 -5.90772e+00 
 8.03132e+00 -3.62815e+00 -5.70381e+00 
 8.30694e+00 -3.75214e+00 -5.49301e+00 
 8.58255e+00 -3.87609e+00 -5.27528e+00 
 8.85807e+00 -3.99999e+00 -5.05069e+00 
 9.13359e+00 -4.12386e+00 -4.81919e+00 
 9.40906e+00 -4.24769e+00 -4.58084e+00 
 9.68454e+00 -4.37152e+00 -4.33559e+00 
 9.95999e+00 -4.49533e+00 -4.08351e+00 
 1.02355e+01 -4.61916e+00 -3.82454e+00 
 1.05110e+01 -4.74299e+00 -3.55872e+00 
 1.07865e+01 -4.86685e+00 -3.28602e+00 
 1.10621e+01 -4.99074e+00 -3.00646e+00 
 1.13378e+01 -5.11469e+00 -2.71999e+00 
 1.16135e+01 -5.23868e+00 -2.42666e+00 
 1.18893e+01 -5.36276e+00 -2.12638e+00 
 1.21653e+01 -5.48690e+00 -1.81921e+00 
 1.24413e+01 -5.61115e+00 -1.50506e+00 
 1.27175e+01 -5.73548e+00 -1.18397e+00 
 1.29938e+01 -5.85994e+00 -8.55854e-01 
 1.32703e+01 -5.98450e+00 -5.20752e-01 
 1.35469e+01 -6.09344e+00 -8.60646e-02 
-1.33085e+01  5.98621e+00 -8.61638e-02 
-1.30368e+01  5.87918e+00 -5.21321e-01 
-1.27651e+01  5.75679e+00 -8.56769e-01 
-1.24936e+01  5.63448e+00 -1.18521e+00 
-1.22223e+01  5.51228e+00 -1.50659e+00 
-1.19510e+01  5.39016e+00 -1.82101e+00 
-1.16798e+01  5.26812e+00 -2.12841e+00 
-1.14087e+01  5.14614e+00 -2.42890e+00 
-1.11378e+01  5.02423e+00 -2.72240e+00 
-1.08668e+01  4.90236e+00 -3.00901e+00 
-1.05960e+01  4.78055e+00 -3.28867e+00 
-1.03251e+01  4.65875e+00 -3.56145e+00 
-1.00544e+01  4.53699e+00 -3.82730e+00 
-9.78358e+00  4.41523e+00 -4.08628e+00 
-9.51284e+00  4.29349e+00 -4.33834e+00 
-9.24207e+00  4.17172e+00 -4.58352e+00 
-8.97131e+00  4.04996e+00 -4.82179e+00 
-8.70052e+00  3.92817e+00 -5.05318e+00 
-8.42972e+00  3.80635e+00 -5.27763e+00 
-8.15885e+00  3.68449e+00 -5.49520e+00 
-7.88797e+00  3.56260e+00 -5.70581e+00 
-7.61700e+00  3.44065e+00 -5.90952e+00 
-7.34601e+00  3.31865e+00 -6.10626e+00 
-7.07491e+00  3.19659e+00 -6.29606e+00 
-6.80378e+00  3.07447e+00 -6.47886e+00 
-6.53254e+00  2.95227e+00 -6.65470e+00 
-6.26124e+00  2.83002e+00 -6.82351e+00 
-5.98984e+00  2.70768e+00 -6.98532e+00 
-5.71838e+00  2.58528e+00 -7.14008e+00 
-5.44680e+00  2.46279e+00 -7.28780e+00 
-5.17516e+00  2.34024e+00 -7.42843e+00 
-4.90340e+00  2.21760e+00 -7.56199e+00 
-4.63159e+00  2.09489e+00 -7.68843e+00 
-4.35965e+00  1.97210e+00 -7.80776e+00 
-4.08766e+00  1.84925e+00 -7.91994e+00 
-3.81556e+00  1.72631e+00 -8.02498e+00 
-3.54340e+00  1.60332e+00 -8.12284e+00 
-3.27114e+00  1.48026e+00 -8.21353e+00 
-2.99884e+00  1.35714e+00 -8.29700e+00 
-2.72644e+00  1.23395e+00 -8.37327e+00 
-2.45400e+00  1.11072e+00 -8.44231e+00 
-2.18147e+00  9.87432e-01 -8.50412e+00 
-1.90892e+00  8.64109e-01 -8.55868e+00 
-1.63629e+00  7.40734e-01 -8.60599e+00 
-1.36366e+00  6.17337e-01 -8.64603e+00 
-1.09095e+00  4.93900e-01 -8.67880e+00 
-8.18252e-01  3.70451e-01 -8.70429e+00 
-5.45502e-01  2.46972e-01 -8.72251e+00 
-2.72765e-01  1.23493e-01 -8.73344e+00 
-1.39554e-12  1.73855e-12 -8.73708e+00 
 2.72765e-01 -1.23493e-01 -8.73344e+00 
 5.45502e-01 -2.46972e-01 -8.72251e+00 
 8.18252e-01 -3.70451e-01 -8.70429e+00 
 1.09095e+00 -4.93900e-01 -8.67880e+00 
 1.36366e+00 -6.17337e-01 -8.64603e+00 
 1.63629e+00 -7.40734e-01 -8.60599e+00 
 1.90892e+00 -8.64109e-01 -8.55868e+00 
 2.18147e+00 -9.87432e-01 -8.50412e+00 
 2.45400e+00 -1.11072e+00 -8.44231e+00 
 2.72644e+00 -1.23395e+00 -8.37327e+00 
 2.99884e+00 -1.35714e+00 -8.29700e+00 
 3.27114e+00 -1.48026e+00 -8.21353e+00 
 3.54340e+00 -1.60332e+00 -8.12284e+00 
 3.81556e+00 -1.72631e+00 -8.02498e+00 
 4.08766e+00 -1.84925e+00 -7.91994e+00 
 4.35965e+00 -1.97210e+00 -7.80776e+00 
 4.63159e+00 -2.09489e+00 -7.68843e+00 
 4.90340e+00 -2.21760e+00 -7.56199e+00 
 5.17516e+00 -2.34024e+00 -7.42843e+00 
 5.44680e+00 -2.46279e+00 -7.28780e+00 
 5.71838e+00 -2.58528e+00 -7.14008e+00 
 5.98984e+00 -2.70768e+00 -6.98532e+00 
 6.26124e+00 -2.83002e+00 -6.82351e+00 
 6.53254e+00 -2.95227e+00 -6.65470e+00 
 6.80378e+00 -3.07447e+00 -6.47886e+00 
 7.07491e+00 -3.19659e+00 -6.29606e+00 
 7.34601e+00 -3.31865e+00 -6.10626e+00 
 7.61700e+00 -3.44065e+00 -5.90952e+00 
 7.88797e+00 -3.56260e+00 -5.70581e+00 
 8.15885e+00 -3.68449e+00 -5.49520e+00 
 8.42972e+00 -3.80635e+00 -5.27763e+00 
 8.70052e+00 -3.92817e+00 -5.05318e+00 
 8.97131e+00 -4.04996e+00 -4.82179e+00 
 9.24207e+00 -4.17172e+00 -4.58352e+00 
 9.51284e+00 -4.29349e+00 -4.33834e+00 
 9.78358e+00 -4.41523e+00 -4.08628e+00 
 1.00544e+01 -4.53699e+00 -3.82730e+00 
 1.03251e+01 -4.65875e+00 -3.56145e+00 
 1.05960e+01 -4.78055e+00 -3.28867e+00 
 1.08668e+01 -4.90236e+00 -3.00901e+00 
 1.11378e+01 -5.02423e+00 -2.72240e+00 
 1.14087e+01 -5.14614e+00 -2.42890e+00 
 1.16798e+01 -5.26812e+00 -2.12841e+00 
 1.19510e+01 -5.39016e+00 -1.82101e+00 
 1.22223e+01 -5.51228e+00 -1.50659e+00 
 1.24936e+01 -5.63448e+00 -1.18521e+00 
 1.27651e+01 -5.75679e+00 -8.56769e-01 
 1.30368e+01 -5.87918e+00 -5.21321e-01 
 1.33085e+01 -5.98621e+00 -8.61638e-02 
-1.30699e+01  5.87887e+00 -8.62470e-02 
-1.28030e+01  5.77376e+00 -5.21799e-01 
-1.25362e+01  5.65355e+00 -8.57540e-01 
-1.22696e+01  5.53340e+00 -1.18625e+00 
-1.20030e+01  5.41335e+00 -1.50788e+00 
-1.17366e+01  5.29336e+00 -1.82253e+00 
-1.14702e+01  5.17344e+00 -2.13014e+00 
-1.12039e+01  5.05357e+00 -2.43079e+00 
-1.09377e+01  4.93377e+00 -2.72445e+00 
-1.06715e+01  4.81399e+00 -3.01117e+00 
-1.04054e+01  4.69426e+00 -3.29092e+00 
-1.01393e+01  4.57455e+00 -3.56377e+00 
-9.87324e+00  4.45487e+00 -3.82965e+00 
-9.60720e+00  4.33519e+00 -4.08864e+00 
-9.34118e+00  4.21552e+00 -4.34068e+00 
-9.07515e+00  4.09584e+00 -4.58582e+00 
-8.80913e+00  3.97616e+00 -4.82401e+00 
-8.54307e+00  3.85646e+00 -5.05530e+00 
-8.27702e+00  3.73674e+00 -5.27964e+00 
-8.01090e+00  3.61697e+00 -5.49707e+00 
-7.74478e+00  3.49719e+00 -5.70754e+00 
-7.47859e+00  3.37735e+00 -5.91107e+00 
-7.21237e+00  3.25748e+00 -6.10762e+00 
-6.94607e+00  3.13755e+00 -6.29722e+00 
-6.67973e+00  3.01757e+00 -6.47981e+00 
-6.41331e+00  2.89753e+00 -6.65542e+00 
-6.14684e+00  2.77744e+00 -6.82401e+00 
-5.88028e+00  2.65728e+00 -6.98558e+00 
-5.61367e+00  2.53706e+00 -7.14010e+00 
-5.34696e+00  2.41678e+00 -7.28758e+00 
-5.08021e+00  2.29643e+00 -7.42797e+00 
-4.81335e+00  2.17602e+00 -7.56129e+00 
-4.54645e+00  2.05555e+00 -7.68750e+00 
-4.27944e+00  1.93501e+00 -7.80660e+00 
-4.01239e+00  1.81441e+00 -7.91855e+00 
-3.74524e+00  1.69375e+00 -8.02337e+00 
-3.47805e+00  1.57303e+00 -8.12102e+00 
-3.21077e+00  1.45226e+00 -8.21151e+00 
-2.94345e+00  1.33144e+00 -8.29479e+00 
-2.67605e+00  1.21056e+00 -8.37089e+00 
-2.40862e+00  1.08964e+00 -8.43977e+00 
-2.14111e+00  9.68676e-01 -8.50143e+00 
-1.87359e+00  8.47683e-01 -8.55586e+00 
-1.60599e+00  7.26643e-01 -8.60305e+00 
-1.33839e+00  6.05587e-01 -8.64300e+00 
-1.07074e+00  4.84494e-01 -8.67569e+00 
-8.03087e-01  3.63393e-01 -8.70112e+00 
-5.35390e-01  2.42266e-01 -8.71929e+00 
-2.67708e-01  1.21140e-01 -8.73019e+00 
-1.98598e-12  1.82215e-12 -8.73382e+00 
 2.67708e-01 -1.21140e-01 -8.73019e+00 
 5.35390e-01 -2.42266e-01 -8.71929e+00 
 8.03087e-01 -3.63393e-01 -8.70112e+00 
 1.07074e+00 -4.84494e-01 -8.67569e+00 
 1.33839e+00 -6.05587e-01 -8.64300e+00 
 1.60599e+00 -7.26643e-01 -8.60305e+00 
 1.87359e+00 -8.47683e-01 -8.55586e+00 
 2.14111e+00 -9.68676e-01 -8.50143e+00 
 2.40862e+00 -1.08964e+00 -8.43977e+00 
 2.67605e+00 -1.21056e+00 -8.37089e+00 
 2.94345e+00 -1.33144e+00 -8.29479e+00 
 3.21077e+00 -1.45226e+00 -8.21151e+00 
 3.47805e+00 -1.57303e+00 -8.12102e+00 
 3.74524e+00 -1.69375e+00 -8.02337e+00 
 4.01239e+00 -1.81441e+00 -7.91855e+00 
 4.27944e+00 -1.93501e+00 -7.80660e+00 
 4.54645e+00 -2.05555e+00 -7.68750e+00 
 4.81335e+00 -2.17602e+00 -7.56129e+00 
 5.08021e+00 -2.29643e+00 -7.42797e+00 
 5.34696e+00 -2.41678e+00 -7.28758e+00 
 5.61367e+00 -2.53706e+00 -7.14010e+00 
 5.88028e+00 -2.65728e+00 -6.98558e+00 
 6.14684e+00 -2.77744e+00 -6.82401e+00 
 6.41331e+00 -2.89753e+00 -6.65542e+00 
 6.67973e+00 -3.01757e+00 -6.47981e+00 
 6.94607e+00 -3.13755e+00 -6.29722e+00 
 7.21237e+00 -3.25748e+00 -6.10762e+00 
 7.47859e+00 -3.37735e+00 -5.91107e+00 
 7.74478e+00 -3.49719e+00 -5.70754e+00 
 8.01090e+00 -3.61697e+00 -5.49707e+00 
 8.27702e+00 -3.73674e+00 -5.27964e+00 
 8.54307e+00 -3.85646e+00 -5.05530e+00 
 8.80913e+00 -3.97616e+00 -4.82401e+00 
 9.07515e+00 -4.09584e+00 -4.58582e+00 
 9.34118e+00 -4.21552e+00 -4.34068e+00 
 9.60720e+00 -4.33519e+00 -4.08864e+00 
 9.87324e+00 -4.45487e+00 -3.82965e+00 
 1.01393e+01 -4.57455e+00 -3.56377e+00 
 1.04054e+01 -4.69426e+00 -3.29092e+00 
 1.06715e+01 -4.81399e+00 -3.01117e+00 
 1.09377e+01 -4.93377e+00 -2.72445e+00 
 1.12039e+01 -5.05357e+00 -2.43079e+00 
 1.14702e+01 -5.17344e+00 -2.13014e+00 
 1.17366e+01 -5.29336e+00 -1.82253e+00 
 1.20030e+01 -5.41335e+00 -1.50788e+00 
 1.22696e+01 -5.53340e+00 -1.18625e+00 
 1.25362e+01 -5.65355e+00 -8.57540e-01 
 1.28030e+01 -5.77376e+00 -5.21799e-01 
 1.30699e+01 -5.87887e+00 -8.62470e-02 
-1.28310e+01  5.77144e+00 -8.63160e-02 
-1.25691e+01  5.66826e+00 -5.22197e-01 
-1.23072e+01  5.55022e+00 -8.58182e-01 
-1.20454e+01  5.43225e+00 -1.18712e+00 
-1.17837e+01  5.31435e+00 -1.50896e+00 
-1.15220e+01  5.19651e+00 -1.82379e+00 
-1.12605e+01  5.07872e+00 -2.13157e+00 
-1.09989e+01  4.96098e+00 -2.43237e+00 
-1.07375e+01  4.84329e+00 -2.72615e+00 
-1.04761e+01  4.72562e+00 -3.01298e+00 
-1.02148e+01  4.60799e+00 -3.29281e+00 
-9.95342e+00  4.49038e+00 -3.56570e+00 
-9.69214e+00  4.37279e+00 -3.83162e+00 
-9.43084e+00  4.25520e+00 -4.09061e+00 
-9.16958e+00  4.13763e+00 -4.34263e+00 
-8.90829e+00  4.02004e+00 -4.58774e+00 
-8.64703e+00  3.90245e+00 -4.82587e+00 
-8.38573e+00  3.78484e+00 -5.05709e+00 
-8.12443e+00  3.66722e+00 -5.28134e+00 
-7.86308e+00  3.54957e+00 -5.49865e+00 
-7.60173e+00  3.43190e+00 -5.70898e+00 
-7.34031e+00  3.31418e+00 -5.91237e+00 
-7.07888e+00  3.19644e+00 -6.10877e+00 
-6.81738e+00  3.07864e+00 -6.29820e+00 
-6.55586e+00  2.96081e+00 -6.48061e+00 
-6.29425e+00  2.84293e+00 -6.65604e+00 
-6.03262e+00  2.72500e+00 -6.82443e+00 
-5.77090e+00  2.60702e+00 -6.98581e+00 
-5.50915e+00  2.48899e+00 -7.14013e+00 
-5.24732e+00  2.37090e+00 -7.28740e+00 
-4.98544e+00  2.25277e+00 -7.42759e+00 
-4.72348e+00  2.13458e+00 -7.56071e+00 
-4.46148e+00  2.01634e+00 -7.68672e+00 
-4.19940e+00  1.89804e+00 -7.80562e+00 
-3.93728e+00  1.77970e+00 -7.91739e+00 
-3.67508e+00  1.66130e+00 -8.02202e+00 
-3.41285e+00  1.54286e+00 -8.11950e+00 
-3.15053e+00  1.42436e+00 -8.20981e+00 
-2.88820e+00  1.30583e+00 -8.29294e+00 
-2.62578e+00  1.18725e+00 -8.36889e+00 
-2.36335e+00  1.06865e+00 -8.43764e+00 
-2.10085e+00  9.49995e-01 -8.49918e+00 
-1.83834e+00  8.31322e-01 -8.55349e+00 
-1.57577e+00  7.12609e-01 -8.60059e+00 
-1.31320e+00  5.93884e-01 -8.64045e+00 
-1.05058e+00  4.75127e-01 -8.67307e+00 
-7.87963e-01  3.56365e-01 -8.69845e+00 
-5.25306e-01  2.37579e-01 -8.71658e+00 
-2.62665e-01  1.18796e-01 -8.72746e+00 
-2.08386e-12  3.07042e-12 -8.73108e+00 
 2.62665e-01 -1.18796e-01 -8.72746e+00 
 5.25306e-01 -2.37579e-01 -8.71658e+00 
 7.87963e-01 -3.56365e-01 -8.69845e+00 
 1.05058e+00 -4.75127e-01 -8.67307e+00 
 1.31320e+00 -5.93884e-01 -8.64045e+00 
 1.57577e+00 -7.12609e-01 -8.60059e+00 
 1.83834e+00 -8.31322e-01 -8.55349e+00 
 2.10085e+00 -9.49995e-01 -8.49918e+00 
 2.36335e+00 -1.06865e+00 -8.43764e+00 
 2.62578e+00 -1.18725e+00 -8.36889e+00 
 2.88820e+00 -1.30583e+00 -8.29294e+00 
 3.15053e+00 -1.42436e+00 -8.20981e+00 
 3.41285e+00 -1.54286e+00 -8.11950e+00 
 3.67508e+00 -1.66130e+00 -8.02202e+00 
 3.93728e+00 -1.77970e+00 -7.91739e+00 
 4.19940e+00 -1.89804e+00 -7.80562e+00 
 4.46148e+00 -2.01634e+00 -7.68672e+00 
 4.72348e+00 -2.13458e+00 -7.56071e+00 
 4.98544e+00 -2.25277e+00 -7.42759e+00 
 5.24732e+00 -2.37090e+00 -7.28740e+00 
 5.50915e+00 -2.48899e+00 -7.14013e+00 
 5.77090e+00 -2.60702e+00 -6.98581e+00 
 6.03262e+00 -2.72500e+00 -6.82443e+00 
 6.29425e+00 -2.84293e+00 -6.65604e+00 
 6.55586e+00 -2.96081e+00 -6.48061e+00 
 6.81738e+00 -3.07864e+00 -6.29820e+00 
 7.07888e+00 -3.19644e+00 -6.10877e+00 
 7.34031e+00 -3.31418e+00 -5.91237e+00 
 7.60173e+00 -3.43190e+00 -5.70898e+00 
 7.86308e+00 -3.54957e+00 -5.49865e+00 
 8.12443e+00 -3.66722e+00 -5.28134e+00 
 8.38573e+00 -3.78484e+00 -5.05709e+00 
 8.64703e+00 -3.90245e+00 -4.82587e+00 
 8.90829e+00 -4.02004e+00 -4.58774e+00 
 9.16958e+00 -4.13763e+00 -4.34263e+00 
 9.43084e+00 -4.25520e+00 -4.09061e+00 
 9.69214e+00 -4.37279e+00 -3.83162e+00 
 9.95342e+00 -4.49038e+00 -3.56570e+00 
 1.02148e+01 -4.60799e+00 -3.29281e+00 
 1.04761e+01 -4.72562e+00 -3.01298e+00 
 1.07375e+01 -4.84329e+00 -2.72615e+00 
 1.09989e+01 -4.96098e+00 -2.43237e+00 
 1.12605e+01 -5.07872e+00 -2.13157e+00 
 1.15220e+01 -5.19651e+00 -1.82379e+00 
 1.17837e+01 -5.31435e+00 -1.50896e+00 
 1.20454e+01 -5.43225e+00 -1.18712e+00 
 1.23072e+01 -5.55022e+00 -8.58182e-01 
 1.25691e+01 -5.66826e+00 -5.22197e-01 
 1.28310e+01 -5.77144e+00 -8.63160e-02 
-1.25920e+01  5.66394e+00 -8.63723e-02 
-1.23350e+01  5.56268e+00 -5.22522e-01 
-1.20780e+01  5.44684e+00 -8.58705e-01 
-1.18210e+01  5.33104e+00 -1.18783e+00 
-1.15642e+01  5.21531e+00 -1.50984e+00 
-1.13074e+01  5.09962e+00 -1.82483e+00 
-1.10506e+01  4.98398e+00 -2.13275e+00 
-1.07939e+01  4.86836e+00 -2.43367e+00 
-1.05373e+01  4.75280e+00 -2.72755e+00 
-1.02807e+01  4.63725e+00 -3.01446e+00 
-1.00241e+01  4.52173e+00 -3.29435e+00 
-9.76755e+00  4.40622e+00 -3.56729e+00 
-9.51103e+00  4.29074e+00 -3.83323e+00 
-9.25451e+00  4.17525e+00 -4.09223e+00 
-8.99801e+00  4.05978e+00 -4.34424e+00 
-8.74149e+00  3.94429e+00 -4.58931e+00 
-8.48499e+00  3.82881e+00 -4.82740e+00 
-8.22846e+00  3.71331e+00 -5.05855e+00 
-7.97193e+00  3.59780e+00 -5.28272e+00 
-7.71536e+00  3.48226e+00 -5.49994e+00 
-7.45879e+00  3.36670e+00 -5.71017e+00 
-7.20216e+00  3.25111e+00 -5.91344e+00 
-6.94553e+00  3.13550e+00 -6.10971e+00 
-6.68884e+00  3.01985e+00 -6.29900e+00 
-6.43213e+00  2.90417e+00 -6.48127e+00 
-6.17535e+00  2.78844e+00 -6.65655e+00 
-5.91855e+00  2.67269e+00 -6.82478e+00 
-5.66168e+00  2.55688e+00 -6.98600e+00 
-5.40479e+00  2.44104e+00 -7.14015e+00 
-5.14782e+00  2.32515e+00 -7.28726e+00 
-4.89083e+00  2.20923e+00 -7.42729e+00 
-4.63376e+00  2.09325e+00 -7.56024e+00 
-4.37667e+00  1.97724e+00 -7.68608e+00 
-4.11951e+00  1.86118e+00 -7.80483e+00 
-3.86232e+00  1.74509e+00 -7.91644e+00 
-3.60506e+00  1.62895e+00 -8.02092e+00 
-3.34777e+00  1.51278e+00 -8.11825e+00 
-3.09042e+00  1.39656e+00 -8.20843e+00 
-2.83306e+00  1.28031e+00 -8.29143e+00 
-2.57563e+00  1.16403e+00 -8.36726e+00 
-2.31818e+00  1.04772e+00 -8.43589e+00 
-2.06068e+00  9.31376e-01 -8.49733e+00 
-1.80318e+00  8.15017e-01 -8.55156e+00 
-1.54562e+00  6.98623e-01 -8.59857e+00 
-1.28806e+00  5.82222e-01 -8.63836e+00 
-1.03046e+00  4.65792e-01 -8.67093e+00 
-7.72873e-01  3.49361e-01 -8.69626e+00 
-5.15245e-01  2.32908e-01 -8.71436e+00 
-2.57634e-01  1.16460e-01 -8.72522e+00 
-2.72683e-12  4.01999e-12 -8.72884e+00 
 2.57634e-01 -1.16460e-01 -8.72522e+00 
 5.15245e-01 -2.32908e-01 -8.71436e+00 
 7.72873e-01 -3.49361e-01 -8.69626e+00 
 1.03046e+00 -4.65792e-01 -8.67093e+00 
 1.28806e+00 -5.82222e-01 -8.63836e+00 
 1.54562e+00 -6.98623e-01 -8.59857e+00 
 1.80318e+00 -8.15017e-01 -8.55156e+00 
 2.06068e+00 -9.31376e-01 -8.49733e+00 
 2.31818e+00 -1.04772e+00 -8.43589e+00 
 2.57563e+00 -1.16403e+00 -8.36726e+00 
 2.83306e+00 -1.28031e+00 -8.29143e+00 
 3.09042e+00 -1.39656e+00 -8.20843e+00 
 3.34777e+00 -1.51278e+00 -8.11825e+00 
 3.60506e+00 -1.62895e+00 -8.02092e+00 
 3.86232e+00 -1.74509e+00 -7.91644e+00 
 4.11951e+00 -1.86118e+00 -7.80483e+00 
 4.37667e+00 -1.97724e+00 -7.68608e+00 
 4.63376e+00 -2.09325e+00 -7.56024e+00 
 4.89083e+00 -2.20923e+00 -7.42729e+00 
 5.14782e+00 -2.32515e+00 -7.28726e+00 
 5.40479e+00 -2.44104e+00 -7.14015e+00 
 5.66168e+00 -2.55688e+00 -6.98600e+00 
 5.91855e+00 -2.67269e+00 -6.82478e+00 
 6.17535e+00 -2.78844e+00 -6.65655e+00 
 6.43213e+00 -2.90417e+00 -6.48127e+00 
 6.68884e+00 -3.01985e+00 -6.29900e+00 
 6.94553e+00 -3.13550e+00 -6.10971e+00 
 7.20216e+00 -3.25111e+00 -5.91344e+00 
 7.45879e+00 -3.36670e+00 -5.71017e+00 
 7.71536e+00 -3.48226e+00 -5.49994e+00 
 7.97193e+00 -3.59780e+00 -5.28272e+00 
 8.22846e+00 -3.71331e+00 -5.05855e+00 
 8.48499e+00 -3.82881e+00 -4.82740e+00 
 8.74149e+00 -3.94429e+00 -4.58931e+00 
 8.99801e+00 -4.05978e+00 -4.34424e+00 
 9.25451e+00 -4.17525e+00 -4.09223e+00 
 9.51103e+00 -4.29074e+00 -3.83323e+00 
 9.76755e+00 -4.40622e+00 -3.56729e+00 
 1.00241e+01 -4.52173e+00 -3.29435e+00 
 1.02807e+01 -4.63725e+00 -3.01446e+00 
 1.05373e+01 -4.75280e+00 -2.72755e+00 
 1.07939e+01 -4.86836e+00 -2.43367e+00 
 1.10506e+01 -4.98398e+00 -2.13275e+00 
 1.13074e+01 -5.09962e+00 -1.82483e+00 
 1.15642e+01 -5.21531e+00 -1.50984e+00 
 1.18210e+01 -5.33104e+00 -1.18783e+00 
 1.20780e+01 -5.44684e+00 -8.58705e-01 
 1.23350e+01 -5.56268e+00 -5.22522e-01 
 1.25920e+01 -5.66394e+00 -8.63723e-02 
-1.23529e+01  5.55638e+00 -8.64171e-02 
-1.21007e+01  5.45705e+00 -5.22779e-01 
-1.18486e+01  5.34340e+00 -8.59122e-01 
-1.15966e+01  5.22979e+00 -1.18839e+00 
-1.13446e+01  5.11623e+00 -1.51054e+00 
-1.10926e+01  5.00269e+00 -1.82565e+00 
-1.08407e+01  4.88920e+00 -2.13368e+00 
-1.05888e+01  4.77573e+00 -2.43469e+00 
-1.03370e+01  4.66230e+00 -2.72865e+00 
-1.00852e+01  4.54887e+00 -3.01563e+00 
-9.83344e+00  4.43548e+00 -3.29557e+00 
-9.58167e+00  4.32209e+00 -3.56854e+00 
-9.32994e+00  4.20872e+00 -3.83450e+00 
-9.07819e+00  4.09534e+00 -4.09350e+00 
-8.82647e+00  3.98198e+00 -4.34550e+00 
-8.57473e+00  3.86860e+00 -4.59055e+00 
-8.32301e+00  3.75523e+00 -4.82860e+00 
-8.07125e+00  3.64184e+00 -5.05970e+00 
-7.81951e+00  3.52844e+00 -5.28381e+00 
-7.56772e+00  3.41502e+00 -5.50096e+00 
-7.31594e+00  3.30159e+00 -5.71110e+00 
-7.06411e+00  3.18813e+00 -5.91428e+00 
-6.81228e+00  3.07466e+00 -6.11045e+00 
-6.56040e+00  2.96115e+00 -6.29963e+00 
-6.30851e+00  2.84762e+00 -6.48179e+00 
-6.05656e+00  2.73405e+00 -6.65694e+00 
-5.80460e+00  2.62047e+00 -6.82505e+00 
-5.55258e+00  2.50684e+00 -6.98614e+00 
-5.30055e+00  2.39319e+00 -7.14017e+00 
-5.04845e+00  2.27950e+00 -7.28715e+00 
-4.79634e+00  2.16578e+00 -7.42704e+00 
-4.54417e+00  2.05202e+00 -7.55986e+00 
-4.29198e+00  1.93824e+00 -7.68558e+00 
-4.03973e+00  1.82441e+00 -7.80419e+00 
-3.78746e+00  1.71056e+00 -7.91568e+00 
-3.53514e+00  1.59668e+00 -8.02005e+00 
-3.28280e+00  1.48277e+00 -8.11727e+00 
-3.03041e+00  1.36882e+00 -8.20734e+00 
-2.77801e+00  1.25486e+00 -8.29024e+00 
-2.52555e+00  1.14086e+00 -8.36597e+00 
-2.27309e+00  1.02685e+00 -8.43452e+00 
-2.02058e+00  9.12807e-01 -8.49588e+00 
-1.76807e+00  7.98756e-01 -8.55003e+00 
-1.51552e+00  6.84675e-01 -8.59698e+00 
-1.26297e+00  5.70591e-01 -8.63672e+00 
-1.01038e+00  4.56483e-01 -8.66924e+00 
-7.57810e-01  3.42376e-01 -8.69454e+00 
-5.05201e-01  2.28250e-01 -8.71261e+00 
-2.52612e-01  1.14131e-01 -8.72346e+00 
-2.16078e-12  3.23439e-12 -8.72707e+00 
 2.52612e-01 -1.14131e-01 -8.72346e+00 
 5.05201e-01 -2.28250e-01 -8.71261e+00 
 7.57810e-01 -3.42376e-01 -8.69454e+00 
 1.01038e+00 -4.56483e-01 -8.66924e+00 
 1.26297e+00 -5.70591e-01 -8.63672e+00 
 1.51552e+00 -6.84675e-01 -8.59698e+00 
 1.76807e+00 -7.98756e-01 -8.55003e+00 
 2.02058e+00 -9.12807e-01 -8.49588e+00 
 2.27309e+00 -1.02685e+00 -8.43452e+00 
 2.52555e+00 -1.14086e+00 -8.36597e+00 
 2.77801e+00 -1.25486e+00 -8.29024e+00 
 3.03041e+00 -1.36882e+00 -8.20734e+00 
 3.28280e+00 -1.48277e+00 -8.11727e+00 
 3.53514e+00 -1.59668e+00 -8.02005e+00 
 3.78746e+00 -1.71056e+00 -7.91568e+00 
 4.03973e+00 -1.82441e+00 -7.80419e+00 
 4.29198e+00 -1.93824e+00 -7.68558e+00 
 4.54417e+00 -2.05202e+00 -7.55986e+00 
 4.79634e+00 -2.16578e+00 -7.42704e+00 
 5.04845e+00 -2.27950e+00 -7.28715e+00 
 5.30055e+00 -2.39319e+00 -7.14017e+00 
 5.55258e+00 -2.50684e+00 -6.98614e+00 
 5.80460e+00 -2.62047e+00 -6.82505e+00 
 6.05656e+00 -2.73405e+00 -6.65694e+00 
 6.30851e+00 -2.84762e+00 -6.48179e+00 
 6.56040e+00 -2.96115e+00 -6.29963e+00 
 6.81228e+00 -3.07466e+00 -6.11045e+00 
 7.06411e+00 -3.18813e+00 -5.91428e+00 
 7.31594e+00 -3.30159e+00 -5.71110e+00 
 7.56772e+00 -3.41502e+00 -5.50096e+00 
 7.81951e+00 -3.52844e+00 -5.28381e+00 
 8.07125e+00 -3.64184e+00 -5.05970e+00 
 8.32301e+00 -3.75523e+00 -4.82860e+00 
 8.57473e+00 -3.86860e+00 -4.59055e+00 
 8.82647e+00 -3.98198e+00 -4.34550e+00 
 9.07819e+00 -4.09534e+00 -4.09350e+00 
 9.32994e+00 -4.20872e+00 -3.83450e+00 
 9.58167e+00 -4.32209e+00 -3.56854e+00 
 9.83344e+00 -4.43548e+00 -3.29557e+00 
 1.00852e+01 -4.54887e+00 -3.01563e+00 
 1.03370e+01 -4.66230e+00 -2.72865e+00 
 1.05888e+01 -4.77573e+00 -2.43469e+00 
 1.08407e+01 -4.88920e+00 -2.13368e+00 
 1.10926e+01 -5.00269e+00 -1.82565e+00 
 1.13446e+01 -5.11623e+00 -1.51054e+00 
 1.15966e+01 -5.22979e+00 -1.18839e+00 
 1.18486e+01 -5.34340e+00 -8.59122e-01 
 1.21007e+01 -5.45705e+00 -5.22779e-01 
 1.23529e+01 -5.55638e+00 -8.64171e-02 
-1.21137e+01  5.44877e+00 -8.64307e-02 
-1.18664e+01  5.35137e+00 -5.22966e-01 
-1.16192e+01  5.23992e+00 -8.59429e-01 
-1.13720e+01  5.12850e+00 -1.18881e+00 
-1.11249e+01  5.01711e+00 -1.51106e+00 
-1.08778e+01  4.90575e+00 -1.82626e+00 
-1.06308e+01  4.79441e+00 -2.13437e+00 
-1.03837e+01  4.68309e+00 -2.43545e+00 
-1.01367e+01  4.57179e+00 -2.72947e+00 
-9.88971e+00  4.46050e+00 -3.01649e+00 
-9.64275e+00  4.34924e+00 -3.29647e+00 
-9.39578e+00  4.23797e+00 -3.56947e+00 
-9.14884e+00  4.12671e+00 -3.83544e+00 
-8.90189e+00  4.01545e+00 -4.09444e+00 
-8.65496e+00  3.90420e+00 -4.34643e+00 
-8.40800e+00  3.79294e+00 -4.59146e+00 
-8.16106e+00  3.68169e+00 -4.82948e+00 
-7.91409e+00  3.57041e+00 -5.06055e+00 
-7.66714e+00  3.45914e+00 -5.28460e+00 
-7.42015e+00  3.34784e+00 -5.50170e+00 
-7.17316e+00  3.23654e+00 -5.71178e+00 
-6.92614e+00  3.12521e+00 -5.91489e+00 
-6.67912e+00  3.01388e+00 -6.11097e+00 
-6.43205e+00  2.90251e+00 -6.30008e+00 
-6.18498e+00  2.79114e+00 -6.48215e+00 
-5.93786e+00  2.67974e+00 -6.65721e+00 
-5.69075e+00  2.56832e+00 -6.82523e+00 
-5.44358e+00  2.45687e+00 -6.98623e+00 
-5.19640e+00  2.34541e+00 -7.14016e+00 
-4.94918e+00  2.23391e+00 -7.28704e+00 
-4.70195e+00  2.12240e+00 -7.42684e+00 
-4.45466e+00  2.01085e+00 -7.55956e+00 
-4.20738e+00  1.89930e+00 -7.68518e+00 
-3.96004e+00  1.78770e+00 -7.80371e+00 
-3.71270e+00  1.67610e+00 -7.91511e+00 
-3.46530e+00  1.56446e+00 -8.01939e+00 
-3.21791e+00  1.45282e+00 -8.11652e+00 
-2.97047e+00  1.34114e+00 -8.20651e+00 
-2.72303e+00  1.22945e+00 -8.28934e+00 
-2.47554e+00  1.11774e+00 -8.36500e+00 
-2.22806e+00  1.00602e+00 -8.43348e+00 
-1.98053e+00  8.94275e-01 -8.49478e+00 
-1.73302e+00  7.82527e-01 -8.54889e+00 
-1.48546e+00  6.70755e-01 -8.59580e+00 
-1.23791e+00  5.58984e-01 -8.63549e+00 
-9.90332e-01  4.47193e-01 -8.66798e+00 
-7.42768e-01  3.35406e-01 -8.69326e+00 
-4.95172e-01  2.23602e-01 -8.71131e+00 
-2.47596e-01  1.11806e-01 -8.72214e+00 
-2.57654e-12  2.07688e-12 -8.72576e+00 
 2.47596e-01 -1.11806e-01 -8.72214e+00 
 4.95172e-01 -2.23602e-01 -8.71131e+00 
 7.42768e-01 -3.35406e-01 -8.69326e+00 
 9.90332e-01 -4.47193e-01 -8.66798e+00 
 1.23791e+00 -5.58984e-01 -8.63549e+00 
 1.48546e+00 -6.70755e-01 -8.59580e+00 
 1.73302e+00 -7.82527e-01 -8.54889e+00 
 1.98053e+00 -8.94275e-01 -8.49478e+00 
 2.22806e+00 -1.00602e+00 -8.43348e+00 
 2.47554e+00 -1.11774e+00 -8.36500e+00 
 2.72303e+00 -1.22945e+00 -8.28934e+00 
 2.97047e+00 -1.34114e+00 -8.20651e+00 
 3.21791e+00 -1.45282e+00 -8.11652e+00 
 3.46530e+00 -1.56446e+00 -8.01939e+00 
 3.71270e+00 -1.67610e+00 -7.91511e+00 
 3.96004e+00 -1.78770e+00 -7.80371e+00 
 4.20738e+00 -1.89930e+00 -7.68518e+00 
 4.45466e+00 -2.01085e+00 -7.55956e+00 
 4.70195e+00 -2.12240e+00 -7.42684e+00 
 4.94918e+00 -2.23391e+00 -7.28704e+00 
 5.19640e+00 -2.34541e+00 -7.14016e+00 
 5.44358e+00 -2.45687e+00 -6.98623e+00 
 5.69075e+00 -2.56832e+00 -6.82523e+00 
 5.93786e+00 -2.67974e+00 -6.65721e+00 
 6.18498e+00 -2.79114e+00 -6.48215e+00 
 6.43205e+00 -2.90251e+00 -6.30008e+00 
 6.67912e+00 -3.01388e+00 -6.11097e+00 
 6.92614e+00 -3.12521e+00 -5.91489e+00 
 7.17316e+00 -3.23654e+00 -5.71178e+00 
 7.42015e+00 -3.34784e+00 -5.50170e+00 
 7.66714e+00 -3.45914e+00 -5.28460e+00 
 7.91409e+00 -3.57041e+00 -5.06055e+00 
 8.16106e+00 -3.68169e+00 -4.82948e+00 
 8.40800e+00 -3.79294e+00 -4.59146e+00 
 8.65496e+00 -3.90420e+00 -4.34643e+00 
 8.90189e+00 -4.01545e+00 -4.09444e+00 
 9.14884e+00 -4.12671e+00 -3.83544e+00 
 9.39578e+00 -4.23797e+00 -3.56947e+00 
 9.64275e+00 -4.34924e+00 -3.29647e+00 
 9.88971e+00 -4.46050e+00 -3.01649e+00 
 1.01367e+01 -4.57179e+00 -2.72947e+00 
 1.03837e+01 -4.68309e+00 -2.43545e+00 
 1.06308e+01 -4.79441e+00 -2.13437e+00 
 1.08778e+01 -4.90575e+00 -1.82626e+00 
 1.11249e+01 -5.01711e+00 -1.51106e+00 
 1.13720e+01 -5.12850e+00 -1.18881e+00 
 1.16192e+01 -5.23992e+00 -8.59429e-01 
 1.18664e+01 -5.35137e+00 -5.22966e-01 
 1.21137e+01 -5.44877e+00 -8.64307e-02 
-1.18743e+01  5.34112e+00 -8.64839e-02 
-1.16320e+01  5.24566e+00 -5.23124e-01 
-1.13897e+01  5.13641e+00 -8.59666e-01 
-1.11474e+01  5.02718e+00 -1.18912e+00 
-1.09052e+01  4.91798e+00 -1.51144e+00 
-1.06629e+01  4.80878e+00 -1.82671e+00 
-1.04207e+01  4.69960e+00 -2.13487e+00 
-1.01785e+01  4.59043e+00 -2.43600e+00 
-9.93637e+00  4.48128e+00 -2.73005e+00 
-9.69419e+00  4.37213e+00 -3.01710e+00 
-9.45204e+00  4.26299e+00 -3.29710e+00 
-9.20988e+00  4.15385e+00 -3.57011e+00 
-8.96774e+00  4.04472e+00 -3.83609e+00 
-8.72558e+00  3.93558e+00 -4.09509e+00 
-8.48344e+00  3.82645e+00 -4.34707e+00 
-8.24128e+00  3.71731e+00 -4.59208e+00 
-7.99914e+00  3.60817e+00 -4.83008e+00 
-7.75696e+00  3.49902e+00 -5.06112e+00 
-7.51480e+00  3.38987e+00 -5.28514e+00 
-7.27261e+00  3.28069e+00 -5.50219e+00 
-7.03042e+00  3.17152e+00 -5.71223e+00 
-6.78821e+00  3.06233e+00 -5.91529e+00 
-6.54600e+00  2.95314e+00 -6.11133e+00 
-6.30375e+00  2.84392e+00 -6.30038e+00 
-6.06150e+00  2.73471e+00 -6.48239e+00 
-5.81922e+00  2.62546e+00 -6.65740e+00 
-5.57694e+00  2.51622e+00 -6.82535e+00 
-5.33463e+00  2.40694e+00 -6.98629e+00 
-5.09231e+00  2.29767e+00 -7.14015e+00 
-4.84996e+00  2.18837e+00 -7.28697e+00 
-4.60761e+00  2.07906e+00 -7.42670e+00 
-4.36522e+00  1.96973e+00 -7.55937e+00 
-4.12283e+00  1.86039e+00 -7.68493e+00 
-3.88040e+00  1.75104e+00 -7.80339e+00 
-3.63798e+00  1.64167e+00 -7.91473e+00 
-3.39552e+00  1.53229e+00 -8.01896e+00 
-3.15306e+00  1.42290e+00 -8.11604e+00 
-2.91057e+00  1.31349e+00 -8.20598e+00 
-2.66809e+00  1.20408e+00 -8.28876e+00 
-2.42557e+00  1.09465e+00 -8.36438e+00 
-2.18306e+00  9.85215e-01 -8.43282e+00 
-1.94052e+00  8.75765e-01 -8.49408e+00 
-1.69799e+00  7.66317e-01 -8.54815e+00 
-1.45542e+00  6.56851e-01 -8.59503e+00 
-1.21287e+00  5.47390e-01 -8.63471e+00 
-9.70297e-01  4.37914e-01 -8.66718e+00 
-7.27738e-01  3.28444e-01 -8.69243e+00 
-4.85151e-01  2.18960e-01 -8.71048e+00 
-2.42585e-01  1.09484e-01 -8.72130e+00 
-3.50875e-12  5.37751e-12 -8.72491e+00 
 2.42585e-01 -1.09484e-01 -8.72130e+00 
 4.85151e-01 -2.18960e-01 -8.71048e+00 
 7.27738e-01 -3.28444e-01 -8.69243e+00 
 9.70297e-01 -4.37914e-01 -8.66718e+00 
 1.21287e+00 -5.47390e-01 -8.63471e+00 
 1.45542e+00 -6.56851e-01 -8.59503e+00 
 1.69799e+00 -7.66317e-01 -8.54815e+00 
 1.94052e+00 -8.75765e-01 -8.49408e+00 
 2.18306e+00 -9.85215e-01 -8.43282e+00 
 2.42557e+00 -1.09465e+00 -8.36438e+00 
 2.66809e+00 -1.20408e+00 -8.28876e+00 
 2.91057e+00 -1.31349e+00 -8.20598e+00 
 3.15306e+00 -1.42290e+00 -8.11604e+00 
 3.39552e+00 -1.53229e+00 -8.01896e+00 
 3.63798e+00 -1.64167e+00 -7.91473e+00 
 3.88040e+00 -1.75104e+00 -7.80339e+00 
 4.12283e+00 -1.86039e+00 -7.68493e+00 
 4.36522e+00 -1.96973e+00 -7.55937e+00 
 4.60761e+00 -2.07906e+00 -7.42670e+00 
 4.84996e+00 -2.18837e+00 -7.28697e+00 
 5.09231e+00 -2.29767e+00 -7.14015e+00 
 5.33463e+00 -2.40694e+00 -6.98629e+00 
 5.57694e+00 -2.51622e+00 -6.82535e+00 
 5.81922e+00 -2.62546e+00 -6.65740e+00 
 6.06150e+00 -2.73471e+00 -6.48239e+00 
 6.30375e+00 -2.84392e+00 -6.30038e+00 
 6.54600e+00 -2.95314e+00 -6.11133e+00 
 6.78821e+00 -3.06233e+00 -5.91529e+00 
 7.03042e+00 -3.17152e+00 -5.71223e+00 
 7.27261e+00 -3.28069e+00 -5.50219e+00 
 7.51480e+00 -3.38987e+00 -5.28514e+00 
 7.75696e+00 -3.49902e+00 -5.06112e+00 
 7.99914e+00 -3.60817e+00 -4.83008e+00 
 8.24128e+00 -3.71731e+00 -4.59208e+00 
 8.48344e+00 -3.82645e+00 -4.34707e+00 
 8.72558e+00 -3.93558e+00 -4.09509e+00 
 8.96774e+00 -4.04472e+00 -3.83609e+00 
 9.20988e+00 -4.15385e+00 -3.57011e+00 
 9.45204e+00 -4.26299e+00 -3.29710e+00 
 9.69419e+00 -4.37213e+00 -3.01710e+00 
 9.93637e+00 -4.48128e+00 -2.73005e+00 
 1.01785e+01 -4.59043e+00 -2.43600e+00 
 1.04207e+01 -4.69960e+00 -2.13487e+00 
 1.06629e+01 -4.80878e+00 -1.82671e+00 
 1.09052e+01 -4.91798e+00 -1.51144e+00 
 1.11474e+01 -5.02718e+00 -1.18912e+00 
 1.13897e+01 -5.13641e+00 -8.59666e-01 
 1.16320e+01 -5.24566e+00 -5.23124e-01 
 1.18743e+01 -5.34112e+00 -8.64839e-02 
-1.16349e+01  5.23346e+00 -8.65027e-02 
-1.13975e+01  5.13993e+00 -5.23211e-01 
-1.11601e+01  5.03289e+00 -8.59806e-01 
-1.09228e+01  4.92584e+00 -1.18931e+00 
-1.06854e+01  4.81882e+00 -1.51167e+00 
-1.04480e+01  4.71179e+00 -1.82696e+00 
-1.02107e+01  4.60478e+00 -2.13515e+00 
-9.97334e+00  4.49777e+00 -2.43631e+00 
-9.73600e+00  4.39076e+00 -2.73038e+00 
-9.49865e+00  4.28375e+00 -3.01744e+00 
-9.26132e+00  4.17675e+00 -3.29745e+00 
-9.02397e+00  4.06974e+00 -3.57046e+00 
-8.78664e+00  3.96273e+00 -3.83643e+00 
-8.54928e+00  3.85572e+00 -4.09543e+00 
-8.31194e+00  3.74871e+00 -4.34740e+00 
-8.07458e+00  3.64169e+00 -4.59240e+00 
-7.83723e+00  3.53467e+00 -4.83039e+00 
-7.59985e+00  3.42764e+00 -5.06140e+00 
-7.36249e+00  3.32061e+00 -5.28540e+00 
-7.12509e+00  3.21357e+00 -5.50243e+00 
-6.88771e+00  3.10653e+00 -5.71244e+00 
-6.65030e+00  2.99947e+00 -5.91548e+00 
-6.41290e+00  2.89242e+00 -6.11149e+00 
-6.17548e+00  2.78535e+00 -6.30050e+00 
-5.93806e+00  2.67829e+00 -6.48249e+00 
-5.70061e+00  2.57121e+00 -6.65746e+00 
-5.46318e+00  2.46413e+00 -6.82539e+00 
-5.22571e+00  2.35704e+00 -6.98629e+00 
-4.98826e+00  2.24995e+00 -7.14012e+00 
-4.75077e+00  2.14284e+00 -7.28691e+00 
-4.51330e+00  2.03574e+00 -7.42662e+00 
-4.27580e+00  1.92862e+00 -7.55925e+00 
-4.03831e+00  1.82151e+00 -7.68478e+00 
-3.80079e+00  1.71438e+00 -7.80322e+00 
-3.56329e+00  1.60726e+00 -7.91454e+00 
-3.32576e+00  1.50012e+00 -8.01874e+00 
-3.08825e+00  1.39299e+00 -8.11579e+00 
-2.85070e+00  1.28585e+00 -8.20571e+00 
-2.61317e+00  1.17871e+00 -8.28847e+00 
-2.37562e+00  1.07156e+00 -8.36408e+00 
-2.13808e+00  9.64418e-01 -8.43250e+00 
-1.90052e+00  8.57262e-01 -8.49375e+00 
-1.66297e+00  7.50114e-01 -8.54781e+00 
-1.42540e+00  6.42953e-01 -8.59467e+00 
-1.18785e+00  5.35802e-01 -8.63434e+00 
-9.50270e-01  4.28638e-01 -8.66680e+00 
-7.12714e-01  3.21484e-01 -8.69205e+00 
-4.75134e-01  2.14319e-01 -8.71009e+00 
-2.37576e-01  1.07164e-01 -8.72091e+00 
-2.62709e-12  3.97655e-12 -8.72452e+00 
 2.37576e-01 -1.07164e-01 -8.72091e+00 
 4.75134e-01 -2.14319e-01 -8.71009e+00 
 7.12714e-01 -3.21484e-01 -8.69205e+00 
 9.50270e-01 -4.28638e-01 -8.66680e+00 
 1.18785e+00 -5.35802e-01 -8.63434e+00 
 1.42540e+00 -6.42953e-01 -8.59467e+00 
 1.66297e+00 -7.50114e-01 -8.54781e+00 
 1.90052e+00 -8.57262e-01 -8.49375e+00 
 2.13808e+00 -9.64418e-01 -8.43250e+00 
 2.37562e+00 -1.07156e+00 -8.36408e+00 
 2.61317e+00 -1.17871e+00 -8.28847e+00 
 2.85070e+00 -1.28585e+00 -8.20571e+00 
 3.08825e+00 -1.39299e+00 -8.11579e+00 
 3.32576e+00 -1.50012e+00 -8.01874e+00 
 3.56329e+00 -1.60726e+00 -7.91454e+00 
 3.80079e+00 -1.71438e+00 -7.80322e+00 
 4.03831e+00 -1.82151e+00 -7.68478e+00 
 4.27580e+00 -1.92862e+00 -7.55925e+00 
 4.51330e+00 -2.03574e+00 -7.42662e+00 
 4.75077e+00 -2.14284e+00 -7.28691e+00 
 4.98826e+00 -2.24995e+00 -7.14012e+00 
 5.22571e+00 -2.35704e+00 -6.98629e+00 
 5.46318e+00 -2.46413e+00 -6.82539e+00 
 5.70061e+00 -2.57121e+00 -6.65746e+00 
 5.93806e+00 -2.67829e+00 -6.48249e+00 
 6.17548e+00 -2.78535e+00 -6.30050e+00 
 6.41290e+00 -2.89242e+00 -6.11149e+00 
 6.65030e+00 -2.99947e+00 -5.91548e+00 
 6.88771e+00 -3.10653e+00 -5.71244e+00 
 7.12509e+00 -3.21357e+00 -5.50243e+00 
 7.36249e+00 -3.32061e+00 -5.28540e+00 
 7.59985e+00 -3.42764e+00 -5.06140e+00 
 7.83723e+00 -3.53467e+00 -4.83039e+00 
 8.07458e+00 -3.64169e+00 -4.59240e+00 
 8.31194e+00 -3.74871e+00 -4.34740e+00 
 8.54928e+00 -3.85572e+00 -4.09543e+00 
 8.78664e+00 -3.96273e+00 -3.83643e+00 
 9.02397e+00 -4.06974e+00 -3.57046e+00 
 9.26132e+00 -4.17675e+00 -3.29745e+00 
 9.49865e+00 -4.28375e+00 -3.01744e+00 
 9.73600e+00 -4.39076e+00 -2.73038e+00 
 9.97334e+00 -4.49777e+00 -2.43631e+00 
 1.02107e+01 -4.60478e+00 -2.13515e+00 
 1.04480e+01 -4.71179e+00 -1.82696e+00 
 1.06854e+01 -4.81882e+00 -1.51167e+00 
 1.09228e+01 -4.92584e+00 -1.18931e+00 
 1.11601e+01 -5.03289e+00 -8.59806e-01 
 1.13975e+01 -5.13993e+00 -5.23211e-01 
 1.16349e+01 -5.23346e+00 -8.65027e-02 
-1.13955e+01  5.12578e+00 -8.65015e-02 
-1.11631e+01  5.03418e+00 -5.23233e-01 
-1.09306e+01  4.92935e+00 -8.59838e-01 
-1.06981e+01  4.82450e+00 -1.18935e+00 
-1.04656e+01  4.71966e+00 -1.51171e+00 
-1.02331e+01  4.61481e+00 -1.82701e+00 
-1.00007e+01  4.50997e+00 -2.13520e+00 
-9.76815e+00  4.40510e+00 -2.43636e+00 
-9.53565e+00  4.30025e+00 -2.73042e+00 
-9.30313e+00  4.19538e+00 -3.01748e+00 
-9.07062e+00  4.09051e+00 -3.29748e+00 
-8.83808e+00  3.98563e+00 -3.57049e+00 
-8.60556e+00  3.88075e+00 -3.83645e+00 
-8.37300e+00  3.77586e+00 -4.09544e+00 
-8.14046e+00  3.67097e+00 -4.34740e+00 
-7.90790e+00  3.56607e+00 -4.59239e+00 
-7.67534e+00  3.46117e+00 -4.83037e+00 
-7.44276e+00  3.35626e+00 -5.06137e+00 
-7.21019e+00  3.25136e+00 -5.28536e+00 
-6.97760e+00  3.14644e+00 -5.50238e+00 
-6.74502e+00  3.04153e+00 -5.71239e+00 
-6.51242e+00  2.93661e+00 -5.91542e+00 
-6.27983e+00  2.83170e+00 -6.11142e+00 
-6.04722e+00  2.72678e+00 -6.30043e+00 
-5.81463e+00  2.62187e+00 -6.48241e+00 
-5.58202e+00  2.51695e+00 -6.65739e+00 
-5.34942e+00  2.41204e+00 -6.82531e+00 
-5.11681e+00  2.30712e+00 -6.98621e+00 
-4.88421e+00  2.20222e+00 -7.14005e+00 
-4.65160e+00  2.09731e+00 -7.28684e+00 
-4.41901e+00  1.99241e+00 -7.42655e+00 
-4.18639e+00  1.88751e+00 -7.55919e+00 
-3.95381e+00  1.78262e+00 -7.68472e+00 
-3.72120e+00  1.67772e+00 -7.80317e+00 
-3.48861e+00  1.57284e+00 -7.91449e+00 
-3.25601e+00  1.46795e+00 -8.01870e+00 
-3.02343e+00  1.36308e+00 -8.11576e+00 
-2.79083e+00  1.25820e+00 -8.20569e+00 
-2.55826e+00  1.15334e+00 -8.28846e+00 
-2.32567e+00  1.04847e+00 -8.36407e+00 
-2.09310e+00  9.43614e-01 -8.43250e+00 
-1.86052e+00  8.38752e-01 -8.49376e+00 
-1.62796e+00  7.33904e-01 -8.54782e+00 
-1.39538e+00  6.29050e-01 -8.59469e+00 
-1.16282e+00  5.24208e-01 -8.63436e+00 
-9.30244e-01  4.19359e-01 -8.66683e+00 
-6.97691e-01  3.14522e-01 -8.69208e+00 
-4.65117e-01  2.09676e-01 -8.71012e+00 
-2.32567e-01  1.04842e-01 -8.72095e+00 
-1.14959e-12  2.32155e-12 -8.72456e+00 
 2.32567e-01 -1.04842e-01 -8.72095e+00 
 4.65117e-01 -2.09676e-01 -8.71012e+00 
 6.97691e-01 -3.14522e-01 -8.69208e+00 
 9.30244e-01 -4.19359e-01 -8.66683e+00 
 1.16282e+00 -5.24208e-01 -8.63436e+00 
 1.39538e+00 -6.29050e-01 -8.59469e+00 
 1.62796e+00 -7.33904e-01 -8.54782e+00 
 1.86052e+00 -8.38752e-01 -8.49376e+00 
 2.09310e+00 -9.43614e-01 -8.43250e+00 
 2.32567e+00 -1.04847e+00 -8.36407e+00 
 2.55826e+00 -1.15334e+00 -8.28846e+00 
 2.79083e+00 -1.25820e+00 -8.20569e+00 
 3.02343e+00 -1.36308e+00 -8.11576e+00 
 3.25601e+00 -1.46795e+00 -8.01870e+00 
 3.48861e+00 -1.57284e+00 -7.91449e+00 
 3.72120e+00 -1.67772e+00 -7.80317e+00 
 3.95381e+00 -1.78262e+00 -7.68472e+00 
 4.18639e+00 -1.88751e+00 -7.55919e+00 
 4.41901e+00 -1.99241e+00 -7.42655e+00 
 4.65160e+00 -2.09731e+00 -7.28684e+00 
 4.88421e+00 -2.20222e+00 -7.14005e+00 
 5.11681e+00 -2.30712e+00 -6.98621e+00 
 5.34942e+00 -2.41204e+00 -6.82531e+00 
 5.58202e+00 -2.51695e+00 -6.65739e+00 
 5.81463e+00 -2.62187e+00 -6.48241e+00 
 6.04722e+00 -2.72678e+00 -6.30043e+00 
 6.27983e+00 -2.83170e+00 -6.11142e+00 
 6.51242e+00 -2.93661e+00 -5.91542e+00 
 6.74502e+00 -3.04153e+00 -5.71239e+00 
 6.97760e+00 -3.14644e+00 -5.50238e+00 
 7.21019e+00 -3.25136e+00 -5.28536e+00 
 7.44276e+00 -3.35626e+00 -5.06137e+00 
 7.67534e+00 -3.46117e+00 -4.83037e+00 
 7.90790e+00 -3.56607e+00 -4.59239e+00 
 8.14046e+00 -3.67097e+00 -4.34740e+00 
 8.37300e+00 -3.77586e+00 -4.09544e+00 
 8.60556e+00 -3.88075e+00 -3.83645e+00 
 8.83808e+00 -3.98563e+00 -3.57049e+00 
 9.07062e+00 -4.09051e+00 -3.29748e+00 
 9.30313e+00 -4.19538e+00 -3.01748e+00 
 9.53565e+00 -4.30025e+00 -2.73042e+00 
 9.76815e+00 -4.40510e+00 -2.43636e+00 
 1.00007e+01 -4.50997e+00 -2.13520e+00 
 1.02331e+01 -4.61481e+00 -1.82701e+00 
 1.04656e+01 -4.71966e+00 -1.51171e+00 
 1.06981e+01 -4.82450e+00 -1.18935e+00 
 1.09306e+01 -4.92935e+00 -8.59838e-01 
 1.11631e+01 -5.03418e+00 -5.23233e-01 
 1.13955e+01 -5.12578e+00 -8.65015e-02 
-1.11562e+01  5.01811e+00 -8.64985e-02 
-1.09286e+01  4.92845e+00 -5.23207e-01 
-1.07010e+01  4.82582e+00 -8.59791e-01 
-1.04735e+01  4.72317e+00 -1.18928e+00 
-1.02459e+01  4.62051e+00 -1.51162e+00 
-1.00182e+01  4.51783e+00 -1.82689e+00 
-9.79063e+00  4.41515e+00 -2.13505e+00 
-9.56296e+00  4.31244e+00 -2.43618e+00 
-9.33531e+00  4.20973e+00 -2.73022e+00 
-9.10761e+00  4.10700e+00 -3.01726e+00 
-8.87992e+00  4.00427e+00 -3.29723e+00 
-8.65220e+00  3.90151e+00 -3.57022e+00 
-8.42448e+00  3.79876e+00 -3.83617e+00 
-8.19672e+00  3.69599e+00 -4.09514e+00 
-7.96898e+00  3.59322e+00 -4.34709e+00 
-7.74121e+00  3.49044e+00 -4.59208e+00 
-7.51345e+00  3.38766e+00 -4.83005e+00 
-7.28566e+00  3.28487e+00 -5.06105e+00 
-7.05789e+00  3.18208e+00 -5.28505e+00 
-6.83009e+00  3.07929e+00 -5.50208e+00 
-6.60232e+00  2.97651e+00 -5.71209e+00 
-6.37452e+00  2.87373e+00 -5.91514e+00 
-6.14674e+00  2.77095e+00 -6.11116e+00 
-5.91895e+00  2.66818e+00 -6.30019e+00 
-5.69118e+00  2.56542e+00 -6.48220e+00 
-5.46340e+00  2.46266e+00 -6.65720e+00 
-5.23565e+00  2.35992e+00 -6.82516e+00 
-5.00788e+00  2.25718e+00 -6.98609e+00 
-4.78014e+00  2.15446e+00 -7.13996e+00 
-4.55240e+00  2.05174e+00 -7.28679e+00 
-4.32468e+00  1.94905e+00 -7.42654e+00 
-4.09696e+00  1.84636e+00 -7.55922e+00 
-3.86927e+00  1.74369e+00 -7.68479e+00 
-3.64157e+00  1.64102e+00 -7.80328e+00 
-3.41390e+00  1.53838e+00 -7.91464e+00 
-3.18623e+00  1.43575e+00 -8.01889e+00 
-2.95859e+00  1.33313e+00 -8.11599e+00 
-2.73094e+00  1.23052e+00 -8.20595e+00 
-2.50332e+00  1.12793e+00 -8.28876e+00 
-2.27570e+00  1.02535e+00 -8.36440e+00 
-2.04810e+00  9.22783e-01 -8.43286e+00 
-1.82050e+00  8.20219e-01 -8.49415e+00 
-1.59292e+00  7.17674e-01 -8.54824e+00 
-1.36534e+00  6.15128e-01 -8.59514e+00 
-1.13778e+00  5.12599e-01 -8.63482e+00 
-9.10206e-01  4.10067e-01 -8.66731e+00 
-6.82660e-01  3.07550e-01 -8.69257e+00 
-4.55095e-01  2.05027e-01 -8.71063e+00 
-2.27555e-01  1.02517e-01 -8.72146e+00 
-2.40095e-12  3.58493e-12 -8.72507e+00 
 2.27555e-01 -1.02517e-01 -8.72146e+00 
 4.55095e-01 -2.05027e-01 -8.71063e+00 
 6.82660e-01 -3.07550e-01 -8.69257e+00 
 9.10206e-01 -4.10067e-01 -8.66731e+00 
 1.13778e+00 -5.12599e-01 -8.63482e+00 
 1.36534e+00 -6.15128e-01 -8.59514e+00 
 1.59292e+00 -7.17674e-01 -8.54824e+00 
 1.82050e+00 -8.20219e-01 -8.49415e+00 
 2.04810e+00 -9.22783e-01 -8.43286e+00 
 2.27570e+00 -1.02535e+00 -8.36440e+00 
 2.50332e+00 -1.12793e+00 -8.28876e+00 
 2.73094e+00 -1.23052e+00 -8.20595e+00 
 2.95859e+00 -1.33313e+00 -8.11599e+00 
 3.18623e+00 -1.43575e+00 -8.01889e+00 
 3.41390e+00 -1.53838e+00 -7.91464e+00 
 3.64157e+00 -1.64102e+00 -7.80328e+00 
 3.86927e+00 -1.74369e+00 -7.68479e+00 
 4.09696e+00 -1.84636e+00 -7.55922e+00 
 4.32468e+00 -1.94905e+00 -7.42654e+00 
 4.55240e+00 -2.05174e+00 -7.28679e+00 
 4.78014e+00 -2.15446e+00 -7.13996e+00 
 5.00788e+00 -2.25718e+00 -6.98609e+00 
 5.23565e+00 -2.35992e+00 -6.82516e+00 
 5.46340e+00 -2.46266e+00 -6.65720e+00 
 5.69118e+00 -2.56542e+00 -6.48220e+00 
 5.91895e+00 -2.66818e+00 -6.30019e+00 
 6.14674e+00 -2.77095e+00 -6.11116e+00 
 6.37452e+00 -2.87373e+00 -5.91514e+00 
 6.60232e+00 -2.97651e+00 -5.71209e+00 
 6.83009e+00 -3.07929e+00 -5.50208e+00 
 7.05789e+00 -3.18208e+00 -5.28505e+00 
 7.28566e+00 -3.28487e+00 -5.06105e+00 
 7.51345e+00 -3.38766e+00 -4.83005e+00 
 7.74121e+00 -3.49044e+00 -4.59208e+00 
 7.96898e+00 -3.59322e+00 -4.34709e+00 
 8.19672e+00 -3.69599e+00 -4.09514e+00 
 8.42448e+00 -3.79876e+00 -3.83617e+00 
 8.65220e+00 -3.90151e+00 -3.57022e+00 
 8.87992e+00 -4.00427e+00 -3.29723e+00 
 9.10761e+00 -4.10700e+00 -3.01726e+00 
 9.33531e+00 -4.20973e+00 -2.73022e+00 
 9.56296e+00 -4.31244e+00 -2.43618e+00 
 9.79063e+00 -4.41515e+00 -2.13505e+00 
 1.00182e+01 -4.51783e+00 -1.82689e+00 
 1.02459e+01 -4.62051e+00 -1.51162e+00 
 1.04735e+01 -4.72317e+00 -1.18928e+00 
 1.07010e+01 -4.82582e+00 -8.59791e-01 
 1.09286e+01 -4.92845e+00 -5.23207e-01 
 1.11562e+01 -5.01811e+00 -8.64985e-02 
-1.09168e+01  4.91044e+00 -8.64875e-02 
-1.06942e+01  4.82272e+00 -5.23125e-01 
-1.04715e+01  4.72230e+00 -8.59650e-01 
-1.02488e+01  4.62184e+00 -1.18908e+00 
-1.00261e+01  4.52137e+00 -1.51136e+00 
-9.80338e+00  4.42086e+00 -1.82658e+00 
-9.58062e+00  4.32034e+00 -2.13468e+00 
-9.35780e+00  4.21978e+00 -2.43576e+00 
-9.13498e+00  4.11922e+00 -2.72976e+00 
-8.91211e+00  4.01862e+00 -3.01675e+00 
-8.68924e+00  3.91802e+00 -3.29669e+00 
-8.46632e+00  3.81739e+00 -3.56964e+00 
-8.24340e+00  3.71676e+00 -3.83557e+00 
-8.02044e+00  3.61610e+00 -4.09452e+00 
-7.79749e+00  3.51545e+00 -4.34646e+00 
-7.57451e+00  3.41478e+00 -4.59144e+00 
-7.35154e+00  3.31411e+00 -4.82941e+00 
-7.12854e+00  3.21344e+00 -5.06043e+00 
-6.90556e+00  3.11277e+00 -5.28444e+00 
-6.68256e+00  3.01210e+00 -5.50149e+00 
-6.45958e+00  2.91145e+00 -5.71154e+00 
-6.23658e+00  2.81079e+00 -5.91462e+00 
-6.01361e+00  2.71015e+00 -6.11068e+00 
-5.79063e+00  2.60952e+00 -6.29977e+00 
-5.56768e+00  2.50891e+00 -6.48182e+00 
-5.34473e+00  2.40831e+00 -6.65689e+00 
-5.12181e+00  2.30773e+00 -6.82490e+00 
-4.89889e+00  2.20717e+00 -6.98591e+00 
-4.67601e+00  2.10663e+00 -7.13985e+00 
-4.45313e+00  2.00611e+00 -7.28675e+00 
-4.23030e+00  1.90562e+00 -7.42657e+00 
-4.00746e+00  1.80514e+00 -7.55932e+00 
-3.78467e+00  1.70469e+00 -7.68497e+00 
-3.56188e+00  1.60426e+00 -7.80353e+00 
-3.33913e+00  1.50386e+00 -7.91497e+00 
-3.11639e+00  1.40348e+00 -8.01929e+00 
-2.89369e+00  1.30313e+00 -8.11646e+00 
-2.67099e+00  1.20279e+00 -8.20650e+00 
-2.44833e+00  1.10248e+00 -8.28937e+00 
-2.22568e+00  1.00218e+00 -8.36507e+00 
-2.00306e+00  9.01908e-01 -8.43359e+00 
-1.78044e+00  8.01645e-01 -8.49493e+00 
-1.55786e+00  7.01408e-01 -8.54907e+00 
-1.33527e+00  6.01175e-01 -8.59601e+00 
-1.11271e+00  5.00964e-01 -8.63573e+00 
-8.90148e-01  4.00754e-01 -8.66825e+00 
-6.67613e-01  3.00562e-01 -8.69354e+00 
-4.45062e-01  2.00367e-01 -8.71161e+00 
-2.22538e-01  1.00186e-01 -8.72245e+00 
-2.40350e-12  4.63530e-12 -8.72606e+00 
 2.22538e-01 -1.00186e-01 -8.72245e+00 
 4.45062e-01 -2.00367e-01 -8.71161e+00 
 6.67613e-01 -3.00562e-01 -8.69354e+00 
 8.90148e-01 -4.00754e-01 -8.66825e+00 
 1.11271e+00 -5.00964e-01 -8.63573e+00 
 1.33527e+00 -6.01175e-01 -8.59601e+00 
 1.55786e+00 -7.01408e-01 -8.54907e+00 
 1.78044e+00 -8.01645e-01 -8.49493e+00 
 2.00306e+00 -9.01908e-01 -8.43359e+00 
 2.22568e+00 -1.00218e+00 -8.36507e+00 
 2.44833e+00 -1.10248e+00 -8.28937e+00 
 2.67099e+00 -1.20279e+00 -8.20650e+00 
 2.89369e+00 -1.30313e+00 -8.11646e+00 
 3.11639e+00 -1.40348e+00 -8.01929e+00 
 3.33913e+00 -1.50386e+00 -7.91497e+00 
 3.56188e+00 -1.60426e+00 -7.80353e+00 
 3.78467e+00 -1.70469e+00 -7.68497e+00 
 4.00746e+00 -1.80514e+00 -7.55932e+00 
 4.23030e+00 -1.90562e+00 -7.42657e+00 
 4.45313e+00 -2.00611e+00 -7.28675e+00 
 4.67601e+00 -2.10663e+00 -7.13985e+00 
 4.89889e+00 -2.20717e+00 -6.98591e+00 
 5.12181e+00 -2.30773e+00 -6.82490e+00 
 5.34473e+00 -2.40831e+00 -6.65689e+00 
 5.56768e+00 -2.50891e+00 -6.48182e+00 
 5.79063e+00 -2.60952e+00 -6.29977e+00 
 6.01361e+00 -2.71015e+00 -6.11068e+00 
 6.23658e+00 -2.81079e+00 -5.91462e+00 
 6.45958e+00 -2.91145e+00 -5.71154e+00 
 6.68256e+00 -3.01210e+00 -5.50149e+00 
 6.90556e+00 -3.11277e+00 -5.28444e+00 
 7.12854e+00 -3.21344e+00 -5.06043e+00 
 7.35154e+00 -3.31411e+00 -4.82941e+00 
 7.57451e+00 -3.41478e+00 -4.59144e+00 
 7.79749e+00 -3.51545e+00 -4.34646e+00 
 8.02044e+00 -3.61610e+00 -4.09452e+00 
 8.24340e+00 -3.71676e+00 -3.83557e+00 
 8.46632e+00 -3.81739e+00 -3.56964e+00 
 8.68924e+00 -3.91802e+00 -3.29669e+00 
 8.91211e+00 -4.01862e+00 -3.01675e+00 
 9.13498e+00 -4.11922e+00 -2.72976e+00 
 9.35780e+00 -4.21978e+00 -2.43576e+00 
 9.58062e+00 -4.32034e+00 -2.13468e+00 
 9.80338e+00 -4.42086e+00 -1.82658e+00 
 1.00261e+01 -4.52137e+00 -1.51136e+00 
 1.02488e+01 -4.62184e+00 -1.18908e+00 
 1.04715e+01 -4.72230e+00 -8.59650e-01 
 1.06942e+01 -4.82272e+00 -5.23125e-01 
 1.09168e+01 -4.91044e+00 -8.64875e-02 
-1.06775e+01  4.80280e+00 -8.64667e-02 
-1.04598e+01  4.71701e+00 -5.22982e-01 
-1.02421e+01  4.61880e+00 -8.59410e-01 
-1.00243e+01  4.52053e+00 -1.18874e+00 
-9.80645e+00  4.42224e+00 -1.51093e+00 
-9.58856e+00  4.32390e+00 -1.82606e+00 
-9.37065e+00  4.22554e+00 -2.13408e+00 
-9.15268e+00  4.12713e+00 -2.43508e+00 
-8.93469e+00  4.02870e+00 -2.72901e+00 
-8.71663e+00  3.93024e+00 -3.01593e+00 
-8.49857e+00  3.83176e+00 -3.29582e+00 
-8.28045e+00  3.73325e+00 -3.56873e+00 
-8.06233e+00  3.63473e+00 -3.83462e+00 
-7.84416e+00  3.53619e+00 -4.09355e+00 
-7.62600e+00  3.43764e+00 -4.34548e+00 
-7.40779e+00  3.33908e+00 -4.59046e+00 
-7.18960e+00  3.24052e+00 -4.82844e+00 
-6.97139e+00  3.14196e+00 -5.05948e+00 
-6.75319e+00  3.04340e+00 -5.28352e+00 
-6.53497e+00  2.94485e+00 -5.50061e+00 
-6.31678e+00  2.84631e+00 -5.71071e+00 
-6.09858e+00  2.74778e+00 -5.91385e+00 
-5.88041e+00  2.64928e+00 -6.10998e+00 
-5.66224e+00  2.55078e+00 -6.29914e+00 
-5.44411e+00  2.45232e+00 -6.48129e+00 
-5.22598e+00  2.35387e+00 -6.65644e+00 
-5.00790e+00  2.25546e+00 -6.82455e+00 
-4.78982e+00  2.15706e+00 -6.98566e+00 
-4.57179e+00  2.05871e+00 -7.13970e+00 
-4.35378e+00  1.96038e+00 -7.28671e+00 
-4.13582e+00  1.86209e+00 -7.42664e+00 
-3.91787e+00  1.76383e+00 -7.55951e+00 
-3.69998e+00  1.66561e+00 -7.68528e+00 
-3.48210e+00  1.56741e+00 -7.80395e+00 
-3.26427e+00  1.46926e+00 -7.91550e+00 
-3.04646e+00  1.37113e+00 -8.01993e+00 
-2.82870e+00  1.27304e+00 -8.11721e+00 
-2.61096e+00  1.17497e+00 -8.20734e+00 
-2.39327e+00  1.07695e+00 -8.29031e+00 
-2.17558e+00  9.78940e-01 -8.36610e+00 
-1.95795e+00  8.80969e-01 -8.43471e+00 
-1.74032e+00  7.83013e-01 -8.49612e+00 
-1.52274e+00  6.85090e-01 -8.55033e+00 
-1.30515e+00  5.87177e-01 -8.59733e+00 
-1.08761e+00  4.89291e-01 -8.63711e+00 
-8.70058e-01  3.91410e-01 -8.66967e+00 
-6.52541e-01  2.93551e-01 -8.69499e+00 
-4.35013e-01  1.95692e-01 -8.71308e+00 
-2.17513e-01  9.78480e-02 -8.72394e+00 
-2.47171e-12  4.96377e-12 -8.72756e+00 
 2.17513e-01 -9.78480e-02 -8.72394e+00 
 4.35013e-01 -1.95692e-01 -8.71308e+00 
 6.52541e-01 -2.93551e-01 -8.69499e+00 
 8.70058e-01 -3.91410e-01 -8.66967e+00 
 1.08761e+00 -4.89291e-01 -8.63711e+00 
 1.30515e+00 -5.87177e-01 -8.59733e+00 
 1.52274e+00 -6.85090e-01 -8.55033e+00 
 1.74032e+00 -7.83013e-01 -8.49612e+00 
 1.95795e+00 -8.80969e-01 -8.43471e+00 
 2.17558e+00 -9.78940e-01 -8.36610e+00 
 2.39327e+00 -1.07695e+00 -8.29031e+00 
 2.61096e+00 -1.17497e+00 -8.20734e+00 
 2.82870e+00 -1.27304e+00 -8.11721e+00 
 3.04646e+00 -1.37113e+00 -8.01993e+00 
 3.26427e+00 -1.46926e+00 -7.91550e+00 
 3.48210e+00 -1.56741e+00 -7.80395e+00 
 3.69998e+00 -1.66561e+00 -7.68528e+00 
 3.91787e+00 -1.76383e+00 -7.55951e+00 
 4.13582e+00 -1.86209e+00 -7.42664e+00 
 4.35378e+00 -1.96038e+00 -7.28671e+00 
 4.57179e+00 -2.05871e+00 -7.13970e+00 
 4.78982e+00 -2.15706e+00 -6.98566e+00 
 5.00790e+00 -2.25546e+00 -6.82455e+00 
 5.22598e+00 -2.35387e+00 -6.65644e+00 
 5.44411e+00 -2.45232e+00 -6.48129e+00 
 5.66224e+00 -2.55078e+00 -6.29914e+00 
 5.88041e+00 -2.64928e+00 -6.10998e+00 
 6.09858e+00 -2.74778e+00 -5.91385e+00 
 6.31678e+00 -2.84631e+00 -5.71071e+00 
 6.53497e+00 -2.94485e+00 -5.50061e+00 
 6.75319e+00 -3.04340e+00 -5.28352e+00 
 6.97139e+00 -3.14196e+00 -5.05948e+00 
 7.18960e+00 -3.24052e+00 -4.82844e+00 
 7.40779e+00 -3.33908e+00 -4.59046e+00 
 7.62600e+00 -3.43764e+00 -4.34548e+00 
 7.84416e+00 -3.53619e+00 -4.09355e+00 
 8.06233e+00 -3.63473e+00 -3.83462e+00 
 8.28045e+00 -3.73325e+00 -3.56873e+00 
 8.49857e+00 -3.83176e+00 -3.29582e+00 
 8.71663e+00 -3.93024e+00 -3.01593e+00 
 8.93469e+00 -4.02870e+00 -2.72901e+00 
 9.15268e+00 -4.12713e+00 -2.43508e+00 
 9.37065e+00 -4.22554e+00 -2.13408e+00 
 9.58856e+00 -4.32390e+00 -1.82606e+00 
 9.80645e+00 -4.42224e+00 -1.51093e+00 
 1.00243e+01 -4.52053e+00 -1.18874e+00 
 1.02421e+01 -4.61880e+00 -8.59410e-01 
 1.04598e+01 -4.71701e+00 -5.22982e-01 
 1.06775e+01 -4.80280e+00 -8.64667e-02 
-1.04382e+01  4.69520e+00 -8.64353e-02 
-1.02255e+01  4.61135e+00 -5.22774e-01 
-1.00127e+01  4.51533e+00 -8.59063e-01 
-9.79977e+00  4.41926e+00 -1.18826e+00 
-9.58683e+00  4.32314e+00 -1.51032e+00 
-9.37381e+00  4.22697e+00 -1.82532e+00 
-9.16075e+00  4.13076e+00 -2.13323e+00 
-8.94761e+00  4.03449e+00 -2.43412e+00 
-8.73443e+00  3.93820e+00 -2.72795e+00 
-8.52119e+00  3.84186e+00 -3.01480e+00 
-8.30792e+00  3.74549e+00 -3.29461e+00 
-8.09460e+00  3.64909e+00 -3.56747e+00 
-7.88126e+00  3.55268e+00 -3.83331e+00 
-7.66787e+00  3.45624e+00 -4.09222e+00 
-7.45448e+00  3.35979e+00 -4.34413e+00 
-7.24105e+00  3.26333e+00 -4.58911e+00 
-7.02763e+00  3.16687e+00 -4.82711e+00 
-6.81418e+00  3.07040e+00 -5.05818e+00 
-6.60076e+00  2.97395e+00 -5.28226e+00 
-6.38732e+00  2.87751e+00 -5.49942e+00 
-6.17391e+00  2.78108e+00 -5.70959e+00 
-5.96049e+00  2.68467e+00 -5.91281e+00 
-5.74711e+00  2.58829e+00 -6.10904e+00 
-5.53374e+00  2.49193e+00 -6.29831e+00 
-5.32042e+00  2.39560e+00 -6.48057e+00 
-5.10711e+00  2.29931e+00 -6.65585e+00 
-4.89386e+00  2.20305e+00 -6.82410e+00 
-4.68062e+00  2.10683e+00 -6.98534e+00 
-4.46745e+00  2.01066e+00 -7.13953e+00 
-4.25429e+00  1.91452e+00 -7.28669e+00 
-4.04121e+00  1.81844e+00 -7.42677e+00 
-3.82815e+00  1.72239e+00 -7.55979e+00 
-3.61515e+00  1.62639e+00 -7.68571e+00 
-3.40219e+00  1.53043e+00 -7.80454e+00 
-3.18929e+00  1.43453e+00 -7.91624e+00 
-2.97641e+00  1.33866e+00 -8.02081e+00 
-2.76361e+00  1.24284e+00 -8.11823e+00 
-2.55082e+00  1.14705e+00 -8.20850e+00 
-2.33810e+00  1.05132e+00 -8.29160e+00 
-2.12540e+00  9.55609e-01 -8.36752e+00 
-1.91275e+00  8.59946e-01 -8.43623e+00 
-1.70012e+00  7.64306e-01 -8.49775e+00 
-1.48754e+00  6.68704e-01 -8.55205e+00 
-1.27497e+00  5.73120e-01 -8.59914e+00 
-1.06245e+00  4.77568e-01 -8.63898e+00 
-8.49924e-01  3.82027e-01 -8.67160e+00 
-6.37438e-01  2.86510e-01 -8.69697e+00 
-4.24942e-01  1.90996e-01 -8.71510e+00 
-2.12477e-01  9.54996e-02 -8.72597e+00 
-2.05419e-12  2.88753e-12 -8.72960e+00 
 2.12477e-01 -9.54996e-02 -8.72597e+00 
 4.24942e-01 -1.90996e-01 -8.71510e+00 
 6.37438e-01 -2.86510e-01 -8.69697e+00 
 8.49924e-01 -3.82027e-01 -8.67160e+00 
 1.06245e+00 -4.77568e-01 -8.63898e+00 
 1.27497e+00 -5.73120e-01 -8.59914e+00 
 1.48754e+00 -6.68704e-01 -8.55205e+00 
 1.70012e+00 -7.64306e-01 -8.49775e+00 
 1.91275e+00 -8.59946e-01 -8.43623e+00 
 2.12540e+00 -9.55609e-01 -8.36752e+00 
 2.33810e+00 -1.05132e+00 -8.29160e+00 
 2.55082e+00 -1.14705e+00 -8.20850e+00 
 2.76361e+00 -1.24284e+00 -8.11823e+00 
 2.97641e+00 -1.33866e+00 -8.02081e+00 
 3.18929e+00 -1.43453e+00 -7.91624e+00 
 3.40219e+00 -1.53043e+00 -7.80454e+00 
 3.61515e+00 -1.62639e+00 -7.68571e+00 
 3.82815e+00 -1.72239e+00 -7.55979e+00 
 4.04121e+00 -1.81844e+00 -7.42677e+00 
 4.25429e+00 -1.91452e+00 -7.28669e+00 
 4.46745e+00 -2.01066e+00 -7.13953e+00 
 4.68062e+00 -2.10683e+00 -6.98534e+00 
 4.89386e+00 -2.20305e+00 -6.82410e+00 
 5.10711e+00 -2.29931e+00 -6.65585e+00 
 5.32042e+00 -2.39560e+00 -6.48057e+00 
 5.53374e+00 -2.49193e+00 -6.29831e+00 
 5.74711e+00 -2.58829e+00 -6.10904e+00 
 5.96049e+00 -2.68467e+00 -5.91281e+00 
 6.17391e+00 -2.78108e+00 -5.70959e+00 
 6.38732e+00 -2.87751e+00 -5.49942e+00 
 6.60076e+00 -2.97395e+00 -5.28226e+00 
 6.81418e+00 -3.07040e+00 -5.05818e+00 
 7.02763e+00 -3.16687e+00 -4.82711e+00 
 7.24105e+00 -3.26333e+00 -4.58911e+00 
 7.45448e+00 -3.35979e+00 -4.34413e+00 
 7.66787e+00 -3.45624e+00 -4.09222e+00 
 7.88126e+00 -3.55268e+00 -3.83331e+00 
 8.09460e+00 -3.64909e+00 -3.56747e+00 
 8.30792e+00 -3.74549e+00 -3.29461e+00 
 8.52119e+00 -3.84186e+00 -3.01480e+00 
 8.73443e+00 -3.93820e+00 -2.72795e+00 
 8.94761e+00 -4.03449e+00 -2.43412e+00 
 9.16075e+00 -4.13076e+00 -2.13323e+00 
 9.37381e+00 -4.22697e+00 -1.82532e+00 
 9.58683e+00 -4.32314e+00 -1.51032e+00 
 9.79977e+00 -4.41926e+00 -1.18826e+00 
 1.00127e+01 -4.51533e+00 -8.59063e-01 
 1.02255e+01 -4.61135e+00 -5.22774e-01 
 1.04382e+01 -4.69520e+00 -8.64353e-02 
-1.01991e+01  4.58764e+00 -8.63922e-02 
-9.99127e+00  4.50573e+00 -5.22494e-01 
-9.78338e+00  4.41192e+00 -8.58599e-01 
-9.57538e+00  4.31803e+00 -1.18762e+00 
-9.36731e+00  4.22408e+00 -1.50950e+00 
-9.15914e+00  4.13006e+00 -1.82434e+00 
-8.95092e+00  4.03600e+00 -2.13210e+00 
-8.74260e+00  3.94187e+00 -2.43285e+00 
-8.53424e+00  3.84769e+00 -2.72656e+00 
-8.32579e+00  3.75347e+00 -3.01330e+00 
-8.11731e+00  3.65921e+00 -3.29303e+00 
-7.90877e+00  3.56491e+00 -3.56581e+00 
-7.70019e+00  3.47059e+00 -3.83161e+00 
-7.49157e+00  3.37624e+00 -4.09048e+00 
-7.28294e+00  3.28188e+00 -4.34238e+00 
-7.07427e+00  3.18750e+00 -4.58737e+00 
-6.86560e+00  3.09313e+00 -4.82539e+00 
-6.65691e+00  2.99876e+00 -5.05650e+00 
-6.44825e+00  2.90440e+00 -5.28065e+00 
-6.23957e+00  2.81005e+00 -5.49788e+00 
-6.03093e+00  2.71573e+00 -5.70815e+00 
-5.82228e+00  2.62143e+00 -5.91149e+00 
-5.61369e+00  2.52716e+00 -6.10784e+00 
-5.40511e+00  2.43293e+00 -6.29725e+00 
-5.19659e+00  2.33874e+00 -6.47967e+00 
-4.98809e+00  2.24459e+00 -6.65511e+00 
-4.77966e+00  2.15049e+00 -6.82353e+00 
-4.57126e+00  2.05644e+00 -6.98496e+00 
-4.36293e+00  1.96245e+00 -7.13933e+00 
-4.15464e+00  1.86850e+00 -7.28669e+00 
-3.94643e+00  1.77462e+00 -7.42696e+00 
-3.73826e+00  1.68079e+00 -7.56018e+00 
-3.53017e+00  1.58702e+00 -7.68629e+00 
-3.32211e+00  1.49330e+00 -7.80531e+00 
-3.11414e+00  1.39965e+00 -7.91720e+00 
-2.90621e+00  1.30604e+00 -8.02197e+00 
-2.69836e+00  1.21250e+00 -8.11957e+00 
-2.49054e+00  1.11900e+00 -8.21001e+00 
-2.28280e+00  1.02556e+00 -8.29327e+00 
-2.07508e+00  9.32164e-01 -8.36934e+00 
-1.86744e+00  8.38817e-01 -8.43820e+00 
-1.65982e+00  7.45503e-01 -8.49986e+00 
-1.45226e+00  6.52234e-01 -8.55427e+00 
-1.24471e+00  5.58990e-01 -8.60146e+00 
-1.03722e+00  4.65784e-01 -8.64140e+00 
-8.29737e-01  3.72593e-01 -8.67409e+00 
-6.22292e-01  2.79431e-01 -8.69952e+00 
-4.14844e-01  1.86275e-01 -8.71769e+00 
-2.07427e-01  9.31385e-02 -8.72859e+00 
-2.15424e-12  3.20035e-12 -8.73222e+00 
 2.07427e-01 -9.31385e-02 -8.72859e+00 
 4.14844e-01 -1.86275e-01 -8.71769e+00 
 6.22292e-01 -2.79431e-01 -8.69952e+00 
 8.29737e-01 -3.72593e-01 -8.67409e+00 
 1.03722e+00 -4.65784e-01 -8.64140e+00 
 1.24471e+00 -5.58990e-01 -8.60146e+00 
 1.45226e+00 -6.52234e-01 -8.55427e+00 
 1.65982e+00 -7.45503e-01 -8.49986e+00 
 1.86744e+00 -8.38817e-01 -8.43820e+00 
 2.07508e+00 -9.32164e-01 -8.36934e+00 
 2.28280e+00 -1.02556e+00 -8.29327e+00 
 2.49054e+00 -1.11900e+00 -8.21001e+00 
 2.69836e+00 -1.21250e+00 -8.11957e+00 
 2.90621e+00 -1.30604e+00 -8.02197e+00 
 3.11414e+00 -1.39965e+00 -7.91720e+00 
 3.32211e+00 -1.49330e+00 -7.80531e+00 
 3.53017e+00 -1.58702e+00 -7.68629e+00 
 3.73826e+00 -1.68079e+00 -7.56018e+00 
 3.94643e+00 -1.77462e+00 -7.42696e+00 
 4.15464e+00 -1.86850e+00 -7.28669e+00 
 4.36293e+00 -1.96245e+00 -7.13933e+00 
 4.57126e+00 -2.05644e+00 -6.98496e+00 
 4.77966e+00 -2.15049e+00 -6.82353e+00 
 4.98809e+00 -2.24459e+00 -6.65511e+00 
 5.19659e+00 -2.33874e+00 -6.47967e+00 
 5.40511e+00 -2.43293e+00 -6.29725e+00 
 5.61369e+00 -2.52716e+00 -6.10784e+00 
 5.82228e+00 -2.62143e+00 -5.91149e+00 
 6.03093e+00 -2.71573e+00 -5.70815e+00 
 6.23957e+00 -2.81005e+00 -5.49788e+00 
 6.44825e+00 -2.90440e+00 -5.28065e+00 
 6.65691e+00 -2.99876e+00 -5.05650e+00 
 6.86560e+00 -3.09313e+00 -4.82539e+00 
 7.07427e+00 -3.18750e+00 -4.58737e+00 
 7.28294e+00 -3.28188e+00 -4.34238e+00 
 7.49157e+00 -3.37624e+00 -4.09048e+00 
 7.70019e+00 -3.47059e+00 -3.83161e+00 
 7.90877e+00 -3.56491e+00 -3.56581e+00 
 8.11731e+00 -3.65921e+00 -3.29303e+00 
 8.32579e+00 -3.75347e+00 -3.01330e+00 
 8.53424e+00 -3.84769e+00 -2.72656e+00 
 8.74260e+00 -3.94187e+00 -2.43285e+00 
 8.95092e+00 -4.03600e+00 -2.13210e+00 
 9.15914e+00 -4.13006e+00 -1.82434e+00 
 9.36731e+00 -4.22408e+00 -1.50950e+00 
 9.57538e+00 -4.31803e+00 -1.18762e+00 
 9.78338e+00 -4.41192e+00 -8.58599e-01 
 9.99127e+00 -4.50573e+00 -5.22494e-01 
 1.01991e+01 -4.58764e+00 -8.63922e-02 
-9.96011e+00  4.48016e+00 -8.63359e-02 
-9.75722e+00  4.40017e+00 -5.22133e-01 
-9.55423e+00  4.30856e+00 -8.58003e-01 
-9.35112e+00  4.21685e+00 -1.18679e+00 
-9.14792e+00  4.12507e+00 -1.50846e+00 
-8.94459e+00  4.03320e+00 -1.82310e+00 
-8.74120e+00  3.94127e+00 -2.13067e+00 
-8.53769e+00  3.84926e+00 -2.43125e+00 
-8.33412e+00  3.75720e+00 -2.72481e+00 
-8.13045e+00  3.66507e+00 -3.01142e+00 
-7.92674e+00  3.57290e+00 -3.29103e+00 
-7.72295e+00  3.48069e+00 -3.56373e+00 
-7.51914e+00  3.38845e+00 -3.82947e+00 
-7.31526e+00  3.29618e+00 -4.08830e+00 
-7.11137e+00  3.20389e+00 -4.34019e+00 
-6.90743e+00  3.11159e+00 -4.58518e+00 
-6.70351e+00  3.01930e+00 -4.82324e+00 
-6.49956e+00  2.92700e+00 -5.05441e+00 
-6.29563e+00  2.83472e+00 -5.27865e+00 
-6.09170e+00  2.74246e+00 -5.49598e+00 
-5.88781e+00  2.65023e+00 -5.70637e+00 
-5.68393e+00  2.55803e+00 -5.90985e+00 
-5.48011e+00  2.46587e+00 -6.10637e+00 
-5.27631e+00  2.37375e+00 -6.29596e+00 
-5.07258e+00  2.28170e+00 -6.47856e+00 
-4.86888e+00  2.18969e+00 -6.65421e+00 
-4.66527e+00  2.09774e+00 -6.82285e+00 
-4.46170e+00  2.00585e+00 -6.98450e+00 
-4.25822e+00  1.91404e+00 -7.13911e+00 
-4.05478e+00  1.82228e+00 -7.28670e+00 
-3.85144e+00  1.73061e+00 -7.42722e+00 
-3.64816e+00  1.63899e+00 -7.56068e+00 
-3.44497e+00  1.54746e+00 -7.68704e+00 
-3.24184e+00  1.45598e+00 -7.80630e+00 
-3.03880e+00  1.36459e+00 -7.91842e+00 
-2.83582e+00  1.27325e+00 -8.02342e+00 
-2.63293e+00  1.18200e+00 -8.12124e+00 
-2.43008e+00  1.09079e+00 -8.21190e+00 
-2.22733e+00  9.99662e-01 -8.29536e+00 
-2.02462e+00  9.08580e-01 -8.37163e+00 
-1.82198e+00  8.17562e-01 -8.44066e+00 
-1.61939e+00  7.26584e-01 -8.50247e+00 
-1.41686e+00  6.35662e-01 -8.55704e+00 
-1.21436e+00  5.44771e-01 -8.60435e+00 
-1.01191e+00  4.53924e-01 -8.64440e+00 
-8.09481e-01  3.63099e-01 -8.67718e+00 
-6.07096e-01  2.72307e-01 -8.70268e+00 
-4.04711e-01  1.81524e-01 -8.72090e+00 
-2.02360e-01  9.07621e-02 -8.73183e+00 
-2.36602e-12  5.84577e-12 -8.73548e+00 
 2.02360e-01 -9.07621e-02 -8.73183e+00 
 4.04711e-01 -1.81524e-01 -8.72090e+00 
 6.07096e-01 -2.72307e-01 -8.70268e+00 
 8.09481e-01 -3.63099e-01 -8.67718e+00 
 1.01191e+00 -4.53924e-01 -8.64440e+00 
 1.21436e+00 -5.44771e-01 -8.60435e+00 
 1.41686e+00 -6.35662e-01 -8.55704e+00 
 1.61939e+00 -7.26584e-01 -8.50247e+00 
 1.82198e+00 -8.17562e-01 -8.44066e+00 
 2.02462e+00 -9.08580e-01 -8.37163e+00 
 2.22733e+00 -9.99662e-01 -8.29536e+00 
 2.43008e+00 -1.09079e+00 -8.21190e+00 
 2.63293e+00 -1.18200e+00 -8.12124e+00 
 2.83582e+00 -1.27325e+00 -8.02342e+00 
 3.03880e+00 -1.36459e+00 -7.91842e+00 
 3.24184e+00 -1.45598e+00 -7.80630e+00 
 3.44497e+00 -1.54746e+00 -7.68704e+00 
 3.64816e+00 -1.63899e+00 -7.56068e+00 
 3.85144e+00 -1.73061e+00 -7.42722e+00 
 4.05478e+00 -1.82228e+00 -7.28670e+00 
 4.25822e+00 -1.91404e+00 -7.13911e+00 
 4.46170e+00 -2.00585e+00 -6.98450e+00 
 4.66527e+00 -2.09774e+00 -6.82285e+00 
 4.86888e+00 -2.18969e+00 -6.65421e+00 
 5.07258e+00 -2.28170e+00 -6.47856e+00 
 5.27631e+00 -2.37375e+00 -6.29596e+00 
 5.48011e+00 -2.46587e+00 -6.10637e+00 
 5.68393e+00 -2.55803e+00 -5.90985e+00 
 5.88781e+00 -2.65023e+00 -5.70637e+00 
 6.09170e+00 -2.74246e+00 -5.49598e+00 
 6.29563e+00 -2.83472e+00 -5.27865e+00 
 6.49956e+00 -2.92700e+00 -5.05441e+00 
 6.70351e+00 -3.01930e+00 -4.82324e+00 
 6.90743e+00 -3.11159e+00 -4.58518e+00 
 7.11137e+00 -3.20389e+00 -4.34019e+00 
 7.31526e+00 -3.29618e+00 -4.08830e+00 
 7.51914e+00 -3.38845e+00 -3.82947e+00 
 7.72295e+00 -3.48069e+00 -3.56373e+00 
 7.92674e+00 -3.57290e+00 -3.29103e+00 
 8.13045e+00 -3.66507e+00 -3.01142e+00 
 8.33412e+00 -3.75720e+00 -2.72481e+00 
 8.53769e+00 -3.84926e+00 -2.43125e+00 
 8.74120e+00 -3.94127e+00 -2.13067e+00 
 8.94459e+00 -4.03320e+00 -1.82310e+00 
 9.14792e+00 -4.12507e+00 -1.50846e+00 
 9.35112e+00 -4.21685e+00 -1.18679e+00 
 9.55423e+00 -4.30856e+00 -8.58003e-01 
 9.75722e+00 -4.40017e+00 -5.22133e-01 
 9.96011e+00 -4.48016e+00 -8.63359e-02 
-9.72131e+00  4.37275e+00 -8.62644e-02 
-9.52335e+00  4.29470e+00 -5.21682e-01 
-9.32526e+00  4.20528e+00 -8.57259e-01 
-9.12703e+00  4.11575e+00 -1.18577e+00 
-8.92868e+00  4.02612e+00 -1.50717e+00 
-8.73019e+00  3.93639e+00 -1.82156e+00 
-8.53160e+00  3.84658e+00 -2.12889e+00 
-8.33288e+00  3.75668e+00 -2.42927e+00 
-8.13409e+00  3.66671e+00 -2.72264e+00 
-7.93518e+00  3.57667e+00 -3.00909e+00 
-7.73622e+00  3.48658e+00 -3.28858e+00 
-7.53717e+00  3.39643e+00 -3.56118e+00 
-7.33808e+00  3.30626e+00 -3.82684e+00 
-7.13892e+00  3.21604e+00 -4.08564e+00 
-6.93975e+00  3.12582e+00 -4.33751e+00 
-6.74054e+00  3.03557e+00 -4.58253e+00 
-6.54133e+00  2.94534e+00 -4.82063e+00 
-6.34210e+00  2.85510e+00 -5.05188e+00 
-6.14290e+00  2.76489e+00 -5.27621e+00 
-5.94369e+00  2.67470e+00 -5.49368e+00 
-5.74454e+00  2.58455e+00 -5.70422e+00 
-5.54540e+00  2.49443e+00 -5.90788e+00 
-5.34634e+00  2.40438e+00 -6.10459e+00 
-5.14730e+00  2.31437e+00 -6.29440e+00 
-4.94835e+00  2.22443e+00 -6.47724e+00 
-4.74945e+00  2.13456e+00 -6.65314e+00 
-4.55064e+00  2.04476e+00 -6.82204e+00 
-4.35189e+00  1.95503e+00 -6.98397e+00 
-4.15325e+00  1.86539e+00 -7.13886e+00 
-3.95467e+00  1.77583e+00 -7.28674e+00 
-3.75621e+00  1.68636e+00 -7.42756e+00 
-3.55781e+00  1.59696e+00 -7.56131e+00 
-3.35953e+00  1.50766e+00 -7.68796e+00 
-3.16132e+00  1.41844e+00 -7.80752e+00 
-2.96322e+00  1.32931e+00 -7.91993e+00 
-2.76519e+00  1.24026e+00 -8.02520e+00 
-2.56727e+00  1.15129e+00 -8.12329e+00 
-2.36942e+00  1.06240e+00 -8.21421e+00 
-2.17166e+00  9.73583e-01 -8.29791e+00 
-1.97397e+00  8.84832e-01 -8.37440e+00 
-1.77636e+00  7.96155e-01 -8.44365e+00 
-1.57880e+00  7.07530e-01 -8.50566e+00 
-1.38132e+00  6.18968e-01 -8.56040e+00 
-1.18388e+00  5.30446e-01 -8.60787e+00 
-9.86502e-01  4.41976e-01 -8.64804e+00 
-7.89145e-01  3.53533e-01 -8.68093e+00 
-5.91839e-01  2.65128e-01 -8.70652e+00 
-3.94537e-01  1.76736e-01 -8.72480e+00 
-1.97272e-01  8.83676e-02 -8.73577e+00 
-2.61024e-12  4.86413e-12 -8.73943e+00 
 1.97272e-01 -8.83676e-02 -8.73577e+00 
 3.94537e-01 -1.76736e-01 -8.72480e+00 
 5.91839e-01 -2.65128e-01 -8.70652e+00 
 7.89145e-01 -3.53533e-01 -8.68093e+00 
 9.86502e-01 -4.41976e-01 -8.64804e+00 
 1.18388e+00 -5.30446e-01 -8.60787e+00 
 1.38132e+00 -6.18968e-01 -8.56040e+00 
 1.57880e+00 -7.07530e-01 -8.50566e+00 
 1.77636e+00 -7.96155e-01 -8.44365e+00 
 1.97397e+00 -8.84832e-01 -8.37440e+00 
 2.17166e+00 -9.73583e-01 -8.29791e+00 
 2.36942e+00 -1.06240e+00 -8.21421e+00 
 2.56727e+00 -1.15129e+00 -8.12329e+00 
 2.76519e+00 -1.24026e+00 -8.02520e+00 
 2.96322e+00 -1.32931e+00 -7.91993e+00 
 3.16132e+00 -1.41844e+00 -7.80752e+00 
 3.35953e+00 -1.50766e+00 -7.68796e+00 
 3.55781e+00 -1.59696e+00 -7.56131e+00 
 3.75621e+00 -1.68636e+00 -7.42756e+00 
 3.95467e+00 -1.77583e+00 -7.28674e+00 
 4.15325e+00 -1.86539e+00 -7.13886e+00 
 4.35189e+00 -1.95503e+00 -6.98397e+00 
 4.55064e+00 -2.04476e+00 -6.82204e+00 
 4.74945e+00 -2.13456e+00 -6.65314e+00 
 4.94835e+00 -2.22443e+00 -6.47724e+00 
 5.14730e+00 -2.31437e+00 -6.29440e+00 
 5.34634e+00 -2.40438e+00 -6.10459e+00 
 5.54540e+00 -2.49443e+00 -5.90788e+00 
 5.74454e+00 -2.58455e+00 -5.70422e+00 
 5.94369e+00 -2.67470e+00 -5.49368e+00 
 6.14290e+00 -2.76489e+00 -5.27621e+00 
 6.34210e+00 -2.85510e+00 -5.05188e+00 
 6.54133e+00 -2.94534e+00 -4.82063e+00 
 6.74054e+00 -3.03557e+00 -4.58253e+00 
 6.93975e+00 -3.12582e+00 -4.33751e+00 
 7.13892e+00 -3.21604e+00 -4.08564e+00 
 7.33808e+00 -3.30626e+00 -3.82684e+00 
 7.53717e+00 -3.39643e+00 -3.56118e+00 
 7.73622e+00 -3.48658e+00 -3.28858e+00 
 7.93518e+00 -3.57667e+00 -3.00909e+00 
 8.13409e+00 -3.66671e+00 -2.72264e+00 
 8.33288e+00 -3.75668e+00 -2.42927e+00 
 8.53160e+00 -3.84658e+00 -2.12889e+00 
 8.73019e+00 -3.93639e+00 -1.82156e+00 
 8.92868e+00 -4.02612e+00 -1.50717e+00 
 9.12703e+00 -4.11575e+00 -1.18577e+00 
 9.32526e+00 -4.20528e+00 -8.57259e-01 
 9.52335e+00 -4.29470e+00 -5.21682e-01 
 9.72131e+00 -4.37275e+00 -8.62644e-02 
-9.48275e+00  4.26546e+00 -8.61755e-02 
-9.28970e+00  4.18933e+00 -5.21128e-01 
-9.09651e+00  4.10210e+00 -8.56348e-01 
-8.90314e+00  4.01472e+00 -1.18451e+00 
-8.70963e+00  3.92724e+00 -1.50559e+00 
-8.51595e+00  3.83964e+00 -1.81968e+00 
-8.32215e+00  3.75193e+00 -2.12674e+00 
-8.12821e+00  3.66413e+00 -2.42687e+00 
-7.93416e+00  3.57624e+00 -2.72002e+00 
-7.74000e+00  3.48826e+00 -3.00629e+00 
-7.54575e+00  3.40023e+00 -3.28562e+00 
-7.35141e+00  3.31213e+00 -3.55810e+00 
-7.15703e+00  3.22400e+00 -3.82368e+00 
-6.96257e+00  3.13582e+00 -4.08243e+00 
-6.76809e+00  3.04763e+00 -4.33430e+00 
-6.57356e+00  2.95943e+00 -4.57934e+00 
-6.37904e+00  2.87123e+00 -4.81750e+00 
-6.18451e+00  2.78304e+00 -5.04884e+00 
-5.99001e+00  2.69488e+00 -5.27331e+00 
-5.79551e+00  2.60674e+00 -5.49093e+00 
-5.60107e+00  2.51866e+00 -5.70166e+00 
-5.40666e+00  2.43062e+00 -5.90553e+00 
-5.21233e+00  2.34265e+00 -6.10249e+00 
-5.01805e+00  2.25474e+00 -6.29256e+00 
-4.82386e+00  2.16691e+00 -6.47569e+00 
-4.62974e+00  2.07916e+00 -6.65189e+00 
-4.43573e+00  1.99151e+00 -6.82111e+00 
-4.24180e+00  1.90394e+00 -6.98336e+00 
-4.04799e+00  1.81647e+00 -7.13860e+00 
-3.85426e+00  1.72910e+00 -7.28682e+00 
-3.66067e+00  1.64183e+00 -7.42799e+00 
-3.46716e+00  1.55466e+00 -7.56209e+00 
-3.27379e+00  1.46760e+00 -7.68909e+00 
-3.08051e+00  1.38064e+00 -7.80899e+00 
-2.88736e+00  1.29378e+00 -7.92174e+00 
-2.69429e+00  1.20702e+00 -8.02735e+00 
-2.50136e+00  1.12035e+00 -8.12576e+00 
-2.30850e+00  1.03378e+00 -8.21698e+00 
-2.11576e+00  9.47298e-01 -8.30097e+00 
-1.92310e+00  8.60892e-01 -8.37773e+00 
-1.73054e+00  7.74573e-01 -8.44723e+00 
-1.53804e+00  6.88317e-01 -8.50947e+00 
-1.34563e+00  6.02134e-01 -8.56441e+00 
-1.15326e+00  5.16000e-01 -8.61206e+00 
-9.60974e-01  4.29926e-01 -8.65240e+00 
-7.68713e-01  3.43885e-01 -8.68542e+00 
-5.76509e-01  2.57887e-01 -8.71110e+00 
-3.84316e-01  1.71907e-01 -8.72946e+00 
-1.92160e-01  8.59522e-02 -8.74047e+00 
-2.76766e-12  6.46896e-12 -8.74414e+00 
 1.92160e-01 -8.59522e-02 -8.74047e+00 
 3.84316e-01 -1.71907e-01 -8.72946e+00 
 5.76509e-01 -2.57887e-01 -8.71110e+00 
 7.68713e-01 -3.43885e-01 -8.68542e+00 
 9.60974e-01 -4.29926e-01 -8.65240e+00 
 1.15326e+00 -5.16000e-01 -8.61206e+00 
 1.34563e+00 -6.02134e-01 -8.56441e+00 
 1.53804e+00 -6.88317e-01 -8.50947e+00 
 1.73054e+00 -7.74573e-01 -8.44723e+00 
 1.92310e+00 -8.60892e-01 -8.37773e+00 
 2.11576e+00 -9.47298e-01 -8.30097e+00 
 2.30850e+00 -1.03378e+00 -8.21698e+00 
 2.50136e+00 -1.12035e+00 -8.12576e+00 
 2.69429e+00 -1.20702e+00 -8.02735e+00 
 2.88736e+00 -1.29378e+00 -7.92174e+00 
 3.08051e+00 -1.38064e+00 -7.80899e+00 
 3.27379e+00 -1.46760e+00 -7.68909e+00 
 3.46716e+00 -1.55466e+00 -7.56209e+00 
 3.66067e+00 -1.64183e+00 -7.42799e+00 
 3.85426e+00 -1.72910e+00 -7.28682e+00 
 4.04799e+00 -1.81647e+00 -7.13860e+00 
 4.24180e+00 -1.90394e+00 -6.98336e+00 
 4.43573e+00 -1.99151e+00 -6.82111e+00 
 4.62974e+00 -2.07916e+00 -6.65189e+00 
 4.82386e+00 -2.16691e+00 -6.47569e+00 
 5.01805e+00 -2.25474e+00 -6.29256e+00 
 5.21233e+00 -2.34265e+00 -6.10249e+00 
 5.40666e+00 -2.43062e+00 -5.90553e+00 
 5.60107e+00 -2.51866e+00 -5.70166e+00 
 5.79551e+00 -2.60674e+00 -5.49093e+00 
 5.99001e+00 -2.69488e+00 -5.27331e+00 
 6.18451e+00 -2.78304e+00 -5.04884e+00 
 6.37904e+00 -2.87123e+00 -4.81750e+00 
 6.57356e+00 -2.95943e+00 -4.57934e+00 
 6.76809e+00 -3.04763e+00 -4.33430e+00 
 6.96257e+00 -3.13582e+00 -4.08243e+00 
 7.15703e+00 -3.22400e+00 -3.82368e+00 
 7.35141e+00 -3.31213e+00 -3.55810e+00 
 7.54575e+00 -3.40023e+00 -3.28562e+00 
 7.74000e+00 -3.48826e+00 -3.00629e+00 
 7.93416e+00 -3.57624e+00 -2.72002e+00 
 8.12821e+00 -3.66413e+00 -2.42687e+00 
 8.32215e+00 -3.75193e+00 -2.12674e+00 
 8.51595e+00 -3.83964e+00 -1.81968e+00 
 8.70963e+00 -3.92724e+00 -1.50559e+00 
 8.90314e+00 -4.01472e+00 -1.18451e+00 
 9.09651e+00 -4.10210e+00 -8.56348e-01 
 9.28970e+00 -4.18933e+00 -5.21128e-01 
 9.48275e+00 -4.26546e+00 -8.61755e-02 
-9.24446e+00  4.15828e+00 -8.60665e-02 
-9.05633e+00  4.08408e+00 -5.20456e-01 
-8.86802e+00  3.99902e+00 -8.55247e-01 
-8.67949e+00  3.91381e+00 -1.18300e+00 
-8.49080e+00  3.82845e+00 -1.50369e+00 
-8.30192e+00  3.74296e+00 -1.81742e+00 
-8.11289e+00  3.65735e+00 -2.12415e+00 
-7.92369e+00  3.57161e+00 -2.42398e+00 
-7.73437e+00  3.48578e+00 -2.71688e+00 
-7.54490e+00  3.39985e+00 -3.00293e+00 
-7.35535e+00  3.31385e+00 -3.28209e+00 
-7.16569e+00  3.22777e+00 -3.55444e+00 
-6.97598e+00  3.14166e+00 -3.81992e+00 
-6.78618e+00  3.05550e+00 -4.07862e+00 
-6.59636e+00  2.96933e+00 -4.33048e+00 
-6.40649e+00  2.88313e+00 -4.57556e+00 
-6.21664e+00  2.79695e+00 -4.81380e+00 
-6.02677e+00  2.71078e+00 -5.04526e+00 
-5.83693e+00  2.62465e+00 -5.26988e+00 
-5.64712e+00  2.53855e+00 -5.48770e+00 
-5.45737e+00  2.45252e+00 -5.69866e+00 
-5.26766e+00  2.36654e+00 -5.90279e+00 
-5.07805e+00  2.28064e+00 -6.10003e+00 
-4.88850e+00  2.19482e+00 -6.29042e+00 
-4.69906e+00  2.10909e+00 -6.47388e+00 
-4.50971e+00  2.02346e+00 -6.65044e+00 
-4.32048e+00  1.93794e+00 -6.82004e+00 
-4.13136e+00  1.85252e+00 -6.98268e+00 
-3.94238e+00  1.76723e+00 -7.13832e+00 
-3.75350e+00  1.68205e+00 -7.28695e+00 
-3.56478e+00  1.59699e+00 -7.42853e+00 
-3.37617e+00  1.51205e+00 -7.56305e+00 
-3.18771e+00  1.42724e+00 -7.69046e+00 
-2.99936e+00  1.34253e+00 -7.81077e+00 
-2.81117e+00  1.25796e+00 -7.92391e+00 
-2.62308e+00  1.17350e+00 -8.02990e+00 
-2.43514e+00  1.08915e+00 -8.12869e+00 
-2.24730e+00  1.00491e+00 -8.22027e+00 
-2.05959e+00  9.20777e-01 -8.30460e+00 
-1.87198e+00  8.36735e-01 -8.38168e+00 
-1.68448e+00  7.52791e-01 -8.45147e+00 
-1.49706e+00  6.68924e-01 -8.51397e+00 
-1.30974e+00  5.85140e-01 -8.56915e+00 
-1.12248e+00  5.01416e-01 -8.61702e+00 
-9.35309e-01  4.17758e-01 -8.65753e+00 
-7.48171e-01  3.34143e-01 -8.69070e+00 
-5.61097e-01  2.50575e-01 -8.71650e+00 
-3.74038e-01  1.67030e-01 -8.73494e+00 
-1.87020e-01  8.35128e-02 -8.74601e+00 
-2.87590e-12  5.12777e-12 -8.74969e+00 
 1.87020e-01 -8.35128e-02 -8.74601e+00 
 3.74038e-01 -1.67030e-01 -8.73494e+00 
 5.61097e-01 -2.50575e-01 -8.71650e+00 
 7.48171e-01 -3.34143e-01 -8.69070e+00 
 9.35309e-01 -4.17758e-01 -8.65753e+00 
 1.12248e+00 -5.01416e-01 -8.61702e+00 
 1.30974e+00 -5.85140e-01 -8.56915e+00 
 1.49706e+00 -6.68924e-01 -8.51397e+00 
 1.68448e+00 -7.52791e-01 -8.45147e+00 
 1.87198e+00 -8.36735e-01 -8.38168e+00 
 2.05959e+00 -9.20777e-01 -8.30460e+00 
 2.24730e+00 -1.00491e+00 -8.22027e+00 
 2.43514e+00 -1.08915e+00 -8.12869e+00 
 2.62308e+00 -1.17350e+00 -8.02990e+00 
 2.81117e+00 -1.25796e+00 -7.92391e+00 
 2.99936e+00 -1.34253e+00 -7.81077e+00 
 3.18771e+00 -1.42724e+00 -7.69046e+00 
 3.37617e+00 -1.51205e+00 -7.56305e+00 
 3.56478e+00 -1.59699e+00 -7.42853e+00 
 3.75350e+00 -1.68205e+00 -7.28695e+00 
 3.94238e+00 -1.76723e+00 -7.13832e+00 
 4.13136e+00 -1.85252e+00 -6.98268e+00 
 4.32048e+00 -1.93794e+00 -6.82004e+00 
 4.50971e+00 -2.02346e+00 -6.65044e+00 
 4.69906e+00 -2.10909e+00 -6.47388e+00 
 4.88850e+00 -2.19482e+00 -6.29042e+00 
 5.07805e+00 -2.28064e+00 -6.10003e+00 
 5.26766e+00 -2.36654e+00 -5.90279e+00 
 5.45737e+00 -2.45252e+00 -5.69866e+00 
 5.64712e+00 -2.53855e+00 -5.48770e+00 
 5.83693e+00 -2.62465e+00 -5.26988e+00 
 6.02677e+00 -2.71078e+00 -5.04526e+00 
 6.21664e+00 -2.79695e+00 -4.81380e+00 
 6.40649e+00 -2.88313e+00 -4.57556e+00 
 6.59636e+00 -2.96933e+00 -4.33048e+00 
 6.78618e+00 -3.05550e+00 -4.07862e+00 
 6.97598e+00 -3.14166e+00 -3.81992e+00 
 7.16569e+00 -3.22777e+00 -3.55444e+00 
 7.35535e+00 -3.31385e+00 -3.28209e+00 
 7.54490e+00 -3.39985e+00 -3.00293e+00 
 7.73437e+00 -3.48578e+00 -2.71688e+00 
 7.92369e+00 -3.57161e+00 -2.42398e+00 
 8.11289e+00 -3.65735e+00 -2.12415e+00 
 8.30192e+00 -3.74296e+00 -1.81742e+00 
 8.49080e+00 -3.82845e+00 -1.50369e+00 
 8.67949e+00 -3.91381e+00 -1.18300e+00 
 8.86802e+00 -3.99902e+00 -8.55247e-01 
 9.05633e+00 -4.08408e+00 -5.20456e-01 
 9.24446e+00 -4.15828e+00 -8.60665e-02 
-9.00651e+00  4.05126e+00 -8.59341e-02 
-8.82328e+00  3.97898e+00 -5.19648e-01 
-8.63984e+00  3.89609e+00 -8.53926e-01 
-8.45614e+00  3.81301e+00 -1.18119e+00 
-8.27225e+00  3.72977e+00 -1.50142e+00 
-8.08813e+00  3.64637e+00 -1.81473e+00 
-7.90384e+00  3.56282e+00 -2.12107e+00 
-7.71935e+00  3.47913e+00 -2.42056e+00 
-7.53472e+00  3.39534e+00 -2.71316e+00 
-7.34993e+00  3.31142e+00 -2.99896e+00 
-7.16503e+00  3.22743e+00 -3.27791e+00 
-6.98001e+00  3.14336e+00 -3.55011e+00 
-6.79492e+00  3.05923e+00 -3.81549e+00 
-6.60975e+00  2.97506e+00 -4.07414e+00 
-6.42456e+00  2.89087e+00 -4.32600e+00 
-6.23931e+00  2.80667e+00 -4.57113e+00 
-6.05408e+00  2.72248e+00 -4.80947e+00 
-5.86884e+00  2.63831e+00 -5.04107e+00 
-5.68365e+00  2.55418e+00 -5.26588e+00 
-5.49848e+00  2.47010e+00 -5.48393e+00 
-5.31339e+00  2.38609e+00 -5.69516e+00 
-5.12836e+00  2.30215e+00 -5.89960e+00 
-4.94344e+00  2.21831e+00 -6.09719e+00 
-4.75860e+00  2.13456e+00 -6.28795e+00 
-4.57390e+00  2.05093e+00 -6.47181e+00 
-4.38930e+00  1.96741e+00 -6.64879e+00 
-4.20485e+00  1.88402e+00 -6.81883e+00 
-4.02052e+00  1.80075e+00 -6.98193e+00 
-3.83636e+00  1.71763e+00 -7.13803e+00 
-3.65233e+00  1.63463e+00 -7.28715e+00 
-3.46848e+00  1.55179e+00 -7.42920e+00 
-3.28476e+00  1.46908e+00 -7.56421e+00 
-3.10122e+00  1.38652e+00 -7.69210e+00 
-2.91782e+00  1.30409e+00 -7.81288e+00 
-2.73459e+00  1.22181e+00 -7.92648e+00 
-2.55150e+00  1.13966e+00 -8.03292e+00 
-2.36857e+00  1.05765e+00 -8.13214e+00 
-2.18576e+00  9.75757e-01 -8.22413e+00 
-2.00311e+00  8.93991e-01 -8.30885e+00 
-1.82057e+00  8.12331e-01 -8.38630e+00 
-1.63816e+00  7.30784e-01 -8.45643e+00 
-1.45584e+00  6.49327e-01 -8.51924e+00 
-1.27365e+00  5.67965e-01 -8.57470e+00 
-1.09152e+00  4.86674e-01 -8.62280e+00 
-9.09488e-01  4.05460e-01 -8.66353e+00 
-7.27503e-01  3.24294e-01 -8.69687e+00 
-5.45589e-01  2.43183e-01 -8.72281e+00 
-3.63696e-01  1.62099e-01 -8.74134e+00 
-1.81848e-01  8.10466e-02 -8.75247e+00 
-3.33680e-12  5.90161e-12 -8.75617e+00 
 1.81848e-01 -8.10466e-02 -8.75247e+00 
 3.63696e-01 -1.62099e-01 -8.74134e+00 
 5.45589e-01 -2.43183e-01 -8.72281e+00 
 7.27503e-01 -3.24294e-01 -8.69687e+00 
 9.09488e-01 -4.05460e-01 -8.66353e+00 
 1.09152e+00 -4.86674e-01 -8.62280e+00 
 1.27365e+00 -5.67965e-01 -8.57470e+00 
 1.45584e+00 -6.49327e-01 -8.51924e+00 
 1.63816e+00 -7.30784e-01 -8.45643e+00 
 1.82057e+00 -8.12331e-01 -8.38630e+00 
 2.00311e+00 -8.93991e-01 -8.30885e+00 
 2.18576e+00 -9.75757e-01 -8.22413e+00 
 2.36857e+00 -1.05765e+00 -8.13214e+00 
 2.55150e+00 -1.13966e+00 -8.03292e+00 
 2.73459e+00 -1.22181e+00 -7.92648e+00 
 2.91782e+00 -1.30409e+00 -7.81288e+00 
 3.10122e+00 -1.38652e+00 -7.69210e+00 
 3.28476e+00 -1.46908e+00 -7.56421e+00 
 3.46848e+00 -1.55179e+00 -7.42920e+00 
 3.65233e+00 -1.63463e+00 -7.28715e+00 
 3.83636e+00 -1.71763e+00 -7.13803e+00 
 4.02052e+00 -1.80075e+00 -6.98193e+00 
 4.20485e+00 -1.88402e+00 -6.81883e+00 
 4.38930e+00 -1.96741e+00 -6.64879e+00 
 4.57390e+00 -2.05093e+00 -6.47181e+00 
 4.75860e+00 -2.13456e+00 -6.28795e+00 
 4.94344e+00 -2.21831e+00 -6.09719e+00 
 5.12836e+00 -2.30215e+00 -5.89960e+00 
 5.31339e+00 -2.38609e+00 -5.69516e+00 
 5.49848e+00 -2.47010e+00 -5.48393e+00 
 5.68365e+00 -2.55418e+00 -5.26588e+00 
 5.86884e+00 -2.63831e+00 -5.04107e+00 
 6.05408e+00 -2.72248e+00 -4.80947e+00 
 6.23931e+00 -2.80667e+00 -4.57113e+00 
 6.42456e+00 -2.89087e+00 -4.32600e+00 
 6.60975e+00 -2.97506e+00 -4.07414e+00 
 6.79492e+00 -3.05923e+00 -3.81549e+00 
 6.98001e+00 -3.14336e+00 -3.55011e+00 
 7.16503e+00 -3.22743e+00 -3.27791e+00 
 7.34993e+00 -3.31142e+00 -2.99896e+00 
 7.53472e+00 -3.39534e+00 -2.71316e+00 
 7.71935e+00 -3.47913e+00 -2.42056e+00 
 7.90384e+00 -3.56282e+00 -2.12107e+00 
 8.08813e+00 -3.64637e+00 -1.81473e+00 
 8.27225e+00 -3.72977e+00 -1.50142e+00 
 8.45614e+00 -3.81301e+00 -1.18119e+00 
 8.63984e+00 -3.89609e+00 -8.53926e-01 
 8.82328e+00 -3.97898e+00 -5.19648e-01 
 9.00651e+00 -4.05126e+00 -8.59341e-02 
-8.76896e+00  3.94443e+00 -8.57747e-02 
-8.59063e+00  3.87405e+00 -5.18685e-01 
-8.41203e+00  3.79332e+00 -8.52355e-01 
-8.23314e+00  3.71236e+00 -1.17904e+00 
-8.05401e+00  3.63122e+00 -1.49874e+00 
-7.87463e+00  3.54988e+00 -1.81154e+00 
-7.69504e+00  3.46838e+00 -2.11744e+00 
-7.51522e+00  3.38671e+00 -2.41653e+00 
-7.33524e+00  3.30492e+00 -2.70878e+00 
-7.15507e+00  3.22299e+00 -2.99429e+00 
-6.97479e+00  3.14097e+00 -3.27301e+00 
-6.79437e+00  3.05886e+00 -3.54503e+00 
-6.61387e+00  2.97670e+00 -3.81031e+00 
-6.43328e+00  2.89448e+00 -4.06890e+00 
-6.25266e+00  2.81225e+00 -4.32077e+00 
-6.07200e+00  2.73001e+00 -4.56596e+00 
-5.89135e+00  2.64778e+00 -4.80443e+00 
-5.71070e+00  2.56558e+00 -5.03621e+00 
-5.53011e+00  2.48343e+00 -5.26124e+00 
-5.34955e+00  2.40134e+00 -5.47957e+00 
-5.16910e+00  2.31934e+00 -5.69112e+00 
-4.98871e+00  2.23743e+00 -5.89593e+00 
-4.80846e+00  2.15562e+00 -6.09392e+00 
-4.62831e+00  2.07393e+00 -6.28512e+00 
-4.44832e+00  1.99238e+00 -6.46945e+00 
-4.26845e+00  1.91096e+00 -6.64692e+00 
-4.08877e+00  1.82969e+00 -6.81747e+00 
-3.90923e+00  1.74857e+00 -6.98111e+00 
-3.72988e+00  1.66761e+00 -7.13776e+00 
-3.55070e+00  1.58681e+00 -7.28742e+00 
-3.37172e+00  1.50618e+00 -7.43004e+00 
-3.19290e+00  1.42571e+00 -7.56560e+00 
-3.01429e+00  1.34541e+00 -7.69404e+00 
-2.83584e+00  1.26527e+00 -7.81536e+00 
-2.65759e+00  1.18530e+00 -7.92950e+00 
-2.47950e+00  1.10548e+00 -8.03646e+00 
-2.30160e+00  1.02581e+00 -8.13617e+00 
-2.12385e+00  9.46287e-01 -8.22864e+00 
-1.94627e+00  8.66908e-01 -8.31381e+00 
-1.76882e+00  7.87652e-01 -8.39167e+00 
-1.59153e+00  7.08526e-01 -8.46219e+00 
-1.41435e+00  6.29503e-01 -8.52535e+00 
-1.23731e+00  5.50590e-01 -8.58113e+00 
-1.06034e+00  4.71759e-01 -8.62951e+00 
-8.83488e-01  3.93014e-01 -8.67047e+00 
-7.06691e-01  3.14327e-01 -8.70401e+00 
-5.29972e-01  2.35702e-01 -8.73011e+00 
-3.53282e-01  1.57109e-01 -8.74875e+00 
-1.76640e-01  7.85506e-02 -8.75994e+00 
-2.83345e-12  5.58424e-12 -8.76368e+00 
 1.76640e-01 -7.85506e-02 -8.75994e+00 
 3.53282e-01 -1.57109e-01 -8.74875e+00 
 5.29972e-01 -2.35702e-01 -8.73011e+00 
 7.06691e-01 -3.14327e-01 -8.70401e+00 
 8.83488e-01 -3.93014e-01 -8.67047e+00 
 1.06034e+00 -4.71759e-01 -8.62951e+00 
 1.23731e+00 -5.50590e-01 -8.58113e+00 
 1.41435e+00 -6.29503e-01 -8.52535e+00 
 1.59153e+00 -7.08526e-01 -8.46219e+00 
 1.76882e+00 -7.87652e-01 -8.39167e+00 
 1.94627e+00 -8.66908e-01 -8.31381e+00 
 2.12385e+00 -9.46287e-01 -8.22864e+00 
 2.30160e+00 -1.02581e+00 -8.13617e+00 
 2.47950e+00 -1.10548e+00 -8.03646e+00 
 2.65759e+00 -1.18530e+00 -7.92950e+00 
 2.83584e+00 -1.26527e+00 -7.81536e+00 
 3.01429e+00 -1.34541e+00 -7.69404e+00 
 3.19290e+00 -1.42571e+00 -7.56560e+00 
 3.37172e+00 -1.50618e+00 -7.43004e+00 
 3.55070e+00 -1.58681e+00 -7.28742e+00 
 3.72988e+00 -1.66761e+00 -7.13776e+00 
 3.90923e+00 -1.74857e+00 -6.98111e+00 
 4.08877e+00 -1.82969e+00 -6.81747e+00 
 4.26845e+00 -1.91096e+00 -6.64692e+00 
 4.44832e+00 -1.99238e+00 -6.46945e+00 
 4.62831e+00 -2.07393e+00 -6.28512e+00 
 4.80846e+00 -2.15562e+00 -6.09392e+00 
 4.98871e+00 -2.23743e+00 -5.89593e+00 
 5.16910e+00 -2.31934e+00 -5.69112e+00 
 5.34955e+00 -2.40134e+00 -5.47957e+00 
 5.53011e+00 -2.48343e+00 -5.26124e+00 
 5.71070e+00 -2.56558e+00 -5.03621e+00 
 5.89135e+00 -2.64778e+00 -4.80443e+00 
 6.07200e+00 -2.73001e+00 -4.56596e+00 
 6.25266e+00 -2.81225e+00 -4.32077e+00 
 6.43328e+00 -2.89448e+00 -4.06890e+00 
 6.61387e+00 -2.97670e+00 -3.81031e+00 
 6.79437e+00 -3.05886e+00 -3.54503e+00 
 6.97479e+00 -3.14097e+00 -3.27301e+00 
 7.15507e+00 -3.22299e+00 -2.99429e+00 
 7.33524e+00 -3.30492e+00 -2.70878e+00 
 7.51522e+00 -3.38671e+00 -2.41653e+00 
 7.69504e+00 -3.46838e+00 -2.11744e+00 
 7.87463e+00 -3.54988e+00 -1.81154e+00 
 8.05401e+00 -3.63122e+00 -1.49874e+00 
 8.23314e+00 -3.71236e+00 -1.17904e+00 
 8.41203e+00 -3.79332e+00 -8.52355e-01 
 8.59063e+00 -3.87405e+00 -5.18685e-01 
 8.76896e+00 -3.94443e+00 -8.57747e-02 
-8.53189e+00  3.83780e+00 -8.55838e-02 
-8.35843e+00  3.76933e+00 -5.17543e-01 
-8.18466e+00  3.69073e+00 -8.50497e-01 
-8.01055e+00  3.61189e+00 -1.17651e+00 
-7.83615e+00  3.53281e+00 -1.49557e+00 
-7.66146e+00  3.45351e+00 -1.80780e+00 
-7.48653e+00  3.37403e+00 -2.11317e+00 
-7.31134e+00  3.29435e+00 -2.41180e+00 
-7.13596e+00  3.21452e+00 -2.70366e+00 
-6.96037e+00  3.13455e+00 -2.98883e+00 
-6.78465e+00  3.05447e+00 -3.26730e+00 
-6.60877e+00  2.97429e+00 -3.53913e+00 
-6.43281e+00  2.89405e+00 -3.80428e+00 
-6.25675e+00  2.81375e+00 -4.06283e+00 
-6.08066e+00  2.73344e+00 -4.31471e+00 
-5.90452e+00  2.65312e+00 -4.55999e+00 
-5.72841e+00  2.57282e+00 -4.79861e+00 
-5.55231e+00  2.49256e+00 -5.03060e+00 
-5.37627e+00  2.41237e+00 -5.25591e+00 
-5.20030e+00  2.33224e+00 -5.47457e+00 
-5.02443e+00  2.25222e+00 -5.68650e+00 
-4.84866e+00  2.17231e+00 -5.89174e+00 
-4.67304e+00  2.09253e+00 -6.09020e+00 
-4.49756e+00  2.01288e+00 -6.28190e+00 
-4.32225e+00  1.93340e+00 -6.46678e+00 
-4.14711e+00  1.85407e+00 -6.64483e+00 
-3.97217e+00  1.77491e+00 -6.81597e+00 
-3.79741e+00  1.69593e+00 -6.98022e+00 
-3.62288e+00  1.61714e+00 -7.13750e+00 
-3.44853e+00  1.53854e+00 -7.28780e+00 
-3.27442e+00  1.46013e+00 -7.43106e+00 
-3.10051e+00  1.38190e+00 -7.56726e+00 
-2.92683e+00  1.30387e+00 -7.69634e+00 
-2.75335e+00  1.22603e+00 -7.81828e+00 
-2.58009e+00  1.14838e+00 -7.93303e+00 
-2.40703e+00  1.07090e+00 -8.04058e+00 
-2.23418e+00  9.93603e-01 -8.14086e+00 
-2.06151e+00  9.16467e-01 -8.23386e+00 
-1.88903e+00  8.39497e-01 -8.31954e+00 
-1.71671e+00  7.62670e-01 -8.39788e+00 
-1.54457e+00  6.85990e-01 -8.46884e+00 
-1.37255e+00  6.09430e-01 -8.53240e+00 
-1.20069e+00  5.32993e-01 -8.58854e+00 
-1.02893e+00  4.56652e-01 -8.63724e+00 
-8.57289e-01  3.80408e-01 -8.67847e+00 
-6.85718e-01  3.04231e-01 -8.71223e+00 
-5.14234e-01  2.28123e-01 -8.73850e+00 
-3.42786e-01  1.52053e-01 -8.75728e+00 
-1.71390e-01  7.60217e-02 -8.76854e+00 
-1.92934e-12  3.42180e-12 -8.77230e+00 
 1.71390e-01 -7.60217e-02 -8.76854e+00 
 3.42786e-01 -1.52053e-01 -8.75728e+00 
 5.14234e-01 -2.28123e-01 -8.73850e+00 
 6.85718e-01 -3.04231e-01 -8.71223e+00 
 8.57289e-01 -3.80408e-01 -8.67847e+00 
 1.02893e+00 -4.56652e-01 -8.63724e+00 
 1.20069e+00 -5.32993e-01 -8.58854e+00 
 1.37255e+00 -6.09430e-01 -8.53240e+00 
 1.54457e+00 -6.85990e-01 -8.46884e+00 
 1.71671e+00 -7.62670e-01 -8.39788e+00 
 1.88903e+00 -8.39497e-01 -8.31954e+00 
 2.06151e+00 -9.16467e-01 -8.23386e+00 
 2.23418e+00 -9.93603e-01 -8.14086e+00 
 2.40703e+00 -1.07090e+00 -8.04058e+00 
 2.58009e+00 -1.14838e+00 -7.93303e+00 
 2.75335e+00 -1.22603e+00 -7.81828e+00 
 2.92683e+00 -1.30387e+00 -7.69634e+00 
 3.10051e+00 -1.38190e+00 -7.56726e+00 
 3.27442e+00 -1.46013e+00 -7.43106e+00 
 3.44853e+00 -1.53854e+00 -7.28780e+00 
 3.62288e+00 -1.61714e+00 -7.13750e+00 
 3.79741e+00 -1.69593e+00 -6.98022e+00 
 3.97217e+00 -1.77491e+00 -6.81597e+00 
 4.14711e+00 -1.85407e+00 -6.64483e+00 
 4.32225e+00 -1.93340e+00 -6.46678e+00 
 4.49756e+00 -2.01288e+00 -6.28190e+00 
 4.67304e+00 -2.09253e+00 -6.09020e+00 
 4.84866e+00 -2.17231e+00 -5.89174e+00 
 5.02443e+00 -2.25222e+00 -5.68650e+00 
 5.20030e+00 -2.33224e+00 -5.47457e+00 
 5.37627e+00 -2.41237e+00 -5.25591e+00 
 5.55231e+00 -2.49256e+00 -5.03060e+00 
 5.72841e+00 -2.57282e+00 -4.79861e+00 
 5.90452e+00 -2.65312e+00 -4.55999e+00 
 6.08066e+00 -2.73344e+00 -4.31471e+00 
 6.25675e+00 -2.81375e+00 -4.06283e+00 
 6.43281e+00 -2.89405e+00 -3.80428e+00 
 6.60877e+00 -2.97429e+00 -3.53913e+00 
 6.78465e+00 -3.05447e+00 -3.26730e+00 
 6.96037e+00 -3.13455e+00 -2.98883e+00 
 7.13596e+00 -3.21452e+00 -2.70366e+00 
 7.31134e+00 -3.29435e+00 -2.41180e+00 
 7.48653e+00 -3.37403e+00 -2.11317e+00 
 7.66146e+00 -3.45351e+00 -1.80780e+00 
 7.83615e+00 -3.53281e+00 -1.49557e+00 
 8.01055e+00 -3.61189e+00 -1.17651e+00 
 8.18466e+00 -3.69073e+00 -8.50497e-01 
 8.35843e+00 -3.76933e+00 -5.17543e-01 
 8.53189e+00 -3.83780e+00 -8.55838e-02 
-8.29538e+00  3.73144e+00 -8.53562e-02 
-8.12678e+00  3.66485e+00 -5.16195e-01 
-7.95780e+00  3.58838e+00 -8.48311e-01 
-7.78843e+00  3.51161e+00 -1.17353e+00 
-7.61873e+00  3.43458e+00 -1.49186e+00 
-7.44868e+00  3.35729e+00 -1.80341e+00 
-7.27836e+00  3.27978e+00 -2.10819e+00 
-7.10774e+00  3.20205e+00 -2.40628e+00 
-6.93690e+00  3.12416e+00 -2.69769e+00 
-6.76584e+00  3.04609e+00 -2.98249e+00 
-6.59461e+00  2.96791e+00 -3.26067e+00 
-6.42322e+00  2.88962e+00 -3.53229e+00 
-6.25173e+00  2.81126e+00 -3.79731e+00 
-6.08014e+00  2.73284e+00 -4.05581e+00 
-5.90852e+00  2.65441e+00 -4.30773e+00 
-5.73686e+00  2.57597e+00 -4.55312e+00 
-5.56523e+00  2.49757e+00 -4.79192e+00 
-5.39363e+00  2.41922e+00 -5.02418e+00 
-5.22210e+00  2.34094e+00 -5.24981e+00 
-5.05065e+00  2.26276e+00 -5.46886e+00 
-4.87934e+00  2.18469e+00 -5.68124e+00 
-4.70815e+00  2.10676e+00 -5.88697e+00 
-4.53714e+00  2.02898e+00 -6.08599e+00 
-4.36628e+00  1.95136e+00 -6.27829e+00 
-4.19565e+00  1.87392e+00 -6.46379e+00 
-4.02520e+00  1.79667e+00 -6.64250e+00 
-3.85499e+00  1.71963e+00 -6.81433e+00 
-3.68500e+00  1.64279e+00 -6.97929e+00 
-3.51527e+00  1.56617e+00 -7.13729e+00 
-3.34577e+00  1.48975e+00 -7.28832e+00 
-3.17653e+00  1.41357e+00 -7.43231e+00 
-3.00753e+00  1.33760e+00 -7.56924e+00 
-2.83879e+00  1.26186e+00 -7.69904e+00 
-2.67029e+00  1.18632e+00 -7.82169e+00 
-2.50205e+00  1.11101e+00 -7.93713e+00 
-2.33403e+00  1.03589e+00 -8.04534e+00 
-2.16625e+00  9.60987e-01 -8.14626e+00 
-1.99868e+00  8.86264e-01 -8.23988e+00 
-1.83134e+00  8.11729e-01 -8.32613e+00 
-1.66418e+00  7.37358e-01 -8.40501e+00 
-1.49722e+00  6.63152e-01 -8.47647e+00 
-1.33041e+00  5.89085e-01 -8.54049e+00 
-1.16377e+00  5.15156e-01 -8.59703e+00 
-9.97252e-01  4.41337e-01 -8.64608e+00 
-8.30867e-01  3.67626e-01 -8.68762e+00 
-6.64565e-01  2.93994e-01 -8.72164e+00 
-4.98360e-01  2.20438e-01 -8.74810e+00 
-3.32199e-01  1.46926e-01 -8.76702e+00 
-1.66096e-01  7.34572e-02 -8.77837e+00 
-2.39137e-12  4.99668e-12 -8.78215e+00 
 1.66096e-01 -7.34572e-02 -8.77837e+00 
 3.32199e-01 -1.46926e-01 -8.76702e+00 
 4.98360e-01 -2.20438e-01 -8.74810e+00 
 6.64565e-01 -2.93994e-01 -8.72164e+00 
 8.30867e-01 -3.67626e-01 -8.68762e+00 
 9.97252e-01 -4.41337e-01 -8.64608e+00 
 1.16377e+00 -5.15156e-01 -8.59703e+00 
 1.33041e+00 -5.89085e-01 -8.54049e+00 
 1.49722e+00 -6.63152e-01 -8.47647e+00 
 1.66418e+00 -7.37358e-01 -8.40501e+00 
 1.83134e+00 -8.11729e-01 -8.32613e+00 
 1.99868e+00 -8.86264e-01 -8.23988e+00 
 2.16625e+00 -9.60987e-01 -8.14626e+00 
 2.33403e+00 -1.03589e+00 -8.04534e+00 
 2.50205e+00 -1.11101e+00 -7.93713e+00 
 2.67029e+00 -1.18632e+00 -7.82169e+00 
 2.83879e+00 -1.26186e+00 -7.69904e+00 
 3.00753e+00 -1.33760e+00 -7.56924e+00 
 3.17653e+00 -1.41357e+00 -7.43231e+00 
 3.34577e+00 -1.48975e+00 -7.28832e+00 
 3.51527e+00 -1.56617e+00 -7.13729e+00 
 3.68500e+00 -1.64279e+00 -6.97929e+00 
 3.85499e+00 -1.71963e+00 -6.81433e+00 
 4.02520e+00 -1.79667e+00 -6.64250e+00 
 4.19565e+00 -1.87392e+00 -6.46379e+00 
 4.36628e+00 -1.95136e+00 -6.27829e+00 
 4.53714e+00 -2.02898e+00 -6.08599e+00 
 4.70815e+00 -2.10676e+00 -5.88697e+00 
 4.87934e+00 -2.18469e+00 -5.68124e+00 
 5.05065e+00 -2.26276e+00 -5.46886e+00 
 5.22210e+00 -2.34094e+00 -5.24981e+00 
 5.39363e+00 -2.41922e+00 -5.02418e+00 
 5.56523e+00 -2.49757e+00 -4.79192e+00 
 5.73686e+00 -2.57597e+00 -4.55312e+00 
 5.90852e+00 -2.65441e+00 -4.30773e+00 
 6.08014e+00 -2.73284e+00 -4.05581e+00 
 6.25173e+00 -2.81126e+00 -3.79731e+00 
 6.42322e+00 -2.88962e+00 -3.53229e+00 
 6.59461e+00 -2.96791e+00 -3.26067e+00 
 6.76584e+00 -3.04609e+00 -2.98249e+00 
 6.93690e+00 -3.12416e+00 -2.69769e+00 
 7.10774e+00 -3.20205e+00 -2.40628e+00 
 7.27836e+00 -3.27978e+00 -2.10819e+00 
 7.44868e+00 -3.35729e+00 -1.80341e+00 
 7.61873e+00 -3.43458e+00 -1.49186e+00 
 7.78843e+00 -3.51161e+00 -1.17353e+00 
 7.95780e+00 -3.58838e+00 -8.48311e-01 
 8.12678e+00 -3.66485e+00 -5.16195e-01 
 8.29538e+00 -3.73144e+00 -8.53562e-02 
-8.05954e+00  3.62537e+00 -8.50862e-02 
-7.89576e+00  3.56066e+00 -5.14611e-01 
-7.73154e+00  3.48628e+00 -8.45748e-01 
-7.56687e+00  3.41157e+00 -1.17005e+00 
-7.40180e+00  3.33655e+00 -1.48753e+00 
-7.23635e+00  3.26123e+00 -1.79831e+00 
-7.07057e+00  3.18566e+00 -2.10239e+00 
-6.90447e+00  3.10984e+00 -2.39988e+00 
-6.73810e+00  3.03383e+00 -2.69077e+00 
-6.57149e+00  2.95763e+00 -2.97516e+00 
-6.40469e+00  2.88130e+00 -3.25301e+00 
-6.23771e+00  2.80484e+00 -3.52440e+00 
-6.07063e+00  2.72832e+00 -3.78929e+00 
-5.90345e+00  2.65173e+00 -4.04775e+00 
-5.73623e+00  2.57514e+00 -4.29973e+00 
-5.56898e+00  2.49854e+00 -4.54526e+00 
-5.40177e+00  2.42200e+00 -4.78429e+00 
-5.23460e+00  2.34551e+00 -5.01685e+00 
-5.06754e+00  2.26912e+00 -5.24287e+00 
-4.90057e+00  2.19284e+00 -5.46238e+00 
-4.73376e+00  2.11670e+00 -5.67528e+00 
-4.56711e+00  2.04072e+00 -5.88160e+00 
-4.40066e+00  1.96492e+00 -6.08125e+00 
-4.23442e+00  1.88931e+00 -6.27424e+00 
-4.06842e+00  1.81392e+00 -6.46046e+00 
-3.90265e+00  1.73874e+00 -6.63993e+00 
-3.73716e+00  1.66379e+00 -6.81256e+00 
-3.57193e+00  1.58909e+00 -6.97832e+00 
-3.40699e+00  1.51463e+00 -7.13714e+00 
-3.24232e+00  1.44042e+00 -7.28900e+00 
-3.07796e+00  1.36647e+00 -7.43382e+00 
-2.91388e+00  1.29276e+00 -7.57158e+00 
-2.75010e+00  1.21932e+00 -7.70220e+00 
-2.58660e+00  1.14611e+00 -7.82565e+00 
-2.42339e+00  1.07315e+00 -7.94187e+00 
-2.26044e+00  1.00043e+00 -8.05084e+00 
-2.09777e+00  9.27931e-01 -8.15248e+00 
-1.93533e+00  8.55646e-01 -8.24678e+00 
-1.77316e+00  7.83575e-01 -8.33369e+00 
-1.61119e+00  7.11689e-01 -8.41317e+00 
-1.44945e+00  6.39989e-01 -8.48518e+00 
-1.28789e+00  5.68447e-01 -8.54970e+00 
-1.12651e+00  4.97060e-01 -8.60670e+00 
-9.65282e-01  4.25798e-01 -8.65615e+00 
-8.04199e-01  3.54657e-01 -8.69803e+00 
-6.43214e-01  2.83606e-01 -8.73233e+00 
-4.82337e-01  2.12639e-01 -8.75902e+00 
-3.21513e-01  1.41724e-01 -8.77809e+00 
-1.60751e-01  7.08546e-02 -8.78953e+00 
-2.84401e-12  6.15718e-12 -8.79335e+00 
 1.60751e-01 -7.08546e-02 -8.78953e+00 
 3.21513e-01 -1.41724e-01 -8.77809e+00 
 4.82337e-01 -2.12639e-01 -8.75902e+00 
 6.43214e-01 -2.83606e-01 -8.73233e+00 
 8.04199e-01 -3.54657e-01 -8.69803e+00 
 9.65282e-01 -4.25798e-01 -8.65615e+00 
 1.12651e+00 -4.97060e-01 -8.60670e+00 
 1.28789e+00 -5.68447e-01 -8.54970e+00 
 1.44945e+00 -6.39989e-01 -8.48518e+00 
 1.61119e+00 -7.11689e-01 -8.41317e+00 
 1.77316e+00 -7.83575e-01 -8.33369e+00 
 1.93533e+00 -8.55646e-01 -8.24678e+00 
 2.09777e+00 -9.27931e-01 -8.15248e+00 
 2.26044e+00 -1.00043e+00 -8.05084e+00 
 2.42339e+00 -1.07315e+00 -7.94187e+00 
 2.58660e+00 -1.14611e+00 -7.82565e+00 
 2.75010e+00 -1.21932e+00 -7.70220e+00 
 2.91388e+00 -1.29276e+00 -7.57158e+00 
 3.07796e+00 -1.36647e+00 -7.43382e+00 
 3.24232e+00 -1.44042e+00 -7.28900e+00 
 3.40699e+00 -1.51463e+00 -7.13714e+00 
 3.57193e+00 -1.58909e+00 -6.97832e+00 
 3.73716e+00 -1.66379e+00 -6.81256e+00 
 3.90265e+00 -1.73874e+00 -6.63993e+00 
 4.06842e+00 -1.81392e+00 -6.46046e+00 
 4.23442e+00 -1.88931e+00 -6.27424e+00 
 4.40066e+00 -1.96492e+00 -6.08125e+00 
 4.56711e+00 -2.04072e+00 -5.88160e+00 
 4.73376e+00 -2.11670e+00 -5.67528e+00 
 4.90057e+00 -2.19284e+00 -5.46238e+00 
 5.06754e+00 -2.26912e+00 -5.24287e+00 
 5.23460e+00 -2.34551e+00 -5.01685e+00 
 5.40177e+00 -2.42200e+00 -4.78429e+00 
 5.56898e+00 -2.49854e+00 -4.54526e+00 
 5.73623e+00 -2.57514e+00 -4.29973e+00 
 5.90345e+00 -2.65173e+00 -4.04775e+00 
 6.07063e+00 -2.72832e+00 -3.78929e+00 
 6.23771e+00 -2.80484e+00 -3.52440e+00 
 6.40469e+00 -2.88130e+00 -3.25301e+00 
 6.57149e+00 -2.95763e+00 -2.97516e+00 
 6.73810e+00 -3.03383e+00 -2.69077e+00 
 6.90447e+00 -3.10984e+00 -2.39988e+00 
 7.07057e+00 -3.18566e+00 -2.10239e+00 
 7.23635e+00 -3.26123e+00 -1.79831e+00 
 7.40180e+00 -3.33655e+00 -1.48753e+00 
 7.56687e+00 -3.41157e+00 -1.17005e+00 
 7.73154e+00 -3.48628e+00 -8.45748e-01 
 7.89576e+00 -3.56066e+00 -5.14611e-01 
 8.05954e+00 -3.62537e+00 -8.50862e-02 
-7.82448e+00  3.51966e+00 -8.47668e-02 
-7.66549e+00  3.45680e+00 -5.12757e-01 
-7.50597e+00  3.38450e+00 -8.42754e-01 
-7.34595e+00  3.31180e+00 -1.16599e+00 
-7.18546e+00  3.23875e+00 -1.48249e+00 
-7.02454e+00  3.16536e+00 -1.79238e+00 
-6.86323e+00  3.09168e+00 -2.09567e+00 
-6.70156e+00  3.01772e+00 -2.39248e+00 
-6.53960e+00  2.94354e+00 -2.68279e+00 
-6.37735e+00  2.86915e+00 -2.96670e+00 
-6.21490e+00  2.79461e+00 -3.24420e+00 
-6.05226e+00  2.71995e+00 -3.51534e+00 
-5.88950e+00  2.64520e+00 -3.78010e+00 
-5.72664e+00  2.57040e+00 -4.03853e+00 
-5.56375e+00  2.49559e+00 -4.29059e+00 
-5.40084e+00  2.42079e+00 -4.53630e+00 
-5.23799e+00  2.34606e+00 -4.77561e+00 
-5.07519e+00  2.27139e+00 -5.00854e+00 
-4.91252e+00  2.19685e+00 -5.23502e+00 
-4.74998e+00  2.12244e+00 -5.45506e+00 
-4.58763e+00  2.04820e+00 -5.66858e+00 
-4.42547e+00  1.97415e+00 -5.87558e+00 
-4.26355e+00  1.90031e+00 -6.07597e+00 
-4.10187e+00  1.82669e+00 -6.26974e+00 
-3.94049e+00  1.75332e+00 -6.45680e+00 
-3.77938e+00  1.68020e+00 -6.63714e+00 
-3.61859e+00  1.60735e+00 -6.81066e+00 
-3.45810e+00  1.53478e+00 -6.97734e+00 
-3.29796e+00  1.46249e+00 -7.13710e+00 
-3.13813e+00  1.39049e+00 -7.28990e+00 
-2.97865e+00  1.31878e+00 -7.43565e+00 
-2.81950e+00  1.24735e+00 -7.57434e+00 
-2.66069e+00  1.17622e+00 -7.70588e+00 
-2.50220e+00  1.10536e+00 -7.83024e+00 
-2.34405e+00  1.03478e+00 -7.94733e+00 
-2.18619e+00  9.64461e-01 -8.05714e+00 
-2.02866e+00  8.94405e-01 -8.15959e+00 
-1.87139e+00  8.24588e-01 -8.25466e+00 
-1.71442e+00  7.55009e-01 -8.34229e+00 
-1.55769e+00  6.85641e-01 -8.42244e+00 
-1.40122e+00  6.16481e-01 -8.49507e+00 
-1.24495e+00  5.47499e-01 -8.56016e+00 
-1.08889e+00  4.78690e-01 -8.61766e+00 
-9.32991e-01  4.10022e-01 -8.66756e+00 
-7.77262e-01  3.41489e-01 -8.70982e+00 
-6.21647e-01  2.73057e-01 -8.74442e+00 
-4.66150e-01  2.04719e-01 -8.77136e+00 
-3.10717e-01  1.36440e-01 -8.79060e+00 
-1.55351e-01  6.82116e-02 -8.80216e+00 
-3.31419e-12  5.58703e-12 -8.80601e+00 
 1.55351e-01 -6.82116e-02 -8.80216e+00 
 3.10717e-01 -1.36440e-01 -8.79060e+00 
 4.66150e-01 -2.04719e-01 -8.77136e+00 
 6.21647e-01 -2.73057e-01 -8.74442e+00 
 7.77262e-01 -3.41489e-01 -8.70982e+00 
 9.32991e-01 -4.10022e-01 -8.66756e+00 
 1.08889e+00 -4.78690e-01 -8.61766e+00 
 1.24495e+00 -5.47499e-01 -8.56016e+00 
 1.40122e+00 -6.16481e-01 -8.49507e+00 
 1.55769e+00 -6.85641e-01 -8.42244e+00 
 1.71442e+00 -7.55009e-01 -8.34229e+00 
 1.87139e+00 -8.24588e-01 -8.25466e+00 
 2.02866e+00 -8.94405e-01 -8.15959e+00 
 2.18619e+00 -9.64461e-01 -8.05714e+00 
 2.34405e+00 -1.03478e+00 -7.94733e+00 
 2.50220e+00 -1.10536e+00 -7.83024e+00 
 2.66069e+00 -1.17622e+00 -7.70588e+00 
 2.81950e+00 -1.24735e+00 -7.57434e+00 
 2.97865e+00 -1.31878e+00 -7.43565e+00 
 3.13813e+00 -1.39049e+00 -7.28990e+00 
 3.29796e+00 -1.46249e+00 -7.13710e+00 
 3.45810e+00 -1.53478e+00 -6.97734e+00 
 3.61859e+00 -1.60735e+00 -6.81066e+00 
 3.77938e+00 -1.68020e+00 -6.63714e+00 
 3.94049e+00 -1.75332e+00 -6.45680e+00 
 4.10187e+00 -1.82669e+00 -6.26974e+00 
 4.26355e+00 -1.90031e+00 -6.07597e+00 
 4.42547e+00 -1.97415e+00 -5.87558e+00 
 4.58763e+00 -2.04820e+00 -5.66858e+00 
 4.74998e+00 -2.12244e+00 -5.45506e+00 
 4.91252e+00 -2.19685e+00 -5.23502e+00 
 5.07519e+00 -2.27139e+00 -5.00854e+00 
 5.23799e+00 -2.34606e+00 -4.77561e+00 
 5.40084e+00 -2.42079e+00 -4.53630e+00 
 5.56375e+00 -2.49559e+00 -4.29059e+00 
 5.72664e+00 -2.57040e+00 -4.03853e+00 
 5.88950e+00 -2.64520e+00 -3.78010e+00 
 6.05226e+00 -2.71995e+00 -3.51534e+00 
 6.21490e+00 -2.79461e+00 -3.24420e+00 
 6.37735e+00 -2.86915e+00 -2.96670e+00 
 6.53960e+00 -2.94354e+00 -2.68279e+00 
 6.70156e+00 -3.01772e+00 -2.39248e+00 
 6.86323e+00 -3.09168e+00 -2.09567e+00 
 7.02454e+00 -3.16536e+00 -1.79238e+00 
 7.18546e+00 -3.23875e+00 -1.48249e+00 
 7.34595e+00 -3.31180e+00 -1.16599e+00 
 7.50597e+00 -3.38450e+00 -8.42754e-01 
 7.66549e+00 -3.45680e+00 -5.12757e-01 
 7.82448e+00 -3.51966e+00 -8.47668e-02 
-7.59033e+00  3.41436e+00 -8.43905e-02 
-7.43608e+00  3.35332e+00 -5.10592e-01 
-7.28122e+00  3.28306e+00 -8.39270e-01 
-7.12577e+00  3.21235e+00 -1.16128e+00 
-6.96979e+00  3.14122e+00 -1.47665e+00 
-6.81331e+00  3.06971e+00 -1.78553e+00 
-6.65640e+00  2.99786e+00 -2.08792e+00 
-6.49907e+00  2.92570e+00 -2.38395e+00 
-6.34141e+00  2.85329e+00 -2.67361e+00 
-6.18344e+00  2.78066e+00 -2.95700e+00 
-6.02525e+00  2.70786e+00 -3.23410e+00 
-5.86685e+00  2.63492e+00 -3.50499e+00 
-5.70833e+00  2.56189e+00 -3.76961e+00 
-5.54970e+00  2.48882e+00 -4.02804e+00 
-5.39106e+00  2.41574e+00 -4.28020e+00 
-5.23240e+00  2.34268e+00 -4.52615e+00 
-5.07382e+00  2.26971e+00 -4.76580e+00 
-4.91533e+00  2.19683e+00 -4.99917e+00 
-4.75699e+00  2.12409e+00 -5.22619e+00 
-4.59881e+00  2.05152e+00 -5.44686e+00 
-4.44086e+00  1.97914e+00 -5.66109e+00 
-4.28314e+00  1.90699e+00 -5.86887e+00 
-4.12572e+00  1.83508e+00 -6.07010e+00 
-3.96858e+00  1.76344e+00 -6.26478e+00 
-3.81177e+00  1.69208e+00 -6.45279e+00 
-3.65529e+00  1.62101e+00 -6.63412e+00 
-3.49919e+00  1.55026e+00 -6.80866e+00 
-3.34344e+00  1.47982e+00 -6.97638e+00 
-3.18808e+00  1.40971e+00 -7.13719e+00 
-3.03310e+00  1.33992e+00 -7.29105e+00 
-2.87851e+00  1.27046e+00 -7.43786e+00 
-2.72430e+00  1.20133e+00 -7.57760e+00 
-2.57048e+00  1.13252e+00 -7.71016e+00 
-2.41703e+00  1.06403e+00 -7.83552e+00 
-2.26396e+00  9.95855e-01 -7.95360e+00 
-2.11124e+00  9.27972e-01 -8.06435e+00 
-1.95887e+00  8.60385e-01 -8.16770e+00 
-1.80682e+00  7.93065e-01 -8.26362e+00 
-1.65509e+00  7.26012e-01 -8.35204e+00 
-1.50364e+00  6.59196e-01 -8.43294e+00 
-1.35248e+00  5.92611e-01 -8.50626e+00 
-1.20155e+00  5.26226e-01 -8.57197e+00 
-1.05086e+00  4.60034e-01 -8.63003e+00 
-9.00353e-01  3.94000e-01 -8.68041e+00 
-7.50033e-01  3.28115e-01 -8.72309e+00 
-5.99844e-01  2.62343e-01 -8.75804e+00 
-4.49786e-01  1.96675e-01 -8.78524e+00 
-2.99802e-01  1.31073e-01 -8.80468e+00 
-1.49892e-01  6.55268e-02 -8.81634e+00 
-3.70338e-12  7.70917e-12 -8.82024e+00 
 1.49892e-01 -6.55268e-02 -8.81634e+00 
 2.99802e-01 -1.31073e-01 -8.80468e+00 
 4.49786e-01 -1.96675e-01 -8.78524e+00 
 5.99844e-01 -2.62343e-01 -8.75804e+00 
 7.50033e-01 -3.28115e-01 -8.72309e+00 
 9.00353e-01 -3.94000e-01 -8.68041e+00 
 1.05086e+00 -4.60034e-01 -8.63003e+00 
 1.20155e+00 -5.26226e-01 -8.57197e+00 
 1.35248e+00 -5.92611e-01 -8.50626e+00 
 1.50364e+00 -6.59196e-01 -8.43294e+00 
 1.65509e+00 -7.26012e-01 -8.35204e+00 
 1.80682e+00 -7.93065e-01 -8.26362e+00 
 1.95887e+00 -8.60385e-01 -8.16770e+00 
 2.11124e+00 -9.27972e-01 -8.06435e+00 
 2.26396e+00 -9.95855e-01 -7.95360e+00 
 2.41703e+00 -1.06403e+00 -7.83552e+00 
 2.57048e+00 -1.13252e+00 -7.71016e+00 
 2.72430e+00 -1.20133e+00 -7.57760e+00 
 2.87851e+00 -1.27046e+00 -7.43786e+00 
 3.03310e+00 -1.33992e+00 -7.29105e+00 
 3.18808e+00 -1.40971e+00 -7.13719e+00 
 3.34344e+00 -1.47982e+00 -6.97638e+00 
 3.49919e+00 -1.55026e+00 -6.80866e+00 
 3.65529e+00 -1.62101e+00 -6.63412e+00 
 3.81177e+00 -1.69208e+00 -6.45279e+00 
 3.96858e+00 -1.76344e+00 -6.26478e+00 
 4.12572e+00 -1.83508e+00 -6.07010e+00 
 4.28314e+00 -1.90699e+00 -5.86887e+00 
 4.44086e+00 -1.97914e+00 -5.66109e+00 
 4.59881e+00 -2.05152e+00 -5.44686e+00 
 4.75699e+00 -2.12409e+00 -5.22619e+00 
 4.91533e+00 -2.19683e+00 -4.99917e+00 
 5.07382e+00 -2.26971e+00 -4.76580e+00 
 5.23240e+00 -2.34268e+00 -4.52615e+00 
 5.39106e+00 -2.41574e+00 -4.28020e+00 
 5.54970e+00 -2.48882e+00 -4.02804e+00 
 5.70833e+00 -2.56189e+00 -3.76961e+00 
 5.86685e+00 -2.63492e+00 -3.50499e+00 
 6.02525e+00 -2.70786e+00 -3.23410e+00 
 6.18344e+00 -2.78066e+00 -2.95700e+00 
 6.34141e+00 -2.85329e+00 -2.67361e+00 
 6.49907e+00 -2.92570e+00 -2.38395e+00 
 6.65640e+00 -2.99786e+00 -2.08792e+00 
 6.81331e+00 -3.06971e+00 -1.78553e+00 
 6.96979e+00 -3.14122e+00 -1.47665e+00 
 7.12577e+00 -3.21235e+00 -1.16128e+00 
 7.28122e+00 -3.28306e+00 -8.39270e-01 
 7.43608e+00 -3.35332e+00 -5.10592e-01 
 7.59033e+00 -3.41436e+00 -8.43905e-02 
-7.35725e+00  3.30953e+00 -8.39482e-02 
-7.20767e+00  3.25030e+00 -5.08074e-01 
-7.05740e+00  3.18204e+00 -8.35226e-01 
-6.90644e+00  3.11326e+00 -1.15582e+00 
-6.75489e+00  3.04400e+00 -1.46990e+00 
-6.60276e+00  2.97431e+00 -1.77762e+00 
-6.45013e+00  2.90423e+00 -2.07899e+00 
-6.29705e+00  2.83381e+00 -2.37415e+00 
-6.14359e+00  2.76311e+00 -2.66309e+00 
-5.98979e+00  2.69215e+00 -2.94591e+00 
-5.83575e+00  2.62102e+00 -3.22259e+00 
-5.68148e+00  2.54973e+00 -3.49320e+00 
-5.52709e+00  2.47837e+00 -3.75770e+00 
-5.37260e+00  2.40695e+00 -4.01614e+00 
-5.21810e+00  2.33554e+00 -4.26846e+00 
-5.06361e+00  2.26418e+00 -4.51469e+00 
-4.90922e+00  2.19291e+00 -4.75475e+00 
-4.75495e+00  2.12176e+00 -4.98865e+00 
-4.60086e+00  2.05079e+00 -5.21631e+00 
-4.44699e+00  1.98001e+00 -5.43771e+00 
-4.29338e+00  1.90948e+00 -5.65276e+00 
-4.14006e+00  1.83919e+00 -5.86144e+00 
-3.98707e+00  1.76920e+00 -6.06365e+00 
-3.83443e+00  1.69951e+00 -6.25935e+00 
-3.68218e+00  1.63015e+00 -6.44845e+00 
-3.53032e+00  1.56113e+00 -6.63090e+00 
-3.37888e+00  1.49247e+00 -6.80659e+00 
-3.22786e+00  1.42416e+00 -6.97548e+00 
-3.07729e+00  1.35623e+00 -7.13747e+00 
-2.92715e+00  1.28867e+00 -7.29252e+00 
-2.77746e+00  1.22148e+00 -7.44051e+00 
-2.62821e+00  1.15466e+00 -7.58141e+00 
-2.47941e+00  1.08821e+00 -7.71512e+00 
-2.33102e+00  1.02210e+00 -7.84160e+00 
-2.18307e+00  9.56357e-01 -7.96075e+00 
-2.03550e+00  8.90940e-01 -8.07254e+00 
-1.88835e+00  8.25851e-01 -8.17688e+00 
-1.74155e+00  7.61063e-01 -8.27374e+00 
-1.59512e+00  6.96571e-01 -8.36305e+00 
-1.44900e+00  6.32342e-01 -8.44477e+00 
-1.30320e+00  5.68371e-01 -8.51884e+00 
-1.15767e+00  5.04622e-01 -8.58523e+00 
-1.01240e+00  4.41085e-01 -8.64390e+00 
-8.67341e-01  3.77725e-01 -8.69481e+00 
-7.22491e-01  3.14529e-01 -8.73794e+00 
-5.77789e-01  2.51459e-01 -8.77327e+00 
-4.33232e-01  1.88503e-01 -8.80076e+00 
-2.88760e-01  1.25621e-01 -8.82041e+00 
-1.44369e-01  6.27994e-02 -8.83221e+00 
-2.78465e-12  5.10949e-12 -8.83614e+00 
 1.44369e-01 -6.27994e-02 -8.83221e+00 
 2.88760e-01 -1.25621e-01 -8.82041e+00 
 4.33232e-01 -1.88503e-01 -8.80076e+00 
 5.77789e-01 -2.51459e-01 -8.77327e+00 
 7.22491e-01 -3.14529e-01 -8.73794e+00 
 8.67341e-01 -3.77725e-01 -8.69481e+00 
 1.01240e+00 -4.41085e-01 -8.64390e+00 
 1.15767e+00 -5.04622e-01 -8.58523e+00 
 1.30320e+00 -5.68371e-01 -8.51884e+00 
 1.44900e+00 -6.32342e-01 -8.44477e+00 
 1.59512e+00 -6.96571e-01 -8.36305e+00 
 1.74155e+00 -7.61063e-01 -8.27374e+00 
 1.88835e+00 -8.25851e-01 -8.17688e+00 
 2.03550e+00 -8.90940e-01 -8.07254e+00 
 2.18307e+00 -9.56357e-01 -7.96075e+00 
 2.33102e+00 -1.02210e+00 -7.84160e+00 
 2.47941e+00 -1.08821e+00 -7.71512e+00 
 2.62821e+00 -1.15466e+00 -7.58141e+00 
 2.77746e+00 -1.22148e+00 -7.44051e+00 
 2.92715e+00 -1.28867e+00 -7.29252e+00 
 3.07729e+00 -1.35623e+00 -7.13747e+00 
 3.22786e+00 -1.42416e+00 -6.97548e+00 
 3.37888e+00 -1.49247e+00 -6.80659e+00 
 3.53032e+00 -1.56113e+00 -6.63090e+00 
 3.68218e+00 -1.63015e+00 -6.44845e+00 
 3.83443e+00 -1.69951e+00 -6.25935e+00 
 3.98707e+00 -1.76920e+00 -6.06365e+00 
 4.14006e+00 -1.83919e+00 -5.86144e+00 
 4.29338e+00 -1.90948e+00 -5.65276e+00 
 4.44699e+00 -1.98001e+00 -5.43771e+00 
 4.60086e+00 -2.05079e+00 -5.21631e+00 
 4.75495e+00 -2.12176e+00 -4.98865e+00 
 4.90922e+00 -2.19291e+00 -4.75475e+00 
 5.06361e+00 -2.26418e+00 -4.51469e+00 
 5.21810e+00 -2.33554e+00 -4.26846e+00 
 5.37260e+00 -2.40695e+00 -4.01614e+00 
 5.52709e+00 -2.47837e+00 -3.75770e+00 
 5.68148e+00 -2.54973e+00 -3.49320e+00 
 5.83575e+00 -2.62102e+00 -3.22259e+00 
 5.98979e+00 -2.69215e+00 -2.94591e+00 
 6.14359e+00 -2.76311e+00 -2.66309e+00 
 6.29705e+00 -2.83381e+00 -2.37415e+00 
 6.45013e+00 -2.90423e+00 -2.07899e+00 
 6.60276e+00 -2.97431e+00 -1.77762e+00 
 6.75489e+00 -3.04400e+00 -1.46990e+00 
 6.90644e+00 -3.11326e+00 -1.15582e+00 
 7.05740e+00 -3.18204e+00 -8.35226e-01 
 7.20767e+00 -3.25030e+00 -5.08074e-01 
 7.35725e+00 -3.30953e+00 -8.39482e-02 
-7.12539e+00  3.20526e+00 -8.34298e-02 
-6.98042e+00  3.14780e+00 -5.05152e-01 
-6.83465e+00  3.08149e+00 -8.30548e-01 
-6.68810e+00  3.01458e+00 -1.14953e+00 
-6.54086e+00  2.94714e+00 -1.46213e+00 
-6.39296e+00  2.87919e+00 -1.76854e+00 
-6.24451e+00  2.81082e+00 -2.06876e+00 
-6.09555e+00  2.74206e+00 -2.36294e+00 
-5.94617e+00  2.67298e+00 -2.65108e+00 
-5.79642e+00  2.60363e+00 -2.93327e+00 
-5.64640e+00  2.53408e+00 -3.20950e+00 
-5.49615e+00  2.46438e+00 -3.47983e+00 
-5.34577e+00  2.39460e+00 -3.74422e+00 
-5.19531e+00  2.32478e+00 -4.00271e+00 
-5.04484e+00  2.25497e+00 -4.25524e+00 
-4.89442e+00  2.18524e+00 -4.50183e+00 
-4.74412e+00  2.11562e+00 -4.74238e+00 
-4.59398e+00  2.04616e+00 -4.97691e+00 
-4.44408e+00  1.97691e+00 -5.20531e+00 
-4.29443e+00  1.90789e+00 -5.42756e+00 
-4.14510e+00  1.83915e+00 -5.64356e+00 
-3.99611e+00  1.77071e+00 -5.85328e+00 
-3.84753e+00  1.70262e+00 -6.05660e+00 
-3.69935e+00  1.63487e+00 -6.25348e+00 
-3.55162e+00  1.56750e+00 -6.44379e+00 
-3.40435e+00  1.50052e+00 -6.62751e+00 
-3.25757e+00  1.43395e+00 -6.80449e+00 
-3.11127e+00  1.36778e+00 -6.97470e+00 
-2.96549e+00  1.30204e+00 -7.13801e+00 
-2.82020e+00  1.23671e+00 -7.29438e+00 
-2.67543e+00  1.17181e+00 -7.44368e+00 
-2.53115e+00  1.10732e+00 -7.58588e+00 
-2.38739e+00  1.04324e+00 -7.72085e+00 
-2.24410e+00  9.79562e-01 -7.84856e+00 
-2.10130e+00  9.16274e-01 -7.96890e+00 
-1.95894e+00  8.53353e-01 -8.08183e+00 
-1.81704e+00  7.90797e-01 -8.18726e+00 
-1.67554e+00  7.28575e-01 -8.28514e+00 
-1.53445e+00  6.66680e-01 -8.37541e+00 
-1.39372e+00  6.05078e-01 -8.45802e+00 
-1.25334e+00  5.43758e-01 -8.53291e+00 
-1.11326e+00  4.82685e-01 -8.60004e+00 
-9.73481e-01  4.21844e-01 -8.65937e+00 
-8.33934e-01  3.61199e-01 -8.71087e+00 
-6.94617e-01  3.00733e-01 -8.75449e+00 
-5.55467e-01  2.40407e-01 -8.79022e+00 
-4.16478e-01  1.80205e-01 -8.81803e+00 
-2.77585e-01  1.20085e-01 -8.83791e+00 
-1.38779e-01  6.00297e-02 -8.84985e+00 
-1.26594e-12  2.44840e-12 -8.85382e+00 
 1.38779e-01 -6.00297e-02 -8.84985e+00 
 2.77585e-01 -1.20085e-01 -8.83791e+00 
 4.16478e-01 -1.80205e-01 -8.81803e+00 
 5.55467e-01 -2.40407e-01 -8.79022e+00 
 6.94617e-01 -3.00733e-01 -8.75449e+00 
 8.33934e-01 -3.61199e-01 -8.71087e+00 
 9.73481e-01 -4.21844e-01 -8.65937e+00 
 1.11326e+00 -4.82685e-01 -8.60004e+00 
 1.25334e+00 -5.43758e-01 -8.53291e+00 
 1.39372e+00 -6.05078e-01 -8.45802e+00 
 1.53445e+00 -6.66680e-01 -8.37541e+00 
 1.67554e+00 -7.28575e-01 -8.28514e+00 
 1.81704e+00 -7.90797e-01 -8.18726e+00 
 1.95894e+00 -8.53353e-01 -8.08183e+00 
 2.10130e+00 -9.16274e-01 -7.96890e+00 
 2.24410e+00 -9.79562e-01 -7.84856e+00 
 2.38739e+00 -1.04324e+00 -7.72085e+00 
 2.53115e+00 -1.10732e+00 -7.58588e+00 
 2.67543e+00 -1.17181e+00 -7.44368e+00 
 2.82020e+00 -1.23671e+00 -7.29438e+00 
 2.96549e+00 -1.30204e+00 -7.13801e+00 
 3.11127e+00 -1.36778e+00 -6.97470e+00 
 3.25757e+00 -1.43395e+00 -6.80449e+00 
 3.40435e+00 -1.50052e+00 -6.62751e+00 
 3.55162e+00 -1.56750e+00 -6.44379e+00 
 3.69935e+00 -1.63487e+00 -6.25348e+00 
 3.84753e+00 -1.70262e+00 -6.05660e+00 
 3.99611e+00 -1.77071e+00 -5.85328e+00 
 4.14510e+00 -1.83915e+00 -5.64356e+00 
 4.29443e+00 -1.90789e+00 -5.42756e+00 
 4.44408e+00 -1.97691e+00 -5.20531e+00 
 4.59398e+00 -2.04616e+00 -4.97691e+00 
 4.74412e+00 -2.11562e+00 -4.74238e+00 
 4.89442e+00 -2.18524e+00 -4.50183e+00 
 5.04484e+00 -2.25497e+00 -4.25524e+00 
 5.19531e+00 -2.32478e+00 -4.00271e+00 
 5.34577e+00 -2.39460e+00 -3.74422e+00 
 5.49615e+00 -2.46438e+00 -3.47983e+00 
 5.64640e+00 -2.53408e+00 -3.20950e+00 
 5.79642e+00 -2.60363e+00 -2.93327e+00 
 5.94617e+00 -2.67298e+00 -2.65108e+00 
 6.09555e+00 -2.74206e+00 -2.36294e+00 
 6.24451e+00 -2.81082e+00 -2.06876e+00 
 6.39296e+00 -2.87919e+00 -1.76854e+00 
 6.54086e+00 -2.94714e+00 -1.46213e+00 
 6.68810e+00 -3.01458e+00 -1.14953e+00 
 6.83465e+00 -3.08149e+00 -8.30548e-01 
 6.98042e+00 -3.14780e+00 -5.05152e-01 
 7.12539e+00 -3.20526e+00 -8.34298e-02 
-6.89496e+00  3.10163e+00 -8.28238e-02 
-6.75451e+00  3.04590e+00 -5.01771e-01 
-6.61314e+00  2.98148e+00 -8.25151e-01 
-6.47087e+00  2.91639e+00 -1.14228e+00 
-6.32782e+00  2.85068e+00 -1.45321e+00 
-6.18403e+00  2.78440e+00 -1.75813e+00 
-6.03962e+00  2.71765e+00 -2.05707e+00 
-5.89464e+00  2.65046e+00 -2.35016e+00 
-5.74919e+00  2.58292e+00 -2.63742e+00 
-5.60335e+00  2.51509e+00 -2.91893e+00 
-5.45721e+00  2.44705e+00 -3.19468e+00 
-5.31084e+00  2.37885e+00 -3.46474e+00 
-5.16434e+00  2.31057e+00 -3.72904e+00 
-5.01777e+00  2.24226e+00 -3.98763e+00 
-4.87123e+00  2.17400e+00 -4.24043e+00 
-4.72476e+00  2.10582e+00 -4.48746e+00 
-4.57845e+00  2.03780e+00 -4.72861e+00 
-4.43235e+00  1.96997e+00 -4.96388e+00 
-4.28653e+00  1.90239e+00 -5.19314e+00 
-4.14103e+00  1.83509e+00 -5.41639e+00 
-3.99592e+00  1.76813e+00 -5.63348e+00 
-3.85122e+00  1.70151e+00 -5.84438e+00 
-3.70698e+00  1.63528e+00 -6.04896e+00 
-3.56322e+00  1.56946e+00 -6.24717e+00 
-3.41999e+00  1.50408e+00 -6.43887e+00 
-3.27729e+00  1.43914e+00 -6.62400e+00 
-3.13516e+00  1.37466e+00 -6.80243e+00 
-2.99358e+00  1.31065e+00 -6.97410e+00 
-2.85259e+00  1.24711e+00 -7.13888e+00 
-2.71216e+00  1.18404e+00 -7.29671e+00 
-2.57233e+00  1.12145e+00 -7.44746e+00 
-2.43306e+00  1.05931e+00 -7.59108e+00 
-2.29436e+00  9.97639e-01 -7.72744e+00 
-2.15621e+00  9.36405e-01 -7.85650e+00 
-2.01860e+00  8.75607e-01 -7.97813e+00 
-1.88149e+00  8.15218e-01 -8.09230e+00 
-1.74489e+00  7.55230e-01 -8.19891e+00 
-1.60875e+00  6.95611e-01 -8.29791e+00 
-1.47306e+00  6.36350e-01 -8.38922e+00 
-1.33777e+00  5.77413e-01 -8.47279e+00 
-1.20287e+00  5.18784e-01 -8.54856e+00 
-1.06831e+00  4.60425e-01 -8.61650e+00 
-9.34081e-01  4.02321e-01 -8.67654e+00 
-8.00112e-01  3.44430e-01 -8.72866e+00 
-6.66395e-01  2.86735e-01 -8.77281e+00 
-5.32867e-01  2.29193e-01 -8.80898e+00 
-3.99513e-01  1.71785e-01 -8.83713e+00 
-2.66268e-01  1.14467e-01 -8.85726e+00 
-1.33119e-01  5.72195e-02 -8.86933e+00 
-1.80685e-12  1.70905e-12 -8.87336e+00 
 1.33119e-01 -5.72195e-02 -8.86933e+00 
 2.66268e-01 -1.14467e-01 -8.85726e+00 
 3.99513e-01 -1.71785e-01 -8.83713e+00 
 5.32867e-01 -2.29193e-01 -8.80898e+00 
 6.66395e-01 -2.86735e-01 -8.77281e+00 
 8.00112e-01 -3.44430e-01 -8.72866e+00 
 9.34081e-01 -4.02321e-01 -8.67654e+00 
 1.06831e+00 -4.60425e-01 -8.61650e+00 
 1.20287e+00 -5.18784e-01 -8.54856e+00 
 1.33777e+00 -5.77413e-01 -8.47279e+00 
 1.47306e+00 -6.36350e-01 -8.38922e+00 
 1.60875e+00 -6.95611e-01 -8.29791e+00 
 1.74489e+00 -7.55230e-01 -8.19891e+00 
 1.88149e+00 -8.15218e-01 -8.09230e+00 
 2.01860e+00 -8.75607e-01 -7.97813e+00 
 2.15621e+00 -9.36405e-01 -7.85650e+00 
 2.29436e+00 -9.97639e-01 -7.72744e+00 
 2.43306e+00 -1.05931e+00 -7.59108e+00 
 2.57233e+00 -1.12145e+00 -7.44746e+00 
 2.71216e+00 -1.18404e+00 -7.29671e+00 
 2.85259e+00 -1.24711e+00 -7.13888e+00 
 2.99358e+00 -1.31065e+00 -6.97410e+00 
 3.13516e+00 -1.37466e+00 -6.80243e+00 
 3.27729e+00 -1.43914e+00 -6.62400e+00 
 3.41999e+00 -1.50408e+00 -6.43887e+00 
 3.56322e+00 -1.56946e+00 -6.24717e+00 
 3.70698e+00 -1.63528e+00 -6.04896e+00 
 3.85122e+00 -1.70151e+00 -5.84438e+00 
 3.99592e+00 -1.76813e+00 -5.63348e+00 
 4.14103e+00 -1.83509e+00 -5.41639e+00 
 4.28653e+00 -1.90239e+00 -5.19314e+00 
 4.43235e+00 -1.96997e+00 -4.96388e+00 
 4.57845e+00 -2.03780e+00 -4.72861e+00 
 4.72476e+00 -2.10582e+00 -4.48746e+00 
 4.87123e+00 -2.17400e+00 -4.24043e+00 
 5.01777e+00 -2.24226e+00 -3.98763e+00 
 5.16434e+00 -2.31057e+00 -3.72904e+00 
 5.31084e+00 -2.37885e+00 -3.46474e+00 
 5.45721e+00 -2.44705e+00 -3.19468e+00 
 5.60335e+00 -2.51509e+00 -2.91893e+00 
 5.74919e+00 -2.58292e+00 -2.63742e+00 
 5.89464e+00 -2.65046e+00 -2.35016e+00 
 6.03962e+00 -2.71765e+00 -2.05707e+00 
 6.18403e+00 -2.78440e+00 -1.75813e+00 
 6.32782e+00 -2.85068e+00 -1.45321e+00 
 6.47087e+00 -2.91639e+00 -1.14228e+00 
 6.61314e+00 -2.98148e+00 -8.25151e-01 
 6.75451e+00 -3.04590e+00 -5.01771e-01 
 6.89496e+00 -3.10163e+00 -8.28238e-02 
-6.66618e+00  2.99874e+00 -8.21171e-02 
-6.53014e+00  2.94468e+00 -4.97869e-01 
-6.39303e+00  2.88210e+00 -8.18941e-01 
-6.25492e+00  2.81874e+00 -1.13396e+00 
-6.11591e+00  2.75467e+00 -1.44300e+00 
-5.97607e+00  2.68998e+00 -1.74625e+00 
-5.83554e+00  2.62474e+00 -2.04375e+00 
-5.69437e+00  2.55903e+00 -2.33564e+00 
-5.55269e+00  2.49294e+00 -2.62193e+00 
-5.41059e+00  2.42653e+00 -2.90272e+00 
-5.26818e+00  2.35990e+00 -3.17798e+00 
-5.12553e+00  2.29311e+00 -3.44776e+00 
-4.98277e+00  2.22624e+00 -3.71202e+00 
-4.83995e+00  2.15937e+00 -3.97077e+00 
-4.69719e+00  2.09257e+00 -4.22393e+00 
-4.55455e+00  2.02589e+00 -4.47150e+00 
-4.41212e+00  1.95940e+00 -4.71336e+00 
-4.26996e+00  1.89315e+00 -4.94950e+00 
-4.12814e+00  1.82720e+00 -5.17979e+00 
-3.98671e+00  1.76159e+00 -5.40417e+00 
-3.84575e+00  1.69636e+00 -5.62252e+00 
-3.70526e+00  1.63154e+00 -5.83477e+00 
-3.56533e+00  1.56718e+00 -6.04078e+00 
-3.42596e+00  1.50328e+00 -6.24049e+00 
-3.28720e+00  1.43988e+00 -6.43373e+00 
-3.14905e+00  1.37698e+00 -6.62045e+00 
-3.01156e+00  1.31461e+00 -6.80049e+00 
-2.87470e+00  1.25276e+00 -6.97378e+00 
-2.73851e+00  1.19144e+00 -7.14018e+00 
-2.60297e+00  1.13065e+00 -7.29962e+00 
-2.46810e+00  1.07039e+00 -7.45196e+00 
-2.33386e+00  1.01064e+00 -7.59712e+00 
-2.20027e+00  9.51404e-01 -7.73500e+00 
-2.06729e+00  8.92651e-01 -7.86551e+00 
-1.93492e+00  8.34379e-01 -7.98856e+00 
-1.80311e+00  7.76556e-01 -8.10407e+00 
-1.67187e+00  7.19173e-01 -8.21195e+00 
-1.54114e+00  6.62194e-01 -8.31214e+00 
-1.41091e+00  6.05607e-01 -8.40456e+00 
-1.28113e+00  5.49372e-01 -8.48917e+00 
-1.15178e+00  4.93472e-01 -8.56588e+00 
-1.02280e+00  4.37867e-01 -8.63467e+00 
-8.94187e-01  3.82537e-01 -8.69547e+00 
-7.65863e-01  3.27439e-01 -8.74825e+00 
-6.37817e-01  2.72552e-01 -8.79296e+00 
-5.09979e-01  2.17831e-01 -8.82960e+00 
-3.82333e-01  1.63254e-01 -8.85811e+00 
-2.54809e-01  1.08776e-01 -8.87849e+00 
-1.27387e-01  5.43725e-02 -8.89072e+00 
-1.75570e-12  3.66239e-12 -8.89480e+00 
 1.27387e-01 -5.43725e-02 -8.89072e+00 
 2.54809e-01 -1.08776e-01 -8.87849e+00 
 3.82333e-01 -1.63254e-01 -8.85811e+00 
 5.09979e-01 -2.17831e-01 -8.82960e+00 
 6.37817e-01 -2.72552e-01 -8.79296e+00 
 7.65863e-01 -3.27439e-01 -8.74825e+00 
 8.94187e-01 -3.82537e-01 -8.69547e+00 
 1.02280e+00 -4.37867e-01 -8.63467e+00 
 1.15178e+00 -4.93472e-01 -8.56588e+00 
 1.28113e+00 -5.49372e-01 -8.48917e+00 
 1.41091e+00 -6.05607e-01 -8.40456e+00 
 1.54114e+00 -6.62194e-01 -8.31214e+00 
 1.67187e+00 -7.19173e-01 -8.21195e+00 
 1.80311e+00 -7.76556e-01 -8.10407e+00 
 1.93492e+00 -8.34379e-01 -7.98856e+00 
 2.06729e+00 -8.92651e-01 -7.86551e+00 
 2.20027e+00 -9.51404e-01 -7.73500e+00 
 2.33386e+00 -1.01064e+00 -7.59712e+00 
 2.46810e+00 -1.07039e+00 -7.45196e+00 
 2.60297e+00 -1.13065e+00 -7.29962e+00 
 2.73851e+00 -1.19144e+00 -7.14018e+00 
 2.87470e+00 -1.25276e+00 -6.97378e+00 
 3.01156e+00 -1.31461e+00 -6.80049e+00 
 3.14905e+00 -1.37698e+00 -6.62045e+00 
 3.28720e+00 -1.43988e+00 -6.43373e+00 
 3.42596e+00 -1.50328e+00 -6.24049e+00 
 3.56533e+00 -1.56718e+00 -6.04078e+00 
 3.70526e+00 -1.63154e+00 -5.83477e+00 
 3.84575e+00 -1.69636e+00 -5.62252e+00 
 3.98671e+00 -1.76159e+00 -5.40417e+00 
 4.12814e+00 -1.82720e+00 -5.17979e+00 
 4.26996e+00 -1.89315e+00 -4.94950e+00 
 4.41212e+00 -1.95940e+00 -4.71336e+00 
 4.55455e+00 -2.02589e+00 -4.47150e+00 
 4.69719e+00 -2.09257e+00 -4.22393e+00 
 4.83995e+00 -2.15937e+00 -3.97077e+00 
 4.98277e+00 -2.22624e+00 -3.71202e+00 
 5.12553e+00 -2.29311e+00 -3.44776e+00 
 5.26818e+00 -2.35990e+00 -3.17798e+00 
 5.41059e+00 -2.42653e+00 -2.90272e+00 
 5.55269e+00 -2.49294e+00 -2.62193e+00 
 5.69437e+00 -2.55903e+00 -2.33564e+00 
 5.83554e+00 -2.62474e+00 -2.04375e+00 
 5.97607e+00 -2.68998e+00 -1.74625e+00 
 6.11591e+00 -2.75467e+00 -1.44300e+00 
 6.25492e+00 -2.81874e+00 -1.13396e+00 
 6.39303e+00 -2.88210e+00 -8.18941e-01 
 6.53014e+00 -2.94468e+00 -4.97869e-01 
 6.66618e+00 -2.99874e+00 -8.21171e-02 
-6.43929e+00  2.89670e+00 -8.12949e-02 
-6.30753e+00  2.84426e+00 -4.93379e-01 
-6.17454e+00  2.78342e+00 -8.11816e-01 
-6.04041e+00  2.72170e+00 -1.12444e+00 
-5.90527e+00  2.65919e+00 -1.43135e+00 
-5.76920e+00  2.59597e+00 -1.73273e+00 
-5.63235e+00  2.53215e+00 -2.02863e+00 
-5.49481e+00  2.46780e+00 -2.31920e+00 
-5.35672e+00  2.40304e+00 -2.60445e+00 
-5.21817e+00  2.33794e+00 -2.88447e+00 
-5.07930e+00  2.27262e+00 -3.15922e+00 
-4.94020e+00  2.20714e+00 -3.42877e+00 
-4.80101e+00  2.14160e+00 -3.69303e+00 
-4.66179e+00  2.07608e+00 -3.95202e+00 
-4.52267e+00  2.01066e+00 -4.20564e+00 
-4.38372e+00  1.94541e+00 -4.45388e+00 
-4.24505e+00  1.88040e+00 -4.69660e+00 
-4.10671e+00  1.81567e+00 -4.93377e+00 
-3.96880e+00  1.75131e+00 -5.16523e+00 
-3.83136e+00  1.68735e+00 -5.39093e+00 
-3.69447e+00  1.62383e+00 -5.61072e+00 
-3.55815e+00  1.56080e+00 -5.82450e+00 
-3.42248e+00  1.49828e+00 -6.03212e+00 
-3.28746e+00  1.43630e+00 -6.23351e+00 
-3.15315e+00  1.37489e+00 -6.42848e+00 
-3.01955e+00  1.31404e+00 -6.61696e+00 
-2.88669e+00  1.25379e+00 -6.79878e+00 
-2.75456e+00  1.19413e+00 -6.97385e+00 
-2.62319e+00  1.13506e+00 -7.14203e+00 
-2.49256e+00  1.07658e+00 -7.30322e+00 
-2.36268e+00  1.01868e+00 -7.45727e+00 
-2.23351e+00  9.61348e-01 -7.60412e+00 
-2.10507e+00  9.04579e-01 -7.74363e+00 
-1.97731e+00  8.48344e-01 -7.87571e+00 
-1.85023e+00  7.92635e-01 -8.00026e+00 
-1.72378e+00  7.37416e-01 -8.11721e+00 
-1.59795e+00  6.82676e-01 -8.22644e+00 
-1.47269e+00  6.28375e-01 -8.32791e+00 
-1.34799e+00  5.74497e-01 -8.42151e+00 
-1.22378e+00  5.21001e-01 -8.50721e+00 
-1.10004e+00  4.67867e-01 -8.58492e+00 
-9.76722e-01  4.15050e-01 -8.65460e+00 
-8.53791e-01  3.62529e-01 -8.71620e+00 
-7.31184e-01  3.10257e-01 -8.76967e+00 
-6.08879e-01  2.58211e-01 -8.81498e+00 
-4.86804e-01  2.06344e-01 -8.85209e+00 
-3.64937e-01  1.54630e-01 -8.88099e+00 
-2.43204e-01  1.03023e-01 -8.90164e+00 
-1.21582e-01  5.14946e-02 -8.91403e+00 
-3.59976e-12  4.79847e-12 -8.91817e+00 
 1.21582e-01 -5.14946e-02 -8.91403e+00 
 2.43204e-01 -1.03023e-01 -8.90164e+00 
 3.64937e-01 -1.54630e-01 -8.88099e+00 
 4.86804e-01 -2.06344e-01 -8.85209e+00 
 6.08879e-01 -2.58211e-01 -8.81498e+00 
 7.31184e-01 -3.10257e-01 -8.76967e+00 
 8.53791e-01 -3.62529e-01 -8.71620e+00 
 9.76722e-01 -4.15050e-01 -8.65460e+00 
 1.10004e+00 -4.67867e-01 -8.58492e+00 
 1.22378e+00 -5.21001e-01 -8.50721e+00 
 1.34799e+00 -5.74497e-01 -8.42151e+00 
 1.47269e+00 -6.28375e-01 -8.32791e+00 
 1.59795e+00 -6.82676e-01 -8.22644e+00 
 1.72378e+00 -7.37416e-01 -8.11721e+00 
 1.85023e+00 -7.92635e-01 -8.00026e+00 
 1.97731e+00 -8.48344e-01 -7.87571e+00 
 2.10507e+00 -9.04579e-01 -7.74363e+00 
 2.23351e+00 -9.61348e-01 -7.60412e+00 
 2.36268e+00 -1.01868e+00 -7.45727e+00 
 2.49256e+00 -1.07658e+00 -7.30322e+00 
 2.62319e+00 -1.13506e+00 -7.14203e+00 
 2.75456e+00 -1.19413e+00 -6.97385e+00 
 2.88669e+00 -1.25379e+00 -6.79878e+00 
 3.01955e+00 -1.31404e+00 -6.61696e+00 
 3.15315e+00 -1.37489e+00 -6.42848e+00 
 3.28746e+00 -1.43630e+00 -6.23351e+00 
 3.42248e+00 -1.49828e+00 -6.03212e+00 
 3.55815e+00 -1.56080e+00 -5.82450e+00 
 3.69447e+00 -1.62383e+00 -5.61072e+00 
 3.83136e+00 -1.68735e+00 -5.39093e+00 
 3.96880e+00 -1.75131e+00 -5.16523e+00 
 4.10671e+00 -1.81567e+00 -4.93377e+00 
 4.24505e+00 -1.88040e+00 -4.69660e+00 
 4.38372e+00 -1.94541e+00 -4.45388e+00 
 4.52267e+00 -2.01066e+00 -4.20564e+00 
 4.66179e+00 -2.07608e+00 -3.95202e+00 
 4.80101e+00 -2.14160e+00 -3.69303e+00 
 4.94020e+00 -2.20714e+00 -3.42877e+00 
 5.07930e+00 -2.27262e+00 -3.15922e+00 
 5.21817e+00 -2.33794e+00 -2.88447e+00 
 5.35672e+00 -2.40304e+00 -2.60445e+00 
 5.49481e+00 -2.46780e+00 -2.31920e+00 
 5.63235e+00 -2.53215e+00 -2.02863e+00 
 5.76920e+00 -2.59597e+00 -1.73273e+00 
 5.90527e+00 -2.65919e+00 -1.43135e+00 
 6.04041e+00 -2.72170e+00 -1.12444e+00 
 6.17454e+00 -2.78342e+00 -8.11816e-01 
 6.30753e+00 -2.84426e+00 -4.93379e-01 
 6.43929e+00 -2.89670e+00 -8.12949e-02 
-6.21458e+00  2.79564e+00 -8.03401e-02 
-6.08692e+00  2.74474e+00 -4.88223e-01 
-5.95788e+00  2.68555e+00 -8.03663e-01 
-5.82753e+00  2.62537e+00 -1.11358e+00 
-5.69605e+00  2.56429e+00 -1.41809e+00 
-5.56354e+00  2.50243e+00 -1.71739e+00 
-5.43016e+00  2.43989e+00 -2.01153e+00 
-5.29602e+00  2.37679e+00 -2.30066e+00 
-5.16130e+00  2.31324e+00 -2.58479e+00 
-5.02609e+00  2.24934e+00 -2.86401e+00 
-4.89056e+00  2.18520e+00 -3.13827e+00 
-4.75482e+00  2.12093e+00 -3.40762e+00 
-4.61900e+00  2.05662e+00 -3.67196e+00 
-4.48321e+00  1.99236e+00 -3.93130e+00 
-4.34757e+00  1.92824e+00 -4.18551e+00 
-4.21217e+00  1.86434e+00 -4.43456e+00 
-4.07713e+00  1.80075e+00 -4.67831e+00 
-3.94250e+00  1.73751e+00 -4.91668e+00 
-3.80840e+00  1.67469e+00 -5.14951e+00 
-3.67486e+00  1.61235e+00 -5.37672e+00 
-3.54197e+00  1.55053e+00 -5.59814e+00 
-3.40977e+00  1.48927e+00 -5.81365e+00 
-3.27832e+00  1.42860e+00 -6.02309e+00 
-3.14763e+00  1.36854e+00 -6.22634e+00 
-3.01775e+00  1.30913e+00 -6.42323e+00 
-2.88868e+00  1.25036e+00 -6.61365e+00 
-2.76047e+00  1.19225e+00 -6.79742e+00 
-2.63309e+00  1.13480e+00 -6.97445e+00 
-2.50657e+00  1.07801e+00 -7.14455e+00 
-2.38087e+00  1.02187e+00 -7.30763e+00 
-2.25602e+00  9.66374e-01 -7.46355e+00 
-2.13197e+00  9.11500e-01 -7.61220e+00 
-2.00873e+00  8.57240e-01 -7.75344e+00 
-1.88624e+00  8.03562e-01 -7.88720e+00 
-1.76451e+00  7.50453e-01 -8.01335e+00 
-1.64348e+00  6.97877e-01 -8.13181e+00 
-1.52313e+00  6.45816e-01 -8.24247e+00 
-1.40341e+00  5.94230e-01 -8.34527e+00 
-1.28430e+00  5.43097e-01 -8.44011e+00 
-1.16573e+00  4.92373e-01 -8.52695e+00 
-1.04768e+00  4.42035e-01 -8.60569e+00 
-9.30077e-01  3.92037e-01 -8.67631e+00 
-8.12903e-01  3.42352e-01 -8.73873e+00 
-6.96082e-01  2.92934e-01 -8.79292e+00 
-5.79589e-01  2.43755e-01 -8.83884e+00 
-4.63347e-01  1.94766e-01 -8.87645e+00 
-3.47329e-01  1.45939e-01 -8.90573e+00 
-2.31459e-01  9.72251e-02 -8.92667e+00 
-1.15707e-01  4.85946e-02 -8.93923e+00 
-3.18024e-12  6.59688e-12 -8.94342e+00 
 1.15707e-01 -4.85946e-02 -8.93923e+00 
 2.31459e-01 -9.72251e-02 -8.92667e+00 
 3.47329e-01 -1.45939e-01 -8.90573e+00 
 4.63347e-01 -1.94766e-01 -8.87645e+00 
 5.79589e-01 -2.43755e-01 -8.83884e+00 
 6.96082e-01 -2.92934e-01 -8.79292e+00 
 8.12903e-01 -3.42352e-01 -8.73873e+00 
 9.30077e-01 -3.92037e-01 -8.67631e+00 
 1.04768e+00 -4.42035e-01 -8.60569e+00 
 1.16573e+00 -4.92373e-01 -8.52695e+00 
 1.28430e+00 -5.43097e-01 -8.44011e+00 
 1.40341e+00 -5.94230e-01 -8.34527e+00 
 1.52313e+00 -6.45816e-01 -8.24247e+00 
 1.64348e+00 -6.97877e-01 -8.13181e+00 
 1.76451e+00 -7.50453e-01 -8.01335e+00 
 1.88624e+00 -8.03562e-01 -7.88720e+00 
 2.00873e+00 -8.57240e-01 -7.75344e+00 
 2.13197e+00 -9.11500e-01 -7.61220e+00 
 2.25602e+00 -9.66374e-01 -7.46355e+00 
 2.38087e+00 -1.02187e+00 -7.30763e+00 
 2.50657e+00 -1.07801e+00 -7.14455e+00 
 2.63309e+00 -1.13480e+00 -6.97445e+00 
 2.76047e+00 -1.19225e+00 -6.79742e+00 
 2.88868e+00 -1.25036e+00 -6.61365e+00 
 3.01775e+00 -1.30913e+00 -6.42323e+00 
 3.14763e+00 -1.36854e+00 -6.22634e+00 
 3.27832e+00 -1.42860e+00 -6.02309e+00 
 3.40977e+00 -1.48927e+00 -5.81365e+00 
 3.54197e+00 -1.55053e+00 -5.59814e+00 
 3.67486e+00 -1.61235e+00 -5.37672e+00 
 3.80840e+00 -1.67469e+00 -5.14951e+00 
 3.94250e+00 -1.73751e+00 -4.91668e+00 
 4.07713e+00 -1.80075e+00 -4.67831e+00 
 4.21217e+00 -1.86434e+00 -4.43456e+00 
 4.34757e+00 -1.92824e+00 -4.18551e+00 
 4.48321e+00 -1.99236e+00 -3.93130e+00 
 4.61900e+00 -2.05662e+00 -3.67196e+00 
 4.75482e+00 -2.12093e+00 -3.40762e+00 
 4.89056e+00 -2.18520e+00 -3.13827e+00 
 5.02609e+00 -2.24934e+00 -2.86401e+00 
 5.16130e+00 -2.31324e+00 -2.58479e+00 
 5.29602e+00 -2.37679e+00 -2.30066e+00 
 5.43016e+00 -2.43989e+00 -2.01153e+00 
 5.56354e+00 -2.50243e+00 -1.71739e+00 
 5.69605e+00 -2.56429e+00 -1.41809e+00 
 5.82753e+00 -2.62537e+00 -1.11358e+00 
 5.95788e+00 -2.68555e+00 -8.03663e-01 
 6.08692e+00 -2.74474e+00 -4.88223e-01 
 6.21458e+00 -2.79564e+00 -8.03401e-02 
-5.99236e+00  2.69570e+00 -7.92338e-02 
-5.86862e+00  2.64625e+00 -4.82320e-01 
-5.74329e+00  2.58860e+00 -7.94360e-01 
-5.61650e+00  2.52982e+00 -1.10123e+00 
-5.48843e+00  2.47005e+00 -1.40305e+00 
-5.35922e+00  2.40940e+00 -1.70004e+00 
-5.22905e+00  2.34801e+00 -1.99225e+00 
-5.09807e+00  2.28601e+00 -2.27984e+00 
-4.96646e+00  2.22353e+00 -2.56279e+00 
-4.83436e+00  2.16070e+00 -2.84119e+00 
-4.70194e+00  2.09763e+00 -3.11499e+00 
-4.56933e+00  2.03445e+00 -3.38420e+00 
-4.43669e+00  1.97126e+00 -3.64872e+00 
-4.30413e+00  1.90817e+00 -3.90854e+00 
-4.17180e+00  1.84528e+00 -4.16350e+00 
-4.03980e+00  1.78267e+00 -4.41355e+00 
-3.90825e+00  1.72044e+00 -4.65851e+00 
-3.77722e+00  1.65863e+00 -4.89829e+00 
-3.64682e+00  1.59734e+00 -5.13271e+00 
-3.51710e+00  1.53659e+00 -5.36165e+00 
-3.38816e+00  1.47646e+00 -5.58491e+00 
-3.26002e+00  1.41697e+00 -5.80237e+00 
-3.13275e+00  1.35816e+00 -6.01383e+00 
-3.00637e+00  1.30005e+00 -6.21916e+00 
-2.88092e+00  1.24266e+00 -6.41816e+00 
-2.75640e+00  1.18599e+00 -6.61071e+00 
-2.63285e+00  1.13006e+00 -6.79660e+00 
-2.51024e+00  1.07486e+00 -6.97573e+00 
-2.38859e+00  1.02039e+00 -7.14791e+00 
-2.26788e+00  9.66637e-01 -7.31303e+00 
-2.14811e+00  9.13585e-01 -7.47091e+00 
-2.02923e+00  8.61210e-01 -7.62148e+00 
-1.91124e+00  8.09501e-01 -7.76456e+00 
-1.79410e+00  7.58421e-01 -7.90008e+00 
-1.67778e+00  7.07953e-01 -8.02789e+00 
-1.56223e+00  6.58058e-01 -8.14793e+00 
-1.44743e+00  6.08712e-01 -8.26007e+00 
-1.33332e+00  5.59872e-01 -8.36425e+00 
-1.21986e+00  5.11514e-01 -8.46036e+00 
-1.10700e+00  4.63590e-01 -8.54837e+00 
-9.94703e-01  4.16073e-01 -8.62818e+00 
-8.82894e-01  3.68916e-01 -8.69974e+00 
-7.71545e-01  3.22088e-01 -8.76301e+00 
-6.60580e-01  2.75540e-01 -8.81793e+00 
-5.49965e-01  2.29243e-01 -8.86446e+00 
-4.39624e-01  1.83146e-01 -8.90259e+00 
-3.29523e-01  1.37217e-01 -8.93226e+00 
-2.19582e-01  9.14077e-02 -8.95347e+00 
-1.09766e-01  4.56850e-02 -8.96621e+00 
-1.39632e-12  4.57585e-12 -8.97045e+00 
 1.09766e-01 -4.56850e-02 -8.96621e+00 
 2.19582e-01 -9.14077e-02 -8.95347e+00 
 3.29523e-01 -1.37217e-01 -8.93226e+00 
 4.39624e-01 -1.83146e-01 -8.90259e+00 
 5.49965e-01 -2.29243e-01 -8.86446e+00 
 6.60580e-01 -2.75540e-01 -8.81793e+00 
 7.71545e-01 -3.22088e-01 -8.76301e+00 
 8.82894e-01 -3.68916e-01 -8.69974e+00 
 9.94703e-01 -4.16073e-01 -8.62818e+00 
 1.10700e+00 -4.63590e-01 -8.54837e+00 
 1.21986e+00 -5.11514e-01 -8.46036e+00 
 1.33332e+00 -5.59872e-01 -8.36425e+00 
 1.44743e+00 -6.08712e-01 -8.26007e+00 
 1.56223e+00 -6.58058e-01 -8.14793e+00 
 1.67778e+00 -7.07953e-01 -8.02789e+00 
 1.79410e+00 -7.58421e-01 -7.90008e+00 
 1.91124e+00 -8.09501e-01 -7.76456e+00 
 2.02923e+00 -8.61210e-01 -7.62148e+00 
 2.14811e+00 -9.13585e-01 -7.47091e+00 
 2.26788e+00 -9.66637e-01 -7.31303e+00 
 2.38859e+00 -1.02039e+00 -7.14791e+00 
 2.51024e+00 -1.07486e+00 -6.97573e+00 
 2.63285e+00 -1.13006e+00 -6.79660e+00 
 2.75640e+00 -1.18599e+00 -6.61071e+00 
 2.88092e+00 -1.24266e+00 -6.41816e+00 
 3.00637e+00 -1.30005e+00 -6.21916e+00 
 3.13275e+00 -1.35816e+00 -6.01383e+00 
 3.26002e+00 -1.41697e+00 -5.80237e+00 
 3.38816e+00 -1.47646e+00 -5.58491e+00 
 3.51710e+00 -1.53659e+00 -5.36165e+00 
 3.64682e+00 -1.59734e+00 -5.13271e+00 
 3.77722e+00 -1.65863e+00 -4.89829e+00 
 3.90825e+00 -1.72044e+00 -4.65851e+00 
 4.03980e+00 -1.78267e+00 -4.41355e+00 
 4.17180e+00 -1.84528e+00 -4.16350e+00 
 4.30413e+00 -1.90817e+00 -3.90854e+00 
 4.43669e+00 -1.97126e+00 -3.64872e+00 
 4.56933e+00 -2.03445e+00 -3.38420e+00 
 4.70194e+00 -2.09763e+00 -3.11499e+00 
 4.83436e+00 -2.16070e+00 -2.84119e+00 
 4.96646e+00 -2.22353e+00 -2.56279e+00 
 5.09807e+00 -2.28601e+00 -2.27984e+00 
 5.22905e+00 -2.34801e+00 -1.99225e+00 
 5.35922e+00 -2.40940e+00 -1.70004e+00 
 5.48843e+00 -2.47005e+00 -1.40305e+00 
 5.61650e+00 -2.52982e+00 -1.10123e+00 
 5.74329e+00 -2.58860e+00 -7.94360e-01 
 5.86862e+00 -2.64625e+00 -4.82320e-01 
 5.99236e+00 -2.69570e+00 -7.92338e-02 
-5.77299e+00  2.59704e+00 -7.79542e-02 
-5.65291e+00  2.54893e+00 -4.75576e-01 
-5.53104e+00  2.49268e+00 -7.83774e-01 
-5.40752e+00  2.43516e+00 -1.08722e+00 
-5.28258e+00  2.37653e+00 -1.38606e+00 
-5.15637e+00  2.31694e+00 -1.68051e+00 
-5.02913e+00  2.25655e+00 -1.97062e+00 
-4.90101e+00  2.19549e+00 -2.25655e+00 
-4.77224e+00  2.13394e+00 -2.53828e+00 
-4.64296e+00  2.07202e+00 -2.81587e+00 
-4.51339e+00  2.00990e+00 -3.08926e+00 
-4.38367e+00  1.94768e+00 -3.35844e+00 
-4.25398e+00  1.88552e+00 -3.62328e+00 
-4.12446e+00  1.82350e+00 -3.88374e+00 
-3.99526e+00  1.76176e+00 -4.13964e+00 
-3.86649e+00  1.70038e+00 -4.39089e+00 
-3.73829e+00  1.63946e+00 -4.63729e+00 
-3.61074e+00  1.57906e+00 -4.87872e+00 
-3.48395e+00  1.51926e+00 -5.11496e+00 
-3.35798e+00  1.46012e+00 -5.34587e+00 
-3.23292e+00  1.40168e+00 -5.57122e+00 
-3.10881e+00  1.34397e+00 -5.79086e+00 
-2.98570e+00  1.28705e+00 -6.00456e+00 
-2.86362e+00  1.23091e+00 -6.21218e+00 
-2.74260e+00  1.17558e+00 -6.41349e+00 
-2.62265e+00  1.12106e+00 -6.60834e+00 
-2.50379e+00  1.06735e+00 -6.79652e+00 
-2.38599e+00  1.01445e+00 -6.97791e+00 
-2.26927e+00  9.62353e-01 -7.15229e+00 
-2.15359e+00  9.11030e-01 -7.31956e+00 
-2.03895e+00  8.60471e-01 -7.47953e+00 
-1.92531e+00  8.10644e-01 -7.63209e+00 
-1.81265e+00  7.61531e-01 -7.77708e+00 
-1.70091e+00  7.13092e-01 -7.91442e+00 
-1.59007e+00  6.65304e-01 -8.04395e+00 
-1.48008e+00  6.18124e-01 -8.16560e+00 
-1.37090e+00  5.71525e-01 -8.27925e+00 
-1.26246e+00  5.25459e-01 -8.38483e+00 
-1.15474e+00  4.79899e-01 -8.48223e+00 
-1.04765e+00  4.34793e-01 -8.57142e+00 
-9.41174e-01  3.90113e-01 -8.65229e+00 
-8.35223e-01  3.45806e-01 -8.72481e+00 
-7.29764e-01  3.01842e-01 -8.78891e+00 
-6.24717e-01  2.58169e-01 -8.84456e+00 
-5.20044e-01  2.14754e-01 -8.89170e+00 
-4.15664e-01  1.71547e-01 -8.93033e+00 
-3.11539e-01  1.28514e-01 -8.96039e+00 
-2.07587e-01  8.56035e-02 -8.98188e+00 
-1.03767e-01  4.27821e-02 -8.99478e+00 
-1.12808e-12 -1.50182e-12 -8.99908e+00 
 1.03767e-01 -4.27821e-02 -8.99478e+00 
 2.07587e-01 -8.56035e-02 -8.98188e+00 
 3.11539e-01 -1.28514e-01 -8.96039e+00 
 4.15664e-01 -1.71547e-01 -8.93033e+00 
 5.20044e-01 -2.14754e-01 -8.89170e+00 
 6.24717e-01 -2.58169e-01 -8.84456e+00 
 7.29764e-01 -3.01842e-01 -8.78891e+00 
 8.35223e-01 -3.45806e-01 -8.72481e+00 
 9.41174e-01 -3.90113e-01 -8.65229e+00 
 1.04765e+00 -4.34793e-01 -8.57142e+00 
 1.15474e+00 -4.79899e-01 -8.48223e+00 
 1.26246e+00 -5.25459e-01 -8.38483e+00 
 1.37090e+00 -5.71525e-01 -8.27925e+00 
 1.48008e+00 -6.18124e-01 -8.16560e+00 
 1.59007e+00 -6.65304e-01 -8.04395e+00 
 1.70091e+00 -7.13092e-01 -7.91442e+00 
 1.81265e+00 -7.61531e-01 -7.77708e+00 
 1.92531e+00 -8.10644e-01 -7.63209e+00 
 2.03895e+00 -8.60471e-01 -7.47953e+00 
 2.15359e+00 -9.11030e-01 -7.31956e+00 
 2.26927e+00 -9.62353e-01 -7.15229e+00 
 2.38599e+00 -1.01445e+00 -6.97791e+00 
 2.50379e+00 -1.06735e+00 -6.79652e+00 
 2.62265e+00 -1.12106e+00 -6.60834e+00 
 2.74260e+00 -1.17558e+00 -6.41349e+00 
 2.86362e+00 -1.23091e+00 -6.21218e+00 
 2.98570e+00 -1.28705e+00 -6.00456e+00 
 3.10881e+00 -1.34397e+00 -5.79086e+00 
 3.23292e+00 -1.40168e+00 -5.57122e+00 
 3.35798e+00 -1.46012e+00 -5.34587e+00 
 3.48395e+00 -1.51926e+00 -5.11496e+00 
 3.61074e+00 -1.57906e+00 -4.87872e+00 
 3.73829e+00 -1.63946e+00 -4.63729e+00 
 3.86649e+00 -1.70038e+00 -4.39089e+00 
 3.99526e+00 -1.76176e+00 -4.13964e+00 
 4.12446e+00 -1.82350e+00 -3.88374e+00 
 4.25398e+00 -1.88552e+00 -3.62328e+00 
 4.38367e+00 -1.94768e+00 -3.35844e+00 
 4.51339e+00 -2.00990e+00 -3.08926e+00 
 4.64296e+00 -2.07202e+00 -2.81587e+00 
 4.77224e+00 -2.13394e+00 -2.53828e+00 
 4.90101e+00 -2.19549e+00 -2.25655e+00 
 5.02913e+00 -2.25655e+00 -1.97062e+00 
 5.15637e+00 -2.31694e+00 -1.68051e+00 
 5.28258e+00 -2.37653e+00 -1.38606e+00 
 5.40752e+00 -2.43516e+00 -1.08722e+00 
 5.53104e+00 -2.49268e+00 -7.83774e-01 
 5.65291e+00 -2.54893e+00 -4.75576e-01 
 5.77299e+00 -2.59704e+00 -7.79542e-02 
-5.55687e+00  2.49982e+00 -7.64767e-02 
-5.44016e+00  2.45293e+00 -4.67892e-01 
-5.32142e+00  2.39792e+00 -7.71763e-01 
-5.20085e+00  2.34149e+00 -1.07139e+00 
-5.07869e+00  2.28383e+00 -1.36693e+00 
-4.95514e+00  2.22511e+00 -1.65859e+00 
-4.83048e+00  2.16553e+00 -1.94645e+00 
-4.70489e+00  2.10525e+00 -2.23063e+00 
-4.57862e+00  2.04446e+00 -2.51111e+00 
-4.45187e+00  1.98331e+00 -2.78794e+00 
-4.32486e+00  1.92198e+00 -3.06101e+00 
-4.19777e+00  1.86062e+00 -3.33029e+00 
-4.07079e+00  1.79937e+00 -3.59563e+00 
-3.94408e+00  1.73834e+00 -3.85694e+00 
-3.81782e+00  1.67768e+00 -4.11402e+00 
-3.69212e+00  1.61748e+00 -4.36673e+00 
-3.56713e+00  1.55783e+00 -4.61483e+00 
-3.44294e+00  1.49882e+00 -4.85818e+00 
-3.31968e+00  1.44052e+00 -5.09651e+00 
-3.19739e+00  1.38298e+00 -5.32965e+00 
-3.07617e+00  1.32625e+00 -5.55734e+00 
-2.95605e+00  1.27037e+00 -5.77940e+00 
-2.83710e+00  1.21537e+00 -5.99557e+00 
-2.71933e+00  1.16125e+00 -6.20569e+00 
-2.60277e+00  1.10804e+00 -6.40949e+00 
-2.48742e+00  1.05572e+00 -6.60682e+00 
-2.37329e+00  1.00431e+00 -6.79744e+00 
-2.26036e+00  9.53769e-01 -6.98121e+00 
-2.14862e+00  9.04100e-01 -7.15792e+00 
-2.03805e+00  8.55269e-01 -7.32743e+00 
-1.92862e+00  8.07260e-01 -7.48955e+00 
-1.82028e+00  7.60032e-01 -7.64416e+00 
-1.71302e+00  7.13563e-01 -7.79111e+00 
-1.60676e+00  6.67807e-01 -7.93029e+00 
-1.50148e+00  6.22736e-01 -8.06155e+00 
-1.39712e+00  5.78303e-01 -8.18482e+00 
-1.29363e+00  5.34474e-01 -8.29997e+00 
-1.19094e+00  4.91202e-01 -8.40694e+00 
-1.08901e+00  4.48451e-01 -8.50561e+00 
-9.87770e-01  4.06171e-01 -8.59595e+00 
-8.87174e-01  3.64326e-01 -8.67786e+00 
-7.87141e-01  3.22867e-01 -8.75131e+00 
-6.87629e-01  2.81756e-01 -8.81622e+00 
-5.88556e-01  2.40944e-01 -8.87257e+00 
-4.89878e-01  2.00394e-01 -8.92031e+00 
-3.91511e-01  1.60055e-01 -8.95941e+00 
-2.93412e-01  1.19893e-01 -8.98985e+00 
-1.95497e-01  7.98553e-02 -9.01161e+00 
-9.77197e-02  3.99077e-02 -9.02466e+00 
-1.49556e-12  2.17964e-13 -9.02902e+00 
 9.77197e-02 -3.99077e-02 -9.02466e+00 
 1.95497e-01 -7.98553e-02 -9.01161e+00 
 2.93412e-01 -1.19893e-01 -8.98985e+00 
 3.91511e-01 -1.60055e-01 -8.95941e+00 
 4.89878e-01 -2.00394e-01 -8.92031e+00 
 5.88556e-01 -2.40944e-01 -8.87257e+00 
 6.87629e-01 -2.81756e-01 -8.81622e+00 
 7.87141e-01 -3.22867e-01 -8.75131e+00 
 8.87174e-01 -3.64326e-01 -8.67786e+00 
 9.87770e-01 -4.06171e-01 -8.59595e+00 
 1.08901e+00 -4.48451e-01 -8.50561e+00 
 1.19094e+00 -4.91202e-01 -8.40694e+00 
 1.29363e+00 -5.34474e-01 -8.29997e+00 
 1.39712e+00 -5.78303e-01 -8.18482e+00 
 1.50148e+00 -6.22736e-01 -8.06155e+00 
 1.60676e+00 -6.67807e-01 -7.93029e+00 
 1.71302e+00 -7.13563e-01 -7.79111e+00 
 1.82028e+00 -7.60032e-01 -7.64416e+00 
 1.92862e+00 -8.07260e-01 -7.48955e+00 
 2.03805e+00 -8.55269e-01 -7.32743e+00 
 2.14862e+00 -9.04100e-01 -7.15792e+00 
 2.26036e+00 -9.53769e-01 -6.98121e+00 
 2.37329e+00 -1.00431e+00 -6.79744e+00 
 2.48742e+00 -1.05572e+00 -6.60682e+00 
 2.60277e+00 -1.10804e+00 -6.40949e+00 
 2.71933e+00 -1.16125e+00 -6.20569e+00 
 2.83710e+00 -1.21537e+00 -5.99557e+00 
 2.95605e+00 -1.27037e+00 -5.77940e+00 
 3.07617e+00 -1.32625e+00 -5.55734e+00 
 3.19739e+00 -1.38298e+00 -5.32965e+00 
 3.31968e+00 -1.44052e+00 -5.09651e+00 
 3.44294e+00 -1.49882e+00 -4.85818e+00 
 3.56713e+00 -1.55783e+00 -4.61483e+00 
 3.69212e+00 -1.61748e+00 -4.36673e+00 
 3.81782e+00 -1.67768e+00 -4.11402e+00 
 3.94408e+00 -1.73834e+00 -3.85694e+00 
 4.07079e+00 -1.79937e+00 -3.59563e+00 
 4.19777e+00 -1.86062e+00 -3.33029e+00 
 4.32486e+00 -1.92198e+00 -3.06101e+00 
 4.45187e+00 -1.98331e+00 -2.78794e+00 
 4.57862e+00 -2.04446e+00 -2.51111e+00 
 4.70489e+00 -2.10525e+00 -2.23063e+00 
 4.83048e+00 -2.16553e+00 -1.94645e+00 
 4.95514e+00 -2.22511e+00 -1.65859e+00 
 5.07869e+00 -2.28383e+00 -1.36693e+00 
 5.20085e+00 -2.34149e+00 -1.07139e+00 
 5.32142e+00 -2.39792e+00 -7.71763e-01 
 5.44016e+00 -2.45293e+00 -4.67892e-01 
 5.55687e+00 -2.49982e+00 -7.64767e-02 
-5.34444e+00  2.40426e+00 -7.47734e-02 
-5.23074e+00  2.35843e+00 -4.59160e-01 
-5.11475e+00  2.30447e+00 -7.58175e-01 
-4.99672e+00  2.24893e+00 -1.05355e+00 
-4.87694e+00  2.19203e+00 -1.34546e+00 
-4.75566e+00  2.13397e+00 -1.63411e+00 
-4.63318e+00  2.07500e+00 -1.91957e+00 
-4.50973e+00  2.01530e+00 -2.20195e+00 
-4.38561e+00  1.95509e+00 -2.48120e+00 
-4.26104e+00  1.89455e+00 -2.75733e+00 
-4.13627e+00  1.83388e+00 -3.03022e+00 
-4.01151e+00  1.77324e+00 -3.29981e+00 
-3.88699e+00  1.71280e+00 -3.56587e+00 
-3.76287e+00  1.65269e+00 -3.82830e+00 
-3.63935e+00  1.59305e+00 -4.08683e+00 
-3.51655e+00  1.53399e+00 -4.34129e+00 
-3.39464e+00  1.47561e+00 -4.59141e+00 
-3.27371e+00  1.41799e+00 -4.83697e+00 
-3.15389e+00  1.36120e+00 -5.07769e+00 
-3.03523e+00  1.30530e+00 -5.31334e+00 
-2.91782e+00  1.25034e+00 -5.54364e+00 
-2.80170e+00  1.19634e+00 -5.76837e+00 
-2.68692e+00  1.14332e+00 -5.98723e+00 
-2.57348e+00  1.09130e+00 -6.20004e+00 
-2.46143e+00  1.04028e+00 -6.40652e+00 
-2.35073e+00  9.90249e-01 -6.60647e+00 
-2.24140e+00  9.41196e-01 -6.79966e+00 
-2.13341e+00  8.93095e-01 -6.98592e+00 
-2.02674e+00  8.45929e-01 -7.16502e+00 
-1.92135e+00  7.99659e-01 -7.33682e+00 
-1.81722e+00  7.54261e-01 -7.50112e+00 
-1.71427e+00  7.09688e-01 -7.65781e+00 
-1.61249e+00  6.65910e-01 -7.80670e+00 
-1.51179e+00  6.22877e-01 -7.94771e+00 
-1.41215e+00  5.80555e-01 -8.08067e+00 
-1.31349e+00  5.38891e-01 -8.20552e+00 
-1.21576e+00  4.97848e-01 -8.32212e+00 
-1.11889e+00  4.57374e-01 -8.43042e+00 
-1.02282e+00  4.17430e-01 -8.53031e+00 
-9.27486e-01  3.77964e-01 -8.62174e+00 
-8.32827e-01  3.38938e-01 -8.70463e+00 
-7.38763e-01  3.00300e-01 -8.77894e+00 
-6.45245e-01  2.62012e-01 -8.84461e+00 
-5.52188e-01  2.24022e-01 -8.90161e+00 
-4.59545e-01  1.86294e-01 -8.94990e+00 
-3.67228e-01  1.48777e-01 -8.98945e+00 
-2.75189e-01  1.11435e-01 -9.02023e+00 
-1.83344e-01  7.42176e-02 -9.04223e+00 
-9.16416e-02  3.70889e-02 -9.05543e+00 
-1.56484e-12  1.53159e-12 -9.05983e+00 
 9.16416e-02 -3.70889e-02 -9.05543e+00 
 1.83344e-01 -7.42176e-02 -9.04223e+00 
 2.75189e-01 -1.11435e-01 -9.02023e+00 
 3.67228e-01 -1.48777e-01 -8.98945e+00 
 4.59545e-01 -1.86294e-01 -8.94990e+00 
 5.52188e-01 -2.24022e-01 -8.90161e+00 
 6.45245e-01 -2.62012e-01 -8.84461e+00 
 7.38763e-01 -3.00300e-01 -8.77894e+00 
 8.32827e-01 -3.38938e-01 -8.70463e+00 
 9.27486e-01 -3.77964e-01 -8.62174e+00 
 1.02282e+00 -4.17430e-01 -8.53031e+00 
 1.11889e+00 -4.57374e-01 -8.43042e+00 
 1.21576e+00 -4.97848e-01 -8.32212e+00 
 1.31349e+00 -5.38891e-01 -8.20552e+00 
 1.41215e+00 -5.80555e-01 -8.08067e+00 
 1.51179e+00 -6.22877e-01 -7.94771e+00 
 1.61249e+00 -6.65910e-01 -7.80670e+00 
 1.71427e+00 -7.09688e-01 -7.65781e+00 
 1.81722e+00 -7.54261e-01 -7.50112e+00 
 1.92135e+00 -7.99659e-01 -7.33682e+00 
 2.02674e+00 -8.45929e-01 -7.16502e+00 
 2.13341e+00 -8.93095e-01 -6.98592e+00 
 2.24140e+00 -9.41196e-01 -6.79966e+00 
 2.35073e+00 -9.90249e-01 -6.60647e+00 
 2.46143e+00 -1.04028e+00 -6.40652e+00 
 2.57348e+00 -1.09130e+00 -6.20004e+00 
 2.68692e+00 -1.14332e+00 -5.98723e+00 
 2.80170e+00 -1.19634e+00 -5.76837e+00 
 2.91782e+00 -1.25034e+00 -5.54364e+00 
 3.03523e+00 -1.30530e+00 -5.31334e+00 
 3.15389e+00 -1.36120e+00 -5.07769e+00 
 3.27371e+00 -1.41799e+00 -4.83697e+00 
 3.39464e+00 -1.47561e+00 -4.59141e+00 
 3.51655e+00 -1.53399e+00 -4.34129e+00 
 3.63935e+00 -1.59305e+00 -4.08683e+00 
 3.76287e+00 -1.65269e+00 -3.82830e+00 
 3.88699e+00 -1.71280e+00 -3.56587e+00 
 4.01151e+00 -1.77324e+00 -3.29981e+00 
 4.13627e+00 -1.83388e+00 -3.03022e+00 
 4.26104e+00 -1.89455e+00 -2.75733e+00 
 4.38561e+00 -1.95509e+00 -2.48120e+00 
 4.50973e+00 -2.01530e+00 -2.20195e+00 
 4.63318e+00 -2.07500e+00 -1.91957e+00 
 4.75566e+00 -2.13397e+00 -1.63411e+00 
 4.87694e+00 -2.19203e+00 -1.34546e+00 
 4.99672e+00 -2.24893e+00 -1.05355e+00 
 5.11475e+00 -2.30447e+00 -7.58175e-01 
 5.23074e+00 -2.35843e+00 -4.59160e-01 
 5.34444e+00 -2.40426e+00 -7.47734e-02 
-5.13620e+00  2.31057e+00 -7.28123e-02 
-5.02507e+00  2.26561e+00 -4.49261e-01 
-4.91138e+00  2.21247e+00 -7.42851e-01 
-4.79542e+00  2.15758e+00 -1.03353e+00 
-4.67754e+00  2.10120e+00 -1.32147e+00 
-4.55805e+00  2.04358e+00 -1.60689e+00 
-4.43729e+00  1.98499e+00 -1.88983e+00 
-4.31556e+00  1.92566e+00 -2.17039e+00 
-4.19317e+00  1.86584e+00 -2.44847e+00 
-4.07039e+00  1.80574e+00 -2.72406e+00 
-3.94752e+00  1.74558e+00 -2.99698e+00 
-3.82478e+00  1.68555e+00 -3.26711e+00 
-3.70243e+00  1.62583e+00 -3.53420e+00 
-3.58066e+00  1.56657e+00 -3.79806e+00 
-3.45968e+00  1.50792e+00 -4.05839e+00 
-3.33963e+00  1.44998e+00 -4.31496e+00 
-3.22068e+00  1.39288e+00 -4.56742e+00 
-3.10292e+00  1.33668e+00 -4.81554e+00 
-2.98649e+00  1.28146e+00 -5.05896e+00 
-2.87143e+00  1.22727e+00 -5.29744e+00 
-2.75783e+00  1.17415e+00 -5.53061e+00 
-2.64573e+00  1.12211e+00 -5.75825e+00 
-2.53516e+00  1.07119e+00 -5.98003e+00 
-2.42612e+00  1.02136e+00 -6.19571e+00 
-2.31864e+00  9.72634e-01 -6.40501e+00 
-2.21268e+00  9.24982e-01 -6.60771e+00 
-2.10825e+00  8.78389e-01 -6.80354e+00 
-2.00529e+00  8.32816e-01 -6.99234e+00 
-1.90379e+00  7.88237e-01 -7.17386e+00 
-1.80368e+00  7.44604e-01 -7.34795e+00 
-1.70493e+00  7.01884e-01 -7.51441e+00 
-1.60747e+00  6.60022e-01 -7.67312e+00 
-1.51126e+00  6.18982e-01 -7.82390e+00 
-1.41621e+00  5.78706e-01 -7.96665e+00 
-1.32229e+00  5.39155e-01 -8.10123e+00 
-1.22941e+00  5.00270e-01 -8.22756e+00 
-1.13751e+00  4.62012e-01 -8.34551e+00 
-1.04652e+00  4.24324e-01 -8.45503e+00 
-9.56368e-01  3.87165e-01 -8.55603e+00 
-8.66981e-01  3.50480e-01 -8.64844e+00 
-7.78302e-01  3.14229e-01 -8.73221e+00 
-6.90242e-01  2.78360e-01 -8.80729e+00 
-6.02749e-01  2.42835e-01 -8.87363e+00 
-5.15735e-01  2.07600e-01 -8.93120e+00 
-4.29147e-01  1.72621e-01 -8.97995e+00 
-3.42898e-01  1.37847e-01 -9.01989e+00 
-2.56934e-01  1.03242e-01 -9.05096e+00 
-1.71171e-01  6.87580e-02 -9.07317e+00 
-8.55538e-02  3.43597e-02 -9.08650e+00 
-2.23630e-13  2.31040e-12 -9.09094e+00 
 8.55538e-02 -3.43597e-02 -9.08650e+00 
 1.71171e-01 -6.87580e-02 -9.07317e+00 
 2.56934e-01 -1.03242e-01 -9.05096e+00 
 3.42898e-01 -1.37847e-01 -9.01989e+00 
 4.29147e-01 -1.72621e-01 -8.97995e+00 
 5.15735e-01 -2.07600e-01 -8.93120e+00 
 6.02749e-01 -2.42835e-01 -8.87363e+00 
 6.90242e-01 -2.78360e-01 -8.80729e+00 
 7.78302e-01 -3.14229e-01 -8.73221e+00 
 8.66981e-01 -3.50480e-01 -8.64844e+00 
 9.56368e-01 -3.87165e-01 -8.55603e+00 
 1.04652e+00 -4.24324e-01 -8.45503e+00 
 1.13751e+00 -4.62012e-01 -8.34551e+00 
 1.22941e+00 -5.00270e-01 -8.22756e+00 
 1.32229e+00 -5.39155e-01 -8.10123e+00 
 1.41621e+00 -5.78706e-01 -7.96665e+00 
 1.51126e+00 -6.18982e-01 -7.82390e+00 
 1.60747e+00 -6.60022e-01 -7.67312e+00 
 1.70493e+00 -7.01884e-01 -7.51441e+00 
 1.80368e+00 -7.44604e-01 -7.34795e+00 
 1.90379e+00 -7.88237e-01 -7.17386e+00 
 2.00529e+00 -8.32816e-01 -6.99234e+00 
 2.10825e+00 -8.78389e-01 -6.80354e+00 
 2.21268e+00 -9.24982e-01 -6.60771e+00 
 2.31864e+00 -9.72634e-01 -6.40501e+00 
 2.42612e+00 -1.02136e+00 -6.19571e+00 
 2.53516e+00 -1.07119e+00 -5.98003e+00 
 2.64573e+00 -1.12211e+00 -5.75825e+00 
 2.75783e+00 -1.17415e+00 -5.53061e+00 
 2.87143e+00 -1.22727e+00 -5.29744e+00 
 2.98649e+00 -1.28146e+00 -5.05896e+00 
 3.10292e+00 -1.33668e+00 -4.81554e+00 
 3.22068e+00 -1.39288e+00 -4.56742e+00 
 3.33963e+00 -1.44998e+00 -4.31496e+00 
 3.45968e+00 -1.50792e+00 -4.05839e+00 
 3.58066e+00 -1.56657e+00 -3.79806e+00 
 3.70243e+00 -1.62583e+00 -3.53420e+00 
 3.82478e+00 -1.68555e+00 -3.26711e+00 
 3.94752e+00 -1.74558e+00 -2.99698e+00 
 4.07039e+00 -1.80574e+00 -2.72406e+00 
 4.19317e+00 -1.86584e+00 -2.44847e+00 
 4.31556e+00 -1.92566e+00 -2.17039e+00 
 4.43729e+00 -1.98499e+00 -1.88983e+00 
 4.55805e+00 -2.04358e+00 -1.60689e+00 
 4.67754e+00 -2.10120e+00 -1.32147e+00 
 4.79542e+00 -2.15758e+00 -1.03353e+00 
 4.91138e+00 -2.21247e+00 -7.42851e-01 
 5.02507e+00 -2.26561e+00 -4.49261e-01 
 5.13620e+00 -2.31057e+00 -7.28123e-02 
-4.93268e+00  2.21898e+00 -7.05570e-02 
-4.82359e+00  2.17467e+00 -4.38070e-01 
-4.71165e+00  2.12209e+00 -7.25624e-01 
-4.59721e+00  2.06757e+00 -1.01114e+00 
-4.48068e+00  2.01144e+00 -1.29480e+00 
-4.36243e+00  1.95398e+00 -1.57679e+00 
-4.24286e+00  1.89552e+00 -1.85715e+00 
-4.12233e+00  1.83633e+00 -2.13592e+00 
-4.00121e+00  1.77670e+00 -2.41298e+00 
-3.87980e+00  1.71687e+00 -2.68824e+00 
-3.75845e+00  1.65709e+00 -2.96147e+00 
-3.63740e+00  1.59756e+00 -3.23249e+00 
-3.51695e+00  1.53849e+00 -3.50097e+00 
-3.39729e+00  1.48004e+00 -3.76666e+00 
-3.27867e+00  1.42237e+00 -4.02919e+00 
-3.16122e+00  1.36558e+00 -4.28826e+00 
-3.04512e+00  1.30980e+00 -4.54347e+00 
-2.93048e+00  1.25510e+00 -4.79451e+00 
-2.81741e+00  1.20154e+00 -5.04098e+00 
-2.70596e+00  1.14916e+00 -5.28258e+00 
-2.59621e+00  1.09800e+00 -5.51891e+00 
-2.48818e+00  1.04806e+00 -5.74969e+00 
-2.38190e+00  9.99349e-01 -5.97456e+00 
-2.27736e+00  9.51848e-01 -6.19327e+00 
-2.17456e+00  9.05544e-01 -6.40548e+00 
-2.07345e+00  8.60398e-01 -6.61098e+00 
-1.97403e+00  8.16381e-01 -6.80949e+00 
-1.87622e+00  7.73444e-01 -7.00081e+00 
-1.78000e+00  7.31548e-01 -7.18470e+00 
-1.68529e+00  6.90635e-01 -7.36102e+00 
-1.59204e+00  6.50662e-01 -7.52954e+00 
-1.50017e+00  6.11566e-01 -7.69015e+00 
-1.40963e+00  5.73302e-01 -7.84267e+00 
-1.32032e+00  5.35807e-01 -7.98702e+00 
-1.23220e+00  4.99034e-01 -8.12305e+00 
-1.14516e+00  4.62923e-01 -8.25068e+00 
-1.05916e+00  4.27427e-01 -8.36981e+00 
-9.74091e-01  3.92489e-01 -8.48039e+00 
-8.89901e-01  3.58064e-01 -8.58232e+00 
-8.06498e-01  3.24097e-01 -8.67556e+00 
-7.23823e-01  2.90547e-01 -8.76005e+00 
-6.41785e-01  2.57362e-01 -8.83575e+00 
-5.60325e-01  2.24503e-01 -8.90262e+00 
-4.79356e-01  1.91920e-01 -8.96064e+00 
-3.98820e-01  1.59578e-01 -9.00977e+00 
-3.18630e-01  1.27428e-01 -9.05000e+00 
-2.38730e-01  9.54371e-02 -9.08130e+00 
-1.59033e-01  6.35592e-02 -9.10367e+00 
-7.94841e-02  3.17616e-02 -9.11710e+00 
-8.73733e-13  4.55375e-12 -9.12157e+00 
 7.94841e-02 -3.17616e-02 -9.11710e+00 
 1.59033e-01 -6.35592e-02 -9.10367e+00 
 2.38730e-01 -9.54371e-02 -9.08130e+00 
 3.18630e-01 -1.27428e-01 -9.05000e+00 
 3.98820e-01 -1.59578e-01 -9.00977e+00 
 4.79356e-01 -1.91920e-01 -8.96064e+00 
 5.60325e-01 -2.24503e-01 -8.90262e+00 
 6.41785e-01 -2.57362e-01 -8.83575e+00 
 7.23823e-01 -2.90547e-01 -8.76005e+00 
 8.06498e-01 -3.24097e-01 -8.67556e+00 
 8.89901e-01 -3.58064e-01 -8.58232e+00 
 9.74091e-01 -3.92489e-01 -8.48039e+00 
 1.05916e+00 -4.27427e-01 -8.36981e+00 
 1.14516e+00 -4.62923e-01 -8.25068e+00 
 1.23220e+00 -4.99034e-01 -8.12305e+00 
 1.32032e+00 -5.35807e-01 -7.98702e+00 
 1.40963e+00 -5.73302e-01 -7.84267e+00 
 1.50017e+00 -6.11566e-01 -7.69015e+00 
 1.59204e+00 -6.50662e-01 -7.52954e+00 
 1.68529e+00 -6.90635e-01 -7.36102e+00 
 1.78000e+00 -7.31548e-01 -7.18470e+00 
 1.87622e+00 -7.73444e-01 -7.00081e+00 
 1.97403e+00 -8.16381e-01 -6.80949e+00 
 2.07345e+00 -8.60398e-01 -6.61098e+00 
 2.17456e+00 -9.05544e-01 -6.40548e+00 
 2.27736e+00 -9.51848e-01 -6.19327e+00 
 2.38190e+00 -9.99349e-01 -5.97456e+00 
 2.48818e+00 -1.04806e+00 -5.74969e+00 
 2.59621e+00 -1.09800e+00 -5.51891e+00 
 2.70596e+00 -1.14916e+00 -5.28258e+00 
 2.81741e+00 -1.20154e+00 -5.04098e+00 
 2.93048e+00 -1.25510e+00 -4.79451e+00 
 3.04512e+00 -1.30980e+00 -4.54347e+00 
 3.16122e+00 -1.36558e+00 -4.28826e+00 
 3.27867e+00 -1.42237e+00 -4.02919e+00 
 3.39729e+00 -1.48004e+00 -3.76666e+00 
 3.51695e+00 -1.53849e+00 -3.50097e+00 
 3.63740e+00 -1.59756e+00 -3.23249e+00 
 3.75845e+00 -1.65709e+00 -2.96147e+00 
 3.87980e+00 -1.71687e+00 -2.68824e+00 
 4.00121e+00 -1.77670e+00 -2.41298e+00 
 4.12233e+00 -1.83633e+00 -2.13592e+00 
 4.24286e+00 -1.89552e+00 -1.85715e+00 
 4.36243e+00 -1.95398e+00 -1.57679e+00 
 4.48068e+00 -2.01144e+00 -1.29480e+00 
 4.59721e+00 -2.06757e+00 -1.01114e+00 
 4.71165e+00 -2.12209e+00 -7.25624e-01 
 4.82359e+00 -2.17467e+00 -4.38070e-01 
 4.93268e+00 -2.21898e+00 -7.05570e-02 
-4.73449e+00  2.12977e+00 -6.79654e-02 
-4.62681e+00  2.08584e+00 -4.25451e-01 
-4.51595e+00  2.03349e+00 -7.06325e-01 
-4.40235e+00  1.97902e+00 -9.86214e-01 
-4.28651e+00  1.92281e+00 -1.26528e+00 
-4.16887e+00  1.86523e+00 -1.54371e+00 
-4.04989e+00  1.80662e+00 -1.82148e+00 
-3.93000e+00  1.74733e+00 -2.09859e+00 
-3.80963e+00  1.68767e+00 -2.37485e+00 
-3.68913e+00  1.62794e+00 -2.65011e+00 
-3.56888e+00  1.56840e+00 -2.92404e+00 
-3.44918e+00  1.50929e+00 -3.19638e+00 
-3.33033e+00  1.45084e+00 -3.46672e+00 
-3.21257e+00  1.39320e+00 -3.73472e+00 
-3.09613e+00  1.33654e+00 -3.99993e+00 
-2.98117e+00  1.28098e+00 -4.26197e+00 
-2.86787e+00  1.22662e+00 -4.52036e+00 
-2.75632e+00  1.17353e+00 -4.77472e+00 
-2.64663e+00  1.12178e+00 -5.02460e+00 
-2.53885e+00  1.07137e+00 -5.26962e+00 
-2.43303e+00  1.02234e+00 -5.50935e+00 
-2.32918e+00  9.74666e-01 -5.74346e+00 
-2.22732e+00  9.28345e-01 -5.97157e+00 
-2.12740e+00  8.83339e-01 -6.19338e+00 
-2.02942e+00  8.39619e-01 -6.40855e+00 
-1.93331e+00  7.97129e-01 -6.61684e+00 
-1.83905e+00  7.55827e-01 -6.81795e+00 
-1.74654e+00  7.15647e-01 -7.01170e+00 
-1.65574e+00  6.76539e-01 -7.19782e+00 
-1.56656e+00  6.38432e-01 -7.37618e+00 
-1.47893e+00  6.01272e-01 -7.54656e+00 
-1.39276e+00  5.64989e-01 -7.70886e+00 
-1.30799e+00  5.29528e-01 -7.86290e+00 
-1.22451e+00  4.94820e-01 -8.00859e+00 
-1.14226e+00  4.60813e-01 -8.14582e+00 
-1.06114e+00  4.27443e-01 -8.27451e+00 
-9.81071e-01  3.94659e-01 -8.39457e+00 
-9.01967e-01  3.62402e-01 -8.50595e+00 
-8.23758e-01  3.30626e-01 -8.60857e+00 
-7.46350e-01  2.99277e-01 -8.70240e+00 
-6.69678e-01  2.68313e-01 -8.78739e+00 
-5.93650e-01  2.37684e-01 -8.86353e+00 
-5.18204e-01  2.07353e-01 -8.93075e+00 
-4.43252e-01  1.77271e-01 -8.98906e+00 
-3.68734e-01  1.47407e-01 -9.03842e+00 
-2.94562e-01  1.17716e-01 -9.07883e+00 
-2.20679e-01  8.81680e-02 -9.11027e+00 
-1.46999e-01  5.87202e-02 -9.13274e+00 
-7.34674e-02  2.93441e-02 -9.14622e+00 
-1.61017e-12  4.92891e-12 -9.15071e+00 
 7.34674e-02 -2.93441e-02 -9.14622e+00 
 1.46999e-01 -5.87202e-02 -9.13274e+00 
 2.20679e-01 -8.81680e-02 -9.11027e+00 
 2.94562e-01 -1.17716e-01 -9.07883e+00 
 3.68734e-01 -1.47407e-01 -9.03842e+00 
 4.43252e-01 -1.77271e-01 -8.98906e+00 
 5.18204e-01 -2.07353e-01 -8.93075e+00 
 5.93650e-01 -2.37684e-01 -8.86353e+00 
 6.69678e-01 -2.68313e-01 -8.78739e+00 
 7.46350e-01 -2.99277e-01 -8.70240e+00 
 8.23758e-01 -3.30626e-01 -8.60857e+00 
 9.01967e-01 -3.62402e-01 -8.50595e+00 
 9.81071e-01 -3.94659e-01 -8.39457e+00 
 1.06114e+00 -4.27443e-01 -8.27451e+00 
 1.14226e+00 -4.60813e-01 -8.14582e+00 
 1.22451e+00 -4.94820e-01 -8.00859e+00 
 1.30799e+00 -5.29528e-01 -7.86290e+00 
 1.39276e+00 -5.64989e-01 -7.70886e+00 
 1.47893e+00 -6.01272e-01 -7.54656e+00 
 1.56656e+00 -6.38432e-01 -7.37618e+00 
 1.65574e+00 -6.76539e-01 -7.19782e+00 
 1.74654e+00 -7.15647e-01 -7.01170e+00 
 1.83905e+00 -7.55827e-01 -6.81795e+00 
 1.93331e+00 -7.97129e-01 -6.61684e+00 
 2.02942e+00 -8.39619e-01 -6.40855e+00 
 2.12740e+00 -8.83339e-01 -6.19338e+00 
 2.22732e+00 -9.28345e-01 -5.97157e+00 
 2.32918e+00 -9.74666e-01 -5.74346e+00 
 2.43303e+00 -1.02234e+00 -5.50935e+00 
 2.53885e+00 -1.07137e+00 -5.26962e+00 
 2.64663e+00 -1.12178e+00 -5.02460e+00 
 2.75632e+00 -1.17353e+00 -4.77472e+00 
 2.86787e+00 -1.22662e+00 -4.52036e+00 
 2.98117e+00 -1.28098e+00 -4.26197e+00 
 3.09613e+00 -1.33654e+00 -3.99993e+00 
 3.21257e+00 -1.39320e+00 -3.73472e+00 
 3.33033e+00 -1.45084e+00 -3.46672e+00 
 3.44918e+00 -1.50929e+00 -3.19638e+00 
 3.56888e+00 -1.56840e+00 -2.92404e+00 
 3.68913e+00 -1.62794e+00 -2.65011e+00 
 3.80963e+00 -1.68767e+00 -2.37485e+00 
 3.93000e+00 -1.74733e+00 -2.09859e+00 
 4.04989e+00 -1.80662e+00 -1.82148e+00 
 4.16887e+00 -1.86523e+00 -1.54371e+00 
 4.28651e+00 -1.92281e+00 -1.26528e+00 
 4.40235e+00 -1.97902e+00 -9.86214e-01 
 4.51595e+00 -2.03349e+00 -7.06325e-01 
 4.62681e+00 -2.08584e+00 -4.25451e-01 
 4.73449e+00 -2.12977e+00 -6.79654e-02 
-4.54230e+00  2.04322e+00 -6.49887e-02 
-4.43524e+00  1.99935e+00 -4.11262e-01 
-4.32467e+00  1.94685e+00 -6.84789e-01 
-4.21113e+00  1.89205e+00 -9.58593e-01 
-4.09519e+00  1.83541e+00 -1.23282e+00 
-3.97740e+00  1.77734e+00 -1.50762e+00 
-3.85832e+00  1.71829e+00 -1.78290e+00 
-3.73843e+00  1.65863e+00 -2.05860e+00 
-3.61823e+00  1.59875e+00 -2.33442e+00 
-3.49814e+00  1.53895e+00 -2.61011e+00 
-3.37857e+00  1.47956e+00 -2.88526e+00 
-3.25987e+00  1.42083e+00 -3.15948e+00 
-3.14236e+00  1.36299e+00 -3.43226e+00 
-3.02629e+00  1.30621e+00 -3.70316e+00 
-2.91190e+00  1.25067e+00 -3.97160e+00 
-2.79936e+00  1.19647e+00 -4.23713e+00 
-2.68884e+00  1.14370e+00 -4.49917e+00 
-2.58042e+00  1.09243e+00 -4.75727e+00 
-2.47420e+00  1.04268e+00 -5.01090e+00 
-2.37020e+00  9.94471e-01 -5.25962e+00 
-2.26845e+00  9.47792e-01 -5.50296e+00 
-2.16895e+00  9.02612e-01 -5.74054e+00 
-2.07168e+00  8.58901e-01 -5.97194e+00 
-1.97657e+00  8.16599e-01 -6.19685e+00 
-1.88361e+00  7.75657e-01 -6.41491e+00 
-1.79269e+00  7.36001e-01 -6.62586e+00 
-1.70376e+00  6.97569e-01 -6.82940e+00 
-1.61673e+00  6.60281e-01 -7.02535e+00 
-1.53151e+00  6.24069e-01 -7.21345e+00 
-1.44801e+00  5.88853e-01 -7.39356e+00 
-1.36613e+00  5.54565e-01 -7.56549e+00 
-1.28579e+00  5.21127e-01 -7.72913e+00 
-1.20688e+00  4.88475e-01 -7.88433e+00 
-1.12931e+00  4.56536e-01 -8.03102e+00 
-1.05299e+00  4.25251e-01 -8.16909e+00 
-9.77819e-01  3.94555e-01 -8.29848e+00 
-9.03720e-01  3.64394e-01 -8.41911e+00 
-8.30590e-01  3.34708e-01 -8.53095e+00 
-7.58358e-01  3.05452e-01 -8.63394e+00 
-6.86924e-01  2.76573e-01 -8.72807e+00 
-6.16223e-01  2.48031e-01 -8.81328e+00 
-5.46161e-01  2.19779e-01 -8.88958e+00 
-4.76673e-01  1.91782e-01 -8.95692e+00 
-4.07672e-01  1.63999e-01 -9.01531e+00 
-3.39097e-01  1.36399e-01 -9.06473e+00 
-2.70861e-01  1.08944e-01 -9.10518e+00 
-2.02909e-01  8.16092e-02 -9.13664e+00 
-1.35156e-01  5.43576e-02 -9.15912e+00 
-6.75462e-02  2.71656e-02 -9.17260e+00 
-2.23066e-12  3.58391e-12 -9.17710e+00 
 6.75462e-02 -2.71656e-02 -9.17260e+00 
 1.35156e-01 -5.43576e-02 -9.15912e+00 
 2.02909e-01 -8.16092e-02 -9.13664e+00 
 2.70861e-01 -1.08944e-01 -9.10518e+00 
 3.39097e-01 -1.36399e-01 -9.06473e+00 
 4.07672e-01 -1.63999e-01 -9.01531e+00 
 4.76673e-01 -1.91782e-01 -8.95692e+00 
 5.46161e-01 -2.19779e-01 -8.88958e+00 
 6.16223e-01 -2.48031e-01 -8.81328e+00 
 6.86924e-01 -2.76573e-01 -8.72807e+00 
 7.58358e-01 -3.05452e-01 -8.63394e+00 
 8.30590e-01 -3.34708e-01 -8.53095e+00 
 9.03720e-01 -3.64394e-01 -8.41911e+00 
 9.77819e-01 -3.94555e-01 -8.29848e+00 
 1.05299e+00 -4.25251e-01 -8.16909e+00 
 1.12931e+00 -4.56536e-01 -8.03102e+00 
 1.20688e+00 -4.88475e-01 -7.88433e+00 
 1.28579e+00 -5.21127e-01 -7.72913e+00 
 1.36613e+00 -5.54565e-01 -7.56549e+00 
 1.44801e+00 -5.88853e-01 -7.39356e+00 
 1.53151e+00 -6.24069e-01 -7.21345e+00 
 1.61673e+00 -6.60281e-01 -7.02535e+00 
 1.70376e+00 -6.97569e-01 -6.82940e+00 
 1.79269e+00 -7.36001e-01 -6.62586e+00 
 1.88361e+00 -7.75657e-01 -6.41491e+00 
 1.97657e+00 -8.16599e-01 -6.19685e+00 
 2.07168e+00 -8.58901e-01 -5.97194e+00 
 2.16895e+00 -9.02612e-01 -5.74054e+00 
 2.26845e+00 -9.47792e-01 -5.50296e+00 
 2.37020e+00 -9.94471e-01 -5.25962e+00 
 2.47420e+00 -1.04268e+00 -5.01090e+00 
 2.58042e+00 -1.09243e+00 -4.75727e+00 
 2.68884e+00 -1.14370e+00 -4.49917e+00 
 2.79936e+00 -1.19647e+00 -4.23713e+00 
 2.91190e+00 -1.25067e+00 -3.97160e+00 
 3.02629e+00 -1.30621e+00 -3.70316e+00 
 3.14236e+00 -1.36299e+00 -3.43226e+00 
 3.25987e+00 -1.42083e+00 -3.15948e+00 
 3.37857e+00 -1.47956e+00 -2.88526e+00 
 3.49814e+00 -1.53895e+00 -2.61011e+00 
 3.61823e+00 -1.59875e+00 -2.33442e+00 
 3.73843e+00 -1.65863e+00 -2.05860e+00 
 3.85832e+00 -1.71829e+00 -1.78290e+00 
 3.97740e+00 -1.77734e+00 -1.50762e+00 
 4.09519e+00 -1.83541e+00 -1.23282e+00 
 4.21113e+00 -1.89205e+00 -9.58593e-01 
 4.32467e+00 -1.94685e+00 -6.84789e-01 
 4.43524e+00 -1.99935e+00 -4.11262e-01 
 4.54230e+00 -2.04322e+00 -6.49887e-02 
-4.35681e+00  1.95965e+00 -6.15698e-02 
-4.24943e+00  1.91545e+00 -3.95355e-01 
-4.13819e+00  1.86235e+00 -6.60855e-01 
-4.02375e+00  1.80677e+00 -9.28159e-01 
-3.90681e+00  1.74926e+00 -1.19738e+00 
-3.78802e+00  1.69035e+00 -1.46859e+00 
-3.66803e+00  1.63052e+00 -1.74163e+00 
-3.54742e+00  1.57023e+00 -2.01630e+00 
-3.42677e+00  1.50992e+00 -2.29221e+00 
-3.30655e+00  1.44994e+00 -2.56897e+00 
-3.18723e+00  1.39064e+00 -2.84602e+00 
-3.06918e+00  1.33229e+00 -3.12284e+00 
-2.95276e+00  1.27514e+00 -3.39877e+00 
-2.83823e+00  1.21936e+00 -3.67324e+00 
-2.72583e+00  1.16511e+00 -3.94556e+00 
-2.61571e+00  1.11249e+00 -4.21515e+00 
-2.50804e+00  1.06158e+00 -4.48134e+00 
-2.40286e+00  1.01239e+00 -4.74359e+00 
-2.30027e+00  9.64949e-01 -5.00128e+00 
-2.20024e+00  9.19230e-01 -5.25393e+00 
-2.10279e+00  8.75202e-01 -5.50100e+00 
-2.00787e+00  8.32803e-01 -5.74208e+00 
-1.91543e+00  7.91974e-01 -5.97672e+00 
-1.82539e+00  7.52630e-01 -6.20460e+00 
-1.73768e+00  7.14695e-01 -6.42534e+00 
-1.65218e+00  6.78074e-01 -6.63868e+00 
-1.56881e+00  6.42683e-01 -6.84432e+00 
-1.48744e+00  6.08425e-01 -7.04210e+00 
-1.40799e+00  5.75217e-01 -7.23176e+00 
-1.33032e+00  5.42963e-01 -7.41318e+00 
-1.25434e+00  5.11587e-01 -7.58619e+00 
-1.17992e+00  4.81001e-01 -7.75069e+00 
-1.10697e+00  4.51134e-01 -7.90657e+00 
-1.03537e+00  4.21908e-01 -8.05376e+00 
-9.65023e-01  3.93261e-01 -8.19218e+00 
-8.95826e-01  3.65126e-01 -8.32179e+00 
-8.27691e-01  3.37449e-01 -8.44253e+00 
-7.60513e-01  3.10172e-01 -8.55440e+00 
-6.94215e-01  2.83250e-01 -8.65735e+00 
-6.28699e-01  2.56636e-01 -8.75137e+00 
-5.63894e-01  2.30291e-01 -8.83644e+00 
-4.99708e-01  2.04175e-01 -8.91258e+00 
-4.36077e-01  1.78257e-01 -8.97974e+00 
-3.72914e-01  1.52503e-01 -9.03796e+00 
-3.10160e-01  1.26888e-01 -9.08722e+00 
-2.47731e-01  1.01381e-01 -9.12752e+00 
-1.85572e-01  7.59632e-02 -9.15886e+00 
-1.23603e-01  5.06064e-02 -9.18124e+00 
-6.17715e-02  2.52938e-02 -9.19467e+00 
-2.46516e-13  2.68510e-12 -9.19915e+00 
 6.17715e-02 -2.52938e-02 -9.19467e+00 
 1.23603e-01 -5.06064e-02 -9.18124e+00 
 1.85572e-01 -7.59632e-02 -9.15886e+00 
 2.47731e-01 -1.01381e-01 -9.12752e+00 
 3.10160e-01 -1.26888e-01 -9.08722e+00 
 3.72914e-01 -1.52503e-01 -9.03796e+00 
 4.36077e-01 -1.78257e-01 -8.97974e+00 
 4.99708e-01 -2.04175e-01 -8.91258e+00 
 5.63894e-01 -2.30291e-01 -8.83644e+00 
 6.28699e-01 -2.56636e-01 -8.75137e+00 
 6.94215e-01 -2.83250e-01 -8.65735e+00 
 7.60513e-01 -3.10172e-01 -8.55440e+00 
 8.27691e-01 -3.37449e-01 -8.44253e+00 
 8.95826e-01 -3.65126e-01 -8.32179e+00 
 9.65023e-01 -3.93261e-01 -8.19218e+00 
 1.03537e+00 -4.21908e-01 -8.05376e+00 
 1.10697e+00 -4.51134e-01 -7.90657e+00 
 1.17992e+00 -4.81001e-01 -7.75069e+00 
 1.25434e+00 -5.11587e-01 -7.58619e+00 
 1.33032e+00 -5.42963e-01 -7.41318e+00 
 1.40799e+00 -5.75217e-01 -7.23176e+00 
 1.48744e+00 -6.08425e-01 -7.04210e+00 
 1.56881e+00 -6.42683e-01 -6.84432e+00 
 1.65218e+00 -6.78074e-01 -6.63868e+00 
 1.73768e+00 -7.14695e-01 -6.42534e+00 
 1.82539e+00 -7.52630e-01 -6.20460e+00 
 1.91543e+00 -7.91974e-01 -5.97672e+00 
 2.00787e+00 -8.32803e-01 -5.74208e+00 
 2.10279e+00 -8.75202e-01 -5.50100e+00 
 2.20024e+00 -9.19230e-01 -5.25393e+00 
 2.30027e+00 -9.64949e-01 -5.00128e+00 
 2.40286e+00 -1.01239e+00 -4.74359e+00 
 2.50804e+00 -1.06158e+00 -4.48134e+00 
 2.61571e+00 -1.11249e+00 -4.21515e+00 
 2.72583e+00 -1.16511e+00 -3.94556e+00 
 2.83823e+00 -1.21936e+00 -3.67324e+00 
 2.95276e+00 -1.27514e+00 -3.39877e+00 
 3.06918e+00 -1.33229e+00 -3.12284e+00 
 3.18723e+00 -1.39064e+00 -2.84602e+00 
 3.30655e+00 -1.44994e+00 -2.56897e+00 
 3.42677e+00 -1.50992e+00 -2.29221e+00 
 3.54742e+00 -1.57023e+00 -2.01630e+00 
 3.66803e+00 -1.63052e+00 -1.74163e+00 
 3.78802e+00 -1.69035e+00 -1.46859e+00 
 3.90681e+00 -1.74926e+00 -1.19738e+00 
 4.02375e+00 -1.80677e+00 -9.28159e-01 
 4.13819e+00 -1.86235e+00 -6.60855e-01 
 4.24943e+00 -1.91545e+00 -3.95355e-01 
 4.35681e+00 -1.95965e+00 -6.15698e-02 
-4.17882e+00  1.87940e+00 -5.76406e-02 
-4.06996e+00  1.83439e+00 -3.77575e-01 
-3.95689e+00  1.78014e+00 -6.34385e-01 
-3.84042e+00  1.72326e+00 -8.94848e-01 
-3.72139e+00  1.66442e+00 -1.15901e+00 
-3.60058e+00  1.60422e+00 -1.42686e+00 
-3.47878e+00  1.54328e+00 -1.69808e+00 
-3.35665e+00  1.48210e+00 -1.97236e+00 
-3.23487e+00  1.42119e+00 -2.24911e+00 
-3.11397e+00  1.36095e+00 -2.52778e+00 
-2.99448e+00  1.30175e+00 -2.80761e+00 
-2.87679e+00  1.24388e+00 -3.08791e+00 
-2.76127e+00  1.18759e+00 -3.36785e+00 
-2.64820e+00  1.13305e+00 -3.64670e+00 
-2.53780e+00  1.08040e+00 -3.92361e+00 
-2.43020e+00  1.02970e+00 -4.19788e+00 
-2.32554e+00  9.80995e-01 -4.46871e+00 
-2.22384e+00  9.34284e-01 -4.73547e+00 
-2.12514e+00  8.89543e-01 -4.99747e+00 
-2.02939e+00  8.46705e-01 -5.25417e+00 
-1.93655e+00  8.05704e-01 -5.50496e+00 
-1.84652e+00  7.66441e-01 -5.74944e+00 
-1.75924e+00  7.28822e-01 -5.98710e+00 
-1.67457e+00  6.92730e-01 -6.21763e+00 
-1.59240e+00  6.58060e-01 -6.44065e+00 
-1.51259e+00  6.24692e-01 -6.65592e+00 
-1.43503e+00  5.92519e-01 -6.86314e+00 
-1.35955e+00  5.61425e-01 -7.06217e+00 
-1.28605e+00  5.31311e-01 -7.25279e+00 
-1.21438e+00  5.02070e-01 -7.43489e+00 
-1.14442e+00  4.73613e-01 -7.60833e+00 
-1.07603e+00  4.45846e-01 -7.77305e+00 
-1.00910e+00  4.18693e-01 -7.92894e+00 
-9.43506e-01  3.92074e-01 -8.07600e+00 
-8.79147e-01  3.65924e-01 -8.21414e+00 
-8.15906e-01  3.40177e-01 -8.34337e+00 
-7.53693e-01  3.14782e-01 -8.46365e+00 
-6.92400e-01  2.89685e-01 -8.57499e+00 
-6.31949e-01  2.64844e-01 -8.67737e+00 
-5.72241e-01  2.40217e-01 -8.77081e+00 
-5.13207e-01  2.15774e-01 -8.85530e+00 
-4.54755e-01  1.91479e-01 -8.93087e+00 
-3.96824e-01  1.67311e-01 -8.99751e+00 
-3.39331e-01  1.43242e-01 -9.05524e+00 
-2.82217e-01  1.19256e-01 -9.10406e+00 
-2.25406e-01  9.53328e-02 -9.14399e+00 
-1.68846e-01  7.14602e-02 -9.17504e+00 
-1.12461e-01  4.76204e-02 -9.19722e+00 
-5.62025e-02  2.38055e-02 -9.21052e+00 
-5.59292e-13  6.34007e-13 -9.21495e+00 
 5.62025e-02 -2.38055e-02 -9.21052e+00 
 1.12461e-01 -4.76204e-02 -9.19722e+00 
 1.68846e-01 -7.14602e-02 -9.17504e+00 
 2.25406e-01 -9.53328e-02 -9.14399e+00 
 2.82217e-01 -1.19256e-01 -9.10406e+00 
 3.39331e-01 -1.43242e-01 -9.05524e+00 
 3.96824e-01 -1.67311e-01 -8.99751e+00 
 4.54755e-01 -1.91479e-01 -8.93087e+00 
 5.13207e-01 -2.15774e-01 -8.85530e+00 
 5.72241e-01 -2.40217e-01 -8.77081e+00 
 6.31949e-01 -2.64844e-01 -8.67737e+00 
 6.92400e-01 -2.89685e-01 -8.57499e+00 
 7.53693e-01 -3.14782e-01 -8.46365e+00 
 8.15906e-01 -3.40177e-01 -8.34337e+00 
 8.79147e-01 -3.65924e-01 -8.21414e+00 
 9.43506e-01 -3.92074e-01 -8.07600e+00 
 1.00910e+00 -4.18693e-01 -7.92894e+00 
 1.07603e+00 -4.45846e-01 -7.77305e+00 
 1.14442e+00 -4.73613e-01 -7.60833e+00 
 1.21438e+00 -5.02070e-01 -7.43489e+00 
 1.28605e+00 -5.31311e-01 -7.25279e+00 
 1.35955e+00 -5.61425e-01 -7.06217e+00 
 1.43503e+00 -5.92519e-01 -6.86314e+00 
 1.51259e+00 -6.24692e-01 -6.65592e+00 
 1.59240e+00 -6.58060e-01 -6.44065e+00 
 1.67457e+00 -6.92730e-01 -6.21763e+00 
 1.75924e+00 -7.28822e-01 -5.98710e+00 
 1.84652e+00 -7.66441e-01 -5.74944e+00 
 1.93655e+00 -8.05704e-01 -5.50496e+00 
 2.02939e+00 -8.46705e-01 -5.25417e+00 
 2.12514e+00 -8.89543e-01 -4.99747e+00 
 2.22384e+00 -9.34284e-01 -4.73547e+00 
 2.32554e+00 -9.80995e-01 -4.46871e+00 
 2.43020e+00 -1.02970e+00 -4.19788e+00 
 2.53780e+00 -1.08040e+00 -3.92361e+00 
 2.64820e+00 -1.13305e+00 -3.64670e+00 
 2.76127e+00 -1.18759e+00 -3.36785e+00 
 2.87679e+00 -1.24388e+00 -3.08791e+00 
 2.99448e+00 -1.30175e+00 -2.80761e+00 
 3.11397e+00 -1.36095e+00 -2.52778e+00 
 3.23487e+00 -1.42119e+00 -2.24911e+00 
 3.35665e+00 -1.48210e+00 -1.97236e+00 
 3.47878e+00 -1.54328e+00 -1.69808e+00 
 3.60058e+00 -1.60422e+00 -1.42686e+00 
 3.72139e+00 -1.66442e+00 -1.15901e+00 
 3.84042e+00 -1.72326e+00 -8.94848e-01 
 3.95689e+00 -1.78014e+00 -6.34385e-01 
 4.06996e+00 -1.83439e+00 -3.77575e-01 
 4.17882e+00 -1.87940e+00 -5.76406e-02 
-4.00916e+00  1.80283e+00 -5.31186e-02 
-3.89740e+00  1.75642e+00 -3.57769e-01 
-3.78110e+00  1.70038e+00 -6.05276e-01 
-3.66123e+00  1.64158e+00 -8.58683e-01 
-3.53883e+00  1.58085e+00 -1.11794e+00 
-3.41484e+00  1.51893e+00 -1.38288e+00 
-3.29020e+00  1.45651e+00 -1.65302e+00 
-3.16568e+00  1.39421e+00 -1.92780e+00 
-3.04205e+00  1.33258e+00 -2.20644e+00 
-2.91993e+00  1.27208e+00 -2.48813e+00 
-2.79988e+00  1.21311e+00 -2.77188e+00 
-2.68231e+00  1.15595e+00 -3.05677e+00 
-2.56762e+00  1.10084e+00 -3.34174e+00 
-2.45604e+00  1.04792e+00 -3.62587e+00 
-2.34779e+00  9.97305e-01 -3.90814e+00 
-2.24296e+00  9.49009e-01 -4.18770e+00 
-2.14163e+00  9.03032e-01 -4.46362e+00 
-2.04376e+00  8.59314e-01 -4.73518e+00 
-1.94935e+00  8.17780e-01 -5.00160e+00 
-1.85828e+00  7.78316e-01 -5.26228e+00 
-1.77047e+00  7.40803e-01 -5.51661e+00 
-1.68577e+00  7.05099e-01 -5.76414e+00 
-1.60404e+00  6.71068e-01 -6.00438e+00 
-1.52511e+00  6.38558e-01 -6.23700e+00 
-1.44883e+00  6.07429e-01 -6.46166e+00 
-1.37503e+00  5.77536e-01 -6.67814e+00 
-1.30354e+00  5.48747e-01 -6.88617e+00 
-1.23419e+00  5.20930e-01 -7.08565e+00 
-1.16683e+00  4.93968e-01 -7.27638e+00 
-1.10131e+00  4.67746e-01 -7.45831e+00 
-1.03747e+00  4.42165e-01 -7.63133e+00 
-9.75179e-01  4.17127e-01 -7.79541e+00 
-9.14307e-01  3.92554e-01 -7.95050e+00 
-8.54718e-01  3.68365e-01 -8.09660e+00 
-7.96308e-01  3.44499e-01 -8.23368e+00 
-7.38954e-01  3.20892e-01 -8.36178e+00 
-6.82566e-01  2.97498e-01 -8.48088e+00 
-6.27036e-01  2.74270e-01 -8.59103e+00 
-5.72284e-01  2.51174e-01 -8.69222e+00 
-5.18216e-01  2.28175e-01 -8.78450e+00 
-4.64762e-01  2.05251e-01 -8.86789e+00 
-4.11838e-01  1.82378e-01 -8.94242e+00 
-3.59385e-01  1.59544e-01 -9.00810e+00 
-3.07326e-01  1.36731e-01 -9.06498e+00 
-2.55607e-01  1.13934e-01 -9.11305e+00 
-2.04159e-01  9.11433e-02 -9.15237e+00 
-1.52933e-01  6.83578e-02 -9.18292e+00 
-1.01864e-01  4.55711e-02 -9.20474e+00 
-5.09073e-02  2.27865e-02 -9.21783e+00 
-1.45297e-14 -2.86737e-12 -9.22219e+00 
 5.09073e-02 -2.27865e-02 -9.21783e+00 
 1.01864e-01 -4.55711e-02 -9.20474e+00 
 1.52933e-01 -6.83578e-02 -9.18292e+00 
 2.04159e-01 -9.11433e-02 -9.15237e+00 
 2.55607e-01 -1.13934e-01 -9.11305e+00 
 3.07326e-01 -1.36731e-01 -9.06498e+00 
 3.59385e-01 -1.59544e-01 -9.00810e+00 
 4.11838e-01 -1.82378e-01 -8.94242e+00 
 4.64762e-01 -2.05251e-01 -8.86789e+00 
 5.18216e-01 -2.28175e-01 -8.78450e+00 
 5.72284e-01 -2.51174e-01 -8.69222e+00 
 6.27036e-01 -2.74270e-01 -8.59103e+00 
 6.82566e-01 -2.97498e-01 -8.48088e+00 
 7.38954e-01 -3.20892e-01 -8.36178e+00 
 7.96308e-01 -3.44499e-01 -8.23368e+00 
 8.54718e-01 -3.68365e-01 -8.09660e+00 
 9.14307e-01 -3.92554e-01 -7.95050e+00 
 9.75179e-01 -4.17127e-01 -7.79541e+00 
 1.03747e+00 -4.42165e-01 -7.63133e+00 
 1.10131e+00 -4.67746e-01 -7.45831e+00 
 1.16683e+00 -4.93968e-01 -7.27638e+00 
 1.23419e+00 -5.20930e-01 -7.08565e+00 
 1.30354e+00 -5.48747e-01 -6.88617e+00 
 1.37503e+00 -5.77536e-01 -6.67814e+00 
 1.44883e+00 -6.07429e-01 -6.46166e+00 
 1.52511e+00 -6.38558e-01 -6.23700e+00 
 1.60404e+00 -6.71068e-01 -6.00438e+00 
 1.68577e+00 -7.05099e-01 -5.76414e+00 
 1.77047e+00 -7.40803e-01 -5.51661e+00 
 1.85828e+00 -7.78316e-01 -5.26228e+00 
 1.94935e+00 -8.17780e-01 -5.00160e+00 
 2.04376e+00 -8.59314e-01 -4.73518e+00 
 2.14163e+00 -9.03032e-01 -4.46362e+00 
 2.24296e+00 -9.49009e-01 -4.18770e+00 
 2.34779e+00 -9.97305e-01 -3.90814e+00 
 2.45604e+00 -1.04792e+00 -3.62587e+00 
 2.56762e+00 -1.10084e+00 -3.34174e+00 
 2.68231e+00 -1.15595e+00 -3.05677e+00 
 2.79988e+00 -1.21311e+00 -2.77188e+00 
 2.91993e+00 -1.27208e+00 -2.48813e+00 
 3.04205e+00 -1.33258e+00 -2.20644e+00 
 3.16568e+00 -1.39421e+00 -1.92780e+00 
 3.29020e+00 -1.45651e+00 -1.65302e+00 
 3.41484e+00 -1.51893e+00 -1.38288e+00 
 3.53883e+00 -1.58085e+00 -1.11794e+00 
 3.66123e+00 -1.64158e+00 -8.58683e-01 
 3.78110e+00 -1.70038e+00 -6.05276e-01 
 3.89740e+00 -1.75642e+00 -3.57769e-01 
 4.00916e+00 -1.80283e+00 -5.31186e-02 
-3.84873e+00  1.73033e+00 -4.79018e-02 
-3.73232e+00  1.68181e+00 -3.35788e-01 
-3.61106e+00  1.62318e+00 -5.73481e-01 
-3.48615e+00  1.56175e+00 -8.19827e-01 
-3.35887e+00  1.49851e+00 -1.07462e+00 
-3.23036e+00  1.43436e+00 -1.33746e+00 
-3.10172e+00  1.37013e+00 -1.60761e+00 
-2.97387e+00  1.30652e+00 -1.88422e+00 
-2.84768e+00  1.24417e+00 -2.16618e+00 
-2.72383e+00  1.18355e+00 -2.45235e+00 
-2.60292e+00  1.12508e+00 -2.74145e+00 
-2.48538e+00  1.06903e+00 -3.03226e+00 
-2.37158e+00  1.01561e+00 -3.32344e+00 
-2.26172e+00  9.64913e-01 -3.61385e+00 
-2.15595e+00  9.16976e-01 -3.90226e+00 
-2.05431e+00  8.71758e-01 -4.18765e+00 
-1.95679e+00  8.29188e-01 -4.46899e+00 
-1.86330e+00  7.89133e-01 -4.74544e+00 
-1.77373e+00  7.51448e-01 -5.01616e+00 
-1.68791e+00  7.15956e-01 -5.28053e+00 
-1.60567e+00  6.82477e-01 -5.53790e+00 
-1.52680e+00  6.50817e-01 -5.78784e+00 
-1.45111e+00  6.20792e-01 -6.02988e+00 
-1.37836e+00  5.92209e-01 -6.26372e+00 
-1.30836e+00  5.64897e-01 -6.48906e+00 
-1.24089e+00  5.38681e-01 -6.70572e+00 
-1.17576e+00  5.13410e-01 -6.91350e+00 
-1.11276e+00  4.88933e-01 -7.11233e+00 
-1.05173e+00  4.65124e-01 -7.30207e+00 
-9.92467e-01  4.41859e-01 -7.48273e+00 
-9.34833e-01  4.19035e-01 -7.65423e+00 
-8.78661e-01  3.96554e-01 -7.81662e+00 
-8.23824e-01  3.74340e-01 -7.96986e+00 
-7.70179e-01  3.52315e-01 -8.11401e+00 
-7.17617e-01  3.30425e-01 -8.24909e+00 
-6.66017e-01  3.08614e-01 -8.37516e+00 
-6.15288e-01  2.86844e-01 -8.49223e+00 
-5.65325e-01  2.65077e-01 -8.60040e+00 
-5.16052e-01  2.43291e-01 -8.69967e+00 
-4.67379e-01  2.21463e-01 -8.79012e+00 
-4.19242e-01  1.99581e-01 -8.87179e+00 
-3.71564e-01  1.77633e-01 -8.94474e+00 
-3.24291e-01  1.55621e-01 -9.00898e+00 
-2.77354e-01  1.33538e-01 -9.06459e+00 
-2.30708e-01  1.11394e-01 -9.11157e+00 
-1.84291e-01  8.91894e-02 -9.14997e+00 
-1.38062e-01  6.69382e-02 -9.17981e+00 
-9.19646e-02  4.46466e-02 -9.20111e+00 
-4.59616e-02  2.23308e-02 -9.21389e+00 
 4.63767e-13 -2.28141e-12 -9.21815e+00 
 4.59616e-02 -2.23308e-02 -9.21389e+00 
 9.19646e-02 -4.46466e-02 -9.20111e+00 
 1.38062e-01 -6.69382e-02 -9.17981e+00 
 1.84291e-01 -8.91894e-02 -9.14997e+00 
 2.30708e-01 -1.11394e-01 -9.11157e+00 
 2.77354e-01 -1.33538e-01 -9.06459e+00 
 3.24291e-01 -1.55621e-01 -9.00898e+00 
 3.71564e-01 -1.77633e-01 -8.94474e+00 
 4.19242e-01 -1.99581e-01 -8.87179e+00 
 4.67379e-01 -2.21463e-01 -8.79012e+00 
 5.16052e-01 -2.43291e-01 -8.69967e+00 
 5.65325e-01 -2.65077e-01 -8.60040e+00 
 6.15288e-01 -2.86844e-01 -8.49223e+00 
 6.66017e-01 -3.08614e-01 -8.37516e+00 
 7.17617e-01 -3.30425e-01 -8.24909e+00 
 7.70179e-01 -3.52315e-01 -8.11401e+00 
 8.23824e-01 -3.74340e-01 -7.96986e+00 
 8.78661e-01 -3.96554e-01 -7.81662e+00 
 9.34833e-01 -4.19035e-01 -7.65423e+00 
 9.92467e-01 -4.41859e-01 -7.48273e+00 
 1.05173e+00 -4.65124e-01 -7.30207e+00 
 1.11276e+00 -4.88933e-01 -7.11233e+00 
 1.17576e+00 -5.13410e-01 -6.91350e+00 
 1.24089e+00 -5.38681e-01 -6.70572e+00 
 1.30836e+00 -5.64897e-01 -6.48906e+00 
 1.37836e+00 -5.92209e-01 -6.26372e+00 
 1.45111e+00 -6.20792e-01 -6.02988e+00 
 1.52680e+00 -6.50817e-01 -5.78784e+00 
 1.60567e+00 -6.82477e-01 -5.53790e+00 
 1.68791e+00 -7.15956e-01 -5.28053e+00 
 1.77373e+00 -7.51448e-01 -5.01616e+00 
 1.86330e+00 -7.89133e-01 -4.74544e+00 
 1.95679e+00 -8.29188e-01 -4.46899e+00 
 2.05431e+00 -8.71758e-01 -4.18765e+00 
 2.15595e+00 -9.16976e-01 -3.90226e+00 
 2.26172e+00 -9.64913e-01 -3.61385e+00 
 2.37158e+00 -1.01561e+00 -3.32344e+00 
 2.48538e+00 -1.06903e+00 -3.03226e+00 
 2.60292e+00 -1.12508e+00 -2.74145e+00 
 2.72383e+00 -1.18355e+00 -2.45235e+00 
 2.84768e+00 -1.24417e+00 -2.16618e+00 
 2.97387e+00 -1.30652e+00 -1.88422e+00 
 3.10172e+00 -1.37013e+00 -1.60761e+00 
 3.23036e+00 -1.43436e+00 -1.33746e+00 
 3.35887e+00 -1.49851e+00 -1.07462e+00 
 3.48615e+00 -1.56175e+00 -8.19827e-01 
 3.61106e+00 -1.62318e+00 -5.73481e-01 
 3.73232e+00 -1.68181e+00 -3.35788e-01 
 3.84873e+00 -1.73033e+00 -4.79018e-02 
-3.69848e+00  1.66228e+00 -4.18600e-02 
-3.57524e+00  1.61078e+00 -3.11494e-01 
-3.44690e+00  1.54860e+00 -5.39055e-01 
-3.31498e+00  1.48368e+00 -7.78661e-01 
-3.18103e+00  1.41724e+00 -1.02986e+00 
-3.04644e+00  1.35037e+00 -1.29192e+00 
-2.91252e+00  1.28403e+00 -1.56372e+00 
-2.78036e+00  1.21905e+00 -1.84400e+00 
-2.65092e+00  1.15611e+00 -2.13119e+00 
-2.52495e+00  1.09573e+00 -2.42375e+00 
-2.40306e+00  1.03829e+00 -2.71997e+00 
-2.28565e+00  9.84021e-01 -3.01825e+00 
-2.17305e+00  9.33067e-01 -3.31696e+00 
-2.06537e+00  8.85435e-01 -3.61467e+00 
-1.96268e+00  8.41071e-01 -3.90992e+00 
-1.86490e+00  7.99835e-01 -4.20154e+00 
-1.77192e+00  7.61552e-01 -4.48836e+00 
-1.68355e+00  7.25999e-01 -4.76949e+00 
-1.59957e+00  6.92942e-01 -5.04404e+00 
-1.51971e+00  6.62124e-01 -5.31139e+00 
-1.44372e+00  6.33296e-01 -5.57091e+00 
-1.37130e+00  6.06203e-01 -5.82220e+00 
-1.30219e+00  5.80612e-01 -6.06486e+00 
-1.23611e+00  5.56291e-01 -6.29864e+00 
-1.17280e+00  5.33035e-01 -6.52330e+00 
-1.11200e+00  5.10647e-01 -6.73875e+00 
-1.05349e+00  4.88956e-01 -6.94486e+00 
-9.97035e-01  4.67803e-01 -7.14161e+00 
-9.42444e-01  4.47054e-01 -7.32896e+00 
-8.89516e-01  4.26584e-01 -7.50696e+00 
-8.38087e-01  4.06292e-01 -7.67560e+00 
-7.87991e-01  3.86086e-01 -7.83499e+00 
-7.39091e-01  3.65895e-01 -7.98514e+00 
-6.91249e-01  3.45654e-01 -8.12617e+00 
-6.44353e-01  3.25317e-01 -8.25813e+00 
-5.98288e-01  3.04841e-01 -8.38112e+00 
-5.52965e-01  2.84202e-01 -8.49519e+00 
-5.08287e-01  2.63375e-01 -8.60046e+00 
-4.64184e-01  2.42352e-01 -8.69699e+00 
-4.20576e-01  2.21124e-01 -8.78486e+00 
-3.77405e-01  1.99695e-01 -8.86413e+00 
-3.34604e-01  1.78068e-01 -8.93487e+00 
-2.92128e-01  1.56258e-01 -8.99715e+00 
-2.49918e-01  1.34275e-01 -9.05102e+00 
-2.07937e-01  1.12142e-01 -9.09651e+00 
-1.66135e-01  8.98757e-02 -9.13368e+00 
-1.24481e-01  6.75041e-02 -9.16256e+00 
-8.29275e-02  4.50482e-02 -9.18316e+00 
-4.14481e-02  2.25389e-02 -9.19552e+00 
 1.68900e-12 -3.28757e-12 -9.19964e+00 
 4.14481e-02 -2.25389e-02 -9.19552e+00 
 8.29275e-02 -4.50482e-02 -9.18316e+00 
 1.24481e-01 -6.75041e-02 -9.16256e+00 
 1.66135e-01 -8.98757e-02 -9.13368e+00 
 2.07937e-01 -1.12142e-01 -9.09651e+00 
 2.49918e-01 -1.34275e-01 -9.05102e+00 
 2.92128e-01 -1.56258e-01 -8.99715e+00 
 3.34604e-01 -1.78068e-01 -8.93487e+00 
 3.77405e-01 -1.99695e-01 -8.86413e+00 
 4.20576e-01 -2.21124e-01 -8.78486e+00 
 4.64184e-01 -2.42352e-01 -8.69699e+00 
 5.08287e-01 -2.63375e-01 -8.60046e+00 
 5.52965e-01 -2.84202e-01 -8.49519e+00 
 5.98288e-01 -3.04841e-01 -8.38112e+00 
 6.44353e-01 -3.25317e-01 -8.25813e+00 
 6.91249e-01 -3.45654e-01 -8.12617e+00 
 7.39091e-01 -3.65895e-01 -7.98514e+00 
 7.87991e-01 -3.86086e-01 -7.83499e+00 
 8.38087e-01 -4.06292e-01 -7.67560e+00 
 8.89516e-01 -4.26584e-01 -7.50696e+00 
 9.42444e-01 -4.47054e-01 -7.32896e+00 
 9.97035e-01 -4.67803e-01 -7.14161e+00 
 1.05349e+00 -4.88956e-01 -6.94486e+00 
 1.11200e+00 -5.10647e-01 -6.73875e+00 
 1.17280e+00 -5.33035e-01 -6.52330e+00 
 1.23611e+00 -5.56291e-01 -6.29864e+00 
 1.30219e+00 -5.80612e-01 -6.06486e+00 
 1.37130e+00 -6.06203e-01 -5.82220e+00 
 1.44372e+00 -6.33296e-01 -5.57091e+00 
 1.51971e+00 -6.62124e-01 -5.31139e+00 
 1.59957e+00 -6.92942e-01 -5.04404e+00 
 1.68355e+00 -7.25999e-01 -4.76949e+00 
 1.77192e+00 -7.61552e-01 -4.48836e+00 
 1.86490e+00 -7.99835e-01 -4.20154e+00 
 1.96268e+00 -8.41071e-01 -3.90992e+00 
 2.06537e+00 -8.85435e-01 -3.61467e+00 
 2.17305e+00 -9.33067e-01 -3.31696e+00 
 2.28565e+00 -9.84021e-01 -3.01825e+00 
 2.40306e+00 -1.03829e+00 -2.71997e+00 
 2.52495e+00 -1.09573e+00 -2.42375e+00 
 2.65092e+00 -1.15611e+00 -2.13119e+00 
 2.78036e+00 -1.21905e+00 -1.84400e+00 
 2.91252e+00 -1.28403e+00 -1.56372e+00 
 3.04644e+00 -1.35037e+00 -1.29192e+00 
 3.18103e+00 -1.41724e+00 -1.02986e+00 
 3.31498e+00 -1.48368e+00 -7.78661e-01 
 3.44690e+00 -1.54860e+00 -5.39055e-01 
 3.57524e+00 -1.61078e+00 -3.11494e-01 
 3.69848e+00 -1.66228e+00 -4.18600e-02 
-3.55938e+00  1.59910e+00 -3.48213e-02 
-3.42658e+00  1.54351e+00 -2.84777e-01 
-3.28854e+00  1.47661e+00 -5.02208e-01 
-3.14718e+00  1.40721e+00 -7.35902e-01 
-3.00444e+00  1.33681e+00 -9.85019e-01 
-2.86202e+00  1.26672e+00 -1.24834e+00 
-2.72146e+00  1.19811e+00 -1.52419e+00 
-2.58403e+00  1.13188e+00 -1.81068e+00 
-2.45078e+00  1.06877e+00 -2.10566e+00 
-2.32250e+00  1.00928e+00 -2.40700e+00 
-2.19977e+00  9.53748e-01 -2.71246e+00 
-2.08293e+00  9.02299e-01 -3.02000e+00 
-1.97218e+00  8.54952e-01 -3.32759e+00 
-1.86750e+00  8.11583e-01 -3.63350e+00 
-1.76881e+00  7.71994e-01 -3.93606e+00 
-1.67589e+00  7.35907e-01 -4.23394e+00 
-1.58846e+00  7.03015e-01 -4.52591e+00 
-1.50619e+00  6.72975e-01 -4.81101e+00 
-1.42874e+00  6.45446e-01 -5.08840e+00 
-1.35571e+00  6.20080e-01 -5.35747e+00 
-1.28675e+00  5.96553e-01 -5.61769e+00 
-1.22148e+00  5.74550e-01 -5.86873e+00 
-1.15955e+00  5.53787e-01 -6.11028e+00 
-1.10062e+00  5.33998e-01 -6.34221e+00 
-1.04440e+00  5.14953e-01 -6.56438e+00 
-9.90574e-01  4.96438e-01 -6.77678e+00 
-9.38896e-01  4.78274e-01 -6.97939e+00 
-8.89113e-01  4.60299e-01 -7.17228e+00 
-8.41015e-01  4.42381e-01 -7.35550e+00 
-7.94394e-01  4.24403e-01 -7.52916e+00 
-7.49084e-01  4.06275e-01 -7.69335e+00 
-7.04914e-01  3.87917e-01 -7.84821e+00 
-6.61753e-01  3.69271e-01 -7.99383e+00 
-6.19466e-01  3.50289e-01 -8.13038e+00 
-5.77948e-01  3.30941e-01 -8.25794e+00 
-5.37092e-01  3.11203e-01 -8.37667e+00 
-4.96818e-01  2.91067e-01 -8.48665e+00 
-4.57041e-01  2.70527e-01 -8.58803e+00 
-4.17699e-01  2.49591e-01 -8.68088e+00 
-3.78724e-01  2.28270e-01 -8.76534e+00 
-3.40070e-01  2.06584e-01 -8.84146e+00 
-3.01681e-01  1.84554e-01 -8.90935e+00 
-2.63523e-01  1.62212e-01 -8.96907e+00 
-2.25551e-01  1.39585e-01 -9.02070e+00 
-1.87737e-01  1.16712e-01 -9.06428e+00 
-1.50045e-01  9.36265e-02 -9.09988e+00 
-1.12453e-01  7.03724e-02 -9.12752e+00 
-7.49289e-02  4.69865e-02 -9.14725e+00 
-3.74544e-02  2.35160e-02 -9.15907e+00 
 3.82261e-12 -1.06492e-11 -9.16302e+00 
 3.74544e-02 -2.35160e-02 -9.15907e+00 
 7.49289e-02 -4.69865e-02 -9.14725e+00 
 1.12453e-01 -7.03724e-02 -9.12752e+00 
 1.50045e-01 -9.36265e-02 -9.09988e+00 
 1.87737e-01 -1.16712e-01 -9.06428e+00 
 2.25551e-01 -1.39585e-01 -9.02070e+00 
 2.63523e-01 -1.62212e-01 -8.96907e+00 
 3.01681e-01 -1.84554e-01 -8.90935e+00 
 3.40070e-01 -2.06584e-01 -8.84146e+00 
 3.78724e-01 -2.28270e-01 -8.76534e+00 
 4.17699e-01 -2.49591e-01 -8.68088e+00 
 4.57041e-01 -2.70527e-01 -8.58803e+00 
 4.96818e-01 -2.91067e-01 -8.48665e+00 
 5.37092e-01 -3.11203e-01 -8.37667e+00 
 5.77948e-01 -3.30941e-01 -8.25794e+00 
 6.19466e-01 -3.50289e-01 -8.13038e+00 
 6.61753e-01 -3.69271e-01 -7.99383e+00 
 7.04914e-01 -3.87917e-01 -7.84821e+00 
 7.49084e-01 -4.06275e-01 -7.69335e+00 
 7.94394e-01 -4.24403e-01 -7.52916e+00 
 8.41015e-01 -4.42381e-01 -7.35550e+00 
 8.89113e-01 -4.60299e-01 -7.17228e+00 
 9.38896e-01 -4.78274e-01 -6.97939e+00 
 9.90574e-01 -4.96438e-01 -6.77678e+00 
 1.04440e+00 -5.14953e-01 -6.56438e+00 
 1.10062e+00 -5.33998e-01 -6.34221e+00 
 1.15955e+00 -5.53787e-01 -6.11028e+00 
 1.22148e+00 -5.74550e-01 -5.86873e+00 
 1.28675e+00 -5.96553e-01 -5.61769e+00 
 1.35571e+00 -6.20080e-01 -5.35747e+00 
 1.42874e+00 -6.45446e-01 -5.08840e+00 
 1.50619e+00 -6.72975e-01 -4.81101e+00 
 1.58846e+00 -7.03015e-01 -4.52591e+00 
 1.67589e+00 -7.35907e-01 -4.23394e+00 
 1.76881e+00 -7.71994e-01 -3.93606e+00 
 1.86750e+00 -8.11583e-01 -3.63350e+00 
 1.97218e+00 -8.54952e-01 -3.32759e+00 
 2.08293e+00 -9.02299e-01 -3.02000e+00 
 2.19977e+00 -9.53748e-01 -2.71246e+00 
 2.32250e+00 -1.00928e+00 -2.40700e+00 
 2.45078e+00 -1.06877e+00 -2.10566e+00 
 2.58403e+00 -1.13188e+00 -1.81068e+00 
 2.72146e+00 -1.19811e+00 -1.52419e+00 
 2.86202e+00 -1.26672e+00 -1.24834e+00 
 3.00444e+00 -1.33681e+00 -9.85019e-01 
 3.14718e+00 -1.40721e+00 -7.35902e-01 
 3.28854e+00 -1.47661e+00 -5.02208e-01 
 3.42658e+00 -1.54351e+00 -2.84777e-01 
 3.55938e+00 -1.59910e+00 -3.48213e-02 
-3.43240e+00  1.54116e+00 -2.65490e-02 
-3.28657e+00  1.48009e+00 -2.55575e-01 
-3.13554e+00  1.40704e+00 -4.63412e-01 
-2.98181e+00  1.33198e+00 -6.92813e-01 
-2.82778e+00  1.25682e+00 -9.42333e-01 
-2.67555e+00  1.18314e+00 -1.21001e+00 
-2.52695e+00  1.11229e+00 -1.49331e+00 
-2.38341e+00  1.04528e+00 -1.78950e+00 
-2.24607e+00  9.82847e-01 -2.09559e+00 
-2.11567e+00  9.25410e-01 -2.40866e+00 
-1.99270e+00  8.73167e-01 -2.72582e+00 
-1.87734e+00  8.26076e-01 -3.04447e+00 
-1.76958e+00  7.83952e-01 -3.36216e+00 
-1.66920e+00  7.46462e-01 -3.67685e+00 
-1.57588e+00  7.13208e-01 -3.98670e+00 
-1.48918e+00  6.83725e-01 -4.29028e+00 
-1.40864e+00  6.57538e-01 -4.58633e+00 
-1.33372e+00  6.34162e-01 -4.87397e+00 
-1.26392e+00  6.13136e-01 -5.15243e+00 
-1.19873e+00  5.94018e-01 -5.42123e+00 
-1.13767e+00  5.76409e-01 -5.67996e+00 
-1.08026e+00  5.59940e-01 -5.92845e+00 
-1.02610e+00  5.44288e-01 -6.16654e+00 
-9.74781e-01  5.29166e-01 -6.39424e+00 
-9.25965e-01  5.14329e-01 -6.61155e+00 
-8.79324e-01  4.99561e-01 -6.81859e+00 
-8.34581e-01  4.84688e-01 -7.01545e+00 
-7.91476e-01  4.69560e-01 -7.20232e+00 
-7.49792e-01  4.54057e-01 -7.37933e+00 
-7.09325e-01  4.38082e-01 -7.54670e+00 
-6.69909e-01  4.21564e-01 -7.70457e+00 
-6.31385e-01  4.04444e-01 -7.85317e+00 
-5.93629e-01  3.86688e-01 -7.99264e+00 
-5.56519e-01  3.68271e-01 -8.12319e+00 
-5.19962e-01  3.49185e-01 -8.24495e+00 
-4.83865e-01  3.29428e-01 -8.35813e+00 
-4.48161e-01  3.09015e-01 -8.46283e+00 
-4.12781e-01  2.87961e-01 -8.55924e+00 
-3.77675e-01  2.66298e-01 -8.64745e+00 
-3.42792e-01  2.44055e-01 -8.72760e+00 
-3.08098e-01  2.21273e-01 -8.79979e+00 
-2.73552e-01  1.97991e-01 -8.86412e+00 
-2.39133e-01  1.74261e-01 -8.92068e+00 
-2.04811e-01  1.50128e-01 -8.96955e+00 
-1.70570e-01  1.25649e-01 -9.01079e+00 
-1.36387e-01  1.00874e-01 -9.04446e+00 
-1.02254e-01  7.58655e-02 -9.07060e+00 
-6.81502e-02  5.06757e-02 -9.08924e+00 
-3.40712e-02  2.53688e-02 -9.10042e+00 
 2.65048e-12 -7.94907e-12 -9.10414e+00 
 3.40712e-02 -2.53688e-02 -9.10042e+00 
 6.81502e-02 -5.06757e-02 -9.08924e+00 
 1.02254e-01 -7.58655e-02 -9.07060e+00 
 1.36387e-01 -1.00874e-01 -9.04446e+00 
 1.70570e-01 -1.25649e-01 -9.01079e+00 
 2.04811e-01 -1.50128e-01 -8.96955e+00 
 2.39133e-01 -1.74261e-01 -8.92068e+00 
 2.73552e-01 -1.97991e-01 -8.86412e+00 
 3.08098e-01 -2.21273e-01 -8.79979e+00 
 3.42792e-01 -2.44055e-01 -8.72760e+00 
 3.77675e-01 -2.66298e-01 -8.64745e+00 
 4.12781e-01 -2.87961e-01 -8.55924e+00 
 4.48161e-01 -3.09015e-01 -8.46283e+00 
 4.83865e-01 -3.29428e-01 -8.35813e+00 
 5.19962e-01 -3.49185e-01 -8.24495e+00 
 5.56519e-01 -3.68271e-01 -8.12319e+00 
 5.93629e-01 -3.86688e-01 -7.99264e+00 
 6.31385e-01 -4.04444e-01 -7.85317e+00 
 6.69909e-01 -4.21564e-01 -7.70457e+00 
 7.09325e-01 -4.38082e-01 -7.54670e+00 
 7.49792e-01 -4.54057e-01 -7.37933e+00 
 7.91476e-01 -4.69560e-01 -7.20232e+00 
 8.34581e-01 -4.84688e-01 -7.01545e+00 
 8.79324e-01 -4.99561e-01 -6.81859e+00 
 9.25965e-01 -5.14329e-01 -6.61155e+00 
 9.74781e-01 -5.29166e-01 -6.39424e+00 
 1.02610e+00 -5.44288e-01 -6.16654e+00 
 1.08026e+00 -5.59940e-01 -5.92845e+00 
 1.13767e+00 -5.76409e-01 -5.67996e+00 
 1.19873e+00 -5.94018e-01 -5.42123e+00 
 1.26392e+00 -6.13136e-01 -5.15243e+00 
 1.33372e+00 -6.34162e-01 -4.87397e+00 
 1.40864e+00 -6.57538e-01 -4.58633e+00 
 1.48918e+00 -6.83725e-01 -4.29028e+00 
 1.57588e+00 -7.13208e-01 -3.98670e+00 
 1.66920e+00 -7.46462e-01 -3.67685e+00 
 1.76958e+00 -7.83952e-01 -3.36216e+00 
 1.87734e+00 -8.26076e-01 -3.04447e+00 
 1.99270e+00 -8.73167e-01 -2.72582e+00 
 2.11567e+00 -9.25410e-01 -2.40866e+00 
 2.24607e+00 -9.82847e-01 -2.09559e+00 
 2.38341e+00 -1.04528e+00 -1.78950e+00 
 2.52695e+00 -1.11229e+00 -1.49331e+00 
 2.67555e+00 -1.18314e+00 -1.21001e+00 
 2.82778e+00 -1.25682e+00 -9.42333e-01 
 2.98181e+00 -1.33198e+00 -6.92813e-01 
 3.13554e+00 -1.40704e+00 -4.63412e-01 
 3.28657e+00 -1.48009e+00 -2.55575e-01 
 3.43240e+00 -1.54116e+00 -2.65490e-02 
-3.31849e+00  1.48880e+00 -1.67004e-02 
-3.15512e+00  1.42047e+00 -2.23912e-01 
-2.98696e+00  1.33948e+00 -4.23569e-01 
-2.81722e+00  1.25743e+00 -6.51541e-01 
-2.64898e+00  1.17672e+00 -9.05413e-01 
-2.48481e+00  1.09929e+00 -1.18205e+00 
-2.32687e+00  1.02668e+00 -1.47766e+00 
-2.17673e+00  9.59937e-01 -1.78826e+00 
-2.03551e+00  8.99705e-01 -2.10966e+00 
-1.90383e+00  8.46207e-01 -2.43796e+00 
-1.78192e+00  7.99372e-01 -2.76942e+00 
-1.66967e+00  7.58857e-01 -3.10084e+00 
-1.56673e+00  7.24162e-01 -3.42934e+00 
-1.47255e+00  6.94657e-01 -3.75266e+00 
-1.38649e+00  6.69669e-01 -4.06885e+00 
-1.30781e+00  6.48503e-01 -4.37654e+00 
-1.23579e+00  6.30486e-01 -4.67457e+00 
-1.16969e+00  6.14980e-01 -4.96223e+00 
-1.10882e+00  6.01404e-01 -5.23894e+00 
-1.05253e+00  5.89234e-01 -5.50448e+00 
-1.00022e+00  5.78009e-01 -5.75863e+00 
-9.51353e-01  5.67329e-01 -6.00146e+00 
-9.05447e-01  5.56852e-01 -6.23299e+00 
-8.62065e-01  5.46289e-01 -6.45343e+00 
-8.20836e-01  5.35405e-01 -6.66295e+00 
-7.81423e-01  5.24002e-01 -6.86182e+00 
-7.43545e-01  5.11928e-01 -7.05027e+00 
-7.06946e-01  4.99060e-01 -7.22860e+00 
-6.71418e-01  4.85308e-01 -7.39704e+00 
-6.36770e-01  4.70607e-01 -7.55591e+00 
-6.02851e-01  4.54916e-01 -7.70541e+00 
-5.69521e-01  4.38208e-01 -7.84583e+00 
-5.36673e-01  4.20480e-01 -7.97738e+00 
-5.04203e-01  4.01736e-01 -8.10031e+00 
-4.72040e-01  3.81996e-01 -8.21480e+00 
-4.40107e-01  3.61288e-01 -8.32106e+00 
-4.08358e-01  3.39652e-01 -8.41925e+00 
-3.76740e-01  3.17129e-01 -8.50956e+00 
-3.45223e-01  2.93774e-01 -8.59211e+00 
-3.13770e-01  2.69637e-01 -8.66706e+00 
-2.82366e-01  2.44784e-01 -8.73451e+00 
-2.50985e-01  2.19273e-01 -8.79459e+00 
-2.19621e-01  1.93176e-01 -8.84737e+00 
-1.88259e-01  1.66557e-01 -8.89296e+00 
-1.56897e-01  1.39491e-01 -8.93141e+00 
-1.25528e-01  1.12046e-01 -8.96279e+00 
-9.41553e-02  8.43017e-02 -8.98715e+00 
-6.27730e-02  5.63269e-02 -9.00452e+00 
-3.13890e-02  2.82026e-02 -9.01493e+00 
 1.96046e-12 -6.10080e-12 -9.01840e+00 
 3.13890e-02 -2.82026e-02 -9.01493e+00 
 6.27730e-02 -5.63269e-02 -9.00452e+00 
 9.41553e-02 -8.43017e-02 -8.98715e+00 
 1.25528e-01 -1.12046e-01 -8.96279e+00 
 1.56897e-01 -1.39491e-01 -8.93141e+00 
 1.88259e-01 -1.66557e-01 -8.89296e+00 
 2.19621e-01 -1.93176e-01 -8.84737e+00 
 2.50985e-01 -2.19273e-01 -8.79459e+00 
 2.82366e-01 -2.44784e-01 -8.73451e+00 
 3.13770e-01 -2.69637e-01 -8.66706e+00 
 3.45223e-01 -2.93774e-01 -8.59211e+00 
 3.76740e-01 -3.17129e-01 -8.50956e+00 
 4.08358e-01 -3.39652e-01 -8.41925e+00 
 4.40107e-01 -3.61288e-01 -8.32106e+00 
 4.72040e-01 -3.81996e-01 -8.21480e+00 
 5.04203e-01 -4.01736e-01 -8.10031e+00 
 5.36673e-01 -4.20480e-01 -7.97738e+00 
 5.69521e-01 -4.38208e-01 -7.84583e+00 
 6.02851e-01 -4.54916e-01 -7.70541e+00 
 6.36770e-01 -4.70607e-01 -7.55591e+00 
 6.71418e-01 -4.85308e-01 -7.39704e+00 
 7.06946e-01 -4.99060e-01 -7.22860e+00 
 7.43545e-01 -5.11928e-01 -7.05027e+00 
 7.81423e-01 -5.24002e-01 -6.86182e+00 
 8.20836e-01 -5.35405e-01 -6.66295e+00 
 8.62065e-01 -5.46289e-01 -6.45343e+00 
 9.05447e-01 -5.56852e-01 -6.23299e+00 
 9.51353e-01 -5.67329e-01 -6.00146e+00 
 1.00022e+00 -5.78009e-01 -5.75863e+00 
 1.05253e+00 -5.89234e-01 -5.50448e+00 
 1.10882e+00 -6.01404e-01 -5.23894e+00 
 1.16969e+00 -6.14980e-01 -4.96223e+00 
 1.23579e+00 -6.30486e-01 -4.67457e+00 
 1.30781e+00 -6.48503e-01 -4.37654e+00 
 1.38649e+00 -6.69669e-01 -4.06885e+00 
 1.47255e+00 -6.94657e-01 -3.75266e+00 
 1.56673e+00 -7.24162e-01 -3.42934e+00 
 1.66967e+00 -7.58857e-01 -3.10084e+00 
 1.78192e+00 -7.99372e-01 -2.76942e+00 
 1.90383e+00 -8.46207e-01 -2.43796e+00 
 2.03551e+00 -8.99705e-01 -2.10966e+00 
 2.17673e+00 -9.59937e-01 -1.78826e+00 
 2.32687e+00 -1.02668e+00 -1.47766e+00 
 2.48481e+00 -1.09929e+00 -1.18205e+00 
 2.64898e+00 -1.17672e+00 -9.05413e-01 
 2.81722e+00 -1.25743e+00 -6.51541e-01 
 2.98696e+00 -1.33948e+00 -4.23569e-01 
 3.15512e+00 -1.42047e+00 -2.23912e-01 
 3.31849e+00 -1.48880e+00 -1.67004e-02 
-3.21845e+00  1.44228e+00 -4.74885e-03 
-3.03162e+00  1.36433e+00 -1.89966e-01 
-2.84098e+00  1.27316e+00 -3.84332e-01 
-2.65077e+00  1.18262e+00 -6.15742e-01 
-2.46495e+00  1.09576e+00 -8.80177e-01 
-2.28671e+00  1.01494e+00 -1.17263e+00 
-2.11851e+00  9.41835e-01 -1.48737e+00 
-1.96197e+00  8.77395e-01 -1.81855e+00 
-1.81802e+00  8.21973e-01 -2.16039e+00 
-1.68692e+00  7.75380e-01 -2.50768e+00 
-1.56844e+00  7.37064e-01 -2.85574e+00 
-1.46193e+00  7.06193e-01 -3.20079e+00 
-1.36652e+00  6.81806e-01 -3.53966e+00 
-1.28117e+00  6.62872e-01 -3.87004e+00 
-1.20481e+00  6.48383e-01 -4.19011e+00 
-1.13634e+00  6.37379e-01 -4.49875e+00 
-1.07474e+00  6.28989e-01 -4.79510e+00 
-1.01904e+00  6.22435e-01 -5.07882e+00 
-9.68390e-01  6.17045e-01 -5.34967e+00 
-9.21989e-01  6.12242e-01 -5.60775e+00 
-8.79168e-01  6.07544e-01 -5.85319e+00 
-8.39320e-01  6.02553e-01 -6.08631e+00 
-8.01939e-01  5.96945e-01 -6.30742e+00 
-7.66576e-01  5.90465e-01 -6.51692e+00 
-7.32859e-01  5.82911e-01 -6.71517e+00 
-7.00464e-01  5.74134e-01 -6.90263e+00 
-6.69127e-01  5.64023e-01 -7.07964e+00 
-6.38615e-01  5.52504e-01 -7.24662e+00 
-6.08746e-01  5.39533e-01 -7.40391e+00 
-5.79356e-01  5.25089e-01 -7.55188e+00 
-5.50321e-01  5.09172e-01 -7.69082e+00 
-5.21529e-01  4.91799e-01 -7.82107e+00 
-4.92899e-01  4.73002e-01 -7.94288e+00 
-4.64356e-01  4.52822e-01 -8.05652e+00 
-4.35850e-01  4.31315e-01 -8.16222e+00 
-4.07331e-01  4.08536e-01 -8.26020e+00 
-3.78773e-01  3.84557e-01 -8.35065e+00 
-3.50145e-01  3.59445e-01 -8.43375e+00 
-3.21437e-01  3.33280e-01 -8.50965e+00 
-2.92632e-01  3.06137e-01 -8.57851e+00 
-2.63731e-01  2.78104e-01 -8.64044e+00 
-2.34727e-01  2.49260e-01 -8.69558e+00 
-2.05629e-01  2.19696e-01 -8.74399e+00 
-1.76438e-01  1.89495e-01 -8.78579e+00 
-1.47167e-01  1.58751e-01 -8.82103e+00 
-1.17822e-01  1.27548e-01 -8.84978e+00 
-8.84214e-02  9.59827e-02 -8.87210e+00 
-5.89720e-02  6.41398e-02 -8.88801e+00 
-2.94949e-02  3.21169e-02 -8.89754e+00 
 3.71607e-12 -8.83086e-12 -8.90072e+00 
 2.94949e-02 -3.21169e-02 -8.89754e+00 
 5.89720e-02 -6.41398e-02 -8.88801e+00 
 8.84214e-02 -9.59827e-02 -8.87210e+00 
 1.17822e-01 -1.27548e-01 -8.84978e+00 
 1.47167e-01 -1.58751e-01 -8.82103e+00 
 1.76438e-01 -1.89495e-01 -8.78579e+00 
 2.05629e-01 -2.19696e-01 -8.74399e+00 
 2.34727e-01 -2.49260e-01 -8.69558e+00 
 2.63731e-01 -2.78104e-01 -8.64044e+00 
 2.92632e-01 -3.06137e-01 -8.57851e+00 
 3.21437e-01 -3.33280e-01 -8.50965e+00 
 3.50145e-01 -3.59445e-01 -8.43375e+00 
 3.78773e-01 -3.84557e-01 -8.35065e+00 
 4.07331e-01 -4.08536e-01 -8.26020e+00 
 4.35850e-01 -4.31315e-01 -8.16222e+00 
 4.64356e-01 -4.52822e-01 -8.05652e+00 
 4.92899e-01 -4.73002e-01 -7.94288e+00 
 5.21529e-01 -4.91799e-01 -7.82107e+00 
 5.50321e-01 -5.09172e-01 -7.69082e+00 
 5.79356e-01 -5.25089e-01 -7.55188e+00 
 6.08746e-01 -5.39533e-01 -7.40391e+00 
 6.38615e-01 -5.52504e-01 -7.24662e+00 
 6.69127e-01 -5.64023e-01 -7.07964e+00 
 7.00464e-01 -5.74134e-01 -6.90263e+00 
 7.32859e-01 -5.82911e-01 -6.71517e+00 
 7.66576e-01 -5.90465e-01 -6.51692e+00 
 8.01939e-01 -5.96945e-01 -6.30742e+00 
 8.39320e-01 -6.02553e-01 -6.08631e+00 
 8.79168e-01 -6.07544e-01 -5.85319e+00 
 9.21989e-01 -6.12242e-01 -5.60775e+00 
 9.68390e-01 -6.17045e-01 -5.34967e+00 
 1.01904e+00 -6.22435e-01 -5.07882e+00 
 1.07474e+00 -6.28989e-01 -4.79510e+00 
 1.13634e+00 -6.37379e-01 -4.49875e+00 
 1.20481e+00 -6.48383e-01 -4.19011e+00 
 1.28117e+00 -6.62872e-01 -3.87004e+00 
 1.36652e+00 -6.81806e-01 -3.53966e+00 
 1.46193e+00 -7.06193e-01 -3.20079e+00 
 1.56844e+00 -7.37064e-01 -2.85574e+00 
 1.68692e+00 -7.75380e-01 -2.50768e+00 
 1.81802e+00 -8.21973e-01 -2.16039e+00 
 1.96197e+00 -8.77395e-01 -1.81855e+00 
 2.11851e+00 -9.41835e-01 -1.48737e+00 
 2.28671e+00 -1.01494e+00 -1.17263e+00 
 2.46495e+00 -1.09576e+00 -8.80177e-01 
 2.65077e+00 -1.18262e+00 -6.15742e-01 
 2.84098e+00 -1.27316e+00 -3.84332e-01 
 3.03162e+00 -1.36433e+00 -1.89966e-01 
 3.21845e+00 -1.44228e+00 -4.74885e-03 
-3.13279e+00  1.40163e+00  1.01742e-02 
-2.91452e+00  1.31093e+00 -1.54193e-01 
-2.69440e+00  1.20677e+00 -3.48707e-01 
-2.47821e+00  1.10618e+00 -5.91748e-01 
-2.27112e+00  1.01311e+00 -8.76524e-01 
-2.07702e+00  9.30316e-01 -1.19495e+00 
-1.89860e+00  8.59434e-01 -1.53821e+00 
-1.73724e+00  8.00989e-01 -1.89778e+00 
-1.59333e+00  7.54660e-01 -2.26568e+00 
-1.46633e+00  7.19462e-01 -2.63524e+00 
-1.35516e+00  6.94035e-01 -3.00089e+00 
-1.25831e+00  6.76817e-01 -3.35854e+00 
-1.17416e+00  6.66229e-01 -3.70508e+00 
-1.10101e+00  6.60763e-01 -4.03856e+00 
-1.03727e+00  6.59052e-01 -4.35767e+00 
-9.81441e-01  6.59896e-01 -4.66185e+00 
-9.32209e-01  6.62269e-01 -4.95083e+00 
-8.88401e-01  6.65318e-01 -5.22482e+00 
-8.49022e-01  6.68341e-01 -5.48411e+00 
-8.13211e-01  6.70778e-01 -5.72925e+00 
-7.80252e-01  6.72184e-01 -5.96074e+00 
-7.49537e-01  6.72221e-01 -6.17924e+00 
-7.20569e-01  6.70632e-01 -6.38533e+00 
-6.92927e-01  6.67233e-01 -6.57966e+00 
-6.66276e-01  6.61896e-01 -6.76276e+00 
-6.40333e-01  6.54545e-01 -6.93524e+00 
-6.14877e-01  6.45138e-01 -7.09756e+00 
-5.89719e-01  6.33666e-01 -7.25023e+00 
-5.64718e-01  6.20146e-01 -7.39368e+00 
-5.39754e-01  6.04613e-01 -7.52833e+00 
-5.14740e-01  5.87120e-01 -7.65452e+00 
-4.89602e-01  5.67731e-01 -7.77261e+00 
-4.64291e-01  5.46522e-01 -7.88287e+00 
-4.38765e-01  5.23572e-01 -7.98562e+00 
-4.13003e-01  4.98974e-01 -8.08107e+00 
-3.86983e-01  4.72817e-01 -8.16947e+00 
-3.60702e-01  4.45201e-01 -8.25100e+00 
-3.34153e-01  4.16221e-01 -8.32585e+00 
-3.07348e-01  3.85984e-01 -8.39417e+00 
-2.80288e-01  3.54586e-01 -8.45612e+00 
-2.52993e-01  3.22137e-01 -8.51181e+00 
-2.25474e-01  2.88736e-01 -8.56136e+00 
-1.97754e-01  2.54493e-01 -8.60486e+00 
-1.69851e-01  2.19508e-01 -8.64241e+00 
-1.41792e-01  1.83893e-01 -8.67405e+00 
-1.13596e-01  1.47747e-01 -8.69987e+00 
-8.52942e-02  1.11181e-01 -8.71990e+00 
-5.69075e-02  7.42952e-02 -8.73419e+00 
-2.84686e-02  3.72018e-02 -8.74274e+00 
 3.17706e-12 -9.99502e-12 -8.74560e+00 
 2.84686e-02 -3.72018e-02 -8.74274e+00 
 5.69075e-02 -7.42952e-02 -8.73419e+00 
 8.52942e-02 -1.11181e-01 -8.71990e+00 
 1.13596e-01 -1.47747e-01 -8.69987e+00 
 1.41792e-01 -1.83893e-01 -8.67405e+00 
 1.69851e-01 -2.19508e-01 -8.64241e+00 
 1.97754e-01 -2.54493e-01 -8.60486e+00 
 2.25474e-01 -2.88736e-01 -8.56136e+00 
 2.52993e-01 -3.22137e-01 -8.51181e+00 
 2.80288e-01 -3.54586e-01 -8.45612e+00 
 3.07348e-01 -3.85984e-01 -8.39417e+00 
 3.34153e-01 -4.16221e-01 -8.32585e+00 
 3.60702e-01 -4.45201e-01 -8.25100e+00 
 3.86983e-01 -4.72817e-01 -8.16947e+00 
 4.13003e-01 -4.98974e-01 -8.08107e+00 
 4.38765e-01 -5.23572e-01 -7.98562e+00 
 4.64291e-01 -5.46522e-01 -7.88287e+00 
 4.89602e-01 -5.67731e-01 -7.77261e+00 
 5.14740e-01 -5.87120e-01 -7.65452e+00 
 5.39754e-01 -6.04613e-01 -7.52833e+00 
 5.64718e-01 -6.20146e-01 -7.39368e+00 
 5.89719e-01 -6.33666e-01 -7.25023e+00 
 6.14877e-01 -6.45138e-01 -7.09756e+00 
 6.40333e-01 -6.54545e-01 -6.93524e+00 
 6.66276e-01 -6.61896e-01 -6.76276e+00 
 6.92927e-01 -6.67233e-01 -6.57966e+00 
 7.20569e-01 -6.70632e-01 -6.38533e+00 
 7.49537e-01 -6.72221e-01 -6.17924e+00 
 7.80252e-01 -6.72184e-01 -5.96074e+00 
 8.13211e-01 -6.70778e-01 -5.72925e+00 
 8.49022e-01 -6.68341e-01 -5.48411e+00 
 8.88401e-01 -6.65318e-01 -5.22482e+00 
 9.32209e-01 -6.62269e-01 -4.95083e+00 
 9.81441e-01 -6.59896e-01 -4.66185e+00 
 1.03727e+00 -6.59052e-01 -4.35767e+00 
 1.10101e+00 -6.60763e-01 -4.03856e+00 
 1.17416e+00 -6.66229e-01 -3.70508e+00 
 1.25831e+00 -6.76817e-01 -3.35854e+00 
 1.35516e+00 -6.94035e-01 -3.00089e+00 
 1.46633e+00 -7.19462e-01 -2.63524e+00 
 1.59333e+00 -7.54660e-01 -2.26568e+00 
 1.73724e+00 -8.00989e-01 -1.89778e+00 
 1.89860e+00 -8.59434e-01 -1.53821e+00 
 2.07702e+00 -9.30316e-01 -1.19495e+00 
 2.27112e+00 -1.01311e+00 -8.76524e-01 
 2.47821e+00 -1.10618e+00 -5.91748e-01 
 2.69440e+00 -1.20677e+00 -3.48707e-01 
 2.91452e+00 -1.31093e+00 -1.54193e-01 
 3.13279e+00 -1.40163e+00  1.01742e-02 
-3.06153e+00  1.36653e+00  2.96199e-02 
-2.80064e+00  1.25866e+00 -1.17604e-01 
-2.54169e+00  1.13806e+00 -3.22334e-01 
-2.29283e+00  1.02617e+00 -5.90914e-01 
-2.06084e+00  9.28200e-01 -9.11606e-01 
-1.85035e+00  8.47056e-01 -1.27091e+00 
-1.66385e+00  7.83793e-01 -1.65518e+00 
-1.50185e+00  7.37784e-01 -2.05197e+00 
-1.36340e+00  7.07286e-01 -2.45074e+00 
-1.24645e+00  6.89905e-01 -2.84348e+00 
-1.14847e+00  6.83055e-01 -3.22438e+00 
-1.06669e+00  6.84223e-01 -3.58977e+00 
-9.98471e-01  6.91133e-01 -3.93739e+00 
-9.41381e-01  7.01826e-01 -4.26631e+00 
-8.93291e-01  7.14664e-01 -4.57626e+00 
-8.52363e-01  7.28326e-01 -4.86766e+00 
-8.17071e-01  7.41759e-01 -5.14114e+00 
-7.86135e-01  7.54160e-01 -5.39764e+00 
-7.58525e-01  7.64910e-01 -5.63809e+00 
-7.33392e-01  7.73565e-01 -5.86354e+00 
-7.10064e-01  7.79802e-01 -6.07492e+00 
-6.87995e-01  7.83411e-01 -6.27322e+00 
-6.66758e-01  7.84254e-01 -6.45925e+00 
-6.46010e-01  7.82267e-01 -6.63386e+00 
-6.25489e-01  7.77428e-01 -6.79775e+00 
-6.04984e-01  7.69759e-01 -6.95160e+00 
-5.84340e-01  7.59308e-01 -7.09598e+00 
-5.63435e-01  7.46145e-01 -7.23145e+00 
-5.42182e-01  7.30358e-01 -7.35847e+00 
-5.20513e-01  7.12046e-01 -7.47749e+00 
-4.98391e-01  6.91319e-01 -7.58886e+00 
-4.75781e-01  6.68289e-01 -7.69295e+00 
-4.52676e-01  6.43079e-01 -7.79004e+00 
-4.29066e-01  6.15806e-01 -7.88043e+00 
-4.04960e-01  5.86599e-01 -7.96433e+00 
-3.80366e-01  5.55578e-01 -8.04199e+00 
-3.55306e-01  5.22871e-01 -8.11356e+00 
-3.29796e-01  4.88600e-01 -8.17925e+00 
-3.03866e-01  4.52894e-01 -8.23918e+00 
-2.77540e-01  4.15869e-01 -8.29351e+00 
-2.50852e-01  3.77657e-01 -8.34233e+00 
-2.23831e-01  3.38371e-01 -8.38576e+00 
-1.96515e-01  2.98141e-01 -8.42388e+00 
-1.68933e-01  2.57079e-01 -8.45677e+00 
-1.41128e-01  2.15313e-01 -8.48450e+00 
-1.13130e-01  1.72954e-01 -8.50711e+00 
-8.49828e-02  1.30128e-01 -8.52466e+00 
-5.67179e-02  8.69459e-02 -8.53717e+00 
-2.83792e-02  4.35332e-02 -8.54466e+00 
 2.89398e-12 -7.55978e-12 -8.54716e+00 
 2.83792e-02 -4.35332e-02 -8.54466e+00 
 5.67179e-02 -8.69459e-02 -8.53717e+00 
 8.49828e-02 -1.30128e-01 -8.52466e+00 
 1.13130e-01 -1.72954e-01 -8.50711e+00 
 1.41128e-01 -2.15313e-01 -8.48450e+00 
 1.68933e-01 -2.57079e-01 -8.45677e+00 
 1.96515e-01 -2.98141e-01 -8.42388e+00 
 2.23831e-01 -3.38371e-01 -8.38576e+00 
 2.50852e-01 -3.77657e-01 -8.34233e+00 
 2.77540e-01 -4.15869e-01 -8.29351e+00 
 3.03866e-01 -4.52894e-01 -8.23918e+00 
 3.29796e-01 -4.88600e-01 -8.17925e+00 
 3.55306e-01 -5.22871e-01 -8.11356e+00 
 3.80366e-01 -5.55578e-01 -8.04199e+00 
 4.04960e-01 -5.86599e-01 -7.96433e+00 
 4.29066e-01 -6.15806e-01 -7.88043e+00 
 4.52676e-01 -6.43079e-01 -7.79004e+00 
 4.75781e-01 -6.68289e-01 -7.69295e+00 
 4.98391e-01 -6.91319e-01 -7.58886e+00 
 5.20513e-01 -7.12046e-01 -7.47749e+00 
 5.42182e-01 -7.30358e-01 -7.35847e+00 
 5.63435e-01 -7.46145e-01 -7.23145e+00 
 5.84340e-01 -7.59308e-01 -7.09598e+00 
 6.04984e-01 -7.69759e-01 -6.95160e+00 
 6.25489e-01 -7.77428e-01 -6.79775e+00 
 6.46010e-01 -7.82267e-01 -6.63386e+00 
 6.66758e-01 -7.84254e-01 -6.45925e+00 
 6.87995e-01 -7.83411e-01 -6.27322e+00 
 7.10064e-01 -7.79802e-01 -6.07492e+00 
 7.33392e-01 -7.73565e-01 -5.86354e+00 
 7.58525e-01 -7.64910e-01 -5.63809e+00 
 7.86135e-01 -7.54160e-01 -5.39764e+00 
 8.17071e-01 -7.41759e-01 -5.14114e+00 
 8.52363e-01 -7.28326e-01 -4.86766e+00 
 8.93291e-01 -7.14664e-01 -4.57626e+00 
 9.41381e-01 -7.01826e-01 -4.26631e+00 
 9.98471e-01 -6.91133e-01 -3.93739e+00 
 1.06669e+00 -6.84223e-01 -3.58977e+00 
 1.14847e+00 -6.83055e-01 -3.22438e+00 
 1.24645e+00 -6.89905e-01 -2.84348e+00 
 1.36340e+00 -7.07286e-01 -2.45074e+00 
 1.50185e+00 -7.37784e-01 -2.05197e+00 
 1.66385e+00 -7.83793e-01 -1.65518e+00 
 1.85035e+00 -8.47056e-01 -1.27091e+00 
 2.06084e+00 -9.28200e-01 -9.11606e-01 
 2.29283e+00 -1.02617e+00 -5.90914e-01 
 2.54169e+00 -1.13806e+00 -3.22334e-01 
 2.80064e+00 -1.25866e+00 -1.17604e-01 
 3.06153e+00 -1.36653e+00  2.96199e-02 
-3.00353e+00  1.33572e+00  5.66986e-02 
-2.68376e+00  1.20465e+00 -8.23645e-02 
-2.37333e+00  1.06323e+00 -3.16272e-01 
-2.08397e+00  9.40417e-01 -6.34948e-01 
-1.82487e+00  8.42153e-01 -1.01640e+00 
-1.60067e+00  7.70868e-01 -1.43802e+00 
-1.41266e+00  7.25487e-01 -1.87810e+00 
-1.25888e+00  7.02576e-01 -2.31926e+00 
-1.13547e+00  6.97712e-01 -2.74900e+00 
-1.03769e+00  7.06370e-01 -3.15955e+00 
-9.60835e-01  7.24454e-01 -3.54653e+00 
-9.00598e-01  7.48509e-01 -3.90823e+00 
-8.53290e-01  7.75744e-01 -4.24445e+00 
-8.15834e-01  8.04008e-01 -4.55614e+00 
-7.85760e-01  8.31663e-01 -4.84467e+00 
-7.61091e-01  8.57527e-01 -5.11181e+00 
-7.40292e-01  8.80742e-01 -5.35924e+00 
-7.22159e-01  9.00741e-01 -5.58875e+00 
-7.05774e-01  9.17140e-01 -5.80187e+00 
-6.90429e-01  9.29726e-01 -6.00014e+00 
-6.75593e-01  9.38386e-01 -6.18481e+00 
-6.60861e-01  9.43104e-01 -6.35711e+00 
-6.45938e-01  9.43911e-01 -6.51803e+00 
-6.30601e-01  9.40895e-01 -6.66851e+00 
-6.14696e-01  9.34162e-01 -6.80932e+00 
-5.98107e-01  9.23849e-01 -6.94119e+00 
-5.80766e-01  9.10099e-01 -7.06468e+00 
-5.62623e-01  8.93069e-01 -7.18038e+00 
-5.43658e-01  8.72918e-01 -7.28872e+00 
-5.23860e-01  8.49806e-01 -7.39012e+00 
-5.03239e-01  8.23899e-01 -7.48494e+00 
-4.81808e-01  7.95355e-01 -7.57350e+00 
-4.59593e-01  7.64335e-01 -7.65607e+00 
-4.36621e-01  7.30994e-01 -7.73290e+00 
-4.12930e-01  6.95490e-01 -7.80420e+00 
-3.88552e-01  6.57969e-01 -7.87018e+00 
-3.63532e-01  6.18586e-01 -7.93099e+00 
-3.37909e-01  5.77480e-01 -7.98678e+00 
-3.11729e-01  5.34800e-01 -8.03769e+00 
-2.85033e-01  4.90681e-01 -8.08383e+00 
-2.57871e-01  4.45267e-01 -8.12529e+00 
-2.30285e-01  3.98687e-01 -8.16217e+00 
-2.02324e-01  3.51083e-01 -8.19455e+00 
-1.74032e-01  3.02579e-01 -8.22248e+00 
-1.45460e-01  2.53315e-01 -8.24603e+00 
-1.16650e-01  2.03409e-01 -8.26524e+00 
-8.76535e-02  1.53002e-01 -8.28014e+00 
-5.85130e-02  1.02210e-01 -8.29076e+00 
-2.92812e-02  5.11699e-02 -8.29713e+00 
 2.24468e-12 -6.39096e-12 -8.29925e+00 
 2.92812e-02 -5.11699e-02 -8.29713e+00 
 5.85130e-02 -1.02210e-01 -8.29076e+00 
 8.76535e-02 -1.53002e-01 -8.28014e+00 
 1.16650e-01 -2.03409e-01 -8.26524e+00 
 1.45460e-01 -2.53315e-01 -8.24603e+00 
 1.74032e-01 -3.02579e-01 -8.22248e+00 
 2.02324e-01 -3.51083e-01 -8.19455e+00 
 2.30285e-01 -3.98687e-01 -8.16217e+00 
 2.57871e-01 -4.45267e-01 -8.12529e+00 
 2.85033e-01 -4.90681e-01 -8.08383e+00 
 3.11729e-01 -5.34800e-01 -8.03769e+00 
 3.37909e-01 -5.77480e-01 -7.98678e+00 
 3.63532e-01 -6.18586e-01 -7.93099e+00 
 3.88552e-01 -6.57969e-01 -7.87018e+00 
 4.12930e-01 -6.95490e-01 -7.80420e+00 
 4.36621e-01 -7.30994e-01 -7.73290e+00 
 4.59593e-01 -7.64335e-01 -7.65607e+00 
 4.81808e-01 -7.95355e-01 -7.57350e+00 
 5.03239e-01 -8.23899e-01 -7.48494e+00 
 5.23860e-01 -8.49806e-01 -7.39012e+00 
 5.43658e-01 -8.72918e-01 -7.28872e+00 
 5.62623e-01 -8.93069e-01 -7.18038e+00 
 5.80766e-01 -9.10099e-01 -7.06468e+00 
 5.98107e-01 -9.23849e-01 -6.94119e+00 
 6.14696e-01 -9.34162e-01 -6.80932e+00 
 6.30601e-01 -9.40895e-01 -6.66851e+00 
 6.45938e-01 -9.43911e-01 -6.51803e+00 
 6.60861e-01 -9.43104e-01 -6.35711e+00 
 6.75593e-01 -9.38386e-01 -6.18481e+00 
 6.90429e-01 -9.29726e-01 -6.00014e+00 
 7.05774e-01 -9.17140e-01 -5.80187e+00 
 7.22159e-01 -9.00741e-01 -5.58875e+00 
 7.40292e-01 -8.80742e-01 -5.35924e+00 
 7.61091e-01 -8.57527e-01 -5.11181e+00 
 7.85760e-01 -8.31663e-01 -4.84467e+00 
 8.15834e-01 -8.04008e-01 -4.55614e+00 
 8.53290e-01 -7.75744e-01 -4.24445e+00 
 9.00598e-01 -7.48509e-01 -3.90823e+00 
 9.60835e-01 -7.24454e-01 -3.54653e+00 
 1.03769e+00 -7.06370e-01 -3.15955e+00 
 1.13547e+00 -6.97712e-01 -2.74900e+00 
 1.25888e+00 -7.02576e-01 -2.31926e+00 
 1.41266e+00 -7.25487e-01 -1.87810e+00 
 1.60067e+00 -7.70868e-01 -1.43802e+00 
 1.82487e+00 -8.42153e-01 -1.01640e+00 
 2.08397e+00 -9.40417e-01 -6.34948e-01 
 2.37333e+00 -1.06323e+00 -3.16272e-01 
 2.68376e+00 -1.20465e+00 -8.23645e-02 
 3.00353e+00 -1.33572e+00  5.66986e-02 
-2.95574e+00  1.30709e+00  9.82432e-02 
-2.55188e+00  1.14219e+00 -5.33978e-02 
-2.17224e+00  9.77089e-01 -3.55340e-01 
-1.83538e+00  8.47916e-01 -7.67732e-01 
-1.55138e+00  7.62639e-01 -1.25098e+00 
-1.32445e+00  7.19088e-01 -1.76196e+00 
-1.15062e+00  7.09704e-01 -2.26842e+00 
-1.02148e+00  7.25492e-01 -2.75066e+00 
-9.27784e-01  7.58170e-01 -3.19855e+00 
-8.60988e-01  8.00970e-01 -3.60860e+00 
-8.14027e-01  8.48702e-01 -3.98100e+00 
-7.81286e-01  8.97614e-01 -4.31813e+00 
-7.58495e-01  9.45054e-01 -4.62313e+00 
-7.42440e-01  9.89261e-01 -4.89954e+00 
-7.30764e-01  1.02908e+00 -5.15065e+00 
-7.21739e-01  1.06383e+00 -5.37958e+00 
-7.14124e-01  1.09315e+00 -5.58899e+00 
-7.07026e-01  1.11688e+00 -5.78129e+00 
-6.99816e-01  1.13504e+00 -5.95844e+00 
-6.92052e-01  1.14772e+00 -6.12222e+00 
-6.83434e-01  1.15508e+00 -6.27403e+00 
-6.73761e-01  1.15734e+00 -6.41515e+00 
-6.62909e-01  1.15471e+00 -6.54658e+00 
-6.50801e-01  1.14745e+00 -6.66923e+00 
-6.37406e-01  1.13579e+00 -6.78384e+00 
-6.22715e-01  1.11996e+00 -6.89106e+00 
-6.06744e-01  1.10020e+00 -6.99141e+00 
-5.89519e-01  1.07675e+00 -7.08540e+00 
-5.71081e-01  1.04982e+00 -7.17339e+00 
-5.51473e-01  1.01962e+00 -7.25575e+00 
-5.30748e-01  9.86360e-01 -7.33277e+00 
-5.08958e-01  9.50233e-01 -7.40473e+00 
-4.86161e-01  9.11432e-01 -7.47183e+00 
-4.62412e-01  8.70135e-01 -7.53430e+00 
-4.37773e-01  8.26524e-01 -7.59228e+00 
-4.12297e-01  7.80762e-01 -7.64596e+00 
-3.86047e-01  7.33022e-01 -7.69544e+00 
-3.59077e-01  6.83455e-01 -7.74086e+00 
-3.31450e-01  6.32226e-01 -7.78231e+00 
-3.03217e-01  5.79477e-01 -7.81989e+00 
-2.74440e-01  5.25365e-01 -7.85367e+00 
-2.45171e-01  4.70026e-01 -7.88373e+00 
-2.15470e-01  4.13612e-01 -7.91012e+00 
-1.85387e-01  3.56254e-01 -7.93290e+00 
-1.54984e-01  2.98098e-01 -7.95210e+00 
-1.24308e-01  2.39271e-01 -7.96776e+00 
-9.34205e-02  1.79919e-01 -7.97991e+00 
-6.23684e-02  1.20164e-01 -7.98858e+00 
-3.12122e-02  6.01503e-02 -7.99377e+00 
 2.87957e-12 -8.78831e-12 -7.99550e+00 
 3.12122e-02 -6.01503e-02 -7.99377e+00 
 6.23684e-02 -1.20164e-01 -7.98858e+00 
 9.34205e-02 -1.79919e-01 -7.97991e+00 
 1.24308e-01 -2.39271e-01 -7.96776e+00 
 1.54984e-01 -2.98098e-01 -7.95210e+00 
 1.85387e-01 -3.56254e-01 -7.93290e+00 
 2.15470e-01 -4.13612e-01 -7.91012e+00 
 2.45171e-01 -4.70026e-01 -7.88373e+00 
 2.74440e-01 -5.25365e-01 -7.85367e+00 
 3.03217e-01 -5.79477e-01 -7.81989e+00 
 3.31450e-01 -6.32226e-01 -7.78231e+00 
 3.59077e-01 -6.83455e-01 -7.74086e+00 
 3.86047e-01 -7.33022e-01 -7.69544e+00 
 4.12297e-01 -7.80762e-01 -7.64596e+00 
 4.37773e-01 -8.26524e-01 -7.59228e+00 
 4.62412e-01 -8.70135e-01 -7.53430e+00 
 4.86161e-01 -9.11432e-01 -7.47183e+00 
 5.08958e-01 -9.50233e-01 -7.40473e+00 
 5.30748e-01 -9.86360e-01 -7.33277e+00 
 5.51473e-01 -1.01962e+00 -7.25575e+00 
 5.71081e-01 -1.04982e+00 -7.17339e+00 
 5.89519e-01 -1.07675e+00 -7.08540e+00 
 6.06744e-01 -1.10020e+00 -6.99141e+00 
 6.22715e-01 -1.11996e+00 -6.89106e+00 
 6.37406e-01 -1.13579e+00 -6.78384e+00 
 6.50801e-01 -1.14745e+00 -6.66923e+00 
 6.62909e-01 -1.15471e+00 -6.54658e+00 
 6.73761e-01 -1.15734e+00 -6.41515e+00 
 6.83434e-01 -1.15508e+00 -6.27403e+00 
 6.92052e-01 -1.14772e+00 -6.12222e+00 
 6.99816e-01 -1.13504e+00 -5.95844e+00 
 7.07026e-01 -1.11688e+00 -5.78129e+00 
 7.14124e-01 -1.09315e+00 -5.58899e+00 
 7.21739e-01 -1.06383e+00 -5.37958e+00 
 7.30764e-01 -1.02908e+00 -5.15065e+00 
 7.42440e-01 -9.89261e-01 -4.89954e+00 
 7.58495e-01 -9.45054e-01 -4.62313e+00 
 7.81286e-01 -8.97614e-01 -4.31813e+00 
 8.14027e-01 -8.48702e-01 -3.98100e+00 
 8.60988e-01 -8.00970e-01 -3.60860e+00 
 9.27784e-01 -7.58170e-01 -3.19855e+00 
 1.02148e+00 -7.25492e-01 -2.75066e+00 
 1.15062e+00 -7.09704e-01 -2.26842e+00 
 1.32445e+00 -7.19088e-01 -1.76196e+00 
 1.55138e+00 -7.62639e-01 -1.25098e+00 
 1.83538e+00 -8.47916e-01 -7.67732e-01 
 2.17224e+00 -9.77089e-01 -3.55340e-01 
 2.55188e+00 -1.14219e+00 -5.33978e-02 
 2.95574e+00 -1.30709e+00  9.82432e-02 
-2.90891e+00  1.26904e+00  1.74158e-01 
-2.37956e+00  1.06264e+00 -4.54239e-02 
-1.90961e+00  8.70338e-01 -4.95615e-01 
-1.52021e+00  7.59200e-01 -1.09681e+00 
-1.23212e+00  7.22738e-01 -1.73704e+00 
-1.03403e+00  7.40497e-01 -2.35048e+00 
-9.04945e-01  7.92516e-01 -2.90687e+00 
-8.24842e-01  8.63252e-01 -3.39776e+00 
-7.77973e-01  9.41808e-01 -3.82531e+00 
-7.52805e-01  1.02108e+00 -4.19639e+00 
-7.41287e-01  1.09663e+00 -4.51896e+00 
-7.37915e-01  1.16589e+00 -4.80085e+00 
-7.39001e-01  1.22748e+00 -5.04881e+00 
-7.42099e-01  1.28081e+00 -5.26865e+00 
-7.45613e-01  1.32574e+00 -5.46504e+00 
-7.48516e-01  1.36241e+00 -5.64186e+00 
-7.50166e-01  1.39115e+00 -5.80213e+00 
-7.50171e-01  1.41233e+00 -5.94836e+00 
-7.48312e-01  1.42639e+00 -6.08251e+00 
-7.44480e-01  1.43377e+00 -6.20620e+00 
-7.38642e-01  1.43488e+00 -6.32070e+00 
-7.30810e-01  1.43012e+00 -6.42708e+00 
-7.21029e-01  1.41989e+00 -6.52617e+00 
-7.09362e-01  1.40455e+00 -6.61872e+00 
-6.95887e-01  1.38442e+00 -6.70528e+00 
-6.80681e-01  1.35982e+00 -6.78635e+00 
-6.63833e-01  1.33105e+00 -6.86234e+00 
-6.45426e-01  1.29836e+00 -6.93360e+00 
-6.25549e-01  1.26204e+00 -7.00041e+00 
-6.04281e-01  1.22230e+00 -7.06303e+00 
-5.81709e-01  1.17939e+00 -7.12167e+00 
-5.57910e-01  1.13351e+00 -7.17652e+00 
-5.32965e-01  1.08487e+00 -7.22774e+00 
-5.06945e-01  1.03366e+00 -7.27547e+00 
-4.79930e-01  9.80077e-01 -7.31982e+00 
-4.51985e-01  9.24284e-01 -7.36091e+00 
-4.23186e-01  8.66466e-01 -7.39883e+00 
-3.93596e-01  8.06777e-01 -7.43367e+00 
-3.63285e-01  7.45389e-01 -7.46548e+00 
-3.32315e-01  6.82448e-01 -7.49434e+00 
-3.00753e-01  6.18116e-01 -7.52030e+00 
-2.68657e-01  5.52532e-01 -7.54341e+00 
-2.36095e-01  4.85851e-01 -7.56371e+00 
-2.03120e-01  4.18206e-01 -7.58124e+00 
-1.69799e-01  3.49749e-01 -7.59602e+00 
-1.36184e-01  2.80607e-01 -7.60808e+00 
-1.02342e-01  2.10930e-01 -7.61744e+00 
-6.83226e-02  1.40842e-01 -7.62411e+00 
-3.41914e-02  7.04908e-02 -7.62811e+00 
 5.12193e-12 -1.38214e-11 -7.62945e+00 
 3.41914e-02 -7.04908e-02 -7.62811e+00 
 6.83226e-02 -1.40842e-01 -7.62411e+00 
 1.02342e-01 -2.10930e-01 -7.61744e+00 
 1.36184e-01 -2.80607e-01 -7.60808e+00 
 1.69799e-01 -3.49749e-01 -7.59602e+00 
 2.03120e-01 -4.18206e-01 -7.58124e+00 
 2.36095e-01 -4.85851e-01 -7.56371e+00 
 2.68657e-01 -5.52532e-01 -7.54341e+00 
 3.00753e-01 -6.18116e-01 -7.52030e+00 
 3.32315e-01 -6.82448e-01 -7.49434e+00 
 3.63285e-01 -7.45389e-01 -7.46548e+00 
 3.93596e-01 -8.06777e-01 -7.43367e+00 
 4.23186e-01 -8.66466e-01 -7.39883e+00 
 4.51985e-01 -9.24284e-01 -7.36091e+00 
 4.79930e-01 -9.80077e-01 -7.31982e+00 
 5.06945e-01 -1.03366e+00 -7.27547e+00 
 5.32965e-01 -1.08487e+00 -7.22774e+00 
 5.57910e-01 -1.13351e+00 -7.17652e+00 
 5.81709e-01 -1.17939e+00 -7.12167e+00 
 6.04281e-01 -1.22230e+00 -7.06303e+00 
 6.25549e-01 -1.26204e+00 -7.00041e+00 
 6.45426e-01 -1.29836e+00 -6.93360e+00 
 6.63833e-01 -1.33105e+00 -6.86234e+00 
 6.80681e-01 -1.35982e+00 -6.78635e+00 
 6.95887e-01 -1.38442e+00 -6.70528e+00 
 7.09362e-01 -1.40455e+00 -6.61872e+00 
 7.21029e-01 -1.41989e+00 -6.52617e+00 
 7.30810e-01 -1.43012e+00 -6.42708e+00 
 7.38642e-01 -1.43488e+00 -6.32070e+00 
 7.44480e-01 -1.43377e+00 -6.20620e+00 
 7.48312e-01 -1.42639e+00 -6.08251e+00 
 7.50171e-01 -1.41233e+00 -5.94836e+00 
 7.50166e-01 -1.39115e+00 -5.80213e+00 
 7.48516e-01 -1.36241e+00 -5.64186e+00 
 7.45613e-01 -1.32574e+00 -5.46504e+00 
 7.42099e-01 -1.28081e+00 -5.26865e+00 
 7.39001e-01 -1.22748e+00 -5.04881e+00 
 7.37915e-01 -1.16589e+00 -4.80085e+00 
 7.41287e-01 -1.09663e+00 -4.51896e+00 
 7.52805e-01 -1.02108e+00 -4.19639e+00 
 7.77973e-01 -9.41808e-01 -3.82531e+00 
 8.24842e-01 -8.63252e-01 -3.39776e+00 
 9.04945e-01 -7.92516e-01 -2.90687e+00 
 1.03403e+00 -7.40497e-01 -2.35048e+00 
 1.23212e+00 -7.22738e-01 -1.73704e+00 
 1.52021e+00 -7.59200e-01 -1.09681e+00 
 1.90961e+00 -8.70338e-01 -4.95615e-01 
 2.37956e+00 -1.06264e+00 -4.54239e-02 
 2.90891e+00 -1.26904e+00  1.74158e-01 
-2.85117e+00  1.22331e+00  3.47821e-01 
-2.12008e+00  9.20104e-01 -8.60364e-02 
-1.50770e+00  7.62581e-01 -9.81777e-01 
-1.12042e+00  7.56451e-01 -1.89080e+00 
-9.04404e-01  8.34638e-01 -2.68168e+00 
-7.96100e-01  9.51737e-01 -3.33003e+00 
-7.50803e-01  1.08050e+00 -3.85000e+00 
-7.40470e-01  1.20632e+00 -4.26617e+00 
-7.48339e-01  1.32192e+00 -4.60185e+00 
-7.64628e-01  1.42424e+00 -4.87643e+00 
-7.83748e-01  1.51238e+00 -5.10470e+00 
-8.02580e-01  1.58666e+00 -5.29784e+00 
-8.19441e-01  1.64783e+00 -5.46399e+00 
-8.33484e-01  1.69691e+00 -5.60920e+00 
-8.44331e-01  1.73491e+00 -5.73787e+00 
-8.51876e-01  1.76283e+00 -5.85330e+00 
-8.56156e-01  1.78154e+00 -5.95788e+00 
-8.57289e-01  1.79186e+00 -6.05349e+00 
-8.55427e-01  1.79450e+00 -6.14148e+00 
-8.50740e-01  1.79009e+00 -6.22297e+00 
-8.43398e-01  1.77921e+00 -6.29876e+00 
-8.33565e-01  1.76234e+00 -6.36952e+00 
-8.21402e-01  1.73994e+00 -6.43576e+00 
-8.07054e-01  1.71240e+00 -6.49791e+00 
-7.90664e-01  1.68010e+00 -6.55631e+00 
-7.72358e-01  1.64335e+00 -6.61124e+00 
-7.52262e-01  1.60246e+00 -6.66293e+00 
-7.30486e-01  1.55771e+00 -6.71157e+00 
-7.07141e-01  1.50935e+00 -6.75733e+00 
-6.82324e-01  1.45763e+00 -6.80036e+00 
-6.56136e-01  1.40277e+00 -6.84076e+00 
-6.28660e-01  1.34497e+00 -6.87865e+00 
-5.99991e-01  1.28446e+00 -6.91410e+00 
-5.70203e-01  1.22140e+00 -6.94721e+00 
-5.39383e-01  1.15599e+00 -6.97803e+00 
-5.07600e-01  1.08839e+00 -7.00664e+00 
-4.74934e-01  1.01879e+00 -7.03307e+00 
-4.41451e-01  9.47335e-01 -7.05739e+00 
-4.07226e-01  8.74197e-01 -7.07962e+00 
-3.72320e-01  7.99515e-01 -7.09982e+00 
-3.36806e-01  7.23454e-01 -7.11800e+00 
-3.00742e-01  6.46147e-01 -7.13419e+00 
-2.64198e-01  5.67753e-01 -7.14843e+00 
-2.27229e-01  4.88398e-01 -7.16073e+00 
-1.89905e-01  4.08237e-01 -7.17111e+00 
-1.52279e-01  3.27393e-01 -7.17958e+00 
-1.14418e-01  2.46018e-01 -7.18616e+00 
-7.63760e-02  1.64232e-01 -7.19085e+00 
-3.82190e-02  8.21862e-02 -7.19366e+00 
 6.53298e-12 -1.66959e-11 -7.19460e+00 
 3.82190e-02 -8.21862e-02 -7.19366e+00 
 7.63760e-02 -1.64232e-01 -7.19085e+00 
 1.14418e-01 -2.46018e-01 -7.18616e+00 
 1.52279e-01 -3.27393e-01 -7.17958e+00 
 1.89905e-01 -4.08237e-01 -7.17111e+00 
 2.27229e-01 -4.88398e-01 -7.16073e+00 
 2.64198e-01 -5.67753e-01 -7.14843e+00 
 3.00742e-01 -6.46147e-01 -7.13419e+00 
 3.36806e-01 -7.23454e-01 -7.11800e+00 
 3.72320e-01 -7.99515e-01 -7.09982e+00 
 4.07226e-01 -8.74197e-01 -7.07962e+00 
 4.41451e-01 -9.47335e-01 -7.05739e+00 
 4.74934e-01 -1.01879e+00 -7.03307e+00 
 5.07600e-01 -1.08839e+00 -7.00664e+00 
 5.39383e-01 -1.15599e+00 -6.97803e+00 
 5.70203e-01 -1.22140e+00 -6.94721e+00 
 5.99991e-01 -1.28446e+00 -6.91410e+00 
 6.28660e-01 -1.34497e+00 -6.87865e+00 
 6.56136e-01 -1.40277e+00 -6.84076e+00 
 6.82324e-01 -1.45763e+00 -6.80036e+00 
 7.07141e-01 -1.50935e+00 -6.75733e+00 
 7.30486e-01 -1.55771e+00 -6.71157e+00 
 7.52262e-01 -1.60246e+00 -6.66293e+00 
 7.72358e-01 -1.64335e+00 -6.61124e+00 
 7.90664e-01 -1.68010e+00 -6.55631e+00 
 8.07054e-01 -1.71240e+00 -6.49791e+00 
 8.21402e-01 -1.73994e+00 -6.43576e+00 
 8.33565e-01 -1.76234e+00 -6.36952e+00 
 8.43398e-01 -1.77921e+00 -6.29876e+00 
 8.50740e-01 -1.79009e+00 -6.22297e+00 
 8.55427e-01 -1.79450e+00 -6.14148e+00 
 8.57289e-01 -1.79186e+00 -6.05349e+00 
 8.56156e-01 -1.78154e+00 -5.95788e+00 
 8.51876e-01 -1.76283e+00 -5.85330e+00 
 8.44331e-01 -1.73491e+00 -5.73787e+00 
 8.33484e-01 -1.69691e+00 -5.60920e+00 
 8.19441e-01 -1.64783e+00 -5.46399e+00 
 8.02580e-01 -1.58666e+00 -5.29784e+00 
 7.83748e-01 -1.51238e+00 -5.10470e+00 
 7.64628e-01 -1.42424e+00 -4.87643e+00 
 7.48339e-01 -1.32192e+00 -4.60185e+00 
 7.40470e-01 -1.20632e+00 -4.26617e+00 
 7.50803e-01 -1.08050e+00 -3.85000e+00 
 7.96100e-01 -9.51737e-01 -3.33003e+00 
 9.04404e-01 -8.34638e-01 -2.68168e+00 
 1.12042e+00 -7.56451e-01 -1.89080e+00 
 1.50770e+00 -7.62581e-01 -9.81777e-01 
 2.12008e+00 -9.20104e-01 -8.60364e-02 
 2.85117e+00 -1.22331e+00  3.47821e-01 
-2.70829e+00  9.37994e-01  9.95481e-01 
-1.48064e+00  8.22449e-01 -1.02436e+00 
-9.67776e-01  9.41760e-01 -2.54358e+00 
-7.92761e-01  1.14676e+00 -3.56007e+00 
-7.59895e-01  1.36200e+00 -4.23643e+00 
-7.83051e-01  1.55604e+00 -4.68826e+00 
-8.24977e-01  1.72087e+00 -4.99820e+00 
-8.69683e-01  1.85683e+00 -5.21889e+00 
-9.10663e-01  1.96689e+00 -5.38286e+00 
-9.45627e-01  2.05466e+00 -5.51024e+00 
-9.74088e-01  2.12341e+00 -5.61335e+00 
-9.96310e-01  2.17596e+00 -5.69995e+00 
-1.01280e+00  2.21457e+00 -5.77490e+00 
-1.02413e+00  2.24112e+00 -5.84137e+00 
-1.03083e+00  2.25706e+00 -5.90140e+00 
-1.03336e+00  2.26363e+00 -5.95641e+00 
-1.03214e+00  2.26178e+00 -6.00733e+00 
-1.02750e+00  2.25236e+00 -6.05484e+00 
-1.01976e+00  2.23602e+00 -6.09940e+00 
-1.00915e+00  2.21336e+00 -6.14139e+00 
-9.95920e-01  2.18486e+00 -6.18106e+00 
-9.80247e-01  2.15097e+00 -6.21861e+00 
-9.62311e-01  2.11206e+00 -6.25419e+00 
-9.42263e-01  2.06847e+00 -6.28795e+00 
-9.20247e-01  2.02052e+00 -6.31997e+00 
-8.96386e-01  1.96847e+00 -6.35034e+00 
-8.70800e-01  1.91260e+00 -6.37913e+00 
-8.43593e-01  1.85313e+00 -6.40641e+00 
-8.14872e-01  1.79030e+00 -6.43221e+00 
-7.84726e-01  1.72431e+00 -6.45660e+00 
-7.53250e-01  1.65535e+00 -6.47960e+00 
-7.20524e-01  1.58362e+00 -6.50126e+00 
-6.86635e-01  1.50930e+00 -6.52160e+00 
-6.51655e-01  1.43256e+00 -6.54065e+00 
-6.15666e-01  1.35358e+00 -6.55844e+00 
-5.78734e-01  1.27249e+00 -6.57499e+00 
-5.40937e-01  1.18948e+00 -6.59031e+00 
-5.02336e-01  1.10468e+00 -6.60444e+00 
-4.63006e-01  1.01826e+00 -6.61737e+00 
-4.23004e-01  9.30342e-01 -6.62914e+00 
-3.82403e-01  8.41091e-01 -6.63974e+00 
-3.41258e-01  7.50629e-01 -6.64921e+00 
-2.99639e-01  6.59112e-01 -6.65753e+00 
-2.57600e-01  5.66660e-01 -6.66473e+00 
-2.15209e-01  4.73425e-01 -6.67080e+00 
-1.72519e-01  3.79523e-01 -6.67577e+00 
-1.29597e-01  2.85104e-01 -6.67962e+00 
-8.64939e-02  1.90284e-01 -6.68237e+00 
-4.32779e-02  9.52108e-02 -6.68402e+00 
 5.81713e-12 -1.31591e-11 -6.68457e+00 
 4.32779e-02 -9.52108e-02 -6.68402e+00 
 8.64939e-02 -1.90284e-01 -6.68237e+00 
 1.29597e-01 -2.85104e-01 -6.67962e+00 
 1.72519e-01 -3.79523e-01 -6.67577e+00 
 2.15209e-01 -4.73425e-01 -6.67080e+00 
 2.57600e-01 -5.66660e-01 -6.66473e+00 
 2.99639e-01 -6.59112e-01 -6.65753e+00 
 3.41258e-01 -7.50629e-01 -6.64921e+00 
 3.82403e-01 -8.41091e-01 -6.63974e+00 
 4.23004e-01 -9.30342e-01 -6.62914e+00 
 4.63006e-01 -1.01826e+00 -6.61737e+00 
 5.02336e-01 -1.10468e+00 -6.60444e+00 
 5.40937e-01 -1.18948e+00 -6.59031e+00 
 5.78734e-01 -1.27249e+00 -6.57499e+00 
 6.15666e-01 -1.35358e+00 -6.55844e+00 
 6.51655e-01 -1.43256e+00 -6.54065e+00 
 6.86635e-01 -1.50930e+00 -6.52160e+00 
 7.20524e-01 -1.58362e+00 -6.50126e+00 
 7.53250e-01 -1.65535e+00 -6.47960e+00 
 7.84726e-01 -1.72431e+00 -6.45660e+00 
 8.14872e-01 -1.79030e+00 -6.43221e+00 
 8.43593e-01 -1.85313e+00 -6.40641e+00 
 8.70800e-01 -1.91260e+00 -6.37913e+00 
 8.96386e-01 -1.96847e+00 -6.35034e+00 
 9.20247e-01 -2.02052e+00 -6.31997e+00 
 9.42263e-01 -2.06847e+00 -6.28795e+00 
 9.62311e-01 -2.11206e+00 -6.25419e+00 
 9.80247e-01 -2.15097e+00 -6.21861e+00 
 9.95920e-01 -2.18486e+00 -6.18106e+00 
 1.00915e+00 -2.21336e+00 -6.14139e+00 
 1.01976e+00 -2.23602e+00 -6.09940e+00 
 1.02750e+00 -2.25236e+00 -6.05484e+00 
 1.03214e+00 -2.26178e+00 -6.00733e+00 
 1.03336e+00 -2.26363e+00 -5.95641e+00 
 1.03083e+00 -2.25706e+00 -5.90140e+00 
 1.02413e+00 -2.24112e+00 -5.84137e+00 
 1.01280e+00 -2.21457e+00 -5.77490e+00 
 9.96310e-01 -2.17596e+00 -5.69995e+00 
 9.74088e-01 -2.12341e+00 -5.61335e+00 
 9.45627e-01 -2.05466e+00 -5.51024e+00 
 9.10663e-01 -1.96689e+00 -5.38286e+00 
 8.69683e-01 -1.85683e+00 -5.21889e+00 
 8.24977e-01 -1.72087e+00 -4.99820e+00 
 7.83051e-01 -1.55604e+00 -4.68826e+00 
 7.59895e-01 -1.36200e+00 -4.23643e+00 
 7.92761e-01 -1.14676e+00 -3.56007e+00 
 9.67776e-01 -9.41760e-01 -2.54358e+00 
 1.48064e+00 -8.22449e-01 -1.02436e+00 
 2.70829e+00 -9.37994e-01  9.95481e-01 
-1.48342e+00  1.49930e+00 -3.12197e+00 
-1.07107e+00  2.05261e+00 -5.45471e+00 
-1.07548e+00  2.29136e+00 -5.81112e+00 
-1.13577e+00  2.48338e+00 -5.91016e+00 
-1.19348e+00  2.62160e+00 -5.91363e+00 
-1.23901e+00  2.72082e+00 -5.89264e+00 
-1.27264e+00  2.79181e+00 -5.86972e+00 
-1.29651e+00  2.84203e+00 -5.85153e+00 
-1.31266e+00  2.87637e+00 -5.83898e+00 
-1.32266e+00  2.89807e+00 -5.83133e+00 
-1.32763e+00  2.90931e+00 -5.82747e+00 
-1.32835e+00  2.91158e+00 -5.82644e+00 
-1.32540e+00  2.90595e+00 -5.82744e+00 
-1.31918e+00  2.89320e+00 -5.82989e+00 
-1.30999e+00  2.87396e+00 -5.83337e+00 
-1.29808e+00  2.84867e+00 -5.83756e+00 
-1.28362e+00  2.81775e+00 -5.84222e+00 
-1.26679e+00  2.78153e+00 -5.84720e+00 
-1.24771e+00  2.74031e+00 -5.85236e+00 
-1.22650e+00  2.69434e+00 -5.85761e+00 
-1.20328e+00  2.64388e+00 -5.86289e+00 
-1.17813e+00  2.58912e+00 -5.86813e+00 
-1.15117e+00  2.53031e+00 -5.87330e+00 
-1.12246e+00  2.46761e+00 -5.87836e+00 
-1.09211e+00  2.40123e+00 -5.88329e+00 
-1.06018e+00  2.33134e+00 -5.88807e+00 
-1.02676e+00  2.25813e+00 -5.89269e+00 
-9.91910e-01  2.18174e+00 -5.89714e+00 
-9.55721e-01  2.10236e+00 -5.90141e+00 
-9.18252e-01  2.02013e+00 -5.90549e+00 
-8.79580e-01  1.93523e+00 -5.90938e+00 
-8.39767e-01  1.84778e+00 -5.91306e+00 
-7.98885e-01  1.75796e+00 -5.91656e+00 
-7.56993e-01  1.66589e+00 -5.91985e+00 
-7.14164e-01  1.57173e+00 -5.92295e+00 
-6.70452e-01  1.47561e+00 -5.92584e+00 
-6.25927e-01  1.37769e+00 -5.92853e+00 
-5.80644e-01  1.27808e+00 -5.93101e+00 
-5.34672e-01  1.17694e+00 -5.93331e+00 
-4.88062e-01  1.07438e+00 -5.93539e+00 
-4.40882e-01  9.70557e-01 -5.93728e+00 
-3.93182e-01  8.65576e-01 -5.93896e+00 
-3.45031e-01  7.59593e-01 -5.94045e+00 
-2.96476e-01  6.52712e-01 -5.94173e+00 
-2.47585e-01  5.45086e-01 -5.94282e+00 
-1.98405e-01  4.36818e-01 -5.94371e+00 
-1.49004e-01  3.28058e-01 -5.94441e+00 
-9.94284e-02  2.18910e-01 -5.94489e+00 
-4.97442e-02  1.09522e-01 -5.94520e+00 
 6.94011e-12 -1.62594e-11 -5.94529e+00 
 4.97442e-02 -1.09522e-01 -5.94520e+00 
 9.94284e-02 -2.18910e-01 -5.94489e+00 
 1.49004e-01 -3.28058e-01 -5.94441e+00 
 1.98405e-01 -4.36818e-01 -5.94371e+00 
 2.47585e-01 -5.45086e-01 -5.94282e+00 
 2.96476e-01 -6.52712e-01 -5.94173e+00 
 3.45031e-01 -7.59593e-01 -5.94045e+00 
 3.93182e-01 -8.65576e-01 -5.93896e+00 
 4.40882e-01 -9.70557e-01 -5.93728e+00 
 4.88062e-01 -1.07438e+00 -5.93539e+00 
 5.34672e-01 -1.17694e+00 -5.93331e+00 
 5.80644e-01 -1.27808e+00 -5.93101e+00 
 6.25927e-01 -1.37769e+00 -5.92853e+00 
 6.70452e-01 -1.47561e+00 -5.92584e+00 
 7.14164e-01 -1.57173e+00 -5.92295e+00 
 7.56993e-01 -1.66589e+00 -5.91985e+00 
 7.98885e-01 -1.75796e+00 -5.91656e+00 
 8.39767e-01 -1.84778e+00 -5.91306e+00 
 8.79580e-01 -1.93523e+00 -5.90938e+00 
 9.18252e-01 -2.02013e+00 -5.90549e+00 
 9.55721e-01 -2.10236e+00 -5.90141e+00 
 9.91910e-01 -2.18174e+00 -5.89714e+00 
 1.02676e+00 -2.25813e+00 -5.89269e+00 
 1.06018e+00 -2.33134e+00 -5.88807e+00 
 1.09211e+00 -2.40123e+00 -5.88329e+00 
 1.12246e+00 -2.46761e+00 -5.87836e+00 
 1.15117e+00 -2.53031e+00 -5.87330e+00 
 1.17813e+00 -2.58912e+00 -5.86813e+00 
 1.20328e+00 -2.64388e+00 -5.86289e+00 
 1.22650e+00 -2.69434e+00 -5.85761e+00 
 1.24771e+00 -2.74031e+00 -5.85236e+00 
 1.26679e+00 -2.78153e+00 -5.84720e+00 
 1.28362e+00 -2.81775e+00 -5.84222e+00 
 1.29808e+00 -2.84867e+00 -5.83756e+00 
 1.30999e+00 -2.87396e+00 -5.83337e+00 
 1.31918e+00 -2.89320e+00 -5.82989e+00 
 1.32540e+00 -2.90595e+00 -5.82744e+00 
 1.32835e+00 -2.91158e+00 -5.82644e+00 
 1.32763e+00 -2.90931e+00 -5.82747e+00 
 1.32266e+00 -2.89807e+00 -5.83133e+00 
 1.31266e+00 -2.87637e+00 -5.83898e+00 
 1.29651e+00 -2.84203e+00 -5.85153e+00 
 1.27264e+00 -2.79181e+00 -5.86972e+00 
 1.23901e+00 -2.72082e+00 -5.89264e+00 
 1.19348e+00 -2.62160e+00 -5.91363e+00 
 1.13577e+00 -2.48338e+00 -5.91016e+00 
 1.07548e+00 -2.29136e+00 -5.81112e+00 
 1.07107e+00 -2.05261e+00 -5.45471e+00 
 1.48342e+00 -1.49930e+00 -3.12197e+00 </DataArray>
            <DataArray Name="stress" NumberOfComponents="3" format="ascii" type="Float64">
-4.51961e+01 -1.65970e+01 -1.05004e+01 
-3.33272e+01 -1.65480e+01 -9.94598e+00 
-2.85400e+01 -1.29388e+01 -8.05203e+00 
-2.57495e+01 -1.17108e+01 -7.01571e+00 
-2.38337e+01 -1.07898e+01 -6.14263e+00 
-2.23811e+01 -1.01206e+01 -5.47521e+00 
-2.12056e+01 -9.58085e+00 -4.93260e+00 
-2.02086e+01 -9.12598e+00 -4.48127e+00 
-1.93342e+01 -8.72825e+00 -4.09692e+00 
-1.85473e+01 -8.37117e+00 -3.76386e+00 
-1.78257e+01 -8.04421e+00 -3.47126e+00 
-1.71540e+01 -7.74023e+00 -3.21134e+00 
-1.65218e+01 -7.45430e+00 -2.97845e+00 
-1.59212e+01 -7.18284e+00 -2.76825e+00 
-1.53466e+01 -6.92323e+00 -2.57746e+00 
-1.47935e+01 -6.67350e+00 -2.40339e+00 
-1.42589e+01 -6.43208e+00 -2.24398e+00 
-1.37398e+01 -6.19779e+00 -2.09745e+00 
-1.32344e+01 -5.96964e+00 -1.96243e+00 
-1.27407e+01 -5.74687e+00 -1.83767e+00 
-1.22575e+01 -5.52881e+00 -1.72219e+00 
-1.17835e+01 -5.31497e+00 -1.61511e+00 
-1.13178e+01 -5.10483e+00 -1.51570e+00 
-1.08595e+01 -4.89808e+00 -1.42330e+00 
-1.04079e+01 -4.69432e+00 -1.33736e+00 
-9.96227e+00 -4.49333e+00 -1.25737e+00 
-9.52221e+00 -4.29479e+00 -1.18292e+00 
-9.08711e+00 -4.09856e+00 -1.11360e+00 
-8.65663e+00 -3.90435e+00 -1.04909e+00 
-8.23030e+00 -3.71208e+00 -9.89062e-01 
-7.80785e+00 -3.52150e+00 -9.33278e-01 
-7.38887e+00 -3.33255e+00 -8.81449e-01 
-6.97317e+00 -3.14502e+00 -8.33406e-01 
-6.56039e+00 -2.95887e+00 -7.88905e-01 
-6.15037e+00 -2.77390e+00 -7.47817e-01 
-5.74279e+00 -2.59011e+00 -7.09935e-01 
-5.33753e+00 -2.40729e+00 -6.75166e-01 
-4.93429e+00 -2.22545e+00 -6.43333e-01 
-4.53298e+00 -2.04442e+00 -6.14372e-01 
-4.13333e+00 -1.86420e+00 -5.88130e-01 
-3.73525e+00 -1.68463e+00 -5.64568e-01 
-3.33849e+00 -1.50572e+00 -5.43553e-01 
-2.94298e+00 -1.32730e+00 -5.25067e-01 
-2.54848e+00 -1.14941e+00 -5.08996e-01 
-2.15491e+00 -9.71871e-01 -4.95340e-01 
-1.76207e+00 -7.94733e-01 -4.84002e-01 
-1.36989e+00 -6.17814e-01 -4.74999e-01 
-9.78139e-01 -4.41170e-01 -4.68248e-01 
-5.86766e-01 -2.64618e-01 -4.63782e-01 
-1.95561e-01 -8.82195e-02 -4.61533e-01 
 1.95561e-01  8.82195e-02 -4.61533e-01 
 5.86766e-01  2.64618e-01 -4.63782e-01 
 9.78139e-01  4.41170e-01 -4.68248e-01 
 1.36989e+00  6.17814e-01 -4.74999e-01 
 1.76207e+00  7.94733e-01 -4.84002e-01 
 2.15491e+00  9.71871e-01 -4.95340e-01 
 2.54848e+00  1.14941e+00 -5.08996e-01 
 2.94298e+00  1.32730e+00 -5.25067e-01 
 3.33849e+00  1.50572e+00 -5.43553e-01 
 3.73525e+00  1.68463e+00 -5.64568e-01 
 4.13333e+00  1.86420e+00 -5.88130e-01 
 4.53298e+00  2.04442e+00 -6.14372e-01 
 4.93429e+00  2.22545e+00 -6.43333e-01 
 5.33753e+00  2.40729e+00 -6.75166e-01 
 5.74279e+00  2.59011e+00 -7.09935e-01 
 6.15037e+00  2.77390e+00 -7.47817e-01 
 6.56039e+00  2.95887e+00 -7.88905e-01 
 6.97317e+00  3.14502e+00 -8.33406e-01 
 7.38887e+00  3.33255e+00 -8.81449e-01 
 7.80785e+00  3.52150e+00 -9.33278e-01 
 8.23030e+00  3.71208e+00 -9.89062e-01 
 8.65663e+00  3.90435e+00 -1.04909e+00 
 9.08711e+00  4.09856e+00 -1.11360e+00 
 9.52221e+00  4.29479e+00 -1.18292e+00 
 9.96227e+00  4.49333e+00 -1.25737e+00 
 1.04079e+01  4.69432e+00 -1.33736e+00 
 1.08595e+01  4.89808e+00 -1.42330e+00 
 1.13178e+01  5.10483e+00 -1.51570e+00 
 1.17835e+01  5.31497e+00 -1.61511e+00 
 1.22575e+01  5.52881e+00 -1.72219e+00 
 1.27407e+01  5.74687e+00 -1.83767e+00 
 1.32344e+01  5.96964e+00 -1.96243e+00 
 1.37398e+01  6.19779e+00 -2.09745e+00 
 1.42589e+01  6.43208e+00 -2.24398e+00 
 1.47935e+01  6.67350e+00 -2.40339e+00 
 1.53466e+01  6.92323e+00 -2.57746e+00 
 1.59212e+01  7.18284e+00 -2.76825e+00 
 1.65218e+01  7.45430e+00 -2.97845e+00 
 1.71540e+01  7.74023e+00 -3.21134e+00 
 1.78257e+01  8.04421e+00 -3.47126e+00 
 1.85473e+01  8.37117e+00 -3.76386e+00 
 1.93342e+01  8.72825e+00 -4.09692e+00 
 2.02086e+01  9.12598e+00 -4.48127e+00 
 2.12056e+01  9.58085e+00 -4.93260e+00 
 2.23811e+01  1.01206e+01 -5.47521e+00 
 2.38337e+01  1.07898e+01 -6.14263e+00 
 2.57495e+01  1.17108e+01 -7.01571e+00 
 2.85400e+01  1.29388e+01 -8.05203e+00 
 3.33272e+01  1.65480e+01 -9.94598e+00 
 4.51961e+01  1.65970e+01 -1.05004e+01 
-3.42958e+01  2.17219e+00 -1.93946e+00 
-3.07779e+01 -1.00590e+00 -3.93565e+00 
-2.77416e+01 -4.41961e+00 -5.81104e+00 
-2.55597e+01 -5.68855e+00 -5.71206e+00 
-2.38737e+01 -6.36388e+00 -5.42100e+00 
-2.25102e+01 -6.66282e+00 -5.04321e+00 
-2.13658e+01 -6.77449e+00 -4.67042e+00 
-2.03750e+01 -6.77927e+00 -4.32152e+00 
-1.94961e+01 -6.72154e+00 -4.00250e+00 
-1.87004e+01 -6.62573e+00 -3.71286e+00 
-1.79685e+01 -6.50563e+00 -3.45017e+00 
-1.72863e+01 -6.36983e+00 -3.21158e+00 
-1.66441e+01 -6.22335e+00 -2.99428e+00 
-1.60342e+01 -6.06972e+00 -2.79579e+00 
-1.54511e+01 -5.91097e+00 -2.61393e+00 
-1.48903e+01 -5.74878e+00 -2.44685e+00 
-1.43485e+01 -5.58402e+00 -2.29294e+00 
-1.38230e+01 -5.41760e+00 -2.15085e+00 
-1.33116e+01 -5.24991e+00 -2.01940e+00 
-1.28125e+01 -5.08148e+00 -1.89759e+00 
-1.23244e+01 -4.91246e+00 -1.78453e+00 
-1.18458e+01 -4.74322e+00 -1.67947e+00 
-1.13759e+01 -4.57378e+00 -1.58174e+00 
-1.09136e+01 -4.40440e+00 -1.49076e+00 
-1.04584e+01 -4.23503e+00 -1.40601e+00 
-1.00094e+01 -4.06589e+00 -1.32705e+00 
-9.56616e+00 -3.89688e+00 -1.25346e+00 
-9.12810e+00 -3.72820e+00 -1.18488e+00 
-8.69483e+00 -3.55972e+00 -1.12100e+00 
-8.26588e+00 -3.39161e+00 -1.06152e+00 
-7.84095e+00 -3.22373e+00 -1.00619e+00 
-7.41963e+00 -3.05622e+00 -9.54774e-01 
-7.00170e+00 -2.88896e+00 -9.07063e-01 
-6.58681e+00 -2.72207e+00 -8.62869e-01 
-6.17476e+00 -2.55542e+00 -8.22023e-01 
-5.76525e+00 -2.38912e+00 -7.84372e-01 
-5.35813e+00 -2.22303e+00 -7.49779e-01 
-4.95312e+00 -2.05727e+00 -7.18119e-01 
-4.55009e+00 -1.89170e+00 -6.89284e-01 
-4.14877e+00 -1.72643e+00 -6.63172e-01 
-3.74908e+00 -1.56131e+00 -6.39697e-01 
-3.35075e+00 -1.39645e+00 -6.18778e-01 
-2.95370e+00 -1.23170e+00 -6.00351e-01 
-2.55771e+00 -1.06718e+00 -5.84351e-01 
-2.16268e+00 -9.02733e-01 -5.70732e-01 
-1.76839e+00 -7.38466e-01 -5.59444e-01 
-1.37478e+00 -5.74235e-01 -5.50459e-01 
-9.81625e-01 -4.10141e-01 -5.43742e-01 
-5.88853e-01 -2.46040e-01 -5.39278e-01 
-1.96256e-01 -8.20330e-02 -5.37047e-01 
 1.96256e-01  8.20330e-02 -5.37047e-01 
 5.88853e-01  2.46040e-01 -5.39278e-01 
 9.81625e-01  4.10141e-01 -5.43742e-01 
 1.37478e+00  5.74235e-01 -5.50459e-01 
 1.76839e+00  7.38466e-01 -5.59444e-01 
 2.16268e+00  9.02733e-01 -5.70732e-01 
 2.55771e+00  1.06718e+00 -5.84351e-01 
 2.95370e+00  1.23170e+00 -6.00351e-01 
 3.35075e+00  1.39645e+00 -6.18778e-01 
 3.74908e+00  1.56131e+00 -6.39697e-01 
 4.14877e+00  1.72643e+00 -6.63172e-01 
 4.55009e+00  1.89170e+00 -6.89284e-01 
 4.95312e+00  2.05727e+00 -7.18119e-01 
 5.35813e+00  2.22303e+00 -7.49779e-01 
 5.76525e+00  2.38912e+00 -7.84372e-01 
 6.17476e+00  2.55542e+00 -8.22023e-01 
 6.58681e+00  2.72207e+00 -8.62869e-01 
 7.00170e+00  2.88896e+00 -9.07063e-01 
 7.41963e+00  3.05622e+00 -9.54774e-01 
 7.84095e+00  3.22373e+00 -1.00619e+00 
 8.26588e+00  3.39161e+00 -1.06152e+00 
 8.69483e+00  3.55972e+00 -1.12100e+00 
 9.12810e+00  3.72820e+00 -1.18488e+00 
 9.56616e+00  3.89688e+00 -1.25346e+00 
 1.00094e+01  4.06589e+00 -1.32705e+00 
 1.04584e+01  4.23503e+00 -1.40601e+00 
 1.09136e+01  4.40440e+00 -1.49076e+00 
 1.13759e+01  4.57378e+00 -1.58174e+00 
 1.18458e+01  4.74322e+00 -1.67947e+00 
 1.23244e+01  4.91246e+00 -1.78453e+00 
 1.28125e+01  5.08148e+00 -1.89759e+00 
 1.33116e+01  5.24991e+00 -2.01940e+00 
 1.38230e+01  5.41760e+00 -2.15085e+00 
 1.43485e+01  5.58402e+00 -2.29294e+00 
 1.48903e+01  5.74878e+00 -2.44685e+00 
 1.54511e+01  5.91097e+00 -2.61393e+00 
 1.60342e+01  6.06972e+00 -2.79579e+00 
 1.66441e+01  6.22335e+00 -2.99428e+00 
 1.72863e+01  6.36983e+00 -3.21158e+00 
 1.79685e+01  6.50563e+00 -3.45017e+00 
 1.87004e+01  6.62573e+00 -3.71286e+00 
 1.94961e+01  6.72154e+00 -4.00250e+00 
 2.03750e+01  6.77927e+00 -4.32152e+00 
 2.13658e+01  6.77449e+00 -4.67042e+00 
 2.25102e+01  6.66282e+00 -5.04321e+00 
 2.38737e+01  6.36388e+00 -5.42100e+00 
 2.55597e+01  5.68855e+00 -5.71206e+00 
 2.77416e+01  4.41961e+00 -5.81104e+00 
 3.07779e+01  1.00590e+00 -3.93565e+00 
 3.42958e+01 -2.17219e+00 -1.93946e+00 
-2.55122e+01 -1.15518e+00 -9.41039e-01 
-2.76136e+01 -2.78467e-01 -1.45326e+00 
-2.66669e+01 -8.99138e-01 -2.90885e+00 
-2.53844e+01 -2.13635e+00 -3.90250e+00 
-2.40958e+01 -3.09015e+00 -4.25170e+00 
-2.29078e+01 -3.79654e+00 -4.32552e+00 
-2.18323e+01 -4.28818e+00 -4.25051e+00 
-2.08583e+01 -4.62080e+00 -4.10371e+00 
-1.99706e+01 -4.83662e+00 -3.92397e+00 
-1.91540e+01 -4.96732e+00 -3.73235e+00 
-1.83962e+01 -5.03534e+00 -3.54001e+00 
-1.76866e+01 -5.05684e+00 -3.35287e+00 
-1.70173e+01 -5.04318e+00 -3.17385e+00 
-1.63814e+01 -5.00277e+00 -3.00431e+00 
-1.57740e+01 -4.94153e+00 -2.84463e+00 
-1.51906e+01 -4.86405e+00 -2.69478e+00 
-1.46279e+01 -4.77357e+00 -2.55438e+00 
-1.40831e+01 -4.67278e+00 -2.42300e+00 
-1.35539e+01 -4.56352e+00 -2.30009e+00 
-1.30384e+01 -4.44744e+00 -2.18514e+00 
-1.25350e+01 -4.32564e+00 -2.07763e+00 
-1.20424e+01 -4.19920e+00 -1.97707e+00 
-1.15594e+01 -4.06877e+00 -1.88300e+00 
-1.10850e+01 -3.93511e+00 -1.79502e+00 
-1.06184e+01 -3.79862e+00 -1.71271e+00 
-1.01588e+01 -3.65983e+00 -1.63573e+00 
-9.70571e+00 -3.51899e+00 -1.56376e+00 
-9.25834e+00 -3.37651e+00 -1.49651e+00 
-8.81632e+00 -3.23251e+00 -1.43369e+00 
-8.37910e+00 -3.08733e+00 -1.37508e+00 
-7.94635e+00 -2.94102e+00 -1.32044e+00 
-7.51761e+00 -2.79386e+00 -1.26957e+00 
-7.09264e+00 -2.64584e+00 -1.22228e+00 
-6.67102e+00 -2.49721e+00 -1.17842e+00 
-6.25256e+00 -2.34794e+00 -1.13783e+00 
-5.83691e+00 -2.19822e+00 -1.10036e+00 
-5.42389e+00 -2.04802e+00 -1.06590e+00 
-5.01320e+00 -1.89751e+00 -1.03433e+00 
-4.60469e+00 -1.74662e+00 -1.00555e+00 
-4.19807e+00 -1.59552e+00 -9.79464e-01 
-3.79323e+00 -1.44412e+00 -9.55995e-01 
-3.38990e+00 -1.29260e+00 -9.35073e-01 
-2.98797e+00 -1.14084e+00 -9.16627e-01 
-2.58719e+00 -9.89013e-01 -9.00608e-01 
-2.18748e+00 -8.37009e-01 -8.86962e-01 
-1.78858e+00 -6.84973e-01 -8.75653e-01 
-1.39042e+00 -5.32803e-01 -8.66644e-01 
-9.92764e-01 -3.80639e-01 -8.59912e-01 
-5.95525e-01 -2.28376e-01 -8.55433e-01 
-1.98477e-01 -7.61504e-02 -8.53198e-01 
 1.98477e-01  7.61504e-02 -8.53198e-01 
 5.95525e-01  2.28376e-01 -8.55433e-01 
 9.92764e-01  3.80639e-01 -8.59912e-01 
 1.39042e+00  5.32803e-01 -8.66644e-01 
 1.78858e+00  6.84973e-01 -8.75653e-01 
 2.18748e+00  8.37009e-01 -8.86962e-01 
 2.58719e+00  9.89013e-01 -9.00608e-01 
 2.98797e+00  1.14084e+00 -9.16627e-01 
 3.38990e+00  1.29260e+00 -9.35073e-01 
 3.79323e+00  1.44412e+00 -9.55995e-01 
 4.19807e+00  1.59552e+00 -9.79464e-01 
 4.60469e+00  1.74662e+00 -1.00555e+00 
 5.01320e+00  1.89751e+00 -1.03433e+00 
 5.42389e+00  2.04802e+00 -1.06590e+00 
 5.83691e+00  2.19822e+00 -1.10036e+00 
 6.25256e+00  2.34794e+00 -1.13783e+00 
 6.67102e+00  2.49721e+00 -1.17842e+00 
 7.09264e+00  2.64584e+00 -1.22228e+00 
 7.51761e+00  2.79386e+00 -1.26957e+00 
 7.94635e+00  2.94102e+00 -1.32044e+00 
 8.37910e+00  3.08733e+00 -1.37508e+00 
 8.81632e+00  3.23251e+00 -1.43369e+00 
 9.25834e+00  3.37651e+00 -1.49651e+00 
 9.70571e+00  3.51899e+00 -1.56376e+00 
 1.01588e+01  3.65983e+00 -1.63573e+00 
 1.06184e+01  3.79862e+00 -1.71271e+00 
 1.10850e+01  3.93511e+00 -1.79502e+00 
 1.15594e+01  4.06877e+00 -1.88300e+00 
 1.20424e+01  4.19920e+00 -1.97707e+00 
 1.25350e+01  4.32564e+00 -2.07763e+00 
 1.30384e+01  4.44744e+00 -2.18514e+00 
 1.35539e+01  4.56352e+00 -2.30009e+00 
 1.40831e+01  4.67278e+00 -2.42300e+00 
 1.46279e+01  4.77357e+00 -2.55438e+00 
 1.51906e+01  4.86405e+00 -2.69478e+00 
 1.57740e+01  4.94153e+00 -2.84463e+00 
 1.63814e+01  5.00277e+00 -3.00431e+00 
 1.70173e+01  5.04318e+00 -3.17385e+00 
 1.76866e+01  5.05684e+00 -3.35287e+00 
 1.83962e+01  5.03534e+00 -3.54001e+00 
 1.91540e+01  4.96732e+00 -3.73235e+00 
 1.99706e+01  4.83662e+00 -3.92397e+00 
 2.08583e+01  4.62080e+00 -4.10371e+00 
 2.18323e+01  4.28818e+00 -4.25051e+00 
 2.29078e+01  3.79654e+00 -4.32552e+00 
 2.40958e+01  3.09015e+00 -4.25170e+00 
 2.53844e+01  2.13635e+00 -3.90250e+00 
 2.66669e+01  8.99138e-01 -2.90885e+00 
 2.76136e+01  2.78467e-01 -1.45326e+00 
 2.55122e+01  1.15518e+00 -9.41039e-01 
-2.39598e+01 -6.09201e-02 -3.99601e-01 
-2.44231e+01 -1.85498e-01 -8.04825e-01 
-2.47589e+01 -4.44458e-01 -1.56616e+00 
-2.43202e+01 -8.72228e-01 -2.31813e+00 
-2.35897e+01 -1.47216e+00 -2.89868e+00 
-2.27426e+01 -2.04997e+00 -3.24809e+00 
-2.18726e+01 -2.55253e+00 -3.43162e+00 
-2.10198e+01 -2.96328e+00 -3.50015e+00 
-2.02011e+01 -3.28661e+00 -3.49345e+00 
-1.94213e+01 -3.53341e+00 -3.43873e+00 
-1.86802e+01 -3.71570e+00 -3.35437e+00 
-1.79749e+01 -3.84475e+00 -3.25259e+00 
-1.73023e+01 -3.93001e+00 -3.14145e+00 
-1.66586e+01 -3.97951e+00 -3.02623e+00 
-1.60407e+01 -3.99957e+00 -2.91040e+00 
-1.54454e+01 -3.99547e+00 -2.79619e+00 
-1.48702e+01 -3.97126e+00 -2.68502e+00 
-1.43127e+01 -3.93042e+00 -2.57777e+00 
-1.37710e+01 -3.87555e+00 -2.47493e+00 
-1.32432e+01 -3.80897e+00 -2.37679e+00 
-1.27281e+01 -3.73236e+00 -2.28343e+00 
-1.22242e+01 -3.64733e+00 -2.19486e+00 
-1.17304e+01 -3.55499e+00 -2.11100e+00 
-1.12458e+01 -3.45646e+00 -2.03173e+00 
-1.07695e+01 -3.35249e+00 -1.95692e+00 
-1.03006e+01 -3.24392e+00 -1.88641e+00 
-9.83871e+00 -3.13123e+00 -1.82003e+00 
-9.38296e+00 -3.01506e+00 -1.75763e+00 
-8.93298e+00 -2.89573e+00 -1.69903e+00 
-8.48816e+00 -2.77375e+00 -1.64409e+00 
-8.04818e+00 -2.64932e+00 -1.59266e+00 
-7.61252e+00 -2.52285e+00 -1.54460e+00 
-7.18093e+00 -2.39446e+00 -1.49977e+00 
-6.75296e+00 -2.26450e+00 -1.45807e+00 
-6.32840e+00 -2.13304e+00 -1.41936e+00 
-5.90688e+00 -2.00035e+00 -1.38356e+00 
-5.48820e+00 -1.86648e+00 -1.35055e+00 
-5.07203e+00 -1.73168e+00 -1.32025e+00 
-4.65822e+00 -1.59593e+00 -1.29258e+00 
-4.24646e+00 -1.45948e+00 -1.26746e+00 
-3.83661e+00 -1.32230e+00 -1.24483e+00 
-3.42839e+00 -1.18459e+00 -1.22463e+00 
-3.02169e+00 -1.04631e+00 -1.20681e+00 
-2.61623e+00 -9.07662e-01 -1.19131e+00 
-2.21192e+00 -7.68588e-01 -1.17810e+00 
-1.80849e+00 -6.29271e-01 -1.16714e+00 
-1.40585e+00 -4.89653e-01 -1.15841e+00 
-1.00375e+00 -3.49909e-01 -1.15188e+00 
-6.02106e-01 -2.09975e-01 -1.14754e+00 
-2.00668e-01 -7.00223e-02 -1.14537e+00 
 2.00668e-01  7.00223e-02 -1.14537e+00 
 6.02106e-01  2.09975e-01 -1.14754e+00 
 1.00375e+00  3.49909e-01 -1.15188e+00 
 1.40585e+00  4.89653e-01 -1.15841e+00 
 1.80849e+00  6.29271e-01 -1.16714e+00 
 2.21192e+00  7.68588e-01 -1.17810e+00 
 2.61623e+00  9.07662e-01 -1.19131e+00 
 3.02169e+00  1.04631e+00 -1.20681e+00 
 3.42839e+00  1.18459e+00 -1.22463e+00 
 3.83661e+00  1.32230e+00 -1.24483e+00 
 4.24646e+00  1.45948e+00 -1.26746e+00 
 4.65822e+00  1.59593e+00 -1.29258e+00 
 5.07203e+00  1.73168e+00 -1.32025e+00 
 5.48820e+00  1.86648e+00 -1.35055e+00 
 5.90688e+00  2.00035e+00 -1.38356e+00 
 6.32840e+00  2.13304e+00 -1.41936e+00 
 6.75296e+00  2.26450e+00 -1.45807e+00 
 7.18093e+00  2.39446e+00 -1.49977e+00 
 7.61252e+00  2.52285e+00 -1.54460e+00 
 8.04818e+00  2.64932e+00 -1.59266e+00 
 8.48816e+00  2.77375e+00 -1.64409e+00 
 8.93298e+00  2.89573e+00 -1.69903e+00 
 9.38296e+00  3.01506e+00 -1.75763e+00 
 9.83871e+00  3.13123e+00 -1.82003e+00 
 1.03006e+01  3.24392e+00 -1.88641e+00 
 1.07695e+01  3.35249e+00 -1.95692e+00 
 1.12458e+01  3.45646e+00 -2.03173e+00 
 1.17304e+01  3.55499e+00 -2.11100e+00 
 1.22242e+01  3.64733e+00 -2.19486e+00 
 1.27281e+01  3.73236e+00 -2.28343e+00 
 1.32432e+01  3.80897e+00 -2.37679e+00 
 1.37710e+01  3.87555e+00 -2.47493e+00 
 1.43127e+01  3.93042e+00 -2.57777e+00 
 1.48702e+01  3.97126e+00 -2.68502e+00 
 1.54454e+01  3.99547e+00 -2.79619e+00 
 1.60407e+01  3.99957e+00 -2.91040e+00 
 1.66586e+01  3.97951e+00 -3.02623e+00 
 1.73023e+01  3.93001e+00 -3.14145e+00 
 1.79749e+01  3.84475e+00 -3.25259e+00 
 1.86802e+01  3.71570e+00 -3.35437e+00 
 1.94213e+01  3.53341e+00 -3.43873e+00 
 2.02011e+01  3.28661e+00 -3.49345e+00 
 2.10198e+01  2.96328e+00 -3.50015e+00 
 2.18726e+01  2.55253e+00 -3.43162e+00 
 2.27426e+01  2.04997e+00 -3.24809e+00 
 2.35897e+01  1.47216e+00 -2.89868e+00 
 2.43202e+01  8.72228e-01 -2.31813e+00 
 2.47589e+01  4.44458e-01 -1.56616e+00 
 2.44231e+01  1.85498e-01 -8.04825e-01 
 2.39598e+01  6.09201e-02 -3.99601e-01 
-2.28233e+01 -1.18427e-01 -2.43374e-01 
-2.31673e+01 -6.72337e-02 -4.59938e-01 
-2.32542e+01 -2.16048e-01 -9.66582e-01 
-2.31347e+01 -4.59781e-01 -1.48215e+00 
-2.27515e+01 -7.73531e-01 -1.95566e+00 
-2.22029e+01 -1.14281e+00 -2.34462e+00 
-2.15602e+01 -1.51727e+00 -2.62979e+00 
-2.08724e+01 -1.86739e+00 -2.82209e+00 
-2.01702e+01 -2.17753e+00 -2.93900e+00 
-1.94708e+01 -2.44215e+00 -2.99802e+00 
-1.87840e+01 -2.66120e+00 -3.01410e+00 
-1.81144e+01 -2.83765e+00 -2.99904e+00 
-1.74643e+01 -2.97552e+00 -2.96193e+00 
-1.68337e+01 -3.07934e+00 -2.90957e+00 
-1.62224e+01 -3.15330e+00 -2.84701e+00 
-1.56291e+01 -3.20143e+00 -2.77798e+00 
-1.50526e+01 -3.22708e+00 -2.70519e+00 
-1.44917e+01 -3.23340e+00 -2.63064e+00 
-1.39451e+01 -3.22290e+00 -2.55577e+00 
-1.34114e+01 -3.19792e+00 -2.48162e+00 
-1.28897e+01 -3.16027e+00 -2.40894e+00 
-1.23789e+01 -3.11168e+00 -2.33824e+00 
-1.18781e+01 -3.05345e+00 -2.26988e+00 
-1.13863e+01 -2.98689e+00 -2.20412e+00 
-1.09029e+01 -2.91291e+00 -2.14110e+00 
-1.04270e+01 -2.83251e+00 -2.08092e+00 
-9.95820e+00 -2.74634e+00 -2.02361e+00 
-9.49574e+00 -2.65517e+00 -1.96920e+00 
-9.03922e+00 -2.55948e+00 -1.91766e+00 
-8.58805e+00 -2.45988e+00 -1.86896e+00 
-8.14190e+00 -2.35670e+00 -1.82306e+00 
-7.70027e+00 -2.25043e+00 -1.77990e+00 
-7.26288e+00 -2.14132e+00 -1.73943e+00 
-6.82929e+00 -2.02976e+00 -1.70160e+00 
-6.39928e+00 -1.91593e+00 -1.66633e+00 
-5.97246e+00 -1.80018e+00 -1.63357e+00 
-5.54863e+00 -1.68261e+00 -1.60327e+00 
-5.12745e+00 -1.56352e+00 -1.57537e+00 
-4.70875e+00 -1.44299e+00 -1.54982e+00 
-4.29222e+00 -1.32129e+00 -1.52658e+00 
-3.87770e+00 -1.19844e+00 -1.50558e+00 
-3.46491e+00 -1.07470e+00 -1.48681e+00 
-3.05372e+00 -9.50072e-01 -1.47021e+00 
-2.64384e+00 -8.24796e-01 -1.45577e+00 
-2.23517e+00 -6.98861e-01 -1.44343e+00 
-1.82744e+00 -5.72485e-01 -1.43320e+00 
-1.42055e+00 -4.45651e-01 -1.42503e+00 
-1.01422e+00 -3.18565e-01 -1.41892e+00 
-6.08382e-01 -1.91204e-01 -1.41485e+00 
-2.02757e-01 -6.37702e-02 -1.41282e+00 
 2.02757e-01  6.37702e-02 -1.41282e+00 
 6.08382e-01  1.91204e-01 -1.41485e+00 
 1.01422e+00  3.18565e-01 -1.41892e+00 
 1.42055e+00  4.45651e-01 -1.42503e+00 
 1.82744e+00  5.72485e-01 -1.43320e+00 
 2.23517e+00  6.98861e-01 -1.44343e+00 
 2.64384e+00  8.24796e-01 -1.45577e+00 
 3.05372e+00  9.50072e-01 -1.47021e+00 
 3.46491e+00  1.07470e+00 -1.48681e+00 
 3.87770e+00  1.19844e+00 -1.50558e+00 
 4.29222e+00  1.32129e+00 -1.52658e+00 
 4.70875e+00  1.44299e+00 -1.54982e+00 
 5.12745e+00  1.56352e+00 -1.57537e+00 
 5.54863e+00  1.68261e+00 -1.60327e+00 
 5.97246e+00  1.80018e+00 -1.63357e+00 
 6.39928e+00  1.91593e+00 -1.66633e+00 
 6.82929e+00  2.02976e+00 -1.70160e+00 
 7.26288e+00  2.14132e+00 -1.73943e+00 
 7.70027e+00  2.25043e+00 -1.77990e+00 
 8.14190e+00  2.35670e+00 -1.82306e+00 
 8.58805e+00  2.45988e+00 -1.86896e+00 
 9.03922e+00  2.55948e+00 -1.91766e+00 
 9.49574e+00  2.65517e+00 -1.96920e+00 
 9.95820e+00  2.74634e+00 -2.02361e+00 
 1.04270e+01  2.83251e+00 -2.08092e+00 
 1.09029e+01  2.91291e+00 -2.14110e+00 
 1.13863e+01  2.98689e+00 -2.20412e+00 
 1.18781e+01  3.05345e+00 -2.26988e+00 
 1.23789e+01  3.11168e+00 -2.33824e+00 
 1.28897e+01  3.16027e+00 -2.40894e+00 
 1.34114e+01  3.19792e+00 -2.48162e+00 
 1.39451e+01  3.22290e+00 -2.55577e+00 
 1.44917e+01  3.23340e+00 -2.63064e+00 
 1.50526e+01  3.22708e+00 -2.70519e+00 
 1.56291e+01  3.20143e+00 -2.77798e+00 
 1.62224e+01  3.15330e+00 -2.84701e+00 
 1.68337e+01  3.07934e+00 -2.90957e+00 
 1.74643e+01  2.97552e+00 -2.96193e+00 
 1.81144e+01  2.83765e+00 -2.99904e+00 
 1.87840e+01  2.66120e+00 -3.01410e+00 
 1.94708e+01  2.44215e+00 -2.99802e+00 
 2.01702e+01  2.17753e+00 -2.93900e+00 
 2.08724e+01  1.86739e+00 -2.82209e+00 
 2.15602e+01  1.51727e+00 -2.62979e+00 
 2.22029e+01  1.14281e+00 -2.34462e+00 
 2.27515e+01  7.73531e-01 -1.95566e+00 
 2.31347e+01  4.59781e-01 -1.48215e+00 
 2.32542e+01  2.16048e-01 -9.66582e-01 
 2.31673e+01  6.72337e-02 -4.59938e-01 
 2.28233e+01  1.18427e-01 -2.43374e-01 
-2.21932e+01 -3.78088e-02 -1.56937e-01 
-2.23158e+01 -4.10585e-02 -3.09169e-01 
-2.23404e+01 -1.17220e-01 -6.47757e-01 
-2.22134e+01 -2.53323e-01 -1.01900e+00 
-2.19532e+01 -4.44069e-01 -1.38553e+00 
-2.15665e+01 -6.73553e-01 -1.72114e+00 
-2.10846e+01 -9.27759e-01 -2.00878e+00 
-2.05377e+01 -1.18776e+00 -2.24018e+00 
-1.99513e+01 -1.43867e+00 -2.41676e+00 
-1.93435e+01 -1.67056e+00 -2.54432e+00 
-1.87274e+01 -1.87775e+00 -2.63052e+00 
-1.81115e+01 -2.05783e+00 -2.68293e+00 
-1.75012e+01 -2.21035e+00 -2.70849e+00 
-1.68999e+01 -2.33630e+00 -2.71307e+00 
-1.63094e+01 -2.43724e+00 -2.70157e+00 
-1.57306e+01 -2.51523e+00 -2.67790e+00 
-1.51638e+01 -2.57228e+00 -2.64524e+00 
-1.46088e+01 -2.61053e+00 -2.60608e+00 
-1.40653e+01 -2.63182e+00 -2.56239e+00 
-1.35326e+01 -2.63806e+00 -2.51571e+00 
-1.30103e+01 -2.63076e+00 -2.46723e+00 
-1.24976e+01 -2.61149e+00 -2.41789e+00 
-1.19941e+01 -2.58146e+00 -2.36841e+00 
-1.14989e+01 -2.54193e+00 -2.31936e+00 
-1.10117e+01 -2.49381e+00 -2.27116e+00 
-1.05316e+01 -2.43814e+00 -2.22414e+00 
-1.00584e+01 -2.37560e+00 -2.17855e+00 
-9.59139e+00 -2.30702e+00 -2.13457e+00 
-9.13023e+00 -2.23293e+00 -2.09234e+00 
-8.67437e+00 -2.15400e+00 -2.05195e+00 
-8.22353e+00 -2.07062e+00 -2.01349e+00 
-7.77722e+00 -1.98335e+00 -1.97699e+00 
-7.33520e+00 -1.89248e+00 -1.94248e+00 
-6.89702e+00 -1.79849e+00 -1.90997e+00 
-6.46249e+00 -1.70158e+00 -1.87948e+00 
-6.03120e+00 -1.60217e+00 -1.85100e+00 
-5.60297e+00 -1.50040e+00 -1.82451e+00 
-5.17746e+00 -1.39664e+00 -1.80002e+00 
-4.75449e+00 -1.29099e+00 -1.77749e+00 
-4.33375e+00 -1.18377e+00 -1.75692e+00 
-3.91509e+00 -1.07505e+00 -1.73829e+00 
-3.49820e+00 -9.65117e-01 -1.72157e+00 
-3.08297e+00 -8.54025e-01 -1.70676e+00 
-2.66910e+00 -7.42036e-01 -1.69384e+00 
-2.25648e+00 -6.29181e-01 -1.68280e+00 
-1.84483e+00 -5.15708e-01 -1.67361e+00 
-1.43404e+00 -4.01637e-01 -1.66628e+00 
-1.02385e+00 -2.87204e-01 -1.66078e+00 
-6.14149e-01 -1.72419e-01 -1.65712e+00 
-2.04678e-01 -5.75128e-02 -1.65530e+00 
 2.04678e-01  5.75128e-02 -1.65530e+00 
 6.14149e-01  1.72419e-01 -1.65712e+00 
 1.02385e+00  2.87204e-01 -1.66078e+00 
 1.43404e+00  4.01637e-01 -1.66628e+00 
 1.84483e+00  5.15708e-01 -1.67361e+00 
 2.25648e+00  6.29181e-01 -1.68280e+00 
 2.66910e+00  7.42036e-01 -1.69384e+00 
 3.08297e+00  8.54025e-01 -1.70676e+00 
 3.49820e+00  9.65117e-01 -1.72157e+00 
 3.91509e+00  1.07505e+00 -1.73829e+00 
 4.33375e+00  1.18377e+00 -1.75692e+00 
 4.75449e+00  1.29099e+00 -1.77749e+00 
 5.17746e+00  1.39664e+00 -1.80002e+00 
 5.60297e+00  1.50040e+00 -1.82451e+00 
 6.03120e+00  1.60217e+00 -1.85100e+00 
 6.46249e+00  1.70158e+00 -1.87948e+00 
 6.89702e+00  1.79849e+00 -1.90997e+00 
 7.33520e+00  1.89248e+00 -1.94248e+00 
 7.77722e+00  1.98335e+00 -1.97699e+00 
 8.22353e+00  2.07062e+00 -2.01349e+00 
 8.67437e+00  2.15400e+00 -2.05195e+00 
 9.13023e+00  2.23293e+00 -2.09234e+00 
 9.59139e+00  2.30702e+00 -2.13457e+00 
 1.00584e+01  2.37560e+00 -2.17855e+00 
 1.05316e+01  2.43814e+00 -2.22414e+00 
 1.10117e+01  2.49381e+00 -2.27116e+00 
 1.14989e+01  2.54193e+00 -2.31936e+00 
 1.19941e+01  2.58146e+00 -2.36841e+00 
 1.24976e+01  2.61149e+00 -2.41789e+00 
 1.30103e+01  2.63076e+00 -2.46723e+00 
 1.35326e+01  2.63806e+00 -2.51571e+00 
 1.40653e+01  2.63182e+00 -2.56239e+00 
 1.46088e+01  2.61053e+00 -2.60608e+00 
 1.51638e+01  2.57228e+00 -2.64524e+00 
 1.57306e+01  2.51523e+00 -2.67790e+00 
 1.63094e+01  2.43724e+00 -2.70157e+00 
 1.68999e+01  2.33630e+00 -2.71307e+00 
 1.75012e+01  2.21035e+00 -2.70849e+00 
 1.81115e+01  2.05783e+00 -2.68293e+00 
 1.87274e+01  1.87775e+00 -2.63052e+00 
 1.93435e+01  1.67056e+00 -2.54432e+00 
 1.99513e+01  1.43867e+00 -2.41676e+00 
 2.05377e+01  1.18776e+00 -2.24018e+00 
 2.10846e+01  9.27759e-01 -2.00878e+00 
 2.15665e+01  6.73553e-01 -1.72114e+00 
 2.19532e+01  4.44069e-01 -1.38553e+00 
 2.22134e+01  2.53323e-01 -1.01900e+00 
 2.23404e+01  1.17220e-01 -6.47757e-01 
 2.23158e+01  4.10585e-02 -3.09169e-01 
 2.21932e+01  3.78088e-02 -1.56937e-01 
-2.17507e+01 -1.40448e-02 -1.13113e-01 
-2.17520e+01 -2.23889e-02 -2.21838e-01 
-2.16854e+01 -6.83963e-02 -4.70279e-01 
-2.15372e+01 -1.49957e-01 -7.46633e-01 
-2.12997e+01 -2.66788e-01 -1.03271e+00 
-2.09794e+01 -4.14778e-01 -1.31101e+00 
-2.05855e+01 -5.85462e-01 -1.56823e+00 
-2.01322e+01 -7.69920e-01 -1.79554e+00 
-1.96346e+01 -9.58673e-01 -1.98861e+00 
-1.91061e+01 -1.14364e+00 -2.14679e+00 
-1.85578e+01 -1.31860e+00 -2.27215e+00 
-1.79983e+01 -1.47937e+00 -2.36796e+00 
-1.74341e+01 -1.62335e+00 -2.43817e+00 
-1.68698e+01 -1.74937e+00 -2.48664e+00 
-1.63086e+01 -1.85703e+00 -2.51706e+00 
-1.57527e+01 -1.94674e+00 -2.53268e+00 
-1.52036e+01 -2.01914e+00 -2.53635e+00 
-1.46619e+01 -2.07532e+00 -2.53046e+00 
-1.41283e+01 -2.11627e+00 -2.51707e+00 
-1.36027e+01 -2.14325e+00 -2.49785e+00 
-1.30853e+01 -2.15729e+00 -2.47420e+00 
-1.25757e+01 -2.15959e+00 -2.44726e+00 
-1.20738e+01 -2.15109e+00 -2.41798e+00 
-1.15791e+01 -2.13287e+00 -2.38712e+00 
-1.10914e+01 -2.10570e+00 -2.35531e+00 
-1.06102e+01 -2.07052e+00 -2.32306e+00 
-1.01352e+01 -2.02797e+00 -2.29078e+00 
-9.66606e+00 -1.97883e+00 -2.25880e+00 
-9.20239e+00 -1.92363e+00 -2.22739e+00 
-8.74375e+00 -1.86302e+00 -2.19677e+00 
-8.28993e+00 -1.79741e+00 -2.16712e+00 
-7.84048e+00 -1.72738e+00 -2.13857e+00 
-7.39520e+00 -1.65324e+00 -2.11123e+00 
-6.95368e+00 -1.57548e+00 -2.08519e+00 
-6.51574e+00 -1.49436e+00 -2.06053e+00 
-6.08101e+00 -1.41029e+00 -2.03729e+00 
-5.64932e+00 -1.32347e+00 -2.01551e+00 
-5.22033e+00 -1.23427e+00 -1.99523e+00 
-4.79388e+00 -1.14285e+00 -1.97647e+00 
-4.36966e+00 -1.04953e+00 -1.95925e+00 
-3.94753e+00 -9.54438e-01 -1.94358e+00 
-3.52719e+00 -8.57876e-01 -1.92947e+00 
-3.10851e+00 -7.59927e-01 -1.91692e+00 
-2.69120e+00 -6.60881e-01 -1.90593e+00 
-2.27516e+00 -5.60800e-01 -1.89652e+00 
-1.86009e+00 -4.59955e-01 -1.88867e+00 
-1.44590e+00 -3.58395e-01 -1.88240e+00 
-1.03231e+00 -2.56380e-01 -1.87769e+00 
-6.19227e-01 -1.53951e-01 -1.87456e+00 
-2.06369e-01 -5.13606e-02 -1.87299e+00 
 2.06369e-01  5.13606e-02 -1.87299e+00 
 6.19227e-01  1.53951e-01 -1.87456e+00 
 1.03231e+00  2.56380e-01 -1.87769e+00 
 1.44590e+00  3.58395e-01 -1.88240e+00 
 1.86009e+00  4.59955e-01 -1.88867e+00 
 2.27516e+00  5.60800e-01 -1.89652e+00 
 2.69120e+00  6.60881e-01 -1.90593e+00 
 3.10851e+00  7.59927e-01 -1.91692e+00 
 3.52719e+00  8.57876e-01 -1.92947e+00 
 3.94753e+00  9.54438e-01 -1.94358e+00 
 4.36966e+00  1.04953e+00 -1.95925e+00 
 4.79388e+00  1.14285e+00 -1.97647e+00 
 5.22033e+00  1.23427e+00 -1.99523e+00 
 5.64932e+00  1.32347e+00 -2.01551e+00 
 6.08101e+00  1.41029e+00 -2.03729e+00 
 6.51574e+00  1.49436e+00 -2.06053e+00 
 6.95368e+00  1.57548e+00 -2.08519e+00 
 7.39520e+00  1.65324e+00 -2.11123e+00 
 7.84048e+00  1.72738e+00 -2.13857e+00 
 8.28993e+00  1.79741e+00 -2.16712e+00 
 8.74375e+00  1.86302e+00 -2.19677e+00 
 9.20239e+00  1.92363e+00 -2.22739e+00 
 9.66606e+00  1.97883e+00 -2.25880e+00 
 1.01352e+01  2.02797e+00 -2.29078e+00 
 1.06102e+01  2.07052e+00 -2.32306e+00 
 1.10914e+01  2.10570e+00 -2.35531e+00 
 1.15791e+01  2.13287e+00 -2.38712e+00 
 1.20738e+01  2.15109e+00 -2.41798e+00 
 1.25757e+01  2.15959e+00 -2.44726e+00 
 1.30853e+01  2.15729e+00 -2.47420e+00 
 1.36027e+01  2.14325e+00 -2.49785e+00 
 1.41283e+01  2.11627e+00 -2.51707e+00 
 1.46619e+01  2.07532e+00 -2.53046e+00 
 1.52036e+01  2.01914e+00 -2.53635e+00 
 1.57527e+01  1.94674e+00 -2.53268e+00 
 1.63086e+01  1.85703e+00 -2.51706e+00 
 1.68698e+01  1.74937e+00 -2.48664e+00 
 1.74341e+01  1.62335e+00 -2.43817e+00 
 1.79983e+01  1.47937e+00 -2.36796e+00 
 1.85578e+01  1.31860e+00 -2.27215e+00 
 1.91061e+01  1.14364e+00 -2.14679e+00 
 1.96346e+01  9.58673e-01 -1.98861e+00 
 2.01322e+01  7.69920e-01 -1.79554e+00 
 2.05855e+01  5.85462e-01 -1.56823e+00 
 2.09794e+01  4.14778e-01 -1.31101e+00 
 2.12997e+01  2.66788e-01 -1.03271e+00 
 2.15372e+01  1.49957e-01 -7.46633e-01 
 2.16854e+01  6.83963e-02 -4.70279e-01 
 2.17520e+01  2.23889e-02 -2.21838e-01 
 2.17507e+01  1.40448e-02 -1.13113e-01 
-2.14217e+01  5.92278e-03 -8.72470e-02 
-2.13338e+01 -1.36046e-02 -1.71684e-01 
-2.12004e+01 -4.13154e-02 -3.63735e-01 
-2.10152e+01 -9.19784e-02 -5.79989e-01 
-2.07737e+01 -1.66406e-01 -8.08940e-01 
-2.04751e+01 -2.63083e-01 -1.03980e+00 
-2.01232e+01 -3.78625e-01 -1.26317e+00 
-1.97240e+01 -5.08104e-01 -1.47160e+00 
-1.92855e+01 -6.46052e-01 -1.66015e+00 
-1.88156e+01 -7.87089e-01 -1.82596e+00 
-1.83225e+01 -9.26332e-01 -1.96827e+00 
-1.78128e+01 -1.05988e+00 -2.08759e+00 
-1.72923e+01 -1.18468e+00 -2.18547e+00 
-1.67656e+01 -1.29873e+00 -2.26386e+00 
-1.62363e+01 -1.40063e+00 -2.32504e+00 
-1.57070e+01 -1.48977e+00 -2.37122e+00 
-1.51799e+01 -1.56585e+00 -2.40456e+00 
-1.46562e+01 -1.62908e+00 -2.42700e+00 
-1.41371e+01 -1.67974e+00 -2.44034e+00 
-1.36231e+01 -1.71845e+00 -2.44610e+00 
-1.31148e+01 -1.74575e+00 -2.44566e+00 
-1.26123e+01 -1.76242e+00 -2.44016e+00 
-1.21157e+01 -1.76906e+00 -2.43063e+00 
-1.16249e+01 -1.76647e+00 -2.41791e+00 
-1.11400e+01 -1.75524e+00 -2.40271e+00 
-1.06605e+01 -1.73613e+00 -2.38566e+00 
-1.01864e+01 -1.70966e+00 -2.36727e+00 
-9.71746e+00 -1.67652e+00 -2.34797e+00 
-9.25344e+00 -1.63716e+00 -2.32813e+00 
-8.79398e+00 -1.59220e+00 -2.30806e+00 
-8.33896e+00 -1.54200e+00 -2.28801e+00 
-7.88799e+00 -1.48711e+00 -2.26821e+00 
-7.44094e+00 -1.42784e+00 -2.24882e+00 
-6.99743e+00 -1.36468e+00 -2.23000e+00 
-6.55734e+00 -1.29788e+00 -2.21188e+00 
-6.12031e+00 -1.22786e+00 -2.19457e+00 
-5.68621e+00 -1.15482e+00 -2.17815e+00 
-5.25471e+00 -1.07916e+00 -2.16269e+00 
-4.82569e+00 -1.00104e+00 -2.14825e+00 
-4.39883e+00 -9.20812e-01 -2.13489e+00 
-3.97403e+00 -8.38600e-01 -2.12264e+00 
-3.55096e+00 -7.54732e-01 -2.11154e+00 
-3.12954e+00 -6.69314e-01 -2.10162e+00 
-2.70946e+00 -5.82649e-01 -2.09289e+00 
-2.29063e+00 -4.94822e-01 -2.08539e+00 
-1.87276e+00 -4.06120e-01 -2.07911e+00 
-1.45577e+00 -3.16617e-01 -2.07408e+00 
-1.03936e+00 -2.26588e-01 -2.07030e+00 
-6.23461e-01 -1.36096e-01 -2.06777e+00 
-2.07780e-01 -4.54115e-02 -2.06651e+00 
 2.07780e-01  4.54115e-02 -2.06651e+00 
 6.23461e-01  1.36096e-01 -2.06777e+00 
 1.03936e+00  2.26588e-01 -2.07030e+00 
 1.45577e+00  3.16617e-01 -2.07408e+00 
 1.87276e+00  4.06120e-01 -2.07911e+00 
 2.29063e+00  4.94822e-01 -2.08539e+00 
 2.70946e+00  5.82649e-01 -2.09289e+00 
 3.12954e+00  6.69314e-01 -2.10162e+00 
 3.55096e+00  7.54732e-01 -2.11154e+00 
 3.97403e+00  8.38600e-01 -2.12264e+00 
 4.39883e+00  9.20812e-01 -2.13489e+00 
 4.82569e+00  1.00104e+00 -2.14825e+00 
 5.25471e+00  1.07916e+00 -2.16269e+00 
 5.68621e+00  1.15482e+00 -2.17815e+00 
 6.12031e+00  1.22786e+00 -2.19457e+00 
 6.55734e+00  1.29788e+00 -2.21188e+00 
 6.99743e+00  1.36468e+00 -2.23000e+00 
 7.44094e+00  1.42784e+00 -2.24882e+00 
 7.88799e+00  1.48711e+00 -2.26821e+00 
 8.33896e+00  1.54200e+00 -2.28801e+00 
 8.79398e+00  1.59220e+00 -2.30806e+00 
 9.25344e+00  1.63716e+00 -2.32813e+00 
 9.71746e+00  1.67652e+00 -2.34797e+00 
 1.01864e+01  1.70966e+00 -2.36727e+00 
 1.06605e+01  1.73613e+00 -2.38566e+00 
 1.11400e+01  1.75524e+00 -2.40271e+00 
 1.16249e+01  1.76647e+00 -2.41791e+00 
 1.21157e+01  1.76906e+00 -2.43063e+00 
 1.26123e+01  1.76242e+00 -2.44016e+00 
 1.31148e+01  1.74575e+00 -2.44566e+00 
 1.36231e+01  1.71845e+00 -2.44610e+00 
 1.41371e+01  1.67974e+00 -2.44034e+00 
 1.46562e+01  1.62908e+00 -2.42700e+00 
 1.51799e+01  1.56585e+00 -2.40456e+00 
 1.57070e+01  1.48977e+00 -2.37122e+00 
 1.62363e+01  1.40063e+00 -2.32504e+00 
 1.67656e+01  1.29873e+00 -2.26386e+00 
 1.72923e+01  1.18468e+00 -2.18547e+00 
 1.78128e+01  1.05988e+00 -2.08759e+00 
 1.83225e+01  9.26332e-01 -1.96827e+00 
 1.88156e+01  7.87089e-01 -1.82596e+00 
 1.92855e+01  6.46052e-01 -1.66015e+00 
 1.97240e+01  5.08104e-01 -1.47160e+00 
 2.01232e+01  3.78625e-01 -1.26317e+00 
 2.04751e+01  2.63083e-01 -1.03980e+00 
 2.07737e+01  1.66406e-01 -8.08940e-01 
 2.10152e+01  9.19784e-02 -5.79989e-01 
 2.12004e+01  4.13154e-02 -3.63735e-01 
 2.13338e+01  1.36046e-02 -1.71684e-01 
 2.14217e+01 -5.92278e-03 -8.72470e-02 
-2.11562e+01  1.85308e-02 -7.18339e-02 
-2.10046e+01 -8.23619e-03 -1.40968e-01 
-2.08181e+01 -2.55583e-02 -2.97966e-01 
-2.05986e+01 -5.77272e-02 -4.74583e-01 
-2.03419e+01 -1.05979e-01 -6.63837e-01 
-2.00461e+01 -1.70218e-01 -8.58601e-01 
-1.97118e+01 -2.48936e-01 -1.05242e+00 
-1.93414e+01 -3.39723e-01 -1.23962e+00 
-1.89390e+01 -4.39400e-01 -1.41586e+00 
-1.85090e+01 -5.44608e-01 -1.57798e+00 
-1.80567e+01 -6.51937e-01 -1.72418e+00 
-1.75865e+01 -7.58370e-01 -1.85361e+00 
-1.71032e+01 -8.61228e-01 -1.96637e+00 
-1.66102e+01 -9.58460e-01 -2.06307e+00 
-1.61112e+01 -1.04840e+00 -2.14481e+00 
-1.56085e+01 -1.12997e+00 -2.21284e+00 
-1.51045e+01 -1.20238e+00 -2.26858e+00 
-1.46007e+01 -1.26527e+00 -2.31338e+00 
-1.40985e+01 -1.31844e+00 -2.34863e+00 
-1.35989e+01 -1.36202e+00 -2.37556e+00 
-1.31026e+01 -1.39613e+00 -2.39536e+00 
-1.26099e+01 -1.42116e+00 -2.40904e+00 
-1.21215e+01 -1.43743e+00 -2.41758e+00 
-1.16373e+01 -1.44543e+00 -2.42177e+00 
-1.11577e+01 -1.44556e+00 -2.42236e+00 
-1.06823e+01 -1.43836e+00 -2.41999e+00 
-1.02115e+01 -1.42422e+00 -2.41521e+00 
-9.74484e+00 -1.40368e+00 -2.40850e+00 
-9.28246e+00 -1.37711e+00 -2.40028e+00 
-8.82403e+00 -1.34503e+00 -2.39092e+00 
-8.36952e+00 -1.30776e+00 -2.38073e+00 
-7.91863e+00 -1.26578e+00 -2.36996e+00 
-7.47128e+00 -1.21938e+00 -2.35887e+00 
-7.02716e+00 -1.16900e+00 -2.34765e+00 
-6.58618e+00 -1.11488e+00 -2.33646e+00 
-6.14804e+00 -1.05743e+00 -2.32546e+00 
-5.71264e+00 -9.96843e-01 -2.31477e+00 
-5.27967e+00 -9.33505e-01 -2.30449e+00 
-4.84905e+00 -8.67580e-01 -2.29473e+00 
-4.42046e+00 -7.99419e-01 -2.28556e+00 
-3.99384e+00 -7.29160e-01 -2.27705e+00 
-3.56887e+00 -6.57133e-01 -2.26924e+00 
-3.14548e+00 -5.83454e-01 -2.26221e+00 
-2.72337e+00 -5.08432e-01 -2.25597e+00 
-2.30248e+00 -4.32168e-01 -2.25056e+00 
-1.88250e+00 -3.54956e-01 -2.24602e+00 
-1.46337e+00 -2.76885e-01 -2.24236e+00 
-1.04481e+00 -1.98241e-01 -2.23961e+00 
-6.26734e-01 -1.19102e-01 -2.23776e+00 
-2.08871e-01 -3.97482e-02 -2.23684e+00 
 2.08871e-01  3.97482e-02 -2.23684e+00 
 6.26734e-01  1.19102e-01 -2.23776e+00 
 1.04481e+00  1.98241e-01 -2.23961e+00 
 1.46337e+00  2.76885e-01 -2.24236e+00 
 1.88250e+00  3.54956e-01 -2.24602e+00 
 2.30248e+00  4.32168e-01 -2.25056e+00 
 2.72337e+00  5.08432e-01 -2.25597e+00 
 3.14548e+00  5.83454e-01 -2.26221e+00 
 3.56887e+00  6.57133e-01 -2.26924e+00 
 3.99384e+00  7.29160e-01 -2.27705e+00 
 4.42046e+00  7.99419e-01 -2.28556e+00 
 4.84905e+00  8.67580e-01 -2.29473e+00 
 5.27967e+00  9.33505e-01 -2.30449e+00 
 5.71264e+00  9.96843e-01 -2.31477e+00 
 6.14804e+00  1.05743e+00 -2.32546e+00 
 6.58618e+00  1.11488e+00 -2.33646e+00 
 7.02716e+00  1.16900e+00 -2.34765e+00 
 7.47128e+00  1.21938e+00 -2.35887e+00 
 7.91863e+00  1.26578e+00 -2.36996e+00 
 8.36952e+00  1.30776e+00 -2.38073e+00 
 8.82403e+00  1.34503e+00 -2.39092e+00 
 9.28246e+00  1.37711e+00 -2.40028e+00 
 9.74484e+00  1.40368e+00 -2.40850e+00 
 1.02115e+01  1.42422e+00 -2.41521e+00 
 1.06823e+01  1.43836e+00 -2.41999e+00 
 1.11577e+01  1.44556e+00 -2.42236e+00 
 1.16373e+01  1.44543e+00 -2.42177e+00 
 1.21215e+01  1.43743e+00 -2.41758e+00 
 1.26099e+01  1.42116e+00 -2.40904e+00 
 1.31026e+01  1.39613e+00 -2.39536e+00 
 1.35989e+01  1.36202e+00 -2.37556e+00 
 1.40985e+01  1.31844e+00 -2.34863e+00 
 1.46007e+01  1.26527e+00 -2.31338e+00 
 1.51045e+01  1.20238e+00 -2.26858e+00 
 1.56085e+01  1.12997e+00 -2.21284e+00 
 1.61112e+01  1.04840e+00 -2.14481e+00 
 1.66102e+01  9.58460e-01 -2.06307e+00 
 1.71032e+01  8.61228e-01 -1.96637e+00 
 1.75865e+01  7.58370e-01 -1.85361e+00 
 1.80567e+01  6.51937e-01 -1.72418e+00 
 1.85090e+01  5.44608e-01 -1.57798e+00 
 1.89390e+01  4.39400e-01 -1.41586e+00 
 1.93414e+01  3.39723e-01 -1.23962e+00 
 1.97118e+01  2.48936e-01 -1.05242e+00 
 2.00461e+01  1.70218e-01 -8.58601e-01 
 2.03419e+01  1.05979e-01 -6.63837e-01 
 2.05986e+01  5.77272e-02 -4.74583e-01 
 2.08181e+01  2.55583e-02 -2.97966e-01 
 2.10046e+01  8.23619e-03 -1.40968e-01 
 2.11562e+01 -1.85308e-02 -7.18339e-02 
-2.09286e+01  2.76471e-02 -6.23855e-02 
-2.07297e+01 -5.02476e-03 -1.21975e-01 
-2.05019e+01 -1.58611e-02 -2.56460e-01 
-2.02526e+01 -3.64973e-02 -4.06746e-01 
-1.99783e+01 -6.81191e-02 -5.68303e-01 
-1.96768e+01 -1.11145e-01 -7.36393e-01 
-1.93477e+01 -1.65066e-01 -9.06528e-01 
-1.89915e+01 -2.28728e-01 -1.07451e+00 
-1.86102e+01 -3.00349e-01 -1.23687e+00 
-1.82060e+01 -3.77898e-01 -1.39075e+00 
-1.77821e+01 -4.59100e-01 -1.53419e+00 
-1.73416e+01 -5.41812e-01 -1.66582e+00 
-1.68875e+01 -6.23936e-01 -1.78504e+00 
-1.64228e+01 -7.03734e-01 -1.89166e+00 
-1.59502e+01 -7.79631e-01 -1.98599e+00 
-1.54719e+01 -8.50483e-01 -2.06854e+00 
-1.49899e+01 -9.15294e-01 -2.14011e+00 
-1.45059e+01 -9.73473e-01 -2.20153e+00 
-1.40213e+01 -1.02451e+00 -2.25374e+00 
-1.35370e+01 -1.06822e+00 -2.29763e+00 
-1.30541e+01 -1.10445e+00 -2.33414e+00 
-1.25730e+01 -1.13331e+00 -2.36409e+00 
-1.20946e+01 -1.15483e+00 -2.38830e+00 
-1.16189e+01 -1.16931e+00 -2.40749e+00 
-1.11464e+01 -1.17691e+00 -2.42233e+00 
-1.06771e+01 -1.17801e+00 -2.43343e+00 
-1.02113e+01 -1.17284e+00 -2.44134e+00 
-9.74875e+00 -1.16182e+00 -2.44652e+00 
-9.28970e+00 -1.14519e+00 -2.44943e+00 
-8.83393e+00 -1.12338e+00 -2.45043e+00 
-8.38148e+00 -1.09663e+00 -2.44987e+00 
-7.93212e+00 -1.06536e+00 -2.44804e+00 
-7.48585e+00 -1.02980e+00 -2.44521e+00 
-7.04241e+00 -9.90356e-01 -2.44160e+00 
-6.60179e+00 -9.47220e-01 -2.43742e+00 
-6.16369e+00 -9.00777e-01 -2.43283e+00 
-5.72808e+00 -8.51207e-01 -2.42801e+00 
-5.29468e+00 -7.98869e-01 -2.42307e+00 
-4.86344e+00 -7.43921e-01 -2.41814e+00 
-4.43406e+00 -6.86702e-01 -2.41332e+00 
-4.00651e+00 -6.27347e-01 -2.40870e+00 
-3.58049e+00 -5.66181e-01 -2.40434e+00 
-3.15595e+00 -5.03322e-01 -2.40033e+00 
-2.73261e+00 -4.39078e-01 -2.39670e+00 
-2.31040e+00 -3.73555e-01 -2.39352e+00 
-1.88906e+00 -3.07050e-01 -2.39080e+00 
-1.46852e+00 -2.39657e-01 -2.38860e+00 
-1.04851e+00 -1.71665e-01 -2.38693e+00 
-6.28965e-01 -1.03164e-01 -2.38580e+00 
-2.09616e-01 -3.44361e-02 -2.38524e+00 
 2.09616e-01  3.44361e-02 -2.38524e+00 
 6.28965e-01  1.03164e-01 -2.38580e+00 
 1.04851e+00  1.71665e-01 -2.38693e+00 
 1.46852e+00  2.39657e-01 -2.38860e+00 
 1.88906e+00  3.07050e-01 -2.39080e+00 
 2.31040e+00  3.73555e-01 -2.39352e+00 
 2.73261e+00  4.39078e-01 -2.39670e+00 
 3.15595e+00  5.03322e-01 -2.40033e+00 
 3.58049e+00  5.66181e-01 -2.40434e+00 
 4.00651e+00  6.27347e-01 -2.40870e+00 
 4.43406e+00  6.86702e-01 -2.41332e+00 
 4.86344e+00  7.43921e-01 -2.41814e+00 
 5.29468e+00  7.98869e-01 -2.42307e+00 
 5.72808e+00  8.51207e-01 -2.42801e+00 
 6.16369e+00  9.00777e-01 -2.43283e+00 
 6.60179e+00  9.47220e-01 -2.43742e+00 
 7.04241e+00  9.90356e-01 -2.44160e+00 
 7.48585e+00  1.02980e+00 -2.44521e+00 
 7.93212e+00  1.06536e+00 -2.44804e+00 
 8.38148e+00  1.09663e+00 -2.44987e+00 
 8.83393e+00  1.12338e+00 -2.45043e+00 
 9.28970e+00  1.14519e+00 -2.44943e+00 
 9.74875e+00  1.16182e+00 -2.44652e+00 
 1.02113e+01  1.17284e+00 -2.44134e+00 
 1.06771e+01  1.17801e+00 -2.43343e+00 
 1.11464e+01  1.17691e+00 -2.42233e+00 
 1.16189e+01  1.16931e+00 -2.40749e+00 
 1.20946e+01  1.15483e+00 -2.38830e+00 
 1.25730e+01  1.13331e+00 -2.36409e+00 
 1.30541e+01  1.10445e+00 -2.33414e+00 
 1.35370e+01  1.06822e+00 -2.29763e+00 
 1.40213e+01  1.02451e+00 -2.25374e+00 
 1.45059e+01  9.73473e-01 -2.20153e+00 
 1.49899e+01  9.15294e-01 -2.14011e+00 
 1.54719e+01  8.50483e-01 -2.06854e+00 
 1.59502e+01  7.79631e-01 -1.98599e+00 
 1.64228e+01  7.03734e-01 -1.89166e+00 
 1.68875e+01  6.23936e-01 -1.78504e+00 
 1.73416e+01  5.41812e-01 -1.66582e+00 
 1.77821e+01  4.59100e-01 -1.53419e+00 
 1.82060e+01  3.77898e-01 -1.39075e+00 
 1.86102e+01  3.00349e-01 -1.23687e+00 
 1.89915e+01  2.28728e-01 -1.07451e+00 
 1.93477e+01  1.65066e-01 -9.06528e-01 
 1.96768e+01  1.11145e-01 -7.36393e-01 
 1.99783e+01  6.81191e-02 -5.68303e-01 
 2.02526e+01  3.64973e-02 -4.06746e-01 
 2.05019e+01  1.58611e-02 -2.56460e-01 
 2.07297e+01  5.02476e-03 -1.21975e-01 
 2.09286e+01 -2.76471e-02 -6.23855e-02 
-2.07233e+01  3.42412e-02 -5.66295e-02 
-2.04888e+01 -2.98493e-03 -1.10187e-01 
-2.02287e+01 -9.69815e-03 -2.30175e-01 
-1.99545e+01 -2.28884e-02 -3.62770e-01 
-1.96634e+01 -4.36085e-02 -5.04986e-01 
-1.93532e+01 -7.24667e-02 -6.53579e-01 
-1.90231e+01 -1.09411e-01 -8.05407e-01 
-1.86729e+01 -1.53981e-01 -9.57377e-01 
-1.83032e+01 -2.05198e-01 -1.10682e+00 
-1.79151e+01 -2.61878e-01 -1.25136e+00 
-1.75106e+01 -3.22542e-01 -1.38919e+00 
-1.70914e+01 -3.85736e-01 -1.51887e+00 
-1.66597e+01 -4.49909e-01 -1.63950e+00 
-1.62175e+01 -5.13713e-01 -1.75052e+00 
-1.57669e+01 -5.75819e-01 -1.85176e+00 
-1.53096e+01 -6.35195e-01 -1.94328e+00 
-1.48475e+01 -6.90856e-01 -2.02539e+00 
-1.43818e+01 -7.42142e-01 -2.09852e+00 
-1.39139e+01 -7.88417e-01 -2.16323e+00 
-1.34449e+01 -8.29350e-01 -2.22011e+00 
-1.29757e+01 -8.64597e-01 -2.26982e+00 
-1.25070e+01 -8.94081e-01 -2.31297e+00 
-1.20394e+01 -9.17670e-01 -2.35023e+00 
-1.15733e+01 -9.35470e-01 -2.38216e+00 
-1.11092e+01 -9.47489e-01 -2.40935e+00 
-1.06472e+01 -9.53951e-01 -2.43233e+00 
-1.01877e+01 -9.54950e-01 -2.45159e+00 
-9.73071e+00 -9.50781e-01 -2.46758e+00 
-9.27635e+00 -9.41585e-01 -2.48072e+00 
-8.82456e+00 -9.27694e-01 -2.49136e+00 
-8.37547e+00 -9.09270e-01 -2.49986e+00 
-7.92890e+00 -8.86659e-01 -2.50652e+00 
-7.48493e+00 -8.60028e-01 -2.51160e+00 
-7.04335e+00 -8.29726e-01 -2.51534e+00 
-6.60420e+00 -7.95913e-01 -2.51797e+00 
-6.16723e+00 -7.58931e-01 -2.51967e+00 
-5.73245e+00 -7.18932e-01 -2.52063e+00 
-5.29961e+00 -6.76246e-01 -2.52098e+00 
-4.86870e+00 -6.31013e-01 -2.52086e+00 
-4.43946e+00 -5.83551e-01 -2.52039e+00 
-4.01186e+00 -5.33988e-01 -2.51967e+00 
-3.58565e+00 -4.82632e-01 -2.51880e+00 
-3.16078e+00 -4.29598e-01 -2.51784e+00 
-2.73700e+00 -3.75184e-01 -2.51686e+00 
-2.31427e+00 -3.19495e-01 -2.51593e+00 
-1.89233e+00 -2.62822e-01 -2.51508e+00 
-1.47112e+00 -2.05261e-01 -2.51436e+00 
-1.05040e+00 -1.47098e-01 -2.51379e+00 
-6.30112e-01 -8.84252e-02 -2.51340e+00 
-2.10000e-01 -2.95227e-02 -2.51320e+00 
 2.10000e-01  2.95227e-02 -2.51320e+00 
 6.30112e-01  8.84252e-02 -2.51340e+00 
 1.05040e+00  1.47098e-01 -2.51379e+00 
 1.47112e+00  2.05261e-01 -2.51436e+00 
 1.89233e+00  2.62822e-01 -2.51508e+00 
 2.31427e+00  3.19495e-01 -2.51593e+00 
 2.73700e+00  3.75184e-01 -2.51686e+00 
 3.16078e+00  4.29598e-01 -2.51784e+00 
 3.58565e+00  4.82632e-01 -2.51880e+00 
 4.01186e+00  5.33988e-01 -2.51967e+00 
 4.43946e+00  5.83551e-01 -2.52039e+00 
 4.86870e+00  6.31013e-01 -2.52086e+00 
 5.29961e+00  6.76246e-01 -2.52098e+00 
 5.73245e+00  7.18932e-01 -2.52063e+00 
 6.16723e+00  7.58931e-01 -2.51967e+00 
 6.60420e+00  7.95913e-01 -2.51797e+00 
 7.04335e+00  8.29726e-01 -2.51534e+00 
 7.48493e+00  8.60028e-01 -2.51160e+00 
 7.92890e+00  8.86659e-01 -2.50652e+00 
 8.37547e+00  9.09270e-01 -2.49986e+00 
 8.82456e+00  9.27694e-01 -2.49136e+00 
 9.27635e+00  9.41585e-01 -2.48072e+00 
 9.73071e+00  9.50781e-01 -2.46758e+00 
 1.01877e+01  9.54950e-01 -2.45159e+00 
 1.06472e+01  9.53951e-01 -2.43233e+00 
 1.11092e+01  9.47489e-01 -2.40935e+00 
 1.15733e+01  9.35470e-01 -2.38216e+00 
 1.20394e+01  9.17670e-01 -2.35023e+00 
 1.25070e+01  8.94081e-01 -2.31297e+00 
 1.29757e+01  8.64597e-01 -2.26982e+00 
 1.34449e+01  8.29350e-01 -2.22011e+00 
 1.39139e+01  7.88417e-01 -2.16323e+00 
 1.43818e+01  7.42142e-01 -2.09852e+00 
 1.48475e+01  6.90856e-01 -2.02539e+00 
 1.53096e+01  6.35195e-01 -1.94328e+00 
 1.57669e+01  5.75819e-01 -1.85176e+00 
 1.62175e+01  5.13713e-01 -1.75052e+00 
 1.66597e+01  4.49909e-01 -1.63950e+00 
 1.70914e+01  3.85736e-01 -1.51887e+00 
 1.75106e+01  3.22542e-01 -1.38919e+00 
 1.79151e+01  2.61878e-01 -1.25136e+00 
 1.83032e+01  2.05198e-01 -1.10682e+00 
 1.86729e+01  1.53981e-01 -9.57377e-01 
 1.90231e+01  1.09411e-01 -8.05407e-01 
 1.93532e+01  7.24667e-02 -6.53579e-01 
 1.96634e+01  4.36085e-02 -5.04986e-01 
 1.99545e+01  2.28884e-02 -3.62770e-01 
 2.02287e+01  9.69815e-03 -2.30175e-01 
 2.04888e+01  2.98493e-03 -1.10187e-01 
 2.07233e+01 -3.42412e-02 -5.66295e-02 
-2.05306e+01  3.91330e-02 -5.32147e-02 
-2.02690e+01 -1.66707e-03 -1.03024e-01 
-1.99837e+01 -5.67798e-03 -2.13720e-01 
-1.96892e+01 -1.39447e-02 -3.34426e-01 
-1.93831e+01 -2.73593e-02 -4.63123e-01 
-1.90637e+01 -4.65681e-02 -5.97554e-01 
-1.87299e+01 -7.17320e-02 -7.35491e-01 
-1.83810e+01 -1.02760e-01 -8.74656e-01 
-1.80173e+01 -1.39141e-01 -1.01302e+00 
-1.76392e+01 -1.80223e-01 -1.14867e+00 
-1.72475e+01 -2.25058e-01 -1.28007e+00 
-1.68434e+01 -2.72698e-01 -1.40589e+00 
-1.64284e+01 -3.22028e-01 -1.52519e+00 
-1.60037e+01 -3.72062e-01 -1.63723e+00 
-1.55708e+01 -4.21739e-01 -1.74164e+00 
-1.51311e+01 -4.70209e-01 -1.83818e+00 
-1.46861e+01 -5.16595e-01 -1.92687e+00 
-1.42367e+01 -5.60275e-01 -2.00783e+00 
-1.37843e+01 -6.00599e-01 -2.08137e+00 
-1.33296e+01 -6.37182e-01 -2.14780e+00 
-1.28737e+01 -6.69597e-01 -2.20755e+00 
-1.24172e+01 -6.97664e-01 -2.26105e+00 
-1.19607e+01 -7.21140e-01 -2.30878e+00 
-1.15046e+01 -7.40011e-01 -2.35117e+00 
-1.10496e+01 -7.54171e-01 -2.38870e+00 
-1.05957e+01 -7.63727e-01 -2.42180e+00 
-1.01435e+01 -7.68669e-01 -2.45090e+00 
-9.69288e+00 -7.69187e-01 -2.47637e+00 
-9.24420e+00 -7.65332e-01 -2.49861e+00 
-8.79741e+00 -7.57350e-01 -2.51794e+00 
-8.35270e+00 -7.45329e-01 -2.53469e+00 
-7.90996e+00 -7.29544e-01 -2.54914e+00 
-7.46932e+00 -7.10105e-01 -2.56155e+00 
-7.03061e+00 -6.87304e-01 -2.57217e+00 
-6.59391e+00 -6.61258e-01 -2.58122e+00 
-6.15904e+00 -6.32265e-01 -2.58889e+00 
-5.72603e+00 -6.00444e-01 -2.59536e+00 
-5.29468e+00 -5.66092e-01 -2.60079e+00 
-4.86499e+00 -5.29325e-01 -2.60531e+00 
-4.43675e+00 -4.90437e-01 -2.60906e+00 
-4.00996e+00 -4.49538e-01 -2.61215e+00 
-3.58437e+00 -4.06917e-01 -2.61467e+00 
-3.15999e+00 -3.62678e-01 -2.61670e+00 
-2.73656e+00 -3.17106e-01 -2.61833e+00 
-2.31407e+00 -2.70298e-01 -2.61962e+00 
-1.89228e+00 -2.22533e-01 -2.62061e+00 
-1.47116e+00 -1.73905e-01 -2.62135e+00 
-1.05046e+00 -1.24689e-01 -2.62188e+00 
-6.30167e-01 -7.49759e-02 -2.62222e+00 
-2.10020e-01 -2.50383e-02 -2.62239e+00 
 2.10020e-01  2.50383e-02 -2.62239e+00 
 6.30167e-01  7.49759e-02 -2.62222e+00 
 1.05046e+00  1.24689e-01 -2.62188e+00 
 1.47116e+00  1.73905e-01 -2.62135e+00 
 1.89228e+00  2.22533e-01 -2.62061e+00 
 2.31407e+00  2.70298e-01 -2.61962e+00 
 2.73656e+00  3.17106e-01 -2.61833e+00 
 3.15999e+00  3.62678e-01 -2.61670e+00 
 3.58437e+00  4.06917e-01 -2.61467e+00 
 4.00996e+00  4.49538e-01 -2.61215e+00 
 4.43675e+00  4.90437e-01 -2.60906e+00 
 4.86499e+00  5.29325e-01 -2.60531e+00 
 5.29468e+00  5.66092e-01 -2.60079e+00 
 5.72603e+00  6.00444e-01 -2.59536e+00 
 6.15904e+00  6.32265e-01 -2.58889e+00 
 6.59391e+00  6.61258e-01 -2.58122e+00 
 7.03061e+00  6.87304e-01 -2.57217e+00 
 7.46932e+00  7.10105e-01 -2.56155e+00 
 7.90996e+00  7.29544e-01 -2.54914e+00 
 8.35270e+00  7.45329e-01 -2.53469e+00 
 8.79741e+00  7.57350e-01 -2.51794e+00 
 9.24420e+00  7.65332e-01 -2.49861e+00 
 9.69288e+00  7.69187e-01 -2.47637e+00 
 1.01435e+01  7.68669e-01 -2.45090e+00 
 1.05957e+01  7.63727e-01 -2.42180e+00 
 1.10496e+01  7.54171e-01 -2.38870e+00 
 1.15046e+01  7.40011e-01 -2.35117e+00 
 1.19607e+01  7.21140e-01 -2.30878e+00 
 1.24172e+01  6.97664e-01 -2.26105e+00 
 1.28737e+01  6.69597e-01 -2.20755e+00 
 1.33296e+01  6.37182e-01 -2.14780e+00 
 1.37843e+01  6.00599e-01 -2.08137e+00 
 1.42367e+01  5.60275e-01 -2.00783e+00 
 1.46861e+01  5.16595e-01 -1.92687e+00 
 1.51311e+01  4.70209e-01 -1.83818e+00 
 1.55708e+01  4.21739e-01 -1.74164e+00 
 1.60037e+01  3.72062e-01 -1.63723e+00 
 1.64284e+01  3.22028e-01 -1.52519e+00 
 1.68434e+01  2.72698e-01 -1.40589e+00 
 1.72475e+01  2.25058e-01 -1.28007e+00 
 1.76392e+01  1.80223e-01 -1.14867e+00 
 1.80173e+01  1.39141e-01 -1.01302e+00 
 1.83810e+01  1.02760e-01 -8.74656e-01 
 1.87299e+01  7.17320e-02 -7.35491e-01 
 1.90637e+01  4.65681e-02 -5.97554e-01 
 1.93831e+01  2.73593e-02 -4.63123e-01 
 1.96892e+01  1.39447e-02 -3.34426e-01 
 1.99837e+01  5.67798e-03 -2.13720e-01 
 2.02690e+01  1.66707e-03 -1.03024e-01 
 2.05306e+01 -3.91330e-02 -5.32147e-02 
-2.03445e+01  4.27924e-02 -5.13249e-02 
-2.00622e+01 -8.00574e-04 -9.88887e-02 
-1.97571e+01 -3.01386e-03 -2.03769e-01 
-1.94462e+01 -7.96759e-03 -3.16542e-01 
-1.91275e+01 -1.64045e-02 -4.35827e-01 
-1.87993e+01 -2.89462e-02 -5.60026e-01 
-1.84608e+01 -4.58392e-02 -6.87547e-01 
-1.81112e+01 -6.71893e-02 -8.16701e-01 
-1.77502e+01 -9.27562e-02 -9.45955e-01 
-1.73779e+01 -1.22218e-01 -1.07379e+00 
-1.69948e+01 -1.54976e-01 -1.19896e+00 
-1.66014e+01 -1.90438e-01 -1.32030e+00 
-1.61987e+01 -2.27818e-01 -1.43692e+00 
-1.57874e+01 -2.66421e-01 -1.54809e+00 
-1.53686e+01 -3.05428e-01 -1.65331e+00 
-1.49434e+01 -3.44182e-01 -1.75222e+00 
-1.45127e+01 -3.81944e-01 -1.84468e+00 
-1.40775e+01 -4.18178e-01 -1.93060e+00 
-1.36388e+01 -4.52283e-01 -2.01009e+00 
-1.31972e+01 -4.83882e-01 -2.08328e+00 
-1.27537e+01 -5.12528e-01 -2.15042e+00 
-1.23088e+01 -5.38002e-01 -2.21176e+00 
-1.18631e+01 -5.60001e-01 -2.26764e+00 
-1.14171e+01 -5.78443e-01 -2.31837e+00 
-1.09713e+01 -5.93147e-01 -2.36431e+00 
-1.05259e+01 -6.04142e-01 -2.40578e+00 
-1.00813e+01 -6.11340e-01 -2.44315e+00 
-9.63775e+00 -6.14852e-01 -2.47673e+00 
-9.19541e+00 -6.14660e-01 -2.50683e+00 
-8.75435e+00 -6.10934e-01 -2.53376e+00 
-8.31480e+00 -6.03701e-01 -2.55781e+00 
-7.87669e+00 -5.93175e-01 -2.57922e+00 
-7.44018e+00 -5.79411e-01 -2.59826e+00 
-7.00517e+00 -5.62649e-01 -2.61513e+00 
-6.57177e+00 -5.42964e-01 -2.63007e+00 
-6.13983e+00 -5.20609e-01 -2.64324e+00 
-5.70942e+00 -4.95670e-01 -2.65483e+00 
-5.28036e+00 -4.68410e-01 -2.66500e+00 
-4.85272e+00 -4.38917e-01 -2.67388e+00 
-4.42627e+00 -4.07458e-01 -2.68161e+00 
-4.00107e+00 -3.74122e-01 -2.68830e+00 
-3.57688e+00 -3.39176e-01 -2.69404e+00 
-3.15374e+00 -3.02708e-01 -2.69894e+00 
-2.73141e+00 -2.64985e-01 -2.70306e+00 
-2.30991e+00 -2.26093e-01 -2.70647e+00 
-1.88900e+00 -1.86297e-01 -2.70923e+00 
-1.46869e+00 -1.45680e-01 -2.71139e+00 
-1.04874e+00 -1.04507e-01 -2.71297e+00 
-6.29152e-01 -6.28580e-02 -2.71401e+00 
-2.09685e-01 -2.09970e-02 -2.71453e+00 
 2.09685e-01  2.09970e-02 -2.71453e+00 
 6.29152e-01  6.28580e-02 -2.71401e+00 
 1.04874e+00  1.04507e-01 -2.71297e+00 
 1.46869e+00  1.45680e-01 -2.71139e+00 
 1.88900e+00  1.86297e-01 -2.70923e+00 
 2.30991e+00  2.26093e-01 -2.70647e+00 
 2.73141e+00  2.64985e-01 -2.70306e+00 
 3.15374e+00  3.02708e-01 -2.69894e+00 
 3.57688e+00  3.39176e-01 -2.69404e+00 
 4.00107e+00  3.74122e-01 -2.68830e+00 
 4.42627e+00  4.07458e-01 -2.68161e+00 
 4.85272e+00  4.38917e-01 -2.67388e+00 
 5.28036e+00  4.68410e-01 -2.66500e+00 
 5.70942e+00  4.95670e-01 -2.65483e+00 
 6.13983e+00  5.20609e-01 -2.64324e+00 
 6.57177e+00  5.42964e-01 -2.63007e+00 
 7.00517e+00  5.62649e-01 -2.61513e+00 
 7.44018e+00  5.79411e-01 -2.59826e+00 
 7.87669e+00  5.93175e-01 -2.57922e+00 
 8.31480e+00  6.03701e-01 -2.55781e+00 
 8.75435e+00  6.10934e-01 -2.53376e+00 
 9.19541e+00  6.14660e-01 -2.50683e+00 
 9.63775e+00  6.14852e-01 -2.47673e+00 
 1.00813e+01  6.11340e-01 -2.44315e+00 
 1.05259e+01  6.04142e-01 -2.40578e+00 
 1.09713e+01  5.93147e-01 -2.36431e+00 
 1.14171e+01  5.78443e-01 -2.31837e+00 
 1.18631e+01  5.60001e-01 -2.26764e+00 
 1.23088e+01  5.38002e-01 -2.21176e+00 
 1.27537e+01  5.12528e-01 -2.15042e+00 
 1.31972e+01  4.83882e-01 -2.08328e+00 
 1.36388e+01  4.52283e-01 -2.01009e+00 
 1.40775e+01  4.18178e-01 -1.93060e+00 
 1.45127e+01  3.81944e-01 -1.84468e+00 
 1.49434e+01  3.44182e-01 -1.75222e+00 
 1.53686e+01  3.05428e-01 -1.65331e+00 
 1.57874e+01  2.66421e-01 -1.54809e+00 
 1.61987e+01  2.27818e-01 -1.43692e+00 
 1.66014e+01  1.90438e-01 -1.32030e+00 
 1.69948e+01  1.54976e-01 -1.19896e+00 
 1.73779e+01  1.22218e-01 -1.07379e+00 
 1.77502e+01  9.27562e-02 -9.45955e-01 
 1.81112e+01  6.71893e-02 -8.16701e-01 
 1.84608e+01  4.58392e-02 -6.87547e-01 
 1.87993e+01  2.89462e-02 -5.60026e-01 
 1.91275e+01  1.64045e-02 -4.35827e-01 
 1.94462e+01  7.96759e-03 -3.16542e-01 
 1.97571e+01  3.01386e-03 -2.03769e-01 
 2.00622e+01  8.00574e-04 -9.88887e-02 
 2.03445e+01 -4.27924e-02 -5.13249e-02 
-2.01610e+01  4.55411e-02 -5.04413e-02 
-1.98628e+01 -2.27906e-04 -9.67678e-02 
-1.95424e+01 -1.23417e-03 -1.98184e-01 
-1.92184e+01 -3.93539e-03 -3.05765e-01 
-1.88892e+01 -8.94407e-03 -4.18561e-01 
-1.85535e+01 -1.68320e-02 -5.35423e-01 
-1.82102e+01 -2.78691e-02 -6.55207e-01 
-1.78588e+01 -4.22610e-02 -7.76653e-01 
-1.74987e+01 -5.99224e-02 -8.98604e-01 
-1.71299e+01 -8.07352e-02 -1.01987e+00 
-1.67525e+01 -1.04330e-01 -1.13944e+00 
-1.63667e+01 -1.30357e-01 -1.25634e+00 
-1.59730e+01 -1.58268e-01 -1.36980e+00 
-1.55720e+01 -1.87595e-01 -1.47911e+00 
-1.51645e+01 -2.17718e-01 -1.58378e+00 
-1.47510e+01 -2.48151e-01 -1.68338e+00 
-1.43323e+01 -2.78290e-01 -1.77768e+00 
-1.39092e+01 -3.07704e-01 -1.86650e+00 
-1.34825e+01 -3.35866e-01 -1.94980e+00 
-1.30526e+01 -3.62439e-01 -2.02758e+00 
-1.26204e+01 -3.86999e-01 -2.09996e+00 
-1.21862e+01 -4.09320e-01 -2.16707e+00 
-1.17508e+01 -4.29086e-01 -2.22913e+00 
-1.13145e+01 -4.46179e-01 -2.28632e+00 
-1.08778e+01 -4.60380e-01 -2.33892e+00 
-1.04409e+01 -4.71667e-01 -2.38715e+00 
-1.00042e+01 -4.79903e-01 -2.43130e+00 
-9.56789e+00 -4.85142e-01 -2.47162e+00 
-9.13229e+00 -4.87314e-01 -2.50836e+00 
-8.69743e+00 -4.86534e-01 -2.54178e+00 
-8.26356e+00 -4.82778e-01 -2.57212e+00 
-7.83066e+00 -4.76207e-01 -2.59961e+00 
-7.39892e+00 -4.66833e-01 -2.62447e+00 
-6.96827e+00 -4.54849e-01 -2.64690e+00 
-6.53884e+00 -4.40290e-01 -2.66709e+00 
-6.11051e+00 -4.23371e-01 -2.68522e+00 
-5.68340e+00 -4.04144e-01 -2.70146e+00 
-5.25736e+00 -3.82837e-01 -2.71594e+00 
-4.83246e+00 -3.59512e-01 -2.72882e+00 
-4.40852e+00 -3.34407e-01 -2.74021e+00 
-3.98561e+00 -3.07590e-01 -2.75022e+00 
-3.56353e+00 -2.79304e-01 -2.75896e+00 
-3.14233e+00 -2.49618e-01 -2.76652e+00 
-2.72181e+00 -2.18779e-01 -2.77296e+00 
-2.30199e+00 -1.86857e-01 -2.77837e+00 
-1.88265e+00 -1.54102e-01 -2.78279e+00 
-1.46384e+00 -1.20583e-01 -2.78627e+00 
-1.04532e+00 -8.65491e-02 -2.78884e+00 
-6.27117e-01 -5.20721e-02 -2.79055e+00 
-2.09009e-01 -1.73991e-02 -2.79139e+00 
 2.09009e-01  1.73991e-02 -2.79139e+00 
 6.27117e-01  5.20721e-02 -2.79055e+00 
 1.04532e+00  8.65491e-02 -2.78884e+00 
 1.46384e+00  1.20583e-01 -2.78627e+00 
 1.88265e+00  1.54102e-01 -2.78279e+00 
 2.30199e+00  1.86857e-01 -2.77837e+00 
 2.72181e+00  2.18779e-01 -2.77296e+00 
 3.14233e+00  2.49618e-01 -2.76652e+00 
 3.56353e+00  2.79304e-01 -2.75896e+00 
 3.98561e+00  3.07590e-01 -2.75022e+00 
 4.40852e+00  3.34407e-01 -2.74021e+00 
 4.83246e+00  3.59512e-01 -2.72882e+00 
 5.25736e+00  3.82837e-01 -2.71594e+00 
 5.68340e+00  4.04144e-01 -2.70146e+00 
 6.11051e+00  4.23371e-01 -2.68522e+00 
 6.53884e+00  4.40290e-01 -2.66709e+00 
 6.96827e+00  4.54849e-01 -2.64690e+00 
 7.39892e+00  4.66833e-01 -2.62447e+00 
 7.83066e+00  4.76207e-01 -2.59961e+00 
 8.26356e+00  4.82778e-01 -2.57212e+00 
 8.69743e+00  4.86534e-01 -2.54178e+00 
 9.13229e+00  4.87314e-01 -2.50836e+00 
 9.56789e+00  4.85142e-01 -2.47162e+00 
 1.00042e+01  4.79903e-01 -2.43130e+00 
 1.04409e+01  4.71667e-01 -2.38715e+00 
 1.08778e+01  4.60380e-01 -2.33892e+00 
 1.13145e+01  4.46179e-01 -2.28632e+00 
 1.17508e+01  4.29086e-01 -2.22913e+00 
 1.21862e+01  4.09320e-01 -2.16707e+00 
 1.26204e+01  3.86999e-01 -2.09996e+00 
 1.30526e+01  3.62439e-01 -2.02758e+00 
 1.34825e+01  3.35866e-01 -1.94980e+00 
 1.39092e+01  3.07704e-01 -1.86650e+00 
 1.43323e+01  2.78290e-01 -1.77768e+00 
 1.47510e+01  2.48151e-01 -1.68338e+00 
 1.51645e+01  2.17718e-01 -1.58378e+00 
 1.55720e+01  1.87595e-01 -1.47911e+00 
 1.59730e+01  1.58268e-01 -1.36980e+00 
 1.63667e+01  1.30357e-01 -1.25634e+00 
 1.67525e+01  1.04330e-01 -1.13944e+00 
 1.71299e+01  8.07352e-02 -1.01987e+00 
 1.74987e+01  5.99224e-02 -8.98604e-01 
 1.78588e+01  4.22610e-02 -7.76653e-01 
 1.82102e+01  2.78691e-02 -6.55207e-01 
 1.85535e+01  1.68320e-02 -5.35423e-01 
 1.88892e+01  8.94407e-03 -4.18561e-01 
 1.92184e+01  3.93539e-03 -3.05765e-01 
 1.95424e+01  1.23417e-03 -1.98184e-01 
 1.98628e+01  2.27906e-04 -9.67678e-02 
 2.01610e+01 -4.55411e-02 -5.04413e-02 
-1.99775e+01  4.75991e-02 -5.02249e-02 
-1.96672e+01  1.49088e-04 -9.59941e-02 
-1.93350e+01 -4.62569e-05 -1.95552e-01 
-1.90008e+01 -1.21023e-03 -2.99860e-01 
-1.86631e+01 -3.84532e-03 -4.08262e-01 
-1.83210e+01 -8.46683e-03 -5.19923e-01 
-1.79735e+01 -1.53367e-02 -6.34020e-01 
-1.76200e+01 -2.47067e-02 -7.49603e-01 
-1.72600e+01 -3.65779e-02 -8.65803e-01 
-1.68932e+01 -5.09573e-02 -9.81687e-01 
-1.65197e+01 -6.76226e-02 -1.09646e+00 
-1.61393e+01 -8.63908e-02 -1.20929e+00 
-1.57526e+01 -1.06882e-01 -1.31955e+00 
-1.53596e+01 -1.28796e-01 -1.42660e+00 
-1.49609e+01 -1.51670e-01 -1.52998e+00 
-1.45570e+01 -1.75158e-01 -1.62925e+00 
-1.41484e+01 -1.98779e-01 -1.72415e+00 
-1.37355e+01 -2.22203e-01 -1.81443e+00 
-1.33191e+01 -2.44980e-01 -1.89999e+00 
-1.28995e+01 -2.66832e-01 -1.98074e+00 
-1.24775e+01 -2.87373e-01 -2.05671e+00 
-1.20532e+01 -3.06399e-01 -2.12793e+00 
-1.16274e+01 -3.23600e-01 -2.19453e+00 
-1.12002e+01 -3.38851e-01 -2.25661e+00 
-1.07722e+01 -3.51917e-01 -2.31435e+00 
-1.03436e+01 -3.62750e-01 -2.36790e+00 
-9.91474e+00 -3.71185e-01 -2.41749e+00 
-9.48580e+00 -3.77241e-01 -2.46328e+00 
-9.05711e+00 -3.80810e-01 -2.50550e+00 
-8.62870e+00 -3.81968e-01 -2.54433e+00 
-8.20086e+00 -3.80653e-01 -2.57999e+00 
-7.77357e+00 -3.76986e-01 -2.61266e+00 
-7.34705e+00 -3.70942e-01 -2.64253e+00 
-6.92124e+00 -3.62674e-01 -2.66977e+00 
-6.49631e+00 -3.52186e-01 -2.69457e+00 
-6.07216e+00 -3.39655e-01 -2.71706e+00 
-5.64893e+00 -3.25106e-01 -2.73741e+00 
-5.22648e+00 -3.08735e-01 -2.75574e+00 
-4.80493e+00 -2.90577e-01 -2.77220e+00 
-4.38412e+00 -2.70844e-01 -2.78688e+00 
-3.96413e+00 -2.49579e-01 -2.79991e+00 
-3.54479e+00 -2.27002e-01 -2.81137e+00 
-3.12617e+00 -2.03165e-01 -2.82135e+00 
-2.70808e+00 -1.78292e-01 -2.82991e+00 
-2.29057e+00 -1.52437e-01 -2.83714e+00 
-1.87345e+00 -1.25830e-01 -2.84308e+00 
-1.45676e+00 -9.85267e-02 -2.84778e+00 
-1.04031e+00 -7.07582e-02 -2.85127e+00 
-6.24130e-01 -4.25837e-02 -2.85358e+00 
-2.08016e-01 -1.42335e-02 -2.85474e+00 
 2.08016e-01  1.42335e-02 -2.85474e+00 
 6.24130e-01  4.25837e-02 -2.85358e+00 
 1.04031e+00  7.07582e-02 -2.85127e+00 
 1.45676e+00  9.85267e-02 -2.84778e+00 
 1.87345e+00  1.25830e-01 -2.84308e+00 
 2.29057e+00  1.52437e-01 -2.83714e+00 
 2.70808e+00  1.78292e-01 -2.82991e+00 
 3.12617e+00  2.03165e-01 -2.82135e+00 
 3.54479e+00  2.27002e-01 -2.81137e+00 
 3.96413e+00  2.49579e-01 -2.79991e+00 
 4.38412e+00  2.70844e-01 -2.78688e+00 
 4.80493e+00  2.90577e-01 -2.77220e+00 
 5.22648e+00  3.08735e-01 -2.75574e+00 
 5.64893e+00  3.25106e-01 -2.73741e+00 
 6.07216e+00  3.39655e-01 -2.71706e+00 
 6.49631e+00  3.52186e-01 -2.69457e+00 
 6.92124e+00  3.62674e-01 -2.66977e+00 
 7.34705e+00  3.70942e-01 -2.64253e+00 
 7.77357e+00  3.76986e-01 -2.61266e+00 
 8.20086e+00  3.80653e-01 -2.57999e+00 
 8.62870e+00  3.81968e-01 -2.54433e+00 
 9.05711e+00  3.80810e-01 -2.50550e+00 
 9.48580e+00  3.77241e-01 -2.46328e+00 
 9.91474e+00  3.71185e-01 -2.41749e+00 
 1.03436e+01  3.62750e-01 -2.36790e+00 
 1.07722e+01  3.51917e-01 -2.31435e+00 
 1.12002e+01  3.38851e-01 -2.25661e+00 
 1.16274e+01  3.23600e-01 -2.19453e+00 
 1.20532e+01  3.06399e-01 -2.12793e+00 
 1.24775e+01  2.87373e-01 -2.05671e+00 
 1.28995e+01  2.66832e-01 -1.98074e+00 
 1.33191e+01  2.44980e-01 -1.89999e+00 
 1.37355e+01  2.22203e-01 -1.81443e+00 
 1.41484e+01  1.98779e-01 -1.72415e+00 
 1.45570e+01  1.75158e-01 -1.62925e+00 
 1.49609e+01  1.51670e-01 -1.52998e+00 
 1.53596e+01  1.28796e-01 -1.42660e+00 
 1.57526e+01  1.06882e-01 -1.31955e+00 
 1.61393e+01  8.63908e-02 -1.20929e+00 
 1.65197e+01  6.76226e-02 -1.09646e+00 
 1.68932e+01  5.09573e-02 -9.81687e-01 
 1.72600e+01  3.65779e-02 -8.65803e-01 
 1.76200e+01  2.47067e-02 -7.49603e-01 
 1.79735e+01  1.53367e-02 -6.34020e-01 
 1.83210e+01  8.46683e-03 -5.19923e-01 
 1.86631e+01  3.84532e-03 -4.08262e-01 
 1.90008e+01  1.21023e-03 -2.99860e-01 
 1.93350e+01  4.62569e-05 -1.95552e-01 
 1.96672e+01 -1.49088e-04 -9.59941e-02 
 1.99775e+01 -4.75991e-02 -5.02249e-02 
-1.97924e+01  4.91233e-02 -5.04485e-02 
-1.94730e+01  3.93097e-04 -9.61190e-02 
-1.91319e+01  7.37879e-04 -1.94921e-01 
-1.87897e+01  6.19179e-04 -2.97305e-01 
-1.84455e+01 -3.73733e-04 -4.02821e-01 
-1.80982e+01 -2.70069e-03 -5.10860e-01 
-1.77472e+01 -6.60121e-03 -6.20828e-01 
-1.73917e+01 -1.23434e-02 -7.32005e-01 
-1.70315e+01 -1.99734e-02 -8.43740e-01 
-1.66660e+01 -2.95737e-02 -9.55299e-01 
-1.62952e+01 -4.10163e-02 -1.06606e+00 
-1.59189e+01 -5.42301e-02 -1.17534e+00 
-1.55375e+01 -6.89539e-02 -1.28262e+00 
-1.51508e+01 -8.50101e-02 -1.38733e+00 
-1.47593e+01 -1.02054e-01 -1.48908e+00 
-1.43633e+01 -1.19854e-01 -1.58744e+00 
-1.39630e+01 -1.38029e-01 -1.68216e+00 
-1.35589e+01 -1.56338e-01 -1.77295e+00 
-1.31515e+01 -1.74408e-01 -1.85969e+00 
-1.27410e+01 -1.92019e-01 -1.94222e+00 
-1.23280e+01 -2.08833e-01 -2.02053e+00 
-1.19127e+01 -2.24677e-01 -2.09457e+00 
-1.14956e+01 -2.39261e-01 -2.16441e+00 
-1.10770e+01 -2.52471e-01 -2.23007e+00 
-1.06573e+01 -2.64072e-01 -2.29169e+00 
-1.02366e+01 -2.74008e-01 -2.34934e+00 
-9.81544e+00 -2.82100e-01 -2.40318e+00 
-9.39378e+00 -2.88346e-01 -2.45333e+00 
-8.97200e+00 -2.92618e-01 -2.49997e+00 
-8.55015e+00 -2.94962e-01 -2.54323e+00 
-8.12851e+00 -2.95293e-01 -2.58328e+00 
-7.70707e+00 -2.93700e-01 -2.62027e+00 
-7.28607e+00 -2.90130e-01 -2.65436e+00 
-6.86546e+00 -2.84705e-01 -2.68570e+00 
-6.44543e+00 -2.77403e-01 -2.71443e+00 
-6.02589e+00 -2.68371e-01 -2.74069e+00 
-5.60700e+00 -2.57606e-01 -2.76461e+00 
-5.18864e+00 -2.45277e-01 -2.78630e+00 
-4.77095e+00 -2.31398e-01 -2.80590e+00 
-4.35378e+00 -2.16152e-01 -2.82349e+00 
-3.93725e+00 -1.99564e-01 -2.83919e+00 
-3.52120e+00 -1.81829e-01 -2.85306e+00 
-3.10570e+00 -1.62979e-01 -2.86520e+00 
-2.69061e+00 -1.43217e-01 -2.87567e+00 
-2.27598e+00 -1.22583e-01 -2.88453e+00 
-1.86164e+00 -1.01284e-01 -2.89184e+00 
-1.44766e+00 -7.93626e-02 -2.89763e+00 
-1.03386e+00 -5.70299e-02 -2.90195e+00 
-6.20274e-01 -3.43315e-02 -2.90481e+00 
-2.06733e-01 -1.14797e-02 -2.90624e+00 
 2.06733e-01  1.14797e-02 -2.90624e+00 
 6.20274e-01  3.43315e-02 -2.90481e+00 
 1.03386e+00  5.70299e-02 -2.90195e+00 
 1.44766e+00  7.93626e-02 -2.89763e+00 
 1.86164e+00  1.01284e-01 -2.89184e+00 
 2.27598e+00  1.22583e-01 -2.88453e+00 
 2.69061e+00  1.43217e-01 -2.87567e+00 
 3.10570e+00  1.62979e-01 -2.86520e+00 
 3.52120e+00  1.81829e-01 -2.85306e+00 
 3.93725e+00  1.99564e-01 -2.83919e+00 
 4.35378e+00  2.16152e-01 -2.82349e+00 
 4.77095e+00  2.31398e-01 -2.80590e+00 
 5.18864e+00  2.45277e-01 -2.78630e+00 
 5.60700e+00  2.57606e-01 -2.76461e+00 
 6.02589e+00  2.68371e-01 -2.74069e+00 
 6.44543e+00  2.77403e-01 -2.71443e+00 
 6.86546e+00  2.84705e-01 -2.68570e+00 
 7.28607e+00  2.90130e-01 -2.65436e+00 
 7.70707e+00  2.93700e-01 -2.62027e+00 
 8.12851e+00  2.95293e-01 -2.58328e+00 
 8.55015e+00  2.94962e-01 -2.54323e+00 
 8.97200e+00  2.92618e-01 -2.49997e+00 
 9.39378e+00  2.88346e-01 -2.45333e+00 
 9.81544e+00  2.82100e-01 -2.40318e+00 
 1.02366e+01  2.74008e-01 -2.34934e+00 
 1.06573e+01  2.64072e-01 -2.29169e+00 
 1.10770e+01  2.52471e-01 -2.23007e+00 
 1.14956e+01  2.39261e-01 -2.16441e+00 
 1.19127e+01  2.24677e-01 -2.09457e+00 
 1.23280e+01  2.08833e-01 -2.02053e+00 
 1.27410e+01  1.92019e-01 -1.94222e+00 
 1.31515e+01  1.74408e-01 -1.85969e+00 
 1.35589e+01  1.56338e-01 -1.77295e+00 
 1.39630e+01  1.38029e-01 -1.68216e+00 
 1.43633e+01  1.19854e-01 -1.58744e+00 
 1.47593e+01  1.02054e-01 -1.48908e+00 
 1.51508e+01  8.50101e-02 -1.38733e+00 
 1.55375e+01  6.89539e-02 -1.28262e+00 
 1.59189e+01  5.42301e-02 -1.17534e+00 
 1.62952e+01  4.10163e-02 -1.06606e+00 
 1.66660e+01  2.95737e-02 -9.55299e-01 
 1.70315e+01  1.99734e-02 -8.43740e-01 
 1.73917e+01  1.23434e-02 -7.32005e-01 
 1.77472e+01  6.60121e-03 -6.20828e-01 
 1.80982e+01  2.70069e-03 -5.10860e-01 
 1.84455e+01  3.73733e-04 -4.02821e-01 
 1.87897e+01 -6.19179e-04 -2.97305e-01 
 1.91319e+01 -7.37879e-04 -1.94921e-01 
 1.94730e+01 -3.93097e-04 -9.61190e-02 
 1.97924e+01 -4.91233e-02 -5.04485e-02 
-1.96046e+01  5.02285e-02 -5.09568e-02 
-1.92785e+01  5.45451e-04 -9.68349e-02 
-1.89307e+01  1.24242e-03 -1.95630e-01 
-1.85826e+01  1.82542e-03 -2.97040e-01 
-1.82334e+01  1.95988e-03 -4.00761e-01 
-1.78822e+01  1.23715e-03 -5.06346e-01 
-1.75284e+01 -5.54174e-04 -6.13367e-01 
-1.71715e+01 -3.68182e-03 -7.21279e-01 
-1.68109e+01 -8.21276e-03 -8.29591e-01 
-1.64464e+01 -1.42733e-02 -9.37728e-01 
-1.60777e+01 -2.17952e-02 -1.04520e+00 
-1.57047e+01 -3.07816e-02 -1.15147e+00 
-1.53275e+01 -4.10538e-02 -1.25608e+00 
-1.49460e+01 -5.25226e-02 -1.35858e+00 
-1.45605e+01 -6.49326e-02 -1.45860e+00 
-1.41710e+01 -7.81379e-02 -1.55577e+00 
-1.37778e+01 -9.18418e-02 -1.64984e+00 
-1.33812e+01 -1.05876e-01 -1.74054e+00 
-1.29816e+01 -1.19934e-01 -1.82771e+00 
-1.25791e+01 -1.33853e-01 -1.91119e+00 
-1.21742e+01 -1.47341e-01 -1.99091e+00 
-1.17670e+01 -1.60261e-01 -2.06679e+00 
-1.13580e+01 -1.72353e-01 -2.13885e+00 
-1.09473e+01 -1.83517e-01 -2.20707e+00 
-1.05354e+01 -1.93531e-01 -2.27153e+00 
-1.01223e+01 -2.02341e-01 -2.33225e+00 
-9.70843e+00 -2.09766e-01 -2.38935e+00 
-9.29385e+00 -2.15795e-01 -2.44289e+00 
-8.87890e+00 -2.20289e-01 -2.49302e+00 
-8.46359e+00 -2.23278e-01 -2.53982e+00 
-8.04821e+00 -2.24660e-01 -2.58343e+00 
-7.63276e+00 -2.24500e-01 -2.62395e+00 
-7.21746e+00 -2.22728e-01 -2.66153e+00 
-6.80229e+00 -2.19442e-01 -2.69628e+00 
-6.38743e+00 -2.14597e-01 -2.72832e+00 
-5.97282e+00 -2.08317e-01 -2.75775e+00 
-5.55862e+00 -2.00577e-01 -2.78471e+00 
-5.14474e+00 -1.91523e-01 -2.80929e+00 
-4.73132e+00 -1.81146e-01 -2.83159e+00 
-4.31824e+00 -1.69609e-01 -2.85170e+00 
-3.90561e+00 -1.56916e-01 -2.86970e+00 
-3.49331e+00 -1.43240e-01 -2.88568e+00 
-3.08142e+00 -1.28597e-01 -2.89971e+00 
-2.66981e+00 -1.13168e-01 -2.91185e+00 
-2.25857e+00 -9.69767e-02 -2.92215e+00 
-1.84752e+00 -8.02101e-02 -2.93066e+00 
-1.43676e+00 -6.28964e-02 -2.93742e+00 
-1.02610e+00 -4.52274e-02 -2.94246e+00 
-6.15640e-01 -2.72342e-02 -2.94581e+00 
-2.05191e-01 -9.11082e-03 -2.94749e+00 
 2.05191e-01  9.11082e-03 -2.94749e+00 
 6.15640e-01  2.72342e-02 -2.94581e+00 
 1.02610e+00  4.52274e-02 -2.94246e+00 
 1.43676e+00  6.28964e-02 -2.93742e+00 
 1.84752e+00  8.02101e-02 -2.93066e+00 
 2.25857e+00  9.69767e-02 -2.92215e+00 
 2.66981e+00  1.13168e-01 -2.91185e+00 
 3.08142e+00  1.28597e-01 -2.89971e+00 
 3.49331e+00  1.43240e-01 -2.88568e+00 
 3.90561e+00  1.56916e-01 -2.86970e+00 
 4.31824e+00  1.69609e-01 -2.85170e+00 
 4.73132e+00  1.81146e-01 -2.83159e+00 
 5.14474e+00  1.91523e-01 -2.80929e+00 
 5.55862e+00  2.00577e-01 -2.78471e+00 
 5.97282e+00  2.08317e-01 -2.75775e+00 
 6.38743e+00  2.14597e-01 -2.72832e+00 
 6.80229e+00  2.19442e-01 -2.69628e+00 
 7.21746e+00  2.22728e-01 -2.66153e+00 
 7.63276e+00  2.24500e-01 -2.62395e+00 
 8.04821e+00  2.24660e-01 -2.58343e+00 
 8.46359e+00  2.23278e-01 -2.53982e+00 
 8.87890e+00  2.20289e-01 -2.49302e+00 
 9.29385e+00  2.15795e-01 -2.44289e+00 
 9.70843e+00  2.09766e-01 -2.38935e+00 
 1.01223e+01  2.02341e-01 -2.33225e+00 
 1.05354e+01  1.93531e-01 -2.27153e+00 
 1.09473e+01  1.83517e-01 -2.20707e+00 
 1.13580e+01  1.72353e-01 -2.13885e+00 
 1.17670e+01  1.60261e-01 -2.06679e+00 
 1.21742e+01  1.47341e-01 -1.99091e+00 
 1.25791e+01  1.33853e-01 -1.91119e+00 
 1.29816e+01  1.19934e-01 -1.82771e+00 
 1.33812e+01  1.05876e-01 -1.74054e+00 
 1.37778e+01  9.18418e-02 -1.64984e+00 
 1.41710e+01  7.81379e-02 -1.55577e+00 
 1.45605e+01  6.49326e-02 -1.45860e+00 
 1.49460e+01  5.25226e-02 -1.35858e+00 
 1.53275e+01  4.10538e-02 -1.25608e+00 
 1.57047e+01  3.07816e-02 -1.15147e+00 
 1.60777e+01  2.17952e-02 -1.04520e+00 
 1.64464e+01  1.42733e-02 -9.37728e-01 
 1.68109e+01  8.21276e-03 -8.29591e-01 
 1.71715e+01  3.68182e-03 -7.21279e-01 
 1.75284e+01  5.54174e-04 -6.13367e-01 
 1.78822e+01 -1.23715e-03 -5.06346e-01 
 1.82334e+01 -1.95988e-03 -4.00761e-01 
 1.85826e+01 -1.82542e-03 -2.97040e-01 
 1.89307e+01 -1.24242e-03 -1.95630e-01 
 1.92785e+01 -5.45451e-04 -9.68349e-02 
 1.96046e+01 -5.02285e-02 -5.09568e-02 
-1.94135e+01  5.10007e-02 -5.16424e-02 
-1.90827e+01  6.34045e-04 -9.79282e-02 
-1.87301e+01  1.55139e-03 -1.97220e-01 
-1.83777e+01  2.59346e-03 -2.98321e-01 
-1.80249e+01  3.48886e-03 -4.01034e-01 
-1.76709e+01  3.87474e-03 -5.05028e-01 
-1.73152e+01  3.56904e-03 -6.09998e-01 
-1.69572e+01  2.31338e-03 -7.15528e-01 
-1.65966e+01  3.42776e-05 -8.21252e-01 
-1.62329e+01 -3.41860e-03 -9.26719e-01 
-1.58661e+01 -8.01338e-03 -1.03155e+00 
-1.54958e+01 -1.38023e-02 -1.13530e+00 
-1.51222e+01 -2.06632e-02 -1.23761e+00 
-1.47450e+01 -2.85699e-02 -1.33809e+00 
-1.43645e+01 -3.73326e-02 -1.43644e+00 
-1.39806e+01 -4.68716e-02 -1.53231e+00 
-1.35936e+01 -5.69548e-02 -1.62549e+00 
-1.32036e+01 -6.74745e-02 -1.71572e+00 
-1.28108e+01 -7.81803e-02 -1.80284e+00 
-1.24154e+01 -8.89589e-02 -1.88667e+00 
-1.20178e+01 -9.95619e-02 -1.96714e+00 
-1.16179e+01 -1.09888e-01 -2.04414e+00 
-1.12163e+01 -1.19706e-01 -2.11765e+00 
-1.08130e+01 -1.28938e-01 -2.18762e+00 
-1.04083e+01 -1.37378e-01 -2.25409e+00 
-1.00024e+01 -1.44982e-01 -2.31705e+00 
-9.59552e+00 -1.51574e-01 -2.37657e+00 
-9.18779e+00 -1.57141e-01 -2.43270e+00 
-8.77949e+00 -1.61541e-01 -2.48551e+00 
-8.37063e+00 -1.64796e-01 -2.53508e+00 
-7.96149e+00 -1.66794e-01 -2.58151e+00 
-7.55206e+00 -1.67585e-01 -2.62487e+00 
-7.14256e+00 -1.67087e-01 -2.66528e+00 
-6.73296e+00 -1.65380e-01 -2.70280e+00 
-6.32347e+00 -1.62402e-01 -2.73757e+00 
-5.91403e+00 -1.58258e-01 -2.76964e+00 
-5.50479e+00 -1.52907e-01 -2.79914e+00 
-5.09569e+00 -1.46474e-01 -2.82613e+00 
-4.68686e+00 -1.38934e-01 -2.85071e+00 
-4.27821e+00 -1.30428e-01 -2.87295e+00 
-3.86986e+00 -1.20944e-01 -2.89293e+00 
-3.46170e+00 -1.10636e-01 -2.91072e+00 
-3.05383e+00 -9.95024e-02 -2.92637e+00 
-2.64613e+00 -8.77060e-02 -2.93994e+00 
-2.23869e+00 -7.52543e-02 -2.95148e+00 
-1.83137e+00 -6.23159e-02 -2.96103e+00 
-1.42426e+00 -4.89041e-02 -2.96863e+00 
-1.01722e+00 -3.51924e-02 -2.97431e+00 
-6.10323e-01 -2.11975e-02 -2.97808e+00 
-2.03421e-01 -7.09556e-03 -2.97996e+00 
 2.03421e-01  7.09556e-03 -2.97996e+00 
 6.10323e-01  2.11975e-02 -2.97808e+00 
 1.01722e+00  3.51924e-02 -2.97431e+00 
 1.42426e+00  4.89041e-02 -2.96863e+00 
 1.83137e+00  6.23159e-02 -2.96103e+00 
 2.23869e+00  7.52543e-02 -2.95148e+00 
 2.64613e+00  8.77060e-02 -2.93994e+00 
 3.05383e+00  9.95024e-02 -2.92637e+00 
 3.46170e+00  1.10636e-01 -2.91072e+00 
 3.86986e+00  1.20944e-01 -2.89293e+00 
 4.27821e+00  1.30428e-01 -2.87295e+00 
 4.68686e+00  1.38934e-01 -2.85071e+00 
 5.09569e+00  1.46474e-01 -2.82613e+00 
 5.50479e+00  1.52907e-01 -2.79914e+00 
 5.91403e+00  1.58258e-01 -2.76964e+00 
 6.32347e+00  1.62402e-01 -2.73757e+00 
 6.73296e+00  1.65380e-01 -2.70280e+00 
 7.14256e+00  1.67087e-01 -2.66528e+00 
 7.55206e+00  1.67585e-01 -2.62487e+00 
 7.96149e+00  1.66794e-01 -2.58151e+00 
 8.37063e+00  1.64796e-01 -2.53508e+00 
 8.77949e+00  1.61541e-01 -2.48551e+00 
 9.18779e+00  1.57141e-01 -2.43270e+00 
 9.59552e+00  1.51574e-01 -2.37657e+00 
 1.00024e+01  1.44982e-01 -2.31705e+00 
 1.04083e+01  1.37378e-01 -2.25409e+00 
 1.08130e+01  1.28938e-01 -2.18762e+00 
 1.12163e+01  1.19706e-01 -2.11765e+00 
 1.16179e+01  1.09888e-01 -2.04414e+00 
 1.20178e+01  9.95619e-02 -1.96714e+00 
 1.24154e+01  8.89589e-02 -1.88667e+00 
 1.28108e+01  7.81803e-02 -1.80284e+00 
 1.32036e+01  6.74745e-02 -1.71572e+00 
 1.35936e+01  5.69548e-02 -1.62549e+00 
 1.39806e+01  4.68716e-02 -1.53231e+00 
 1.43645e+01  3.73326e-02 -1.43644e+00 
 1.47450e+01  2.85699e-02 -1.33809e+00 
 1.51222e+01  2.06632e-02 -1.23761e+00 
 1.54958e+01  1.38023e-02 -1.13530e+00 
 1.58661e+01  8.01338e-03 -1.03155e+00 
 1.62329e+01  3.41860e-03 -9.26719e-01 
 1.65966e+01 -3.42776e-05 -8.21252e-01 
 1.69572e+01 -2.31338e-03 -7.15528e-01 
 1.73152e+01 -3.56904e-03 -6.09998e-01 
 1.76709e+01 -3.87474e-03 -5.05028e-01 
 1.80249e+01 -3.48886e-03 -4.01034e-01 
 1.83777e+01 -2.59346e-03 -2.98321e-01 
 1.87301e+01 -1.55139e-03 -1.97220e-01 
 1.90827e+01 -6.34045e-04 -9.79282e-02 
 1.94135e+01 -5.10007e-02 -5.16424e-02 
-1.92188e+01  5.15053e-02 -5.24304e-02 
-1.88848e+01  6.78107e-04 -9.92489e-02 
-1.85290e+01  1.72283e-03 -1.99366e-01 
-1.81738e+01  3.05138e-03 -3.00620e-01 
-1.78186e+01  4.44487e-03 -4.02888e-01 
-1.74627e+01  5.58075e-03 -5.05926e-01 
-1.71058e+01  6.30532e-03 -6.09520e-01 
-1.67473e+01  6.37400e-03 -7.13352e-01 
-1.63869e+01  5.71513e-03 -8.17152e-01 
-1.60243e+01  4.16704e-03 -9.20561e-01 
-1.56592e+01  1.74020e-03 -1.02329e+00 
-1.52914e+01 -1.64908e-03 -1.12498e+00 
-1.49210e+01 -5.91702e-03 -1.22534e+00 
-1.45476e+01 -1.10819e-02 -1.32404e+00 
-1.41715e+01 -1.70017e-02 -1.42083e+00 
-1.37925e+01 -2.36463e-02 -1.51542e+00 
-1.34109e+01 -3.08337e-02 -1.60761e+00 
-1.30267e+01 -3.85041e-02 -1.69715e+00 
-1.26400e+01 -4.64534e-02 -1.78392e+00 
-1.22510e+01 -5.46101e-02 -1.86772e+00 
-1.18599e+01 -6.27642e-02 -1.94847e+00 
-1.14668e+01 -7.08469e-02 -2.02605e+00 
-1.10719e+01 -7.86553e-02 -2.10042e+00 
-1.06754e+01 -8.61345e-02 -2.17152e+00 
-1.02776e+01 -9.30979e-02 -2.23935e+00 
-9.87840e+00 -9.95117e-02 -2.30389e+00 
-9.47823e+00 -1.05211e-01 -2.36517e+00 
-9.07708e+00 -1.10187e-01 -2.42319e+00 
-8.67523e+00 -1.14300e-01 -2.47804e+00 
-8.27269e+00 -1.17566e-01 -2.52972e+00 
-7.86970e+00 -1.19871e-01 -2.57833e+00 
-7.46626e+00 -1.21258e-01 -2.62392e+00 
-7.06259e+00 -1.21634e-01 -2.66656e+00 
-6.65865e+00 -1.21066e-01 -2.70631e+00 
-6.25464e+00 -1.19484e-01 -2.74327e+00 
-5.85051e+00 -1.16976e-01 -2.77750e+00 
-5.44643e+00 -1.13488e-01 -2.80907e+00 
-5.04232e+00 -1.09129e-01 -2.83805e+00 
-4.63835e+00 -1.03860e-01 -2.86452e+00 
-4.23440e+00 -9.78036e-02 -2.88854e+00 
-3.83064e+00 -9.09356e-02 -2.91017e+00 
-3.42693e+00 -8.33902e-02 -2.92946e+00 
-3.02342e+00 -7.51533e-02 -2.94648e+00 
-2.61996e+00 -6.63688e-02 -2.96126e+00 
-2.21669e+00 -5.70307e-02 -2.97385e+00 
-1.81347e+00 -4.72898e-02 -2.98429e+00 
-1.41040e+00 -3.71459e-02 -2.99260e+00 
-1.00735e+00 -2.67549e-02 -2.99881e+00 
-6.04417e-01 -1.61200e-02 -3.00295e+00 
-2.01455e-01 -5.40015e-03 -3.00501e+00 
 2.01455e-01  5.40015e-03 -3.00501e+00 
 6.04417e-01  1.61200e-02 -3.00295e+00 
 1.00735e+00  2.67549e-02 -2.99881e+00 
 1.41040e+00  3.71459e-02 -2.99260e+00 
 1.81347e+00  4.72898e-02 -2.98429e+00 
 2.21669e+00  5.70307e-02 -2.97385e+00 
 2.61996e+00  6.63688e-02 -2.96126e+00 
 3.02342e+00  7.51533e-02 -2.94648e+00 
 3.42693e+00  8.33902e-02 -2.92946e+00 
 3.83064e+00  9.09356e-02 -2.91017e+00 
 4.23440e+00  9.78036e-02 -2.88854e+00 
 4.63835e+00  1.03860e-01 -2.86452e+00 
 5.04232e+00  1.09129e-01 -2.83805e+00 
 5.44643e+00  1.13488e-01 -2.80907e+00 
 5.85051e+00  1.16976e-01 -2.77750e+00 
 6.25464e+00  1.19484e-01 -2.74327e+00 
 6.65865e+00  1.21066e-01 -2.70631e+00 
 7.06259e+00  1.21634e-01 -2.66656e+00 
 7.46626e+00  1.21258e-01 -2.62392e+00 
 7.86970e+00  1.19871e-01 -2.57833e+00 
 8.27269e+00  1.17566e-01 -2.52972e+00 
 8.67523e+00  1.14300e-01 -2.47804e+00 
 9.07708e+00  1.10187e-01 -2.42319e+00 
 9.47823e+00  1.05211e-01 -2.36517e+00 
 9.87840e+00  9.95117e-02 -2.30389e+00 
 1.02776e+01  9.30979e-02 -2.23935e+00 
 1.06754e+01  8.61345e-02 -2.17152e+00 
 1.10719e+01  7.86553e-02 -2.10042e+00 
 1.14668e+01  7.08469e-02 -2.02605e+00 
 1.18599e+01  6.27642e-02 -1.94847e+00 
 1.22510e+01  5.46101e-02 -1.86772e+00 
 1.26400e+01  4.64534e-02 -1.78392e+00 
 1.30267e+01  3.85041e-02 -1.69715e+00 
 1.34109e+01  3.08337e-02 -1.60761e+00 
 1.37925e+01  2.36463e-02 -1.51542e+00 
 1.41715e+01  1.70017e-02 -1.42083e+00 
 1.45476e+01  1.10819e-02 -1.32404e+00 
 1.49210e+01  5.91702e-03 -1.22534e+00 
 1.52914e+01  1.64908e-03 -1.12498e+00 
 1.56592e+01 -1.74020e-03 -1.02329e+00 
 1.60243e+01 -4.16704e-03 -9.20561e-01 
 1.63869e+01 -5.71513e-03 -8.17152e-01 
 1.67473e+01 -6.37400e-03 -7.13352e-01 
 1.71058e+01 -6.30532e-03 -6.09520e-01 
 1.74627e+01 -5.58075e-03 -5.05926e-01 
 1.78186e+01 -4.44487e-03 -4.02888e-01 
 1.81738e+01 -3.05138e-03 -3.00620e-01 
 1.85290e+01 -1.72283e-03 -1.99366e-01 
 1.88848e+01 -6.78107e-04 -9.92489e-02 
 1.92188e+01 -5.15053e-02 -5.24304e-02 
-1.90203e+01  5.17932e-02 -5.32683e-02 
-1.86844e+01  6.91119e-04 -1.00692e-01 
-1.83268e+01  1.79753e-03 -2.01839e-01 
-1.79699e+01  3.28941e-03 -3.03557e-01 
-1.76133e+01  4.99162e-03 -4.05781e-01 
-1.72565e+01  6.61683e-03 -5.08327e-01 
-1.68991e+01  8.03758e-03 -6.11053e-01 
-1.65406e+01  9.02500e-03 -7.13712e-01 
-1.61809e+01  9.51390e-03 -8.16108e-01 
-1.58194e+01  9.33924e-03 -9.17957e-01 
-1.54561e+01  8.49996e-03 -1.01904e+00 
-1.50907e+01  6.89289e-03 -1.11906e+00 
-1.47232e+01  4.57625e-03 -1.21779e+00 
-1.43533e+01  1.50095e-03 -1.31496e+00 
-1.39812e+01 -2.22543e-03 -1.41036e+00 
-1.36067e+01 -6.60967e-03 -1.50373e+00 
-1.32300e+01 -1.15076e-02 -1.59491e+00 
-1.28509e+01 -1.68973e-02 -1.68367e+00 
-1.24698e+01 -2.26116e-02 -1.76990e+00 
-1.20866e+01 -2.86134e-02 -1.85341e+00 
-1.17015e+01 -3.47255e-02 -1.93412e+00 
-1.13145e+01 -4.09078e-02 -2.01190e+00 
-1.09260e+01 -4.69834e-02 -2.08672e+00 
-1.05358e+01 -5.29188e-02 -2.15848e+00 
-1.01443e+01 -5.85463e-02 -2.22717e+00 
-9.75157e+00 -6.38458e-02 -2.29276e+00 
-9.35777e+00 -6.86643e-02 -2.35525e+00 
-8.96294e+00 -7.29996e-02 -2.41463e+00 
-8.56733e+00 -7.67166e-02 -2.47095e+00 
-8.17093e+00 -7.98334e-02 -2.52421e+00 
-7.77399e+00 -8.22343e-02 -2.57447e+00 
-7.37648e+00 -8.39580e-02 -2.62175e+00 
-6.97861e+00 -8.49079e-02 -2.66613e+00 
-6.58035e+00 -8.51429e-02 -2.70762e+00 
-6.18189e+00 -8.45842e-02 -2.74632e+00 
-5.78317e+00 -8.33090e-02 -2.78225e+00 
-5.38438e+00 -8.12551e-02 -2.81548e+00 
-4.98543e+00 -7.85159e-02 -2.84607e+00 
-4.58649e+00 -7.50433e-02 -2.87407e+00 
-4.18747e+00 -7.09445e-02 -2.89954e+00 
-3.78852e+00 -6.61836e-02 -2.92252e+00 
-3.38953e+00 -6.08795e-02 -2.94305e+00 
-2.99063e+00 -5.50058e-02 -2.96120e+00 
-2.59172e+00 -4.86907e-02 -2.97698e+00 
-2.19292e+00 -4.19155e-02 -2.99045e+00 
-1.79411e+00 -3.48154e-02 -3.00162e+00 
-1.39540e+00 -2.73773e-02 -3.01053e+00 
-9.96660e-01 -1.97412e-02 -3.01719e+00 
-5.98013e-01 -1.18978e-02 -3.02162e+00 
-1.99322e-01 -3.99005e-03 -3.02384e+00 
 1.99322e-01  3.99005e-03 -3.02384e+00 
 5.98013e-01  1.18978e-02 -3.02162e+00 
 9.96660e-01  1.97412e-02 -3.01719e+00 
 1.39540e+00  2.73773e-02 -3.01053e+00 
 1.79411e+00  3.48154e-02 -3.00162e+00 
 2.19292e+00  4.19155e-02 -2.99045e+00 
 2.59172e+00  4.86907e-02 -2.97698e+00 
 2.99063e+00  5.50058e-02 -2.96120e+00 
 3.38953e+00  6.08795e-02 -2.94305e+00 
 3.78852e+00  6.61836e-02 -2.92252e+00 
 4.18747e+00  7.09445e-02 -2.89954e+00 
 4.58649e+00  7.50433e-02 -2.87407e+00 
 4.98543e+00  7.85159e-02 -2.84607e+00 
 5.38438e+00  8.12551e-02 -2.81548e+00 
 5.78317e+00  8.33090e-02 -2.78225e+00 
 6.18189e+00  8.45842e-02 -2.74632e+00 
 6.58035e+00  8.51429e-02 -2.70762e+00 
 6.97861e+00  8.49079e-02 -2.66613e+00 
 7.37648e+00  8.39580e-02 -2.62175e+00 
 7.77399e+00  8.22343e-02 -2.57447e+00 
 8.17093e+00  7.98334e-02 -2.52421e+00 
 8.56733e+00  7.67166e-02 -2.47095e+00 
 8.96294e+00  7.29996e-02 -2.41463e+00 
 9.35777e+00  6.86643e-02 -2.35525e+00 
 9.75157e+00  6.38458e-02 -2.29276e+00 
 1.01443e+01  5.85463e-02 -2.22717e+00 
 1.05358e+01  5.29188e-02 -2.15848e+00 
 1.09260e+01  4.69834e-02 -2.08672e+00 
 1.13145e+01  4.09078e-02 -2.01190e+00 
 1.17015e+01  3.47255e-02 -1.93412e+00 
 1.20866e+01  2.86134e-02 -1.85341e+00 
 1.24698e+01  2.26116e-02 -1.76990e+00 
 1.28509e+01  1.68973e-02 -1.68367e+00 
 1.32300e+01  1.15076e-02 -1.59491e+00 
 1.36067e+01  6.60967e-03 -1.50373e+00 
 1.39812e+01  2.22543e-03 -1.41036e+00 
 1.43533e+01 -1.50095e-03 -1.31496e+00 
 1.47232e+01 -4.57625e-03 -1.21779e+00 
 1.50907e+01 -6.89289e-03 -1.11906e+00 
 1.54561e+01 -8.49996e-03 -1.01904e+00 
 1.58194e+01 -9.33924e-03 -9.17957e-01 
 1.61809e+01 -9.51390e-03 -8.16108e-01 
 1.65406e+01 -9.02500e-03 -7.13712e-01 
 1.68991e+01 -8.03758e-03 -6.11053e-01 
 1.72565e+01 -6.61683e-03 -5.08327e-01 
 1.76133e+01 -4.99162e-03 -4.05781e-01 
 1.79699e+01 -3.28941e-03 -3.03557e-01 
 1.83268e+01 -1.79753e-03 -2.01839e-01 
 1.86844e+01 -6.91119e-04 -1.00692e-01 
 1.90203e+01 -5.17932e-02 -5.32683e-02 
-1.88180e+01  5.19045e-02 -5.41195e-02 
-1.84814e+01  6.82671e-04 -1.02182e-01 
-1.81229e+01  1.80457e-03 -2.04474e-01 
-1.77653e+01  3.37202e-03 -3.06862e-01 
-1.74083e+01  5.24649e-03 -4.09320e-01 
-1.70513e+01  7.17123e-03 -5.11712e-01 
-1.66941e+01  9.04255e-03 -6.13947e-01 
-1.63362e+01  1.06477e-02 -7.15833e-01 
-1.59774e+01  1.19304e-02 -8.17232e-01 
-1.56174e+01  1.27271e-02 -9.17917e-01 
-1.52561e+01  1.30317e-02 -1.01772e+00 
-1.48931e+01  1.27297e-02 -1.11641e+00 
-1.45284e+01  1.18627e-02 -1.21381e+00 
-1.41618e+01  1.03609e-02 -1.30968e+00 
-1.37934e+01  8.30706e-03 -1.40385e+00 
-1.34230e+01  5.66773e-03 -1.49611e+00 
-1.30508e+01  2.55830e-03 -1.58631e+00 
-1.26766e+01 -1.02822e-03 -1.67426e+00 
-1.23006e+01 -4.95411e-03 -1.75985e+00 
-1.19227e+01 -9.21007e-03 -1.84292e+00 
-1.15431e+01 -1.36460e-02 -1.92337e+00 
-1.11619e+01 -1.82461e-02 -2.00110e+00 
-1.07792e+01 -2.28566e-02 -2.07604e+00 
-1.03950e+01 -2.74633e-02 -2.14812e+00 
-1.00096e+01 -3.19163e-02 -2.21730e+00 
-9.62286e+00 -3.62092e-02 -2.28353e+00 
-9.23513e+00 -4.02013e-02 -2.34681e+00 
-8.84636e+00 -4.38985e-02 -2.40712e+00 
-8.45678e+00 -4.71729e-02 -2.46447e+00 
-8.06637e+00 -5.00453e-02 -2.51886e+00 
-7.67534e+00 -5.24025e-02 -2.57032e+00 
-7.28367e+00 -5.42815e-02 -2.61886e+00 
-6.89155e+00 -5.55845e-02 -2.66454e+00 
-6.49895e+00 -5.63648e-02 -2.70736e+00 
-6.10606e+00 -5.65394e-02 -2.74739e+00 
-5.71281e+00 -5.61771e-02 -2.78464e+00 
-5.31938e+00 -5.52091e-02 -2.81918e+00 
-4.92571e+00 -5.37181e-02 -2.85104e+00 
-4.53194e+00 -5.16477e-02 -2.88026e+00 
-4.13800e+00 -4.90933e-02 -2.90688e+00 
-3.74404e+00 -4.60092e-02 -2.93094e+00 
-3.34997e+00 -4.25012e-02 -2.95248e+00 
-2.95591e+00 -3.85326e-02 -2.97154e+00 
-2.56177e+00 -3.42178e-02 -2.98813e+00 
-2.16768e+00 -2.95273e-02 -3.00231e+00 
-1.77353e+00 -2.45821e-02 -3.01408e+00 
-1.37943e+00 -1.93578e-02 -3.02347e+00 
-9.85284e-01 -1.39802e-02 -3.03050e+00 
-5.91197e-01 -8.42853e-03 -3.03518e+00 
-1.97051e-01 -2.83115e-03 -3.03752e+00 
 1.97051e-01  2.83115e-03 -3.03752e+00 
 5.91197e-01  8.42853e-03 -3.03518e+00 
 9.85284e-01  1.39802e-02 -3.03050e+00 
 1.37943e+00  1.93578e-02 -3.02347e+00 
 1.77353e+00  2.45821e-02 -3.01408e+00 
 2.16768e+00  2.95273e-02 -3.00231e+00 
 2.56177e+00  3.42178e-02 -2.98813e+00 
 2.95591e+00  3.85326e-02 -2.97154e+00 
 3.34997e+00  4.25012e-02 -2.95248e+00 
 3.74404e+00  4.60092e-02 -2.93094e+00 
 4.13800e+00  4.90933e-02 -2.90688e+00 
 4.53194e+00  5.16477e-02 -2.88026e+00 
 4.92571e+00  5.37181e-02 -2.85104e+00 
 5.31938e+00  5.52091e-02 -2.81918e+00 
 5.71281e+00  5.61771e-02 -2.78464e+00 
 6.10606e+00  5.65394e-02 -2.74739e+00 
 6.49895e+00  5.63648e-02 -2.70736e+00 
 6.89155e+00  5.55845e-02 -2.66454e+00 
 7.28367e+00  5.42815e-02 -2.61886e+00 
 7.67534e+00  5.24025e-02 -2.57032e+00 
 8.06637e+00  5.00453e-02 -2.51886e+00 
 8.45678e+00  4.71729e-02 -2.46447e+00 
 8.84636e+00  4.38985e-02 -2.40712e+00 
 9.23513e+00  4.02013e-02 -2.34681e+00 
 9.62286e+00  3.62092e-02 -2.28353e+00 
 1.00096e+01  3.19163e-02 -2.21730e+00 
 1.03950e+01  2.74633e-02 -2.14812e+00 
 1.07792e+01  2.28566e-02 -2.07604e+00 
 1.11619e+01  1.82461e-02 -2.00110e+00 
 1.15431e+01  1.36460e-02 -1.92337e+00 
 1.19227e+01  9.21007e-03 -1.84292e+00 
 1.23006e+01  4.95411e-03 -1.75985e+00 
 1.26766e+01  1.02822e-03 -1.67426e+00 
 1.30508e+01 -2.55830e-03 -1.58631e+00 
 1.34230e+01 -5.66773e-03 -1.49611e+00 
 1.37934e+01 -8.30706e-03 -1.40385e+00 
 1.41618e+01 -1.03609e-02 -1.30968e+00 
 1.45284e+01 -1.18627e-02 -1.21381e+00 
 1.48931e+01 -1.27297e-02 -1.11641e+00 
 1.52561e+01 -1.30317e-02 -1.01772e+00 
 1.56174e+01 -1.27271e-02 -9.17917e-01 
 1.59774e+01 -1.19304e-02 -8.17232e-01 
 1.63362e+01 -1.06477e-02 -7.15833e-01 
 1.66941e+01 -9.04255e-03 -6.13947e-01 
 1.70513e+01 -7.17123e-03 -5.11712e-01 
 1.74083e+01 -5.24649e-03 -4.09320e-01 
 1.77653e+01 -3.37202e-03 -3.06862e-01 
 1.81229e+01 -1.80457e-03 -2.04474e-01 
 1.84814e+01 -6.82671e-04 -1.02182e-01 
 1.88180e+01 -5.19045e-02 -5.41195e-02 
-1.86121e+01  5.18711e-02 -5.49587e-02 
-1.82755e+01  6.59658e-04 -1.03668e-01 
-1.79172e+01  1.76489e-03 -2.07156e-01 
-1.75598e+01  3.34583e-03 -3.10339e-01 
-1.72031e+01  5.29456e-03 -4.13220e-01 
-1.68466e+01  7.38092e-03 -5.15698e-01 
-1.64902e+01  9.52243e-03 -6.17721e-01 
-1.61333e+01  1.15220e-02 -7.19138e-01 
-1.57759e+01  1.33333e-02 -8.19856e-01 
-1.54176e+01  1.47974e-02 -9.19693e-01 
-1.50584e+01  1.59070e-02 -1.01853e+00 
-1.46978e+01  1.65421e-02 -1.11617e+00 
-1.43360e+01  1.67340e-02 -1.21247e+00 
-1.39727e+01  1.63989e-02 -1.30725e+00 
-1.36079e+01  1.56026e-02 -1.40036e+00 
-1.32414e+01  1.42922e-02 -1.49163e+00 
-1.28734e+01  1.25618e-02 -1.58092e+00 
-1.25037e+01  1.03823e-02 -1.66808e+00 
-1.21324e+01  7.86861e-03 -1.75300e+00 
-1.17596e+01  5.00792e-03 -1.83553e+00 
-1.13852e+01  1.92804e-03 -1.91560e+00 
-1.10094e+01 -1.37515e-03 -1.99309e+00 
-1.06322e+01 -4.76797e-03 -2.06795e+00 
-1.02536e+01 -8.25277e-03 -2.14008e+00 
-9.87391e+00 -1.16960e-02 -2.20947e+00 
-9.49299e+00 -1.51040e-02 -2.27604e+00 
-9.11108e+00 -1.83481e-02 -2.33978e+00 
-8.72815e+00 -2.14425e-02 -2.40067e+00 
-8.34440e+00 -2.42674e-02 -2.45870e+00 
-7.95980e+00 -2.68475e-02 -2.51385e+00 
-7.57456e+00 -2.90740e-02 -2.56615e+00 
-7.18862e+00 -3.09839e-02 -2.61560e+00 
-6.80219e+00 -3.24801e-02 -2.66222e+00 
-6.41522e+00 -3.36128e-02 -2.70602e+00 
-6.02788e+00 -3.42968e-02 -2.74704e+00 
-5.64012e+00 -3.45952e-02 -2.78529e+00 
-5.25210e+00 -3.44345e-02 -2.82083e+00 
-4.86377e+00 -3.38895e-02 -2.85365e+00 
-4.47527e+00 -3.28974e-02 -2.88381e+00 
-4.08653e+00 -3.15441e-02 -2.91133e+00 
-3.69770e+00 -2.97760e-02 -2.93624e+00 
-3.30868e+00 -2.76881e-02 -2.95857e+00 
-2.91963e+00 -2.52352e-02 -2.97835e+00 
-2.53045e+00 -2.25199e-02 -2.99559e+00 
-2.14126e+00 -1.95033e-02 -3.01033e+00 
-1.75197e+00 -1.62940e-02 -3.02258e+00 
-1.36270e+00 -1.28580e-02 -3.03236e+00 
-9.73351e-01 -9.30829e-03 -3.03968e+00 
-5.84045e-01 -5.61408e-03 -3.04456e+00 
-1.94669e-01 -1.89080e-03 -3.04700e+00 
 1.94669e-01  1.89080e-03 -3.04700e+00 
 5.84045e-01  5.61408e-03 -3.04456e+00 
 9.73351e-01  9.30829e-03 -3.03968e+00 
 1.36270e+00  1.28580e-02 -3.03236e+00 
 1.75197e+00  1.62940e-02 -3.02258e+00 
 2.14126e+00  1.95033e-02 -3.01033e+00 
 2.53045e+00  2.25199e-02 -2.99559e+00 
 2.91963e+00  2.52352e-02 -2.97835e+00 
 3.30868e+00  2.76881e-02 -2.95857e+00 
 3.69770e+00  2.97760e-02 -2.93624e+00 
 4.08653e+00  3.15441e-02 -2.91133e+00 
 4.47527e+00  3.28974e-02 -2.88381e+00 
 4.86377e+00  3.38895e-02 -2.85365e+00 
 5.25210e+00  3.44345e-02 -2.82083e+00 
 5.64012e+00  3.45952e-02 -2.78529e+00 
 6.02788e+00  3.42968e-02 -2.74704e+00 
 6.41522e+00  3.36128e-02 -2.70602e+00 
 6.80219e+00  3.24801e-02 -2.66222e+00 
 7.18862e+00  3.09839e-02 -2.61560e+00 
 7.57456e+00  2.90740e-02 -2.56615e+00 
 7.95980e+00  2.68475e-02 -2.51385e+00 
 8.34440e+00  2.42674e-02 -2.45870e+00 
 8.72815e+00  2.14425e-02 -2.40067e+00 
 9.11108e+00  1.83481e-02 -2.33978e+00 
 9.49299e+00  1.51040e-02 -2.27604e+00 
 9.87391e+00  1.16960e-02 -2.20947e+00 
 1.02536e+01  8.25277e-03 -2.14008e+00 
 1.06322e+01  4.76797e-03 -2.06795e+00 
 1.10094e+01  1.37515e-03 -1.99309e+00 
 1.13852e+01 -1.92804e-03 -1.91560e+00 
 1.17596e+01 -5.00792e-03 -1.83553e+00 
 1.21324e+01 -7.86861e-03 -1.75300e+00 
 1.25037e+01 -1.03823e-02 -1.66808e+00 
 1.28734e+01 -1.25618e-02 -1.58092e+00 
 1.32414e+01 -1.42922e-02 -1.49163e+00 
 1.36079e+01 -1.56026e-02 -1.40036e+00 
 1.39727e+01 -1.63989e-02 -1.30725e+00 
 1.43360e+01 -1.67340e-02 -1.21247e+00 
 1.46978e+01 -1.65421e-02 -1.11617e+00 
 1.50584e+01 -1.59070e-02 -1.01853e+00 
 1.54176e+01 -1.47974e-02 -9.19693e-01 
 1.57759e+01 -1.33333e-02 -8.19856e-01 
 1.61333e+01 -1.15220e-02 -7.19138e-01 
 1.64902e+01 -9.52243e-03 -6.17721e-01 
 1.68466e+01 -7.38092e-03 -5.15698e-01 
 1.72031e+01 -5.29456e-03 -4.13220e-01 
 1.75598e+01 -3.34583e-03 -3.10339e-01 
 1.79172e+01 -1.76489e-03 -2.07156e-01 
 1.82755e+01 -6.59658e-04 -1.03668e-01 
 1.86121e+01 -5.18711e-02 -5.49587e-02 
-1.84027e+01  5.17185e-02 -5.57686e-02 
-1.80669e+01  6.27075e-04 -1.05115e-01 
-1.77095e+01  1.69374e-03 -2.09806e-01 
-1.73530e+01  3.24480e-03 -3.13851e-01 
-1.69973e+01  5.19808e-03 -4.17278e-01 
-1.66419e+01  7.34651e-03 -5.20009e-01 
-1.62867e+01  9.62630e-03 -6.22021e-01 
-1.59314e+01  1.18553e-02 -7.23196e-01 
-1.55757e+01  1.39972e-02 -8.23476e-01 
-1.52195e+01  1.58992e-02 -9.22712e-01 
-1.48625e+01  1.75558e-02 -1.02082e+00 
-1.45046e+01  1.88450e-02 -1.11764e+00 
-1.41457e+01  1.97922e-02 -1.21307e+00 
-1.37855e+01  2.03051e-02 -1.30694e+00 
-1.34242e+01  2.04373e-02 -1.39915e+00 
-1.30616e+01  2.01227e-02 -1.48954e+00 
-1.26976e+01  1.94393e-02 -1.57801e+00 
-1.23322e+01  1.83420e-02 -1.66441e+00 
-1.19655e+01  1.69275e-02 -1.74865e+00 
-1.15974e+01  1.51663e-02 -1.83061e+00 
-1.12280e+01  1.31679e-02 -1.91022e+00 
-1.08573e+01  1.09120e-02 -1.98736e+00 
-1.04854e+01  8.51554e-03 -2.06199e+00 
-1.01122e+01  5.96208e-03 -2.13400e+00 
-9.73792e+00  3.37071e-03 -2.20339e+00 
-9.36254e+00  7.24013e-04 -2.27007e+00 
-8.98623e+00 -1.86096e-03 -2.33403e+00 
-8.60893e+00 -4.40629e-03 -2.39523e+00 
-8.23083e+00 -6.80026e-03 -2.45366e+00 
-7.85189e+00 -9.07235e-03 -2.50929e+00 
-7.47230e+00 -1.11185e-02 -2.56214e+00 
-7.09200e+00 -1.29772e-02 -2.61219e+00 
-6.71118e+00 -1.45534e-02 -2.65947e+00 
-6.32977e+00 -1.58957e-02 -2.70396e+00 
-5.94796e+00 -1.69186e-02 -2.74569e+00 
-5.56568e+00 -1.76809e-02 -2.78467e+00 
-5.18310e+00 -1.81064e-02 -2.82094e+00 
-4.80014e+00 -1.82640e-02 -2.85448e+00 
-4.41697e+00 -1.80864e-02 -2.88535e+00 
-4.03350e+00 -1.76514e-02 -2.91354e+00 
-3.64989e+00 -1.69000e-02 -2.93910e+00 
-3.26606e+00 -1.59180e-02 -2.96203e+00 
-2.88214e+00 -1.46531e-02 -2.98236e+00 
-2.49804e+00 -1.31980e-02 -3.00010e+00 
-2.11390e+00 -1.15061e-02 -3.01528e+00 
-1.72963e+00 -9.67536e-03 -3.02790e+00 
-1.34536e+00 -7.66358e-03 -3.03798e+00 
-9.60978e-01 -5.57245e-03 -3.04554e+00 
-5.76627e-01 -3.36274e-03 -3.05057e+00 
-1.92197e-01 -1.13840e-03 -3.05308e+00 
 1.92197e-01  1.13840e-03 -3.05308e+00 
 5.76627e-01  3.36274e-03 -3.05057e+00 
 9.60978e-01  5.57245e-03 -3.04554e+00 
 1.34536e+00  7.66358e-03 -3.03798e+00 
 1.72963e+00  9.67536e-03 -3.02790e+00 
 2.11390e+00  1.15061e-02 -3.01528e+00 
 2.49804e+00  1.31980e-02 -3.00010e+00 
 2.88214e+00  1.46531e-02 -2.98236e+00 
 3.26606e+00  1.59180e-02 -2.96203e+00 
 3.64989e+00  1.69000e-02 -2.93910e+00 
 4.03350e+00  1.76514e-02 -2.91354e+00 
 4.41697e+00  1.80864e-02 -2.88535e+00 
 4.80014e+00  1.82640e-02 -2.85448e+00 
 5.18310e+00  1.81064e-02 -2.82094e+00 
 5.56568e+00  1.76809e-02 -2.78467e+00 
 5.94796e+00  1.69186e-02 -2.74569e+00 
 6.32977e+00  1.58957e-02 -2.70396e+00 
 6.71118e+00  1.45534e-02 -2.65947e+00 
 7.09200e+00  1.29772e-02 -2.61219e+00 
 7.47230e+00  1.11185e-02 -2.56214e+00 
 7.85189e+00  9.07235e-03 -2.50929e+00 
 8.23083e+00  6.80026e-03 -2.45366e+00 
 8.60893e+00  4.40629e-03 -2.39523e+00 
 8.98623e+00  1.86096e-03 -2.33403e+00 
 9.36254e+00 -7.24013e-04 -2.27007e+00 
 9.73792e+00 -3.37071e-03 -2.20339e+00 
 1.01122e+01 -5.96208e-03 -2.13400e+00 
 1.04854e+01 -8.51554e-03 -2.06199e+00 
 1.08573e+01 -1.09120e-02 -1.98736e+00 
 1.12280e+01 -1.31679e-02 -1.91022e+00 
 1.15974e+01 -1.51663e-02 -1.83061e+00 
 1.19655e+01 -1.69275e-02 -1.74865e+00 
 1.23322e+01 -1.83420e-02 -1.66441e+00 
 1.26976e+01 -1.94393e-02 -1.57801e+00 
 1.30616e+01 -2.01227e-02 -1.48954e+00 
 1.34242e+01 -2.04373e-02 -1.39915e+00 
 1.37855e+01 -2.03051e-02 -1.30694e+00 
 1.41457e+01 -1.97922e-02 -1.21307e+00 
 1.45046e+01 -1.88450e-02 -1.11764e+00 
 1.48625e+01 -1.75558e-02 -1.02082e+00 
 1.52195e+01 -1.58992e-02 -9.22712e-01 
 1.55757e+01 -1.39972e-02 -8.23476e-01 
 1.59314e+01 -1.18553e-02 -7.23196e-01 
 1.62867e+01 -9.62630e-03 -6.22021e-01 
 1.66419e+01 -7.34651e-03 -5.20009e-01 
 1.69973e+01 -5.19808e-03 -4.17278e-01 
 1.73530e+01 -3.24480e-03 -3.13851e-01 
 1.77095e+01 -1.69374e-03 -2.09806e-01 
 1.80669e+01 -6.27075e-04 -1.05115e-01 
 1.84027e+01 -5.17185e-02 -5.57686e-02 
-1.81899e+01  5.14676e-02 -5.65380e-02 
-1.78557e+01  5.88560e-04 -1.06498e-01 
-1.74997e+01  1.60225e-03 -2.12366e-01 
-1.71447e+01  3.09386e-03 -3.17302e-01 
-1.67906e+01  5.00290e-03 -4.21346e-01 
-1.64368e+01  7.14234e-03 -5.24442e-01 
-1.60834e+01  9.46480e-03 -6.26588e-01 
-1.57300e+01  1.18019e-02 -7.27690e-01 
-1.53764e+01  1.41272e-02 -8.27716e-01 
-1.50225e+01  1.62951e-02 -9.26545e-01 
-1.46680e+01  1.83030e-02 -1.02412e+00 
-1.43129e+01  2.00298e-02 -1.12031e+00 
-1.39570e+01  2.14977e-02 -1.21504e+00 
-1.36001e+01  2.26096e-02 -1.30817e+00 
-1.32423e+01  2.34112e-02 -1.39961e+00 
-1.28833e+01  2.38272e-02 -1.48924e+00 
-1.25233e+01  2.39240e-02 -1.57697e+00 
-1.21622e+01  2.36447e-02 -1.66267e+00 
-1.17998e+01  2.30723e-02 -1.74627e+00 
-1.14363e+01  2.21641e-02 -1.82765e+00 
-1.10717e+01  2.10152e-02 -1.90676e+00 
-1.07059e+01  1.95926e-02 -1.98348e+00 
-1.03390e+01  1.79992e-02 -2.05778e+00 
-9.97095e+00  1.62068e-02 -2.12956e+00 
-9.60196e+00  1.43222e-02 -2.19880e+00 
-9.23192e+00  1.23183e-02 -2.26542e+00 
-8.86102e+00  1.03017e-02 -2.32941e+00 
-8.48918e+00  8.24319e-03 -2.39072e+00 
-8.11658e+00  6.24656e-03 -2.44933e+00 
-7.74316e+00  4.27770e-03 -2.50523e+00 
-7.36910e+00  2.43542e-03 -2.55840e+00 
-6.99433e+00  6.79060e-04 -2.60882e+00 
-6.61903e+00 -8.99053e-04 -2.65651e+00 
-6.24313e+00 -2.34717e-03 -2.70146e+00 
-5.86681e+00 -3.58024e-03 -2.74367e+00 
-5.48999e+00 -4.65455e-03 -2.78316e+00 
-5.11283e+00 -5.49256e-03 -2.81993e+00 
-4.73527e+00 -6.15851e-03 -2.85399e+00 
-4.35746e+00 -6.58216e-03 -2.88536e+00 
-3.97932e+00 -6.83525e-03 -2.91405e+00 
-3.60100e+00 -6.85423e-03 -2.94008e+00 
-3.22242e+00 -6.71760e-03 -2.96345e+00 
-2.84372e+00 -6.36769e-03 -2.98419e+00 
-2.46481e+00 -5.88872e-03 -3.00231e+00 
-2.08583e+00 -5.22793e-03 -3.01781e+00 
-1.70670e+00 -4.47410e-03 -3.03071e+00 
-1.32754e+00 -3.57825e-03 -3.04102e+00 
-9.48265e-01 -2.63246e-03 -3.04875e+00 
-5.69004e-01 -1.59032e-03 -3.05389e+00 
-1.89657e-01 -5.45915e-04 -3.05647e+00 
 1.89657e-01  5.45915e-04 -3.05647e+00 
 5.69004e-01  1.59032e-03 -3.05389e+00 
 9.48265e-01  2.63246e-03 -3.04875e+00 
 1.32754e+00  3.57825e-03 -3.04102e+00 
 1.70670e+00  4.47410e-03 -3.03071e+00 
 2.08583e+00  5.22793e-03 -3.01781e+00 
 2.46481e+00  5.88872e-03 -3.00231e+00 
 2.84372e+00  6.36769e-03 -2.98419e+00 
 3.22242e+00  6.71760e-03 -2.96345e+00 
 3.60100e+00  6.85423e-03 -2.94008e+00 
 3.97932e+00  6.83525e-03 -2.91405e+00 
 4.35746e+00  6.58216e-03 -2.88536e+00 
 4.73527e+00  6.15851e-03 -2.85399e+00 
 5.11283e+00  5.49256e-03 -2.81993e+00 
 5.48999e+00  4.65455e-03 -2.78316e+00 
 5.86681e+00  3.58024e-03 -2.74367e+00 
 6.24313e+00  2.34717e-03 -2.70146e+00 
 6.61903e+00  8.99053e-04 -2.65651e+00 
 6.99433e+00 -6.79060e-04 -2.60882e+00 
 7.36910e+00 -2.43542e-03 -2.55840e+00 
 7.74316e+00 -4.27770e-03 -2.50523e+00 
 8.11658e+00 -6.24656e-03 -2.44933e+00 
 8.48918e+00 -8.24319e-03 -2.39072e+00 
 8.86102e+00 -1.03017e-02 -2.32941e+00 
 9.23192e+00 -1.23183e-02 -2.26542e+00 
 9.60196e+00 -1.43222e-02 -2.19880e+00 
 9.97095e+00 -1.62068e-02 -2.12956e+00 
 1.03390e+01 -1.79992e-02 -2.05778e+00 
 1.07059e+01 -1.95926e-02 -1.98348e+00 
 1.10717e+01 -2.10152e-02 -1.90676e+00 
 1.14363e+01 -2.21641e-02 -1.82765e+00 
 1.17998e+01 -2.30723e-02 -1.74627e+00 
 1.21622e+01 -2.36447e-02 -1.66267e+00 
 1.25233e+01 -2.39240e-02 -1.57697e+00 
 1.28833e+01 -2.38272e-02 -1.48924e+00 
 1.32423e+01 -2.34112e-02 -1.39961e+00 
 1.36001e+01 -2.26096e-02 -1.30817e+00 
 1.39570e+01 -2.14977e-02 -1.21504e+00 
 1.43129e+01 -2.00298e-02 -1.12031e+00 
 1.46680e+01 -1.83030e-02 -1.02412e+00 
 1.50225e+01 -1.62951e-02 -9.26545e-01 
 1.53764e+01 -1.41272e-02 -8.27716e-01 
 1.57300e+01 -1.18019e-02 -7.27690e-01 
 1.60834e+01 -9.46480e-03 -6.26588e-01 
 1.64368e+01 -7.14234e-03 -5.24442e-01 
 1.67906e+01 -5.00290e-03 -4.21346e-01 
 1.71447e+01 -3.09386e-03 -3.17302e-01 
 1.74997e+01 -1.60225e-03 -2.12366e-01 
 1.78557e+01 -5.88560e-04 -1.06498e-01 
 1.81899e+01 -5.14676e-02 -5.65380e-02 
-1.79740e+01  5.11355e-02 -5.72599e-02 
-1.76418e+01  5.46763e-04 -1.07802e-01 
-1.72879e+01  1.49857e-03 -2.14801e-01 
-1.69350e+01  2.91135e-03 -3.20624e-01 
-1.65828e+01  4.74289e-03 -4.25323e-01 
-1.62312e+01  6.82357e-03 -5.28854e-01 
-1.58800e+01  9.12038e-03 -6.31233e-01 
-1.55288e+01  1.14776e-02 -7.32384e-01 
-1.51777e+01  1.38780e-02 -8.32294e-01 
-1.48263e+01  1.61834e-02 -9.30867e-01 
-1.44746e+01  1.83953e-02 -1.02807e+00 
-1.41224e+01  2.03948e-02 -1.12378e+00 
-1.37696e+01  2.22033e-02 -1.21796e+00 
-1.34160e+01  2.37213e-02 -1.31048e+00 
-1.30617e+01  2.49894e-02 -1.40128e+00 
-1.27065e+01  2.59266e-02 -1.49025e+00 
-1.23505e+01  2.65907e-02 -1.57733e+00 
-1.19934e+01  2.69165e-02 -1.66239e+00 
-1.16354e+01  2.69767e-02 -1.74539e+00 
-1.12763e+01  2.67185e-02 -1.82621e+00 
-1.09163e+01  2.62260e-02 -1.90480e+00 
-1.05552e+01  2.54557e-02 -1.98107e+00 
-1.01932e+01  2.44995e-02 -2.05498e+00 
-9.83019e+00  2.33196e-02 -2.12644e+00 
-9.46630e+00  2.20123e-02 -2.19544e+00 
-9.10145e+00  2.05421e-02 -2.26188e+00 
-8.73580e+00  1.90069e-02 -2.32577e+00 
-8.36927e+00  1.73707e-02 -2.38704e+00 
-8.00204e+00  1.57303e-02 -2.44568e+00 
-7.63401e+00  1.40471e-02 -2.50166e+00 
-7.26537e+00  1.24145e-02 -2.55497e+00 
-6.89604e+00  1.07897e-02 -2.60558e+00 
-6.52618e+00  9.26175e-03 -2.65351e+00 
-6.15573e+00  7.78207e-03 -2.69872e+00 
-5.78485e+00  6.43435e-03 -2.74123e+00 
-5.41345e+00  5.16399e-03 -2.78103e+00 
-5.04171e+00  4.04884e-03 -2.81814e+00 
-4.66954e+00  3.02802e-03 -2.85254e+00 
-4.29710e+00  2.17363e-03 -2.88426e+00 
-3.92431e+00  1.41871e-03 -2.91328e+00 
-3.55132e+00  8.29903e-04 -2.93964e+00 
-3.17804e+00  3.34743e-04 -2.96333e+00 
-2.80462e+00 -5.01579e-06 -2.98436e+00 
-2.43097e+00 -2.66610e-04 -3.00273e+00 
-2.05724e+00 -3.92385e-04 -3.01847e+00 
-1.68333e+00 -4.63435e-04 -3.03157e+00 
-1.30938e+00 -4.25296e-04 -3.04205e+00 
-9.35300e-01 -3.61880e-04 -3.04990e+00 
-5.61227e-01 -2.20910e-04 -3.05513e+00 
-1.87066e-01 -8.80037e-05 -3.05775e+00 
 1.87066e-01  8.80037e-05 -3.05775e+00 
 5.61227e-01  2.20910e-04 -3.05513e+00 
 9.35300e-01  3.61880e-04 -3.04990e+00 
 1.30938e+00  4.25296e-04 -3.04205e+00 
 1.68333e+00  4.63435e-04 -3.03157e+00 
 2.05724e+00  3.92385e-04 -3.01847e+00 
 2.43097e+00  2.66610e-04 -3.00273e+00 
 2.80462e+00  5.01579e-06 -2.98436e+00 
 3.17804e+00 -3.34743e-04 -2.96333e+00 
 3.55132e+00 -8.29903e-04 -2.93964e+00 
 3.92431e+00 -1.41871e-03 -2.91328e+00 
 4.29710e+00 -2.17363e-03 -2.88426e+00 
 4.66954e+00 -3.02802e-03 -2.85254e+00 
 5.04171e+00 -4.04884e-03 -2.81814e+00 
 5.41345e+00 -5.16399e-03 -2.78103e+00 
 5.78485e+00 -6.43435e-03 -2.74123e+00 
 6.15573e+00 -7.78207e-03 -2.69872e+00 
 6.52618e+00 -9.26175e-03 -2.65351e+00 
 6.89604e+00 -1.07897e-02 -2.60558e+00 
 7.26537e+00 -1.24145e-02 -2.55497e+00 
 7.63401e+00 -1.40471e-02 -2.50166e+00 
 8.00204e+00 -1.57303e-02 -2.44568e+00 
 8.36927e+00 -1.73707e-02 -2.38704e+00 
 8.73580e+00 -1.90069e-02 -2.32577e+00 
 9.10145e+00 -2.05421e-02 -2.26188e+00 
 9.46630e+00 -2.20123e-02 -2.19544e+00 
 9.83019e+00 -2.33196e-02 -2.12644e+00 
 1.01932e+01 -2.44995e-02 -2.05498e+00 
 1.05552e+01 -2.54557e-02 -1.98107e+00 
 1.09163e+01 -2.62260e-02 -1.90480e+00 
 1.12763e+01 -2.67185e-02 -1.82621e+00 
 1.16354e+01 -2.69767e-02 -1.74539e+00 
 1.19934e+01 -2.69165e-02 -1.66239e+00 
 1.23505e+01 -2.65907e-02 -1.57733e+00 
 1.27065e+01 -2.59266e-02 -1.49025e+00 
 1.30617e+01 -2.49894e-02 -1.40128e+00 
 1.34160e+01 -2.37213e-02 -1.31048e+00 
 1.37696e+01 -2.22033e-02 -1.21796e+00 
 1.41224e+01 -2.03948e-02 -1.12378e+00 
 1.44746e+01 -1.83953e-02 -1.02807e+00 
 1.48263e+01 -1.61834e-02 -9.30867e-01 
 1.51777e+01 -1.38780e-02 -8.32294e-01 
 1.55288e+01 -1.14776e-02 -7.32384e-01 
 1.58800e+01 -9.12038e-03 -6.31233e-01 
 1.62312e+01 -6.82357e-03 -5.28854e-01 
 1.65828e+01 -4.74289e-03 -4.25323e-01 
 1.69350e+01 -2.91135e-03 -3.20624e-01 
 1.72879e+01 -1.49857e-03 -2.14801e-01 
 1.76418e+01 -5.46763e-04 -1.07802e-01 
 1.79740e+01 -5.11355e-02 -5.72599e-02 
-1.77553e+01  5.07361e-02 -5.79307e-02 
-1.74255e+01  5.03608e-04 -1.09019e-01 
-1.70742e+01  1.38865e-03 -2.17087e-01 
-1.67237e+01  2.71075e-03 -3.23774e-01 
-1.63740e+01  4.44308e-03 -4.29138e-01 
-1.60249e+01  6.43121e-03 -5.33145e-01 
-1.56762e+01  8.65460e-03 -6.35821e-01 
-1.53276e+01  1.09690e-02 -7.37107e-01 
-1.49792e+01  1.33658e-02 -8.37005e-01 
-1.46306e+01  1.57143e-02 -9.35435e-01 
-1.42819e+01  1.80202e-02 -1.03238e+00 
-1.39328e+01  2.01682e-02 -1.12774e+00 
-1.35832e+01  2.21799e-02 -1.22149e+00 
-1.32331e+01  2.39556e-02 -1.31352e+00 
-1.28824e+01  2.55327e-02 -1.40379e+00 
-1.25310e+01  2.68267e-02 -1.49220e+00 
-1.21788e+01  2.78897e-02 -1.57870e+00 
-1.18258e+01  2.86506e-02 -1.66319e+00 
-1.14720e+01  2.91743e-02 -1.74563e+00 
-1.11174e+01  2.94009e-02 -1.82591e+00 
-1.07619e+01  2.94055e-02 -1.90401e+00 
-1.04054e+01  2.91369e-02 -1.97981e+00 
-1.00482e+01  2.86779e-02 -2.05331e+00 
-9.69005e+00  2.79829e-02 -2.12441e+00 
-9.33112e+00  2.71397e-02 -2.19308e+00 
-8.97133e+00  2.61060e-02 -2.25927e+00 
-8.61081e+00  2.49718e-02 -2.32296e+00 
-8.24948e+00  2.36956e-02 -2.38408e+00 
-7.88749e+00  2.23676e-02 -2.44264e+00 
-7.52476e+00  2.09452e-02 -2.49857e+00 
-7.16144e+00  1.95170e-02 -2.55189e+00 
-6.79746e+00  1.80376e-02 -2.60255e+00 
-6.43297e+00  1.65927e-02 -2.65056e+00 
-6.06790e+00  1.51331e-02 -2.69589e+00 
-5.70240e+00  1.37407e-02 -2.73855e+00 
-5.33640e+00  1.23617e-02 -2.77853e+00 
-4.97004e+00  1.10737e-02 -2.81582e+00 
-4.60325e+00  9.81815e-03 -2.85043e+00 
-4.23618e+00  8.66812e-03 -2.88235e+00 
-3.86874e+00  7.56037e-03 -2.91159e+00 
-3.50110e+00  6.56359e-03 -2.93816e+00 
-3.13315e+00  5.61016e-03 -2.96205e+00 
-2.76505e+00  4.76481e-03 -2.98327e+00 
-2.39671e+00  3.95603e-03 -3.00182e+00 
-2.02827e+00  3.24521e-03 -3.01772e+00 
-1.65964e+00  2.55766e-03 -3.03096e+00 
-1.29097e+00  1.95214e-03 -3.04154e+00 
-9.22155e-01  1.35160e-03 -3.04948e+00 
-5.53342e-01  8.12995e-04 -3.05477e+00 
-1.84438e-01  2.57850e-04 -3.05741e+00 
 1.84438e-01 -2.57850e-04 -3.05741e+00 
 5.53342e-01 -8.12995e-04 -3.05477e+00 
 9.22155e-01 -1.35160e-03 -3.04948e+00 
 1.29097e+00 -1.95214e-03 -3.04154e+00 
 1.65964e+00 -2.55766e-03 -3.03096e+00 
 2.02827e+00 -3.24521e-03 -3.01772e+00 
 2.39671e+00 -3.95603e-03 -3.00182e+00 
 2.76505e+00 -4.76481e-03 -2.98327e+00 
 3.13315e+00 -5.61016e-03 -2.96205e+00 
 3.50110e+00 -6.56359e-03 -2.93816e+00 
 3.86874e+00 -7.56037e-03 -2.91159e+00 
 4.23618e+00 -8.66812e-03 -2.88235e+00 
 4.60325e+00 -9.81815e-03 -2.85043e+00 
 4.97004e+00 -1.10737e-02 -2.81582e+00 
 5.33640e+00 -1.23617e-02 -2.77853e+00 
 5.70240e+00 -1.37407e-02 -2.73855e+00 
 6.06790e+00 -1.51331e-02 -2.69589e+00 
 6.43297e+00 -1.65927e-02 -2.65056e+00 
 6.79746e+00 -1.80376e-02 -2.60255e+00 
 7.16144e+00 -1.95170e-02 -2.55189e+00 
 7.52476e+00 -2.09452e-02 -2.49857e+00 
 7.88749e+00 -2.23676e-02 -2.44264e+00 
 8.24948e+00 -2.36956e-02 -2.38408e+00 
 8.61081e+00 -2.49718e-02 -2.32296e+00 
 8.97133e+00 -2.61060e-02 -2.25927e+00 
 9.33112e+00 -2.71397e-02 -2.19308e+00 
 9.69005e+00 -2.79829e-02 -2.12441e+00 
 1.00482e+01 -2.86779e-02 -2.05331e+00 
 1.04054e+01 -2.91369e-02 -1.97981e+00 
 1.07619e+01 -2.94055e-02 -1.90401e+00 
 1.11174e+01 -2.94009e-02 -1.82591e+00 
 1.14720e+01 -2.91743e-02 -1.74563e+00 
 1.18258e+01 -2.86506e-02 -1.66319e+00 
 1.21788e+01 -2.78897e-02 -1.57870e+00 
 1.25310e+01 -2.68267e-02 -1.49220e+00 
 1.28824e+01 -2.55327e-02 -1.40379e+00 
 1.32331e+01 -2.39556e-02 -1.31352e+00 
 1.35832e+01 -2.21799e-02 -1.22149e+00 
 1.39328e+01 -2.01682e-02 -1.12774e+00 
 1.42819e+01 -1.80202e-02 -1.03238e+00 
 1.46306e+01 -1.57143e-02 -9.35435e-01 
 1.49792e+01 -1.33658e-02 -8.37005e-01 
 1.53276e+01 -1.09690e-02 -7.37107e-01 
 1.56762e+01 -8.65460e-03 -6.35821e-01 
 1.60249e+01 -6.43121e-03 -5.33145e-01 
 1.63740e+01 -4.44308e-03 -4.29138e-01 
 1.67237e+01 -2.71075e-03 -3.23774e-01 
 1.70742e+01 -1.38865e-03 -2.17087e-01 
 1.74255e+01 -5.03608e-04 -1.09019e-01 
 1.77553e+01 -5.07361e-02 -5.79307e-02 
-1.75339e+01  5.02809e-02 -5.85486e-02 
-1.72070e+01  4.60480e-04 -1.10143e-01 
-1.68585e+01  1.27684e-03 -2.19213e-01 
-1.65109e+01  2.50193e-03 -3.26726e-01 
-1.61641e+01  4.12194e-03 -4.32745e-01 
-1.58178e+01  5.99568e-03 -5.37244e-01 
-1.54719e+01  8.11339e-03 -6.40259e-01 
-1.51263e+01  1.03413e-02 -7.41739e-01 
-1.47808e+01  1.26785e-02 -8.41698e-01 
-1.44353e+01  1.50015e-02 -9.40070e-01 
-1.40897e+01  1.73206e-02 -1.03685e+00 
-1.37439e+01  1.95244e-02 -1.13196e+00 
-1.33978e+01  2.16358e-02 -1.22537e+00 
-1.30512e+01  2.35560e-02 -1.31701e+00 
-1.27041e+01  2.53208e-02 -1.40685e+00 
-1.23565e+01  2.68441e-02 -1.49478e+00 
-1.20083e+01  2.81738e-02 -1.58078e+00 
-1.16593e+01  2.92352e-02 -1.66477e+00 
-1.13098e+01  3.00873e-02 -1.74669e+00 
-1.09594e+01  3.06652e-02 -1.82648e+00 
-1.06084e+01  3.10372e-02 -1.90409e+00 
-1.02565e+01  3.11462e-02 -1.97944e+00 
-9.90397e+00  3.10676e-02 -2.05251e+00 
-9.55061e+00  3.07501e-02 -2.12322e+00 
-9.19656e+00  3.02740e-02 -2.19155e+00 
-8.84172e+00  2.95917e-02 -2.25743e+00 
-8.48623e+00  2.87864e-02 -2.32085e+00 
-8.13000e+00  2.78122e-02 -2.38175e+00 
-7.77316e+00  2.67534e-02 -2.44013e+00 
-7.41563e+00  2.55639e-02 -2.49593e+00 
-7.05755e+00  2.43277e-02 -2.54915e+00 
-6.69884e+00  2.29971e-02 -2.59975e+00 
-6.33965e+00  2.16545e-02 -2.64774e+00 
-5.97990e+00  2.02499e-02 -2.69308e+00 
-5.61974e+00  1.88628e-02 -2.73577e+00 
-5.25908e+00  1.74402e-02 -2.77580e+00 
-4.89807e+00  1.60586e-02 -2.81318e+00 
-4.53664e+00  1.46613e-02 -2.84787e+00 
-4.17493e+00  1.33216e-02 -2.87990e+00 
-3.81285e+00  1.19790e-02 -2.90925e+00 
-3.45055e+00  1.07035e-02 -2.93594e+00 
-3.08795e+00  9.43125e-03 -2.95994e+00 
-2.72518e+00  8.22915e-03 -2.98127e+00 
-2.36218e+00  7.03026e-03 -2.99993e+00 
-1.99906e+00  5.89874e-03 -3.01592e+00 
-1.63575e+00  4.76515e-03 -3.02924e+00 
-1.27239e+00  3.69151e-03 -3.03990e+00 
-9.08891e-01  2.60648e-03 -3.04789e+00 
-5.45385e-01  1.57061e-03 -3.05321e+00 
-1.81786e-01  5.11408e-04 -3.05588e+00 
 1.81786e-01 -5.11408e-04 -3.05588e+00 
 5.45385e-01 -1.57061e-03 -3.05321e+00 
 9.08891e-01 -2.60648e-03 -3.04789e+00 
 1.27239e+00 -3.69151e-03 -3.03990e+00 
 1.63575e+00 -4.76515e-03 -3.02924e+00 
 1.99906e+00 -5.89874e-03 -3.01592e+00 
 2.36218e+00 -7.03026e-03 -2.99993e+00 
 2.72518e+00 -8.22915e-03 -2.98127e+00 
 3.08795e+00 -9.43125e-03 -2.95994e+00 
 3.45055e+00 -1.07035e-02 -2.93594e+00 
 3.81285e+00 -1.19790e-02 -2.90925e+00 
 4.17493e+00 -1.33216e-02 -2.87990e+00 
 4.53664e+00 -1.46613e-02 -2.84787e+00 
 4.89807e+00 -1.60586e-02 -2.81318e+00 
 5.25908e+00 -1.74402e-02 -2.77580e+00 
 5.61974e+00 -1.88628e-02 -2.73577e+00 
 5.97990e+00 -2.02499e-02 -2.69308e+00 
 6.33965e+00 -2.16545e-02 -2.64774e+00 
 6.69884e+00 -2.29971e-02 -2.59975e+00 
 7.05755e+00 -2.43277e-02 -2.54915e+00 
 7.41563e+00 -2.55639e-02 -2.49593e+00 
 7.77316e+00 -2.67534e-02 -2.44013e+00 
 8.13000e+00 -2.78122e-02 -2.38175e+00 
 8.48623e+00 -2.87864e-02 -2.32085e+00 
 8.84172e+00 -2.95917e-02 -2.25743e+00 
 9.19656e+00 -3.02740e-02 -2.19155e+00 
 9.55061e+00 -3.07501e-02 -2.12322e+00 
 9.90397e+00 -3.10676e-02 -2.05251e+00 
 1.02565e+01 -3.11462e-02 -1.97944e+00 
 1.06084e+01 -3.10372e-02 -1.90409e+00 
 1.09594e+01 -3.06652e-02 -1.82648e+00 
 1.13098e+01 -3.00873e-02 -1.74669e+00 
 1.16593e+01 -2.92352e-02 -1.66477e+00 
 1.20083e+01 -2.81738e-02 -1.58078e+00 
 1.23565e+01 -2.68441e-02 -1.49478e+00 
 1.27041e+01 -2.53208e-02 -1.40685e+00 
 1.30512e+01 -2.35560e-02 -1.31701e+00 
 1.33978e+01 -2.16358e-02 -1.22537e+00 
 1.37439e+01 -1.95244e-02 -1.13196e+00 
 1.40897e+01 -1.73206e-02 -1.03685e+00 
 1.44353e+01 -1.50015e-02 -9.40070e-01 
 1.47808e+01 -1.26785e-02 -8.41698e-01 
 1.51263e+01 -1.03413e-02 -7.41739e-01 
 1.54719e+01 -8.11339e-03 -6.40259e-01 
 1.58178e+01 -5.99568e-03 -5.37244e-01 
 1.61641e+01 -4.12194e-03 -4.32745e-01 
 1.65109e+01 -2.50193e-03 -3.26726e-01 
 1.68585e+01 -1.27684e-03 -2.19213e-01 
 1.72070e+01 -4.60480e-04 -1.10143e-01 
 1.75339e+01 -5.02809e-02 -5.85486e-02 
-1.73102e+01  4.97796e-02 -5.91140e-02 
-1.69863e+01  4.18363e-04 -1.11175e-01 
-1.66411e+01  1.16624e-03 -2.21172e-01 
-1.62967e+01  2.29207e-03 -3.29464e-01 
-1.59530e+01  3.79300e-03 -4.36117e-01 
-1.56098e+01  5.53942e-03 -5.41109e-01 
-1.52671e+01  7.53089e-03 -6.44481e-01 
-1.49246e+01  9.64304e-03 -7.46193e-01 
-1.45824e+01  1.18819e-02 -8.46266e-01 
-1.42402e+01  1.41310e-02 -9.44644e-01 
-1.38979e+01  1.64049e-02 -1.04133e+00 
-1.35555e+01  1.85966e-02 -1.13627e+00 
-1.32129e+01  2.07306e-02 -1.22943e+00 
-1.28700e+01  2.27102e-02 -1.32076e+00 
-1.25267e+01  2.45705e-02 -1.41023e+00 
-1.21829e+01  2.62248e-02 -1.49776e+00 
-1.18387e+01  2.77187e-02 -1.58333e+00 
-1.14938e+01  2.89750e-02 -1.66687e+00 
-1.11485e+01  3.00488e-02 -1.74834e+00 
-1.08024e+01  3.08716e-02 -1.82766e+00 
-1.04558e+01  3.15063e-02 -1.90482e+00 
-1.01085e+01  3.18918e-02 -1.97973e+00 
-9.76057e+00  3.20975e-02 -2.05238e+00 
-9.41192e+00  3.20677e-02 -2.12269e+00 
-9.06267e+00  3.18768e-02 -2.19065e+00 
-8.71272e+00  3.14730e-02 -2.25620e+00 
-8.36218e+00  3.09336e-02 -2.31932e+00 
-8.01096e+00  3.02091e-02 -2.37995e+00 
-7.65919e+00  2.93787e-02 -2.43809e+00 
-7.30679e+00  2.83935e-02 -2.49369e+00 
-6.95388e+00  2.73330e-02 -2.54674e+00 
-6.60038e+00  2.61479e-02 -2.59721e+00 
-6.24642e+00  2.49170e-02 -2.64509e+00 
-5.89194e+00  2.35896e-02 -2.69035e+00 
-5.53706e+00  2.22429e-02 -2.73299e+00 
-5.18171e+00  2.08241e-02 -2.77299e+00 
-4.82602e+00  1.94084e-02 -2.81036e+00 
-4.46991e+00  1.79403e-02 -2.84506e+00 
-4.11353e+00  1.64928e-02 -2.87711e+00 
-3.75679e+00  1.50077e-02 -2.90650e+00 
-3.39984e+00  1.35555e-02 -2.93322e+00 
-3.04258e+00  1.20754e-02 -2.95727e+00 
-2.68516e+00  1.06355e-02 -2.97865e+00 
-2.32749e+00  9.17271e-03 -2.99735e+00 
-1.96972e+00  7.75300e-03 -3.01339e+00 
-1.61175e+00  6.31125e-03 -3.02675e+00 
-1.25373e+00  4.91183e-03 -3.03744e+00 
-8.95558e-01  3.48811e-03 -3.04545e+00 
-5.37386e-01  2.10329e-03 -3.05080e+00 
-1.79120e-01  6.89809e-04 -3.05347e+00 
 1.79120e-01 -6.89809e-04 -3.05347e+00 
 5.37386e-01 -2.10329e-03 -3.05080e+00 
 8.95558e-01 -3.48811e-03 -3.04545e+00 
 1.25373e+00 -4.91183e-03 -3.03744e+00 
 1.61175e+00 -6.31125e-03 -3.02675e+00 
 1.96972e+00 -7.75300e-03 -3.01339e+00 
 2.32749e+00 -9.17271e-03 -2.99735e+00 
 2.68516e+00 -1.06355e-02 -2.97865e+00 
 3.04258e+00 -1.20754e-02 -2.95727e+00 
 3.39984e+00 -1.35555e-02 -2.93322e+00 
 3.75679e+00 -1.50077e-02 -2.90650e+00 
 4.11353e+00 -1.64928e-02 -2.87711e+00 
 4.46991e+00 -1.79403e-02 -2.84506e+00 
 4.82602e+00 -1.94084e-02 -2.81036e+00 
 5.18171e+00 -2.08241e-02 -2.77299e+00 
 5.53706e+00 -2.22429e-02 -2.73299e+00 
 5.89194e+00 -2.35896e-02 -2.69035e+00 
 6.24642e+00 -2.49170e-02 -2.64509e+00 
 6.60038e+00 -2.61479e-02 -2.59721e+00 
 6.95388e+00 -2.73330e-02 -2.54674e+00 
 7.30679e+00 -2.83935e-02 -2.49369e+00 
 7.65919e+00 -2.93787e-02 -2.43809e+00 
 8.01096e+00 -3.02091e-02 -2.37995e+00 
 8.36218e+00 -3.09336e-02 -2.31932e+00 
 8.71272e+00 -3.14730e-02 -2.25620e+00 
 9.06267e+00 -3.18768e-02 -2.19065e+00 
 9.41192e+00 -3.20677e-02 -2.12269e+00 
 9.76057e+00 -3.20975e-02 -2.05238e+00 
 1.01085e+01 -3.18918e-02 -1.97973e+00 
 1.04558e+01 -3.15063e-02 -1.90482e+00 
 1.08024e+01 -3.08716e-02 -1.82766e+00 
 1.11485e+01 -3.00488e-02 -1.74834e+00 
 1.14938e+01 -2.89750e-02 -1.66687e+00 
 1.18387e+01 -2.77187e-02 -1.58333e+00 
 1.21829e+01 -2.62248e-02 -1.49776e+00 
 1.25267e+01 -2.45705e-02 -1.41023e+00 
 1.28700e+01 -2.27102e-02 -1.32076e+00 
 1.32129e+01 -2.07306e-02 -1.22943e+00 
 1.35555e+01 -1.85966e-02 -1.13627e+00 
 1.38979e+01 -1.64049e-02 -1.04133e+00 
 1.42402e+01 -1.41310e-02 -9.44644e-01 
 1.45824e+01 -1.18819e-02 -8.46266e-01 
 1.49246e+01 -9.64304e-03 -7.46193e-01 
 1.52671e+01 -7.53089e-03 -6.44481e-01 
 1.56098e+01 -5.53942e-03 -5.41109e-01 
 1.59530e+01 -3.79300e-03 -4.36117e-01 
 1.62967e+01 -2.29207e-03 -3.29464e-01 
 1.66411e+01 -1.16624e-03 -2.21172e-01 
 1.69863e+01 -4.18363e-04 -1.11175e-01 
 1.73102e+01 -4.97796e-02 -5.91140e-02 
-1.70843e+01  4.92401e-02 -5.96281e-02 
-1.67638e+01  3.77935e-04 -1.12116e-01 
-1.64221e+01  1.05904e-03 -2.22965e-01 
-1.60811e+01  2.08628e-03 -3.31983e-01 
-1.57408e+01  3.46605e-03 -4.39239e-01 
-1.54010e+01  5.07885e-03 -5.44711e-01 
-1.50617e+01  6.93226e-03 -6.48448e-01 
-1.47226e+01  8.91038e-03 -7.50413e-01 
-1.43838e+01  1.10255e-02 -8.50635e-01 
-1.40451e+01  1.31675e-02 -9.49065e-01 
-1.37064e+01  1.53552e-02 -1.04572e+00 
-1.33675e+01  1.74860e-02 -1.14053e+00 
-1.30286e+01  1.95866e-02 -1.23352e+00 
-1.26894e+01  2.15625e-02 -1.32460e+00 
-1.23499e+01  2.34490e-02 -1.41377e+00 
-1.20101e+01  2.51600e-02 -1.50096e+00 
-1.16699e+01  2.67392e-02 -1.58617e+00 
-1.13292e+01  2.81089e-02 -1.66931e+00 
-1.09880e+01  2.93206e-02 -1.75036e+00 
-1.06463e+01  3.03041e-02 -1.82927e+00 
-1.03041e+01  3.11182e-02 -1.90601e+00 
-9.96130e+00  3.16987e-02 -1.98050e+00 
-9.61797e+00  3.21106e-02 -2.05275e+00 
-9.27400e+00  3.22948e-02 -2.12267e+00 
-8.92950e+00  3.23208e-02 -2.19026e+00 
-8.58437e+00  3.21336e-02 -2.25546e+00 
-8.23872e+00  3.18058e-02 -2.31825e+00 
-7.89246e+00  3.12850e-02 -2.37858e+00 
-7.54570e+00  3.06458e-02 -2.43645e+00 
-7.19836e+00  2.98371e-02 -2.49180e+00 
-6.85055e+00  2.89346e-02 -2.54464e+00 
-6.50220e+00  2.78873e-02 -2.59491e+00 
-6.15343e+00  2.67709e-02 -2.64263e+00 
-5.80416e+00  2.55338e-02 -2.68775e+00 
-5.45452e+00  2.42510e-02 -2.73028e+00 
-5.10443e+00  2.28696e-02 -2.77019e+00 
-4.75402e+00  2.14635e-02 -2.80748e+00 
-4.40322e+00  1.99780e-02 -2.84213e+00 
-4.05214e+00  1.84854e-02 -2.87414e+00 
-3.70072e+00  1.69291e-02 -2.90349e+00 
-3.34909e+00  1.53797e-02 -2.93019e+00 
-2.99717e+00  1.37787e-02 -2.95423e+00 
-2.64508e+00  1.21950e-02 -2.97561e+00 
-2.29276e+00  1.05683e-02 -2.99432e+00 
-1.94032e+00  8.96597e-03 -3.01036e+00 
-1.58770e+00  7.32623e-03 -3.02372e+00 
-1.23502e+00  5.71505e-03 -3.03442e+00 
-8.82196e-01  4.06965e-03 -3.04244e+00 
-5.29368e-01  2.45505e-03 -3.04779e+00 
-1.76447e-01  8.07751e-04 -3.05047e+00 
 1.76447e-01 -8.07751e-04 -3.05047e+00 
 5.29368e-01 -2.45505e-03 -3.04779e+00 
 8.82196e-01 -4.06965e-03 -3.04244e+00 
 1.23502e+00 -5.71505e-03 -3.03442e+00 
 1.58770e+00 -7.32623e-03 -3.02372e+00 
 1.94032e+00 -8.96597e-03 -3.01036e+00 
 2.29276e+00 -1.05683e-02 -2.99432e+00 
 2.64508e+00 -1.21950e-02 -2.97561e+00 
 2.99717e+00 -1.37787e-02 -2.95423e+00 
 3.34909e+00 -1.53797e-02 -2.93019e+00 
 3.70072e+00 -1.69291e-02 -2.90349e+00 
 4.05214e+00 -1.84854e-02 -2.87414e+00 
 4.40322e+00 -1.99780e-02 -2.84213e+00 
 4.75402e+00 -2.14635e-02 -2.80748e+00 
 5.10443e+00 -2.28696e-02 -2.77019e+00 
 5.45452e+00 -2.42510e-02 -2.73028e+00 
 5.80416e+00 -2.55338e-02 -2.68775e+00 
 6.15343e+00 -2.67709e-02 -2.64263e+00 
 6.50220e+00 -2.78873e-02 -2.59491e+00 
 6.85055e+00 -2.89346e-02 -2.54464e+00 
 7.19836e+00 -2.98371e-02 -2.49180e+00 
 7.54570e+00 -3.06458e-02 -2.43645e+00 
 7.89246e+00 -3.12850e-02 -2.37858e+00 
 8.23872e+00 -3.18058e-02 -2.31825e+00 
 8.58437e+00 -3.21336e-02 -2.25546e+00 
 8.92950e+00 -3.23208e-02 -2.19026e+00 
 9.27400e+00 -3.22948e-02 -2.12267e+00 
 9.61797e+00 -3.21106e-02 -2.05275e+00 
 9.96130e+00 -3.16987e-02 -1.98050e+00 
 1.03041e+01 -3.11182e-02 -1.90601e+00 
 1.06463e+01 -3.03041e-02 -1.82927e+00 
 1.09880e+01 -2.93206e-02 -1.75036e+00 
 1.13292e+01 -2.81089e-02 -1.66931e+00 
 1.16699e+01 -2.67392e-02 -1.58617e+00 
 1.20101e+01 -2.51600e-02 -1.50096e+00 
 1.23499e+01 -2.34490e-02 -1.41377e+00 
 1.26894e+01 -2.15625e-02 -1.32460e+00 
 1.30286e+01 -1.95866e-02 -1.23352e+00 
 1.33675e+01 -1.74860e-02 -1.14053e+00 
 1.37064e+01 -1.53552e-02 -1.04572e+00 
 1.40451e+01 -1.31675e-02 -9.49065e-01 
 1.43838e+01 -1.10255e-02 -8.50635e-01 
 1.47226e+01 -8.91038e-03 -7.50413e-01 
 1.50617e+01 -6.93226e-03 -6.48448e-01 
 1.54010e+01 -5.07885e-03 -5.44711e-01 
 1.57408e+01 -3.46605e-03 -4.39239e-01 
 1.60811e+01 -2.08628e-03 -3.31983e-01 
 1.64221e+01 -1.05904e-03 -2.22965e-01 
 1.67638e+01 -3.77935e-04 -1.12116e-01 
 1.70843e+01 -4.92401e-02 -5.96281e-02 
-1.68564e+01  4.86690e-02 -6.00930e-02 
-1.65395e+01  3.39650e-04 -1.12968e-01 
-1.62015e+01  9.56741e-04 -2.24595e-01 
-1.58643e+01  1.88814e-03 -3.34285e-01 
-1.55276e+01  3.14803e-03 -4.42106e-01 
-1.51914e+01  4.62578e-03 -5.48040e-01 
-1.48557e+01  6.33583e-03 -6.52137e-01 
-1.45202e+01  8.16988e-03 -7.54364e-01 
-1.41850e+01  1.01457e-02 -8.54757e-01 
-1.38499e+01  1.21592e-02 -9.53271e-01 
-1.35149e+01  1.42332e-02 -1.04993e+00 
-1.31798e+01  1.62693e-02 -1.14468e+00 
-1.28447e+01  1.82966e-02 -1.23753e+00 
-1.25093e+01  2.02231e-02 -1.32841e+00 
-1.21738e+01  2.20849e-02 -1.41735e+00 
-1.18380e+01  2.37969e-02 -1.50426e+00 
-1.15018e+01  2.54021e-02 -1.58914e+00 
-1.11653e+01  2.68226e-02 -1.67194e+00 
-1.08284e+01  2.81078e-02 -1.75263e+00 
-1.04910e+01  2.91864e-02 -1.83116e+00 
-1.01532e+01  3.01140e-02 -1.90751e+00 
-9.81491e+00  3.08247e-02 -1.98162e+00 
-9.47615e+00  3.13798e-02 -2.05348e+00 
-9.13682e+00  3.17180e-02 -2.12303e+00 
-8.79705e+00  3.19048e-02 -2.19025e+00 
-8.45670e+00  3.18827e-02 -2.25510e+00 
-8.11590e+00  3.17206e-02 -2.31756e+00 
-7.77455e+00  3.13635e-02 -2.37757e+00 
-7.43275e+00  3.08825e-02 -2.43515e+00 
-7.09042e+00  3.02245e-02 -2.49023e+00 
-6.74767e+00  2.94618e-02 -2.54282e+00 
-6.40442e+00  2.85422e-02 -2.59287e+00 
-6.06078e+00  2.75384e-02 -2.64038e+00 
-5.71668e+00  2.63980e-02 -2.68532e+00 
-5.37224e+00  2.51940e-02 -2.72769e+00 
-5.02737e+00  2.38733e-02 -2.76746e+00 
-4.68220e+00  2.25081e-02 -2.80463e+00 
-4.33666e+00  2.10445e-02 -2.83917e+00 
-3.99086e+00  1.95536e-02 -2.87109e+00 
-3.64474e+00  1.79803e-02 -2.90037e+00 
-3.29841e+00  1.63946e-02 -2.92701e+00 
-2.95180e+00  1.47401e-02 -2.95100e+00 
-2.60504e+00  1.30856e-02 -2.97234e+00 
-2.25804e+00  1.13734e-02 -2.99101e+00 
-1.91094e+00  9.67132e-03 -3.00703e+00 
-1.56365e+00  7.92041e-03 -3.02037e+00 
-1.21631e+00  6.18758e-03 -3.03106e+00 
-8.68835e-01  4.41312e-03 -3.03907e+00 
-5.21350e-01  2.66324e-03 -3.04441e+00 
-1.73775e-01  8.77708e-04 -3.04708e+00 
 1.73775e-01 -8.77708e-04 -3.04708e+00 
 5.21350e-01 -2.66324e-03 -3.04441e+00 
 8.68835e-01 -4.41312e-03 -3.03907e+00 
 1.21631e+00 -6.18758e-03 -3.03106e+00 
 1.56365e+00 -7.92041e-03 -3.02037e+00 
 1.91094e+00 -9.67132e-03 -3.00703e+00 
 2.25804e+00 -1.13734e-02 -2.99101e+00 
 2.60504e+00 -1.30856e-02 -2.97234e+00 
 2.95180e+00 -1.47401e-02 -2.95100e+00 
 3.29841e+00 -1.63946e-02 -2.92701e+00 
 3.64474e+00 -1.79803e-02 -2.90037e+00 
 3.99086e+00 -1.95536e-02 -2.87109e+00 
 4.33666e+00 -2.10445e-02 -2.83917e+00 
 4.68220e+00 -2.25081e-02 -2.80463e+00 
 5.02737e+00 -2.38733e-02 -2.76746e+00 
 5.37224e+00 -2.51940e-02 -2.72769e+00 
 5.71668e+00 -2.63980e-02 -2.68532e+00 
 6.06078e+00 -2.75384e-02 -2.64038e+00 
 6.40442e+00 -2.85422e-02 -2.59287e+00 
 6.74767e+00 -2.94618e-02 -2.54282e+00 
 7.09042e+00 -3.02245e-02 -2.49023e+00 
 7.43275e+00 -3.08825e-02 -2.43515e+00 
 7.77455e+00 -3.13635e-02 -2.37757e+00 
 8.11590e+00 -3.17206e-02 -2.31756e+00 
 8.45670e+00 -3.18827e-02 -2.25510e+00 
 8.79705e+00 -3.19048e-02 -2.19025e+00 
 9.13682e+00 -3.17180e-02 -2.12303e+00 
 9.47615e+00 -3.13798e-02 -2.05348e+00 
 9.81491e+00 -3.08247e-02 -1.98162e+00 
 1.01532e+01 -3.01140e-02 -1.90751e+00 
 1.04910e+01 -2.91864e-02 -1.83116e+00 
 1.08284e+01 -2.81078e-02 -1.75263e+00 
 1.11653e+01 -2.68226e-02 -1.67194e+00 
 1.15018e+01 -2.54021e-02 -1.58914e+00 
 1.18380e+01 -2.37969e-02 -1.50426e+00 
 1.21738e+01 -2.20849e-02 -1.41735e+00 
 1.25093e+01 -2.02231e-02 -1.32841e+00 
 1.28447e+01 -1.82966e-02 -1.23753e+00 
 1.31798e+01 -1.62693e-02 -1.14468e+00 
 1.35149e+01 -1.42332e-02 -1.04993e+00 
 1.38499e+01 -1.21592e-02 -9.53271e-01 
 1.41850e+01 -1.01457e-02 -8.54757e-01 
 1.45202e+01 -8.16988e-03 -7.54364e-01 
 1.48557e+01 -6.33583e-03 -6.52137e-01 
 1.51914e+01 -4.62578e-03 -5.48040e-01 
 1.55276e+01 -3.14803e-03 -4.42106e-01 
 1.58643e+01 -1.88814e-03 -3.34285e-01 
 1.62015e+01 -9.56741e-04 -2.24595e-01 
 1.65395e+01 -3.39650e-04 -1.12968e-01 
 1.68564e+01 -4.86690e-02 -6.00930e-02 
-1.66267e+01  4.80719e-02 -6.05114e-02 
-1.63136e+01  3.03784e-04 -1.13737e-01 
-1.59796e+01  8.60302e-04 -2.26070e-01 
-1.56462e+01  1.70006e-03 -3.36375e-01 
-1.53134e+01  2.84375e-03 -4.44722e-01 
-1.49810e+01  4.18852e-03 -5.51092e-01 
-1.46491e+01  5.75467e-03 -6.55537e-01 
-1.43174e+01  7.44075e-03 -7.58027e-01 
-1.39860e+01  9.26926e-03 -8.58602e-01 
-1.36546e+01  1.11418e-02 -9.57221e-01 
-1.33235e+01  1.30847e-02 -1.05391e+00 
-1.29922e+01  1.50039e-02 -1.14863e+00 
-1.26610e+01  1.69305e-02 -1.24138e+00 
-1.23296e+01  1.87757e-02 -1.33213e+00 
-1.19981e+01  2.05761e-02 -1.42086e+00 
-1.16664e+01  2.22487e-02 -1.50754e+00 
-1.13344e+01  2.38358e-02 -1.59215e+00 
-1.10021e+01  2.52601e-02 -1.67465e+00 
-1.06695e+01  2.65697e-02 -1.75502e+00 
-1.03365e+01  2.76928e-02 -1.83321e+00 
-1.00031e+01  2.86828e-02 -1.90921e+00 
-9.66927e+00  2.94729e-02 -1.98296e+00 
-9.33507e+00  3.01212e-02 -2.05446e+00 
-9.00038e+00  3.05651e-02 -2.12365e+00 
-8.66530e+00  3.08670e-02 -2.19053e+00 
-8.32971e+00  3.09677e-02 -2.25503e+00 
-7.99373e+00  3.09325e-02 -2.31716e+00 
-7.65724e+00  3.07052e-02 -2.37686e+00 
-7.32037e+00  3.03535e-02 -2.43413e+00 
-6.98301e+00  2.98228e-02 -2.48893e+00 
-6.64527e+00  2.91825e-02 -2.54125e+00 
-6.30708e+00  2.83792e-02 -2.59105e+00 
-5.96854e+00  2.74832e-02 -2.63834e+00 
-5.62956e+00  2.64415e-02 -2.68307e+00 
-5.29028e+00  2.53246e-02 -2.72525e+00 
-4.95059e+00  2.40797e-02 -2.76485e+00 
-4.61064e+00  2.27771e-02 -2.80186e+00 
-4.27032e+00  2.13634e-02 -2.83626e+00 
-3.92978e+00  1.99087e-02 -2.86806e+00 
-3.58892e+00  1.83586e-02 -2.89723e+00 
-3.24787e+00  1.67826e-02 -2.92378e+00 
-2.90655e+00  1.51256e-02 -2.94769e+00 
-2.56509e+00  1.34563e-02 -2.96896e+00 
-2.22340e+00  1.17189e-02 -2.98758e+00 
-1.88162e+00  9.98107e-03 -3.00355e+00 
-1.53966e+00  8.18634e-03 -3.01686e+00 
-1.19765e+00  6.40194e-03 -3.02751e+00 
-8.55498e-01  4.57064e-03 -3.03550e+00 
-5.13347e-01  2.75925e-03 -3.04083e+00 
-1.71107e-01  9.10160e-04 -3.04349e+00 
 1.71107e-01 -9.10160e-04 -3.04349e+00 
 5.13347e-01 -2.75925e-03 -3.04083e+00 
 8.55498e-01 -4.57064e-03 -3.03550e+00 
 1.19765e+00 -6.40194e-03 -3.02751e+00 
 1.53966e+00 -8.18634e-03 -3.01686e+00 
 1.88162e+00 -9.98107e-03 -3.00355e+00 
 2.22340e+00 -1.17189e-02 -2.98758e+00 
 2.56509e+00 -1.34563e-02 -2.96896e+00 
 2.90655e+00 -1.51256e-02 -2.94769e+00 
 3.24787e+00 -1.67826e-02 -2.92378e+00 
 3.58892e+00 -1.83586e-02 -2.89723e+00 
 3.92978e+00 -1.99087e-02 -2.86806e+00 
 4.27032e+00 -2.13634e-02 -2.83626e+00 
 4.61064e+00 -2.27771e-02 -2.80186e+00 
 4.95059e+00 -2.40797e-02 -2.76485e+00 
 5.29028e+00 -2.53246e-02 -2.72525e+00 
 5.62956e+00 -2.64415e-02 -2.68307e+00 
 5.96854e+00 -2.74832e-02 -2.63834e+00 
 6.30708e+00 -2.83792e-02 -2.59105e+00 
 6.64527e+00 -2.91825e-02 -2.54125e+00 
 6.98301e+00 -2.98228e-02 -2.48893e+00 
 7.32037e+00 -3.03535e-02 -2.43413e+00 
 7.65724e+00 -3.07052e-02 -2.37686e+00 
 7.99373e+00 -3.09325e-02 -2.31716e+00 
 8.32971e+00 -3.09677e-02 -2.25503e+00 
 8.66530e+00 -3.08670e-02 -2.19053e+00 
 9.00038e+00 -3.05651e-02 -2.12365e+00 
 9.33507e+00 -3.01212e-02 -2.05446e+00 
 9.66927e+00 -2.94729e-02 -1.98296e+00 
 1.00031e+01 -2.86828e-02 -1.90921e+00 
 1.03365e+01 -2.76928e-02 -1.83321e+00 
 1.06695e+01 -2.65697e-02 -1.75502e+00 
 1.10021e+01 -2.52601e-02 -1.67465e+00 
 1.13344e+01 -2.38358e-02 -1.59215e+00 
 1.16664e+01 -2.22487e-02 -1.50754e+00 
 1.19981e+01 -2.05761e-02 -1.42086e+00 
 1.23296e+01 -1.87757e-02 -1.33213e+00 
 1.26610e+01 -1.69305e-02 -1.24138e+00 
 1.29922e+01 -1.50039e-02 -1.14863e+00 
 1.33235e+01 -1.30847e-02 -1.05391e+00 
 1.36546e+01 -1.11418e-02 -9.57221e-01 
 1.39860e+01 -9.26926e-03 -8.58602e-01 
 1.43174e+01 -7.44075e-03 -7.58027e-01 
 1.46491e+01 -5.75467e-03 -6.55537e-01 
 1.49810e+01 -4.18852e-03 -5.51092e-01 
 1.53134e+01 -2.84375e-03 -4.44722e-01 
 1.56462e+01 -1.70006e-03 -3.36375e-01 
 1.59796e+01 -8.60302e-04 -2.26070e-01 
 1.63136e+01 -3.03784e-04 -1.13737e-01 
 1.66267e+01 -4.80719e-02 -6.05114e-02 
-1.63955e+01  4.74533e-02 -6.08862e-02 
-1.60863e+01  2.70488e-04 -1.14426e-01 
-1.57564e+01  7.70301e-04 -2.27396e-01 
-1.54271e+01  1.52355e-03 -3.38263e-01 
-1.50983e+01  2.55634e-03 -4.47094e-01 
-1.47698e+01  3.77269e-03 -5.53871e-01 
-1.44418e+01  5.19787e-03 -6.58647e-01 
-1.41141e+01  6.73653e-03 -7.61395e-01 
-1.37866e+01  8.41536e-03 -8.62156e-01 
-1.34592e+01  1.01412e-02 -9.60893e-01 
-1.31320e+01  1.19433e-02 -1.05764e+00 
-1.28048e+01  1.37321e-02 -1.15235e+00 
-1.24776e+01  1.55405e-02 -1.24504e+00 
-1.21503e+01  1.72828e-02 -1.33567e+00 
-1.18229e+01  1.89967e-02 -1.42425e+00 
-1.14953e+01  2.06011e-02 -1.51073e+00 
-1.11675e+01  2.21383e-02 -1.59512e+00 
-1.08395e+01  2.35320e-02 -1.67735e+00 
-1.05112e+01  2.48293e-02 -1.75744e+00 
-1.01825e+01  2.59588e-02 -1.83533e+00 
-9.85363e+00  2.69720e-02 -1.91101e+00 
-9.52431e+00  2.78018e-02 -1.98444e+00 
-9.19468e+00  2.85041e-02 -2.05561e+00 
-8.86462e+00  2.90156e-02 -2.12446e+00 
-8.53422e+00  2.93958e-02 -2.19100e+00 
-8.20338e+00  2.95847e-02 -2.25518e+00 
-7.87219e+00  2.96447e-02 -2.31699e+00 
-7.54055e+00  2.95186e-02 -2.37638e+00 
-7.20857e+00  2.92712e-02 -2.43335e+00 
-6.87615e+00  2.88470e-02 -2.48786e+00 
-6.54340e+00  2.83127e-02 -2.53991e+00 
-6.21023e+00  2.76142e-02 -2.58946e+00 
-5.87674e+00  2.68194e-02 -2.63650e+00 
-5.54286e+00  2.58748e-02 -2.68101e+00 
-5.20870e+00  2.48489e-02 -2.72298e+00 
-4.87416e+00  2.36887e-02 -2.76238e+00 
-4.53938e+00  2.24630e-02 -2.79922e+00 
-4.20427e+00  2.11187e-02 -2.83346e+00 
-3.86894e+00  1.97244e-02 -2.86512e+00 
-3.53332e+00  1.82267e-02 -2.89416e+00 
-3.19752e+00  1.66940e-02 -2.92060e+00 
-2.86147e+00  1.50726e-02 -2.94440e+00 
-2.52529e+00  1.34304e-02 -2.96559e+00 
-2.18889e+00  1.17130e-02 -2.98413e+00 
-1.85240e+00  9.98813e-03 -3.00003e+00 
-1.51574e+00  8.20085e-03 -3.01329e+00 
-1.17904e+00  6.41838e-03 -3.02390e+00 
-8.42204e-01  4.58552e-03 -3.03186e+00 
-5.05369e-01  2.76915e-03 -3.03717e+00 
-1.68448e-01  9.13823e-04 -3.03983e+00 
 1.68448e-01 -9.13823e-04 -3.03983e+00 
 5.05369e-01 -2.76915e-03 -3.03717e+00 
 8.42204e-01 -4.58552e-03 -3.03186e+00 
 1.17904e+00 -6.41838e-03 -3.02390e+00 
 1.51574e+00 -8.20085e-03 -3.01329e+00 
 1.85240e+00 -9.98813e-03 -3.00003e+00 
 2.18889e+00 -1.17130e-02 -2.98413e+00 
 2.52529e+00 -1.34304e-02 -2.96559e+00 
 2.86147e+00 -1.50726e-02 -2.94440e+00 
 3.19752e+00 -1.66940e-02 -2.92060e+00 
 3.53332e+00 -1.82267e-02 -2.89416e+00 
 3.86894e+00 -1.97244e-02 -2.86512e+00 
 4.20427e+00 -2.11187e-02 -2.83346e+00 
 4.53938e+00 -2.24630e-02 -2.79922e+00 
 4.87416e+00 -2.36887e-02 -2.76238e+00 
 5.20870e+00 -2.48489e-02 -2.72298e+00 
 5.54286e+00 -2.58748e-02 -2.68101e+00 
 5.87674e+00 -2.68194e-02 -2.63650e+00 
 6.21023e+00 -2.76142e-02 -2.58946e+00 
 6.54340e+00 -2.83127e-02 -2.53991e+00 
 6.87615e+00 -2.88470e-02 -2.48786e+00 
 7.20857e+00 -2.92712e-02 -2.43335e+00 
 7.54055e+00 -2.95186e-02 -2.37638e+00 
 7.87219e+00 -2.96447e-02 -2.31699e+00 
 8.20338e+00 -2.95847e-02 -2.25518e+00 
 8.53422e+00 -2.93958e-02 -2.19100e+00 
 8.86462e+00 -2.90156e-02 -2.12446e+00 
 9.19468e+00 -2.85041e-02 -2.05561e+00 
 9.52431e+00 -2.78018e-02 -1.98444e+00 
 9.85363e+00 -2.69720e-02 -1.91101e+00 
 1.01825e+01 -2.59588e-02 -1.83533e+00 
 1.05112e+01 -2.48293e-02 -1.75744e+00 
 1.08395e+01 -2.35320e-02 -1.67735e+00 
 1.11675e+01 -2.21383e-02 -1.59512e+00 
 1.14953e+01 -2.06011e-02 -1.51073e+00 
 1.18229e+01 -1.89967e-02 -1.42425e+00 
 1.21503e+01 -1.72828e-02 -1.33567e+00 
 1.24776e+01 -1.55405e-02 -1.24504e+00 
 1.28048e+01 -1.37321e-02 -1.15235e+00 
 1.31320e+01 -1.19433e-02 -1.05764e+00 
 1.34592e+01 -1.01412e-02 -9.60893e-01 
 1.37866e+01 -8.41536e-03 -8.62156e-01 
 1.41141e+01 -6.73653e-03 -7.61395e-01 
 1.44418e+01 -5.19787e-03 -6.58647e-01 
 1.47698e+01 -3.77269e-03 -5.53871e-01 
 1.50983e+01 -2.55634e-03 -4.47094e-01 
 1.54271e+01 -1.52355e-03 -3.38263e-01 
 1.57564e+01 -7.70301e-04 -2.27396e-01 
 1.60863e+01 -2.70488e-04 -1.14426e-01 
 1.63955e+01 -4.74533e-02 -6.08862e-02 
-1.61629e+01  4.68171e-02 -6.12207e-02 
-1.58577e+01  2.39813e-04 -1.15043e-01 
-1.55321e+01  6.87007e-04 -2.28585e-01 
-1.52069e+01  1.35943e-03 -3.39959e-01 
-1.48823e+01  2.28771e-03 -4.49232e-01 
-1.45580e+01  3.38188e-03 -5.56386e-01 
-1.42341e+01  4.67140e-03 -6.61474e-01 
-1.39104e+01  6.06645e-03 -7.64469e-01 
-1.35870e+01  7.59725e-03 -8.65414e-01 
-1.32637e+01  9.17543e-03 -9.64276e-01 
-1.29405e+01  1.08332e-02 -1.06109e+00 
-1.26174e+01  1.24846e-02 -1.15581e+00 
-1.22943e+01  1.41647e-02 -1.24847e+00 
-1.19711e+01  1.57909e-02 -1.33902e+00 
-1.16479e+01  1.74018e-02 -1.42748e+00 
-1.13246e+01  1.89186e-02 -1.51379e+00 
-1.10011e+01  2.03836e-02 -1.59798e+00 
-1.06773e+01  2.17221e-02 -1.67999e+00 
-1.03534e+01  2.29805e-02 -1.75983e+00 
-1.00292e+01  2.40880e-02 -1.83745e+00 
-9.70478e+00  2.50950e-02 -1.91285e+00 
-9.37999e+00  2.59345e-02 -1.98598e+00 
-9.05494e+00  2.66605e-02 -2.05685e+00 
-8.72951e+00  2.72095e-02 -2.12539e+00 
-8.40379e+00  2.76390e-02 -2.19162e+00 
-8.07768e+00  2.78882e-02 -2.25549e+00 
-7.75128e+00  2.80175e-02 -2.31699e+00 
-7.42447e+00  2.79687e-02 -2.37608e+00 
-7.09736e+00  2.78045e-02 -2.43276e+00 
-6.76985e+00  2.74686e-02 -2.48699e+00 
-6.44205e+00  2.70255e-02 -2.53877e+00 
-6.11387e+00  2.64204e-02 -2.58805e+00 
-5.78542e+00  2.57191e-02 -2.63485e+00 
-5.45659e+00  2.48679e-02 -2.67913e+00 
-5.12752e+00  2.39333e-02 -2.72088e+00 
-4.79811e+00  2.28624e-02 -2.76008e+00 
-4.46847e+00  2.17221e-02 -2.79673e+00 
-4.13852e+00  2.04596e-02 -2.83081e+00 
-3.80839e+00  1.91423e-02 -2.86230e+00 
-3.47797e+00  1.77173e-02 -2.89121e+00 
-3.14740e+00  1.62520e-02 -2.91751e+00 
-2.81658e+00  1.46934e-02 -2.94121e+00 
-2.48565e+00  1.31088e-02 -2.96229e+00 
-2.15452e+00  1.14449e-02 -2.98074e+00 
-1.82330e+00  9.76883e-03 -2.99658e+00 
-1.49192e+00  8.02708e-03 -3.00977e+00 
-1.16051e+00  6.28647e-03 -3.02034e+00 
-8.28964e-01  4.49338e-03 -3.02826e+00 
-4.97423e-01  2.71444e-03 -3.03355e+00 
-1.65799e-01  8.95873e-04 -3.03619e+00 
 1.65799e-01 -8.95873e-04 -3.03619e+00 
 4.97423e-01 -2.71444e-03 -3.03355e+00 
 8.28964e-01 -4.49338e-03 -3.02826e+00 
 1.16051e+00 -6.28647e-03 -3.02034e+00 
 1.49192e+00 -8.02708e-03 -3.00977e+00 
 1.82330e+00 -9.76883e-03 -2.99658e+00 
 2.15452e+00 -1.14449e-02 -2.98074e+00 
 2.48565e+00 -1.31088e-02 -2.96229e+00 
 2.81658e+00 -1.46934e-02 -2.94121e+00 
 3.14740e+00 -1.62520e-02 -2.91751e+00 
 3.47797e+00 -1.77173e-02 -2.89121e+00 
 3.80839e+00 -1.91423e-02 -2.86230e+00 
 4.13852e+00 -2.04596e-02 -2.83081e+00 
 4.46847e+00 -2.17221e-02 -2.79673e+00 
 4.79811e+00 -2.28624e-02 -2.76008e+00 
 5.12752e+00 -2.39333e-02 -2.72088e+00 
 5.45659e+00 -2.48679e-02 -2.67913e+00 
 5.78542e+00 -2.57191e-02 -2.63485e+00 
 6.11387e+00 -2.64204e-02 -2.58805e+00 
 6.44205e+00 -2.70255e-02 -2.53877e+00 
 6.76985e+00 -2.74686e-02 -2.48699e+00 
 7.09736e+00 -2.78045e-02 -2.43276e+00 
 7.42447e+00 -2.79687e-02 -2.37608e+00 
 7.75128e+00 -2.80175e-02 -2.31699e+00 
 8.07768e+00 -2.78882e-02 -2.25549e+00 
 8.40379e+00 -2.76390e-02 -2.19162e+00 
 8.72951e+00 -2.72095e-02 -2.12539e+00 
 9.05494e+00 -2.66605e-02 -2.05685e+00 
 9.37999e+00 -2.59345e-02 -1.98598e+00 
 9.70478e+00 -2.50950e-02 -1.91285e+00 
 1.00292e+01 -2.40880e-02 -1.83745e+00 
 1.03534e+01 -2.29805e-02 -1.75983e+00 
 1.06773e+01 -2.17221e-02 -1.67999e+00 
 1.10011e+01 -2.03836e-02 -1.59798e+00 
 1.13246e+01 -1.89186e-02 -1.51379e+00 
 1.16479e+01 -1.74018e-02 -1.42748e+00 
 1.19711e+01 -1.57909e-02 -1.33902e+00 
 1.22943e+01 -1.41647e-02 -1.24847e+00 
 1.26174e+01 -1.24846e-02 -1.15581e+00 
 1.29405e+01 -1.08332e-02 -1.06109e+00 
 1.32637e+01 -9.17543e-03 -9.64276e-01 
 1.35870e+01 -7.59725e-03 -8.65414e-01 
 1.39104e+01 -6.06645e-03 -7.64469e-01 
 1.42341e+01 -4.67140e-03 -6.61474e-01 
 1.45580e+01 -3.38188e-03 -5.56386e-01 
 1.48823e+01 -2.28771e-03 -4.49232e-01 
 1.52069e+01 -1.35943e-03 -3.39959e-01 
 1.55321e+01 -6.87007e-04 -2.28585e-01 
 1.58577e+01 -2.39813e-04 -1.15043e-01 
 1.61629e+01 -4.68171e-02 -6.12207e-02 
-1.59290e+01  4.61665e-02 -6.15179e-02 
-1.56280e+01  2.11740e-04 -1.15591e-01 
-1.53067e+01  6.10472e-04 -2.29644e-01 
-1.49859e+01  1.20805e-03 -3.41476e-01 
-1.46655e+01  2.03881e-03 -4.51151e-01 
-1.43454e+01  3.01810e-03 -5.58651e-01 
-1.40257e+01  4.17892e-03 -6.64028e-01 
-1.37062e+01  5.43637e-03 -7.67256e-01 
-1.33870e+01  6.82373e-03 -8.68381e-01 
-1.30679e+01  8.25701e-03 -9.67369e-01 
-1.27489e+01  9.77084e-03 -1.06426e+00 
-1.24300e+01  1.12830e-02 -1.15901e+00 
-1.21111e+01  1.28305e-02 -1.25165e+00 
-1.17922e+01  1.43334e-02 -1.34214e+00 
-1.14733e+01  1.58316e-02 -1.43050e+00 
-1.11542e+01  1.72484e-02 -1.51668e+00 
-1.08350e+01  1.86267e-02 -1.60070e+00 
-1.05157e+01  1.98931e-02 -1.68252e+00 
-1.01962e+01  2.10938e-02 -1.76215e+00 
-9.87642e+00  2.21590e-02 -1.83953e+00 
-9.55648e+00  2.31382e-02 -1.91467e+00 
-9.23624e+00  2.39648e-02 -1.98754e+00 
-8.91578e+00  2.46916e-02 -2.05812e+00 
-8.59500e+00  2.52551e-02 -2.12639e+00 
-8.27397e+00  2.57110e-02 -2.19233e+00 
-7.95259e+00  2.59985e-02 -2.25590e+00 
-7.63095e+00  2.61760e-02 -2.31712e+00 
-7.30896e+00  2.61850e-02 -2.37592e+00 
-6.98671e+00  2.60861e-02 -2.43232e+00 
-6.66410e+00  2.58228e-02 -2.48628e+00 
-6.34123e+00  2.54574e-02 -2.53779e+00 
-6.01802e+00  2.49350e-02 -2.58683e+00 
-5.69457e+00  2.43193e-02 -2.63338e+00 
-5.37078e+00  2.35564e-02 -2.67743e+00 
-5.04677e+00  2.27111e-02 -2.71896e+00 
-4.72245e+00  2.17304e-02 -2.75796e+00 
-4.39792e+00  2.06797e-02 -2.79442e+00 
-4.07312e+00  1.95065e-02 -2.82832e+00 
-3.74814e+00  1.82765e-02 -2.85965e+00 
-3.42290e+00  1.69377e-02 -2.88840e+00 
-3.09752e+00  1.55559e-02 -2.91457e+00 
-2.77192e+00  1.40791e-02 -2.93815e+00 
-2.44621e+00  1.25735e-02 -2.95912e+00 
-2.12031e+00  1.09868e-02 -2.97748e+00 
-1.79434e+00  9.38519e-03 -2.99324e+00 
-1.46822e+00  7.71639e-03 -3.00637e+00 
-1.14206e+00  6.04654e-03 -3.01688e+00 
-8.15786e-01  4.32326e-03 -3.02477e+00 
-4.89515e-01  2.61260e-03 -3.03002e+00 
-1.63163e-01  8.62155e-04 -3.03265e+00 
 1.63163e-01 -8.62155e-04 -3.03265e+00 
 4.89515e-01 -2.61260e-03 -3.03002e+00 
 8.15786e-01 -4.32326e-03 -3.02477e+00 
 1.14206e+00 -6.04654e-03 -3.01688e+00 
 1.46822e+00 -7.71639e-03 -3.00637e+00 
 1.79434e+00 -9.38518e-03 -2.99324e+00 
 2.12031e+00 -1.09868e-02 -2.97748e+00 
 2.44621e+00 -1.25735e-02 -2.95912e+00 
 2.77192e+00 -1.40791e-02 -2.93815e+00 
 3.09752e+00 -1.55559e-02 -2.91457e+00 
 3.42290e+00 -1.69377e-02 -2.88840e+00 
 3.74814e+00 -1.82765e-02 -2.85965e+00 
 4.07312e+00 -1.95065e-02 -2.82832e+00 
 4.39792e+00 -2.06797e-02 -2.79442e+00 
 4.72245e+00 -2.17304e-02 -2.75796e+00 
 5.04677e+00 -2.27111e-02 -2.71896e+00 
 5.37078e+00 -2.35564e-02 -2.67743e+00 
 5.69457e+00 -2.43193e-02 -2.63338e+00 
 6.01802e+00 -2.49350e-02 -2.58683e+00 
 6.34123e+00 -2.54574e-02 -2.53779e+00 
 6.66410e+00 -2.58228e-02 -2.48628e+00 
 6.98671e+00 -2.60861e-02 -2.43232e+00 
 7.30896e+00 -2.61850e-02 -2.37592e+00 
 7.63095e+00 -2.61760e-02 -2.31712e+00 
 7.95259e+00 -2.59985e-02 -2.25590e+00 
 8.27397e+00 -2.57110e-02 -2.19233e+00 
 8.59500e+00 -2.52551e-02 -2.12639e+00 
 8.91578e+00 -2.46916e-02 -2.05812e+00 
 9.23624e+00 -2.39648e-02 -1.98754e+00 
 9.55648e+00 -2.31382e-02 -1.91467e+00 
 9.87642e+00 -2.21590e-02 -1.83953e+00 
 1.01962e+01 -2.10938e-02 -1.76215e+00 
 1.05157e+01 -1.98931e-02 -1.68252e+00 
 1.08350e+01 -1.86267e-02 -1.60070e+00 
 1.11542e+01 -1.72484e-02 -1.51668e+00 
 1.14733e+01 -1.58316e-02 -1.43050e+00 
 1.17922e+01 -1.43334e-02 -1.34214e+00 
 1.21111e+01 -1.28305e-02 -1.25165e+00 
 1.24300e+01 -1.12830e-02 -1.15901e+00 
 1.27489e+01 -9.77084e-03 -1.06426e+00 
 1.30679e+01 -8.25701e-03 -9.67369e-01 
 1.33870e+01 -6.82373e-03 -8.68381e-01 
 1.37062e+01 -5.43637e-03 -7.67256e-01 
 1.40257e+01 -4.17892e-03 -6.64028e-01 
 1.43454e+01 -3.01810e-03 -5.58651e-01 
 1.46655e+01 -2.03881e-03 -4.51151e-01 
 1.49859e+01 -1.20805e-03 -3.41476e-01 
 1.53067e+01 -6.10472e-04 -2.29644e-01 
 1.56280e+01 -2.11740e-04 -1.15591e-01 
 1.59290e+01 -4.61665e-02 -6.15179e-02 
-1.56940e+01  4.55041e-02 -6.17811e-02 
-1.53972e+01  1.86196e-04 -1.16077e-01 
-1.50804e+01  5.40580e-04 -2.30586e-01 
-1.47640e+01  1.06935e-03 -3.42827e-01 
-1.44480e+01  1.80988e-03 -4.52866e-01 
-1.41323e+01  2.68222e-03 -5.60680e-01 
-1.38169e+01  3.72230e-03 -6.66323e-01 
-1.35017e+01  4.84963e-03 -7.69770e-01 
-1.31867e+01  6.10011e-03 -8.71066e-01 
-1.28719e+01  7.39375e-03 -9.70179e-01 
-1.25572e+01  8.76729e-03 -1.06715e+00 
-1.22426e+01  1.01421e-02 -1.16193e+00 
-1.19280e+01  1.15565e-02 -1.25457e+00 
-1.16134e+01  1.29338e-02 -1.34502e+00 
-1.12988e+01  1.43146e-02 -1.43330e+00 
-1.09841e+01  1.56247e-02 -1.51937e+00 
-1.06693e+01  1.69073e-02 -1.60326e+00 
-1.03544e+01  1.80909e-02 -1.68491e+00 
-1.00393e+01  1.92213e-02 -1.76435e+00 
-9.72409e+00  2.02301e-02 -1.84152e+00 
-9.40868e+00  2.11661e-02 -1.91644e+00 
-9.09301e+00  2.19635e-02 -1.98907e+00 
-8.77717e+00  2.26740e-02 -2.05940e+00 
-8.46103e+00  2.32345e-02 -2.12741e+00 
-8.14469e+00  2.36993e-02 -2.19308e+00 
-7.82805e+00  2.40079e-02 -2.25639e+00 
-7.51118e+00  2.42168e-02 -2.31734e+00 
-7.19400e+00  2.42677e-02 -2.37588e+00 
-6.87659e+00  2.42194e-02 -2.43201e+00 
-6.55886e+00  2.40152e-02 -2.48571e+00 
-6.24092e+00  2.37157e-02 -2.53697e+00 
-5.92265e+00  2.32659e-02 -2.58576e+00 
-5.60418e+00  2.27277e-02 -2.63208e+00 
-5.28541e+00  2.20473e-02 -2.67590e+00 
-4.96643e+00  2.12876e-02 -2.71723e+00 
-4.64718e+00  2.03958e-02 -2.75602e+00 
-4.32774e+00  1.94357e-02 -2.79229e+00 
-4.00805e+00  1.83550e-02 -2.82601e+00 
-3.68820e+00  1.72182e-02 -2.85718e+00 
-3.36811e+00  1.59734e-02 -2.88578e+00 
-3.04790e+00  1.46854e-02 -2.91181e+00 
-2.72749e+00  1.33027e-02 -2.93526e+00 
-2.40697e+00  1.18902e-02 -2.95612e+00 
-2.08628e+00  1.03966e-02 -2.97439e+00 
-1.76553e+00  8.88703e-03 -2.99006e+00 
-1.44464e+00  7.31010e-03 -3.00312e+00 
-1.12371e+00  5.73103e-03 -3.01358e+00 
-8.02675e-01  4.09849e-03 -3.02143e+00 
-4.81646e-01  2.47772e-03 -3.02666e+00 
-1.60540e-01  8.17376e-04 -3.02927e+00 
 1.60540e-01 -8.17376e-04 -3.02927e+00 
 4.81646e-01 -2.47772e-03 -3.02666e+00 
 8.02675e-01 -4.09849e-03 -3.02143e+00 
 1.12371e+00 -5.73103e-03 -3.01358e+00 
 1.44464e+00 -7.31010e-03 -3.00312e+00 
 1.76553e+00 -8.88703e-03 -2.99006e+00 
 2.08628e+00 -1.03966e-02 -2.97439e+00 
 2.40697e+00 -1.18902e-02 -2.95612e+00 
 2.72749e+00 -1.33027e-02 -2.93526e+00 
 3.04790e+00 -1.46854e-02 -2.91181e+00 
 3.36811e+00 -1.59734e-02 -2.88578e+00 
 3.68820e+00 -1.72182e-02 -2.85718e+00 
 4.00805e+00 -1.83550e-02 -2.82601e+00 
 4.32774e+00 -1.94357e-02 -2.79229e+00 
 4.64718e+00 -2.03958e-02 -2.75602e+00 
 4.96643e+00 -2.12876e-02 -2.71723e+00 
 5.28541e+00 -2.20473e-02 -2.67590e+00 
 5.60418e+00 -2.27277e-02 -2.63208e+00 
 5.92265e+00 -2.32659e-02 -2.58576e+00 
 6.24092e+00 -2.37157e-02 -2.53697e+00 
 6.55886e+00 -2.40152e-02 -2.48571e+00 
 6.87659e+00 -2.42194e-02 -2.43201e+00 
 7.19400e+00 -2.42677e-02 -2.37588e+00 
 7.51118e+00 -2.42168e-02 -2.31734e+00 
 7.82805e+00 -2.40079e-02 -2.25639e+00 
 8.14469e+00 -2.36993e-02 -2.19308e+00 
 8.46103e+00 -2.32345e-02 -2.12741e+00 
 8.77717e+00 -2.26740e-02 -2.05940e+00 
 9.09301e+00 -2.19635e-02 -1.98907e+00 
 9.40868e+00 -2.11661e-02 -1.91644e+00 
 9.72409e+00 -2.02301e-02 -1.84152e+00 
 1.00393e+01 -1.92213e-02 -1.76435e+00 
 1.03544e+01 -1.80909e-02 -1.68491e+00 
 1.06693e+01 -1.69073e-02 -1.60326e+00 
 1.09841e+01 -1.56247e-02 -1.51937e+00 
 1.12988e+01 -1.43146e-02 -1.43330e+00 
 1.16134e+01 -1.29338e-02 -1.34502e+00 
 1.19280e+01 -1.15565e-02 -1.25457e+00 
 1.22426e+01 -1.01421e-02 -1.16193e+00 
 1.25572e+01 -8.76729e-03 -1.06715e+00 
 1.28719e+01 -7.39375e-03 -9.70179e-01 
 1.31867e+01 -6.10011e-03 -8.71066e-01 
 1.35017e+01 -4.84963e-03 -7.69770e-01 
 1.38169e+01 -3.72230e-03 -6.66323e-01 
 1.41323e+01 -2.68222e-03 -5.60680e-01 
 1.44480e+01 -1.80988e-03 -4.52866e-01 
 1.47640e+01 -1.06935e-03 -3.42827e-01 
 1.50804e+01 -5.40580e-04 -2.30586e-01 
 1.53972e+01 -1.86196e-04 -1.16077e-01 
 1.56940e+01 -4.55041e-02 -6.17811e-02 
-1.54581e+01  4.48321e-02 -6.20134e-02 
-1.51655e+01  1.63071e-04 -1.16507e-01 
-1.48533e+01  4.77097e-04 -2.31419e-01 
-1.45414e+01  9.43015e-04 -3.44026e-01 
-1.42299e+01  1.60065e-03 -4.54390e-01 
-1.39186e+01  2.37422e-03 -5.62489e-01 
-1.36076e+01  3.30205e-03 -6.68377e-01 
-1.32968e+01  4.30766e-03 -7.72025e-01 
-1.29862e+01  5.42910e-03 -8.73482e-01 
-1.26757e+01  6.59004e-03 -9.72715e-01 
-1.23654e+01  7.82905e-03 -1.06976e+00 
-1.20551e+01  9.07074e-03 -1.16459e+00 
-1.17449e+01  1.03549e-02 -1.25724e+00 
-1.14347e+01  1.16075e-02 -1.34765e+00 
-1.11245e+01  1.28702e-02 -1.43588e+00 
-1.08142e+01  1.40710e-02 -1.52186e+00 
-1.05039e+01  1.52535e-02 -1.60563e+00 
-1.01934e+01  1.63481e-02 -1.68714e+00 
-9.88289e+00  1.74006e-02 -1.76641e+00 
-9.57217e+00  1.83439e-02 -1.84340e+00 
-9.26132e+00  1.92263e-02 -1.91813e+00 
-8.95025e+00  1.99830e-02 -1.99054e+00 
-8.63904e+00  2.06648e-02 -2.06065e+00 
-8.32757e+00  2.12094e-02 -2.12842e+00 
-8.01593e+00  2.16698e-02 -2.19386e+00 
-7.70402e+00  2.19860e-02 -2.25692e+00 
-7.39193e+00  2.22131e-02 -2.31762e+00 
-7.07955e+00  2.22931e-02 -2.37591e+00 
-6.76698e+00  2.22831e-02 -2.43180e+00 
-6.45413e+00  2.21267e-02 -2.48526e+00 
-6.14108e+00  2.18828e-02 -2.53628e+00 
-5.82776e+00  2.14965e-02 -2.58484e+00 
-5.51425e+00  2.10280e-02 -2.63094e+00 
-5.20046e+00  2.04236e-02 -2.67454e+00 
-4.88651e+00  1.97449e-02 -2.71566e+00 
-4.57229e+00  1.89389e-02 -2.75425e+00 
-4.25793e+00  1.80681e-02 -2.79034e+00 
-3.94332e+00  1.70804e-02 -2.82388e+00 
-3.62857e+00  1.60389e-02 -2.85489e+00 
-3.31361e+00  1.48920e-02 -2.88334e+00 
-2.99855e+00  1.37033e-02 -2.90924e+00 
-2.68328e+00  1.24217e-02 -2.93257e+00 
-2.36794e+00  1.11110e-02 -2.95332e+00 
-2.05243e+00  9.72035e-03 -2.97149e+00 
-1.73687e+00  8.31389e-03 -2.98708e+00 
-1.42117e+00  6.84095e-03 -3.00007e+00 
-1.10546e+00  5.36571e-03 -3.01048e+00 
-7.89632e-01  3.83764e-03 -3.01828e+00 
-4.73818e-01  2.32099e-03 -3.02348e+00 
-1.57931e-01  7.65277e-04 -3.02608e+00 
 1.57931e-01 -7.65277e-04 -3.02608e+00 
 4.73818e-01 -2.32099e-03 -3.02348e+00 
 7.89632e-01 -3.83764e-03 -3.01828e+00 
 1.10546e+00 -5.36571e-03 -3.01048e+00 
 1.42117e+00 -6.84095e-03 -3.00007e+00 
 1.73687e+00 -8.31389e-03 -2.98708e+00 
 2.05243e+00 -9.72035e-03 -2.97149e+00 
 2.36794e+00 -1.11110e-02 -2.95332e+00 
 2.68328e+00 -1.24217e-02 -2.93257e+00 
 2.99855e+00 -1.37033e-02 -2.90924e+00 
 3.31361e+00 -1.48920e-02 -2.88334e+00 
 3.62857e+00 -1.60389e-02 -2.85489e+00 
 3.94332e+00 -1.70804e-02 -2.82388e+00 
 4.25793e+00 -1.80681e-02 -2.79034e+00 
 4.57229e+00 -1.89389e-02 -2.75425e+00 
 4.88651e+00 -1.97449e-02 -2.71566e+00 
 5.20046e+00 -2.04236e-02 -2.67454e+00 
 5.51425e+00 -2.10280e-02 -2.63094e+00 
 5.82776e+00 -2.14965e-02 -2.58484e+00 
 6.14108e+00 -2.18828e-02 -2.53628e+00 
 6.45413e+00 -2.21267e-02 -2.48526e+00 
 6.76698e+00 -2.22831e-02 -2.43180e+00 
 7.07955e+00 -2.22931e-02 -2.37591e+00 
 7.39193e+00 -2.22131e-02 -2.31762e+00 
 7.70402e+00 -2.19860e-02 -2.25692e+00 
 8.01593e+00 -2.16698e-02 -2.19386e+00 
 8.32757e+00 -2.12094e-02 -2.12842e+00 
 8.63904e+00 -2.06648e-02 -2.06065e+00 
 8.95025e+00 -1.99830e-02 -1.99054e+00 
 9.26132e+00 -1.92263e-02 -1.91813e+00 
 9.57217e+00 -1.83439e-02 -1.84340e+00 
 9.88289e+00 -1.74006e-02 -1.76641e+00 
 1.01934e+01 -1.63481e-02 -1.68714e+00 
 1.05039e+01 -1.52535e-02 -1.60563e+00 
 1.08142e+01 -1.40710e-02 -1.52186e+00 
 1.11245e+01 -1.28702e-02 -1.43588e+00 
 1.14347e+01 -1.16075e-02 -1.34765e+00 
 1.17449e+01 -1.03549e-02 -1.25724e+00 
 1.20551e+01 -9.07074e-03 -1.16459e+00 
 1.23654e+01 -7.82905e-03 -1.06976e+00 
 1.26757e+01 -6.59004e-03 -9.72715e-01 
 1.29862e+01 -5.42910e-03 -8.73482e-01 
 1.32968e+01 -4.30766e-03 -7.72025e-01 
 1.36076e+01 -3.30205e-03 -6.68377e-01 
 1.39186e+01 -2.37422e-03 -5.62489e-01 
 1.42299e+01 -1.60065e-03 -4.54390e-01 
 1.45414e+01 -9.43015e-04 -3.44026e-01 
 1.48533e+01 -4.77097e-04 -2.31419e-01 
 1.51655e+01 -1.63071e-04 -1.16507e-01 
 1.54581e+01 -4.48321e-02 -6.20134e-02 
-1.52212e+01  4.41525e-02 -6.22176e-02 
-1.49331e+01  1.42232e-04 -1.16885e-01 
-1.46255e+01  4.19707e-04 -2.32153e-01 
-1.43181e+01  8.28524e-04 -3.45085e-01 
-1.40111e+01  1.41045e-03 -4.55741e-01 
-1.37044e+01  2.09342e-03 -5.64096e-01 
-1.33979e+01  2.91770e-03 -6.70205e-01 
-1.30915e+01  3.81042e-03 -7.74039e-01 
-1.27854e+01  4.81138e-03 -8.75644e-01 
-1.24793e+01  5.84766e-03 -9.74991e-01 
-1.21735e+01  6.95932e-03 -1.07212e+00 
-1.18676e+01  8.07402e-03 -1.16699e+00 
-1.15619e+01  9.23270e-03 -1.25965e+00 
-1.12561e+01  1.03642e-02 -1.35005e+00 
-1.09503e+01  1.15107e-02 -1.43823e+00 
-1.06445e+01  1.26026e-02 -1.52414e+00 
-1.03387e+01  1.36839e-02 -1.60781e+00 
-1.00328e+01  1.46869e-02 -1.68920e+00 
-9.72677e+00  1.56574e-02 -1.76833e+00 
-9.42061e+00  1.65298e-02 -1.84516e+00 
-9.11436e+00  1.73520e-02 -1.91971e+00 
-8.80791e+00  1.80603e-02 -1.99193e+00 
-8.50134e+00  1.87050e-02 -2.06184e+00 
-8.19456e+00  1.92244e-02 -2.12940e+00 
-7.88763e+00  1.96707e-02 -2.19462e+00 
-7.58047e+00  1.99843e-02 -2.25746e+00 
-7.27315e+00  2.02194e-02 -2.31794e+00 
-6.96558e+00  2.03182e-02 -2.37600e+00 
-6.65784e+00  2.03365e-02 -2.43167e+00 
-6.34986e+00  2.02183e-02 -2.48490e+00 
-6.04171e+00  2.00210e-02 -2.53570e+00 
-5.73330e+00  1.96899e-02 -2.58404e+00 
-5.42474e+00  1.92837e-02 -2.62993e+00 
-5.11593e+00  1.87491e-02 -2.67333e+00 
-4.80698e+00  1.81459e-02 -2.71425e+00 
-4.49778e+00  1.74216e-02 -2.75266e+00 
-4.18846e+00  1.66372e-02 -2.78857e+00 
-3.87891e+00  1.57408e-02 -2.82195e+00 
-3.56925e+00  1.47940e-02 -2.85280e+00 
-3.25939e+00  1.37458e-02 -2.88111e+00 
-2.94944e+00  1.26583e-02 -2.90687e+00 
-2.63931e+00  1.14810e-02 -2.93008e+00 
-2.32911e+00  1.02762e-02 -2.95073e+00 
-2.01876e+00  8.99382e-03 -2.96880e+00 
-1.70836e+00  7.69661e-03 -2.98431e+00 
-1.39784e+00  6.33459e-03 -2.99724e+00 
-1.08730e+00  4.97074e-03 -3.00759e+00 
-7.76658e-01  3.55522e-03 -3.01535e+00 
-4.66032e-01  2.15116e-03 -3.02052e+00 
-1.55335e-01  7.08788e-04 -3.02311e+00 
 1.55335e-01 -7.08788e-04 -3.02311e+00 
 4.66032e-01 -2.15116e-03 -3.02052e+00 
 7.76658e-01 -3.55522e-03 -3.01535e+00 
 1.08730e+00 -4.97074e-03 -3.00759e+00 
 1.39784e+00 -6.33459e-03 -2.99724e+00 
 1.70836e+00 -7.69661e-03 -2.98431e+00 
 2.01876e+00 -8.99382e-03 -2.96880e+00 
 2.32911e+00 -1.02762e-02 -2.95073e+00 
 2.63931e+00 -1.14810e-02 -2.93008e+00 
 2.94944e+00 -1.26583e-02 -2.90687e+00 
 3.25939e+00 -1.37458e-02 -2.88111e+00 
 3.56925e+00 -1.47940e-02 -2.85280e+00 
 3.87891e+00 -1.57408e-02 -2.82195e+00 
 4.18846e+00 -1.66372e-02 -2.78857e+00 
 4.49778e+00 -1.74216e-02 -2.75266e+00 
 4.80698e+00 -1.81459e-02 -2.71425e+00 
 5.11593e+00 -1.87491e-02 -2.67333e+00 
 5.42474e+00 -1.92837e-02 -2.62993e+00 
 5.73330e+00 -1.96899e-02 -2.58404e+00 
 6.04171e+00 -2.00210e-02 -2.53570e+00 
 6.34986e+00 -2.02183e-02 -2.48490e+00 
 6.65784e+00 -2.03365e-02 -2.43167e+00 
 6.96558e+00 -2.03182e-02 -2.37600e+00 
 7.27315e+00 -2.02194e-02 -2.31794e+00 
 7.58047e+00 -1.99843e-02 -2.25746e+00 
 7.88763e+00 -1.96707e-02 -2.19462e+00 
 8.19456e+00 -1.92244e-02 -2.12940e+00 
 8.50134e+00 -1.87050e-02 -2.06184e+00 
 8.80791e+00 -1.80603e-02 -1.99193e+00 
 9.11436e+00 -1.73520e-02 -1.91971e+00 
 9.42061e+00 -1.65298e-02 -1.84516e+00 
 9.72677e+00 -1.56574e-02 -1.76833e+00 
 1.00328e+01 -1.46869e-02 -1.68920e+00 
 1.03387e+01 -1.36839e-02 -1.60781e+00 
 1.06445e+01 -1.26026e-02 -1.52414e+00 
 1.09503e+01 -1.15107e-02 -1.43823e+00 
 1.12561e+01 -1.03642e-02 -1.35005e+00 
 1.15619e+01 -9.23270e-03 -1.25965e+00 
 1.18676e+01 -8.07402e-03 -1.16699e+00 
 1.21735e+01 -6.95932e-03 -1.07212e+00 
 1.24793e+01 -5.84766e-03 -9.74991e-01 
 1.27854e+01 -4.81138e-03 -8.75644e-01 
 1.30915e+01 -3.81042e-03 -7.74039e-01 
 1.33979e+01 -2.91770e-03 -6.70205e-01 
 1.37044e+01 -2.09342e-03 -5.64096e-01 
 1.40111e+01 -1.41045e-03 -4.55741e-01 
 1.43181e+01 -8.28524e-04 -3.45085e-01 
 1.46255e+01 -4.19707e-04 -2.32153e-01 
 1.49331e+01 -1.42232e-04 -1.16885e-01 
 1.52212e+01 -4.41525e-02 -6.22176e-02 
-1.49837e+01  4.34666e-02 -6.23965e-02 
-1.46999e+01  1.23527e-04 -1.17217e-01 
-1.43970e+01  3.68036e-04 -2.32799e-01 
-1.40943e+01  7.25221e-04 -3.46018e-01 
-1.37919e+01  1.23837e-03 -4.56932e-01 
-1.34897e+01  1.83870e-03 -5.65517e-01 
-1.31877e+01  2.56806e-03 -6.71825e-01 
-1.28859e+01  3.35680e-03 -7.75827e-01 
-1.25843e+01  4.24620e-03 -8.77570e-01 
-1.22828e+01  5.16639e-03 -9.77024e-01 
-1.19814e+01  6.15870e-03 -1.07423e+00 
-1.16800e+01  7.15364e-03 -1.16915e+00 
-1.13788e+01  8.19312e-03 -1.26183e+00 
-1.10775e+01  9.20851e-03 -1.35222e+00 
-1.07763e+01  1.02428e-02 -1.44036e+00 
-1.04750e+01  1.12285e-02 -1.52621e+00 
-1.01737e+01  1.22100e-02 -1.60980e+00 
-9.87234e+00  1.31214e-02 -1.69109e+00 
-9.57092e+00  1.40086e-02 -1.77010e+00 
-9.26936e+00  1.48076e-02 -1.84679e+00 
-8.96773e+00  1.55659e-02 -1.92118e+00 
-8.66593e+00  1.62212e-02 -1.99324e+00 
-8.36404e+00  1.68230e-02 -2.06297e+00 
-8.06195e+00  1.73109e-02 -2.13034e+00 
-7.75975e+00  1.77360e-02 -2.19537e+00 
-7.45734e+00  1.80396e-02 -2.25801e+00 
-7.15480e+00  1.82747e-02 -2.31827e+00 
-6.85204e+00  1.83842e-02 -2.37613e+00 
-6.54914e+00  1.84228e-02 -2.43159e+00 
-6.24601e+00  1.83348e-02 -2.48461e+00 
-5.94275e+00  1.81763e-02 -2.53521e+00 
-5.63926e+00  1.78930e-02 -2.58336e+00 
-5.33563e+00  1.75424e-02 -2.62905e+00 
-5.03179e+00  1.70712e-02 -2.67226e+00 
-4.72781e+00  1.65379e-02 -2.71299e+00 
-4.42362e+00  1.58905e-02 -2.75123e+00 
-4.11932e+00  1.51883e-02 -2.78697e+00 
-3.81482e+00  1.43800e-02 -2.82019e+00 
-3.51023e+00  1.35256e-02 -2.85090e+00 
-3.20544e+00  1.25747e-02 -2.87907e+00 
-2.90058e+00  1.15878e-02 -2.90471e+00 
-2.59556e+00  1.05148e-02 -2.92780e+00 
-2.29048e+00  9.41696e-03 -2.94835e+00 
-1.98525e+00  8.24447e-03 -2.96634e+00 
-1.67999e+00  7.05886e-03 -2.98176e+00 
-1.37462e+00  5.81065e-03 -2.99463e+00 
-1.06923e+00  4.56159e-03 -3.00492e+00 
-7.63750e-01  3.26240e-03 -3.01264e+00 
-4.58285e-01  1.97498e-03 -3.01780e+00 
-1.52753e-01  6.50160e-04 -3.02037e+00 
 1.52753e-01 -6.50160e-04 -3.02037e+00 
 4.58285e-01 -1.97498e-03 -3.01780e+00 
 7.63750e-01 -3.26240e-03 -3.01264e+00 
 1.06923e+00 -4.56159e-03 -3.00492e+00 
 1.37462e+00 -5.81065e-03 -2.99463e+00 
 1.67999e+00 -7.05886e-03 -2.98176e+00 
 1.98525e+00 -8.24447e-03 -2.96634e+00 
 2.29048e+00 -9.41696e-03 -2.94835e+00 
 2.59556e+00 -1.05148e-02 -2.92780e+00 
 2.90058e+00 -1.15878e-02 -2.90471e+00 
 3.20544e+00 -1.25747e-02 -2.87907e+00 
 3.51023e+00 -1.35256e-02 -2.85090e+00 
 3.81482e+00 -1.43800e-02 -2.82019e+00 
 4.11932e+00 -1.51883e-02 -2.78697e+00 
 4.42362e+00 -1.58905e-02 -2.75123e+00 
 4.72781e+00 -1.65379e-02 -2.71299e+00 
 5.03179e+00 -1.70712e-02 -2.67226e+00 
 5.33563e+00 -1.75424e-02 -2.62905e+00 
 5.63926e+00 -1.78930e-02 -2.58336e+00 
 5.94275e+00 -1.81763e-02 -2.53521e+00 
 6.24601e+00 -1.83348e-02 -2.48461e+00 
 6.54914e+00 -1.84228e-02 -2.43159e+00 
 6.85204e+00 -1.83842e-02 -2.37613e+00 
 7.15480e+00 -1.82747e-02 -2.31827e+00 
 7.45734e+00 -1.80396e-02 -2.25801e+00 
 7.75975e+00 -1.77360e-02 -2.19537e+00 
 8.06195e+00 -1.73109e-02 -2.13034e+00 
 8.36404e+00 -1.68230e-02 -2.06297e+00 
 8.66593e+00 -1.62212e-02 -1.99324e+00 
 8.96773e+00 -1.55659e-02 -1.92118e+00 
 9.26936e+00 -1.48076e-02 -1.84679e+00 
 9.57092e+00 -1.40086e-02 -1.77010e+00 
 9.87234e+00 -1.31214e-02 -1.69109e+00 
 1.01737e+01 -1.22100e-02 -1.60980e+00 
 1.04750e+01 -1.12285e-02 -1.52621e+00 
 1.07763e+01 -1.02428e-02 -1.44036e+00 
 1.10775e+01 -9.20851e-03 -1.35222e+00 
 1.13788e+01 -8.19312e-03 -1.26183e+00 
 1.16800e+01 -7.15364e-03 -1.16915e+00 
 1.19814e+01 -6.15870e-03 -1.07423e+00 
 1.22828e+01 -5.16639e-03 -9.77024e-01 
 1.25843e+01 -4.24620e-03 -8.77570e-01 
 1.28859e+01 -3.35680e-03 -7.75827e-01 
 1.31877e+01 -2.56806e-03 -6.71825e-01 
 1.34897e+01 -1.83870e-03 -5.65517e-01 
 1.37919e+01 -1.23837e-03 -4.56932e-01 
 1.40943e+01 -7.25221e-04 -3.46018e-01 
 1.43970e+01 -3.68036e-04 -2.32799e-01 
 1.46999e+01 -1.23527e-04 -1.17217e-01 
 1.49837e+01 -4.34666e-02 -6.23965e-02 
-1.47455e+01  4.27757e-02 -6.25528e-02 
-1.44662e+01  1.06796e-04 -1.17507e-01 
-1.41680e+01  3.21677e-04 -2.33364e-01 
-1.38699e+01  6.32360e-04 -3.46835e-01 
-1.35722e+01  1.08328e-03 -4.57979e-01 
-1.32746e+01  1.60861e-03 -5.66768e-01 
-1.29773e+01  2.25140e-03 -6.73254e-01 
-1.26800e+01  2.94496e-03 -7.77409e-01 
-1.23830e+01  3.73169e-03 -8.79277e-01 
-1.20860e+01  4.54457e-03 -9.78830e-01 
-1.17892e+01  5.42594e-03 -1.07611e+00 
-1.14924e+01  6.30895e-03 -1.17107e+00 
-1.11957e+01  7.23633e-03 -1.26377e+00 
-1.08990e+01  8.14186e-03 -1.35416e+00 
-1.06023e+01  9.06906e-03 -1.44228e+00 
-1.03056e+01  9.95268e-03 -1.52808e+00 
-1.00089e+01  1.08374e-02 -1.61160e+00 
-9.71213e+00  1.16591e-02 -1.69280e+00 
-9.41533e+00  1.24638e-02 -1.77171e+00 
-9.11839e+00  1.31889e-02 -1.84828e+00 
-8.82142e+00  1.38820e-02 -1.92253e+00 
-8.52429e+00  1.44818e-02 -1.99444e+00 
-8.22709e+00  1.50375e-02 -2.06402e+00 
-7.92971e+00  1.54896e-02 -2.13122e+00 
-7.63225e+00  1.58887e-02 -2.19607e+00 
-7.33460e+00  1.61768e-02 -2.25853e+00 
-7.03685e+00  1.64060e-02 -2.31862e+00 
-6.73889e+00  1.65201e-02 -2.37629e+00 
-6.44083e+00  1.65724e-02 -2.43156e+00 
-6.14256e+00  1.65079e-02 -2.48439e+00 
-5.84418e+00  1.63816e-02 -2.53481e+00 
-5.54560e+00  1.61397e-02 -2.58276e+00 
-5.24690e+00  1.58382e-02 -2.62828e+00 
-4.94800e+00  1.54244e-02 -2.67131e+00 
-4.64899e+00  1.49554e-02 -2.71188e+00 
-4.34980e+00  1.43796e-02 -2.74995e+00 
-4.05050e+00  1.37549e-02 -2.78554e+00 
-3.75103e+00  1.30304e-02 -2.81861e+00 
-3.45147e+00  1.22649e-02 -2.84918e+00 
-3.15175e+00  1.14080e-02 -2.87723e+00 
-2.85196e+00  1.05192e-02 -2.90275e+00 
-2.55202e+00  9.54870e-03 -2.92574e+00 
-2.25203e+00  8.55634e-03 -2.94619e+00 
-1.95191e+00  7.49283e-03 -2.96409e+00 
-1.65177e+00  6.41834e-03 -2.97944e+00 
-1.35151e+00  5.28387e-03 -2.99224e+00 
-1.05125e+00  4.14986e-03 -3.00249e+00 
-7.50906e-01  2.96754e-03 -3.01017e+00 
-4.50577e-01  1.79750e-03 -3.01530e+00 
-1.50184e-01  5.91084e-04 -3.01786e+00 
 1.50184e-01 -5.91084e-04 -3.01786e+00 
 4.50577e-01 -1.79750e-03 -3.01530e+00 
 7.50906e-01 -2.96754e-03 -3.01017e+00 
 1.05125e+00 -4.14986e-03 -3.00249e+00 
 1.35151e+00 -5.28387e-03 -2.99224e+00 
 1.65177e+00 -6.41834e-03 -2.97944e+00 
 1.95191e+00 -7.49283e-03 -2.96409e+00 
 2.25203e+00 -8.55634e-03 -2.94619e+00 
 2.55202e+00 -9.54870e-03 -2.92574e+00 
 2.85196e+00 -1.05192e-02 -2.90275e+00 
 3.15175e+00 -1.14080e-02 -2.87723e+00 
 3.45147e+00 -1.22649e-02 -2.84918e+00 
 3.75103e+00 -1.30304e-02 -2.81861e+00 
 4.05050e+00 -1.37549e-02 -2.78554e+00 
 4.34980e+00 -1.43796e-02 -2.74995e+00 
 4.64899e+00 -1.49554e-02 -2.71188e+00 
 4.94800e+00 -1.54244e-02 -2.67131e+00 
 5.24690e+00 -1.58382e-02 -2.62828e+00 
 5.54560e+00 -1.61397e-02 -2.58276e+00 
 5.84418e+00 -1.63816e-02 -2.53481e+00 
 6.14256e+00 -1.65079e-02 -2.48439e+00 
 6.44083e+00 -1.65724e-02 -2.43156e+00 
 6.73889e+00 -1.65201e-02 -2.37629e+00 
 7.03685e+00 -1.64060e-02 -2.31862e+00 
 7.33460e+00 -1.61768e-02 -2.25853e+00 
 7.63225e+00 -1.58887e-02 -2.19607e+00 
 7.92971e+00 -1.54896e-02 -2.13122e+00 
 8.22709e+00 -1.50375e-02 -2.06402e+00 
 8.52429e+00 -1.44818e-02 -1.99444e+00 
 8.82142e+00 -1.38820e-02 -1.92253e+00 
 9.11839e+00 -1.31889e-02 -1.84828e+00 
 9.41533e+00 -1.24638e-02 -1.77171e+00 
 9.71213e+00 -1.16591e-02 -1.69280e+00 
 1.00089e+01 -1.08374e-02 -1.61160e+00 
 1.03056e+01 -9.95268e-03 -1.52808e+00 
 1.06023e+01 -9.06906e-03 -1.44228e+00 
 1.08990e+01 -8.14186e-03 -1.35416e+00 
 1.11957e+01 -7.23633e-03 -1.26377e+00 
 1.14924e+01 -6.30895e-03 -1.17107e+00 
 1.17892e+01 -5.42594e-03 -1.07611e+00 
 1.20860e+01 -4.54457e-03 -9.78830e-01 
 1.23830e+01 -3.73169e-03 -8.79277e-01 
 1.26800e+01 -2.94496e-03 -7.77409e-01 
 1.29773e+01 -2.25140e-03 -6.73254e-01 
 1.32746e+01 -1.60861e-03 -5.66768e-01 
 1.35722e+01 -1.08328e-03 -4.57979e-01 
 1.38699e+01 -6.32360e-04 -3.46835e-01 
 1.41680e+01 -3.21677e-04 -2.33364e-01 
 1.44662e+01 -1.06796e-04 -1.17507e-01 
 1.47455e+01 -4.27757e-02 -6.25528e-02 
-1.45067e+01  4.20809e-02 -6.26887e-02 
-1.42319e+01  9.18720e-05 -1.17759e-01 
-1.39384e+01  2.80202e-04 -2.33856e-01 
-1.36451e+01  5.49143e-04 -3.47550e-01 
-1.33521e+01  9.43950e-04 -4.58895e-01 
-1.30592e+01  1.40146e-03 -5.67865e-01 
-1.27665e+01  1.96564e-03 -6.74510e-01 
-1.24739e+01  2.57245e-03 -7.78801e-01 
-1.21815e+01  3.26520e-03 -8.80783e-01 
-1.18891e+01  3.97945e-03 -9.80426e-01 
-1.15969e+01  4.75834e-03 -1.07777e+00 
-1.13047e+01  5.53749e-03 -1.17278e+00 
-1.10126e+01  6.36027e-03 -1.26550e+00 
-1.07205e+01  7.16275e-03 -1.35589e+00 
-1.04284e+01  7.98890e-03 -1.44399e+00 
-1.01363e+01  8.77555e-03 -1.52975e+00 
-9.84426e+00  9.56755e-03 -1.61322e+00 
-9.55210e+00  1.03027e-02 -1.69435e+00 
-9.25994e+00  1.10271e-02 -1.77316e+00 
-8.96767e+00  1.16796e-02 -1.84963e+00 
-8.67536e+00  1.23075e-02 -1.92377e+00 
-8.38293e+00  1.28512e-02 -1.99555e+00 
-8.09044e+00  1.33591e-02 -2.06498e+00 
-7.79780e+00  1.37731e-02 -2.13204e+00 
-7.50508e+00  1.41429e-02 -2.19673e+00 
-7.21221e+00  1.44117e-02 -2.25904e+00 
-6.91925e+00  1.46307e-02 -2.31895e+00 
-6.62611e+00  1.47444e-02 -2.37646e+00 
-6.33288e+00  1.48052e-02 -2.43156e+00 
-6.03947e+00  1.47589e-02 -2.48423e+00 
-5.74597e+00  1.46591e-02 -2.53447e+00 
-5.45228e+00  1.44528e-02 -2.58226e+00 
-5.15850e+00  1.41946e-02 -2.62761e+00 
-4.86454e+00  1.38326e-02 -2.67048e+00 
-4.57049e+00  1.34224e-02 -2.71090e+00 
-4.27627e+00  1.29128e-02 -2.74882e+00 
-3.98197e+00  1.23606e-02 -2.78426e+00 
-3.68750e+00  1.17151e-02 -2.81720e+00 
-3.39297e+00  1.10339e-02 -2.84765e+00 
-3.09829e+00  1.02670e-02 -2.87557e+00 
-2.80355e+00  9.47247e-03 -2.90099e+00 
-2.50867e+00  8.60100e-03 -2.92387e+00 
-2.21376e+00  7.71103e-03 -2.94423e+00 
-1.91872e+00  6.75372e-03 -2.96206e+00 
-1.62367e+00  5.78787e-03 -2.97734e+00 
-1.32851e+00  4.76493e-03 -2.99009e+00 
-1.03336e+00  3.74399e-03 -3.00029e+00 
-7.38122e-01  2.67673e-03 -3.00794e+00 
-4.42905e-01  1.62239e-03 -3.01304e+00 
-1.47626e-01  5.32790e-04 -3.01559e+00 
 1.47626e-01 -5.32790e-04 -3.01559e+00 
 4.42905e-01 -1.62239e-03 -3.01304e+00 
 7.38122e-01 -2.67673e-03 -3.00794e+00 
 1.03336e+00 -3.74399e-03 -3.00029e+00 
 1.32851e+00 -4.76493e-03 -2.99009e+00 
 1.62367e+00 -5.78787e-03 -2.97734e+00 
 1.91872e+00 -6.75372e-03 -2.96206e+00 
 2.21376e+00 -7.71103e-03 -2.94423e+00 
 2.50867e+00 -8.60100e-03 -2.92387e+00 
 2.80355e+00 -9.47247e-03 -2.90099e+00 
 3.09829e+00 -1.02670e-02 -2.87557e+00 
 3.39297e+00 -1.10339e-02 -2.84765e+00 
 3.68750e+00 -1.17151e-02 -2.81720e+00 
 3.98197e+00 -1.23606e-02 -2.78426e+00 
 4.27627e+00 -1.29128e-02 -2.74882e+00 
 4.57049e+00 -1.34224e-02 -2.71090e+00 
 4.86454e+00 -1.38326e-02 -2.67048e+00 
 5.15850e+00 -1.41946e-02 -2.62761e+00 
 5.45228e+00 -1.44528e-02 -2.58226e+00 
 5.74597e+00 -1.46591e-02 -2.53447e+00 
 6.03947e+00 -1.47589e-02 -2.48423e+00 
 6.33288e+00 -1.48052e-02 -2.43156e+00 
 6.62611e+00 -1.47444e-02 -2.37646e+00 
 6.91925e+00 -1.46307e-02 -2.31895e+00 
 7.21221e+00 -1.44117e-02 -2.25904e+00 
 7.50508e+00 -1.41429e-02 -2.19673e+00 
 7.79780e+00 -1.37731e-02 -2.13204e+00 
 8.09044e+00 -1.33591e-02 -2.06498e+00 
 8.38293e+00 -1.28512e-02 -1.99555e+00 
 8.67536e+00 -1.23075e-02 -1.92377e+00 
 8.96767e+00 -1.16796e-02 -1.84963e+00 
 9.25994e+00 -1.10271e-02 -1.77316e+00 
 9.55210e+00 -1.03027e-02 -1.69435e+00 
 9.84426e+00 -9.56755e-03 -1.61322e+00 
 1.01363e+01 -8.77555e-03 -1.52975e+00 
 1.04284e+01 -7.98890e-03 -1.44399e+00 
 1.07205e+01 -7.16275e-03 -1.35589e+00 
 1.10126e+01 -6.36027e-03 -1.26550e+00 
 1.13047e+01 -5.53749e-03 -1.17278e+00 
 1.15969e+01 -4.75834e-03 -1.07777e+00 
 1.18891e+01 -3.97945e-03 -9.80426e-01 
 1.21815e+01 -3.26520e-03 -8.80783e-01 
 1.24739e+01 -2.57245e-03 -7.78801e-01 
 1.27665e+01 -1.96564e-03 -6.74510e-01 
 1.30592e+01 -1.40146e-03 -5.67865e-01 
 1.33521e+01 -9.43950e-04 -4.58895e-01 
 1.36451e+01 -5.49143e-04 -3.47550e-01 
 1.39384e+01 -2.80202e-04 -2.33856e-01 
 1.42319e+01 -9.18720e-05 -1.17759e-01 
 1.45067e+01 -4.20809e-02 -6.26887e-02 
-1.42674e+01  4.13829e-02 -6.28065e-02 
-1.39971e+01  7.85904e-05 -1.17978e-01 
-1.37085e+01  2.43177e-04 -2.34284e-01 
-1.34199e+01  4.74740e-04 -3.48171e-01 
-1.31316e+01  8.19089e-04 -4.59693e-01 
-1.28434e+01  1.21546e-03 -5.68823e-01 
-1.25554e+01  1.70847e-03 -6.75608e-01 
-1.22675e+01  2.23652e-03 -7.80021e-01 
-1.19798e+01  2.84355e-03 -8.82104e-01 
-1.16921e+01  3.46754e-03 -9.81829e-01 
-1.14045e+01  4.15222e-03 -1.07923e+00 
-1.11170e+01  4.83552e-03 -1.17429e+00 
-1.08295e+01  5.56128e-03 -1.26703e+00 
-1.05420e+01  6.26776e-03 -1.35743e+00 
-1.02546e+01  6.99924e-03 -1.44551e+00 
-9.96714e+00  7.69456e-03 -1.53125e+00 
-9.67972e+00  8.39872e-03 -1.61466e+00 
-9.39222e+00  9.05138e-03 -1.69573e+00 
-9.10473e+00  9.69844e-03 -1.77446e+00 
-8.81715e+00  1.02806e-02 -1.85084e+00 
-8.52954e+00  1.08447e-02 -1.92488e+00 
-8.24182e+00  1.13326e-02 -1.99655e+00 
-7.95406e+00  1.17924e-02 -2.06586e+00 
-7.66616e+00  1.21670e-02 -2.13279e+00 
-7.37822e+00  1.25057e-02 -2.19735e+00 
-7.09012e+00  1.27527e-02 -2.25951e+00 
-6.80196e+00  1.29583e-02 -2.31928e+00 
-6.51364e+00  1.30679e-02 -2.37663e+00 
-6.22525e+00  1.31332e-02 -2.43158e+00 
-5.93670e+00  1.31005e-02 -2.48410e+00 
-5.64807e+00  1.30225e-02 -2.53419e+00 
-5.35928e+00  1.28467e-02 -2.58183e+00 
-5.07041e+00  1.26268e-02 -2.62703e+00 
-4.78138e+00  1.23112e-02 -2.66976e+00 
-4.49228e+00  1.19545e-02 -2.71003e+00 
-4.20303e+00  1.15060e-02 -2.74782e+00 
-3.91370e+00  1.10209e-02 -2.78314e+00 
-3.62423e+00  1.04495e-02 -2.81595e+00 
-3.33471e+00  9.84757e-03 -2.84628e+00 
-3.04504e+00  9.16590e-03 -2.87410e+00 
-2.75534e+00  8.46107e-03 -2.89941e+00 
-2.46551e+00  7.68423e-03 -2.92221e+00 
-2.17565e+00  6.89246e-03 -2.94248e+00 
-1.88568e+00  6.03733e-03 -2.96023e+00 
-1.59569e+00  5.17629e-03 -2.97546e+00 
-1.30562e+00  4.26121e-03 -2.98815e+00 
-1.01554e+00  3.34980e-03 -2.99831e+00 
-7.25393e-01  2.39418e-03 -3.00593e+00 
-4.35266e-01  1.45221e-03 -3.01101e+00 
-1.45080e-01  4.76131e-04 -3.01355e+00 
 1.45080e-01 -4.76131e-04 -3.01355e+00 
 4.35266e-01 -1.45221e-03 -3.01101e+00 
 7.25393e-01 -2.39418e-03 -3.00593e+00 
 1.01554e+00 -3.34980e-03 -2.99831e+00 
 1.30562e+00 -4.26121e-03 -2.98815e+00 
 1.59569e+00 -5.17629e-03 -2.97546e+00 
 1.88568e+00 -6.03733e-03 -2.96023e+00 
 2.17565e+00 -6.89246e-03 -2.94248e+00 
 2.46551e+00 -7.68423e-03 -2.92221e+00 
 2.75534e+00 -8.46107e-03 -2.89941e+00 
 3.04504e+00 -9.16590e-03 -2.87410e+00 
 3.33471e+00 -9.84757e-03 -2.84628e+00 
 3.62423e+00 -1.04495e-02 -2.81595e+00 
 3.91370e+00 -1.10209e-02 -2.78314e+00 
 4.20303e+00 -1.15060e-02 -2.74782e+00 
 4.49228e+00 -1.19545e-02 -2.71003e+00 
 4.78138e+00 -1.23112e-02 -2.66976e+00 
 5.07041e+00 -1.26268e-02 -2.62703e+00 
 5.35928e+00 -1.28467e-02 -2.58183e+00 
 5.64807e+00 -1.30225e-02 -2.53419e+00 
 5.93670e+00 -1.31005e-02 -2.48410e+00 
 6.22525e+00 -1.31332e-02 -2.43158e+00 
 6.51364e+00 -1.30679e-02 -2.37663e+00 
 6.80196e+00 -1.29583e-02 -2.31928e+00 
 7.09012e+00 -1.27527e-02 -2.25951e+00 
 7.37822e+00 -1.25057e-02 -2.19735e+00 
 7.66616e+00 -1.21670e-02 -2.13279e+00 
 7.95406e+00 -1.17924e-02 -2.06586e+00 
 8.24182e+00 -1.13326e-02 -1.99655e+00 
 8.52954e+00 -1.08447e-02 -1.92488e+00 
 8.81715e+00 -1.02806e-02 -1.85084e+00 
 9.10473e+00 -9.69844e-03 -1.77446e+00 
 9.39222e+00 -9.05138e-03 -1.69573e+00 
 9.67972e+00 -8.39872e-03 -1.61466e+00 
 9.96714e+00 -7.69456e-03 -1.53125e+00 
 1.02546e+01 -6.99924e-03 -1.44551e+00 
 1.05420e+01 -6.26776e-03 -1.35743e+00 
 1.08295e+01 -5.56128e-03 -1.26703e+00 
 1.11170e+01 -4.83552e-03 -1.17429e+00 
 1.14045e+01 -4.15222e-03 -1.07923e+00 
 1.16921e+01 -3.46754e-03 -9.81829e-01 
 1.19798e+01 -2.84355e-03 -8.82104e-01 
 1.22675e+01 -2.23652e-03 -7.80021e-01 
 1.25554e+01 -1.70847e-03 -6.75608e-01 
 1.28434e+01 -1.21546e-03 -5.68823e-01 
 1.31316e+01 -8.19089e-04 -4.59693e-01 
 1.34199e+01 -4.74740e-04 -3.48171e-01 
 1.37085e+01 -2.43177e-04 -2.34284e-01 
 1.39971e+01 -7.85904e-05 -1.17978e-01 
 1.42674e+01 -4.13829e-02 -6.28065e-02 
-1.40277e+01  4.06825e-02 -6.29082e-02 
-1.37619e+01  6.67869e-05 -1.18167e-01 
-1.34781e+01  2.10167e-04 -2.34654e-01 
-1.31944e+01  4.08314e-04 -3.48709e-01 
-1.29108e+01  7.07361e-04 -4.60386e-01 
-1.26274e+01  1.04872e-03 -5.69654e-01 
-1.23441e+01  1.47743e-03 -6.76564e-01 
-1.20609e+01  1.93411e-03 -7.81083e-01 
-1.17779e+01  2.46318e-03 -8.83257e-01 
-1.14949e+01  3.00483e-03 -9.83055e-01 
-1.12120e+01  3.60318e-03 -1.08052e+00 
-1.09291e+01  4.19835e-03 -1.17561e+00 
-1.06463e+01  4.83451e-03 -1.26838e+00 
-1.03635e+01  5.45196e-03 -1.35878e+00 
-1.00808e+01  6.09523e-03 -1.44685e+00 
-9.79802e+00  6.70506e-03 -1.53256e+00 
-9.51528e+00  7.32654e-03 -1.61594e+00 
-9.23247e+00  7.90109e-03 -1.69695e+00 
-8.94968e+00  8.47452e-03 -1.77562e+00 
-8.66680e+00  8.98910e-03 -1.85192e+00 
-8.38392e+00  9.49151e-03 -1.92587e+00 
-8.10093e+00  9.92497e-03 -1.99744e+00 
-7.81792e+00  1.03371e-02 -2.06665e+00 
-7.53478e+00  1.06722e-02 -2.13347e+00 
-7.25161e+00  1.09789e-02 -2.19790e+00 
-6.96831e+00  1.12024e-02 -2.25994e+00 
-6.68496e+00  1.13924e-02 -2.31958e+00 
-6.40146e+00  1.14953e-02 -2.37680e+00 
-6.11791e+00  1.15617e-02 -2.43162e+00 
-5.83422e+00  1.15389e-02 -2.48400e+00 
-5.55047e+00  1.14787e-02 -2.53395e+00 
-5.26656e+00  1.13291e-02 -2.58146e+00 
-4.98260e+00  1.11428e-02 -2.62653e+00 
-4.69850e+00  1.08689e-02 -2.66913e+00 
-4.41434e+00  1.05607e-02 -2.70928e+00 
-4.13003e+00  1.01682e-02 -2.74695e+00 
-3.84568e+00  9.74528e-03 -2.78214e+00 
-3.56119e+00  9.24266e-03 -2.81485e+00 
-3.27666e+00  8.71502e-03 -2.84507e+00 
-2.99200e+00  8.11349e-03 -2.87279e+00 
-2.70731e+00  7.49336e-03 -2.89802e+00 
-2.42251e+00  6.80622e-03 -2.92073e+00 
-2.13768e+00  6.10780e-03 -2.94093e+00 
-1.85276e+00  5.35011e-03 -2.95862e+00 
-1.56783e+00  4.58921e-03 -2.97378e+00 
-1.28281e+00  3.77741e-03 -2.98643e+00 
-9.97798e-01  2.97103e-03 -2.99655e+00 
-7.12716e-01  2.12259e-03 -3.00414e+00 
-4.27658e-01  1.28858e-03 -3.00920e+00 
-1.42544e-01  4.21656e-04 -3.01173e+00 
 1.42544e-01 -4.21656e-04 -3.01173e+00 
 4.27658e-01 -1.28858e-03 -3.00920e+00 
 7.12716e-01 -2.12259e-03 -3.00414e+00 
 9.97798e-01 -2.97103e-03 -2.99655e+00 
 1.28281e+00 -3.77741e-03 -2.98643e+00 
 1.56783e+00 -4.58921e-03 -2.97378e+00 
 1.85276e+00 -5.35011e-03 -2.95862e+00 
 2.13768e+00 -6.10780e-03 -2.94093e+00 
 2.42251e+00 -6.80622e-03 -2.92073e+00 
 2.70731e+00 -7.49336e-03 -2.89802e+00 
 2.99200e+00 -8.11349e-03 -2.87279e+00 
 3.27666e+00 -8.71502e-03 -2.84507e+00 
 3.56119e+00 -9.24266e-03 -2.81485e+00 
 3.84568e+00 -9.74528e-03 -2.78214e+00 
 4.13003e+00 -1.01682e-02 -2.74695e+00 
 4.41434e+00 -1.05607e-02 -2.70928e+00 
 4.69850e+00 -1.08689e-02 -2.66913e+00 
 4.98260e+00 -1.11428e-02 -2.62653e+00 
 5.26656e+00 -1.13291e-02 -2.58146e+00 
 5.55047e+00 -1.14787e-02 -2.53395e+00 
 5.83422e+00 -1.15389e-02 -2.48400e+00 
 6.11791e+00 -1.15617e-02 -2.43162e+00 
 6.40146e+00 -1.14953e-02 -2.37680e+00 
 6.68496e+00 -1.13924e-02 -2.31958e+00 
 6.96831e+00 -1.12024e-02 -2.25994e+00 
 7.25161e+00 -1.09789e-02 -2.19790e+00 
 7.53478e+00 -1.06722e-02 -2.13347e+00 
 7.81792e+00 -1.03371e-02 -2.06665e+00 
 8.10093e+00 -9.92497e-03 -1.99744e+00 
 8.38392e+00 -9.49151e-03 -1.92587e+00 
 8.66680e+00 -8.98910e-03 -1.85192e+00 
 8.94968e+00 -8.47452e-03 -1.77562e+00 
 9.23247e+00 -7.90109e-03 -1.69695e+00 
 9.51528e+00 -7.32654e-03 -1.61594e+00 
 9.79802e+00 -6.70506e-03 -1.53256e+00 
 1.00808e+01 -6.09523e-03 -1.44685e+00 
 1.03635e+01 -5.45196e-03 -1.35878e+00 
 1.06463e+01 -4.83451e-03 -1.26838e+00 
 1.09291e+01 -4.19835e-03 -1.17561e+00 
 1.12120e+01 -3.60318e-03 -1.08052e+00 
 1.14949e+01 -3.00483e-03 -9.83055e-01 
 1.17779e+01 -2.46318e-03 -8.83257e-01 
 1.20609e+01 -1.93411e-03 -7.81083e-01 
 1.23441e+01 -1.47743e-03 -6.76564e-01 
 1.26274e+01 -1.04872e-03 -5.69654e-01 
 1.29108e+01 -7.07361e-04 -4.60386e-01 
 1.31944e+01 -4.08314e-04 -3.48709e-01 
 1.34781e+01 -2.10167e-04 -2.34654e-01 
 1.37619e+01 -6.67869e-05 -1.18167e-01 
 1.40277e+01 -4.06825e-02 -6.29082e-02 
-1.37876e+01  3.99802e-02 -6.29955e-02 
-1.35264e+01  5.63016e-05 -1.18329e-01 
-1.32474e+01  1.80746e-04 -2.34971e-01 
-1.29685e+01  3.49034e-04 -3.49172e-01 
-1.26898e+01  6.07425e-04 -4.60982e-01 
-1.24111e+01  8.99312e-04 -5.70372e-01 
-1.21326e+01  1.26998e-03 -6.77389e-01 
-1.18542e+01  1.66208e-03 -7.82003e-01 
-1.15759e+01  2.12032e-03 -8.84257e-01 
-1.12976e+01  2.58694e-03 -9.84120e-01 
-1.10194e+01  3.10634e-03 -1.08163e+00 
-1.07412e+01  3.62064e-03 -1.17676e+00 
-1.04632e+01  4.17424e-03 -1.26955e+00 
-1.01851e+01  4.70939e-03 -1.35996e+00 
-9.90703e+00  5.27073e-03 -1.44803e+00 
-9.62896e+00  5.80086e-03 -1.53372e+00 
-9.35093e+00  6.34485e-03 -1.61706e+00 
-9.07284e+00  6.84587e-03 -1.69803e+00 
-8.79477e+00  7.34958e-03 -1.77665e+00 
-8.51662e+00  7.79983e-03 -1.85288e+00 
-8.23847e+00  8.24304e-03 -1.92675e+00 
-7.96023e+00  8.62384e-03 -1.99824e+00 
-7.68198e+00  8.98946e-03 -2.06736e+00 
-7.40362e+00  9.28540e-03 -2.13407e+00 
-7.12524e+00  9.55976e-03 -2.19841e+00 
-6.84673e+00  9.75894e-03 -2.26033e+00 
-6.56820e+00  9.93193e-03 -2.31986e+00 
-6.28953e+00  1.00260e-02 -2.37697e+00 
-6.01083e+00  1.00911e-02 -2.43166e+00 
-5.73199e+00  1.00753e-02 -2.48393e+00 
-5.45311e+00  1.00293e-02 -2.53376e+00 
-5.17410e+00  9.90224e-03 -2.58115e+00 
-4.89504e+00  9.74552e-03 -2.62610e+00 
-4.61585e+00  9.50893e-03 -2.66859e+00 
-4.33662e+00  9.24473e-03 -2.70862e+00 
-4.05726e+00  8.90338e-03 -2.74618e+00 
-3.77787e+00  8.53779e-03 -2.78128e+00 
-3.49835e+00  8.09904e-03 -2.81389e+00 
-3.21880e+00  7.64061e-03 -2.84401e+00 
-2.93913e+00  7.11413e-03 -2.87165e+00 
-2.65945e+00  6.57358e-03 -2.89679e+00 
-2.37966e+00  5.97102e-03 -2.91943e+00 
-2.09985e+00  5.36084e-03 -2.93956e+00 
-1.81996e+00  4.69548e-03 -2.95719e+00 
-1.54006e+00  4.02966e-03 -2.97231e+00 
-1.26008e+00  3.31608e-03 -2.98491e+00 
-9.80117e-01  2.60970e-03 -2.99499e+00 
-7.00084e-01  1.86344e-03 -3.00255e+00 
-4.20078e-01  1.13242e-03 -3.00760e+00 
-1.40017e-01  3.69665e-04 -3.01012e+00 
 1.40017e-01 -3.69665e-04 -3.01012e+00 
 4.20078e-01 -1.13242e-03 -3.00760e+00 
 7.00084e-01 -1.86344e-03 -3.00255e+00 
 9.80117e-01 -2.60970e-03 -2.99499e+00 
 1.26008e+00 -3.31608e-03 -2.98491e+00 
 1.54006e+00 -4.02966e-03 -2.97231e+00 
 1.81996e+00 -4.69548e-03 -2.95719e+00 
 2.09985e+00 -5.36084e-03 -2.93956e+00 
 2.37966e+00 -5.97102e-03 -2.91943e+00 
 2.65945e+00 -6.57358e-03 -2.89679e+00 
 2.93913e+00 -7.11413e-03 -2.87165e+00 
 3.21880e+00 -7.64061e-03 -2.84401e+00 
 3.49835e+00 -8.09904e-03 -2.81389e+00 
 3.77787e+00 -8.53779e-03 -2.78128e+00 
 4.05726e+00 -8.90338e-03 -2.74618e+00 
 4.33662e+00 -9.24473e-03 -2.70862e+00 
 4.61585e+00 -9.50893e-03 -2.66859e+00 
 4.89504e+00 -9.74552e-03 -2.62610e+00 
 5.17410e+00 -9.90224e-03 -2.58115e+00 
 5.45311e+00 -1.00293e-02 -2.53376e+00 
 5.73199e+00 -1.00753e-02 -2.48393e+00 
 6.01083e+00 -1.00911e-02 -2.43166e+00 
 6.28953e+00 -1.00260e-02 -2.37697e+00 
 6.56820e+00 -9.93193e-03 -2.31986e+00 
 6.84673e+00 -9.75894e-03 -2.26033e+00 
 7.12524e+00 -9.55976e-03 -2.19841e+00 
 7.40362e+00 -9.28540e-03 -2.13407e+00 
 7.68198e+00 -8.98946e-03 -2.06736e+00 
 7.96023e+00 -8.62384e-03 -1.99824e+00 
 8.23847e+00 -8.24304e-03 -1.92675e+00 
 8.51662e+00 -7.79983e-03 -1.85288e+00 
 8.79477e+00 -7.34958e-03 -1.77665e+00 
 9.07284e+00 -6.84587e-03 -1.69803e+00 
 9.35093e+00 -6.34485e-03 -1.61706e+00 
 9.62896e+00 -5.80086e-03 -1.53372e+00 
 9.90703e+00 -5.27073e-03 -1.44803e+00 
 1.01851e+01 -4.70939e-03 -1.35996e+00 
 1.04632e+01 -4.17424e-03 -1.26955e+00 
 1.07412e+01 -3.62064e-03 -1.17676e+00 
 1.10194e+01 -3.10634e-03 -1.08163e+00 
 1.12976e+01 -2.58694e-03 -9.84120e-01 
 1.15759e+01 -2.12032e-03 -8.84257e-01 
 1.18542e+01 -1.66208e-03 -7.82003e-01 
 1.21326e+01 -1.26998e-03 -6.77389e-01 
 1.24111e+01 -8.99312e-04 -5.70372e-01 
 1.26898e+01 -6.07425e-04 -4.60982e-01 
 1.29685e+01 -3.49034e-04 -3.49172e-01 
 1.32474e+01 -1.80746e-04 -2.34971e-01 
 1.35264e+01 -5.63016e-05 -1.18329e-01 
 1.37876e+01 -3.99802e-02 -6.29955e-02 
-1.35472e+01  3.92763e-02 -6.30699e-02 
-1.32906e+01  4.69795e-05 -1.18468e-01 
-1.30165e+01  1.54496e-04 -2.35243e-01 
-1.27424e+01  2.96081e-04 -3.49568e-01 
-1.24685e+01  5.17955e-04 -4.61493e-01 
-1.21946e+01  7.65326e-04 -5.70988e-01 
-1.19209e+01  1.08355e-03 -6.78098e-01 
-1.16472e+01  1.41719e-03 -7.82793e-01 
-1.13737e+01  1.81105e-03 -8.85117e-01 
-1.11002e+01  2.20931e-03 -9.85038e-01 
-1.08267e+01  2.65649e-03 -1.08260e+00 
-1.05533e+01  3.09662e-03 -1.17776e+00 
-1.02799e+01  3.57420e-03 -1.27057e+00 
-1.00066e+01  4.03333e-03 -1.36098e+00 
-9.73328e+00  4.51867e-03 -1.44904e+00 
-9.45994e+00  4.97461e-03 -1.53472e+00 
-9.18664e+00  5.44616e-03 -1.61804e+00 
-8.91329e+00  5.87814e-03 -1.69897e+00 
-8.63996e+00  6.31605e-03 -1.77754e+00 
-8.36656e+00  6.70530e-03 -1.85371e+00 
-8.09318e+00  7.09200e-03 -1.92753e+00 
-7.81970e+00  7.42220e-03 -1.99894e+00 
-7.54622e+00  7.74272e-03 -2.06798e+00 
-7.27265e+00  8.00034e-03 -2.13461e+00 
-6.99906e+00  8.24261e-03 -2.19885e+00 
-6.72537e+00  8.41709e-03 -2.26068e+00 
-6.45165e+00  8.57207e-03 -2.32011e+00 
-6.17782e+00  8.65590e-03 -2.37712e+00 
-5.90396e+00  8.71764e-03 -2.43171e+00 
-5.62999e+00  8.70637e-03 -2.48387e+00 
-5.35598e+00  8.67191e-03 -2.53360e+00 
-5.08186e+00  8.56406e-03 -2.58089e+00 
-4.80770e+00  8.43334e-03 -2.62574e+00 
-4.53342e+00  8.23024e-03 -2.66812e+00 
-4.25912e+00  8.00590e-03 -2.70806e+00 
-3.98470e+00  7.71144e-03 -2.74553e+00 
-3.71025e+00  7.39860e-03 -2.78053e+00 
-3.43569e+00  7.01904e-03 -2.81305e+00 
-3.16111e+00  6.62501e-03 -2.84310e+00 
-2.88643e+00  6.16866e-03 -2.87065e+00 
-2.61173e+00  5.70269e-03 -2.89572e+00 
-2.33694e+00  5.17966e-03 -2.91829e+00 
-2.06214e+00  4.65262e-03 -2.93837e+00 
-1.78726e+00  4.07446e-03 -2.95595e+00 
-1.51238e+00  3.49856e-03 -2.97102e+00 
-1.23743e+00  2.87804e-03 -2.98358e+00 
-9.62494e-01  2.26649e-03 -2.99363e+00 
-6.87494e-01  1.61724e-03 -3.00117e+00 
-4.12522e-01  9.84023e-04 -3.00620e+00 
-1.37499e-01  3.20263e-04 -3.00872e+00 
 1.37499e-01 -3.20263e-04 -3.00872e+00 
 4.12522e-01 -9.84023e-04 -3.00620e+00 
 6.87494e-01 -1.61724e-03 -3.00117e+00 
 9.62494e-01 -2.26649e-03 -2.99363e+00 
 1.23743e+00 -2.87804e-03 -2.98358e+00 
 1.51238e+00 -3.49856e-03 -2.97102e+00 
 1.78726e+00 -4.07446e-03 -2.95595e+00 
 2.06214e+00 -4.65262e-03 -2.93837e+00 
 2.33694e+00 -5.17966e-03 -2.91829e+00 
 2.61173e+00 -5.70269e-03 -2.89572e+00 
 2.88643e+00 -6.16866e-03 -2.87065e+00 
 3.16111e+00 -6.62501e-03 -2.84310e+00 
 3.43569e+00 -7.01904e-03 -2.81305e+00 
 3.71025e+00 -7.39860e-03 -2.78053e+00 
 3.98470e+00 -7.71144e-03 -2.74553e+00 
 4.25912e+00 -8.00590e-03 -2.70806e+00 
 4.53342e+00 -8.23024e-03 -2.66812e+00 
 4.80770e+00 -8.43334e-03 -2.62574e+00 
 5.08186e+00 -8.56406e-03 -2.58089e+00 
 5.35598e+00 -8.67191e-03 -2.53360e+00 
 5.62999e+00 -8.70637e-03 -2.48387e+00 
 5.90396e+00 -8.71764e-03 -2.43171e+00 
 6.17782e+00 -8.65590e-03 -2.37712e+00 
 6.45165e+00 -8.57207e-03 -2.32011e+00 
 6.72537e+00 -8.41709e-03 -2.26068e+00 
 6.99906e+00 -8.24261e-03 -2.19885e+00 
 7.27265e+00 -8.00034e-03 -2.13461e+00 
 7.54622e+00 -7.74272e-03 -2.06798e+00 
 7.81970e+00 -7.42220e-03 -1.99894e+00 
 8.09318e+00 -7.09200e-03 -1.92753e+00 
 8.36656e+00 -6.70530e-03 -1.85371e+00 
 8.63996e+00 -6.31605e-03 -1.77754e+00 
 8.91329e+00 -5.87814e-03 -1.69897e+00 
 9.18664e+00 -5.44616e-03 -1.61804e+00 
 9.45994e+00 -4.97461e-03 -1.53472e+00 
 9.73328e+00 -4.51867e-03 -1.44904e+00 
 1.00066e+01 -4.03333e-03 -1.36098e+00 
 1.02799e+01 -3.57420e-03 -1.27057e+00 
 1.05533e+01 -3.09662e-03 -1.17776e+00 
 1.08267e+01 -2.65649e-03 -1.08260e+00 
 1.11002e+01 -2.20931e-03 -9.85038e-01 
 1.13737e+01 -1.81105e-03 -8.85117e-01 
 1.16472e+01 -1.41719e-03 -7.82793e-01 
 1.19209e+01 -1.08355e-03 -6.78098e-01 
 1.21946e+01 -7.65326e-04 -5.70988e-01 
 1.24685e+01 -5.17955e-04 -4.61493e-01 
 1.27424e+01 -2.96081e-04 -3.49568e-01 
 1.30165e+01 -1.54496e-04 -2.35243e-01 
 1.32906e+01 -4.69795e-05 -1.18468e-01 
 1.35472e+01 -3.92763e-02 -6.30699e-02 
-1.33066e+01  3.85712e-02 -6.31329e-02 
-1.30545e+01  3.86694e-05 -1.18585e-01 
-1.27853e+01  1.31012e-04 -2.35473e-01 
-1.25161e+01  2.48657e-04 -3.49904e-01 
-1.22470e+01  4.37641e-04 -4.61927e-01 
-1.19779e+01  6.44857e-04 -5.71511e-01 
-1.17090e+01  9.15596e-04 -6.78701e-01 
-1.14402e+01  1.19617e-03 -7.83466e-01 
-1.11714e+01  1.53140e-03 -8.85850e-01 
-1.09026e+01  1.86724e-03 -9.85820e-01 
-1.06340e+01  2.24825e-03 -1.08342e+00 
-1.03653e+01  2.62024e-03 -1.17861e+00 
-1.00967e+01  3.02771e-03 -1.27143e+00 
-9.82810e+00  3.41654e-03 -1.36186e+00 
-9.55955e+00  3.83133e-03 -1.44992e+00 
-9.29096e+00  4.21817e-03 -1.53558e+00 
-9.02242e+00  4.62197e-03 -1.61888e+00 
-8.75382e+00  4.98915e-03 -1.69977e+00 
-8.48525e+00  5.36503e-03 -1.77830e+00 
-8.21662e+00  5.69650e-03 -1.85444e+00 
-7.94800e+00  6.02938e-03 -1.92819e+00 
-7.67931e+00  6.31113e-03 -1.99954e+00 
-7.41062e+00  6.58812e-03 -2.06851e+00 
-7.14184e+00  6.80845e-03 -2.13507e+00 
-6.87306e+00  7.01910e-03 -2.19924e+00 
-6.60418e+00  7.16881e-03 -2.26099e+00 
-6.33529e+00  7.30522e-03 -2.32034e+00 
-6.06630e+00  7.37772e-03 -2.37726e+00 
-5.79729e+00  7.43461e-03 -2.43176e+00 
-5.52818e+00  7.42592e-03 -2.48383e+00 
-5.25904e+00  7.40057e-03 -2.53347e+00 
-4.98981e+00  7.30924e-03 -2.58067e+00 
-4.72054e+00  7.20145e-03 -2.62543e+00 
-4.45118e+00  7.02844e-03 -2.66773e+00 
-4.18179e+00  6.84032e-03 -2.70758e+00 
-3.91230e+00  6.58885e-03 -2.74496e+00 
-3.64279e+00  6.32466e-03 -2.77989e+00 
-3.37319e+00  6.00000e-03 -2.81233e+00 
-3.10357e+00  5.66592e-03 -2.84231e+00 
-2.83386e+00  5.27513e-03 -2.86980e+00 
-2.56414e+00  4.87906e-03 -2.89480e+00 
-2.29434e+00  4.43076e-03 -2.91732e+00 
-2.02453e+00  3.98200e-03 -2.93735e+00 
-1.75465e+00  3.48613e-03 -2.95487e+00 
-1.48478e+00  2.99518e-03 -2.96991e+00 
-1.21484e+00  2.46272e-03 -2.98243e+00 
-9.44921e-01  1.94098e-03 -2.99246e+00 
-6.74940e-01  1.38370e-03 -2.99998e+00 
-4.04989e-01  8.43225e-04 -3.00500e+00 
-1.34987e-01  2.73395e-04 -3.00750e+00 
 1.34987e-01 -2.73395e-04 -3.00750e+00 
 4.04989e-01 -8.43225e-04 -3.00500e+00 
 6.74940e-01 -1.38370e-03 -2.99998e+00 
 9.44921e-01 -1.94098e-03 -2.99246e+00 
 1.21484e+00 -2.46272e-03 -2.98243e+00 
 1.48478e+00 -2.99518e-03 -2.96991e+00 
 1.75465e+00 -3.48613e-03 -2.95487e+00 
 2.02453e+00 -3.98200e-03 -2.93735e+00 
 2.29434e+00 -4.43076e-03 -2.91732e+00 
 2.56414e+00 -4.87906e-03 -2.89480e+00 
 2.83386e+00 -5.27513e-03 -2.86980e+00 
 3.10357e+00 -5.66592e-03 -2.84231e+00 
 3.37319e+00 -6.00000e-03 -2.81233e+00 
 3.64279e+00 -6.32466e-03 -2.77989e+00 
 3.91230e+00 -6.58885e-03 -2.74496e+00 
 4.18179e+00 -6.84032e-03 -2.70758e+00 
 4.45118e+00 -7.02844e-03 -2.66773e+00 
 4.72054e+00 -7.20145e-03 -2.62543e+00 
 4.98981e+00 -7.30924e-03 -2.58067e+00 
 5.25904e+00 -7.40057e-03 -2.53347e+00 
 5.52818e+00 -7.42592e-03 -2.48383e+00 
 5.79729e+00 -7.43461e-03 -2.43176e+00 
 6.06630e+00 -7.37772e-03 -2.37726e+00 
 6.33529e+00 -7.30522e-03 -2.32034e+00 
 6.60418e+00 -7.16881e-03 -2.26099e+00 
 6.87306e+00 -7.01910e-03 -2.19924e+00 
 7.14184e+00 -6.80845e-03 -2.13507e+00 
 7.41062e+00 -6.58812e-03 -2.06851e+00 
 7.67931e+00 -6.31113e-03 -1.99954e+00 
 7.94800e+00 -6.02938e-03 -1.92819e+00 
 8.21662e+00 -5.69650e-03 -1.85444e+00 
 8.48525e+00 -5.36503e-03 -1.77830e+00 
 8.75382e+00 -4.98915e-03 -1.69977e+00 
 9.02242e+00 -4.62197e-03 -1.61888e+00 
 9.29096e+00 -4.21817e-03 -1.53558e+00 
 9.55955e+00 -3.83133e-03 -1.44992e+00 
 9.82810e+00 -3.41654e-03 -1.36186e+00 
 1.00967e+01 -3.02771e-03 -1.27143e+00 
 1.03653e+01 -2.62024e-03 -1.17861e+00 
 1.06340e+01 -2.24825e-03 -1.08342e+00 
 1.09026e+01 -1.86724e-03 -9.85820e-01 
 1.11714e+01 -1.53140e-03 -8.85850e-01 
 1.14402e+01 -1.19617e-03 -7.83466e-01 
 1.17090e+01 -9.15596e-04 -6.78701e-01 
 1.19779e+01 -6.44857e-04 -5.71511e-01 
 1.22470e+01 -4.37641e-04 -4.61927e-01 
 1.25161e+01 -2.48657e-04 -3.49904e-01 
 1.27853e+01 -1.31012e-04 -2.35473e-01 
 1.30545e+01 -3.86694e-05 -1.18585e-01 
 1.33066e+01 -3.85712e-02 -6.31329e-02 
-1.30657e+01  3.78652e-02 -6.31857e-02 
-1.28183e+01  3.12308e-05 -1.18684e-01 
-1.25539e+01  1.09899e-04 -2.35666e-01 
-1.22895e+01  2.05976e-04 -3.50185e-01 
-1.20253e+01  3.65202e-04 -4.62291e-01 
-1.17611e+01  5.36028e-04 -5.71950e-01 
-1.14970e+01  7.63569e-04 -6.79208e-01 
-1.12330e+01  9.95787e-04 -7.84032e-01 
-1.09690e+01  1.27738e-03 -8.86467e-01 
-1.07050e+01  1.55600e-03 -9.86479e-01 
-1.04412e+01  1.87612e-03 -1.08411e+00 
-1.01773e+01  2.18526e-03 -1.17933e+00 
-9.91346e+00  2.52785e-03 -1.27217e+00 
-9.64962e+00  2.85143e-03 -1.36260e+00 
-9.38584e+00  3.20051e-03 -1.45065e+00 
-9.12202e+00  3.52282e-03 -1.53631e+00 
-8.85824e+00  3.86309e-03 -1.61958e+00 
-8.59442e+00  4.16932e-03 -1.70046e+00 
-8.33063e+00  4.48659e-03 -1.77896e+00 
-8.06677e+00  4.76327e-03 -1.85505e+00 
-7.80294e+00  5.04486e-03 -1.92876e+00 
-7.53904e+00  5.28020e-03 -2.00006e+00 
-7.27514e+00  5.51523e-03 -2.06897e+00 
-7.01117e+00  5.69934e-03 -2.13547e+00 
-6.74720e+00  5.87897e-03 -2.19957e+00 
-6.48315e+00  6.00405e-03 -2.26125e+00 
-6.21909e+00  6.12156e-03 -2.32053e+00 
-5.95494e+00  6.18197e-03 -2.37738e+00 
-5.69079e+00  6.23282e-03 -2.43181e+00 
-5.42654e+00  6.22512e-03 -2.48380e+00 
-5.16227e+00  6.20694e-03 -2.53337e+00 
-4.89792e+00  6.12982e-03 -2.58049e+00 
-4.63355e+00  6.04233e-03 -2.62517e+00 
-4.36909e+00  5.89652e-03 -2.66740e+00 
-4.10462e+00  5.74143e-03 -2.70718e+00 
-3.84006e+00  5.52955e-03 -2.74449e+00 
-3.57549e+00  5.31038e-03 -2.77934e+00 
-3.31082e+00  5.03681e-03 -2.81173e+00 
-3.04616e+00  4.75871e-03 -2.84164e+00 
-2.78141e+00  4.42935e-03 -2.86907e+00 
-2.51666e+00  4.09894e-03 -2.89403e+00 
-2.25184e+00  3.72103e-03 -2.91649e+00 
-1.98702e+00  3.34613e-03 -2.93648e+00 
-1.72213e+00  2.92804e-03 -2.95397e+00 
-1.45725e+00  2.51749e-03 -2.96896e+00 
-1.19231e+00  2.06848e-03 -2.98146e+00 
-9.27392e-01  1.63190e-03 -2.99147e+00 
-6.62418e-01  1.16190e-03 -2.99897e+00 
-3.97474e-01  7.09483e-04 -3.00397e+00 
-1.32483e-01  2.28880e-04 -3.00648e+00 
 1.32483e-01 -2.28880e-04 -3.00648e+00 
 3.97474e-01 -7.09483e-04 -3.00397e+00 
 6.62418e-01 -1.16190e-03 -2.99897e+00 
 9.27392e-01 -1.63190e-03 -2.99147e+00 
 1.19231e+00 -2.06848e-03 -2.98146e+00 
 1.45725e+00 -2.51749e-03 -2.96896e+00 
 1.72213e+00 -2.92804e-03 -2.95397e+00 
 1.98702e+00 -3.34613e-03 -2.93648e+00 
 2.25184e+00 -3.72103e-03 -2.91649e+00 
 2.51666e+00 -4.09894e-03 -2.89403e+00 
 2.78141e+00 -4.42935e-03 -2.86907e+00 
 3.04616e+00 -4.75871e-03 -2.84164e+00 
 3.31082e+00 -5.03681e-03 -2.81173e+00 
 3.57549e+00 -5.31038e-03 -2.77934e+00 
 3.84006e+00 -5.52955e-03 -2.74449e+00 
 4.10462e+00 -5.74143e-03 -2.70718e+00 
 4.36909e+00 -5.89652e-03 -2.66740e+00 
 4.63355e+00 -6.04233e-03 -2.62517e+00 
 4.89792e+00 -6.12982e-03 -2.58049e+00 
 5.16227e+00 -6.20694e-03 -2.53337e+00 
 5.42654e+00 -6.22512e-03 -2.48380e+00 
 5.69079e+00 -6.23282e-03 -2.43181e+00 
 5.95494e+00 -6.18197e-03 -2.37738e+00 
 6.21909e+00 -6.12156e-03 -2.32053e+00 
 6.48315e+00 -6.00405e-03 -2.26125e+00 
 6.74720e+00 -5.87897e-03 -2.19957e+00 
 7.01117e+00 -5.69934e-03 -2.13547e+00 
 7.27514e+00 -5.51523e-03 -2.06897e+00 
 7.53904e+00 -5.28020e-03 -2.00006e+00 
 7.80294e+00 -5.04486e-03 -1.92876e+00 
 8.06677e+00 -4.76327e-03 -1.85505e+00 
 8.33063e+00 -4.48659e-03 -1.77896e+00 
 8.59442e+00 -4.16932e-03 -1.70046e+00 
 8.85824e+00 -3.86309e-03 -1.61958e+00 
 9.12202e+00 -3.52282e-03 -1.53631e+00 
 9.38584e+00 -3.20051e-03 -1.45065e+00 
 9.64962e+00 -2.85143e-03 -1.36260e+00 
 9.91346e+00 -2.52785e-03 -1.27217e+00 
 1.01773e+01 -2.18526e-03 -1.17933e+00 
 1.04412e+01 -1.87612e-03 -1.08411e+00 
 1.07050e+01 -1.55600e-03 -9.86479e-01 
 1.09690e+01 -1.27738e-03 -8.86467e-01 
 1.12330e+01 -9.95787e-04 -7.84032e-01 
 1.14970e+01 -7.63569e-04 -6.79208e-01 
 1.17611e+01 -5.36028e-04 -5.71950e-01 
 1.20253e+01 -3.65202e-04 -4.62291e-01 
 1.22895e+01 -2.05976e-04 -3.50185e-01 
 1.25539e+01 -1.09899e-04 -2.35666e-01 
 1.28183e+01 -3.12308e-05 -1.18684e-01 
 1.30657e+01 -3.78652e-02 -6.31857e-02 
-1.28247e+01  3.71586e-02 -6.32292e-02 
-1.25818e+01  2.44971e-05 -1.18765e-01 
-1.23223e+01  9.07706e-05 -2.35825e-01 
-1.20628e+01  1.67279e-04 -3.50418e-01 
-1.18035e+01  2.99360e-04 -4.62592e-01 
-1.15441e+01  4.36986e-04 -5.72312e-01 
-1.12849e+01  6.24965e-04 -6.79626e-01 
-1.10257e+01  8.12811e-04 -7.84500e-01 
-1.07665e+01  1.04501e-03 -8.86977e-01 
-1.05074e+01  1.27082e-03 -9.87025e-01 
-1.02483e+01  1.53455e-03 -1.08468e+00 
-9.98920e+00  1.78536e-03 -1.17992e+00 
-9.73018e+00  2.06751e-03 -1.27277e+00 
-9.47113e+00  2.33018e-03 -1.36321e+00 
-9.21213e+00  2.61771e-03 -1.45127e+00 
-8.95310e+00  2.87941e-03 -1.53691e+00 
-8.69411e+00  3.15979e-03 -1.62017e+00 
-8.43507e+00  3.40842e-03 -1.70103e+00 
-8.17606e+00  3.67006e-03 -1.77950e+00 
-7.91700e+00  3.89459e-03 -1.85556e+00 
-7.65797e+00  4.12712e-03 -1.92923e+00 
-7.39886e+00  4.31788e-03 -2.00049e+00 
-7.13978e+00  4.51239e-03 -2.06935e+00 
-6.88062e+00  4.66129e-03 -2.13580e+00 
-6.62147e+00  4.81051e-03 -2.19985e+00 
-6.36224e+00  4.91116e-03 -2.26147e+00 
-6.10302e+00  5.00958e-03 -2.32069e+00 
-5.84372e+00  5.05733e-03 -2.37748e+00 
-5.58442e+00  5.10121e-03 -2.43185e+00 
-5.32503e+00  5.09322e-03 -2.48378e+00 
-5.06564e+00  5.08061e-03 -2.53328e+00 
-4.80617e+00  5.01579e-03 -2.58034e+00 
-4.54670e+00  4.94642e-03 -2.62496e+00 
-4.28714e+00  4.82535e-03 -2.66712e+00 
-4.02758e+00  4.70060e-03 -2.70684e+00 
-3.76794e+00  4.52541e-03 -2.74410e+00 
-3.50830e+00  4.34816e-03 -2.77890e+00 
-3.24858e+00  4.12241e-03 -2.81122e+00 
-2.98886e+00  3.89686e-03 -2.84109e+00 
-2.72906e+00  3.62538e-03 -2.86847e+00 
-2.46928e+00  3.35695e-03 -2.89338e+00 
-2.20942e+00  3.04566e-03 -2.91581e+00 
-1.94958e+00  2.74075e-03 -2.93575e+00 
-1.68967e+00  2.39651e-03 -2.95321e+00 
-1.42978e+00  2.06236e-03 -2.96818e+00 
-1.16983e+00  1.69276e-03 -2.98066e+00 
-9.09900e-01  1.33726e-03 -2.99064e+00 
-6.49922e-01  9.50446e-04 -2.99813e+00 
-3.89976e-01  5.81952e-04 -3.00312e+00 
-1.29983e-01  1.86437e-04 -3.00562e+00 
 1.29983e-01 -1.86437e-04 -3.00562e+00 
 3.89976e-01 -5.81952e-04 -3.00312e+00 
 6.49922e-01 -9.50445e-04 -2.99813e+00 
 9.09900e-01 -1.33726e-03 -2.99064e+00 
 1.16983e+00 -1.69276e-03 -2.98066e+00 
 1.42978e+00 -2.06236e-03 -2.96818e+00 
 1.68967e+00 -2.39651e-03 -2.95321e+00 
 1.94958e+00 -2.74075e-03 -2.93575e+00 
 2.20942e+00 -3.04566e-03 -2.91581e+00 
 2.46928e+00 -3.35695e-03 -2.89338e+00 
 2.72906e+00 -3.62538e-03 -2.86847e+00 
 2.98886e+00 -3.89686e-03 -2.84109e+00 
 3.24858e+00 -4.12241e-03 -2.81122e+00 
 3.50830e+00 -4.34816e-03 -2.77890e+00 
 3.76794e+00 -4.52541e-03 -2.74410e+00 
 4.02758e+00 -4.70060e-03 -2.70684e+00 
 4.28714e+00 -4.82535e-03 -2.66712e+00 
 4.54670e+00 -4.94642e-03 -2.62496e+00 
 4.80617e+00 -5.01579e-03 -2.58034e+00 
 5.06564e+00 -5.08061e-03 -2.53328e+00 
 5.32503e+00 -5.09322e-03 -2.48378e+00 
 5.58442e+00 -5.10121e-03 -2.43185e+00 
 5.84372e+00 -5.05733e-03 -2.37748e+00 
 6.10302e+00 -5.00958e-03 -2.32069e+00 
 6.36224e+00 -4.91116e-03 -2.26147e+00 
 6.62147e+00 -4.81051e-03 -2.19985e+00 
 6.88062e+00 -4.66129e-03 -2.13580e+00 
 7.13978e+00 -4.51239e-03 -2.06935e+00 
 7.39886e+00 -4.31788e-03 -2.00049e+00 
 7.65797e+00 -4.12712e-03 -1.92923e+00 
 7.91700e+00 -3.89459e-03 -1.85556e+00 
 8.17606e+00 -3.67006e-03 -1.77950e+00 
 8.43507e+00 -3.40842e-03 -1.70103e+00 
 8.69411e+00 -3.15979e-03 -1.62017e+00 
 8.95310e+00 -2.87941e-03 -1.53691e+00 
 9.21213e+00 -2.61771e-03 -1.45127e+00 
 9.47113e+00 -2.33018e-03 -1.36321e+00 
 9.73018e+00 -2.06751e-03 -1.27277e+00 
 9.98920e+00 -1.78536e-03 -1.17992e+00 
 1.02483e+01 -1.53455e-03 -1.08468e+00 
 1.05074e+01 -1.27082e-03 -9.87025e-01 
 1.07665e+01 -1.04501e-03 -8.86977e-01 
 1.10257e+01 -8.12811e-04 -7.84500e-01 
 1.12849e+01 -6.24965e-04 -6.79626e-01 
 1.15441e+01 -4.36986e-04 -5.72312e-01 
 1.18035e+01 -2.99360e-04 -4.62592e-01 
 1.20628e+01 -1.67279e-04 -3.50418e-01 
 1.23223e+01 -9.07706e-05 -2.35825e-01 
 1.25818e+01 -2.44971e-05 -1.18765e-01 
 1.28247e+01 -3.71586e-02 -6.32292e-02 
-1.25834e+01  3.64509e-02 -6.32643e-02 
-1.23452e+01  1.84220e-05 -1.18830e-01 
-1.20906e+01  7.32311e-05 -2.35954e-01 
-1.18360e+01  1.31683e-04 -3.50605e-01 
-1.15815e+01  2.38854e-04 -4.62834e-01 
-1.13271e+01  3.45928e-04 -5.72605e-01 
-1.10727e+01  4.97338e-04 -6.79964e-01 
-1.08183e+01  6.44075e-04 -7.84878e-01 
-1.05640e+01  8.30338e-04 -8.87388e-01 
-1.03096e+01  1.00694e-03 -9.87464e-01 
-1.00554e+01  1.21796e-03 -1.08514e+00 
-9.80110e+00  1.41413e-03 -1.18040e+00 
-9.54688e+00  1.63949e-03 -1.27326e+00 
-9.29263e+00  1.84480e-03 -1.36370e+00 
-9.03843e+00  2.07417e-03 -1.45176e+00 
-8.78420e+00  2.27848e-03 -1.53740e+00 
-8.53000e+00  2.50198e-03 -1.62065e+00 
-8.27576e+00  2.69574e-03 -1.70148e+00 
-8.02156e+00  2.90422e-03 -1.77993e+00 
-7.76730e+00  3.07875e-03 -1.85596e+00 
-7.51306e+00  3.26406e-03 -1.92961e+00 
-7.25877e+00  3.41178e-03 -2.00083e+00 
-7.00450e+00  3.56693e-03 -2.06966e+00 
-6.75016e+00  3.68149e-03 -2.13607e+00 
-6.49584e+00  3.80081e-03 -2.20007e+00 
-6.24144e+00  3.87721e-03 -2.26165e+00 
-5.98706e+00  3.95640e-03 -2.32082e+00 
-5.73261e+00  3.99105e-03 -2.37756e+00 
-5.47816e+00  4.02722e-03 -2.43188e+00 
-5.22364e+00  4.01791e-03 -2.48376e+00 
-4.96913e+00  4.00956e-03 -2.53321e+00 
-4.71454e+00  3.95549e-03 -2.58022e+00 
-4.45996e+00  3.90246e-03 -2.62479e+00 
-4.20530e+00  3.80413e-03 -2.66690e+00 
-3.95065e+00  3.70754e-03 -2.70657e+00 
-3.69593e+00  3.56665e-03 -2.74378e+00 
-3.44121e+00  3.42879e-03 -2.77853e+00 
-3.18642e+00  3.24817e-03 -2.81082e+00 
-2.93165e+00  3.07238e-03 -2.84064e+00 
-2.67680e+00  2.85585e-03 -2.86799e+00 
-2.42197e+00  2.64637e-03 -2.89286e+00 
-2.16708e+00  2.39860e-03 -2.91526e+00 
-1.91220e+00  2.16050e-03 -2.93517e+00 
-1.65726e+00  1.88688e-03 -2.95260e+00 
-1.40235e+00  1.62584e-03 -2.96755e+00 
-1.14738e+00  1.33232e-03 -2.98001e+00 
-8.92439e-01  1.05454e-03 -2.98998e+00 
-6.37448e-01  7.47516e-04 -2.99745e+00 
-3.82490e-01  4.59545e-04 -3.00244e+00 
-1.27488e-01  1.45703e-04 -3.00493e+00 
 1.27488e-01 -1.45703e-04 -3.00493e+00 
 3.82490e-01 -4.59545e-04 -3.00244e+00 
 6.37448e-01 -7.47516e-04 -2.99745e+00 
 8.92439e-01 -1.05454e-03 -2.98998e+00 
 1.14738e+00 -1.33232e-03 -2.98001e+00 
 1.40235e+00 -1.62584e-03 -2.96755e+00 
 1.65726e+00 -1.88688e-03 -2.95260e+00 
 1.91220e+00 -2.16050e-03 -2.93517e+00 
 2.16708e+00 -2.39860e-03 -2.91526e+00 
 2.42197e+00 -2.64637e-03 -2.89286e+00 
 2.67680e+00 -2.85585e-03 -2.86799e+00 
 2.93165e+00 -3.07238e-03 -2.84064e+00 
 3.18642e+00 -3.24817e-03 -2.81082e+00 
 3.44121e+00 -3.42879e-03 -2.77853e+00 
 3.69593e+00 -3.56665e-03 -2.74378e+00 
 3.95065e+00 -3.70754e-03 -2.70657e+00 
 4.20530e+00 -3.80413e-03 -2.66690e+00 
 4.45996e+00 -3.90246e-03 -2.62479e+00 
 4.71454e+00 -3.95549e-03 -2.58022e+00 
 4.96913e+00 -4.00956e-03 -2.53321e+00 
 5.22364e+00 -4.01791e-03 -2.48376e+00 
 5.47816e+00 -4.02722e-03 -2.43188e+00 
 5.73261e+00 -3.99105e-03 -2.37756e+00 
 5.98706e+00 -3.95640e-03 -2.32082e+00 
 6.24144e+00 -3.87721e-03 -2.26165e+00 
 6.49584e+00 -3.80081e-03 -2.20007e+00 
 6.75016e+00 -3.68149e-03 -2.13607e+00 
 7.00450e+00 -3.56693e-03 -2.06966e+00 
 7.25877e+00 -3.41178e-03 -2.00083e+00 
 7.51306e+00 -3.26406e-03 -1.92961e+00 
 7.76730e+00 -3.07875e-03 -1.85596e+00 
 8.02156e+00 -2.90422e-03 -1.77993e+00 
 8.27576e+00 -2.69574e-03 -1.70148e+00 
 8.53000e+00 -2.50198e-03 -1.62065e+00 
 8.78420e+00 -2.27848e-03 -1.53740e+00 
 9.03843e+00 -2.07417e-03 -1.45176e+00 
 9.29263e+00 -1.84480e-03 -1.36370e+00 
 9.54688e+00 -1.63949e-03 -1.27326e+00 
 9.80110e+00 -1.41413e-03 -1.18040e+00 
 1.00554e+01 -1.21796e-03 -1.08514e+00 
 1.03096e+01 -1.00694e-03 -9.87464e-01 
 1.05640e+01 -8.30338e-04 -8.87388e-01 
 1.08183e+01 -6.44075e-04 -7.84878e-01 
 1.10727e+01 -4.97338e-04 -6.79964e-01 
 1.13271e+01 -3.45928e-04 -5.72605e-01 
 1.15815e+01 -2.38854e-04 -4.62834e-01 
 1.18360e+01 -1.31683e-04 -3.50605e-01 
 1.20906e+01 -7.32311e-05 -2.35954e-01 
 1.23452e+01 -1.84220e-05 -1.18830e-01 
 1.25834e+01 -3.64509e-02 -6.32643e-02 
-1.23421e+01  3.57444e-02 -6.32916e-02 
-1.21085e+01  1.23607e-05 -1.18881e-01 
-1.18588e+01  5.62497e-05 -2.36054e-01 
-1.16091e+01  9.84869e-05 -3.50752e-01 
-1.13595e+01  1.82583e-04 -4.63023e-01 
-1.11099e+01  2.61188e-04 -5.72833e-01 
-1.08604e+01  3.78335e-04 -6.80226e-01 
-1.06108e+01  4.86466e-04 -7.85170e-01 
-1.03614e+01  6.29458e-04 -8.87707e-01 
-1.01119e+01  7.59625e-04 -9.87804e-01 
-9.86243e+00  9.20750e-04 -1.08550e+00 
-9.61298e+00  1.06510e-03 -1.18077e+00 
-9.36357e+00  1.23646e-03 -1.27364e+00 
-9.11414e+00  1.38713e-03 -1.36408e+00 
-8.86475e+00  1.56095e-03 -1.45214e+00 
-8.61532e+00  1.71032e-03 -1.53777e+00 
-8.36593e+00  1.87920e-03 -1.62101e+00 
-8.11649e+00  2.02017e-03 -1.70183e+00 
-7.86709e+00  2.17735e-03 -1.78027e+00 
-7.61764e+00  2.30350e-03 -1.85628e+00 
-7.36822e+00  2.44298e-03 -1.92990e+00 
-7.11874e+00  2.54876e-03 -2.00109e+00 
-6.86929e+00  2.66543e-03 -2.06989e+00 
-6.61977e+00  2.74624e-03 -2.13627e+00 
-6.37028e+00  2.83602e-03 -2.20024e+00 
-6.12073e+00  2.88826e-03 -2.26179e+00 
-5.87119e+00  2.94808e-03 -2.32092e+00 
-5.62158e+00  2.96923e-03 -2.37762e+00 
-5.37200e+00  2.99706e-03 -2.43190e+00 
-5.12234e+00  2.98562e-03 -2.48374e+00 
-4.87270e+00  2.98049e-03 -2.53315e+00 
-4.62300e+00  2.93596e-03 -2.58012e+00 
-4.37330e+00  2.89787e-03 -2.62465e+00 
-4.12355e+00  2.82072e-03 -2.66673e+00 
-3.87380e+00  2.75059e-03 -2.70636e+00 
-3.62399e+00  2.64218e-03 -2.74354e+00 
-3.37420e+00  2.54176e-03 -2.77826e+00 
-3.12434e+00  2.40423e-03 -2.81051e+00 
-2.87450e+00  2.27603e-03 -2.84030e+00 
-2.62460e+00  2.11223e-03 -2.86762e+00 
-2.37472e+00  1.95943e-03 -2.89246e+00 
-2.12479e+00  1.77282e-03 -2.91483e+00 
-1.87487e+00  1.59913e-03 -2.93473e+00 
-1.62490e+00  1.39368e-03 -2.95214e+00 
-1.37496e+00  1.20327e-03 -2.96707e+00 
-1.12496e+00  9.83331e-04 -2.97951e+00 
-8.75001e-01  7.80742e-04 -2.98947e+00 
-6.24991e-01  5.50976e-04 -2.99694e+00 
-3.75015e-01  3.40977e-04 -3.00192e+00 
-1.24996e-01  1.06249e-04 -3.00441e+00 
 1.24996e-01 -1.06249e-04 -3.00441e+00 
 3.75015e-01 -3.40977e-04 -3.00192e+00 
 6.24991e-01 -5.50976e-04 -2.99694e+00 
 8.75001e-01 -7.80742e-04 -2.98947e+00 
 1.12496e+00 -9.83331e-04 -2.97951e+00 
 1.37496e+00 -1.20327e-03 -2.96707e+00 
 1.62490e+00 -1.39368e-03 -2.95214e+00 
 1.87487e+00 -1.59913e-03 -2.93473e+00 
 2.12479e+00 -1.77282e-03 -2.91483e+00 
 2.37472e+00 -1.95943e-03 -2.89246e+00 
 2.62460e+00 -2.11223e-03 -2.86762e+00 
 2.87450e+00 -2.27603e-03 -2.84030e+00 
 3.12434e+00 -2.40423e-03 -2.81051e+00 
 3.37420e+00 -2.54176e-03 -2.77826e+00 
 3.62399e+00 -2.64218e-03 -2.74354e+00 
 3.87380e+00 -2.75059e-03 -2.70636e+00 
 4.12355e+00 -2.82072e-03 -2.66673e+00 
 4.37330e+00 -2.89787e-03 -2.62465e+00 
 4.62300e+00 -2.93596e-03 -2.58012e+00 
 4.87270e+00 -2.98049e-03 -2.53315e+00 
 5.12234e+00 -2.98562e-03 -2.48374e+00 
 5.37200e+00 -2.99706e-03 -2.43190e+00 
 5.62158e+00 -2.96923e-03 -2.37762e+00 
 5.87119e+00 -2.94808e-03 -2.32092e+00 
 6.12073e+00 -2.88826e-03 -2.26179e+00 
 6.37028e+00 -2.83602e-03 -2.20024e+00 
 6.61977e+00 -2.74624e-03 -2.13627e+00 
 6.86929e+00 -2.66543e-03 -2.06989e+00 
 7.11874e+00 -2.54876e-03 -2.00109e+00 
 7.36822e+00 -2.44298e-03 -1.92990e+00 
 7.61764e+00 -2.30350e-03 -1.85628e+00 
 7.86709e+00 -2.17735e-03 -1.78027e+00 
 8.11649e+00 -2.02017e-03 -1.70183e+00 
 8.36593e+00 -1.87920e-03 -1.62101e+00 
 8.61532e+00 -1.71032e-03 -1.53777e+00 
 8.86475e+00 -1.56095e-03 -1.45214e+00 
 9.11414e+00 -1.38713e-03 -1.36408e+00 
 9.36357e+00 -1.23646e-03 -1.27364e+00 
 9.61298e+00 -1.06510e-03 -1.18077e+00 
 9.86243e+00 -9.20750e-04 -1.08550e+00 
 1.01119e+01 -7.59625e-04 -9.87804e-01 
 1.03614e+01 -6.29458e-04 -8.87707e-01 
 1.06108e+01 -4.86466e-04 -7.85170e-01 
 1.08604e+01 -3.78335e-04 -6.80226e-01 
 1.11099e+01 -2.61188e-04 -5.72833e-01 
 1.13595e+01 -1.82583e-04 -4.63023e-01 
 1.16091e+01 -9.84869e-05 -3.50752e-01 
 1.18588e+01 -5.62497e-05 -2.36054e-01 
 1.21085e+01 -1.23607e-05 -1.18881e-01 
 1.23421e+01 -3.57444e-02 -6.32916e-02 
-1.21007e+01  3.50384e-02 -6.33189e-02 
-1.18716e+01  1.11294e-05 -1.18927e-01 
-1.16269e+01  4.70195e-05 -2.36136e-01 
-1.13821e+01  7.36907e-05 -3.50868e-01 
-1.11374e+01  1.35628e-04 -4.63169e-01 
-1.08927e+01  1.86900e-04 -5.73007e-01 
-1.06480e+01  2.71165e-04 -6.80425e-01 
-1.04033e+01  3.42262e-04 -7.85391e-01 
-1.01587e+01  4.43689e-04 -8.87946e-01 
-9.91406e+00  5.29204e-04 -9.88058e-01 
-9.66946e+00  6.42264e-04 -1.08577e+00 
-9.42483e+00  7.36627e-04 -1.18104e+00 
-9.18025e+00  8.55775e-04 -1.27392e+00 
-8.93563e+00  9.53517e-04 -1.36436e+00 
-8.69106e+00  1.07341e-03 -1.45241e+00 
-8.44644e+00  1.16935e-03 -1.53804e+00 
-8.20186e+00  1.28500e-03 -1.62128e+00 
-7.95724e+00  1.37440e-03 -1.70209e+00 
-7.71265e+00  1.48134e-03 -1.78051e+00 
-7.46802e+00  1.56001e-03 -1.85651e+00 
-7.22341e+00  1.65436e-03 -1.93011e+00 
-6.97875e+00  1.71874e-03 -2.00129e+00 
-6.73412e+00  1.79729e-03 -2.07006e+00 
-6.48944e+00  1.84451e-03 -2.13642e+00 
-6.24478e+00  1.90473e-03 -2.20037e+00 
-6.00006e+00  1.93264e-03 -2.26188e+00 
-5.75537e+00  1.97273e-03 -2.32099e+00 
-5.51062e+00  1.97987e-03 -2.37766e+00 
-5.26589e+00  1.99873e-03 -2.43192e+00 
-5.02110e+00  1.98434e-03 -2.48373e+00 
-4.77634e+00  1.98152e-03 -2.53312e+00 
-4.53152e+00  1.94548e-03 -2.58006e+00 
-4.28671e+00  1.92119e-03 -2.62456e+00 
-4.04185e+00  1.86399e-03 -2.66661e+00 
-3.79701e+00  1.81899e-03 -2.70622e+00 
-3.55212e+00  1.74165e-03 -2.74337e+00 
-3.30724e+00  1.67721e-03 -2.77806e+00 
-3.06231e+00  1.58125e-03 -2.81029e+00 
-2.81741e+00  1.49909e-03 -2.84006e+00 
-2.57245e+00  1.38643e-03 -2.86736e+00 
-2.32752e+00  1.28866e-03 -2.89219e+00 
-2.08253e+00  1.16156e-03 -2.91454e+00 
-1.83757e+00  1.05061e-03 -2.93442e+00 
-1.59257e+00  9.11634e-04 -2.95182e+00 
-1.34759e+00  7.90168e-04 -2.96674e+00 
-1.10257e+00  6.42090e-04 -2.97917e+00 
-8.57579e-01  5.12980e-04 -2.98912e+00 
-6.12545e-01  3.58746e-04 -2.99658e+00 
-3.67546e-01  2.24995e-04 -3.00156e+00 
-1.22507e-01  6.76568e-05 -3.00404e+00 
 1.22507e-01 -6.76568e-05 -3.00404e+00 
 3.67546e-01 -2.24995e-04 -3.00156e+00 
 6.12545e-01 -3.58746e-04 -2.99658e+00 
 8.57579e-01 -5.12980e-04 -2.98912e+00 
 1.10257e+00 -6.42090e-04 -2.97917e+00 
 1.34759e+00 -7.90168e-04 -2.96674e+00 
 1.59257e+00 -9.11634e-04 -2.95182e+00 
 1.83757e+00 -1.05061e-03 -2.93442e+00 
 2.08253e+00 -1.16156e-03 -2.91454e+00 
 2.32752e+00 -1.28866e-03 -2.89219e+00 
 2.57245e+00 -1.38643e-03 -2.86736e+00 
 2.81741e+00 -1.49909e-03 -2.84006e+00 
 3.06231e+00 -1.58125e-03 -2.81029e+00 
 3.30724e+00 -1.67721e-03 -2.77806e+00 
 3.55212e+00 -1.74165e-03 -2.74337e+00 
 3.79701e+00 -1.81899e-03 -2.70622e+00 
 4.04185e+00 -1.86399e-03 -2.66661e+00 
 4.28671e+00 -1.92119e-03 -2.62456e+00 
 4.53152e+00 -1.94548e-03 -2.58006e+00 
 4.77634e+00 -1.98152e-03 -2.53312e+00 
 5.02110e+00 -1.98434e-03 -2.48373e+00 
 5.26589e+00 -1.99873e-03 -2.43192e+00 
 5.51062e+00 -1.97987e-03 -2.37766e+00 
 5.75537e+00 -1.97273e-03 -2.32099e+00 
 6.00006e+00 -1.93264e-03 -2.26188e+00 
 6.24478e+00 -1.90473e-03 -2.20037e+00 
 6.48944e+00 -1.84451e-03 -2.13642e+00 
 6.73412e+00 -1.79729e-03 -2.07006e+00 
 6.97875e+00 -1.71874e-03 -2.00129e+00 
 7.22341e+00 -1.65436e-03 -1.93011e+00 
 7.46802e+00 -1.56001e-03 -1.85651e+00 
 7.71265e+00 -1.48134e-03 -1.78051e+00 
 7.95724e+00 -1.37440e-03 -1.70209e+00 
 8.20186e+00 -1.28500e-03 -1.62128e+00 
 8.44644e+00 -1.16935e-03 -1.53804e+00 
 8.69106e+00 -1.07341e-03 -1.45241e+00 
 8.93563e+00 -9.53517e-04 -1.36436e+00 
 9.18025e+00 -8.55775e-04 -1.27392e+00 
 9.42483e+00 -7.36627e-04 -1.18104e+00 
 9.66946e+00 -6.42264e-04 -1.08577e+00 
 9.91406e+00 -5.29204e-04 -9.88058e-01 
 1.01587e+01 -4.43689e-04 -8.87946e-01 
 1.04033e+01 -3.42262e-04 -7.85391e-01 
 1.06480e+01 -2.71165e-04 -6.80425e-01 
 1.08927e+01 -1.86900e-04 -5.73007e-01 
 1.11374e+01 -1.35628e-04 -4.63169e-01 
 1.13821e+01 -7.36907e-05 -3.50868e-01 
 1.16269e+01 -4.70195e-05 -2.36136e-01 
 1.18716e+01 -1.11294e-05 -1.18927e-01 
 1.21007e+01 -3.50384e-02 -6.33189e-02 
-1.18592e+01  3.43251e-02 -6.33210e-02 
-1.16348e+01 -5.97358e-08 -1.18937e-01 
-1.13949e+01  2.33500e-05 -2.36168e-01 
-1.11551e+01  3.36959e-05 -3.50921e-01 
-1.09153e+01  7.37723e-05 -4.63242e-01 
-1.06754e+01  9.86210e-05 -5.73097e-01 
-1.04356e+01  1.51196e-04 -6.80531e-01 
-1.01958e+01  1.86612e-04 -7.85509e-01 
-9.95604e+00  2.47895e-04 -8.88075e-01 
-9.71624e+00  2.90217e-04 -9.88195e-01 
-9.47648e+00  3.56663e-04 -1.08591e+00 
-9.23669e+00  4.02465e-04 -1.18119e+00 
-8.99693e+00  4.70778e-04 -1.27407e+00 
-8.75714e+00  5.16914e-04 -1.36451e+00 
-8.51739e+00  5.84112e-04 -1.45256e+00 
-8.27759e+00  6.27776e-04 -1.53819e+00 
-8.03783e+00  6.91244e-04 -1.62141e+00 
-7.79803e+00  7.30025e-04 -1.70222e+00 
-7.55825e+00  7.87563e-04 -1.78063e+00 
-7.31843e+00  8.19475e-04 -1.85662e+00 
-7.07865e+00  8.69313e-04 -1.93021e+00 
-6.83881e+00  8.92804e-04 -2.00137e+00 
-6.59901e+00  9.33609e-04 -2.07014e+00 
-6.35915e+00  9.47558e-04 -2.13648e+00 
-6.11933e+00  9.78416e-04 -2.20041e+00 
-5.87945e+00  9.82110e-04 -2.26191e+00 
-5.63961e+00  1.00250e-03 -2.32101e+00 
-5.39971e+00  9.95607e-04 -2.37766e+00 
-5.15984e+00  1.00537e-03 -2.43190e+00 
-4.91992e+00  9.87887e-04 -2.48370e+00 
-4.68003e+00  9.87175e-04 -2.53307e+00 
-4.44008e+00  9.59395e-04 -2.57999e+00 
-4.20017e+00  9.48628e-04 -2.62448e+00 
-3.96021e+00  9.11088e-04 -2.66652e+00 
-3.72027e+00  8.90908e-04 -2.70611e+00 
-3.48028e+00  8.44345e-04 -2.74324e+00 
-3.24033e+00  8.15571e-04 -2.77793e+00 
-3.00033e+00  7.60877e-04 -2.81014e+00 
-2.76035e+00  7.24465e-04 -2.83990e+00 
-2.52033e+00  6.62649e-04 -2.86719e+00 
-2.28034e+00  6.19655e-04 -2.89201e+00 
-2.04031e+00  5.51814e-04 -2.91435e+00 
-1.80031e+00  5.03365e-04 -2.93422e+00 
-1.56026e+00  4.30652e-04 -2.95161e+00 
-1.32025e+00  3.77925e-04 -2.96652e+00 
-1.08019e+00  3.01532e-04 -2.97895e+00 
-8.40170e-01  2.45732e-04 -2.98889e+00 
-6.00109e-01  1.66876e-04 -2.99635e+00 
-3.60084e-01  1.09226e-04 -3.00133e+00 
-1.20019e-01  2.91354e-05 -3.00381e+00 
 1.20019e-01 -2.91354e-05 -3.00381e+00 
 3.60084e-01 -1.09226e-04 -3.00133e+00 
 6.00109e-01 -1.66876e-04 -2.99635e+00 
 8.40170e-01 -2.45732e-04 -2.98889e+00 
 1.08019e+00 -3.01532e-04 -2.97895e+00 
 1.32025e+00 -3.77925e-04 -2.96652e+00 
 1.56026e+00 -4.30652e-04 -2.95161e+00 
 1.80031e+00 -5.03365e-04 -2.93422e+00 
 2.04031e+00 -5.51814e-04 -2.91435e+00 
 2.28034e+00 -6.19655e-04 -2.89201e+00 
 2.52033e+00 -6.62649e-04 -2.86719e+00 
 2.76035e+00 -7.24465e-04 -2.83990e+00 
 3.00033e+00 -7.60877e-04 -2.81014e+00 
 3.24033e+00 -8.15571e-04 -2.77793e+00 
 3.48028e+00 -8.44345e-04 -2.74324e+00 
 3.72027e+00 -8.90908e-04 -2.70611e+00 
 3.96021e+00 -9.11088e-04 -2.66652e+00 
 4.20017e+00 -9.48628e-04 -2.62448e+00 
 4.44008e+00 -9.59395e-04 -2.57999e+00 
 4.68003e+00 -9.87175e-04 -2.53307e+00 
 4.91992e+00 -9.87887e-04 -2.48370e+00 
 5.15984e+00 -1.00537e-03 -2.43190e+00 
 5.39971e+00 -9.95607e-04 -2.37766e+00 
 5.63961e+00 -1.00250e-03 -2.32101e+00 
 5.87945e+00 -9.82110e-04 -2.26191e+00 
 6.11933e+00 -9.78416e-04 -2.20041e+00 
 6.35915e+00 -9.47558e-04 -2.13648e+00 
 6.59901e+00 -9.33609e-04 -2.07014e+00 
 6.83881e+00 -8.92804e-04 -2.00137e+00 
 7.07865e+00 -8.69313e-04 -1.93021e+00 
 7.31843e+00 -8.19475e-04 -1.85662e+00 
 7.55825e+00 -7.87563e-04 -1.78063e+00 
 7.79803e+00 -7.30025e-04 -1.70222e+00 
 8.03783e+00 -6.91244e-04 -1.62141e+00 
 8.27759e+00 -6.27776e-04 -1.53819e+00 
 8.51739e+00 -5.84112e-04 -1.45256e+00 
 8.75714e+00 -5.16914e-04 -1.36451e+00 
 8.99693e+00 -4.70778e-04 -1.27407e+00 
 9.23669e+00 -4.02465e-04 -1.18119e+00 
 9.47648e+00 -3.56663e-04 -1.08591e+00 
 9.71624e+00 -2.90217e-04 -9.88195e-01 
 9.95604e+00 -2.47895e-04 -8.88075e-01 
 1.01958e+01 -1.86612e-04 -7.85509e-01 
 1.04356e+01 -1.51196e-04 -6.80531e-01 
 1.06754e+01 -9.86210e-05 -5.73097e-01 
 1.09153e+01 -7.37723e-05 -4.63242e-01 
 1.11551e+01 -3.36959e-05 -3.50921e-01 
 1.13949e+01 -2.33500e-05 -2.36168e-01 
 1.16348e+01  5.97378e-08 -1.18937e-01 
 1.18592e+01 -3.43251e-02 -6.33210e-02 
-1.16177e+01  3.36170e-02 -6.33321e-02 
-1.13979e+01 -3.17516e-06 -1.18956e-01 
-1.11629e+01  1.25892e-05 -2.36200e-01 
-1.09280e+01  8.97647e-06 -3.50962e-01 
-1.06931e+01  2.84029e-05 -4.63292e-01 
-1.04581e+01  2.73982e-05 -5.73154e-01 
-1.02232e+01  4.85395e-05 -6.80593e-01 
-9.98826e+00  4.83531e-05 -7.85576e-01 
-9.75335e+00  6.94699e-05 -8.88145e-01 
-9.51840e+00  6.84970e-05 -9.88267e-01 
-9.28348e+00  8.81612e-05 -1.08598e+00 
-9.04853e+00  8.51700e-05 -1.18126e+00 
-8.81361e+00  1.02354e-04 -1.27414e+00 
-8.57864e+00  9.65200e-05 -1.36458e+00 
-8.34371e+00  1.10599e-04 -1.45263e+00 
-8.10874e+00  1.01492e-04 -1.53825e+00 
-7.87379e+00  1.12220e-04 -1.62147e+00 
-7.63881e+00  9.97666e-05 -1.70227e+00 
-7.40385e+00  1.07230e-04 -1.78068e+00 
-7.16885e+00  9.16606e-05 -1.85666e+00 
-6.93389e+00  9.62214e-05 -1.93024e+00 
-6.69888e+00  7.80151e-05 -2.00140e+00 
-6.46390e+00  8.02501e-05 -2.07016e+00 
-6.22888e+00  6.00644e-05 -2.13650e+00 
-5.99389e+00  6.06963e-05 -2.20043e+00 
-5.75885e+00  3.93014e-05 -2.26192e+00 
-5.52385e+00  3.91316e-05 -2.32101e+00 
-5.28881e+00  1.73439e-05 -2.37766e+00 
-5.05380e+00  1.71882e-05 -2.43189e+00 
-4.81875e+00 -4.19186e-06 -2.48369e+00 
-4.58373e+00 -3.56208e-06 -2.53305e+00 
-4.34867e+00 -2.38049e-05 -2.57997e+00 
-4.11364e+00 -2.17132e-05 -2.62446e+00 
-3.87857e+00 -4.02057e-05 -2.66649e+00 
-3.64354e+00 -3.61114e-05 -2.70608e+00 
-3.40846e+00 -5.23923e-05 -2.74321e+00 
-3.17342e+00 -4.59196e-05 -2.77789e+00 
-2.93835e+00 -5.97030e-05 -2.81010e+00 
-2.70330e+00 -5.06588e-05 -2.83986e+00 
-2.46822e+00 -6.18457e-05 -2.86714e+00 
-2.23317e+00 -5.02250e-05 -2.89196e+00 
-1.99809e+00 -5.89028e-05 -2.91430e+00 
-1.76304e+00 -4.48828e-05 -2.93417e+00 
-1.52795e+00 -5.13139e-05 -2.95156e+00 
-1.29290e+00 -3.52370e-05 -2.96647e+00 
-1.05782e+00 -3.98369e-05 -2.97890e+00 
-8.22764e-01 -2.21845e-05 -2.98884e+00 
-5.87674e-01 -2.54917e-05 -2.99630e+00 
-3.52622e-01 -6.85037e-06 -3.00127e+00 
-1.17532e-01 -9.48900e-06 -3.00376e+00 
 1.17532e-01  9.48901e-06 -3.00376e+00 
 3.52622e-01  6.85038e-06 -3.00127e+00 
 5.87674e-01  2.54917e-05 -2.99630e+00 
 8.22764e-01  2.21846e-05 -2.98884e+00 
 1.05782e+00  3.98369e-05 -2.97890e+00 
 1.29290e+00  3.52370e-05 -2.96647e+00 
 1.52795e+00  5.13139e-05 -2.95156e+00 
 1.76304e+00  4.48828e-05 -2.93417e+00 
 1.99809e+00  5.89028e-05 -2.91430e+00 
 2.23317e+00  5.02250e-05 -2.89196e+00 
 2.46822e+00  6.18457e-05 -2.86714e+00 
 2.70330e+00  5.06588e-05 -2.83986e+00 
 2.93835e+00  5.97030e-05 -2.81010e+00 
 3.17342e+00  4.59196e-05 -2.77789e+00 
 3.40846e+00  5.23923e-05 -2.74321e+00 
 3.64354e+00  3.61114e-05 -2.70608e+00 
 3.87857e+00  4.02057e-05 -2.66649e+00 
 4.11364e+00  2.17132e-05 -2.62446e+00 
 4.34867e+00  2.38049e-05 -2.57997e+00 
 4.58373e+00  3.56208e-06 -2.53305e+00 
 4.81875e+00  4.19186e-06 -2.48369e+00 
 5.05380e+00 -1.71882e-05 -2.43189e+00 
 5.28881e+00 -1.73439e-05 -2.37766e+00 
 5.52385e+00 -3.91316e-05 -2.32101e+00 
 5.75885e+00 -3.93014e-05 -2.26192e+00 
 5.99389e+00 -6.06963e-05 -2.20043e+00 
 6.22888e+00 -6.00644e-05 -2.13650e+00 
 6.46390e+00 -8.02501e-05 -2.07016e+00 
 6.69888e+00 -7.80151e-05 -2.00140e+00 
 6.93389e+00 -9.62214e-05 -1.93024e+00 
 7.16885e+00 -9.16606e-05 -1.85666e+00 
 7.40385e+00 -1.07230e-04 -1.78068e+00 
 7.63881e+00 -9.97666e-05 -1.70227e+00 
 7.87379e+00 -1.12220e-04 -1.62147e+00 
 8.10874e+00 -1.01492e-04 -1.53825e+00 
 8.34371e+00 -1.10599e-04 -1.45263e+00 
 8.57864e+00 -9.65200e-05 -1.36458e+00 
 8.81361e+00 -1.02354e-04 -1.27414e+00 
 9.04853e+00 -8.51700e-05 -1.18126e+00 
 9.28348e+00 -8.81612e-05 -1.08598e+00 
 9.51840e+00 -6.84970e-05 -9.88267e-01 
 9.75335e+00 -6.94699e-05 -8.88145e-01 
 9.98826e+00 -4.83531e-05 -7.85576e-01 
 1.02232e+01 -4.85395e-05 -6.80593e-01 
 1.04581e+01 -2.73982e-05 -5.73154e-01 
 1.06931e+01 -2.84029e-05 -4.63292e-01 
 1.09280e+01 -8.97648e-06 -3.50962e-01 
 1.11629e+01 -1.25892e-05 -2.36200e-01 
 1.13979e+01  3.17516e-06 -1.18956e-01 
 1.16177e+01 -3.36170e-02 -6.33321e-02 
-1.13761e+01  3.29078e-02 -6.33323e-02 
-1.11609e+01 -7.71446e-06 -1.18956e-01 
-1.09309e+01 -2.06644e-06 -2.36199e-01 
-1.07009e+01 -2.10689e-05 -3.50960e-01 
-1.04709e+01 -2.30003e-05 -4.63287e-01 
-1.02408e+01 -5.02989e-05 -5.73145e-01 
-1.00108e+01 -6.09679e-05 -6.80580e-01 
-9.78072e+00 -9.71652e-05 -7.85558e-01 
-9.55067e+00 -1.16689e-04 -8.88122e-01 
-9.32057e+00 -1.61515e-04 -9.88240e-01 
-9.09050e+00 -1.89271e-04 -1.08595e+00 
-8.86038e+00 -2.41776e-04 -1.18122e+00 
-8.63029e+00 -2.76511e-04 -1.27409e+00 
-8.40016e+00 -3.35167e-04 -1.36454e+00 
-8.17005e+00 -3.75110e-04 -1.45258e+00 
-7.93989e+00 -4.37934e-04 -1.53820e+00 
-7.70977e+00 -4.80919e-04 -1.62142e+00 
-7.47960e+00 -5.45599e-04 -1.70222e+00 
-7.24947e+00 -5.89203e-04 -1.78062e+00 
-7.01929e+00 -6.53235e-04 -1.85660e+00 
-6.78914e+00 -6.94908e-04 -1.93019e+00 
-6.55895e+00 -7.55732e-04 -2.00135e+00 
-6.32880e+00 -7.92935e-04 -2.07011e+00 
-6.09861e+00 -8.48061e-04 -2.13644e+00 
-5.86845e+00 -8.78384e-04 -2.20038e+00 
-5.63826e+00 -9.25512e-04 -2.26188e+00 
-5.40811e+00 -9.46787e-04 -2.32097e+00 
-5.17791e+00 -9.83905e-04 -2.37763e+00 
-4.94776e+00 -9.94299e-04 -2.43186e+00 
-4.71758e+00 -1.01977e-03 -2.48366e+00 
-4.48743e+00 -1.01786e-03 -2.53304e+00 
-4.25725e+00 -1.03050e-03 -2.57996e+00 
-4.02711e+00 -1.01534e-03 -2.62446e+00 
-3.79693e+00 -1.01443e-03 -2.66650e+00 
-3.56680e+00 -9.85569e-04 -2.70610e+00 
-3.33664e+00 -9.70931e-04 -2.74323e+00 
-3.10652e+00 -9.28431e-04 -2.77792e+00 
-2.87636e+00 -9.00387e-04 -2.81014e+00 
-2.64625e+00 -8.44833e-04 -2.83991e+00 
-2.41611e+00 -8.04212e-04 -2.86720e+00 
-2.18600e+00 -7.36673e-04 -2.89202e+00 
-1.95587e+00 -6.84772e-04 -2.91437e+00 
-1.72577e+00 -6.06761e-04 -2.93424e+00 
-1.49565e+00 -5.45294e-04 -2.95164e+00 
-1.26556e+00 -4.58712e-04 -2.96655e+00 
-1.03544e+00 -3.89746e-04 -2.97898e+00 
-8.05356e-01 -2.96806e-04 -2.98893e+00 
-5.75239e-01 -2.22684e-04 -2.99639e+00 
-3.45159e-01 -1.25835e-04 -3.00137e+00 
-1.15045e-01 -4.90863e-05 -3.00386e+00 
 1.15045e-01  4.90863e-05 -3.00386e+00 
 3.45159e-01  1.25835e-04 -3.00137e+00 
 5.75239e-01  2.22684e-04 -2.99639e+00 
 8.05356e-01  2.96806e-04 -2.98893e+00 
 1.03544e+00  3.89746e-04 -2.97898e+00 
 1.26556e+00  4.58712e-04 -2.96655e+00 
 1.49565e+00  5.45294e-04 -2.95164e+00 
 1.72577e+00  6.06761e-04 -2.93424e+00 
 1.95587e+00  6.84772e-04 -2.91437e+00 
 2.18600e+00  7.36673e-04 -2.89202e+00 
 2.41611e+00  8.04212e-04 -2.86720e+00 
 2.64625e+00  8.44833e-04 -2.83991e+00 
 2.87636e+00  9.00387e-04 -2.81014e+00 
 3.10652e+00  9.28431e-04 -2.77792e+00 
 3.33664e+00  9.70931e-04 -2.74323e+00 
 3.56680e+00  9.85569e-04 -2.70610e+00 
 3.79693e+00  1.01443e-03 -2.66650e+00 
 4.02711e+00  1.01534e-03 -2.62446e+00 
 4.25725e+00  1.03050e-03 -2.57996e+00 
 4.48743e+00  1.01786e-03 -2.53304e+00 
 4.71758e+00  1.01977e-03 -2.48366e+00 
 4.94776e+00  9.94299e-04 -2.43186e+00 
 5.17791e+00  9.83905e-04 -2.37763e+00 
 5.40811e+00  9.46787e-04 -2.32097e+00 
 5.63826e+00  9.25512e-04 -2.26188e+00 
 5.86845e+00  8.78384e-04 -2.20038e+00 
 6.09861e+00  8.48061e-04 -2.13644e+00 
 6.32880e+00  7.92935e-04 -2.07011e+00 
 6.55895e+00  7.55732e-04 -2.00135e+00 
 6.78914e+00  6.94908e-04 -1.93019e+00 
 7.01929e+00  6.53235e-04 -1.85660e+00 
 7.24947e+00  5.89203e-04 -1.78062e+00 
 7.47960e+00  5.45599e-04 -1.70222e+00 
 7.70977e+00  4.80919e-04 -1.62142e+00 
 7.93989e+00  4.37934e-04 -1.53820e+00 
 8.17005e+00  3.75110e-04 -1.45258e+00 
 8.40016e+00  3.35167e-04 -1.36454e+00 
 8.63029e+00  2.76511e-04 -1.27409e+00 
 8.86038e+00  2.41776e-04 -1.18122e+00 
 9.09050e+00  1.89271e-04 -1.08595e+00 
 9.32057e+00  1.61515e-04 -9.88240e-01 
 9.55067e+00  1.16689e-04 -8.88122e-01 
 9.78072e+00  9.71652e-05 -7.85558e-01 
 1.00108e+01  6.09679e-05 -6.80580e-01 
 1.02408e+01  5.02989e-05 -5.73145e-01 
 1.04709e+01  2.30003e-05 -4.63287e-01 
 1.07009e+01  2.10689e-05 -3.50960e-01 
 1.09309e+01  2.06644e-06 -2.36199e-01 
 1.11609e+01  7.71446e-06 -1.18956e-01 
 1.13761e+01 -3.29078e-02 -6.33323e-02 
-1.11346e+01  3.21978e-02 -6.33256e-02 
-1.09240e+01 -1.29566e-05 -1.18943e-01 
-1.06990e+01 -1.71097e-05 -2.36173e-01 
-1.04738e+01 -5.18330e-05 -3.50920e-01 
-1.02487e+01 -7.59456e-05 -4.63232e-01 
-1.00236e+01 -1.30582e-04 -5.73077e-01 
-9.79840e+00 -1.74278e-04 -6.80498e-01 
-9.57319e+00 -2.47854e-04 -7.85463e-01 
-9.34800e+00 -3.09530e-04 -8.88014e-01 
-9.12276e+00 -3.99854e-04 -9.88119e-01 
-8.89753e+00 -4.76792e-04 -1.08582e+00 
-8.67225e+00 -5.80674e-04 -1.18108e+00 
-8.44699e+00 -6.69273e-04 -1.27395e+00 
-8.22168e+00 -7.82759e-04 -1.36438e+00 
-7.99639e+00 -8.78769e-04 -1.45242e+00 
-7.77106e+00 -9.97371e-04 -1.53803e+00 
-7.54575e+00 -1.09612e-03 -1.62125e+00 
-7.32040e+00 -1.21505e-03 -1.70205e+00 
-7.09508e+00 -1.31170e-03 -1.78046e+00 
-6.86971e+00 -1.42609e-03 -1.85645e+00 
-6.64438e+00 -1.51581e-03 -1.93004e+00 
-6.41902e+00 -1.62094e-03 -2.00121e+00 
-6.19369e+00 -1.69914e-03 -2.06998e+00 
-5.96833e+00 -1.79061e-03 -2.13632e+00 
-5.74300e+00 -1.85313e-03 -2.20027e+00 
-5.51765e+00 -1.92705e-03 -2.26178e+00 
-5.29234e+00 -1.97029e-03 -2.32089e+00 
-5.06700e+00 -2.02340e-03 -2.37756e+00 
-4.84170e+00 -2.04448e-03 -2.43182e+00 
-4.61638e+00 -2.07428e-03 -2.48364e+00 
-4.39110e+00 -2.07109e-03 -2.53303e+00 
-4.16580e+00 -2.07589e-03 -2.57998e+00 
-3.94055e+00 -2.04720e-03 -2.62449e+00 
-3.71527e+00 -2.02621e-03 -2.66655e+00 
-3.49004e+00 -1.97165e-03 -2.70617e+00 
-3.26479e+00 -1.92495e-03 -2.74333e+00 
-3.03958e+00 -1.84505e-03 -2.77803e+00 
-2.81436e+00 -1.77360e-03 -2.81027e+00 
-2.58918e+00 -1.66976e-03 -2.84005e+00 
-2.36397e+00 -1.57535e-03 -2.86736e+00 
-2.13881e+00 -1.44974e-03 -2.89220e+00 
-1.91363e+00 -1.33493e-03 -2.91456e+00 
-1.68849e+00 -1.19045e-03 -2.93445e+00 
-1.46332e+00 -1.05847e-03 -2.95186e+00 
-1.23820e+00 -8.98636e-04 -2.96678e+00 
-1.01305e+00 -7.53260e-04 -2.97922e+00 
-7.87938e-01 -5.82101e-04 -2.98918e+00 
-5.62797e-01 -4.27549e-04 -2.99665e+00 
-3.37693e-01 -2.49442e-04 -3.00163e+00 
-1.12556e-01 -9.02277e-05 -3.00411e+00 
 1.12556e-01  9.02277e-05 -3.00411e+00 
 3.37693e-01  2.49442e-04 -3.00163e+00 
 5.62797e-01  4.27549e-04 -2.99665e+00 
 7.87938e-01  5.82101e-04 -2.98918e+00 
 1.01305e+00  7.53260e-04 -2.97922e+00 
 1.23820e+00  8.98636e-04 -2.96678e+00 
 1.46332e+00  1.05847e-03 -2.95186e+00 
 1.68849e+00  1.19045e-03 -2.93445e+00 
 1.91363e+00  1.33493e-03 -2.91456e+00 
 2.13881e+00  1.44974e-03 -2.89220e+00 
 2.36397e+00  1.57535e-03 -2.86736e+00 
 2.58918e+00  1.66976e-03 -2.84005e+00 
 2.81436e+00  1.77360e-03 -2.81027e+00 
 3.03958e+00  1.84505e-03 -2.77803e+00 
 3.26479e+00  1.92495e-03 -2.74333e+00 
 3.49004e+00  1.97165e-03 -2.70617e+00 
 3.71527e+00  2.02621e-03 -2.66655e+00 
 3.94055e+00  2.04720e-03 -2.62449e+00 
 4.16580e+00  2.07589e-03 -2.57998e+00 
 4.39110e+00  2.07109e-03 -2.53303e+00 
 4.61638e+00  2.07428e-03 -2.48364e+00 
 4.84170e+00  2.04448e-03 -2.43182e+00 
 5.06700e+00  2.02340e-03 -2.37756e+00 
 5.29234e+00  1.97029e-03 -2.32089e+00 
 5.51765e+00  1.92705e-03 -2.26178e+00 
 5.74300e+00  1.85313e-03 -2.20027e+00 
 5.96833e+00  1.79061e-03 -2.13632e+00 
 6.19369e+00  1.69914e-03 -2.06998e+00 
 6.41902e+00  1.62094e-03 -2.00121e+00 
 6.64438e+00  1.51581e-03 -1.93004e+00 
 6.86971e+00  1.42609e-03 -1.85645e+00 
 7.09508e+00  1.31170e-03 -1.78046e+00 
 7.32040e+00  1.21505e-03 -1.70205e+00 
 7.54575e+00  1.09612e-03 -1.62125e+00 
 7.77106e+00  9.97371e-04 -1.53803e+00 
 7.99639e+00  8.78769e-04 -1.45242e+00 
 8.22168e+00  7.82759e-04 -1.36438e+00 
 8.44699e+00  6.69273e-04 -1.27395e+00 
 8.67225e+00  5.80674e-04 -1.18108e+00 
 8.89753e+00  4.76792e-04 -1.08582e+00 
 9.12276e+00  3.99854e-04 -9.88119e-01 
 9.34800e+00  3.09530e-04 -8.88014e-01 
 9.57319e+00  2.47854e-04 -7.85463e-01 
 9.79840e+00  1.74278e-04 -6.80498e-01 
 1.00236e+01  1.30582e-04 -5.73077e-01 
 1.02487e+01  7.59456e-05 -4.63232e-01 
 1.04738e+01  5.18330e-05 -3.50920e-01 
 1.06990e+01  1.71097e-05 -2.36173e-01 
 1.09240e+01  1.29566e-05 -1.18943e-01 
 1.11346e+01 -3.21978e-02 -6.33256e-02 
-1.08931e+01  3.14874e-02 -6.33117e-02 
-1.06872e+01 -1.85044e-05 -1.18917e-01 
-1.04670e+01 -3.31211e-05 -2.36120e-01 
-1.02468e+01 -8.44431e-05 -3.50840e-01 
-1.00266e+01 -1.31948e-04 -4.63127e-01 
-9.80632e+00 -2.15509e-04 -5.72946e-01 
-9.58605e+00 -2.94135e-04 -6.80343e-01 
-9.36571e+00 -4.07269e-04 -7.85285e-01 
-9.14537e+00 -5.13516e-04 -8.87815e-01 
-8.92498e+00 -6.51956e-04 -9.87901e-01 
-8.70459e+00 -7.80864e-04 -1.08558e+00 
-8.48414e+00 -9.39043e-04 -1.18083e+00 
-8.26370e+00 -1.08452e-03 -1.27369e+00 
-8.04321e+00 -1.25592e-03 -1.36411e+00 
-7.82274e+00 -1.41110e-03 -1.45214e+00 
-7.60222e+00 -1.58858e-03 -1.53776e+00 
-7.38173e+00 -1.74616e-03 -1.62098e+00 
-7.16119e+00 -1.92232e-03 -1.70178e+00 
-6.94067e+00 -2.07487e-03 -1.78019e+00 
-6.72012e+00 -2.24236e-03 -1.85619e+00 
-6.49961e+00 -2.38268e-03 -1.92979e+00 
-6.27906e+00 -2.53449e-03 -2.00098e+00 
-6.05855e+00 -2.65583e-03 -2.06977e+00 
-5.83801e+00 -2.78556e-03 -2.13613e+00 
-5.61751e+00 -2.88192e-03 -2.20010e+00 
-5.39700e+00 -2.98400e-03 -2.26164e+00 
-5.17652e+00 -3.05029e-03 -2.32077e+00 
-4.95603e+00 -3.12016e-03 -2.37748e+00 
-4.73559e+00 -3.15238e-03 -2.43176e+00 
-4.51513e+00 -3.18662e-03 -2.48361e+00 
-4.29473e+00 -3.18197e-03 -2.53303e+00 
-4.07430e+00 -3.17840e-03 -2.58001e+00 
-3.85394e+00 -3.13533e-03 -2.62456e+00 
-3.63355e+00 -3.09306e-03 -2.66665e+00 
-3.41323e+00 -3.01131e-03 -2.70630e+00 
-3.19289e+00 -2.93073e-03 -2.74349e+00 
-2.97260e+00 -2.81133e-03 -2.77823e+00 
-2.75230e+00 -2.69406e-03 -2.81050e+00 
-2.53205e+00 -2.53924e-03 -2.84031e+00 
-2.31179e+00 -2.38811e-03 -2.86764e+00 
-2.09158e+00 -2.20123e-03 -2.89251e+00 
-1.87135e+00 -2.02011e-03 -2.91489e+00 
-1.65117e+00 -1.80553e-03 -2.93480e+00 
-1.43097e+00 -1.59923e-03 -2.95223e+00 
-1.21082e+00 -1.36219e-03 -2.96717e+00 
-9.90640e-01 -1.13630e-03 -2.97962e+00 
-7.70505e-01 -8.82701e-04 -2.98959e+00 
-5.50342e-01 -6.43411e-04 -2.99707e+00 
-3.30219e-01 -3.79674e-04 -3.00205e+00 
-1.10065e-01 -1.33582e-04 -3.00454e+00 
 1.10065e-01  1.33582e-04 -3.00454e+00 
 3.30219e-01  3.79674e-04 -3.00205e+00 
 5.50342e-01  6.43412e-04 -2.99707e+00 
 7.70505e-01  8.82701e-04 -2.98959e+00 
 9.90640e-01  1.13630e-03 -2.97962e+00 
 1.21082e+00  1.36219e-03 -2.96717e+00 
 1.43097e+00  1.59923e-03 -2.95223e+00 
 1.65117e+00  1.80553e-03 -2.93480e+00 
 1.87135e+00  2.02011e-03 -2.91489e+00 
 2.09158e+00  2.20123e-03 -2.89251e+00 
 2.31179e+00  2.38811e-03 -2.86764e+00 
 2.53205e+00  2.53924e-03 -2.84031e+00 
 2.75230e+00  2.69406e-03 -2.81050e+00 
 2.97260e+00  2.81133e-03 -2.77823e+00 
 3.19289e+00  2.93073e-03 -2.74349e+00 
 3.41323e+00  3.01131e-03 -2.70630e+00 
 3.63355e+00  3.09306e-03 -2.66665e+00 
 3.85394e+00  3.13533e-03 -2.62456e+00 
 4.07430e+00  3.17840e-03 -2.58001e+00 
 4.29473e+00  3.18197e-03 -2.53303e+00 
 4.51513e+00  3.18662e-03 -2.48361e+00 
 4.73559e+00  3.15238e-03 -2.43176e+00 
 4.95603e+00  3.12016e-03 -2.37748e+00 
 5.17652e+00  3.05029e-03 -2.32077e+00 
 5.39700e+00  2.98400e-03 -2.26164e+00 
 5.61751e+00  2.88192e-03 -2.20010e+00 
 5.83801e+00  2.78556e-03 -2.13613e+00 
 6.05855e+00  2.65583e-03 -2.06977e+00 
 6.27906e+00  2.53449e-03 -2.00098e+00 
 6.49961e+00  2.38268e-03 -1.92979e+00 
 6.72012e+00  2.24236e-03 -1.85619e+00 
 6.94067e+00  2.07487e-03 -1.78019e+00 
 7.16119e+00  1.92232e-03 -1.70178e+00 
 7.38173e+00  1.74616e-03 -1.62098e+00 
 7.60222e+00  1.58858e-03 -1.53776e+00 
 7.82274e+00  1.41110e-03 -1.45214e+00 
 8.04321e+00  1.25592e-03 -1.36411e+00 
 8.26370e+00  1.08452e-03 -1.27369e+00 
 8.48414e+00  9.39043e-04 -1.18083e+00 
 8.70459e+00  7.80864e-04 -1.08558e+00 
 8.92498e+00  6.51956e-04 -9.87901e-01 
 9.14537e+00  5.13516e-04 -8.87815e-01 
 9.36571e+00  4.07269e-04 -7.85285e-01 
 9.58605e+00  2.94135e-04 -6.80343e-01 
 9.80632e+00  2.15509e-04 -5.72946e-01 
 1.00266e+01  1.31948e-04 -4.63127e-01 
 1.02468e+01  8.44431e-05 -3.50840e-01 
 1.04670e+01  3.31211e-05 -2.36120e-01 
 1.06872e+01  1.85045e-05 -1.18917e-01 
 1.08931e+01 -3.14874e-02 -6.33117e-02 
-1.06517e+01  3.07766e-02 -6.32902e-02 
-1.04503e+01 -2.45221e-05 -1.18877e-01 
-1.02351e+01 -5.04285e-05 -2.36039e-01 
-1.00198e+01 -1.19709e-04 -3.50720e-01 
-9.80454e+00 -1.92436e-04 -4.62967e-01 
-9.58915e+00 -3.07191e-04 -5.72749e-01 
-9.37375e+00 -4.23432e-04 -6.80110e-01 
-9.15827e+00 -5.79178e-04 -7.85019e-01 
-8.94279e+00 -7.33368e-04 -8.87519e-01 
-8.72724e+00 -9.23566e-04 -9.87579e-01 
-8.51168e+00 -1.10830e-03 -1.08524e+00 
-8.29606e+00 -1.32480e-03 -1.18047e+00 
-8.08044e+00 -1.53131e-03 -1.27331e+00 
-7.86477e+00 -1.76482e-03 -1.36372e+00 
-7.64910e+00 -1.98339e-03 -1.45175e+00 
-7.43339e+00 -2.22393e-03 -1.53736e+00 
-7.21770e+00 -2.44444e-03 -1.62058e+00 
-7.00196e+00 -2.68180e-03 -1.70139e+00 
-6.78625e+00 -2.89407e-03 -1.77981e+00 
-6.57051e+00 -3.11826e-03 -1.85583e+00 
-6.35480e+00 -3.31253e-03 -1.92945e+00 
-6.13906e+00 -3.51409e-03 -2.00066e+00 
-5.92336e+00 -3.68134e-03 -2.06947e+00 
-5.70764e+00 -3.85176e-03 -2.13587e+00 
-5.49197e+00 -3.98402e-03 -2.19987e+00 
-5.27628e+00 -4.11595e-03 -2.26145e+00 
-5.06064e+00 -4.20657e-03 -2.32062e+00 
-4.84500e+00 -4.29407e-03 -2.37736e+00 
-4.62941e+00 -4.33788e-03 -2.43169e+00 
-4.41381e+00 -4.37659e-03 -2.48358e+00 
-4.19827e+00 -4.37004e-03 -2.53305e+00 
-3.98273e+00 -4.35728e-03 -2.58007e+00 
-3.76725e+00 -4.29854e-03 -2.62466e+00 
-3.55176e+00 -4.23331e-03 -2.66680e+00 
-3.33634e+00 -4.12226e-03 -2.70650e+00 
-3.12091e+00 -4.00528e-03 -2.74373e+00 
-2.90555e+00 -3.84347e-03 -2.77851e+00 
-2.69018e+00 -3.67713e-03 -2.81082e+00 
-2.47487e+00 -3.46771e-03 -2.84067e+00 
-2.25955e+00 -3.25589e-03 -2.86804e+00 
-2.04429e+00 -3.00348e-03 -2.89294e+00 
-1.82902e+00 -2.75149e-03 -2.91536e+00 
-1.61381e+00 -2.46202e-03 -2.93530e+00 
-1.39858e+00 -2.17635e-03 -2.95275e+00 
-1.18340e+00 -1.85686e-03 -2.96772e+00 
-9.68200e-01 -1.54503e-03 -2.98019e+00 
-7.53047e-01 -1.20344e-03 -2.99017e+00 
-5.37871e-01 -8.73737e-04 -2.99766e+00 
-3.22736e-01 -5.18616e-04 -3.00265e+00 
-1.07570e-01 -1.79845e-04 -3.00515e+00 
 1.07570e-01  1.79845e-04 -3.00515e+00 
 3.22736e-01  5.18616e-04 -3.00265e+00 
 5.37871e-01  8.73737e-04 -2.99766e+00 
 7.53047e-01  1.20344e-03 -2.99017e+00 
 9.68200e-01  1.54503e-03 -2.98019e+00 
 1.18340e+00  1.85686e-03 -2.96772e+00 
 1.39858e+00  2.17635e-03 -2.95275e+00 
 1.61381e+00  2.46202e-03 -2.93530e+00 
 1.82902e+00  2.75149e-03 -2.91536e+00 
 2.04429e+00  3.00348e-03 -2.89294e+00 
 2.25955e+00  3.25589e-03 -2.86804e+00 
 2.47487e+00  3.46771e-03 -2.84067e+00 
 2.69018e+00  3.67713e-03 -2.81082e+00 
 2.90555e+00  3.84347e-03 -2.77851e+00 
 3.12091e+00  4.00528e-03 -2.74373e+00 
 3.33634e+00  4.12226e-03 -2.70650e+00 
 3.55176e+00  4.23331e-03 -2.66680e+00 
 3.76725e+00  4.29854e-03 -2.62466e+00 
 3.98273e+00  4.35728e-03 -2.58007e+00 
 4.19827e+00  4.37004e-03 -2.53305e+00 
 4.41381e+00  4.37659e-03 -2.48358e+00 
 4.62941e+00  4.33788e-03 -2.43169e+00 
 4.84500e+00  4.29407e-03 -2.37736e+00 
 5.06064e+00  4.20657e-03 -2.32062e+00 
 5.27628e+00  4.11595e-03 -2.26145e+00 
 5.49197e+00  3.98402e-03 -2.19987e+00 
 5.70764e+00  3.85176e-03 -2.13587e+00 
 5.92336e+00  3.68134e-03 -2.06947e+00 
 6.13906e+00  3.51409e-03 -2.00066e+00 
 6.35480e+00  3.31253e-03 -1.92945e+00 
 6.57051e+00  3.11826e-03 -1.85583e+00 
 6.78625e+00  2.89407e-03 -1.77981e+00 
 7.00196e+00  2.68180e-03 -1.70139e+00 
 7.21770e+00  2.44444e-03 -1.62058e+00 
 7.43339e+00  2.22393e-03 -1.53736e+00 
 7.64910e+00  1.98339e-03 -1.45175e+00 
 7.86477e+00  1.76482e-03 -1.36372e+00 
 8.08044e+00  1.53131e-03 -1.27331e+00 
 8.29606e+00  1.32480e-03 -1.18047e+00 
 8.51168e+00  1.10830e-03 -1.08524e+00 
 8.72724e+00  9.23566e-04 -9.87579e-01 
 8.94279e+00  7.33368e-04 -8.87519e-01 
 9.15827e+00  5.79178e-04 -7.85019e-01 
 9.37375e+00  4.23432e-04 -6.80110e-01 
 9.58915e+00  3.07191e-04 -5.72749e-01 
 9.80454e+00  1.92436e-04 -4.62967e-01 
 1.00198e+01  1.19709e-04 -3.50720e-01 
 1.02351e+01  5.04285e-05 -2.36039e-01 
 1.04503e+01  2.45221e-05 -1.18877e-01 
 1.06517e+01 -3.07766e-02 -6.32902e-02 
-1.04103e+01  3.00653e-02 -6.32605e-02 
-1.02136e+01 -3.11614e-05 -1.18821e-01 
-1.00034e+01 -6.94639e-05 -2.35927e-01 
-9.79298e+00 -1.58493e-04 -3.50553e-01 
-9.58257e+00 -2.58869e-04 -4.62748e-01 
-9.37206e+00 -4.07826e-04 -5.72479e-01 
-9.16153e+00 -5.65213e-04 -6.79793e-01 
-8.95091e+00 -7.67566e-04 -7.84658e-01 
-8.74027e+00 -9.74093e-04 -8.87119e-01 
-8.52955e+00 -1.22078e-03 -9.87144e-01 
-8.31882e+00 -1.46634e-03 -1.08477e+00 
-8.10802e+00 -1.74635e-03 -1.17998e+00 
-7.89721e+00 -2.01920e-03 -1.27280e+00 
-7.68634e+00 -2.32020e-03 -1.36320e+00 
-7.47547e+00 -2.60756e-03 -1.45122e+00 
-7.26456e+00 -2.91647e-03 -1.53683e+00 
-7.05366e+00 -3.20510e-03 -1.62005e+00 
-6.84271e+00 -3.50869e-03 -1.70087e+00 
-6.63180e+00 -3.78546e-03 -1.77931e+00 
-6.42085e+00 -4.07084e-03 -1.85535e+00 
-6.20993e+00 -4.32324e-03 -1.92900e+00 
-5.99899e+00 -4.57836e-03 -2.00023e+00 
-5.78810e+00 -4.79491e-03 -2.06909e+00 
-5.57719e+00 -5.00897e-03 -2.13552e+00 
-5.36634e+00 -5.17963e-03 -2.19957e+00 
-5.15548e+00 -5.34340e-03 -2.26119e+00 
-4.94467e+00 -5.45984e-03 -2.32042e+00 
-4.73386e+00 -5.56594e-03 -2.37721e+00 
-4.52312e+00 -5.62176e-03 -2.43160e+00 
-4.31238e+00 -5.66484e-03 -2.48355e+00 
-4.10171e+00 -5.65576e-03 -2.53307e+00 
-3.89105e+00 -5.63260e-03 -2.58016e+00 
-3.68045e+00 -5.55648e-03 -2.62481e+00 
-3.46986e+00 -5.46604e-03 -2.66701e+00 
-3.25934e+00 -5.32293e-03 -2.70676e+00 
-3.04883e+00 -5.16632e-03 -2.74405e+00 
-2.83839e+00 -4.95837e-03 -2.77889e+00 
-2.62796e+00 -4.73876e-03 -2.81125e+00 
-2.41759e+00 -4.47013e-03 -2.84116e+00 
-2.20722e+00 -4.19261e-03 -2.86858e+00 
-1.99692e+00 -3.86929e-03 -2.89352e+00 
-1.78662e+00 -3.54069e-03 -2.91598e+00 
-1.57637e+00 -3.17027e-03 -2.93596e+00 
-1.36612e+00 -2.79892e-03 -2.95345e+00 
-1.15593e+00 -2.39040e-03 -2.96844e+00 
-9.45719e-01 -1.98586e-03 -2.98094e+00 
-7.35558e-01 -1.54931e-03 -2.99094e+00 
-5.25377e-01 -1.12212e-03 -2.99845e+00 
-3.15238e-01 -6.68430e-04 -3.00345e+00 
-1.05071e-01 -2.29739e-04 -3.00595e+00 
 1.05071e-01  2.29739e-04 -3.00595e+00 
 3.15238e-01  6.68430e-04 -3.00345e+00 
 5.25377e-01  1.12212e-03 -2.99845e+00 
 7.35558e-01  1.54931e-03 -2.99094e+00 
 9.45719e-01  1.98586e-03 -2.98094e+00 
 1.15593e+00  2.39040e-03 -2.96844e+00 
 1.36612e+00  2.79892e-03 -2.95345e+00 
 1.57637e+00  3.17027e-03 -2.93596e+00 
 1.78662e+00  3.54069e-03 -2.91598e+00 
 1.99692e+00  3.86929e-03 -2.89352e+00 
 2.20722e+00  4.19261e-03 -2.86858e+00 
 2.41759e+00  4.47013e-03 -2.84116e+00 
 2.62796e+00  4.73876e-03 -2.81125e+00 
 2.83839e+00  4.95837e-03 -2.77889e+00 
 3.04883e+00  5.16632e-03 -2.74405e+00 
 3.25934e+00  5.32293e-03 -2.70676e+00 
 3.46986e+00  5.46604e-03 -2.66701e+00 
 3.68045e+00  5.55648e-03 -2.62481e+00 
 3.89105e+00  5.63260e-03 -2.58016e+00 
 4.10171e+00  5.65576e-03 -2.53307e+00 
 4.31238e+00  5.66484e-03 -2.48355e+00 
 4.52312e+00  5.62176e-03 -2.43160e+00 
 4.73386e+00  5.56594e-03 -2.37721e+00 
 4.94467e+00  5.45984e-03 -2.32042e+00 
 5.15548e+00  5.34340e-03 -2.26119e+00 
 5.36634e+00  5.17963e-03 -2.19957e+00 
 5.57719e+00  5.00897e-03 -2.13552e+00 
 5.78810e+00  4.79491e-03 -2.06909e+00 
 5.99899e+00  4.57836e-03 -2.00023e+00 
 6.20993e+00  4.32324e-03 -1.92900e+00 
 6.42085e+00  4.07084e-03 -1.85535e+00 
 6.63180e+00  3.78546e-03 -1.77931e+00 
 6.84271e+00  3.50869e-03 -1.70087e+00 
 7.05366e+00  3.20510e-03 -1.62005e+00 
 7.26456e+00  2.91647e-03 -1.53683e+00 
 7.47547e+00  2.60756e-03 -1.45122e+00 
 7.68634e+00  2.32020e-03 -1.36320e+00 
 7.89721e+00  2.01920e-03 -1.27280e+00 
 8.10802e+00  1.74635e-03 -1.17998e+00 
 8.31882e+00  1.46634e-03 -1.08477e+00 
 8.52955e+00  1.22078e-03 -9.87144e-01 
 8.74027e+00  9.74093e-04 -8.87119e-01 
 8.95091e+00  7.67566e-04 -7.84658e-01 
 9.16153e+00  5.65213e-04 -6.79793e-01 
 9.37206e+00  4.07826e-04 -5.72479e-01 
 9.58257e+00  2.58869e-04 -4.62748e-01 
 9.79298e+00  1.58493e-04 -3.50553e-01 
 1.00034e+01  6.94639e-05 -2.35927e-01 
 1.02136e+01  3.11614e-05 -1.18821e-01 
 1.04103e+01 -3.00653e-02 -6.32605e-02 
-1.01691e+01  2.93536e-02 -6.32215e-02 
-9.97707e+00 -3.85888e-05 -1.18747e-01 
-9.77171e+00 -9.06873e-05 -2.35782e-01 
-9.56624e+00 -2.01728e-04 -3.50337e-01 
-9.36072e+00 -3.32816e-04 -4.62463e-01 
-9.15509e+00 -5.19761e-04 -5.72130e-01 
-8.94942e+00 -7.22729e-04 -6.79383e-01 
-8.74365e+00 -9.76688e-04 -7.84193e-01 
-8.53784e+00 -1.24104e-03 -8.86604e-01 
-8.33194e+00 -1.55009e-03 -9.86585e-01 
-8.12602e+00 -1.86267e-03 -1.08418e+00 
-7.92002e+00 -2.21262e-03 -1.17935e+00 
-7.71401e+00 -2.55838e-03 -1.27215e+00 
-7.50793e+00 -2.93351e-03 -1.36253e+00 
-7.30185e+00 -3.29624e-03 -1.45055e+00 
-7.09572e+00 -3.68005e-03 -1.53615e+00 
-6.88960e+00 -4.04313e-03 -1.61939e+00 
-6.68343e+00 -4.41904e-03 -1.70022e+00 
-6.47730e+00 -4.76611e-03 -1.77868e+00 
-6.27113e+00 -5.11811e-03 -1.85474e+00 
-6.06500e+00 -5.43366e-03 -1.92843e+00 
-5.85885e+00 -5.74687e-03 -1.99971e+00 
-5.65276e+00 -6.01677e-03 -2.06860e+00 
-5.44665e+00 -6.27796e-03 -2.13509e+00 
-5.24060e+00 -6.48993e-03 -2.19920e+00 
-5.03456e+00 -6.68784e-03 -2.26088e+00 
-4.82858e+00 -6.83178e-03 -2.32017e+00 
-4.62261e+00 -6.95752e-03 -2.37703e+00 
-4.41671e+00 -7.02576e-03 -2.43149e+00 
-4.21082e+00 -7.07293e-03 -2.48351e+00 
-4.00502e+00 -7.06040e-03 -2.53311e+00 
-3.79923e+00 -7.02528e-03 -2.58027e+00 
-3.59352e+00 -6.92957e-03 -2.62500e+00 
-3.38783e+00 -6.81108e-03 -2.66727e+00 
-3.18222e+00 -6.63247e-03 -2.70710e+00 
-2.97662e+00 -6.43218e-03 -2.74447e+00 
-2.77111e+00 -6.17350e-03 -2.77937e+00 
-2.56562e+00 -5.89549e-03 -2.81181e+00 
-2.36020e+00 -5.56201e-03 -2.84177e+00 
-2.15479e+00 -5.21267e-03 -2.86925e+00 
-1.94945e+00 -4.81186e-03 -2.89426e+00 
-1.74412e+00 -4.39970e-03 -2.91677e+00 
-1.53886e+00 -3.94100e-03 -2.93680e+00 
-1.33360e+00 -3.47631e-03 -2.95432e+00 
-1.12840e+00 -2.97081e-03 -2.96936e+00 
-9.23187e-01 -2.46538e-03 -2.98189e+00 
-7.18029e-01 -1.92549e-03 -2.99191e+00 
-5.12854e-01 -1.39225e-03 -2.99944e+00 
-3.07723e-01 -8.31341e-04 -3.00445e+00 
-1.02566e-01 -2.84006e-04 -3.00696e+00 
 1.02566e-01  2.84006e-04 -3.00696e+00 
 3.07723e-01  8.31341e-04 -3.00445e+00 
 5.12854e-01  1.39225e-03 -2.99944e+00 
 7.18029e-01  1.92549e-03 -2.99191e+00 
 9.23187e-01  2.46538e-03 -2.98189e+00 
 1.12840e+00  2.97081e-03 -2.96936e+00 
 1.33360e+00  3.47631e-03 -2.95432e+00 
 1.53886e+00  3.94100e-03 -2.93680e+00 
 1.74412e+00  4.39970e-03 -2.91677e+00 
 1.94945e+00  4.81186e-03 -2.89426e+00 
 2.15479e+00  5.21267e-03 -2.86925e+00 
 2.36020e+00  5.56201e-03 -2.84177e+00 
 2.56562e+00  5.89549e-03 -2.81181e+00 
 2.77111e+00  6.17350e-03 -2.77937e+00 
 2.97662e+00  6.43218e-03 -2.74447e+00 
 3.18222e+00  6.63247e-03 -2.70710e+00 
 3.38783e+00  6.81108e-03 -2.66727e+00 
 3.59352e+00  6.92957e-03 -2.62500e+00 
 3.79923e+00  7.02528e-03 -2.58027e+00 
 4.00502e+00  7.06040e-03 -2.53311e+00 
 4.21082e+00  7.07293e-03 -2.48351e+00 
 4.41671e+00  7.02576e-03 -2.43149e+00 
 4.62261e+00  6.95752e-03 -2.37703e+00 
 4.82858e+00  6.83178e-03 -2.32017e+00 
 5.03456e+00  6.68784e-03 -2.26088e+00 
 5.24060e+00  6.48993e-03 -2.19920e+00 
 5.44665e+00  6.27796e-03 -2.13509e+00 
 5.65276e+00  6.01677e-03 -2.06860e+00 
 5.85885e+00  5.74687e-03 -1.99971e+00 
 6.06500e+00  5.43366e-03 -1.92843e+00 
 6.27113e+00  5.11811e-03 -1.85474e+00 
 6.47730e+00  4.76611e-03 -1.77868e+00 
 6.68343e+00  4.41904e-03 -1.70022e+00 
 6.88960e+00  4.04313e-03 -1.61939e+00 
 7.09572e+00  3.68005e-03 -1.53615e+00 
 7.30185e+00  3.29624e-03 -1.45055e+00 
 7.50793e+00  2.93351e-03 -1.36253e+00 
 7.71401e+00  2.55838e-03 -1.27215e+00 
 7.92002e+00  2.21262e-03 -1.17935e+00 
 8.12602e+00  1.86267e-03 -1.08418e+00 
 8.33194e+00  1.55009e-03 -9.86585e-01 
 8.53784e+00  1.24104e-03 -8.86604e-01 
 8.74365e+00  9.76688e-04 -7.84193e-01 
 8.94942e+00  7.22729e-04 -6.79383e-01 
 9.15509e+00  5.19761e-04 -5.72130e-01 
 9.36072e+00  3.32816e-04 -4.62463e-01 
 9.56624e+00  2.01728e-04 -3.50337e-01 
 9.77171e+00  9.06873e-05 -2.35782e-01 
 9.97707e+00  3.85888e-05 -1.18747e-01 
 1.01691e+01 -2.93536e-02 -6.32215e-02 
-9.92811e+00  2.86414e-02 -6.31721e-02 
-9.74066e+00 -4.69859e-05 -1.18655e-01 
-9.54022e+00 -1.14599e-04 -2.35598e-01 
-9.33965e+00 -2.50427e-04 -3.50064e-01 
-9.13902e+00 -4.15970e-04 -4.62106e-01 
-8.93826e+00 -6.45526e-04 -5.71692e-01 
-8.73744e+00 -8.99474e-04 -6.78871e-01 
-8.53650e+00 -1.21112e-03 -7.83612e-01 
-8.33551e+00 -1.53994e-03 -8.85962e-01 
-8.13443e+00 -1.91848e-03 -9.85890e-01 
-7.93330e+00 -2.30555e-03 -1.08344e+00 
-7.73209e+00 -2.73318e-03 -1.17858e+00 
-7.53086e+00 -3.15973e-03 -1.27134e+00 
-7.32955e+00 -3.61691e-03 -1.36171e+00 
-7.12824e+00 -4.06292e-03 -1.44971e+00 
-6.92687e+00 -4.52937e-03 -1.53532e+00 
-6.72551e+00 -4.97444e-03 -1.61857e+00 
-6.52411e+00 -5.42989e-03 -1.69942e+00 
-6.32274e+00 -5.85409e-03 -1.77791e+00 
-6.12134e+00 -6.27910e-03 -1.85400e+00 
-5.91999e+00 -6.66365e-03 -1.92773e+00 
-5.71862e+00 -7.04026e-03 -1.99906e+00 
-5.51730e+00 -7.36818e-03 -2.06802e+00 
-5.31599e+00 -7.68051e-03 -2.13457e+00 
-5.11474e+00 -7.93710e-03 -2.19874e+00 
-4.91350e+00 -8.17176e-03 -2.26051e+00 
-4.71234e+00 -8.34504e-03 -2.31988e+00 
-4.51119e+00 -8.49150e-03 -2.37682e+00 
-4.31013e+00 -8.57246e-03 -2.43137e+00 
-4.10910e+00 -8.62327e-03 -2.48348e+00 
-3.90816e+00 -8.60605e-03 -2.53317e+00 
-3.70724e+00 -8.55697e-03 -2.58042e+00 
-3.50642e+00 -8.43893e-03 -2.62524e+00 
-3.30563e+00 -8.28893e-03 -2.66761e+00 
-3.10493e+00 -8.07063e-03 -2.70753e+00 
-2.90426e+00 -7.82180e-03 -2.74498e+00 
-2.70368e+00 -7.50687e-03 -2.77997e+00 
-2.50313e+00 -7.16432e-03 -2.81249e+00 
-2.30266e+00 -6.75925e-03 -2.84253e+00 
-2.10222e+00 -6.33083e-03 -2.87009e+00 
-1.90186e+00 -5.84477e-03 -2.89516e+00 
-1.70152e+00 -5.34080e-03 -2.91774e+00 
-1.50125e+00 -4.78517e-03 -2.93782e+00 
-1.30099e+00 -4.21810e-03 -2.95540e+00 
-1.10079e+00 -3.60628e-03 -2.97048e+00 
-9.00593e-01 -2.99032e-03 -2.98305e+00 
-7.00450e-01 -2.33723e-03 -2.99310e+00 
-5.00296e-01 -1.68792e-03 -3.00065e+00 
-3.00186e-01 -1.00962e-03 -3.00568e+00 
-1.00054e-01 -3.43406e-04 -3.00820e+00 
 1.00054e-01  3.43406e-04 -3.00820e+00 
 3.00186e-01  1.00962e-03 -3.00568e+00 
 5.00296e-01  1.68792e-03 -3.00065e+00 
 7.00450e-01  2.33723e-03 -2.99310e+00 
 9.00593e-01  2.99032e-03 -2.98305e+00 
 1.10079e+00  3.60628e-03 -2.97048e+00 
 1.30099e+00  4.21810e-03 -2.95540e+00 
 1.50125e+00  4.78517e-03 -2.93782e+00 
 1.70152e+00  5.34080e-03 -2.91774e+00 
 1.90186e+00  5.84477e-03 -2.89516e+00 
 2.10222e+00  6.33083e-03 -2.87009e+00 
 2.30266e+00  6.75925e-03 -2.84253e+00 
 2.50313e+00  7.16432e-03 -2.81249e+00 
 2.70368e+00  7.50687e-03 -2.77997e+00 
 2.90426e+00  7.82180e-03 -2.74498e+00 
 3.10493e+00  8.07063e-03 -2.70753e+00 
 3.30563e+00  8.28893e-03 -2.66761e+00 
 3.50642e+00  8.43893e-03 -2.62524e+00 
 3.70724e+00  8.55697e-03 -2.58042e+00 
 3.90816e+00  8.60605e-03 -2.53317e+00 
 4.10910e+00  8.62327e-03 -2.48348e+00 
 4.31013e+00  8.57246e-03 -2.43137e+00 
 4.51119e+00  8.49150e-03 -2.37682e+00 
 4.71234e+00  8.34504e-03 -2.31988e+00 
 4.91350e+00  8.17176e-03 -2.26051e+00 
 5.11474e+00  7.93710e-03 -2.19874e+00 
 5.31599e+00  7.68051e-03 -2.13457e+00 
 5.51730e+00  7.36818e-03 -2.06802e+00 
 5.71862e+00  7.04026e-03 -1.99906e+00 
 5.91999e+00  6.66365e-03 -1.92773e+00 
 6.12134e+00  6.27910e-03 -1.85400e+00 
 6.32274e+00  5.85409e-03 -1.77791e+00 
 6.52411e+00  5.42989e-03 -1.69942e+00 
 6.72551e+00  4.97444e-03 -1.61857e+00 
 6.92687e+00  4.52937e-03 -1.53532e+00 
 7.12824e+00  4.06292e-03 -1.44971e+00 
 7.32955e+00  3.61691e-03 -1.36171e+00 
 7.53086e+00  3.15973e-03 -1.27134e+00 
 7.73209e+00  2.73318e-03 -1.17858e+00 
 7.93330e+00  2.30555e-03 -1.08344e+00 
 8.13443e+00  1.91848e-03 -9.85890e-01 
 8.33551e+00  1.53994e-03 -8.85962e-01 
 8.53650e+00  1.21112e-03 -7.83612e-01 
 8.73744e+00  8.99474e-04 -6.78871e-01 
 8.93826e+00  6.45526e-04 -5.71692e-01 
 9.13902e+00  4.15970e-04 -4.62106e-01 
 9.33965e+00  2.50427e-04 -3.50064e-01 
 9.54022e+00  1.14599e-04 -2.35598e-01 
 9.74066e+00  4.69859e-05 -1.18655e-01 
 9.92811e+00 -2.86414e-02 -6.31721e-02 
-9.68728e+00  2.79289e-02 -6.31111e-02 
-9.50446e+00 -5.65507e-05 -1.18540e-01 
-9.30894e+00 -1.41745e-04 -2.35371e-01 
-9.11327e+00 -3.05689e-04 -3.49728e-01 
-8.91750e+00 -5.10172e-04 -4.61666e-01 
-8.72160e+00 -7.87862e-04 -5.71154e-01 
-8.52561e+00 -1.09923e-03 -6.78242e-01 
-8.32949e+00 -1.47579e-03 -7.82901e-01 
-8.13331e+00 -1.87698e-03 -8.85177e-01 
-7.93701e+00 -2.33344e-03 -9.85041e-01 
-7.74067e+00 -2.80385e-03 -1.08254e+00 
-7.54422e+00 -3.31826e-03 -1.17763e+00 
-7.34775e+00 -3.83487e-03 -1.27037e+00 
-7.15120e+00 -4.38344e-03 -1.36071e+00 
-6.95464e+00 -4.92194e-03 -1.44871e+00 
-6.75801e+00 -5.48008e-03 -1.53432e+00 
-6.56140e+00 -6.01590e-03 -1.61757e+00 
-6.36474e+00 -6.55926e-03 -1.69845e+00 
-6.16812e+00 -7.06849e-03 -1.77697e+00 
-5.97147e+00 -7.57386e-03 -1.85311e+00 
-5.77486e+00 -8.03415e-03 -1.92689e+00 
-5.57825e+00 -8.48020e-03 -1.99829e+00 
-5.38171e+00 -8.87144e-03 -2.06732e+00 
-5.18517e+00 -9.23942e-03 -2.13395e+00 
-4.98871e+00 -9.54433e-03 -2.19821e+00 
-4.79226e+00 -9.81857e-03 -2.26006e+00 
-4.59591e+00 -1.00232e-02 -2.31953e+00 
-4.39959e+00 -1.01914e-02 -2.37658e+00 
-4.20336e+00 -1.02853e-02 -2.43123e+00 
-4.00718e+00 -1.03390e-02 -2.48345e+00 
-3.81109e+00 -1.03155e-02 -2.53325e+00 
-3.61505e+00 -1.02500e-02 -2.58061e+00 
-3.41911e+00 -1.01063e-02 -2.62554e+00 
-3.22322e+00 -9.92061e-03 -2.66802e+00 
-3.02744e+00 -9.65765e-03 -2.70804e+00 
-2.83170e+00 -9.35453e-03 -2.74560e+00 
-2.63606e+00 -8.97686e-03 -2.78070e+00 
-2.44046e+00 -8.56258e-03 -2.81331e+00 
-2.24496e+00 -8.07809e-03 -2.84345e+00 
-2.04950e+00 -7.56212e-03 -2.87110e+00 
-1.85413e+00 -6.98178e-03 -2.89625e+00 
-1.65878e+00 -6.37646e-03 -2.91891e+00 
-1.46352e+00 -5.71388e-03 -2.93906e+00 
-1.26827e+00 -5.03402e-03 -2.95670e+00 
-1.07309e+00 -4.30509e-03 -2.97183e+00 
-8.77923e-01 -3.56750e-03 -2.98444e+00 
-6.82813e-01 -2.78987e-03 -2.99454e+00 
-4.87695e-01 -2.01294e-03 -3.00211e+00 
-2.92624e-01 -1.20557e-03 -3.00716e+00 
-9.75334e-02 -4.08704e-04 -3.00968e+00 
 9.75334e-02  4.08704e-04 -3.00968e+00 
 2.92624e-01  1.20557e-03 -3.00716e+00 
 4.87695e-01  2.01294e-03 -3.00211e+00 
 6.82813e-01  2.78987e-03 -2.99454e+00 
 8.77923e-01  3.56750e-03 -2.98444e+00 
 1.07309e+00  4.30509e-03 -2.97183e+00 
 1.26827e+00  5.03402e-03 -2.95670e+00 
 1.46352e+00  5.71388e-03 -2.93906e+00 
 1.65878e+00  6.37646e-03 -2.91891e+00 
 1.85413e+00  6.98178e-03 -2.89625e+00 
 2.04950e+00  7.56212e-03 -2.87110e+00 
 2.24496e+00  8.07809e-03 -2.84345e+00 
 2.44046e+00  8.56258e-03 -2.81331e+00 
 2.63606e+00  8.97686e-03 -2.78070e+00 
 2.83170e+00  9.35453e-03 -2.74560e+00 
 3.02744e+00  9.65765e-03 -2.70804e+00 
 3.22322e+00  9.92061e-03 -2.66802e+00 
 3.41911e+00  1.01063e-02 -2.62554e+00 
 3.61505e+00  1.02500e-02 -2.58061e+00 
 3.81109e+00  1.03155e-02 -2.53325e+00 
 4.00718e+00  1.03390e-02 -2.48345e+00 
 4.20336e+00  1.02853e-02 -2.43123e+00 
 4.39959e+00  1.01914e-02 -2.37658e+00 
 4.59591e+00  1.00232e-02 -2.31953e+00 
 4.79226e+00  9.81857e-03 -2.26006e+00 
 4.98871e+00  9.54433e-03 -2.19821e+00 
 5.18517e+00  9.23942e-03 -2.13395e+00 
 5.38171e+00  8.87144e-03 -2.06732e+00 
 5.57825e+00  8.48020e-03 -1.99829e+00 
 5.77486e+00  8.03415e-03 -1.92689e+00 
 5.97147e+00  7.57386e-03 -1.85311e+00 
 6.16812e+00  7.06849e-03 -1.77697e+00 
 6.36474e+00  6.55926e-03 -1.69845e+00 
 6.56140e+00  6.01590e-03 -1.61757e+00 
 6.75801e+00  5.48008e-03 -1.53432e+00 
 6.95464e+00  4.92194e-03 -1.44871e+00 
 7.15120e+00  4.38344e-03 -1.36071e+00 
 7.34775e+00  3.83487e-03 -1.27037e+00 
 7.54422e+00  3.31826e-03 -1.17763e+00 
 7.74067e+00  2.80385e-03 -1.08254e+00 
 7.93701e+00  2.33344e-03 -9.85041e-01 
 8.13331e+00  1.87698e-03 -8.85177e-01 
 8.32949e+00  1.47579e-03 -7.82901e-01 
 8.52561e+00  1.09923e-03 -6.78242e-01 
 8.72160e+00  7.87862e-04 -5.71154e-01 
 8.91750e+00  5.10172e-04 -4.61666e-01 
 9.11327e+00  3.05689e-04 -3.49728e-01 
 9.30894e+00  1.41745e-04 -2.35371e-01 
 9.50446e+00  5.65507e-05 -1.18540e-01 
 9.68728e+00 -2.79289e-02 -6.31111e-02 
-9.44671e+00  2.72162e-02 -6.30367e-02 
-9.26851e+00 -6.75003e-05 -1.18401e-01 
-9.07790e+00 -1.72722e-04 -2.35095e-01 
-8.88711e+00 -3.68716e-04 -3.49320e-01 
-8.69621e+00 -6.17427e-04 -4.61133e-01 
-8.50515e+00 -9.49750e-04 -5.70503e-01 
-8.31398e+00 -1.32610e-03 -6.77483e-01 
-8.12266e+00 -1.77606e-03 -7.82044e-01 
-7.93126e+00 -2.25885e-03 -8.84232e-01 
-7.73973e+00 -2.80306e-03 -9.84021e-01 
-7.54814e+00 -3.36709e-03 -1.08145e+00 
-7.35644e+00 -3.97887e-03 -1.17650e+00 
-7.16470e+00 -4.59630e-03 -1.26920e+00 
-6.97288e+00 -5.24698e-03 -1.35952e+00 
-6.78104e+00 -5.88863e-03 -1.44750e+00 
-6.58913e+00 -6.54884e-03 -1.53312e+00 
-6.39724e+00 -7.18543e-03 -1.61639e+00 
-6.20530e+00 -7.82626e-03 -1.69730e+00 
-6.01340e+00 -8.42950e-03 -1.77586e+00 
-5.82148e+00 -9.02355e-03 -1.85206e+00 
-5.62961e+00 -9.56715e-03 -1.92591e+00 
-5.43774e+00 -1.00894e-02 -1.99738e+00 
-5.24595e+00 -1.05499e-02 -2.06649e+00 
-5.05417e+00 -1.09785e-02 -2.13322e+00 
-4.86248e+00 -1.13357e-02 -2.19758e+00 
-4.67082e+00 -1.16526e-02 -2.25955e+00 
-4.47927e+00 -1.18905e-02 -2.31913e+00 
-4.28776e+00 -1.20816e-02 -2.37630e+00 
-4.09636e+00 -1.21884e-02 -2.43107e+00 
-3.90501e+00 -1.22440e-02 -2.48342e+00 
-3.71379e+00 -1.22122e-02 -2.53335e+00 
-3.52262e+00 -1.21272e-02 -2.58085e+00 
-3.33157e+00 -1.19538e-02 -2.62591e+00 
-3.14058e+00 -1.17275e-02 -2.66851e+00 
-2.94972e+00 -1.14141e-02 -2.70867e+00 
-2.75891e+00 -1.10500e-02 -2.74635e+00 
-2.56822e+00 -1.06020e-02 -2.78157e+00 
-2.37759e+00 -1.01078e-02 -2.81430e+00 
-2.18706e+00 -9.53483e-03 -2.84455e+00 
-1.99659e+00 -8.92163e-03 -2.87230e+00 
-1.80622e+00 -8.23670e-03 -2.89755e+00 
-1.61588e+00 -7.51916e-03 -2.92029e+00 
-1.42564e+00 -6.73826e-03 -2.94052e+00 
-1.23543e+00 -5.93376e-03 -2.95824e+00 
-1.04529e+00 -5.07549e-03 -2.97343e+00 
-8.55164e-01 -4.20373e-03 -2.98609e+00 
-6.65105e-01 -3.28872e-03 -2.99623e+00 
-4.75044e-01 -2.37112e-03 -3.00384e+00 
-2.85032e-01 -1.42148e-03 -3.00891e+00 
-9.50026e-02 -4.80665e-04 -3.01144e+00 
 9.50026e-02  4.80665e-04 -3.01144e+00 
 2.85032e-01  1.42148e-03 -3.00891e+00 
 4.75044e-01  2.37112e-03 -3.00384e+00 
 6.65105e-01  3.28872e-03 -2.99623e+00 
 8.55164e-01  4.20373e-03 -2.98609e+00 
 1.04529e+00  5.07549e-03 -2.97343e+00 
 1.23543e+00  5.93376e-03 -2.95824e+00 
 1.42564e+00  6.73826e-03 -2.94052e+00 
 1.61588e+00  7.51916e-03 -2.92029e+00 
 1.80622e+00  8.23670e-03 -2.89755e+00 
 1.99659e+00  8.92163e-03 -2.87230e+00 
 2.18706e+00  9.53483e-03 -2.84455e+00 
 2.37759e+00  1.01078e-02 -2.81430e+00 
 2.56822e+00  1.06020e-02 -2.78157e+00 
 2.75891e+00  1.10500e-02 -2.74635e+00 
 2.94972e+00  1.14141e-02 -2.70867e+00 
 3.14058e+00  1.17275e-02 -2.66851e+00 
 3.33157e+00  1.19538e-02 -2.62591e+00 
 3.52262e+00  1.21272e-02 -2.58085e+00 
 3.71379e+00  1.22122e-02 -2.53335e+00 
 3.90501e+00  1.22440e-02 -2.48342e+00 
 4.09636e+00  1.21884e-02 -2.43107e+00 
 4.28776e+00  1.20816e-02 -2.37630e+00 
 4.47927e+00  1.18905e-02 -2.31913e+00 
 4.67082e+00  1.16526e-02 -2.25955e+00 
 4.86248e+00  1.13357e-02 -2.19758e+00 
 5.05417e+00  1.09785e-02 -2.13322e+00 
 5.24595e+00  1.05499e-02 -2.06649e+00 
 5.43774e+00  1.00894e-02 -1.99738e+00 
 5.62961e+00  9.56715e-03 -1.92591e+00 
 5.82148e+00  9.02355e-03 -1.85206e+00 
 6.01340e+00  8.42950e-03 -1.77586e+00 
 6.20530e+00  7.82626e-03 -1.69730e+00 
 6.39724e+00  7.18543e-03 -1.61639e+00 
 6.58913e+00  6.54884e-03 -1.53312e+00 
 6.78104e+00  5.88863e-03 -1.44750e+00 
 6.97288e+00  5.24698e-03 -1.35952e+00 
 7.16470e+00  4.59630e-03 -1.26920e+00 
 7.35644e+00  3.97887e-03 -1.17650e+00 
 7.54814e+00  3.36709e-03 -1.08145e+00 
 7.73973e+00  2.80306e-03 -9.84021e-01 
 7.93126e+00  2.25885e-03 -8.84232e-01 
 8.12266e+00  1.77606e-03 -7.82044e-01 
 8.31398e+00  1.32610e-03 -6.77483e-01 
 8.50515e+00  9.49750e-04 -5.70503e-01 
 8.69621e+00  6.17427e-04 -4.61133e-01 
 8.88711e+00  3.68716e-04 -3.49320e-01 
 9.07790e+00  1.72722e-04 -2.35095e-01 
 9.26851e+00  6.75003e-05 -1.18401e-01 
 9.44671e+00 -2.72162e-02 -6.30367e-02 
-9.20646e+00  2.65033e-02 -6.29470e-02 
-9.03287e+00 -8.00733e-05 -1.18233e-01 
-8.84716e+00 -2.08184e-04 -2.34763e-01 
-8.66125e+00 -4.40822e-04 -3.48831e-01 
-8.47519e+00 -7.39924e-04 -4.60493e-01 
-8.28894e+00 -1.13444e-03 -5.69724e-01 
-8.10257e+00 -1.58456e-03 -6.76575e-01 
-7.91603e+00 -2.11772e-03 -7.81020e-01 
-7.72939e+00 -2.69277e-03 -8.83107e-01 
-7.54260e+00 -3.33607e-03 -9.82807e-01 
-7.35574e+00 -4.00554e-03 -1.08017e+00 
-7.16875e+00 -4.72683e-03 -1.17515e+00 
-6.98172e+00 -5.45735e-03 -1.26781e+00 
-6.79459e+00 -6.22242e-03 -1.35811e+00 
-6.60744e+00 -6.97928e-03 -1.44609e+00 
-6.42023e+00 -7.75334e-03 -1.53171e+00 
-6.23303e+00 -8.50200e-03 -1.61500e+00 
-6.04578e+00 -9.25104e-03 -1.69595e+00 
-5.85858e+00 -9.95834e-03 -1.77456e+00 
-5.67136e+00 -1.06503e-02 -1.85082e+00 
-5.48420e+00 -1.12856e-02 -1.92475e+00 
-5.29705e+00 -1.18916e-02 -1.99631e+00 
-5.10999e+00 -1.24277e-02 -2.06553e+00 
-4.92295e+00 -1.29223e-02 -2.13237e+00 
-4.73602e+00 -1.33362e-02 -2.19685e+00 
-4.54913e+00 -1.36988e-02 -2.25895e+00 
-4.36236e+00 -1.39721e-02 -2.31867e+00 
-4.17566e+00 -1.41869e-02 -2.37598e+00 
-3.98908e+00 -1.43062e-02 -2.43090e+00 
-3.80257e+00 -1.43623e-02 -2.48340e+00 
-3.61619e+00 -1.43196e-02 -2.53349e+00 
-3.42990e+00 -1.42115e-02 -2.58113e+00 
-3.24374e+00 -1.40038e-02 -2.62635e+00 
-3.05766e+00 -1.37311e-02 -2.66910e+00 
-2.87172e+00 -1.33604e-02 -2.70941e+00 
-2.68585e+00 -1.29277e-02 -2.74724e+00 
-2.50012e+00 -1.24009e-02 -2.78260e+00 
-2.31446e+00 -1.18172e-02 -2.81546e+00 
-2.12893e+00 -1.11456e-02 -2.84584e+00 
-1.94346e+00 -1.04243e-02 -2.87371e+00 
-1.75811e+00 -9.62315e-03 -2.89908e+00 
-1.57280e+00 -8.78118e-03 -2.92192e+00 
-1.38760e+00 -7.86920e-03 -2.94225e+00 
-1.20244e+00 -6.92684e-03 -2.96004e+00 
-1.01736e+00 -5.92559e-03 -2.97531e+00 
-8.32302e-01 -4.90563e-03 -2.98804e+00 
-6.47316e-01 -3.83895e-03 -2.99822e+00 
-4.62334e-01 -2.76616e-03 -3.00586e+00 
-2.77405e-01 -1.65957e-03 -3.01096e+00 
-9.24601e-02 -5.60032e-04 -3.01351e+00 
 9.24601e-02  5.60032e-04 -3.01351e+00 
 2.77405e-01  1.65957e-03 -3.01096e+00 
 4.62334e-01  2.76616e-03 -3.00586e+00 
 6.47316e-01  3.83895e-03 -2.99822e+00 
 8.32302e-01  4.90563e-03 -2.98804e+00 
 1.01736e+00  5.92559e-03 -2.97531e+00 
 1.20244e+00  6.92684e-03 -2.96004e+00 
 1.38760e+00  7.86920e-03 -2.94225e+00 
 1.57280e+00  8.78118e-03 -2.92192e+00 
 1.75811e+00  9.62315e-03 -2.89908e+00 
 1.94346e+00  1.04243e-02 -2.87371e+00 
 2.12893e+00  1.11456e-02 -2.84584e+00 
 2.31446e+00  1.18172e-02 -2.81546e+00 
 2.50012e+00  1.24009e-02 -2.78260e+00 
 2.68585e+00  1.29277e-02 -2.74724e+00 
 2.87172e+00  1.33604e-02 -2.70941e+00 
 3.05766e+00  1.37311e-02 -2.66910e+00 
 3.24374e+00  1.40038e-02 -2.62635e+00 
 3.42990e+00  1.42115e-02 -2.58113e+00 
 3.61619e+00  1.43196e-02 -2.53349e+00 
 3.80257e+00  1.43623e-02 -2.48340e+00 
 3.98908e+00  1.43062e-02 -2.43090e+00 
 4.17566e+00  1.41869e-02 -2.37598e+00 
 4.36236e+00  1.39721e-02 -2.31867e+00 
 4.54913e+00  1.36988e-02 -2.25895e+00 
 4.73602e+00  1.33362e-02 -2.19685e+00 
 4.92295e+00  1.29223e-02 -2.13237e+00 
 5.10999e+00  1.24277e-02 -2.06553e+00 
 5.29705e+00  1.18916e-02 -1.99631e+00 
 5.48420e+00  1.12856e-02 -1.92475e+00 
 5.67136e+00  1.06503e-02 -1.85082e+00 
 5.85858e+00  9.95834e-03 -1.77456e+00 
 6.04578e+00  9.25104e-03 -1.69595e+00 
 6.23303e+00  8.50200e-03 -1.61500e+00 
 6.42023e+00  7.75334e-03 -1.53171e+00 
 6.60744e+00  6.97928e-03 -1.44609e+00 
 6.79459e+00  6.22242e-03 -1.35811e+00 
 6.98172e+00  5.45735e-03 -1.26781e+00 
 7.16875e+00  4.72683e-03 -1.17515e+00 
 7.35574e+00  4.00554e-03 -1.08017e+00 
 7.54260e+00  3.33607e-03 -9.82807e-01 
 7.72939e+00  2.69277e-03 -8.83107e-01 
 7.91603e+00  2.11772e-03 -7.81020e-01 
 8.10257e+00  1.58456e-03 -6.76575e-01 
 8.28894e+00  1.13444e-03 -5.69724e-01 
 8.47519e+00  7.39924e-04 -4.60493e-01 
 8.66125e+00  4.40822e-04 -3.48831e-01 
 8.84716e+00  2.08184e-04 -2.34763e-01 
 9.03287e+00  8.00733e-05 -1.18233e-01 
 9.20646e+00 -2.65033e-02 -6.29470e-02 
-8.96658e+00  2.57906e-02 -6.28398e-02 
-8.79759e+00 -9.45323e-05 -1.18032e-01 
-8.61677e+00 -2.48851e-04 -2.34367e-01 
-8.43572e+00 -5.23449e-04 -3.48248e-01 
-8.25449e+00 -8.80058e-04 -4.59733e-01 
-8.07304e+00 -1.34548e-03 -5.68800e-01 
-7.89144e+00 -1.87944e-03 -6.75500e-01 
-7.70964e+00 -2.50706e-03 -7.79809e-01 
-7.52772e+00 -3.18658e-03 -8.81777e-01 
-7.34564e+00 -3.94189e-03 -9.81376e-01 
-7.16347e+00 -4.73025e-03 -1.07865e+00 
-6.98116e+00 -5.57481e-03 -1.17357e+00 
-6.79880e+00 -6.43228e-03 -1.26619e+00 
-6.61634e+00 -7.32555e-03 -1.35646e+00 
-6.43385e+00 -8.21121e-03 -1.44442e+00 
-6.25129e+00 -9.11227e-03 -1.53005e+00 
-6.06875e+00 -9.98561e-03 -1.61338e+00 
-5.88616e+00 -1.08548e-02 -1.69437e+00 
-5.70362e+00 -1.16772e-02 -1.77305e+00 
-5.52108e+00 -1.24773e-02 -1.84939e+00 
-5.33860e+00 -1.32135e-02 -1.92341e+00 
-5.15615e+00 -1.39111e-02 -1.99508e+00 
-4.97379e+00 -1.45298e-02 -2.06442e+00 
-4.79148e+00 -1.50962e-02 -2.13140e+00 
-4.60928e+00 -1.55711e-02 -2.19602e+00 
-4.42715e+00 -1.59827e-02 -2.25827e+00 
-4.24515e+00 -1.62932e-02 -2.31815e+00 
-4.06324e+00 -1.65322e-02 -2.37563e+00 
-3.88147e+00 -1.66635e-02 -2.43072e+00 
-3.69979e+00 -1.67182e-02 -2.48340e+00 
-3.51827e+00 -1.66614e-02 -2.53366e+00 
-3.33685e+00 -1.65258e-02 -2.58149e+00 
-3.15558e+00 -1.62782e-02 -2.62688e+00 
-2.97441e+00 -1.59525e-02 -2.66981e+00 
-2.79340e+00 -1.55169e-02 -2.71029e+00 
-2.61249e+00 -1.50067e-02 -2.74828e+00 
-2.43173e+00 -1.43914e-02 -2.78380e+00 
-2.25106e+00 -1.37077e-02 -2.81682e+00 
-2.07053e+00 -1.29261e-02 -2.84735e+00 
-1.89008e+00 -1.20844e-02 -2.87536e+00 
-1.70976e+00 -1.11542e-02 -2.90086e+00 
-1.52951e+00 -1.01743e-02 -2.92382e+00 
-1.34937e+00 -9.11712e-03 -2.94425e+00 
-1.16928e+00 -8.02231e-03 -2.96215e+00 
-9.89284e-01 -6.86305e-03 -2.97750e+00 
-8.09321e-01 -5.67952e-03 -2.99029e+00 
-6.29434e-01 -4.44548e-03 -3.00053e+00 
-4.49558e-01 -3.20159e-03 -3.00822e+00 
-2.69737e-01 -1.92195e-03 -3.01334e+00 
-8.99040e-02 -6.47509e-04 -3.01591e+00 
 8.99040e-02  6.47509e-04 -3.01591e+00 
 2.69737e-01  1.92195e-03 -3.01334e+00 
 4.49558e-01  3.20159e-03 -3.00822e+00 
 6.29434e-01  4.44548e-03 -3.00053e+00 
 8.09321e-01  5.67952e-03 -2.99029e+00 
 9.89284e-01  6.86305e-03 -2.97750e+00 
 1.16928e+00  8.02231e-03 -2.96215e+00 
 1.34937e+00  9.11712e-03 -2.94425e+00 
 1.52951e+00  1.01743e-02 -2.92382e+00 
 1.70976e+00  1.11542e-02 -2.90086e+00 
 1.89008e+00  1.20844e-02 -2.87536e+00 
 2.07053e+00  1.29261e-02 -2.84735e+00 
 2.25106e+00  1.37077e-02 -2.81682e+00 
 2.43173e+00  1.43914e-02 -2.78380e+00 
 2.61249e+00  1.50067e-02 -2.74828e+00 
 2.79340e+00  1.55169e-02 -2.71029e+00 
 2.97441e+00  1.59525e-02 -2.66981e+00 
 3.15558e+00  1.62782e-02 -2.62688e+00 
 3.33685e+00  1.65258e-02 -2.58149e+00 
 3.51827e+00  1.66614e-02 -2.53366e+00 
 3.69979e+00  1.67182e-02 -2.48340e+00 
 3.88147e+00  1.66635e-02 -2.43072e+00 
 4.06324e+00  1.65322e-02 -2.37563e+00 
 4.24515e+00  1.62932e-02 -2.31815e+00 
 4.42715e+00  1.59827e-02 -2.25827e+00 
 4.60928e+00  1.55711e-02 -2.19602e+00 
 4.79148e+00  1.50962e-02 -2.13140e+00 
 4.97379e+00  1.45298e-02 -2.06442e+00 
 5.15615e+00  1.39111e-02 -1.99508e+00 
 5.33860e+00  1.32135e-02 -1.92341e+00 
 5.52108e+00  1.24773e-02 -1.84939e+00 
 5.70362e+00  1.16772e-02 -1.77305e+00 
 5.88616e+00  1.08548e-02 -1.69437e+00 
 6.06875e+00  9.98561e-03 -1.61338e+00 
 6.25129e+00  9.11227e-03 -1.53005e+00 
 6.43385e+00  8.21121e-03 -1.44442e+00 
 6.61634e+00  7.32555e-03 -1.35646e+00 
 6.79880e+00  6.43228e-03 -1.26619e+00 
 6.98116e+00  5.57481e-03 -1.17357e+00 
 7.16347e+00  4.73025e-03 -1.07865e+00 
 7.34564e+00  3.94189e-03 -9.81376e-01 
 7.52772e+00  3.18658e-03 -8.81777e-01 
 7.70964e+00  2.50706e-03 -7.79809e-01 
 7.89144e+00  1.87944e-03 -6.75500e-01 
 8.07304e+00  1.34548e-03 -5.68800e-01 
 8.25449e+00  8.80058e-04 -4.59733e-01 
 8.43572e+00  5.23449e-04 -3.48248e-01 
 8.61677e+00  2.48851e-04 -2.34367e-01 
 8.79759e+00  9.45323e-05 -1.18032e-01 
 8.96658e+00 -2.57906e-02 -6.28398e-02 
-8.72715e+00  2.50783e-02 -6.27125e-02 
-8.56276e+00 -1.11167e-04 -1.17794e-01 
-8.38681e+00 -2.95512e-04 -2.33897e-01 
-8.21058e+00 -6.18175e-04 -3.47557e-01 
-8.03415e+00 -1.04044e-03 -4.58836e-01 
-7.85747e+00 -1.58672e-03 -5.67709e-01 
-7.68061e+00 -2.21604e-03 -6.74234e-01 
-7.50353e+00 -2.95090e-03 -7.78386e-01 
-7.32630e+00 -3.74870e-03 -8.80216e-01 
-7.14889e+00 -4.63064e-03 -9.79698e-01 
-6.97136e+00 -5.55304e-03 -1.07688e+00 
-6.79370e+00 -6.53632e-03 -1.17173e+00 
-6.61596e+00 -7.53630e-03 -1.26429e+00 
-6.43812e+00 -8.57316e-03 -1.35453e+00 
-6.26025e+00 -9.60267e-03 -1.44249e+00 
-6.08231e+00 -1.06453e-02 -1.52813e+00 
-5.90438e+00 -1.16572e-02 -1.61150e+00 
-5.72642e+00 -1.26595e-02 -1.69254e+00 
-5.54851e+00 -1.36092e-02 -1.77130e+00 
-5.37060e+00 -1.45284e-02 -1.84773e+00 
-5.19278e+00 -1.53753e-02 -1.92187e+00 
-5.01499e+00 -1.61732e-02 -1.99367e+00 
-4.83731e+00 -1.68817e-02 -2.06315e+00 
-4.65970e+00 -1.75256e-02 -2.13028e+00 
-4.48222e+00 -1.80661e-02 -2.19508e+00 
-4.30483e+00 -1.85297e-02 -2.25750e+00 
-4.12759e+00 -1.88791e-02 -2.31757e+00 
-3.95045e+00 -1.91426e-02 -2.37524e+00 
-3.77348e+00 -1.92846e-02 -2.43053e+00 
-3.59663e+00 -1.93352e-02 -2.48341e+00 
-3.41996e+00 -1.92605e-02 -2.53388e+00 
-3.24341e+00 -1.90922e-02 -2.58191e+00 
-3.06704e+00 -1.87982e-02 -2.62751e+00 
-2.89079e+00 -1.84118e-02 -2.67064e+00 
-2.71472e+00 -1.79025e-02 -2.71131e+00 
-2.53877e+00 -1.73051e-02 -2.74950e+00 
-2.36299e+00 -1.65905e-02 -2.78521e+00 
-2.18732e+00 -1.57950e-02 -2.81841e+00 
-2.01182e+00 -1.48907e-02 -2.84910e+00 
-1.83641e+00 -1.39152e-02 -2.87727e+00 
-1.66115e+00 -1.28418e-02 -2.90292e+00 
-1.48597e+00 -1.17092e-02 -2.92602e+00 
-1.31092e+00 -1.04915e-02 -2.94657e+00 
-1.13593e+00 -9.22844e-03 -2.96458e+00 
-9.61045e-01 -7.89487e-03 -2.98002e+00 
-7.86204e-01 -6.53111e-03 -2.99290e+00 
-6.11446e-01 -5.11276e-03 -3.00320e+00 
-4.36705e-01 -3.68056e-03 -3.01094e+00 
-2.62023e-01 -2.21054e-03 -3.01609e+00 
-8.73326e-02 -7.43729e-04 -3.01867e+00 
 8.73326e-02  7.43729e-04 -3.01867e+00 
 2.62023e-01  2.21054e-03 -3.01609e+00 
 4.36705e-01  3.68056e-03 -3.01094e+00 
 6.11446e-01  5.11276e-03 -3.00320e+00 
 7.86204e-01  6.53111e-03 -2.99290e+00 
 9.61045e-01  7.89487e-03 -2.98002e+00 
 1.13593e+00  9.22844e-03 -2.96458e+00 
 1.31092e+00  1.04915e-02 -2.94657e+00 
 1.48597e+00  1.17092e-02 -2.92602e+00 
 1.66115e+00  1.28418e-02 -2.90292e+00 
 1.83641e+00  1.39152e-02 -2.87727e+00 
 2.01182e+00  1.48907e-02 -2.84910e+00 
 2.18732e+00  1.57950e-02 -2.81841e+00 
 2.36299e+00  1.65905e-02 -2.78521e+00 
 2.53877e+00  1.73051e-02 -2.74950e+00 
 2.71472e+00  1.79025e-02 -2.71131e+00 
 2.89079e+00  1.84118e-02 -2.67064e+00 
 3.06704e+00  1.87982e-02 -2.62751e+00 
 3.24341e+00  1.90922e-02 -2.58191e+00 
 3.41996e+00  1.92605e-02 -2.53388e+00 
 3.59663e+00  1.93352e-02 -2.48341e+00 
 3.77348e+00  1.92846e-02 -2.43053e+00 
 3.95045e+00  1.91426e-02 -2.37524e+00 
 4.12759e+00  1.88791e-02 -2.31757e+00 
 4.30483e+00  1.85297e-02 -2.25750e+00 
 4.48222e+00  1.80661e-02 -2.19508e+00 
 4.65970e+00  1.75256e-02 -2.13028e+00 
 4.83731e+00  1.68817e-02 -2.06315e+00 
 5.01499e+00  1.61732e-02 -1.99367e+00 
 5.19278e+00  1.53753e-02 -1.92187e+00 
 5.37060e+00  1.45284e-02 -1.84773e+00 
 5.54851e+00  1.36092e-02 -1.77130e+00 
 5.72642e+00  1.26595e-02 -1.69254e+00 
 5.90438e+00  1.16572e-02 -1.61150e+00 
 6.08231e+00  1.06453e-02 -1.52813e+00 
 6.26025e+00  9.60267e-03 -1.44249e+00 
 6.43812e+00  8.57316e-03 -1.35453e+00 
 6.61596e+00  7.53630e-03 -1.26429e+00 
 6.79370e+00  6.53632e-03 -1.17173e+00 
 6.97136e+00  5.55304e-03 -1.07688e+00 
 7.14889e+00  4.63064e-03 -9.79698e-01 
 7.32630e+00  3.74870e-03 -8.80216e-01 
 7.50353e+00  2.95090e-03 -7.78386e-01 
 7.68061e+00  2.21604e-03 -6.74234e-01 
 7.85747e+00  1.58672e-03 -5.67709e-01 
 8.03415e+00  1.04044e-03 -4.58836e-01 
 8.21058e+00  6.18175e-04 -3.47557e-01 
 8.38681e+00  2.95512e-04 -2.33897e-01 
 8.56276e+00  1.11167e-04 -1.17794e-01 
 8.72715e+00 -2.50783e-02 -6.27125e-02 
-8.48825e+00  2.43669e-02 -6.25621e-02 
-8.32844e+00 -1.30294e-04 -1.17513e-01 
-8.15734e+00 -3.49036e-04 -2.33344e-01 
-7.98592e+00 -7.26730e-04 -3.46745e-01 
-7.81426e+00 -1.22394e-03 -4.57781e-01 
-7.64231e+00 -1.86238e-03 -5.66430e-01 
-7.47014e+00 -2.60006e-03 -6.72751e-01 
-7.29773e+00 -3.45660e-03 -7.76721e-01 
-7.12514e+00 -4.38824e-03 -8.78393e-01 
-6.95235e+00 -5.41319e-03 -9.77742e-01 
-6.77944e+00 -6.48654e-03 -1.07481e+00 
-6.60636e+00 -7.62576e-03 -1.16958e+00 
-6.43320e+00 -8.78544e-03 -1.26209e+00 
-6.25994e+00 -9.98290e-03 -1.35230e+00 
-6.08663e+00 -1.11728e-02 -1.44025e+00 
-5.91326e+00 -1.23729e-02 -1.52592e+00 
-5.73991e+00 -1.35384e-02 -1.60933e+00 
-5.56653e+00 -1.46880e-02 -1.69044e+00 
-5.39321e+00 -1.57779e-02 -1.76929e+00 
-5.21990e+00 -1.68279e-02 -1.84584e+00 
-5.04669e+00 -1.77958e-02 -1.92011e+00 
-4.87354e+00 -1.87029e-02 -1.99206e+00 
-4.70051e+00 -1.95086e-02 -2.06170e+00 
-4.52757e+00 -2.02360e-02 -2.12902e+00 
-4.35478e+00 -2.08464e-02 -2.19401e+00 
-4.18211e+00 -2.13647e-02 -2.25664e+00 
-4.00961e+00 -2.17541e-02 -2.31692e+00 
-3.83724e+00 -2.20418e-02 -2.37482e+00 
-3.66507e+00 -2.21926e-02 -2.43034e+00 
-3.49304e+00 -2.22358e-02 -2.48345e+00 
-3.32121e+00 -2.21383e-02 -2.53415e+00 
-3.14953e+00 -2.19312e-02 -2.58242e+00 
-2.97806e+00 -2.15834e-02 -2.62825e+00 
-2.80674e+00 -2.11277e-02 -2.67161e+00 
-2.63562e+00 -2.05347e-02 -2.71251e+00 
-2.46464e+00 -1.98391e-02 -2.75092e+00 
-2.29386e+00 -1.90132e-02 -2.78684e+00 
-2.12322e+00 -1.80930e-02 -2.82024e+00 
-1.95276e+00 -1.70522e-02 -2.85113e+00 
-1.78241e+00 -1.59284e-02 -2.87948e+00 
-1.61223e+00 -1.46966e-02 -2.90529e+00 
-1.44215e+00 -1.33953e-02 -2.92854e+00 
-1.27222e+00 -1.20006e-02 -2.94924e+00 
-1.10236e+00 -1.05522e-02 -2.96737e+00 
-9.32620e-01 -9.02698e-03 -2.98292e+00 
-7.62932e-01 -7.46523e-03 -2.99588e+00 
-5.93336e-01 -5.84451e-03 -3.00626e+00 
-4.23765e-01 -4.20576e-03 -3.01405e+00 
-2.54256e-01 -2.52691e-03 -3.01925e+00 
-8.47437e-02 -8.49225e-04 -3.02184e+00 
 8.47437e-02  8.49225e-04 -3.02184e+00 
 2.54256e-01  2.52691e-03 -3.01925e+00 
 4.23765e-01  4.20576e-03 -3.01405e+00 
 5.93336e-01  5.84451e-03 -3.00626e+00 
 7.62932e-01  7.46523e-03 -2.99588e+00 
 9.32620e-01  9.02698e-03 -2.98292e+00 
 1.10236e+00  1.05522e-02 -2.96737e+00 
 1.27222e+00  1.20006e-02 -2.94924e+00 
 1.44215e+00  1.33953e-02 -2.92854e+00 
 1.61223e+00  1.46966e-02 -2.90529e+00 
 1.78241e+00  1.59284e-02 -2.87948e+00 
 1.95276e+00  1.70522e-02 -2.85113e+00 
 2.12322e+00  1.80930e-02 -2.82024e+00 
 2.29386e+00  1.90132e-02 -2.78684e+00 
 2.46464e+00  1.98391e-02 -2.75092e+00 
 2.63562e+00  2.05347e-02 -2.71251e+00 
 2.80674e+00  2.11277e-02 -2.67161e+00 
 2.97806e+00  2.15834e-02 -2.62825e+00 
 3.14953e+00  2.19312e-02 -2.58242e+00 
 3.32121e+00  2.21383e-02 -2.53415e+00 
 3.49304e+00  2.22358e-02 -2.48345e+00 
 3.66507e+00  2.21926e-02 -2.43034e+00 
 3.83724e+00  2.20418e-02 -2.37482e+00 
 4.00961e+00  2.17541e-02 -2.31692e+00 
 4.18211e+00  2.13647e-02 -2.25664e+00 
 4.35478e+00  2.08464e-02 -2.19401e+00 
 4.52757e+00  2.02360e-02 -2.12902e+00 
 4.70051e+00  1.95086e-02 -2.06170e+00 
 4.87354e+00  1.87029e-02 -1.99206e+00 
 5.04669e+00  1.77958e-02 -1.92011e+00 
 5.21990e+00  1.68279e-02 -1.84584e+00 
 5.39321e+00  1.57779e-02 -1.76929e+00 
 5.56653e+00  1.46880e-02 -1.69044e+00 
 5.73991e+00  1.35384e-02 -1.60933e+00 
 5.91326e+00  1.23729e-02 -1.52592e+00 
 6.08663e+00  1.11728e-02 -1.44025e+00 
 6.25994e+00  9.98290e-03 -1.35230e+00 
 6.43320e+00  8.78544e-03 -1.26209e+00 
 6.60636e+00  7.62576e-03 -1.16958e+00 
 6.77944e+00  6.48654e-03 -1.07481e+00 
 6.95235e+00  5.41319e-03 -9.77742e-01 
 7.12514e+00  4.38824e-03 -8.78393e-01 
 7.29773e+00  3.45660e-03 -7.76721e-01 
 7.47014e+00  2.60006e-03 -6.72751e-01 
 7.64231e+00  1.86238e-03 -5.66430e-01 
 7.81426e+00  1.22394e-03 -4.57781e-01 
 7.98592e+00  7.26730e-04 -3.46745e-01 
 8.15734e+00  3.49036e-04 -2.33344e-01 
 8.32844e+00  1.30294e-04 -1.17513e-01 
 8.48825e+00 -2.43669e-02 -6.25621e-02 
-8.24998e+00  2.36569e-02 -6.23852e-02 
-8.09472e+00 -1.52266e-04 -1.17183e-01 
-7.92845e+00 -4.10372e-04 -2.32695e-01 
-7.76181e+00 -8.51004e-04 -3.45794e-01 
-7.59487e+00 -1.43365e-03 -4.56546e-01 
-7.42761e+00 -2.17699e-03 -5.64936e-01 
-7.26009e+00 -3.03767e-03 -6.71022e-01 
-7.09230e+00 -4.03208e-03 -7.74784e-01 
-6.92430e+00 -5.11493e-03 -8.76275e-01 
-6.75608e+00 -6.30111e-03 -9.75473e-01 
-6.58771e+00 -7.54417e-03 -1.07242e+00 
-6.41917e+00 -8.85829e-03 -1.16710e+00 
-6.25053e+00 -1.01966e-02 -1.25955e+00 
-6.08178e+00 -1.15732e-02 -1.34973e+00 
-5.91299e+00 -1.29415e-02 -1.43768e+00 
-5.74414e+00 -1.43162e-02 -1.52338e+00 
-5.57531e+00 -1.56516e-02 -1.60684e+00 
-5.40646e+00 -1.69634e-02 -1.68804e+00 
-5.23768e+00 -1.82071e-02 -1.76700e+00 
-5.06893e+00 -1.94001e-02 -1.84368e+00 
-4.90030e+00 -2.04997e-02 -1.91810e+00 
-4.73174e+00 -2.15251e-02 -1.99023e+00 
-4.56333e+00 -2.24353e-02 -2.06007e+00 
-4.39503e+00 -2.32519e-02 -2.12760e+00 
-4.22691e+00 -2.39360e-02 -2.19281e+00 
-4.05893e+00 -2.45113e-02 -2.25568e+00 
-3.89116e+00 -2.49413e-02 -2.31621e+00 
-3.72354e+00 -2.52519e-02 -2.37437e+00 
-3.55615e+00 -2.54088e-02 -2.43015e+00 
-3.38894e+00 -2.54403e-02 -2.48353e+00 
-3.22195e+00 -2.53142e-02 -2.53450e+00 
-3.05515e+00 -2.50610e-02 -2.58303e+00 
-2.88858e+00 -2.46508e-02 -2.62913e+00 
-2.72219e+00 -2.41158e-02 -2.67275e+00 
-2.55604e+00 -2.34283e-02 -2.71391e+00 
-2.39005e+00 -2.26224e-02 -2.75257e+00 
-2.22429e+00 -2.16719e-02 -2.78872e+00 
-2.05869e+00 -2.06130e-02 -2.82235e+00 
-1.89330e+00 -1.94209e-02 -2.85346e+00 
-1.72804e+00 -1.81331e-02 -2.88201e+00 
-1.56298e+00 -1.67265e-02 -2.90801e+00 
-1.39803e+00 -1.52396e-02 -2.93143e+00 
-1.23324e+00 -1.36506e-02 -2.95229e+00 
-1.06855e+00 -1.19990e-02 -2.97055e+00 
-9.03985e-01 -1.02637e-02 -2.98622e+00 
-7.39488e-01 -8.48541e-03 -2.99929e+00 
-5.75091e-01 -6.64347e-03 -3.00975e+00 
-4.10727e-01 -4.77909e-03 -3.01760e+00 
-2.46431e-01 -2.87223e-03 -3.02284e+00 
-8.21352e-02 -9.64376e-04 -3.02545e+00 
 8.21352e-02  9.64377e-04 -3.02545e+00 
 2.46431e-01  2.87223e-03 -3.02284e+00 
 4.10727e-01  4.77909e-03 -3.01760e+00 
 5.75091e-01  6.64347e-03 -3.00975e+00 
 7.39488e-01  8.48541e-03 -2.99929e+00 
 9.03985e-01  1.02637e-02 -2.98622e+00 
 1.06855e+00  1.19990e-02 -2.97055e+00 
 1.23324e+00  1.36506e-02 -2.95229e+00 
 1.39803e+00  1.52396e-02 -2.93143e+00 
 1.56298e+00  1.67265e-02 -2.90801e+00 
 1.72804e+00  1.81331e-02 -2.88201e+00 
 1.89330e+00  1.94209e-02 -2.85346e+00 
 2.05869e+00  2.06130e-02 -2.82235e+00 
 2.22429e+00  2.16719e-02 -2.78872e+00 
 2.39005e+00  2.26224e-02 -2.75257e+00 
 2.55604e+00  2.34283e-02 -2.71391e+00 
 2.72219e+00  2.41158e-02 -2.67275e+00 
 2.88858e+00  2.46508e-02 -2.62913e+00 
 3.05515e+00  2.50610e-02 -2.58303e+00 
 3.22195e+00  2.53142e-02 -2.53450e+00 
 3.38894e+00  2.54403e-02 -2.48353e+00 
 3.55615e+00  2.54088e-02 -2.43015e+00 
 3.72354e+00  2.52519e-02 -2.37437e+00 
 3.89116e+00  2.49413e-02 -2.31621e+00 
 4.05893e+00  2.45113e-02 -2.25568e+00 
 4.22691e+00  2.39360e-02 -2.19281e+00 
 4.39503e+00  2.32519e-02 -2.12760e+00 
 4.56333e+00  2.24353e-02 -2.06007e+00 
 4.73174e+00  2.15251e-02 -1.99023e+00 
 4.90030e+00  2.04997e-02 -1.91810e+00 
 5.06893e+00  1.94001e-02 -1.84368e+00 
 5.23768e+00  1.82071e-02 -1.76700e+00 
 5.40646e+00  1.69634e-02 -1.68804e+00 
 5.57531e+00  1.56516e-02 -1.60684e+00 
 5.74414e+00  1.43162e-02 -1.52338e+00 
 5.91299e+00  1.29415e-02 -1.43768e+00 
 6.08178e+00  1.15732e-02 -1.34973e+00 
 6.25053e+00  1.01966e-02 -1.25955e+00 
 6.41917e+00  8.85829e-03 -1.16710e+00 
 6.58771e+00  7.54417e-03 -1.07242e+00 
 6.75608e+00  6.30111e-03 -9.75473e-01 
 6.92430e+00  5.11493e-03 -8.76275e-01 
 7.09230e+00  4.03208e-03 -7.74784e-01 
 7.26009e+00  3.03767e-03 -6.71022e-01 
 7.42761e+00  2.17699e-03 -5.64936e-01 
 7.59487e+00  1.43365e-03 -4.56546e-01 
 7.76181e+00  8.51004e-04 -3.45794e-01 
 7.92845e+00  4.10372e-04 -2.32695e-01 
 8.09472e+00  1.52266e-04 -1.17183e-01 
 8.24998e+00 -2.36569e-02 -6.23852e-02 
-8.01245e+00  2.29490e-02 -6.21780e-02 
-7.86173e+00 -1.77465e-04 -1.16797e-01 
-7.70023e+00 -4.80562e-04 -2.31935e-01 
-7.53832e+00 -9.93054e-04 -3.44683e-01 
-7.37607e+00 -1.67296e-03 -4.55109e-01 
-7.21344e+00 -2.53550e-03 -5.63199e-01 
-7.05052e+00 -3.53554e-03 -6.69015e-01 
-6.88728e+00 -4.68582e-03 -7.72539e-01 
-6.72382e+00 -5.93913e-03 -8.73825e-01 
-6.56010e+00 -7.30665e-03 -9.72852e-01 
-6.39621e+00 -8.74004e-03 -1.06967e+00 
-6.23213e+00 -1.02498e-02 -1.16425e+00 
-6.06796e+00 -1.17873e-02 -1.25663e+00 
-5.90366e+00 -1.33631e-02 -1.34678e+00 
-5.73932e+00 -1.49291e-02 -1.43474e+00 
-5.57492e+00 -1.64968e-02 -1.52047e+00 
-5.41055e+00 -1.80190e-02 -1.60401e+00 
-5.24618e+00 -1.95087e-02 -1.68531e+00 
-5.08188e+00 -2.09204e-02 -1.76440e+00 
-4.91765e+00 -2.22689e-02 -1.84124e+00 
-4.75354e+00 -2.35109e-02 -1.91584e+00 
-4.58953e+00 -2.46634e-02 -1.98817e+00 
-4.42570e+00 -2.56852e-02 -2.05824e+00 
-4.26202e+00 -2.65960e-02 -2.12601e+00 
-4.09854e+00 -2.73571e-02 -2.19149e+00 
-3.93523e+00 -2.79908e-02 -2.25463e+00 
-3.77216e+00 -2.84609e-02 -2.31544e+00 
-3.60929e+00 -2.87922e-02 -2.37389e+00 
-3.44667e+00 -2.89513e-02 -2.42997e+00 
-3.28426e+00 -2.89655e-02 -2.48365e+00 
-3.12212e+00 -2.88038e-02 -2.53492e+00 
-2.96020e+00 -2.84960e-02 -2.58376e+00 
-2.79854e+00 -2.80135e-02 -2.63016e+00 
-2.63710e+00 -2.73883e-02 -2.67408e+00 
-2.47592e+00 -2.65939e-02 -2.71552e+00 
-2.31495e+00 -2.56644e-02 -2.75446e+00 
-2.15422e+00 -2.45752e-02 -2.79088e+00 
-1.99369e+00 -2.33625e-02 -2.82477e+00 
-1.83339e+00 -2.20032e-02 -2.85611e+00 
-1.67326e+00 -2.05349e-02 -2.88489e+00 
-1.51333e+00 -1.89363e-02 -2.91110e+00 
-1.35355e+00 -1.72463e-02 -2.93472e+00 
-1.19395e+00 -1.54447e-02 -2.95575e+00 
-1.03446e+00 -1.35714e-02 -2.97417e+00 
-8.75115e-01 -1.16074e-02 -2.98997e+00 
-7.15850e-01 -9.59337e-03 -3.00315e+00 
-5.56694e-01 -7.51092e-03 -3.01370e+00 
-3.97581e-01 -5.40146e-03 -3.02162e+00 
-2.38541e-01 -3.24701e-03 -3.02690e+00 
-7.95047e-02 -1.08936e-03 -3.02955e+00 
 7.95047e-02  1.08936e-03 -3.02955e+00 
 2.38541e-01  3.24701e-03 -3.02690e+00 
 3.97581e-01  5.40146e-03 -3.02162e+00 
 5.56694e-01  7.51092e-03 -3.01370e+00 
 7.15850e-01  9.59337e-03 -3.00315e+00 
 8.75115e-01  1.16074e-02 -2.98997e+00 
 1.03446e+00  1.35714e-02 -2.97417e+00 
 1.19395e+00  1.54447e-02 -2.95575e+00 
 1.35355e+00  1.72463e-02 -2.93472e+00 
 1.51333e+00  1.89363e-02 -2.91110e+00 
 1.67326e+00  2.05349e-02 -2.88489e+00 
 1.83339e+00  2.20032e-02 -2.85611e+00 
 1.99369e+00  2.33625e-02 -2.82477e+00 
 2.15422e+00  2.45752e-02 -2.79088e+00 
 2.31495e+00  2.56644e-02 -2.75446e+00 
 2.47592e+00  2.65939e-02 -2.71552e+00 
 2.63710e+00  2.73883e-02 -2.67408e+00 
 2.79854e+00  2.80135e-02 -2.63016e+00 
 2.96020e+00  2.84960e-02 -2.58376e+00 
 3.12212e+00  2.88038e-02 -2.53492e+00 
 3.28426e+00  2.89655e-02 -2.48365e+00 
 3.44667e+00  2.89513e-02 -2.42997e+00 
 3.60929e+00  2.87922e-02 -2.37389e+00 
 3.77216e+00  2.84609e-02 -2.31544e+00 
 3.93523e+00  2.79908e-02 -2.25463e+00 
 4.09854e+00  2.73571e-02 -2.19149e+00 
 4.26202e+00  2.65960e-02 -2.12601e+00 
 4.42570e+00  2.56852e-02 -2.05824e+00 
 4.58953e+00  2.46634e-02 -1.98817e+00 
 4.75354e+00  2.35109e-02 -1.91584e+00 
 4.91765e+00  2.22689e-02 -1.84124e+00 
 5.08188e+00  2.09204e-02 -1.76440e+00 
 5.24618e+00  1.95087e-02 -1.68531e+00 
 5.41055e+00  1.80190e-02 -1.60401e+00 
 5.57492e+00  1.64968e-02 -1.52047e+00 
 5.73932e+00  1.49291e-02 -1.43474e+00 
 5.90366e+00  1.33631e-02 -1.34678e+00 
 6.06796e+00  1.17873e-02 -1.25663e+00 
 6.23213e+00  1.02498e-02 -1.16425e+00 
 6.39621e+00  8.74004e-03 -1.06967e+00 
 6.56010e+00  7.30665e-03 -9.72852e-01 
 6.72382e+00  5.93913e-03 -8.73825e-01 
 6.88728e+00  4.68582e-03 -7.72539e-01 
 7.05052e+00  3.53554e-03 -6.69015e-01 
 7.21344e+00  2.53550e-03 -5.63199e-01 
 7.37607e+00  1.67296e-03 -4.55109e-01 
 7.53832e+00  9.93054e-04 -3.44683e-01 
 7.70023e+00  4.80562e-04 -2.31935e-01 
 7.86173e+00  1.77465e-04 -1.16797e-01 
 8.01245e+00 -2.29490e-02 -6.21780e-02 
-7.77579e+00  2.22441e-02 -6.19360e-02 
-7.62956e+00 -2.06313e-04 -1.16346e-01 
-7.47281e+00 -5.60739e-04 -2.31051e-01 
-7.31558e+00 -1.15512e-03 -3.43391e-01 
-7.15794e+00 -1.94551e-03 -4.53439e-01 
-6.99989e+00 -2.94320e-03 -5.61185e-01 
-6.84149e+00 -4.10076e-03 -6.66692e-01 
-6.68275e+00 -5.42683e-03 -7.69946e-01 
-6.52373e+00 -6.87179e-03 -8.71001e-01 
-6.36444e+00 -8.44269e-03 -9.69837e-01 
-6.20495e+00 -1.00888e-02 -1.06650e+00 
-6.04527e+00 -1.18167e-02 -1.16097e+00 
-5.88547e+00 -1.35754e-02 -1.25329e+00 
-5.72555e+00 -1.53719e-02 -1.34341e+00 
-5.56559e+00 -1.71560e-02 -1.43139e+00 
-5.40557e+00 -1.89358e-02 -1.51717e+00 
-5.24560e+00 -2.06626e-02 -1.60079e+00 
-5.08563e+00 -2.23463e-02 -1.68222e+00 
-4.92577e+00 -2.39402e-02 -1.76146e+00 
-4.76599e+00 -2.54566e-02 -1.83848e+00 
-4.60636e+00 -2.68513e-02 -1.91330e+00 
-4.44686e+00 -2.81392e-02 -1.98587e+00 
-4.28757e+00 -2.92789e-02 -2.05620e+00 
-4.12846e+00 -3.02881e-02 -2.12425e+00 
-3.96959e+00 -3.11284e-02 -2.19002e+00 
-3.81093e+00 -3.18205e-02 -2.25348e+00 
-3.65255e+00 -3.23289e-02 -2.31461e+00 
-3.49440e+00 -3.26774e-02 -2.37339e+00 
-3.33655e+00 -3.28333e-02 -2.42981e+00 
-3.17894e+00 -3.28233e-02 -2.48383e+00 
-3.02165e+00 -3.26175e-02 -2.53545e+00 
-2.86460e+00 -3.22452e-02 -2.58463e+00 
-2.70787e+00 -3.16793e-02 -2.63136e+00 
-2.55139e+00 -3.09513e-02 -2.67561e+00 
-2.39520e+00 -3.00366e-02 -2.71738e+00 
-2.23926e+00 -2.89692e-02 -2.75662e+00 
-2.08360e+00 -2.77261e-02 -2.79335e+00 
-1.92816e+00 -2.63435e-02 -2.82752e+00 
-1.77299e+00 -2.48004e-02 -2.85914e+00 
-1.61801e+00 -2.31345e-02 -2.88817e+00 
-1.46327e+00 -2.13263e-02 -2.91461e+00 
-1.30869e+00 -1.94150e-02 -2.93845e+00 
-1.15431e+00 -1.73825e-02 -2.95966e+00 
-1.00007e+00 -1.52689e-02 -2.97825e+00 
-8.45986e-01 -1.30572e-02 -2.99421e+00 
-6.91997e-01 -1.07884e-02 -3.00751e+00 
-5.38129e-01 -8.44624e-03 -3.01816e+00 
-3.84314e-01 -6.07238e-03 -3.02616e+00 
-2.30577e-01 -3.65096e-03 -3.03149e+00 
-7.68501e-02 -1.22406e-03 -3.03416e+00 
 7.68501e-02  1.22406e-03 -3.03416e+00 
 2.30577e-01  3.65096e-03 -3.03149e+00 
 3.84314e-01  6.07238e-03 -3.02616e+00 
 5.38129e-01  8.44624e-03 -3.01816e+00 
 6.91997e-01  1.07884e-02 -3.00751e+00 
 8.45986e-01  1.30572e-02 -2.99421e+00 
 1.00007e+00  1.52689e-02 -2.97825e+00 
 1.15431e+00  1.73825e-02 -2.95966e+00 
 1.30869e+00  1.94150e-02 -2.93845e+00 
 1.46327e+00  2.13263e-02 -2.91461e+00 
 1.61801e+00  2.31345e-02 -2.88817e+00 
 1.77299e+00  2.48004e-02 -2.85914e+00 
 1.92816e+00  2.63435e-02 -2.82752e+00 
 2.08360e+00  2.77261e-02 -2.79335e+00 
 2.23926e+00  2.89692e-02 -2.75662e+00 
 2.39520e+00  3.00366e-02 -2.71738e+00 
 2.55139e+00  3.09513e-02 -2.67561e+00 
 2.70787e+00  3.16793e-02 -2.63136e+00 
 2.86460e+00  3.22452e-02 -2.58463e+00 
 3.02165e+00  3.26175e-02 -2.53545e+00 
 3.17894e+00  3.28233e-02 -2.48383e+00 
 3.33655e+00  3.28333e-02 -2.42981e+00 
 3.49440e+00  3.26774e-02 -2.37339e+00 
 3.65255e+00  3.23289e-02 -2.31461e+00 
 3.81093e+00  3.18205e-02 -2.25348e+00 
 3.96959e+00  3.11284e-02 -2.19002e+00 
 4.12846e+00  3.02881e-02 -2.12425e+00 
 4.28757e+00  2.92789e-02 -2.05620e+00 
 4.44686e+00  2.81392e-02 -1.98587e+00 
 4.60636e+00  2.68513e-02 -1.91330e+00 
 4.76599e+00  2.54566e-02 -1.83848e+00 
 4.92577e+00  2.39402e-02 -1.76146e+00 
 5.08563e+00  2.23463e-02 -1.68222e+00 
 5.24560e+00  2.06626e-02 -1.60079e+00 
 5.40557e+00  1.89358e-02 -1.51717e+00 
 5.56559e+00  1.71560e-02 -1.43139e+00 
 5.72555e+00  1.53719e-02 -1.34341e+00 
 5.88547e+00  1.35754e-02 -1.25329e+00 
 6.04527e+00  1.18167e-02 -1.16097e+00 
 6.20495e+00  1.00888e-02 -1.06650e+00 
 6.36444e+00  8.44269e-03 -9.69837e-01 
 6.52373e+00  6.87179e-03 -8.71001e-01 
 6.68275e+00  5.42683e-03 -7.69946e-01 
 6.84149e+00  4.10076e-03 -6.66692e-01 
 6.99989e+00  2.94320e-03 -5.61185e-01 
 7.15794e+00  1.94551e-03 -4.53439e-01 
 7.31558e+00  1.15512e-03 -3.43391e-01 
 7.47281e+00  5.60739e-04 -2.31051e-01 
 7.62956e+00  2.06313e-04 -1.16346e-01 
 7.77579e+00 -2.22441e-02 -6.19360e-02 
-7.54013e+00  2.15434e-02 -6.16544e-02 
-7.39836e+00 -2.39267e-04 -1.15822e-01 
-7.24630e+00 -6.52137e-04 -2.30024e-01 
-7.09368e+00 -1.33961e-03 -3.41893e-01 
-6.94060e+00 -2.25522e-03 -4.51507e-01 
-6.78704e+00 -3.40574e-03 -5.58859e-01 
-6.63309e+00 -4.74088e-03 -6.64015e-01 
-6.47874e+00 -6.26461e-03 -7.66962e-01 
-6.32409e+00 -7.92437e-03 -8.67757e-01 
-6.16914e+00 -9.72255e-03 -9.66382e-01 
-6.01397e+00 -1.16056e-02 -1.06288e+00 
-5.85858e+00 -1.35756e-02 -1.15724e+00 
-5.70308e+00 -1.55790e-02 -1.24948e+00 
-5.54744e+00 -1.76186e-02 -1.33958e+00 
-5.39178e+00 -1.96421e-02 -1.42758e+00 
-5.23607e+00 -2.16538e-02 -1.51343e+00 
-5.08041e+00 -2.36031e-02 -1.59716e+00 
-4.92479e+00 -2.54969e-02 -1.67873e+00 
-4.76929e+00 -2.72870e-02 -1.75816e+00 
-4.61389e+00 -2.89830e-02 -1.83540e+00 
-4.45869e+00 -3.05400e-02 -1.91046e+00 
-4.30365e+00 -3.19705e-02 -1.98331e+00 
-4.14886e+00 -3.32329e-02 -2.05394e+00 
-3.99428e+00 -3.43433e-02 -2.12231e+00 
-3.83999e+00 -3.52633e-02 -2.18842e+00 
-3.68595e+00 -3.60124e-02 -2.25223e+00 
-3.53223e+00 -3.65557e-02 -2.31374e+00 
-3.37880e+00 -3.69159e-02 -2.37289e+00 
-3.22570e+00 -3.70616e-02 -2.42969e+00 
-3.07290e+00 -3.70186e-02 -2.48409e+00 
-2.92044e+00 -3.67585e-02 -2.53610e+00 
-2.76829e+00 -3.63103e-02 -2.58565e+00 
-2.61649e+00 -3.56481e-02 -2.63276e+00 
-2.46498e+00 -3.48038e-02 -2.67738e+00 
-2.31381e+00 -3.37542e-02 -2.71951e+00 
-2.16292e+00 -3.25333e-02 -2.75910e+00 
-2.01236e+00 -3.11203e-02 -2.79616e+00 
-1.86205e+00 -2.95513e-02 -2.83065e+00 
-1.71204e+00 -2.78073e-02 -2.86256e+00 
-1.56225e+00 -2.59262e-02 -2.89187e+00 
-1.41273e+00 -2.38908e-02 -2.91857e+00 
-1.26340e+00 -2.17402e-02 -2.94264e+00 
-1.11429e+00 -1.94586e-02 -2.96407e+00 
-9.65342e-01 -1.70864e-02 -2.98284e+00 
-8.16570e-01 -1.46086e-02 -2.99896e+00 
-6.67908e-01 -1.20667e-02 -3.01240e+00 
-5.19380e-01 -9.44630e-03 -3.02316e+00 
-3.70915e-01 -6.78956e-03 -3.03124e+00 
-2.22534e-01 -4.08266e-03 -3.03663e+00 
-7.41688e-02 -1.36802e-03 -3.03932e+00 
 7.41688e-02  1.36802e-03 -3.03932e+00 
 2.22534e-01  4.08266e-03 -3.03663e+00 
 3.70915e-01  6.78956e-03 -3.03124e+00 
 5.19380e-01  9.44630e-03 -3.02316e+00 
 6.67908e-01  1.20667e-02 -3.01240e+00 
 8.16570e-01  1.46086e-02 -2.99896e+00 
 9.65342e-01  1.70864e-02 -2.98284e+00 
 1.11429e+00  1.94586e-02 -2.96407e+00 
 1.26340e+00  2.17402e-02 -2.94264e+00 
 1.41273e+00  2.38908e-02 -2.91857e+00 
 1.56225e+00  2.59262e-02 -2.89187e+00 
 1.71204e+00  2.78073e-02 -2.86256e+00 
 1.86205e+00  2.95513e-02 -2.83065e+00 
 2.01236e+00  3.11203e-02 -2.79616e+00 
 2.16292e+00  3.25333e-02 -2.75910e+00 
 2.31381e+00  3.37542e-02 -2.71951e+00 
 2.46498e+00  3.48038e-02 -2.67738e+00 
 2.61649e+00  3.56481e-02 -2.63276e+00 
 2.76829e+00  3.63103e-02 -2.58565e+00 
 2.92044e+00  3.67585e-02 -2.53610e+00 
 3.07290e+00  3.70186e-02 -2.48409e+00 
 3.22570e+00  3.70616e-02 -2.42969e+00 
 3.37880e+00  3.69159e-02 -2.37289e+00 
 3.53223e+00  3.65557e-02 -2.31374e+00 
 3.68595e+00  3.60124e-02 -2.25223e+00 
 3.83999e+00  3.52633e-02 -2.18842e+00 
 3.99428e+00  3.43433e-02 -2.12231e+00 
 4.14886e+00  3.32329e-02 -2.05394e+00 
 4.30365e+00  3.19705e-02 -1.98331e+00 
 4.45869e+00  3.05400e-02 -1.91046e+00 
 4.61389e+00  2.89830e-02 -1.83540e+00 
 4.76929e+00  2.72870e-02 -1.75816e+00 
 4.92479e+00  2.54969e-02 -1.67873e+00 
 5.08041e+00  2.36031e-02 -1.59716e+00 
 5.23607e+00  2.16538e-02 -1.51343e+00 
 5.39178e+00  1.96421e-02 -1.42758e+00 
 5.54744e+00  1.76186e-02 -1.33958e+00 
 5.70308e+00  1.55790e-02 -1.24948e+00 
 5.85858e+00  1.35756e-02 -1.15724e+00 
 6.01397e+00  1.16056e-02 -1.06288e+00 
 6.16914e+00  9.72255e-03 -9.66382e-01 
 6.32409e+00  7.92437e-03 -8.67757e-01 
 6.47874e+00  6.26461e-03 -7.66962e-01 
 6.63309e+00  4.74088e-03 -6.64015e-01 
 6.78704e+00  3.40574e-03 -5.58859e-01 
 6.94060e+00  2.25522e-03 -4.51507e-01 
 7.09368e+00  1.33961e-03 -3.41893e-01 
 7.24630e+00  6.52137e-04 -2.30024e-01 
 7.39836e+00  2.39267e-04 -1.15822e-01 
 7.54013e+00 -2.15434e-02 -6.16544e-02 
-7.30565e+00  2.08483e-02 -6.13276e-02 
-7.16828e+00 -2.76828e-04 -1.15214e-01 
-7.02084e+00 -7.56089e-04 -2.28834e-01 
-6.87276e+00 -1.54914e-03 -3.40162e-01 
-6.72415e+00 -2.60628e-03 -4.49279e-01 
-6.57499e+00 -3.92912e-03 -5.56181e-01 
-6.42538e+00 -5.46384e-03 -6.60939e-01 
-6.27534e+00 -7.20906e-03 -7.63541e-01 
-6.12495e+00 -9.10867e-03 -8.64046e-01 
-5.97423e+00 -1.11598e-02 -9.62435e-01 
-5.82327e+00 -1.33056e-02 -1.05876e+00 
-5.67209e+00 -1.55431e-02 -1.15299e+00 
-5.52077e+00 -1.78158e-02 -1.24516e+00 
-5.36933e+00 -2.01218e-02 -1.33525e+00 
-5.21786e+00 -2.24064e-02 -1.42328e+00 
-5.06637e+00 -2.46697e-02 -1.50922e+00 
-4.91494e+00 -2.68593e-02 -1.59308e+00 
-4.76358e+00 -2.89785e-02 -1.67483e+00 
-4.61236e+00 -3.09778e-02 -1.75447e+00 
-4.46129e+00 -3.28639e-02 -1.83196e+00 
-4.31045e+00 -3.45912e-02 -1.90731e+00 
-4.15982e+00 -3.61698e-02 -1.98048e+00 
-4.00947e+00 -3.75581e-02 -2.05145e+00 
-3.85939e+00 -3.87703e-02 -2.12019e+00 
-3.70964e+00 -3.97683e-02 -2.18669e+00 
-3.56020e+00 -4.05706e-02 -2.25090e+00 
-3.41112e+00 -4.11430e-02 -2.31282e+00 
-3.26238e+00 -4.15074e-02 -2.37239e+00 
-3.11403e+00 -4.16334e-02 -2.42962e+00 
-2.96603e+00 -4.15467e-02 -2.48446e+00 
-2.81843e+00 -4.12202e-02 -2.53689e+00 
-2.67117e+00 -4.06827e-02 -2.58687e+00 
-2.52432e+00 -3.99101e-02 -2.63439e+00 
-2.37781e+00 -3.89344e-02 -2.67942e+00 
-2.23168e+00 -3.77341e-02 -2.72194e+00 
-2.08588e+00 -3.63436e-02 -2.76192e+00 
-1.94043e+00 -3.47439e-02 -2.79934e+00 
-1.79529e+00 -3.29715e-02 -2.83417e+00 
-1.65048e+00 -3.10095e-02 -2.86641e+00 
-1.50593e+00 -2.88960e-02 -2.89603e+00 
-1.36167e+00 -2.66159e-02 -2.92301e+00 
-1.21764e+00 -2.42089e-02 -2.94734e+00 
-1.07386e+00 -2.16610e-02 -2.96900e+00 
-9.30249e-01 -1.90130e-02 -2.98798e+00 
-7.86841e-01 -1.62522e-02 -3.00427e+00 
-6.43562e-01 -1.34201e-02 -3.01786e+00 
-5.00428e-01 -1.05047e-02 -3.02874e+00 
-3.57371e-01 -7.54837e-03 -3.03691e+00 
-2.14404e-01 -4.53932e-03 -3.04236e+00 
-7.14585e-02 -1.52030e-03 -3.04508e+00 
 7.14585e-02  1.52030e-03 -3.04508e+00 
 2.14404e-01  4.53932e-03 -3.04236e+00 
 3.57371e-01  7.54837e-03 -3.03691e+00 
 5.00428e-01  1.05047e-02 -3.02874e+00 
 6.43562e-01  1.34201e-02 -3.01786e+00 
 7.86841e-01  1.62522e-02 -3.00427e+00 
 9.30249e-01  1.90130e-02 -2.98798e+00 
 1.07386e+00  2.16610e-02 -2.96900e+00 
 1.21764e+00  2.42089e-02 -2.94734e+00 
 1.36167e+00  2.66159e-02 -2.92301e+00 
 1.50593e+00  2.88960e-02 -2.89603e+00 
 1.65048e+00  3.10095e-02 -2.86641e+00 
 1.79529e+00  3.29715e-02 -2.83417e+00 
 1.94043e+00  3.47439e-02 -2.79934e+00 
 2.08588e+00  3.63436e-02 -2.76192e+00 
 2.23168e+00  3.77341e-02 -2.72194e+00 
 2.37781e+00  3.89344e-02 -2.67942e+00 
 2.52432e+00  3.99101e-02 -2.63439e+00 
 2.67117e+00  4.06827e-02 -2.58687e+00 
 2.81843e+00  4.12202e-02 -2.53689e+00 
 2.96603e+00  4.15467e-02 -2.48446e+00 
 3.11403e+00  4.16334e-02 -2.42962e+00 
 3.26238e+00  4.15074e-02 -2.37239e+00 
 3.41112e+00  4.11430e-02 -2.31282e+00 
 3.56020e+00  4.05706e-02 -2.25090e+00 
 3.70964e+00  3.97683e-02 -2.18669e+00 
 3.85939e+00  3.87703e-02 -2.12019e+00 
 4.00947e+00  3.75581e-02 -2.05145e+00 
 4.15982e+00  3.61698e-02 -1.98048e+00 
 4.31045e+00  3.45912e-02 -1.90731e+00 
 4.46129e+00  3.28639e-02 -1.83196e+00 
 4.61236e+00  3.09778e-02 -1.75447e+00 
 4.76358e+00  2.89785e-02 -1.67483e+00 
 4.91494e+00  2.68593e-02 -1.59308e+00 
 5.06637e+00  2.46697e-02 -1.50922e+00 
 5.21786e+00  2.24064e-02 -1.42328e+00 
 5.36933e+00  2.01218e-02 -1.33525e+00 
 5.52077e+00  1.78158e-02 -1.24516e+00 
 5.67209e+00  1.55431e-02 -1.15299e+00 
 5.82327e+00  1.33056e-02 -1.05876e+00 
 5.97423e+00  1.11598e-02 -9.62435e-01 
 6.12495e+00  9.10867e-03 -8.64046e-01 
 6.27534e+00  7.20906e-03 -7.63541e-01 
 6.42538e+00  5.46384e-03 -6.60939e-01 
 6.57499e+00  3.92912e-03 -5.56181e-01 
 6.72415e+00  2.60628e-03 -4.49279e-01 
 6.87276e+00  1.54914e-03 -3.40162e-01 
 7.02084e+00  7.56089e-04 -2.28834e-01 
 7.16828e+00  2.76828e-04 -1.15214e-01 
 7.30565e+00 -2.08483e-02 -6.13276e-02 
-7.07254e+00  2.01606e-02 -6.09495e-02 
-6.93950e+00 -3.19535e-04 -1.14511e-01 
-6.79659e+00 -8.74031e-04 -2.27461e-01 
-6.65296e+00 -1.78647e-03 -3.38168e-01 
-6.50871e+00 -3.00313e-03 -4.46717e-01 
-6.36384e+00 -4.51966e-03 -5.53109e-01 
-6.21847e+00 -6.27787e-03 -6.57417e-01 
-6.07261e+00 -8.27035e-03 -7.59632e-01 
-5.92637e+00 -1.04367e-02 -8.59814e-01 
-5.77976e+00 -1.27682e-02 -9.57946e-01 
-5.63289e+00 -1.52038e-02 -1.05408e+00 
-5.48578e+00 -1.77351e-02 -1.14818e+00 
-5.33854e+00 -2.03022e-02 -1.24029e+00 
-5.19118e+00 -2.28982e-02 -1.33037e+00 
-5.04380e+00 -2.54654e-02 -1.41845e+00 
-4.89642e+00 -2.79996e-02 -1.50450e+00 
-4.74913e+00 -3.04462e-02 -1.58852e+00 
-4.60193e+00 -3.28048e-02 -1.67047e+00 
-4.45493e+00 -3.50246e-02 -1.75037e+00 
-4.30811e+00 -3.71093e-02 -1.82816e+00 
-4.16156e+00 -3.90125e-02 -1.90384e+00 
-4.01527e+00 -4.07422e-02 -1.97737e+00 
-3.86932e+00 -4.22565e-02 -2.04874e+00 
-3.72369e+00 -4.35683e-02 -2.11789e+00 
-3.57845e+00 -4.46399e-02 -2.18483e+00 
-3.43358e+00 -4.54886e-02 -2.24949e+00 
-3.28913e+00 -4.60813e-02 -2.31188e+00 
-3.14507e+00 -4.64394e-02 -2.37192e+00 
-3.00146e+00 -4.65339e-02 -2.42963e+00 
-2.85826e+00 -4.63902e-02 -2.48494e+00 
-2.71551e+00 -4.59829e-02 -2.53785e+00 
-2.57317e+00 -4.53409e-02 -2.58830e+00 
-2.43128e+00 -4.44421e-02 -2.63628e+00 
-2.28979e+00 -4.33185e-02 -2.68176e+00 
-2.14873e+00 -4.19508e-02 -2.72471e+00 
-2.00804e+00 -4.03738e-02 -2.76511e+00 
-1.86776e+00 -3.85705e-02 -2.80293e+00 
-1.72783e+00 -3.65779e-02 -2.83814e+00 
-1.58826e+00 -3.43812e-02 -2.87073e+00 
-1.44900e+00 -3.20190e-02 -2.90068e+00 
-1.31006e+00 -2.94782e-02 -2.92797e+00 
-1.17137e+00 -2.67989e-02 -2.95257e+00 
-1.03296e+00 -2.39693e-02 -2.97448e+00 
-8.94759e-01 -2.10307e-02 -2.99368e+00 
-7.56774e-01 -1.79721e-02 -3.01017e+00 
-6.18936e-01 -1.48356e-02 -3.02392e+00 
-4.81259e-01 -1.16111e-02 -3.03493e+00 
-3.43670e-01 -8.34123e-03 -3.04319e+00 
-2.06181e-01 -5.01633e-03 -3.04871e+00 
-6.87169e-02 -1.67934e-03 -3.05146e+00 
 6.87169e-02  1.67934e-03 -3.05146e+00 
 2.06181e-01  5.01633e-03 -3.04871e+00 
 3.43670e-01  8.34123e-03 -3.04319e+00 
 4.81259e-01  1.16111e-02 -3.03493e+00 
 6.18936e-01  1.48356e-02 -3.02392e+00 
 7.56774e-01  1.79721e-02 -3.01017e+00 
 8.94759e-01  2.10307e-02 -2.99368e+00 
 1.03296e+00  2.39693e-02 -2.97448e+00 
 1.17137e+00  2.67989e-02 -2.95257e+00 
 1.31006e+00  2.94782e-02 -2.92797e+00 
 1.44900e+00  3.20190e-02 -2.90068e+00 
 1.58826e+00  3.43812e-02 -2.87073e+00 
 1.72783e+00  3.65779e-02 -2.83814e+00 
 1.86776e+00  3.85705e-02 -2.80293e+00 
 2.00804e+00  4.03738e-02 -2.76511e+00 
 2.14873e+00  4.19508e-02 -2.72471e+00 
 2.28979e+00  4.33185e-02 -2.68176e+00 
 2.43128e+00  4.44421e-02 -2.63628e+00 
 2.57317e+00  4.53409e-02 -2.58830e+00 
 2.71551e+00  4.59829e-02 -2.53785e+00 
 2.85826e+00  4.63902e-02 -2.48494e+00 
 3.00146e+00  4.65339e-02 -2.42963e+00 
 3.14507e+00  4.64394e-02 -2.37192e+00 
 3.28913e+00  4.60813e-02 -2.31188e+00 
 3.43358e+00  4.54886e-02 -2.24949e+00 
 3.57845e+00  4.46399e-02 -2.18483e+00 
 3.72369e+00  4.35683e-02 -2.11789e+00 
 3.86932e+00  4.22565e-02 -2.04874e+00 
 4.01527e+00  4.07422e-02 -1.97737e+00 
 4.16156e+00  3.90125e-02 -1.90384e+00 
 4.30811e+00  3.71093e-02 -1.82816e+00 
 4.45493e+00  3.50246e-02 -1.75037e+00 
 4.60193e+00  3.28048e-02 -1.67047e+00 
 4.74913e+00  3.04462e-02 -1.58852e+00 
 4.89642e+00  2.79996e-02 -1.50450e+00 
 5.04380e+00  2.54654e-02 -1.41845e+00 
 5.19118e+00  2.28982e-02 -1.33037e+00 
 5.33854e+00  2.03022e-02 -1.24029e+00 
 5.48578e+00  1.77351e-02 -1.14818e+00 
 5.63289e+00  1.52038e-02 -1.05408e+00 
 5.77976e+00  1.27682e-02 -9.57946e-01 
 5.92637e+00  1.04367e-02 -8.59814e-01 
 6.07261e+00  8.27035e-03 -7.59632e-01 
 6.21847e+00  6.27787e-03 -6.57417e-01 
 6.36384e+00  4.51966e-03 -5.53109e-01 
 6.50871e+00  3.00313e-03 -4.46717e-01 
 6.65296e+00  1.78647e-03 -3.38168e-01 
 6.79659e+00  8.74031e-04 -2.27461e-01 
 6.93950e+00  3.19535e-04 -1.14511e-01 
 7.07254e+00 -2.01606e-02 -6.09495e-02 
-6.84101e+00  1.94826e-02 -6.05131e-02 
-6.71222e+00 -3.67970e-04 -1.13701e-01 
-6.57374e+00 -1.00750e-03 -2.25881e-01 
-6.43444e+00 -2.05455e-03 -3.35876e-01 
-6.29443e+00 -3.45044e-03 -4.43779e-01 
-6.15373e+00 -5.18388e-03 -5.49594e-01 
-6.01245e+00 -7.19143e-03 -6.53396e-01 
-5.87063e+00 -9.45875e-03 -7.55180e-01 
-5.72839e+00 -1.19203e-02 -8.55006e-01 
-5.58575e+00 -1.45607e-02 -9.52857e-01 
-5.44283e+00 -1.73142e-02 -1.04878e+00 
-5.29966e+00 -2.01664e-02 -1.14275e+00 
-5.15636e+00 -2.30530e-02 -1.23480e+00 
-5.01295e+00 -2.59621e-02 -1.32489e+00 
-4.86955e+00 -2.88323e-02 -1.41305e+00 
-4.72616e+00 -3.16552e-02 -1.49923e+00 
-4.58290e+00 -3.43735e-02 -1.58345e+00 
-4.43978e+00 -3.69833e-02 -1.66565e+00 
-4.29689e+00 -3.94320e-02 -1.74585e+00 
-4.15424e+00 -4.17207e-02 -1.82398e+00 
-4.01191e+00 -4.38019e-02 -1.90005e+00 
-3.86991e+00 -4.56820e-02 -1.97399e+00 
-3.72830e+00 -4.73189e-02 -2.04580e+00 
-3.58708e+00 -4.87241e-02 -2.11543e+00 
-3.44631e+00 -4.98607e-02 -2.18286e+00 
-3.30598e+00 -5.07454e-02 -2.24803e+00 
-3.16613e+00 -5.13460e-02 -2.31093e+00 
-3.02675e+00 -5.16840e-02 -2.37151e+00 
-2.88788e+00 -5.17318e-02 -2.42974e+00 
-2.74948e+00 -5.15150e-02 -2.48558e+00 
-2.61160e+00 -5.10100e-02 -2.53901e+00 
-2.47419e+00 -5.02462e-02 -2.58998e+00 
-2.33729e+00 -4.92035e-02 -2.63846e+00 
-2.20085e+00 -4.79144e-02 -2.68443e+00 
-2.06489e+00 -4.63620e-02 -2.72786e+00 
-1.92936e+00 -4.45813e-02 -2.76870e+00 
-1.79429e+00 -4.25579e-02 -2.80696e+00 
-1.65960e+00 -4.03291e-02 -2.84258e+00 
-1.52533e+00 -3.78823e-02 -2.87555e+00 
-1.39140e+00 -3.52567e-02 -2.90585e+00 
-1.25783e+00 -3.24413e-02 -2.93347e+00 
-1.12456e+00 -2.94767e-02 -2.95837e+00 
-9.91584e-01 -2.63530e-02 -2.98055e+00 
-8.58843e-01 -2.31119e-02 -2.99999e+00 
-7.26343e-01 -1.97445e-02 -3.01668e+00 
-5.94012e-01 -1.62932e-02 -3.03060e+00 
-4.61857e-01 -1.27497e-02 -3.04175e+00 
-3.29803e-01 -9.15683e-03 -3.05011e+00 
-1.97856e-01 -5.50688e-03 -3.05570e+00 
-6.59417e-02 -1.84288e-03 -3.05849e+00 
 6.59417e-02  1.84288e-03 -3.05849e+00 
 1.97856e-01  5.50688e-03 -3.05570e+00 
 3.29803e-01  9.15683e-03 -3.05011e+00 
 4.61857e-01  1.27497e-02 -3.04175e+00 
 5.94012e-01  1.62932e-02 -3.03060e+00 
 7.26343e-01  1.97445e-02 -3.01668e+00 
 8.58843e-01  2.31119e-02 -2.99999e+00 
 9.91584e-01  2.63530e-02 -2.98055e+00 
 1.12456e+00  2.94767e-02 -2.95837e+00 
 1.25783e+00  3.24413e-02 -2.93347e+00 
 1.39140e+00  3.52567e-02 -2.90585e+00 
 1.52533e+00  3.78823e-02 -2.87555e+00 
 1.65960e+00  4.03291e-02 -2.84258e+00 
 1.79429e+00  4.25579e-02 -2.80696e+00 
 1.92936e+00  4.45813e-02 -2.76870e+00 
 2.06489e+00  4.63620e-02 -2.72786e+00 
 2.20085e+00  4.79144e-02 -2.68443e+00 
 2.33729e+00  4.92035e-02 -2.63846e+00 
 2.47419e+00  5.02462e-02 -2.58998e+00 
 2.61160e+00  5.10100e-02 -2.53901e+00 
 2.74948e+00  5.15150e-02 -2.48558e+00 
 2.88788e+00  5.17318e-02 -2.42974e+00 
 3.02675e+00  5.16840e-02 -2.37151e+00 
 3.16613e+00  5.13460e-02 -2.31093e+00 
 3.30598e+00  5.07454e-02 -2.24803e+00 
 3.44631e+00  4.98607e-02 -2.18286e+00 
 3.58708e+00  4.87241e-02 -2.11543e+00 
 3.72830e+00  4.73189e-02 -2.04580e+00 
 3.86991e+00  4.56820e-02 -1.97399e+00 
 4.01191e+00  4.38019e-02 -1.90005e+00 
 4.15424e+00  4.17207e-02 -1.82398e+00 
 4.29689e+00  3.94320e-02 -1.74585e+00 
 4.43978e+00  3.69833e-02 -1.66565e+00 
 4.58290e+00  3.43735e-02 -1.58345e+00 
 4.72616e+00  3.16552e-02 -1.49923e+00 
 4.86955e+00  2.88323e-02 -1.41305e+00 
 5.01295e+00  2.59621e-02 -1.32489e+00 
 5.15636e+00  2.30530e-02 -1.23480e+00 
 5.29966e+00  2.01664e-02 -1.14275e+00 
 5.44283e+00  1.73142e-02 -1.04878e+00 
 5.58575e+00  1.45607e-02 -9.52857e-01 
 5.72839e+00  1.19203e-02 -8.55006e-01 
 5.87063e+00  9.45875e-03 -7.55180e-01 
 6.01245e+00  7.19143e-03 -6.53396e-01 
 6.15373e+00  5.18388e-03 -5.49594e-01 
 6.29443e+00  3.45044e-03 -4.43779e-01 
 6.43444e+00  2.05455e-03 -3.35876e-01 
 6.57374e+00  1.00750e-03 -2.25881e-01 
 6.71222e+00  3.67970e-04 -1.13701e-01 
 6.84101e+00 -1.94826e-02 -6.05131e-02 
-6.61131e+00  1.88171e-02 -6.00108e-02 
-6.48666e+00 -4.22757e-04 -1.12769e-01 
-6.35248e+00 -1.15811e-03 -2.24066e-01 
-6.21737e+00 -2.35648e-03 -3.33251e-01 
-6.08145e+00 -3.95302e-03 -4.40421e-01 
-5.94476e+00 -5.92846e-03 -5.45585e-01 
-5.80742e+00 -8.21297e-03 -6.48822e-01 
-5.66948e+00 -1.07843e-02 -7.50128e-01 
-5.53108e+00 -1.35708e-02 -8.49564e-01 
-5.39224e+00 -1.65495e-02 -9.47113e-01 
-5.25312e+00 -1.96494e-02 -1.04282e+00 
-5.11373e+00 -2.28491e-02 -1.13666e+00 
-4.97422e+00 -2.60798e-02 -1.22866e+00 
-4.83462e+00 -2.93235e-02 -1.31878e+00 
-4.69505e+00 -3.25153e-02 -1.40704e+00 
-4.55553e+00 -3.56420e-02 -1.49339e+00 
-4.41618e+00 -3.86436e-02 -1.57785e+00 
-4.27702e+00 -4.15124e-02 -1.66035e+00 
-4.13815e+00 -4.41944e-02 -1.74089e+00 
-3.99958e+00 -4.66878e-02 -1.81942e+00 
-3.86140e+00 -4.89446e-02 -1.89593e+00 
-3.72362e+00 -5.09693e-02 -1.97035e+00 
-3.58630e+00 -5.27202e-02 -2.04267e+00 
-3.44944e+00 -5.42077e-02 -2.11283e+00 
-3.31311e+00 -5.53959e-02 -2.18081e+00 
-3.17729e+00 -5.63012e-02 -2.24654e+00 
-3.04203e+00 -5.68929e-02 -2.31002e+00 
-2.90732e+00 -5.71927e-02 -2.37118e+00 
-2.77318e+00 -5.71748e-02 -2.43000e+00 
-2.63960e+00 -5.68654e-02 -2.48641e+00 
-2.50660e+00 -5.62431e-02 -2.54041e+00 
-2.37415e+00 -5.53379e-02 -2.59194e+00 
-2.24227e+00 -5.41322e-02 -2.64097e+00 
-2.11090e+00 -5.26592e-02 -2.68747e+00 
-1.98009e+00 -5.09042e-02 -2.73141e+00 
-1.84976e+00 -4.89031e-02 -2.77274e+00 
-1.71994e+00 -4.66439e-02 -2.81145e+00 
-1.59056e+00 -4.41644e-02 -2.84751e+00 
-1.46163e+00 -4.14544e-02 -2.88090e+00 
-1.33310e+00 -3.85536e-02 -2.91158e+00 
-1.20497e+00 -3.54532e-02 -2.93954e+00 
-1.07716e+00 -3.21939e-02 -2.96476e+00 
-9.49685e-01 -2.87683e-02 -2.98723e+00 
-8.22474e-01 -2.52180e-02 -3.00691e+00 
-6.95528e-01 -2.15362e-02 -3.02381e+00 
-5.68772e-01 -1.77651e-02 -3.03791e+00 
-4.42208e-01 -1.38986e-02 -3.04921e+00 
-3.15759e-01 -9.97933e-03 -3.05768e+00 
-1.89425e-01 -6.00138e-03 -3.06334e+00 
-6.31310e-02 -2.00770e-03 -3.06617e+00 
 6.31310e-02  2.00770e-03 -3.06617e+00 
 1.89425e-01  6.00138e-03 -3.06334e+00 
 3.15759e-01  9.97933e-03 -3.05768e+00 
 4.42208e-01  1.38986e-02 -3.04921e+00 
 5.68772e-01  1.77651e-02 -3.03791e+00 
 6.95528e-01  2.15362e-02 -3.02381e+00 
 8.22474e-01  2.52180e-02 -3.00691e+00 
 9.49685e-01  2.87683e-02 -2.98723e+00 
 1.07716e+00  3.21939e-02 -2.96476e+00 
 1.20497e+00  3.54532e-02 -2.93954e+00 
 1.33310e+00  3.85536e-02 -2.91158e+00 
 1.46163e+00  4.14544e-02 -2.88090e+00 
 1.59056e+00  4.41644e-02 -2.84751e+00 
 1.71994e+00  4.66439e-02 -2.81145e+00 
 1.84976e+00  4.89031e-02 -2.77274e+00 
 1.98009e+00  5.09042e-02 -2.73141e+00 
 2.11090e+00  5.26592e-02 -2.68747e+00 
 2.24227e+00  5.41322e-02 -2.64097e+00 
 2.37415e+00  5.53379e-02 -2.59194e+00 
 2.50660e+00  5.62431e-02 -2.54041e+00 
 2.63960e+00  5.68654e-02 -2.48641e+00 
 2.77318e+00  5.71748e-02 -2.43000e+00 
 2.90732e+00  5.71927e-02 -2.37118e+00 
 3.04203e+00  5.68929e-02 -2.31002e+00 
 3.17729e+00  5.63012e-02 -2.24654e+00 
 3.31311e+00  5.53959e-02 -2.18081e+00 
 3.44944e+00  5.42077e-02 -2.11283e+00 
 3.58630e+00  5.27202e-02 -2.04267e+00 
 3.72362e+00  5.09693e-02 -1.97035e+00 
 3.86140e+00  4.89446e-02 -1.89593e+00 
 3.99958e+00  4.66878e-02 -1.81942e+00 
 4.13815e+00  4.41944e-02 -1.74089e+00 
 4.27702e+00  4.15124e-02 -1.66035e+00 
 4.41618e+00  3.86436e-02 -1.57785e+00 
 4.55553e+00  3.56420e-02 -1.49339e+00 
 4.69505e+00  3.25153e-02 -1.40704e+00 
 4.83462e+00  2.93235e-02 -1.31878e+00 
 4.97422e+00  2.60798e-02 -1.22866e+00 
 5.11373e+00  2.28491e-02 -1.13666e+00 
 5.25312e+00  1.96494e-02 -1.04282e+00 
 5.39224e+00  1.65495e-02 -9.47113e-01 
 5.53108e+00  1.35708e-02 -8.49564e-01 
 5.66948e+00  1.07843e-02 -7.50128e-01 
 5.80742e+00  8.21297e-03 -6.48822e-01 
 5.94476e+00  5.92846e-03 -5.45585e-01 
 6.08145e+00  3.95302e-03 -4.40421e-01 
 6.21737e+00  2.35648e-03 -3.33251e-01 
 6.35248e+00  1.15811e-03 -2.24066e-01 
 6.48666e+00  4.22757e-04 -1.12769e-01 
 6.61131e+00 -1.88171e-02 -6.00108e-02 
-6.38372e+00  1.81673e-02 -5.94343e-02 
-6.26308e+00 -4.84558e-04 -1.11701e-01 
-6.13305e+00 -1.32760e-03 -2.21989e-01 
-6.00196e+00 -2.69547e-03 -3.30253e-01 
-5.86996e+00 -4.51582e-03 -4.36595e-01 
-5.73708e+00 -6.76008e-03 -5.41029e-01 
-5.60349e+00 -9.35075e-03 -6.43637e-01 
-5.46925e+00 -1.22565e-02 -7.44416e-01 
-5.33448e+00 -1.53985e-02 -8.43428e-01 
-5.19927e+00 -1.87453e-02 -9.40654e-01 
-5.06374e+00 -2.22195e-02 -1.03614e+00 
-4.92797e+00 -2.57922e-02 -1.12985e+00 
-4.79208e+00 -2.93893e-02 -1.22182e+00 
-4.65612e+00 -3.29866e-02 -1.31199e+00 
-4.52023e+00 -3.65150e-02 -1.40039e+00 
-4.38444e+00 -3.99564e-02 -1.48696e+00 
-4.24887e+00 -4.32480e-02 -1.57170e+00 
-4.11356e+00 -4.63785e-02 -1.65455e+00 
-3.97860e+00 -4.92921e-02 -1.73550e+00 
-3.84402e+00 -5.19848e-02 -1.81449e+00 
-3.70991e+00 -5.44081e-02 -1.89150e+00 
-3.57627e+00 -5.65652e-02 -1.96646e+00 
-3.44318e+00 -5.84149e-02 -2.03935e+00 
-3.31064e+00 -5.99670e-02 -2.11011e+00 
-3.17872e+00 -6.11872e-02 -2.17870e+00 
-3.04739e+00 -6.20917e-02 -2.24507e+00 
-2.91671e+00 -6.26521e-02 -2.30918e+00 
-2.78666e+00 -6.28905e-02 -2.37098e+00 
-2.65727e+00 -6.27837e-02 -2.43043e+00 
-2.52852e+00 -6.23584e-02 -2.48748e+00 
-2.40043e+00 -6.15962e-02 -2.54210e+00 
-2.27295e+00 -6.05279e-02 -2.59423e+00 
-2.14612e+00 -5.91386e-02 -2.64385e+00 
-2.01988e+00 -5.74623e-02 -2.69091e+00 
-1.89426e+00 -5.54873e-02 -2.73539e+00 
-1.76918e+00 -5.32502e-02 -2.77725e+00 
-1.64466e+00 -5.07415e-02 -2.81645e+00 
-1.52064e+00 -4.79996e-02 -2.85297e+00 
-1.39713e+00 -4.50169e-02 -2.88679e+00 
-1.27405e+00 -4.18333e-02 -2.91787e+00 
-1.15142e+00 -3.84423e-02 -2.94620e+00 
-1.02915e+00 -3.48850e-02 -2.97175e+00 
-9.07243e-01 -3.11557e-02 -2.99451e+00 
-7.85631e-01 -2.72962e-02 -3.01445e+00 
-6.64310e-01 -2.33014e-02 -3.03158e+00 
-5.43201e-01 -1.92136e-02 -3.04587e+00 
-4.22300e-01 -1.50281e-02 -3.05731e+00 
-3.01529e-01 -1.07873e-02 -3.06590e+00 
-1.80883e-01 -6.48692e-03 -3.07163e+00 
-6.02833e-02 -2.16948e-03 -3.07450e+00 
 6.02833e-02  2.16948e-03 -3.07450e+00 
 1.80883e-01  6.48692e-03 -3.07163e+00 
 3.01529e-01  1.07873e-02 -3.06590e+00 
 4.22300e-01  1.50281e-02 -3.05731e+00 
 5.43201e-01  1.92136e-02 -3.04587e+00 
 6.64310e-01  2.33014e-02 -3.03158e+00 
 7.85631e-01  2.72962e-02 -3.01445e+00 
 9.07243e-01  3.11557e-02 -2.99451e+00 
 1.02915e+00  3.48850e-02 -2.97175e+00 
 1.15142e+00  3.84423e-02 -2.94620e+00 
 1.27405e+00  4.18333e-02 -2.91787e+00 
 1.39713e+00  4.50169e-02 -2.88679e+00 
 1.52064e+00  4.79996e-02 -2.85297e+00 
 1.64466e+00  5.07415e-02 -2.81645e+00 
 1.76918e+00  5.32502e-02 -2.77725e+00 
 1.89426e+00  5.54873e-02 -2.73539e+00 
 2.01988e+00  5.74623e-02 -2.69091e+00 
 2.14612e+00  5.91386e-02 -2.64385e+00 
 2.27295e+00  6.05279e-02 -2.59423e+00 
 2.40043e+00  6.15962e-02 -2.54210e+00 
 2.52852e+00  6.23584e-02 -2.48748e+00 
 2.65727e+00  6.27837e-02 -2.43043e+00 
 2.78666e+00  6.28905e-02 -2.37098e+00 
 2.91671e+00  6.26521e-02 -2.30918e+00 
 3.04739e+00  6.20917e-02 -2.24507e+00 
 3.17872e+00  6.11872e-02 -2.17870e+00 
 3.31064e+00  5.99670e-02 -2.11011e+00 
 3.44318e+00  5.84149e-02 -2.03935e+00 
 3.57627e+00  5.65652e-02 -1.96646e+00 
 3.70991e+00  5.44081e-02 -1.89150e+00 
 3.84402e+00  5.19848e-02 -1.81449e+00 
 3.97860e+00  4.92921e-02 -1.73550e+00 
 4.11356e+00  4.63785e-02 -1.65455e+00 
 4.24887e+00  4.32480e-02 -1.57170e+00 
 4.38444e+00  3.99564e-02 -1.48696e+00 
 4.52023e+00  3.65150e-02 -1.40039e+00 
 4.65612e+00  3.29866e-02 -1.31199e+00 
 4.79208e+00  2.93893e-02 -1.22182e+00 
 4.92797e+00  2.57922e-02 -1.12985e+00 
 5.06374e+00  2.22195e-02 -1.03614e+00 
 5.19927e+00  1.87453e-02 -9.40654e-01 
 5.33448e+00  1.53985e-02 -8.43428e-01 
 5.46925e+00  1.22565e-02 -7.44416e-01 
 5.60349e+00  9.35075e-03 -6.43637e-01 
 5.73708e+00  6.76008e-03 -5.41029e-01 
 5.86996e+00  4.51582e-03 -4.36595e-01 
 6.00196e+00  2.69547e-03 -3.30253e-01 
 6.13305e+00  1.32760e-03 -2.21989e-01 
 6.26308e+00  4.84558e-04 -1.11701e-01 
 6.38372e+00 -1.81673e-02 -5.94343e-02 
-6.15854e+00  1.75376e-02 -5.87742e-02 
-6.04175e+00 -5.54076e-04 -1.10480e-01 
-5.91568e+00 -1.51775e-03 -2.19618e-01 
-5.78842e+00 -3.07479e-03 -3.26838e-01 
-5.66011e+00 -5.14374e-03 -4.32249e-01 
-5.53085e+00 -7.68520e-03 -5.35868e-01 
-5.40078e+00 -1.06125e-02 -6.37780e-01 
-5.27000e+00 -1.38838e-02 -7.37983e-01 
-5.13866e+00 -1.74118e-02 -8.36539e-01 
-5.00684e+00 -2.11557e-02 -9.33426e-01 
-4.87471e+00 -2.50305e-02 -1.02869e+00 
-4.74234e+00 -2.89991e-02 -1.12228e+00 
-4.60987e+00 -3.29816e-02 -1.21424e+00 
-4.47738e+00 -3.69469e-02 -1.30451e+00 
-4.34500e+00 -4.08216e-02 -1.39309e+00 
-4.21279e+00 -4.45824e-02 -1.47992e+00 
-4.08086e+00 -4.81639e-02 -1.56501e+00 
-3.94927e+00 -5.15509e-02 -1.64827e+00 
-3.81811e+00 -5.46867e-02 -1.72969e+00 
-3.68742e+00 -5.75649e-02 -1.80921e+00 
-3.55729e+00 -6.01372e-02 -1.88679e+00 
-3.42773e+00 -6.24058e-02 -1.96236e+00 
-3.29883e+00 -6.43305e-02 -2.03590e+00 
-3.17056e+00 -6.59213e-02 -2.10732e+00 
-3.04302e+00 -6.71459e-02 -2.17660e+00 
-2.91616e+00 -6.80211e-02 -2.24366e+00 
-2.79006e+00 -6.85211e-02 -2.30847e+00 
-2.66467e+00 -6.86691e-02 -2.37096e+00 
-2.54004e+00 -6.84449e-02 -2.43110e+00 
-2.41614e+00 -6.78766e-02 -2.48883e+00 
-2.29298e+00 -6.69486e-02 -2.54411e+00 
-2.17052e+00 -6.56933e-02 -2.59689e+00 
-2.04879e+00 -6.40986e-02 -2.64714e+00 
-1.92772e+00 -6.22001e-02 -2.69480e+00 
-1.80733e+00 -5.99887e-02 -2.73985e+00 
-1.68756e+00 -5.75020e-02 -2.78225e+00 
-1.56841e+00 -5.47332e-02 -2.82197e+00 
-1.44982e+00 -5.17215e-02 -2.85897e+00 
-1.33178e+00 -4.84616e-02 -2.89324e+00 
-1.21423e+00 -4.49939e-02 -2.92473e+00 
-1.09716e+00 -4.13138e-02 -2.95344e+00 
-9.80498e-01 -3.74627e-02 -2.97933e+00 
-8.64236e-01 -3.34366e-02 -3.00239e+00 
-7.48298e-01 -2.92770e-02 -3.02261e+00 
-6.32675e-01 -2.49806e-02 -3.03996e+00 
-5.17288e-01 -2.05890e-02 -3.05444e+00 
-4.02127e-01 -1.60991e-02 -3.06604e+00 
-2.87110e-01 -1.15527e-02 -3.07474e+00 
-1.72228e-01 -6.94653e-03 -3.08055e+00 
-5.73976e-02 -2.32257e-03 -3.08346e+00 
 5.73976e-02  2.32257e-03 -3.08346e+00 
 1.72228e-01  6.94653e-03 -3.08055e+00 
 2.87110e-01  1.15527e-02 -3.07474e+00 
 4.02127e-01  1.60991e-02 -3.06604e+00 
 5.17288e-01  2.05890e-02 -3.05444e+00 
 6.32675e-01  2.49806e-02 -3.03996e+00 
 7.48298e-01  2.92770e-02 -3.02261e+00 
 8.64236e-01  3.34366e-02 -3.00239e+00 
 9.80498e-01  3.74627e-02 -2.97933e+00 
 1.09716e+00  4.13138e-02 -2.95344e+00 
 1.21423e+00  4.49939e-02 -2.92473e+00 
 1.33178e+00  4.84616e-02 -2.89324e+00 
 1.44982e+00  5.17215e-02 -2.85897e+00 
 1.56841e+00  5.47332e-02 -2.82197e+00 
 1.68756e+00  5.75020e-02 -2.78225e+00 
 1.80733e+00  5.99887e-02 -2.73985e+00 
 1.92772e+00  6.22001e-02 -2.69480e+00 
 2.04879e+00  6.40986e-02 -2.64714e+00 
 2.17052e+00  6.56933e-02 -2.59689e+00 
 2.29298e+00  6.69486e-02 -2.54411e+00 
 2.41614e+00  6.78766e-02 -2.48883e+00 
 2.54004e+00  6.84449e-02 -2.43110e+00 
 2.66467e+00  6.86691e-02 -2.37096e+00 
 2.79006e+00  6.85211e-02 -2.30847e+00 
 2.91616e+00  6.80211e-02 -2.24366e+00 
 3.04302e+00  6.71459e-02 -2.17660e+00 
 3.17056e+00  6.59213e-02 -2.10732e+00 
 3.29883e+00  6.43305e-02 -2.03590e+00 
 3.42773e+00  6.24058e-02 -1.96236e+00 
 3.55729e+00  6.01372e-02 -1.88679e+00 
 3.68742e+00  5.75649e-02 -1.80921e+00 
 3.81811e+00  5.46867e-02 -1.72969e+00 
 3.94927e+00  5.15509e-02 -1.64827e+00 
 4.08086e+00  4.81639e-02 -1.56501e+00 
 4.21279e+00  4.45824e-02 -1.47992e+00 
 4.34500e+00  4.08216e-02 -1.39309e+00 
 4.47738e+00  3.69469e-02 -1.30451e+00 
 4.60987e+00  3.29816e-02 -1.21424e+00 
 4.74234e+00  2.89991e-02 -1.12228e+00 
 4.87471e+00  2.50305e-02 -1.02869e+00 
 5.00684e+00  2.11557e-02 -9.33426e-01 
 5.13866e+00  1.74118e-02 -8.36539e-01 
 5.27000e+00  1.38838e-02 -7.37983e-01 
 5.40078e+00  1.06125e-02 -6.37780e-01 
 5.53085e+00  7.68520e-03 -5.35868e-01 
 5.66011e+00  5.14374e-03 -4.32249e-01 
 5.78842e+00  3.07479e-03 -3.26838e-01 
 5.91568e+00  1.51775e-03 -2.19618e-01 
 6.04175e+00  5.54076e-04 -1.10480e-01 
 6.15854e+00 -1.75376e-02 -5.87742e-02 
-5.93614e+00  1.69330e-02 -5.80205e-02 
-5.82300e+00 -6.32042e-04 -1.09086e-01 
-5.70066e+00 -1.73038e-03 -2.16919e-01 
-5.57698e+00 -3.49773e-03 -3.22962e-01 
-5.45212e+00 -5.84156e-03 -4.27328e-01 
-5.32620e+00 -8.70981e-03 -5.30043e-01 
-5.19940e+00 -1.20048e-02 -6.31190e-01 
-5.07182e+00 -1.56729e-02 -7.30768e-01 
-4.94364e+00 -1.96165e-02 -8.28838e-01 
-4.81498e+00 -2.37844e-02 -9.25376e-01 
-4.68600e+00 -2.80829e-02 -1.02042e+00 
-4.55680e+00 -3.24660e-02 -1.11392e+00 
-4.42754e+00 -3.68471e-02 -1.20590e+00 
-4.29831e+00 -4.11881e-02 -1.29630e+00 
-4.16926e+00 -4.54110e-02 -1.38512e+00 
-4.04045e+00 -4.94872e-02 -1.47228e+00 
-3.91201e+00 -5.33487e-02 -1.55778e+00 
-3.78400e+00 -5.69771e-02 -1.64153e+00 
-3.65653e+00 -6.03148e-02 -1.72350e+00 
-3.52963e+00 -6.33537e-02 -1.80363e+00 
-3.40341e+00 -6.60462e-02 -1.88186e+00 
-3.27786e+00 -6.83943e-02 -1.95812e+00 
-3.15308e+00 -7.03597e-02 -2.03237e+00 
-3.02906e+00 -7.19531e-02 -2.10453e+00 
-2.90587e+00 -7.31449e-02 -2.17456e+00 
-2.78348e+00 -7.39534e-02 -2.24237e+00 
-2.66195e+00 -7.43561e-02 -2.30794e+00 
-2.54124e+00 -7.43780e-02 -2.37118e+00 
-2.42139e+00 -7.40023e-02 -2.43207e+00 
-2.30237e+00 -7.32591e-02 -2.49052e+00 
-2.18418e+00 -7.21365e-02 -2.54650e+00 
-2.06679e+00 -7.06684e-02 -2.59996e+00 
-1.95020e+00 -6.88464e-02 -2.65087e+00 
-1.83436e+00 -6.67073e-02 -2.69916e+00 
-1.71927e+00 -6.42453e-02 -2.74481e+00 
-1.60487e+00 -6.14992e-02 -2.78777e+00 
-1.49115e+00 -5.84647e-02 -2.82802e+00 
-1.37805e+00 -5.51819e-02 -2.86551e+00 
-1.26556e+00 -5.16476e-02 -2.90024e+00 
-1.15361e+00 -4.79027e-02 -2.93215e+00 
-1.04218e+00 -4.39445e-02 -2.96124e+00 
-9.31202e-01 -3.98141e-02 -2.98748e+00 
-8.20657e-01 -3.55092e-02 -3.01085e+00 
-7.10468e-01 -3.10707e-02 -3.03133e+00 
-6.00620e-01 -2.64966e-02 -3.04892e+00 
-4.91031e-01 -2.18276e-02 -3.06359e+00 
-3.81685e-01 -1.70616e-02 -3.07534e+00 
-2.72500e-01 -1.22394e-02 -3.08416e+00 
-1.63457e-01 -7.35849e-03 -3.09005e+00 
-5.44735e-02 -2.45968e-03 -3.09299e+00 
 5.44735e-02  2.45968e-03 -3.09299e+00 
 1.63457e-01  7.35849e-03 -3.09005e+00 
 2.72500e-01  1.22394e-02 -3.08416e+00 
 3.81685e-01  1.70616e-02 -3.07534e+00 
 4.91031e-01  2.18276e-02 -3.06359e+00 
 6.00620e-01  2.64966e-02 -3.04892e+00 
 7.10468e-01  3.10707e-02 -3.03133e+00 
 8.20657e-01  3.55092e-02 -3.01085e+00 
 9.31202e-01  3.98141e-02 -2.98748e+00 
 1.04218e+00  4.39445e-02 -2.96124e+00 
 1.15361e+00  4.79027e-02 -2.93215e+00 
 1.26556e+00  5.16476e-02 -2.90024e+00 
 1.37805e+00  5.51819e-02 -2.86551e+00 
 1.49115e+00  5.84647e-02 -2.82802e+00 
 1.60487e+00  6.14992e-02 -2.78777e+00 
 1.71927e+00  6.42453e-02 -2.74481e+00 
 1.83436e+00  6.67073e-02 -2.69916e+00 
 1.95020e+00  6.88464e-02 -2.65087e+00 
 2.06679e+00  7.06684e-02 -2.59996e+00 
 2.18418e+00  7.21365e-02 -2.54650e+00 
 2.30237e+00  7.32591e-02 -2.49052e+00 
 2.42139e+00  7.40023e-02 -2.43207e+00 
 2.54124e+00  7.43780e-02 -2.37118e+00 
 2.66195e+00  7.43561e-02 -2.30794e+00 
 2.78348e+00  7.39534e-02 -2.24237e+00 
 2.90587e+00  7.31449e-02 -2.17456e+00 
 3.02906e+00  7.19531e-02 -2.10453e+00 
 3.15308e+00  7.03597e-02 -2.03237e+00 
 3.27786e+00  6.83943e-02 -1.95812e+00 
 3.40341e+00  6.60462e-02 -1.88186e+00 
 3.52963e+00  6.33537e-02 -1.80363e+00 
 3.65653e+00  6.03148e-02 -1.72350e+00 
 3.78400e+00  5.69771e-02 -1.64153e+00 
 3.91201e+00  5.33487e-02 -1.55778e+00 
 4.04045e+00  4.94872e-02 -1.47228e+00 
 4.16926e+00  4.54110e-02 -1.38512e+00 
 4.29831e+00  4.11881e-02 -1.29630e+00 
 4.42754e+00  3.68471e-02 -1.20590e+00 
 4.55680e+00  3.24660e-02 -1.11392e+00 
 4.68600e+00  2.80829e-02 -1.02042e+00 
 4.81498e+00  2.37844e-02 -9.25376e-01 
 4.94364e+00  1.96165e-02 -8.28838e-01 
 5.07182e+00  1.56729e-02 -7.30768e-01 
 5.19940e+00  1.20048e-02 -6.31190e-01 
 5.32620e+00  8.70981e-03 -5.30043e-01 
 5.45212e+00  5.84156e-03 -4.27328e-01 
 5.57698e+00  3.49773e-03 -3.22962e-01 
 5.70066e+00  1.73038e-03 -2.16919e-01 
 5.82300e+00  6.32042e-04 -1.09086e-01 
 5.93614e+00 -1.69330e-02 -5.80205e-02 
-5.71690e+00  1.63598e-02 -5.71620e-02 
-5.60718e+00 -7.19215e-04 -1.07502e-01 
-5.48830e+00 -1.96735e-03 -2.13856e-01 
-5.36790e+00 -3.96748e-03 -3.18574e-01 
-5.24619e+00 -6.61368e-03 -4.21777e-01 
-5.12331e+00 -9.83904e-03 -5.23491e-01 
-4.99946e+00 -1.35328e-02 -6.23804e-01 
-4.87478e+00 -1.76275e-02 -7.22713e-01 
-4.74947e+00 -2.20141e-02 -8.20274e-01 
-4.62367e+00 -2.66290e-02 -9.16459e-01 
-4.49756e+00 -3.13690e-02 -1.01130e+00 
-4.37128e+00 -3.61784e-02 -1.10474e+00 
-4.24499e+00 -4.09632e-02 -1.19679e+00 
-4.11880e+00 -4.56779e-02 -1.28738e+00 
-3.99287e+00 -5.02397e-02 -1.37650e+00 
-3.86728e+00 -5.46152e-02 -1.46407e+00 
-3.74217e+00 -5.87338e-02 -1.55006e+00 
-3.61760e+00 -6.25747e-02 -1.63438e+00 
-3.49370e+00 -6.60798e-02 -1.71699e+00 
-3.37050e+00 -6.92403e-02 -1.79780e+00 
-3.24809e+00 -7.20102e-02 -1.87677e+00 
-3.12650e+00 -7.43920e-02 -1.95380e+00 
-3.00580e+00 -7.63503e-02 -2.02885e+00 
-2.88599e+00 -7.78976e-02 -2.10182e+00 
-2.76714e+00 -7.90079e-02 -2.17267e+00 
-2.64922e+00 -7.97019e-02 -2.24130e+00 
-2.53227e+00 -7.99613e-02 -2.30768e+00 
-2.41627e+00 -7.98135e-02 -2.37173e+00 
-2.30124e+00 -7.92462e-02 -2.43340e+00 
-2.18713e+00 -7.82920e-02 -2.49261e+00 
-2.07397e+00 -7.69429e-02 -2.54934e+00 
-1.96169e+00 -7.52353e-02 -2.60350e+00 
-1.85031e+00 -7.31644e-02 -2.65509e+00 
-1.73976e+00 -7.07688e-02 -2.70402e+00 
-1.63004e+00 -6.80460e-02 -2.75028e+00 
-1.52108e+00 -6.50359e-02 -2.79381e+00 
-1.41287e+00 -6.17371e-02 -2.83460e+00 
-1.30534e+00 -5.81903e-02 -2.87259e+00 
-1.19847e+00 -5.43946e-02 -2.90777e+00 
-1.09219e+00 -5.03906e-02 -2.94011e+00 
-9.86480e-01 -4.61776e-02 -2.96958e+00 
-8.81259e-01 -4.17960e-02 -2.99615e+00 
-7.76508e-01 -3.72448e-02 -3.01983e+00 
-6.72145e-01 -3.25640e-02 -3.04058e+00 
-5.68149e-01 -2.77522e-02 -3.05839e+00 
-4.64434e-01 -2.28489e-02 -3.07325e+00 
-3.60980e-01 -1.78525e-02 -3.08515e+00 
-2.57701e-01 -1.28020e-02 -3.09408e+00 
-1.54573e-01 -7.69544e-03 -3.10004e+00 
-5.15118e-02 -2.57169e-03 -3.10302e+00 
 5.15118e-02  2.57169e-03 -3.10302e+00 
 1.54573e-01  7.69544e-03 -3.10004e+00 
 2.57701e-01  1.28020e-02 -3.09408e+00 
 3.60980e-01  1.78525e-02 -3.08515e+00 
 4.64434e-01  2.28489e-02 -3.07325e+00 
 5.68149e-01  2.77522e-02 -3.05839e+00 
 6.72145e-01  3.25640e-02 -3.04058e+00 
 7.76508e-01  3.72448e-02 -3.01983e+00 
 8.81259e-01  4.17960e-02 -2.99615e+00 
 9.86480e-01  4.61776e-02 -2.96958e+00 
 1.09219e+00  5.03906e-02 -2.94011e+00 
 1.19847e+00  5.43946e-02 -2.90777e+00 
 1.30534e+00  5.81903e-02 -2.87259e+00 
 1.41287e+00  6.17371e-02 -2.83460e+00 
 1.52108e+00  6.50359e-02 -2.79381e+00 
 1.63004e+00  6.80460e-02 -2.75028e+00 
 1.73976e+00  7.07688e-02 -2.70402e+00 
 1.85031e+00  7.31644e-02 -2.65509e+00 
 1.96169e+00  7.52353e-02 -2.60350e+00 
 2.07397e+00  7.69429e-02 -2.54934e+00 
 2.18713e+00  7.82920e-02 -2.49261e+00 
 2.30124e+00  7.92462e-02 -2.43340e+00 
 2.41627e+00  7.98135e-02 -2.37173e+00 
 2.53227e+00  7.99613e-02 -2.30768e+00 
 2.64922e+00  7.97019e-02 -2.24130e+00 
 2.76714e+00  7.90079e-02 -2.17267e+00 
 2.88599e+00  7.78976e-02 -2.10182e+00 
 3.00580e+00  7.63503e-02 -2.02885e+00 
 3.12650e+00  7.43920e-02 -1.95380e+00 
 3.24809e+00  7.20102e-02 -1.87677e+00 
 3.37050e+00  6.92403e-02 -1.79780e+00 
 3.49370e+00  6.60798e-02 -1.71699e+00 
 3.61760e+00  6.25747e-02 -1.63438e+00 
 3.74217e+00  5.87338e-02 -1.55006e+00 
 3.86728e+00  5.46152e-02 -1.46407e+00 
 3.99287e+00  5.02397e-02 -1.37650e+00 
 4.11880e+00  4.56779e-02 -1.28738e+00 
 4.24499e+00  4.09632e-02 -1.19679e+00 
 4.37128e+00  3.61784e-02 -1.10474e+00 
 4.49756e+00  3.13690e-02 -1.01130e+00 
 4.62367e+00  2.66290e-02 -9.16459e-01 
 4.74947e+00  2.20141e-02 -8.20274e-01 
 4.87478e+00  1.76275e-02 -7.22713e-01 
 4.99946e+00  1.35328e-02 -6.23804e-01 
 5.12331e+00  9.83904e-03 -5.23491e-01 
 5.24619e+00  6.61368e-03 -4.21777e-01 
 5.36790e+00  3.96748e-03 -3.18574e-01 
 5.48830e+00  1.96735e-03 -2.13856e-01 
 5.60718e+00  7.19215e-04 -1.07502e-01 
 5.71690e+00 -1.63598e-02 -5.71620e-02 
-5.50129e+00  1.58256e-02 -5.61870e-02 
-5.39468e+00 -8.16368e-04 -1.05705e-01 
-5.27892e+00 -2.23047e-03 -2.10390e-01 
-5.16146e+00 -4.48702e-03 -3.13624e-01 
-5.04254e+00 -7.46385e-03 -4.15535e-01 
-4.92233e+00 -1.10766e-02 -5.16154e-01 
-4.80107e+00 -1.51991e-02 -6.15564e-01 
-4.67894e+00 -1.97477e-02 -7.13763e-01 
-4.55615e+00 -2.46000e-02 -8.10800e-01 
-4.43288e+00 -2.96787e-02 -9.06641e-01 
-4.30934e+00 -3.48700e-02 -1.00131e+00 
-4.18568e+00 -4.01073e-02 -1.09473e+00 
-4.06209e+00 -4.52887e-02 -1.18692e+00 
-3.93869e+00 -5.03615e-02 -1.27777e+00 
-3.81567e+00 -5.52379e-02 -1.36728e+00 
-3.69310e+00 -5.98802e-02 -1.45534e+00 
-3.57116e+00 -6.42159e-02 -1.54192e+00 
-3.44989e+00 -6.82223e-02 -1.62691e+00 
-3.32944e+00 -7.18422e-02 -1.71025e+00 
-3.20983e+00 -7.50670e-02 -1.79185e+00 
-3.09117e+00 -7.78534e-02 -1.87165e+00 
-2.97348e+00 -8.02059e-02 -1.94953e+00 
-2.85683e+00 -8.20930e-02 -2.02545e+00 
-2.74122e+00 -8.35304e-02 -2.09931e+00 
-2.62671e+00 -8.44968e-02 -2.17104e+00 
-2.51327e+00 -8.50165e-02 -2.24055e+00 
-2.40093e+00 -8.50762e-02 -2.30780e+00 
-2.28967e+00 -8.47070e-02 -2.37269e+00 
-2.17950e+00 -8.39015e-02 -2.43517e+00 
-2.07037e+00 -8.26957e-02 -2.49518e+00 
-1.96229e+00 -8.10863e-02 -2.55266e+00 
-1.85520e+00 -7.91122e-02 -2.60756e+00 
-1.74910e+00 -7.67729e-02 -2.65983e+00 
-1.64391e+00 -7.41090e-02 -2.70941e+00 
-1.53963e+00 -7.11212e-02 -2.75628e+00 
-1.43619e+00 -6.78508e-02 -2.80038e+00 
-1.33357e+00 -6.42991e-02 -2.84169e+00 
-1.23168e+00 -6.05070e-02 -2.88017e+00 
-1.13052e+00 -5.64757e-02 -2.91580e+00 
-1.02999e+00 -5.22456e-02 -2.94853e+00 
-9.30074e-01 -4.78171e-02 -2.97837e+00 
-8.30690e-01 -4.32298e-02 -3.00528e+00 
-7.31810e-01 -3.84832e-02 -3.02924e+00 
-6.33348e-01 -3.36159e-02 -3.05024e+00 
-5.35278e-01 -2.86267e-02 -3.06826e+00 
-4.37512e-01 -2.35532e-02 -3.08330e+00 
-3.40022e-01 -1.83935e-02 -3.09534e+00 
-2.42722e-01 -1.31844e-02 -3.10438e+00 
-1.45581e-01 -7.92355e-03 -3.11040e+00 
-4.85142e-02 -2.64730e-03 -3.11342e+00 
 4.85142e-02  2.64730e-03 -3.11342e+00 
 1.45581e-01  7.92355e-03 -3.11040e+00 
 2.42722e-01  1.31844e-02 -3.10438e+00 
 3.40022e-01  1.83935e-02 -3.09534e+00 
 4.37512e-01  2.35532e-02 -3.08330e+00 
 5.35278e-01  2.86267e-02 -3.06826e+00 
 6.33348e-01  3.36159e-02 -3.05024e+00 
 7.31810e-01  3.84832e-02 -3.02924e+00 
 8.30690e-01  4.32298e-02 -3.00528e+00 
 9.30074e-01  4.78171e-02 -2.97837e+00 
 1.02999e+00  5.22456e-02 -2.94853e+00 
 1.13052e+00  5.64757e-02 -2.91580e+00 
 1.23168e+00  6.05070e-02 -2.88017e+00 
 1.33357e+00  6.42991e-02 -2.84169e+00 
 1.43619e+00  6.78508e-02 -2.80038e+00 
 1.53963e+00  7.11212e-02 -2.75628e+00 
 1.64391e+00  7.41090e-02 -2.70941e+00 
 1.74910e+00  7.67729e-02 -2.65983e+00 
 1.85520e+00  7.91122e-02 -2.60756e+00 
 1.96229e+00  8.10863e-02 -2.55266e+00 
 2.07037e+00  8.26957e-02 -2.49518e+00 
 2.17950e+00  8.39015e-02 -2.43517e+00 
 2.28967e+00  8.47070e-02 -2.37269e+00 
 2.40093e+00  8.50762e-02 -2.30780e+00 
 2.51327e+00  8.50165e-02 -2.24055e+00 
 2.62671e+00  8.44968e-02 -2.17104e+00 
 2.74122e+00  8.35304e-02 -2.09931e+00 
 2.85683e+00  8.20930e-02 -2.02545e+00 
 2.97348e+00  8.02059e-02 -1.94953e+00 
 3.09117e+00  7.78534e-02 -1.87165e+00 
 3.20983e+00  7.50670e-02 -1.79185e+00 
 3.32944e+00  7.18422e-02 -1.71025e+00 
 3.44989e+00  6.82223e-02 -1.62691e+00 
 3.57116e+00  6.42159e-02 -1.54192e+00 
 3.69310e+00  5.98802e-02 -1.45534e+00 
 3.81567e+00  5.52379e-02 -1.36728e+00 
 3.93869e+00  5.03615e-02 -1.27777e+00 
 4.06209e+00  4.52887e-02 -1.18692e+00 
 4.18568e+00  4.01073e-02 -1.09473e+00 
 4.30934e+00  3.48700e-02 -1.00131e+00 
 4.43288e+00  2.96787e-02 -9.06641e-01 
 4.55615e+00  2.46000e-02 -8.10800e-01 
 4.67894e+00  1.97477e-02 -7.13763e-01 
 4.80107e+00  1.51991e-02 -6.15564e-01 
 4.92233e+00  1.10766e-02 -5.16154e-01 
 5.04254e+00  7.46385e-03 -4.15535e-01 
 5.16146e+00  4.48702e-03 -3.13624e-01 
 5.27892e+00  2.23047e-03 -2.10390e-01 
 5.39468e+00  8.16368e-04 -1.05705e-01 
 5.50129e+00 -1.58256e-02 -5.61870e-02 
-5.28979e+00  1.53399e-02 -5.50825e-02 
-5.18594e+00 -9.24272e-04 -1.03672e-01 
-5.07289e+00 -2.52147e-03 -2.06480e-01 
-4.95795e+00 -5.05890e-03 -3.08060e-01 
-4.84139e+00 -8.39476e-03 -4.08547e-01 
-4.72343e+00 -1.24242e-02 -5.07972e-01 
-4.60434e+00 -1.70023e-02 -6.06418e-01 
-4.48434e+00 -2.20274e-02 -7.03876e-01 
-4.36368e+00 -2.73611e-02 -8.00388e-01 
-4.24257e+00 -3.29110e-02 -8.95909e-01 
-4.12124e+00 -3.85511e-02 -9.90445e-01 
-3.99988e+00 -4.42035e-02 -1.08392e+00 
-3.87869e+00 -4.97580e-02 -1.17632e+00 
-3.75782e+00 -5.51544e-02 -1.26754e+00 
-3.63747e+00 -6.03008e-02 -1.35754e+00 
-3.51773e+00 -6.51556e-02 -1.44620e+00 
-3.39877e+00 -6.96455e-02 -1.53347e+00 
-3.28066e+00 -7.37475e-02 -1.61923e+00 
-3.16354e+00 -7.74060e-02 -1.70342e+00 
-3.04744e+00 -8.06149e-02 -1.78590e+00 
-2.93247e+00 -8.33347e-02 -1.86662e+00 
-2.81864e+00 -8.55736e-02 -1.94545e+00 
-2.70602e+00 -8.73059e-02 -2.02232e+00 
-2.59461e+00 -8.85516e-02 -2.09713e+00 
-2.48446e+00 -8.92958e-02 -2.16981e+00 
-2.37553e+00 -8.95676e-02 -2.24025e+00 
-2.26785e+00 -8.93600e-02 -2.30840e+00 
-2.16138e+00 -8.87088e-02 -2.37416e+00 
-2.05614e+00 -8.76126e-02 -2.43749e+00 
-1.95205e+00 -8.61111e-02 -2.49830e+00 
-1.84913e+00 -8.42066e-02 -2.55655e+00 
-1.74730e+00 -8.19409e-02 -2.61216e+00 
-1.64656e+00 -7.93180e-02 -2.66511e+00 
-1.54682e+00 -7.63805e-02 -2.71532e+00 
-1.44807e+00 -7.31328e-02 -2.76278e+00 
-1.35023e+00 -6.96170e-02 -2.80743e+00 
-1.25328e+00 -6.58370e-02 -2.84925e+00 
-1.15713e+00 -6.18338e-02 -2.88818e+00 
-1.06174e+00 -5.76102e-02 -2.92423e+00 
-9.67048e-01 -5.32057e-02 -2.95734e+00 
-8.73008e-01 -4.86215e-02 -2.98752e+00 
-7.79537e-01 -4.38956e-02 -3.01472e+00 
-6.86601e-01 -3.90276e-02 -3.03895e+00 
-5.94113e-01 -3.40538e-02 -3.06017e+00 
-5.02039e-01 -2.89725e-02 -3.07839e+00 
-4.10291e-01 -2.38186e-02 -3.09358e+00 
-3.18833e-01 -1.85892e-02 -3.10575e+00 
-2.27579e-01 -1.33181e-02 -3.11488e+00 
-1.36492e-01 -8.00162e-03 -3.12097e+00 
-4.54840e-02 -2.67274e-03 -3.12402e+00 
 4.54840e-02  2.67274e-03 -3.12402e+00 
 1.36492e-01  8.00162e-03 -3.12097e+00 
 2.27579e-01  1.33181e-02 -3.11488e+00 
 3.18833e-01  1.85892e-02 -3.10575e+00 
 4.10291e-01  2.38186e-02 -3.09358e+00 
 5.02039e-01  2.89725e-02 -3.07839e+00 
 5.94113e-01  3.40538e-02 -3.06017e+00 
 6.86601e-01  3.90276e-02 -3.03895e+00 
 7.79537e-01  4.38956e-02 -3.01472e+00 
 8.73008e-01  4.86215e-02 -2.98752e+00 
 9.67048e-01  5.32057e-02 -2.95734e+00 
 1.06174e+00  5.76102e-02 -2.92423e+00 
 1.15713e+00  6.18338e-02 -2.88818e+00 
 1.25328e+00  6.58370e-02 -2.84925e+00 
 1.35023e+00  6.96170e-02 -2.80743e+00 
 1.44807e+00  7.31328e-02 -2.76278e+00 
 1.54682e+00  7.63805e-02 -2.71532e+00 
 1.64656e+00  7.93180e-02 -2.66511e+00 
 1.74730e+00  8.19409e-02 -2.61216e+00 
 1.84913e+00  8.42066e-02 -2.55655e+00 
 1.95205e+00  8.61111e-02 -2.49830e+00 
 2.05614e+00  8.76126e-02 -2.43749e+00 
 2.16138e+00  8.87088e-02 -2.37416e+00 
 2.26785e+00  8.93600e-02 -2.30840e+00 
 2.37553e+00  8.95676e-02 -2.24025e+00 
 2.48446e+00  8.92958e-02 -2.16981e+00 
 2.59461e+00  8.85516e-02 -2.09713e+00 
 2.70602e+00  8.73059e-02 -2.02232e+00 
 2.81864e+00  8.55736e-02 -1.94545e+00 
 2.93247e+00  8.33347e-02 -1.86662e+00 
 3.04744e+00  8.06149e-02 -1.78590e+00 
 3.16354e+00  7.74060e-02 -1.70342e+00 
 3.28066e+00  7.37475e-02 -1.61923e+00 
 3.39877e+00  6.96455e-02 -1.53347e+00 
 3.51773e+00  6.51556e-02 -1.44620e+00 
 3.63747e+00  6.03008e-02 -1.35754e+00 
 3.75782e+00  5.51544e-02 -1.26754e+00 
 3.87869e+00  4.97580e-02 -1.17632e+00 
 3.99988e+00  4.42035e-02 -1.08392e+00 
 4.12124e+00  3.85511e-02 -9.90445e-01 
 4.24257e+00  3.29110e-02 -8.95909e-01 
 4.36368e+00  2.73611e-02 -8.00388e-01 
 4.48434e+00  2.20274e-02 -7.03876e-01 
 4.60434e+00  1.70023e-02 -6.06418e-01 
 4.72343e+00  1.24242e-02 -5.07972e-01 
 4.84139e+00  8.39476e-03 -4.08547e-01 
 4.95795e+00  5.05890e-03 -3.08060e-01 
 5.07289e+00  2.52147e-03 -2.06480e-01 
 5.18594e+00  9.24272e-04 -1.03672e-01 
 5.28979e+00 -1.53399e-02 -5.50825e-02 
-5.08296e+00  1.49143e-02 -5.38349e-02 
-4.98143e+00 -1.04367e-03 -1.01381e-01 
-4.87061e+00 -2.84186e-03 -2.02084e-01 
-4.75768e+00 -5.68501e-03 -3.01830e-01 
-4.64297e+00 -9.40748e-03 -4.00756e-01 
-4.52675e+00 -1.38801e-02 -4.98894e-01 
-4.40934e+00 -1.89360e-02 -5.96322e-01 
-4.29099e+00 -2.44523e-02 -6.93023e-01 
-4.17201e+00 -3.02722e-02 -7.89026e-01 
-4.05262e+00 -3.62867e-02 -8.84273e-01 
-3.93312e+00 -4.23560e-02 -9.78752e-01 
-3.81369e+00 -4.83904e-02 -1.07237e+00 
-3.69459e+00 -5.42715e-02 -1.16509e+00 
-3.57596e+00 -5.99319e-02 -1.25678e+00 
-3.45803e+00 -6.52764e-02 -1.34739e+00 
-3.34091e+00 -7.02608e-02 -1.43678e+00 
-3.22476e+00 -7.48127e-02 -1.52488e+00 
-3.10968e+00 -7.89103e-02 -1.61153e+00 
-2.99579e+00 -8.25022e-02 -1.69667e+00 
-2.88313e+00 -8.55861e-02 -1.78015e+00 
-2.77180e+00 -8.81289e-02 -1.86189e+00 
-2.66181e+00 -9.01447e-02 -1.94175e+00 
-2.55323e+00 -9.16150e-02 -2.01965e+00 
-2.44604e+00 -9.25666e-02 -2.09547e+00 
-2.34029e+00 -9.29923e-02 -2.16914e+00 
-2.23592e+00 -9.29276e-02 -2.24055e+00 
-2.13297e+00 -9.23735e-02 -2.30962e+00 
-2.03137e+00 -9.13711e-02 -2.37627e+00 
-1.93114e+00 -8.99262e-02 -2.44045e+00 
-1.83219e+00 -8.80831e-02 -2.50205e+00 
-1.73451e+00 -8.58498e-02 -2.56104e+00 
-1.63804e+00 -8.32718e-02 -2.61736e+00 
-1.54275e+00 -8.03575e-02 -2.67095e+00 
-1.44856e+00 -7.71517e-02 -2.72176e+00 
-1.35543e+00 -7.36619e-02 -2.76977e+00 
-1.26328e+00 -6.99312e-02 -2.81492e+00 
-1.17209e+00 -6.59656e-02 -2.85719e+00 
-1.08175e+00 -6.18056e-02 -2.89654e+00 
-9.92230e-01 -5.74551e-02 -2.93295e+00 
-9.03446e-01 -5.29519e-02 -2.96639e+00 
-8.15355e-01 -4.82975e-02 -2.99686e+00 
-7.27869e-01 -4.35272e-02 -3.02432e+00 
-6.40946e-01 -3.86402e-02 -3.04877e+00 
-5.54498e-01 -3.36694e-02 -3.07018e+00 
-4.68484e-01 -2.86119e-02 -3.08856e+00 
-3.82814e-01 -2.34986e-02 -3.10389e+00 
-2.97448e-01 -1.83251e-02 -3.11616e+00 
-2.12296e-01 -1.31208e-02 -3.12536e+00 
-1.27319e-01 -7.88012e-03 -3.13150e+00 
-4.24260e-02 -2.63149e-03 -3.13457e+00 
 4.24260e-02  2.63149e-03 -3.13457e+00 
 1.27319e-01  7.88012e-03 -3.13150e+00 
 2.12296e-01  1.31208e-02 -3.12536e+00 
 2.97448e-01  1.83251e-02 -3.11616e+00 
 3.82814e-01  2.34986e-02 -3.10389e+00 
 4.68484e-01  2.86119e-02 -3.08856e+00 
 5.54498e-01  3.36694e-02 -3.07018e+00 
 6.40946e-01  3.86402e-02 -3.04877e+00 
 7.27869e-01  4.35272e-02 -3.02432e+00 
 8.15355e-01  4.82975e-02 -2.99686e+00 
 9.03446e-01  5.29519e-02 -2.96639e+00 
 9.92230e-01  5.74551e-02 -2.93295e+00 
 1.08175e+00  6.18056e-02 -2.89654e+00 
 1.17209e+00  6.59656e-02 -2.85719e+00 
 1.26328e+00  6.99312e-02 -2.81492e+00 
 1.35543e+00  7.36619e-02 -2.76977e+00 
 1.44856e+00  7.71517e-02 -2.72176e+00 
 1.54275e+00  8.03575e-02 -2.67095e+00 
 1.63804e+00  8.32718e-02 -2.61736e+00 
 1.73451e+00  8.58498e-02 -2.56104e+00 
 1.83219e+00  8.80831e-02 -2.50205e+00 
 1.93114e+00  8.99262e-02 -2.44045e+00 
 2.03137e+00  9.13711e-02 -2.37627e+00 
 2.13297e+00  9.23735e-02 -2.30962e+00 
 2.23592e+00  9.29276e-02 -2.24055e+00 
 2.34029e+00  9.29923e-02 -2.16914e+00 
 2.44604e+00  9.25666e-02 -2.09547e+00 
 2.55323e+00  9.16150e-02 -2.01965e+00 
 2.66181e+00  9.01447e-02 -1.94175e+00 
 2.77180e+00  8.81289e-02 -1.86189e+00 
 2.88313e+00  8.55861e-02 -1.78015e+00 
 2.99579e+00  8.25022e-02 -1.69667e+00 
 3.10968e+00  7.89103e-02 -1.61153e+00 
 3.22476e+00  7.48127e-02 -1.52488e+00 
 3.34091e+00  7.02608e-02 -1.43678e+00 
 3.45803e+00  6.52764e-02 -1.34739e+00 
 3.57596e+00  5.99319e-02 -1.25678e+00 
 3.69459e+00  5.42715e-02 -1.16509e+00 
 3.81369e+00  4.83904e-02 -1.07237e+00 
 3.93312e+00  4.23560e-02 -9.78752e-01 
 4.05262e+00  3.62867e-02 -8.84273e-01 
 4.17201e+00  3.02722e-02 -7.89026e-01 
 4.29099e+00  2.44523e-02 -6.93023e-01 
 4.40934e+00  1.89360e-02 -5.96322e-01 
 4.52675e+00  1.38801e-02 -4.98894e-01 
 4.64297e+00  9.40748e-03 -4.00756e-01 
 4.75768e+00  5.68501e-03 -3.01830e-01 
 4.87061e+00  2.84186e-03 -2.02084e-01 
 4.98143e+00  1.04367e-03 -1.01381e-01 
 5.08296e+00 -1.49143e-02 -5.38349e-02 
-4.88143e+00  1.45628e-02 -5.24298e-02 
-4.78168e+00 -1.17527e-03 -9.88051e-02 
-4.67249e+00 -3.19286e-03 -1.97159e-01 
-4.56097e+00 -6.36618e-03 -2.94881e-01 
-4.44751e+00 -1.05007e-02 -3.92111e-01 
-4.33243e+00 -1.54382e-02 -4.88878e-01 
-4.21611e+00 -2.09859e-02 -5.85251e-01 
-4.09886e+00 -2.69961e-02 -6.81200e-01 
-3.98104e+00 -3.32911e-02 -7.76738e-01 
-3.86290e+00 -3.97433e-02 -8.71784e-01 
-3.74478e+00 -4.61982e-02 -9.66307e-01 
-3.62689e+00 -5.25539e-02 -1.06019e+00 
-3.50952e+00 -5.86838e-02 -1.15336e+00 
-3.39284e+00 -6.45149e-02 -1.24567e+00 
-3.27708e+00 -6.99495e-02 -1.33704e+00 
-3.16237e+00 -7.49436e-02 -1.42731e+00 
-3.04888e+00 -7.94274e-02 -1.51637e+00 
-2.93670e+00 -8.33832e-02 -1.60406e+00 
-2.82596e+00 -8.67663e-02 -1.69027e+00 
-2.71669e+00 -8.95812e-02 -1.77486e+00 
-2.60898e+00 -9.18038e-02 -1.85771e+00 
-2.50285e+00 -9.34564e-02 -1.93867e+00 
-2.39834e+00 -9.45308e-02 -2.01767e+00 
-2.29543e+00 -9.50623e-02 -2.09455e+00 
-2.19414e+00 -9.50535e-02 -2.16925e+00 
-2.09443e+00 -9.45484e-02 -2.24163e+00 
-1.99629e+00 -9.35567e-02 -2.31163e+00 
-1.89966e+00 -9.21267e-02 -2.37916e+00 
-1.80454e+00 -9.02718e-02 -2.44415e+00 
-1.71083e+00 -8.80418e-02 -2.50651e+00 
-1.61851e+00 -8.54509e-02 -2.56620e+00 
-1.52751e+00 -8.25480e-02 -2.62315e+00 
-1.43777e+00 -7.93463e-02 -2.67733e+00 
-1.34922e+00 -7.58924e-02 -2.72868e+00 
-1.26182e+00 -7.21968e-02 -2.77716e+00 
-1.17546e+00 -6.83027e-02 -2.82274e+00 
-1.09011e+00 -6.42178e-02 -2.86539e+00 
-1.00567e+00 -5.99812e-02 -2.90508e+00 
-9.22096e-01 -5.55972e-02 -2.94179e+00 
-8.39296e-01 -5.11011e-02 -2.97550e+00 
-7.57225e-01 -4.64937e-02 -3.00619e+00 
-6.75787e-01 -4.18066e-02 -3.03384e+00 
-5.94938e-01 -3.70374e-02 -3.05846e+00 
-5.14585e-01 -3.22147e-02 -3.08001e+00 
-4.34683e-01 -2.73333e-02 -3.09850e+00 
-3.55140e-01 -2.24192e-02 -3.11392e+00 
-2.75912e-01 -1.74652e-02 -3.12626e+00 
-1.96908e-01 -1.24951e-02 -3.13552e+00 
-1.18083e-01 -7.50046e-03 -3.14170e+00 
-3.93473e-02 -2.50398e-03 -3.14479e+00 
 3.93473e-02  2.50398e-03 -3.14479e+00 
 1.18083e-01  7.50046e-03 -3.14170e+00 
 1.96908e-01  1.24951e-02 -3.13552e+00 
 2.75912e-01  1.74652e-02 -3.12626e+00 
 3.55140e-01  2.24192e-02 -3.11392e+00 
 4.34683e-01  2.73333e-02 -3.09850e+00 
 5.14585e-01  3.22147e-02 -3.08001e+00 
 5.94938e-01  3.70374e-02 -3.05846e+00 
 6.75787e-01  4.18066e-02 -3.03384e+00 
 7.57225e-01  4.64937e-02 -3.00619e+00 
 8.39296e-01  5.11011e-02 -2.97550e+00 
 9.22096e-01  5.55972e-02 -2.94179e+00 
 1.00567e+00  5.99812e-02 -2.90508e+00 
 1.09011e+00  6.42178e-02 -2.86539e+00 
 1.17546e+00  6.83027e-02 -2.82274e+00 
 1.26182e+00  7.21968e-02 -2.77716e+00 
 1.34922e+00  7.58924e-02 -2.72868e+00 
 1.43777e+00  7.93463e-02 -2.67733e+00 
 1.52751e+00  8.25480e-02 -2.62315e+00 
 1.61851e+00  8.54509e-02 -2.56620e+00 
 1.71083e+00  8.80418e-02 -2.50651e+00 
 1.80454e+00  9.02718e-02 -2.44415e+00 
 1.89966e+00  9.21267e-02 -2.37916e+00 
 1.99629e+00  9.35567e-02 -2.31163e+00 
 2.09443e+00  9.45484e-02 -2.24163e+00 
 2.19414e+00  9.50535e-02 -2.16925e+00 
 2.29543e+00  9.50623e-02 -2.09455e+00 
 2.39834e+00  9.45308e-02 -2.01767e+00 
 2.50285e+00  9.34564e-02 -1.93867e+00 
 2.60898e+00  9.18038e-02 -1.85771e+00 
 2.71669e+00  8.95812e-02 -1.77486e+00 
 2.82596e+00  8.67663e-02 -1.69027e+00 
 2.93670e+00  8.33832e-02 -1.60406e+00 
 3.04888e+00  7.94274e-02 -1.51637e+00 
 3.16237e+00  7.49436e-02 -1.42731e+00 
 3.27708e+00  6.99495e-02 -1.33704e+00 
 3.39284e+00  6.45149e-02 -1.24567e+00 
 3.50952e+00  5.86838e-02 -1.15336e+00 
 3.62689e+00  5.25539e-02 -1.06019e+00 
 3.74478e+00  4.61982e-02 -9.66307e-01 
 3.86290e+00  3.97433e-02 -8.71784e-01 
 3.98104e+00  3.32911e-02 -7.76738e-01 
 4.09886e+00  2.69961e-02 -6.81200e-01 
 4.21611e+00  2.09859e-02 -5.85251e-01 
 4.33243e+00  1.54382e-02 -4.88878e-01 
 4.44751e+00  1.05007e-02 -3.92111e-01 
 4.56097e+00  6.36618e-03 -2.94881e-01 
 4.67249e+00  3.19286e-03 -1.97159e-01 
 4.78168e+00  1.17527e-03 -9.88051e-02 
 4.88143e+00 -1.45628e-02 -5.24298e-02 
-4.68587e+00  1.43031e-02 -5.08522e-02 
-4.58726e+00 -1.31964e-03 -9.59202e-02 
-4.47898e+00 -3.57513e-03 -1.91664e-01 
-4.36813e+00 -7.10168e-03 -2.87168e-01 
-4.25520e+00 -1.16694e-02 -3.82572e-01 
-4.14055e+00 -1.70858e-02 -4.77899e-01 
-4.02466e+00 -2.31265e-02 -5.73204e-01 
-3.90787e+00 -2.96158e-02 -6.68437e-01 
-3.79060e+00 -3.63519e-02 -7.63587e-01 
-3.67317e+00 -4.31866e-02 -8.58547e-01 
-3.55595e+00 -4.99499e-02 -9.53252e-01 
-3.43918e+00 -5.65280e-02 -1.04755e+00 
-3.32318e+00 -6.27871e-02 -1.14135e+00 
-3.20814e+00 -6.86503e-02 -1.23446e+00 
-3.09430e+00 -7.40204e-02 -1.32676e+00 
-2.98181e+00 -7.88560e-02 -1.41807e+00 
-2.87083e+00 -8.30936e-02 -1.50826e+00 
-2.76146e+00 -8.67232e-02 -1.59713e+00 
-2.65381e+00 -8.97101e-02 -1.68455e+00 
-2.54792e+00 -9.20696e-02 -1.77035e+00 
-2.44386e+00 -9.37898e-02 -1.85440e+00 
-2.34163e+00 -9.49046e-02 -1.93654e+00 
-2.24126e+00 -9.54187e-02 -2.01667e+00 
-2.14272e+00 -9.53785e-02 -2.09464e+00 
-2.04600e+00 -9.47991e-02 -2.17036e+00 
-1.95105e+00 -9.37342e-02 -2.24370e+00 
-1.85785e+00 -9.22040e-02 -2.31460e+00 
-1.76633e+00 -9.02651e-02 -2.38295e+00 
-1.67644e+00 -8.79392e-02 -2.44869e+00 
-1.58810e+00 -8.52820e-02 -2.51174e+00 
-1.50127e+00 -8.23140e-02 -2.57205e+00 
-1.41585e+00 -7.90877e-02 -2.62955e+00 
-1.33179e+00 -7.56204e-02 -2.68422e+00 
-1.24900e+00 -7.19600e-02 -2.73599e+00 
-1.16741e+00 -6.81195e-02 -2.78485e+00 
-1.08694e+00 -6.41414e-02 -2.83075e+00 
-1.00752e+00 -6.00340e-02 -2.87368e+00 
-9.29063e-01 -5.58342e-02 -2.91360e+00 
-8.51508e-01 -5.15454e-02 -2.95051e+00 
-7.74760e-01 -4.71993e-02 -2.98438e+00 
-6.98767e-01 -4.27946e-02 -3.01521e+00 
-6.23431e-01 -3.83585e-02 -3.04298e+00 
-5.48702e-01 -3.38855e-02 -3.06769e+00 
-4.74486e-01 -2.93986e-02 -3.08931e+00 
-4.00733e-01 -2.48891e-02 -3.10786e+00 
-3.27350e-01 -2.03768e-02 -3.12332e+00 
-2.54289e-01 -1.58504e-02 -3.13570e+00 
-1.81459e-01 -1.13271e-02 -3.14498e+00 
-1.08812e-01 -6.79419e-03 -3.15117e+00 
-3.62568e-02 -2.26737e-03 -3.15426e+00 
 3.62568e-02  2.26737e-03 -3.15426e+00 
 1.08812e-01  6.79419e-03 -3.15117e+00 
 1.81459e-01  1.13271e-02 -3.14498e+00 
 2.54289e-01  1.58504e-02 -3.13570e+00 
 3.27350e-01  2.03768e-02 -3.12332e+00 
 4.00733e-01  2.48891e-02 -3.10786e+00 
 4.74486e-01  2.93986e-02 -3.08931e+00 
 5.48702e-01  3.38855e-02 -3.06769e+00 
 6.23431e-01  3.83585e-02 -3.04298e+00 
 6.98767e-01  4.27946e-02 -3.01521e+00 
 7.74760e-01  4.71993e-02 -2.98438e+00 
 8.51508e-01  5.15454e-02 -2.95051e+00 
 9.29063e-01  5.58342e-02 -2.91360e+00 
 1.00752e+00  6.00340e-02 -2.87368e+00 
 1.08694e+00  6.41414e-02 -2.83075e+00 
 1.16741e+00  6.81195e-02 -2.78485e+00 
 1.24900e+00  7.19600e-02 -2.73599e+00 
 1.33179e+00  7.56204e-02 -2.68422e+00 
 1.41585e+00  7.90877e-02 -2.62955e+00 
 1.50127e+00  8.23140e-02 -2.57205e+00 
 1.58810e+00  8.52820e-02 -2.51174e+00 
 1.67644e+00  8.79392e-02 -2.44869e+00 
 1.76633e+00  9.02651e-02 -2.38295e+00 
 1.85785e+00  9.22040e-02 -2.31460e+00 
 1.95105e+00  9.37342e-02 -2.24370e+00 
 2.04600e+00  9.47991e-02 -2.17036e+00 
 2.14272e+00  9.53785e-02 -2.09464e+00 
 2.24126e+00  9.54187e-02 -2.01667e+00 
 2.34163e+00  9.49046e-02 -1.93654e+00 
 2.44386e+00  9.37898e-02 -1.85440e+00 
 2.54792e+00  9.20696e-02 -1.77035e+00 
 2.65381e+00  8.97101e-02 -1.68455e+00 
 2.76146e+00  8.67232e-02 -1.59713e+00 
 2.87083e+00  8.30936e-02 -1.50826e+00 
 2.98181e+00  7.88560e-02 -1.41807e+00 
 3.09430e+00  7.40204e-02 -1.32676e+00 
 3.20814e+00  6.86503e-02 -1.23446e+00 
 3.32318e+00  6.27871e-02 -1.14135e+00 
 3.43918e+00  5.65280e-02 -1.04755e+00 
 3.55595e+00  4.99499e-02 -9.53252e-01 
 3.67317e+00  4.31866e-02 -8.58547e-01 
 3.79060e+00  3.63519e-02 -7.63587e-01 
 3.90787e+00  2.96158e-02 -6.68437e-01 
 4.02466e+00  2.31265e-02 -5.73204e-01 
 4.14055e+00  1.70858e-02 -4.77899e-01 
 4.25520e+00  1.16694e-02 -3.82572e-01 
 4.36813e+00  7.10168e-03 -2.87168e-01 
 4.47898e+00  3.57513e-03 -1.91664e-01 
 4.58726e+00  1.31964e-03 -9.59202e-02 
 4.68587e+00 -1.43031e-02 -5.08522e-02 
-4.49705e+00  1.41569e-02 -4.90868e-02 
-4.39878e+00 -1.47721e-03 -9.27005e-02 
-4.29053e+00 -3.98855e-03 -1.85558e-01 
-4.17949e+00 -7.88836e-03 -2.78651e-01 
-4.06621e+00 -1.29035e-02 -3.72115e-01 
-3.95118e+00 -1.88000e-02 -4.65960e-01 
-3.83491e+00 -2.53165e-02 -5.60219e-01 
-3.71784e+00 -3.22443e-02 -6.54815e-01 
-3.60046e+00 -3.93544e-02 -7.49703e-01 
-3.48314e+00 -4.64768e-02 -8.44738e-01 
-3.36627e+00 -5.34251e-02 -9.39816e-01 
-3.25017e+00 -6.00751e-02 -1.03474e+00 
-3.13516e+00 -6.62877e-02 -1.12938e+00 
-3.02145e+00 -7.19854e-02 -1.22350e+00 
-2.90931e+00 -7.70751e-02 -1.31695e+00 
-2.79886e+00 -8.15226e-02 -1.40950e+00 
-2.69029e+00 -8.52756e-02 -1.50098e+00 
-2.58368e+00 -8.83363e-02 -1.59118e+00 
-2.47912e+00 -9.06852e-02 -1.67993e+00 
-2.37665e+00 -9.23525e-02 -1.76704e+00 
-2.27631e+00 -9.33431e-02 -1.85236e+00 
-2.17808e+00 -9.37062e-02 -1.93572e+00 
-2.08197e+00 -9.34628e-02 -2.01700e+00 
-1.98793e+00 -9.26734e-02 -2.09604e+00 
-1.89593e+00 -9.13675e-02 -2.17275e+00 
-1.80590e+00 -8.96106e-02 -2.24700e+00 
-1.71780e+00 -8.74349e-02 -2.31871e+00 
-1.63153e+00 -8.49056e-02 -2.38779e+00 
-1.54704e+00 -8.20536e-02 -2.45417e+00 
-1.46422e+00 -7.89403e-02 -2.51778e+00 
-1.38301e+00 -7.55926e-02 -2.57858e+00 
-1.30331e+00 -7.20656e-02 -2.63649e+00 
-1.22505e+00 -6.83803e-02 -2.69150e+00 
-1.14813e+00 -6.45849e-02 -2.74356e+00 
-1.07247e+00 -6.06937e-02 -2.79265e+00 
-9.97972e-01 -5.67473e-02 -2.83873e+00 
-9.24573e-01 -5.27532e-02 -2.88179e+00 
-8.52167e-01 -4.87449e-02 -2.92182e+00 
-7.80693e-01 -4.47234e-02 -2.95880e+00 
-7.10050e-01 -4.07154e-02 -2.99271e+00 
-6.40179e-01 -3.67164e-02 -3.02357e+00 
-5.70981e-01 -3.27468e-02 -3.05134e+00 
-5.02401e-01 -2.87975e-02 -3.07604e+00 
-4.34344e-01 -2.48840e-02 -3.09765e+00 
-3.66757e-01 -2.09930e-02 -3.11618e+00 
-2.99546e-01 -1.71363e-02 -3.13162e+00 
-2.32660e-01 -1.32975e-02 -3.14398e+00 
-1.66008e-01 -9.48579e-03 -3.15325e+00 
-9.95399e-02 -5.68258e-03 -3.15943e+00 
-3.31662e-02 -1.89542e-03 -3.16252e+00 
 3.31662e-02  1.89542e-03 -3.16252e+00 
 9.95399e-02  5.68258e-03 -3.15943e+00 
 1.66008e-01  9.48579e-03 -3.15325e+00 
 2.32660e-01  1.32975e-02 -3.14398e+00 
 2.99546e-01  1.71363e-02 -3.13162e+00 
 3.66757e-01  2.09930e-02 -3.11618e+00 
 4.34344e-01  2.48840e-02 -3.09765e+00 
 5.02401e-01  2.87975e-02 -3.07604e+00 
 5.70981e-01  3.27468e-02 -3.05134e+00 
 6.40179e-01  3.67164e-02 -3.02357e+00 
 7.10050e-01  4.07154e-02 -2.99271e+00 
 7.80693e-01  4.47234e-02 -2.95880e+00 
 8.52167e-01  4.87449e-02 -2.92182e+00 
 9.24573e-01  5.27532e-02 -2.88179e+00 
 9.97972e-01  5.67473e-02 -2.83873e+00 
 1.07247e+00  6.06937e-02 -2.79265e+00 
 1.14813e+00  6.45849e-02 -2.74356e+00 
 1.22505e+00  6.83803e-02 -2.69150e+00 
 1.30331e+00  7.20656e-02 -2.63649e+00 
 1.38301e+00  7.55926e-02 -2.57858e+00 
 1.46422e+00  7.89403e-02 -2.51778e+00 
 1.54704e+00  8.20536e-02 -2.45417e+00 
 1.63153e+00  8.49056e-02 -2.38779e+00 
 1.71780e+00  8.74349e-02 -2.31871e+00 
 1.80590e+00  8.96106e-02 -2.24700e+00 
 1.89593e+00  9.13675e-02 -2.17275e+00 
 1.98793e+00  9.26734e-02 -2.09604e+00 
 2.08197e+00  9.34628e-02 -2.01700e+00 
 2.17808e+00  9.37062e-02 -1.93572e+00 
 2.27631e+00  9.33431e-02 -1.85236e+00 
 2.37665e+00  9.23525e-02 -1.76704e+00 
 2.47912e+00  9.06852e-02 -1.67993e+00 
 2.58368e+00  8.83363e-02 -1.59118e+00 
 2.69029e+00  8.52756e-02 -1.50098e+00 
 2.79886e+00  8.15226e-02 -1.40950e+00 
 2.90931e+00  7.70751e-02 -1.31695e+00 
 3.02145e+00  7.19854e-02 -1.22350e+00 
 3.13516e+00  6.62877e-02 -1.12938e+00 
 3.25017e+00  6.00751e-02 -1.03474e+00 
 3.36627e+00  5.34251e-02 -9.39816e-01 
 3.48314e+00  4.64768e-02 -8.44738e-01 
 3.60046e+00  3.93544e-02 -7.49703e-01 
 3.71784e+00  3.22443e-02 -6.54815e-01 
 3.83491e+00  2.53165e-02 -5.60219e-01 
 3.95118e+00  1.88000e-02 -4.65960e-01 
 4.06621e+00  1.29035e-02 -3.72115e-01 
 4.17949e+00  7.88836e-03 -2.78651e-01 
 4.29053e+00  3.98855e-03 -1.85558e-01 
 4.39878e+00  1.47721e-03 -9.27005e-02 
 4.49705e+00 -1.41569e-02 -4.90868e-02 
-4.31580e+00  1.41514e-02 -4.71181e-02 
-4.21688e+00 -1.64813e-03 -8.91220e-02 
-4.10761e+00 -4.43177e-03 -1.78807e-01 
-3.99532e+00 -8.71957e-03 -2.69306e-01 
-3.88067e+00 -1.41850e-02 -3.60741e-01 
-3.76425e+00 -2.05443e-02 -4.53102e-01 
-3.64669e+00 -2.74914e-02 -5.46389e-01 
-3.52850e+00 -3.47801e-02 -6.40487e-01 
-3.41025e+00 -4.21506e-02 -7.35303e-01 
-3.29235e+00 -4.94100e-02 -8.30642e-01 
-3.17529e+00 -5.63566e-02 -9.26345e-01 
-3.05937e+00 -6.28579e-02 -1.02216e+00 
-2.94497e+00 -6.87733e-02 -1.11791e+00 
-2.83232e+00 -7.40301e-02 -1.21330e+00 
-2.72167e+00 -7.85448e-02 -1.30813e+00 
-2.61315e+00 -8.22971e-02 -1.40213e+00 
-2.50694e+00 -8.52518e-02 -1.49509e+00 
-2.40309e+00 -8.74304e-02 -1.58676e+00 
-2.30169e+00 -8.88344e-02 -1.67696e+00 
-2.20273e+00 -8.95150e-02 -1.76545e+00 
-2.10624e+00 -8.94983e-02 -1.85208e+00 
-2.01217e+00 -8.88541e-02 -1.93666e+00 
-1.92051e+00 -8.76225e-02 -2.01905e+00 
-1.83116e+00 -8.58817e-02 -2.09910e+00 
-1.74408e+00 -8.36776e-02 -2.17671e+00 
-1.65917e+00 -8.10889e-02 -2.25175e+00 
-1.57636e+00 -7.81607e-02 -2.32415e+00 
-1.49554e+00 -7.49675e-02 -2.39380e+00 
-1.41662e+00 -7.15490e-02 -2.46066e+00 
-1.33949e+00 -6.79719e-02 -2.52465e+00 
-1.26406e+00 -6.42683e-02 -2.58574e+00 
-1.19023e+00 -6.04952e-02 -2.64387e+00 
-1.11790e+00 -5.66759e-02 -2.69904e+00 
-1.04695e+00 -5.28572e-02 -2.75118e+00 
-9.77324e-01 -4.90532e-02 -2.80030e+00 
-9.08890e-01 -4.53007e-02 -2.84637e+00 
-8.41581e-01 -4.16051e-02 -2.88940e+00 
-7.75287e-01 -3.79941e-02 -2.92935e+00 
-7.09940e-01 -3.44652e-02 -2.96623e+00 
-6.45435e-01 -3.10379e-02 -3.00003e+00 
-5.81710e-01 -2.77027e-02 -3.03076e+00 
-5.18664e-01 -2.44722e-02 -3.05841e+00 
-4.56239e-01 -2.13313e-02 -3.08299e+00 
-3.94339e-01 -1.82869e-02 -3.10448e+00 
-3.32907e-01 -1.53193e-02 -3.12291e+00 
-2.71852e-01 -1.24309e-02 -3.13825e+00 
-2.11121e-01 -9.59888e-03 -3.15053e+00 
-1.50624e-01 -6.82249e-03 -3.15973e+00 
-9.03098e-02 -4.07644e-03 -3.16587e+00 
-3.00897e-02 -1.35837e-03 -3.16894e+00 
 3.00897e-02  1.35837e-03 -3.16894e+00 
 9.03098e-02  4.07644e-03 -3.16587e+00 
 1.50624e-01  6.82249e-03 -3.15973e+00 
 2.11121e-01  9.59888e-03 -3.15053e+00 
 2.71852e-01  1.24309e-02 -3.13825e+00 
 3.32907e-01  1.53193e-02 -3.12291e+00 
 3.94339e-01  1.82869e-02 -3.10448e+00 
 4.56239e-01  2.13313e-02 -3.08299e+00 
 5.18664e-01  2.44722e-02 -3.05841e+00 
 5.81710e-01  2.77027e-02 -3.03076e+00 
 6.45435e-01  3.10379e-02 -3.00003e+00 
 7.09940e-01  3.44652e-02 -2.96623e+00 
 7.75287e-01  3.79941e-02 -2.92935e+00 
 8.41581e-01  4.16051e-02 -2.88940e+00 
 9.08890e-01  4.53007e-02 -2.84637e+00 
 9.77324e-01  4.90532e-02 -2.80030e+00 
 1.04695e+00  5.28572e-02 -2.75118e+00 
 1.11790e+00  5.66759e-02 -2.69904e+00 
 1.19023e+00  6.04952e-02 -2.64387e+00 
 1.26406e+00  6.42683e-02 -2.58574e+00 
 1.33949e+00  6.79719e-02 -2.52465e+00 
 1.41662e+00  7.15490e-02 -2.46066e+00 
 1.49554e+00  7.49675e-02 -2.39380e+00 
 1.57636e+00  7.81607e-02 -2.32415e+00 
 1.65917e+00  8.10889e-02 -2.25175e+00 
 1.74408e+00  8.36776e-02 -2.17671e+00 
 1.83116e+00  8.58817e-02 -2.09910e+00 
 1.92051e+00  8.76225e-02 -2.01905e+00 
 2.01217e+00  8.88541e-02 -1.93666e+00 
 2.10624e+00  8.94983e-02 -1.85208e+00 
 2.20273e+00  8.95150e-02 -1.76545e+00 
 2.30169e+00  8.88344e-02 -1.67696e+00 
 2.40309e+00  8.74304e-02 -1.58676e+00 
 2.50694e+00  8.52518e-02 -1.49509e+00 
 2.61315e+00  8.22971e-02 -1.40213e+00 
 2.72167e+00  7.85448e-02 -1.30813e+00 
 2.83232e+00  7.40301e-02 -1.21330e+00 
 2.94497e+00  6.87733e-02 -1.11791e+00 
 3.05937e+00  6.28579e-02 -1.02216e+00 
 3.17529e+00  5.63566e-02 -9.26345e-01 
 3.29235e+00  4.94100e-02 -8.30642e-01 
 3.41025e+00  4.21506e-02 -7.35303e-01 
 3.52850e+00  3.47801e-02 -6.40487e-01 
 3.64669e+00  2.74914e-02 -5.46389e-01 
 3.76425e+00  2.05443e-02 -4.53102e-01 
 3.88067e+00  1.41850e-02 -3.60741e-01 
 3.99532e+00  8.71957e-03 -2.69306e-01 
 4.10761e+00  4.43177e-03 -1.78807e-01 
 4.21688e+00  1.64813e-03 -8.91220e-02 
 4.31580e+00 -1.41514e-02 -4.71181e-02 
-4.14303e+00  1.43212e-02 -4.49316e-02 
-4.04228e+00 -1.83214e-03 -8.51632e-02 
-3.93068e+00 -4.90157e-03 -1.71387e-01 
-3.81585e+00 -9.58328e-03 -2.59128e-01 
-3.69859e+00 -1.54844e-02 -3.48488e-01 
-3.57962e+00 -2.22606e-02 -4.39424e-01 
-3.45969e+00 -2.95526e-02 -5.31888e-01 
-3.33941e+00 -3.70710e-02 -6.25708e-01 
-3.21943e+00 -4.45223e-02 -7.20729e-01 
-3.10025e+00 -5.16908e-02 -8.16683e-01 
-2.98238e+00 -5.83615e-02 -9.13343e-01 
-2.86619e+00 -6.43989e-02 -1.01039e+00 
-2.75205e+00 -6.96672e-02 -1.10756e+00 
-2.64021e+00 -7.41060e-02 -1.20452e+00 
-2.53091e+00 -7.76503e-02 -1.30100e+00 
-2.42428e+00 -8.03027e-02 -1.39668e+00 
-2.32045e+00 -8.20538e-02 -1.49130e+00 
-2.21946e+00 -8.29530e-02 -1.58458e+00 
-2.12136e+00 -8.30303e-02 -1.67630e+00 
-2.02611e+00 -8.23648e-02 -1.76621e+00 
-1.93370e+00 -8.10103e-02 -1.85414e+00 
-1.84403e+00 -7.90609e-02 -1.93988e+00 
-1.75705e+00 -7.65805e-02 -2.02330e+00 
-1.67266e+00 -7.36669e-02 -2.10422e+00 
-1.59075e+00 -7.03844e-02 -2.18257e+00 
-1.51120e+00 -6.68261e-02 -2.25820e+00 
-1.43392e+00 -6.30499e-02 -2.33107e+00 
-1.35876e+00 -5.91389e-02 -2.40106e+00 
-1.28562e+00 -5.51411e-02 -2.46816e+00 
-1.21436e+00 -5.11266e-02 -2.53228e+00 
-1.14488e+00 -4.71315e-02 -2.59341e+00 
-1.07706e+00 -4.32123e-02 -2.65151e+00 
-1.01078e+00 -3.93926e-02 -2.70656e+00 
-9.45929e-01 -3.57157e-02 -2.75854e+00 
-8.82413e-01 -3.21931e-02 -2.80746e+00 
-8.20113e-01 -2.88557e-02 -2.85328e+00 
-7.58947e-01 -2.57046e-02 -2.89603e+00 
-6.98802e-01 -2.27594e-02 -2.93569e+00 
-6.39604e-01 -2.00119e-02 -2.97228e+00 
-5.81247e-01 -1.74723e-02 -3.00578e+00 
-5.23664e-01 -1.51246e-02 -3.03621e+00 
-4.66756e-01 -1.29712e-02 -3.06358e+00 
-4.10460e-01 -1.09897e-02 -3.08789e+00 
-3.54683e-01 -9.17613e-03 -3.10914e+00 
-2.99366e-01 -7.50317e-03 -3.12735e+00 
-2.44421e-01 -5.96227e-03 -3.14251e+00 
-1.89792e-01 -4.52232e-03 -3.15463e+00 
-1.35393e-01 -3.17152e-03 -3.16372e+00 
-8.11720e-02 -1.87634e-03 -3.16978e+00 
-2.70442e-02 -6.23077e-04 -3.17281e+00 
 2.70442e-02  6.23077e-04 -3.17281e+00 
 8.11720e-02  1.87634e-03 -3.16978e+00 
 1.35393e-01  3.17152e-03 -3.16372e+00 
 1.89792e-01  4.52232e-03 -3.15463e+00 
 2.44421e-01  5.96227e-03 -3.14251e+00 
 2.99366e-01  7.50317e-03 -3.12735e+00 
 3.54683e-01  9.17613e-03 -3.10914e+00 
 4.10460e-01  1.09897e-02 -3.08789e+00 
 4.66756e-01  1.29712e-02 -3.06358e+00 
 5.23664e-01  1.51246e-02 -3.03621e+00 
 5.81247e-01  1.74723e-02 -3.00578e+00 
 6.39604e-01  2.00119e-02 -2.97228e+00 
 6.98802e-01  2.27594e-02 -2.93569e+00 
 7.58947e-01  2.57046e-02 -2.89603e+00 
 8.20113e-01  2.88557e-02 -2.85328e+00 
 8.82413e-01  3.21931e-02 -2.80746e+00 
 9.45929e-01  3.57157e-02 -2.75854e+00 
 1.01078e+00  3.93926e-02 -2.70656e+00 
 1.07706e+00  4.32123e-02 -2.65151e+00 
 1.14488e+00  4.71315e-02 -2.59341e+00 
 1.21436e+00  5.11266e-02 -2.53228e+00 
 1.28562e+00  5.51411e-02 -2.46816e+00 
 1.35876e+00  5.91389e-02 -2.40106e+00 
 1.43392e+00  6.30499e-02 -2.33107e+00 
 1.51120e+00  6.68261e-02 -2.25820e+00 
 1.59075e+00  7.03844e-02 -2.18257e+00 
 1.67266e+00  7.36669e-02 -2.10422e+00 
 1.75705e+00  7.65805e-02 -2.02330e+00 
 1.84403e+00  7.90609e-02 -1.93988e+00 
 1.93370e+00  8.10103e-02 -1.85414e+00 
 2.02611e+00  8.23648e-02 -1.76621e+00 
 2.12136e+00  8.30303e-02 -1.67630e+00 
 2.21946e+00  8.29530e-02 -1.58458e+00 
 2.32045e+00  8.20538e-02 -1.49130e+00 
 2.42428e+00  8.03027e-02 -1.39668e+00 
 2.53091e+00  7.76503e-02 -1.30100e+00 
 2.64021e+00  7.41060e-02 -1.20452e+00 
 2.75205e+00  6.96672e-02 -1.10756e+00 
 2.86619e+00  6.43989e-02 -1.01039e+00 
 2.98238e+00  5.83615e-02 -9.13343e-01 
 3.10025e+00  5.16908e-02 -8.16683e-01 
 3.21943e+00  4.45223e-02 -7.20729e-01 
 3.33941e+00  3.70710e-02 -6.25708e-01 
 3.45969e+00  2.95526e-02 -5.31888e-01 
 3.57962e+00  2.22606e-02 -4.39424e-01 
 3.69859e+00  1.54844e-02 -3.48488e-01 
 3.81585e+00  9.58328e-03 -2.59128e-01 
 3.93068e+00  4.90157e-03 -1.71387e-01 
 4.04228e+00  1.83214e-03 -8.51632e-02 
 4.14303e+00 -1.43212e-02 -4.49316e-02 
-3.97975e+00  1.47099e-02 -4.25143e-02 
-3.87566e+00 -2.02830e-03 -8.08076e-02 
-3.76015e+00 -5.39187e-03 -1.63289e-01 
-3.64121e+00 -1.04594e-02 -2.48148e-01 
-3.51986e+00 -1.67548e-02 -3.35455e-01 
-3.39697e+00 -2.38596e-02 -4.25113e-01 
-3.27341e+00 -3.13510e-02 -5.17007e-01 
-3.14994e+00 -3.88905e-02 -6.10884e-01 
-3.02730e+00 -4.61490e-02 -7.06497e-01 
-2.90606e+00 -5.28901e-02 -8.03487e-01 
-2.78678e+00 -5.88910e-02 -9.01534e-01 
-2.66987e+00 -6.40213e-02 -1.00023e+00 
-2.55570e+00 -6.81607e-02 -1.09921e+00 
-2.44452e+00 -7.12731e-02 -1.19808e+00 
-2.33653e+00 -7.33241e-02 -1.29650e+00 
-2.23185e+00 -7.43515e-02 -1.39408e+00 
-2.13056e+00 -7.43840e-02 -1.49053e+00 
-2.03264e+00 -7.35092e-02 -1.58551e+00 
-1.93810e+00 -7.17952e-02 -1.67879e+00 
-1.84685e+00 -6.93569e-02 -1.77008e+00 
-1.75883e+00 -6.62815e-02 -1.85922e+00 
-1.67389e+00 -6.26927e-02 -1.94597e+00 
-1.59194e+00 -5.86811e-02 -2.03022e+00 
-1.51281e+00 -5.43661e-02 -2.11179e+00 
-1.43639e+00 -4.98310e-02 -2.19061e+00 
-1.36250e+00 -4.51827e-02 -2.26656e+00 
-1.29101e+00 -4.04911e-02 -2.33958e+00 
-1.22176e+00 -3.58462e-02 -2.40960e+00 
-1.15461e+00 -3.13016e-02 -2.47660e+00 
-1.08942e+00 -2.69287e-02 -2.54052e+00 
-1.02606e+00 -2.27643e-02 -2.60136e+00 
-9.64383e-01 -1.88618e-02 -2.65909e+00 
-9.04278e-01 -1.52418e-02 -2.71371e+00 
-8.45609e-01 -1.19410e-02 -2.76521e+00 
-7.88277e-01 -8.96582e-03 -2.81361e+00 
-7.32157e-01 -6.33794e-03 -2.85890e+00 
-6.77160e-01 -4.05140e-03 -2.90110e+00 
-6.23172e-01 -2.11536e-03 -2.94021e+00 
-5.70115e-01 -5.13406e-04 -2.97626e+00 
-5.17882e-01  7.55771e-04 -3.00924e+00 
-4.66404e-01  1.71708e-03 -3.03917e+00 
-4.15582e-01  2.38025e-03 -3.06607e+00 
-3.65355e-01  2.77693e-03 -3.08995e+00 
-3.15629e-01  2.92343e-03 -3.11081e+00 
-2.66348e-01  2.85653e-03 -3.12868e+00 
-2.17426e-01  2.59743e-03 -3.14355e+00 
-1.68808e-01  2.18663e-03 -3.15544e+00 
-1.20411e-01  1.64871e-03 -3.16435e+00 
-7.21854e-02  1.02657e-03 -3.17028e+00 
-2.40492e-02  3.46725e-04 -3.17325e+00 
 2.40492e-02 -3.46725e-04 -3.17325e+00 
 7.21854e-02 -1.02657e-03 -3.17028e+00 
 1.20411e-01 -1.64871e-03 -3.16435e+00 
 1.68808e-01 -2.18663e-03 -3.15544e+00 
 2.17426e-01 -2.59743e-03 -3.14355e+00 
 2.66348e-01 -2.85653e-03 -3.12868e+00 
 3.15629e-01 -2.92343e-03 -3.11081e+00 
 3.65355e-01 -2.77693e-03 -3.08995e+00 
 4.15582e-01 -2.38025e-03 -3.06607e+00 
 4.66404e-01 -1.71708e-03 -3.03917e+00 
 5.17882e-01 -7.55771e-04 -3.00924e+00 
 5.70115e-01  5.13406e-04 -2.97626e+00 
 6.23172e-01  2.11536e-03 -2.94021e+00 
 6.77160e-01  4.05140e-03 -2.90110e+00 
 7.32157e-01  6.33794e-03 -2.85890e+00 
 7.88277e-01  8.96582e-03 -2.81361e+00 
 8.45609e-01  1.19410e-02 -2.76521e+00 
 9.04278e-01  1.52418e-02 -2.71371e+00 
 9.64383e-01  1.88618e-02 -2.65909e+00 
 1.02606e+00  2.27643e-02 -2.60136e+00 
 1.08942e+00  2.69287e-02 -2.54052e+00 
 1.15461e+00  3.13016e-02 -2.47660e+00 
 1.22176e+00  3.58462e-02 -2.40960e+00 
 1.29101e+00  4.04911e-02 -2.33958e+00 
 1.36250e+00  4.51827e-02 -2.26656e+00 
 1.43639e+00  4.98310e-02 -2.19061e+00 
 1.51281e+00  5.43661e-02 -2.11179e+00 
 1.59194e+00  5.86811e-02 -2.03022e+00 
 1.67389e+00  6.26927e-02 -1.94597e+00 
 1.75883e+00  6.62815e-02 -1.85922e+00 
 1.84685e+00  6.93569e-02 -1.77008e+00 
 1.93810e+00  7.17952e-02 -1.67879e+00 
 2.03264e+00  7.35092e-02 -1.58551e+00 
 2.13056e+00  7.43840e-02 -1.49053e+00 
 2.23185e+00  7.43515e-02 -1.39408e+00 
 2.33653e+00  7.33241e-02 -1.29650e+00 
 2.44452e+00  7.12731e-02 -1.19808e+00 
 2.55570e+00  6.81607e-02 -1.09921e+00 
 2.66987e+00  6.40213e-02 -1.00023e+00 
 2.78678e+00  5.88910e-02 -9.01534e-01 
 2.90606e+00  5.28901e-02 -8.03487e-01 
 3.02730e+00  4.61490e-02 -7.06497e-01 
 3.14994e+00  3.88905e-02 -6.10884e-01 
 3.27341e+00  3.13510e-02 -5.17007e-01 
 3.39697e+00  2.38596e-02 -4.25113e-01 
 3.51986e+00  1.67548e-02 -3.35455e-01 
 3.64121e+00  1.04594e-02 -2.48148e-01 
 3.76015e+00  5.39187e-03 -1.63289e-01 
 3.87566e+00  2.02830e-03 -8.08076e-02 
 3.97975e+00 -1.47099e-02 -4.25143e-02 
-3.82703e+00  1.53744e-02 -3.98560e-02 
-3.71777e+00 -2.23468e-03 -7.60474e-02 
-3.59635e+00 -5.89212e-03 -1.54529e-01 
-3.47141e+00 -1.13151e-02 -2.36451e-01 
-3.34417e+00 -1.79222e-02 -3.21829e-01 
-3.21570e+00 -2.52034e-02 -4.10487e-01 
-3.08708e+00 -3.26602e-02 -5.02210e-01 
-2.95918e+00 -3.98999e-02 -5.96629e-01 
-2.83287e+00 -4.65574e-02 -6.93373e-01 
-2.70878e+00 -5.23822e-02 -7.91957e-01 
-2.58752e+00 -5.71537e-02 -8.91935e-01 
-2.46952e+00 -6.07615e-02 -9.92778e-01 
-2.35514e+00 -6.31164e-02 -1.09403e+00 
-2.24459e+00 -6.42250e-02 -1.19519e+00 
-2.13803e+00 -6.41008e-02 -1.29583e+00 
-2.03551e+00 -6.28339e-02 -1.39552e+00 
-1.93706e+00 -6.05057e-02 -1.49390e+00 
-1.84259e+00 -5.72555e-02 -1.59060e+00 
-1.75202e+00 -5.31999e-02 -1.68537e+00 
-1.66521e+00 -4.84979e-02 -1.77791e+00 
-1.58201e+00 -4.32761e-02 -1.86805e+00 
-1.50224e+00 -3.76912e-02 -1.95555e+00 
-1.42572e+00 -3.18623e-02 -2.04032e+00 
-1.35226e+00 -2.59306e-02 -2.12219e+00 
-1.28168e+00 -1.99972e-02 -2.20110e+00 
-1.21377e+00 -1.41805e-02 -2.27695e+00 
-1.14838e+00 -8.55919e-03 -2.34972e+00 
-1.08530e+00 -3.22645e-03 -2.41933e+00 
-1.02438e+00  1.76226e-03 -2.48580e+00 
-9.65441e-01  6.33869e-03 -2.54909e+00 
-9.08352e-01  1.04692e-02 -2.60922e+00 
-8.52946e-01  1.41084e-02 -2.66616e+00 
-7.99103e-01  1.72419e-02 -2.71996e+00 
-7.46679e-01  1.98440e-02 -2.77060e+00 
-6.95567e-01  2.19171e-02 -2.81812e+00 
-6.45639e-01  2.34520e-02 -2.86253e+00 
-5.96802e-01  2.44648e-02 -2.90386e+00 
-5.48940e-01  2.49600e-02 -2.94212e+00 
-5.01974e-01  2.49648e-02 -2.97734e+00 
-4.55798e-01  2.44947e-02 -3.00954e+00 
-4.10344e-01  2.35854e-02 -3.03874e+00 
-3.65516e-01  2.22611e-02 -3.06496e+00 
-3.21252e-01  2.05643e-02 -3.08822e+00 
-2.77463e-01  1.85257e-02 -3.10853e+00 
-2.34095e-01  1.61928e-02 -3.12592e+00 
-1.91066e-01  1.36011e-02 -3.14038e+00 
-1.48323e-01  1.08017e-02 -3.15194e+00 
-1.05789e-01  7.83325e-03 -3.16061e+00 
-6.34158e-02  4.74915e-03 -3.16638e+00 
-2.11268e-02  1.58997e-03 -3.16926e+00 
 2.11268e-02 -1.58997e-03 -3.16926e+00 
 6.34158e-02 -4.74915e-03 -3.16638e+00 
 1.05789e-01 -7.83325e-03 -3.16061e+00 
 1.48323e-01 -1.08017e-02 -3.15194e+00 
 1.91066e-01 -1.36011e-02 -3.14038e+00 
 2.34095e-01 -1.61928e-02 -3.12592e+00 
 2.77463e-01 -1.85257e-02 -3.10853e+00 
 3.21252e-01 -2.05643e-02 -3.08822e+00 
 3.65516e-01 -2.22611e-02 -3.06496e+00 
 4.10344e-01 -2.35854e-02 -3.03874e+00 
 4.55798e-01 -2.44947e-02 -3.00954e+00 
 5.01974e-01 -2.49648e-02 -2.97734e+00 
 5.48940e-01 -2.49600e-02 -2.94212e+00 
 5.96802e-01 -2.44648e-02 -2.90386e+00 
 6.45639e-01 -2.34520e-02 -2.86253e+00 
 6.95567e-01 -2.19171e-02 -2.81812e+00 
 7.46679e-01 -1.98440e-02 -2.77060e+00 
 7.99103e-01 -1.72419e-02 -2.71996e+00 
 8.52946e-01 -1.41084e-02 -2.66616e+00 
 9.08352e-01 -1.04692e-02 -2.60922e+00 
 9.65441e-01 -6.33869e-03 -2.54909e+00 
 1.02438e+00 -1.76226e-03 -2.48580e+00 
 1.08530e+00  3.22645e-03 -2.41933e+00 
 1.14838e+00  8.55919e-03 -2.34972e+00 
 1.21377e+00  1.41805e-02 -2.27695e+00 
 1.28168e+00  1.99972e-02 -2.20110e+00 
 1.35226e+00  2.59306e-02 -2.12219e+00 
 1.42572e+00  3.18623e-02 -2.04032e+00 
 1.50224e+00  3.76912e-02 -1.95555e+00 
 1.58201e+00  4.32761e-02 -1.86805e+00 
 1.66521e+00  4.84979e-02 -1.77791e+00 
 1.75202e+00  5.31999e-02 -1.68537e+00 
 1.84259e+00  5.72555e-02 -1.59060e+00 
 1.93706e+00  6.05057e-02 -1.49390e+00 
 2.03551e+00  6.28339e-02 -1.39552e+00 
 2.13803e+00  6.41008e-02 -1.29583e+00 
 2.24459e+00  6.42250e-02 -1.19519e+00 
 2.35514e+00  6.31164e-02 -1.09403e+00 
 2.46952e+00  6.07615e-02 -9.92778e-01 
 2.58752e+00  5.71537e-02 -8.91935e-01 
 2.70878e+00  5.23822e-02 -7.91957e-01 
 2.83287e+00  4.65574e-02 -6.93373e-01 
 2.95918e+00  3.98999e-02 -5.96629e-01 
 3.08708e+00  3.26602e-02 -5.02210e-01 
 3.21570e+00  2.52034e-02 -4.10487e-01 
 3.34417e+00  1.79222e-02 -3.21829e-01 
 3.47141e+00  1.13151e-02 -2.36451e-01 
 3.59635e+00  5.89212e-03 -1.54529e-01 
 3.71777e+00  2.23468e-03 -7.60474e-02 
 3.82703e+00 -1.53744e-02 -3.98560e-02 
-3.68607e+00  1.63890e-02 -3.69523e-02 
-3.56929e+00 -2.44764e-03 -7.08890e-02 
-3.43951e+00 -6.38461e-03 -1.45164e-01 
-3.30620e+00 -1.20977e-02 -2.24202e-01 
-3.17089e+00 -1.88701e-02 -3.07932e-01 
-3.03492e+00 -2.60783e-02 -3.96059e-01 
-2.89956e+00 -3.31343e-02 -4.88216e-01 
-2.76587e+00 -3.95875e-02 -5.83870e-01 
-2.63481e+00 -4.50416e-02 -6.82478e-01 
-2.50712e+00 -4.92454e-02 -7.83381e-01 
-2.38342e+00 -5.19995e-02 -8.85970e-01 
-2.26410e+00 -5.32369e-02 -9.89566e-01 
-2.14951e+00 -5.29251e-02 -1.09359e+00 
-2.03978e+00 -5.11392e-02 -1.19741e+00 
-1.93498e+00 -4.79649e-02 -1.30054e+00 
-1.83507e+00 -4.35668e-02 -1.40246e+00 
-1.73998e+00 -3.80972e-02 -1.50278e+00 
-1.64951e+00 -3.17620e-02 -1.60110e+00 
-1.56350e+00 -2.47371e-02 -1.69716e+00 
-1.48170e+00 -1.72329e-02 -1.79065e+00 
-1.40390e+00 -9.41914e-03 -1.88141e+00 
-1.32982e+00 -1.48706e-03 -1.96924e+00 
-1.25924e+00  6.41719e-03 -2.05405e+00 
-1.19190e+00  1.41337e-02 -2.13571e+00 
-1.12757e+00  2.15476e-02 -2.21417e+00 
-1.06601e+00  2.85344e-02 -2.28938e+00 
-1.00701e+00  3.50122e-02 -2.36133e+00 
-9.50364e-01  4.08910e-02 -2.42999e+00 
-8.95881e-01  4.61194e-02 -2.49539e+00 
-8.43370e-01  5.06386e-02 -2.55752e+00 
-7.92678e-01  5.44239e-02 -2.61641e+00 
-7.43633e-01  5.74430e-02 -2.67208e+00 
-6.96106e-01  5.96936e-02 -2.72458e+00 
-6.49948e-01  6.11652e-02 -2.77391e+00 
-6.05047e-01  6.18734e-02 -2.82013e+00 
-5.61275e-01  6.18257e-02 -2.86327e+00 
-5.18538e-01  6.10516e-02 -2.90336e+00 
-4.76722e-01  5.95726e-02 -2.94042e+00 
-4.35747e-01  5.74292e-02 -2.97451e+00 
-3.95514e-01  5.46537e-02 -3.00564e+00 
-3.55952e-01  5.12950e-02 -3.03385e+00 
-3.16973e-01  4.73936e-02 -3.05916e+00 
-2.78517e-01  4.30044e-02 -3.08160e+00 
-2.40502e-01  3.81743e-02 -3.10118e+00 
-2.02874e-01  3.29627e-02 -3.11793e+00 
-1.65559e-01  2.74207e-02 -3.13186e+00 
-1.28507e-01  2.16108e-02 -3.14299e+00 
-9.16478e-02  1.55871e-02 -3.15133e+00 
-5.49357e-02  9.41410e-03 -3.15688e+00 
-1.83009e-02  3.14751e-03 -3.15966e+00 
 1.83009e-02 -3.14751e-03 -3.15966e+00 
 5.49357e-02 -9.41410e-03 -3.15688e+00 
 9.16478e-02 -1.55871e-02 -3.15133e+00 
 1.28507e-01 -2.16108e-02 -3.14299e+00 
 1.65559e-01 -2.74207e-02 -3.13186e+00 
 2.02874e-01 -3.29627e-02 -3.11793e+00 
 2.40502e-01 -3.81743e-02 -3.10118e+00 
 2.78517e-01 -4.30044e-02 -3.08160e+00 
 3.16973e-01 -4.73936e-02 -3.05916e+00 
 3.55952e-01 -5.12950e-02 -3.03385e+00 
 3.95514e-01 -5.46537e-02 -3.00564e+00 
 4.35747e-01 -5.74292e-02 -2.97451e+00 
 4.76722e-01 -5.95726e-02 -2.94042e+00 
 5.18538e-01 -6.10516e-02 -2.90336e+00 
 5.61275e-01 -6.18257e-02 -2.86327e+00 
 6.05047e-01 -6.18734e-02 -2.82013e+00 
 6.49948e-01 -6.11652e-02 -2.77391e+00 
 6.96106e-01 -5.96936e-02 -2.72458e+00 
 7.43633e-01 -5.74430e-02 -2.67208e+00 
 7.92678e-01 -5.44239e-02 -2.61641e+00 
 8.43370e-01 -5.06386e-02 -2.55752e+00 
 8.95881e-01 -4.61194e-02 -2.49539e+00 
 9.50364e-01 -4.08910e-02 -2.42999e+00 
 1.00701e+00 -3.50122e-02 -2.36133e+00 
 1.06601e+00 -2.85344e-02 -2.28938e+00 
 1.12757e+00 -2.15476e-02 -2.21417e+00 
 1.19190e+00 -1.41337e-02 -2.13571e+00 
 1.25924e+00 -6.41719e-03 -2.05405e+00 
 1.32982e+00  1.48706e-03 -1.96924e+00 
 1.40390e+00  9.41914e-03 -1.88141e+00 
 1.48170e+00  1.72329e-02 -1.79065e+00 
 1.56350e+00  2.47371e-02 -1.69716e+00 
 1.64951e+00  3.17620e-02 -1.60110e+00 
 1.73998e+00  3.80972e-02 -1.50278e+00 
 1.83507e+00  4.35668e-02 -1.40246e+00 
 1.93498e+00  4.79649e-02 -1.30054e+00 
 2.03978e+00  5.11392e-02 -1.19741e+00 
 2.14951e+00  5.29251e-02 -1.09359e+00 
 2.26410e+00  5.32369e-02 -9.89566e-01 
 2.38342e+00  5.19995e-02 -8.85970e-01 
 2.50712e+00  4.92454e-02 -7.83381e-01 
 2.63481e+00  4.50416e-02 -6.82478e-01 
 2.76587e+00  3.95875e-02 -5.83870e-01 
 2.89956e+00  3.31343e-02 -4.88216e-01 
 3.03492e+00  2.60783e-02 -3.96059e-01 
 3.17089e+00  1.88701e-02 -3.07932e-01 
 3.30620e+00  1.20977e-02 -2.24202e-01 
 3.43951e+00  6.38461e-03 -1.45164e-01 
 3.56929e+00  2.44764e-03 -7.08890e-02 
 3.68607e+00 -1.63890e-02 -3.69523e-02 
-3.55812e+00  1.78540e-02 -3.38078e-02 
-3.43085e+00 -2.66084e-03 -6.53630e-02 
-3.28959e+00 -6.83987e-03 -1.35318e-01 
-3.14498e+00 -1.27215e-02 -2.11701e-01 
-2.99896e+00 -1.94124e-02 -2.94301e-01 
-2.85317e+00 -2.61476e-02 -3.82636e-01 
-2.70919e+00 -3.22350e-02 -4.76123e-01 
-2.56823e+00 -3.71679e-02 -5.73986e-01 
-2.43141e+00 -4.05330e-02 -6.75440e-01 
-2.29947e+00 -4.21044e-02 -7.79589e-01 
-2.17305e+00 -4.17371e-02 -8.85611e-01 
-2.05247e+00 -3.94459e-02 -9.92639e-01 
-1.93797e+00 -3.52937e-02 -1.09994e+00 
-1.82954e+00 -2.94607e-02 -1.20676e+00 
-1.72715e+00 -2.21374e-02 -1.31253e+00 
-1.63058e+00 -1.35897e-02 -1.41667e+00 
-1.53962e+00 -4.06176e-03 -1.51877e+00 
-1.45395e+00  6.15969e-03 -1.61841e+00 
-1.37327e+00  1.68306e-02 -1.71533e+00 
-1.29724e+00  2.76857e-02 -1.80926e+00 
-1.22552e+00  3.85124e-02 -1.90006e+00 
-1.15778e+00  4.90890e-02 -1.98757e+00 
-1.09371e+00  5.92481e-02 -2.07174e+00 
-1.03298e+00  6.88189e-02 -2.15248e+00 
-9.75333e-01  7.76815e-02 -2.22979e+00 
-9.20475e-01  8.57147e-02 -2.30364e+00 
-8.68175e-01  9.28425e-02 -2.37407e+00 
-8.18189e-01  9.89871e-02 -2.44109e+00 
-7.70318e-01  1.04110e-01 -2.50475e+00 
-7.24356e-01  1.08169e-01 -2.56508e+00 
-6.80138e-01  1.11157e-01 -2.62213e+00 
-6.37489e-01  1.13061e-01 -2.67595e+00 
-5.96273e-01  1.13897e-01 -2.72660e+00 
-5.56342e-01  1.13675e-01 -2.77412e+00 
-5.17583e-01  1.12428e-01 -2.81856e+00 
-4.79871e-01  1.10184e-01 -2.85998e+00 
-4.43114e-01  1.06991e-01 -2.89842e+00 
-4.07202e-01  1.02890e-01 -2.93392e+00 
-3.72060e-01  9.79371e-02 -2.96653e+00 
-3.37593e-01  9.21841e-02 -2.99628e+00 
-3.03736e-01  8.56946e-02 -3.02322e+00 
-2.70405e-01  7.85275e-02 -3.04737e+00 
-2.37547e-01  7.07513e-02 -3.06877e+00 
-2.05085e-01  6.24304e-02 -3.08743e+00 
-1.72972e-01  5.36367e-02 -3.10338e+00 
-1.41138e-01  4.44382e-02 -3.11665e+00 
-1.09541e-01  3.49093e-02 -3.12724e+00 
-7.81154e-02  2.51203e-02 -3.13517e+00 
-4.68221e-02  1.51471e-02 -3.14046e+00 
-1.55974e-02  5.06116e-03 -3.14310e+00 
 1.55974e-02 -5.06116e-03 -3.14310e+00 
 4.68221e-02 -1.51471e-02 -3.14046e+00 
 7.81154e-02 -2.51203e-02 -3.13517e+00 
 1.09541e-01 -3.49093e-02 -3.12724e+00 
 1.41138e-01 -4.44382e-02 -3.11665e+00 
 1.72972e-01 -5.36367e-02 -3.10338e+00 
 2.05085e-01 -6.24304e-02 -3.08743e+00 
 2.37547e-01 -7.07513e-02 -3.06877e+00 
 2.70405e-01 -7.85275e-02 -3.04737e+00 
 3.03736e-01 -8.56946e-02 -3.02322e+00 
 3.37593e-01 -9.21841e-02 -2.99628e+00 
 3.72060e-01 -9.79371e-02 -2.96653e+00 
 4.07202e-01 -1.02890e-01 -2.93392e+00 
 4.43114e-01 -1.06991e-01 -2.89842e+00 
 4.79871e-01 -1.10184e-01 -2.85998e+00 
 5.17583e-01 -1.12428e-01 -2.81856e+00 
 5.56342e-01 -1.13675e-01 -2.77412e+00 
 5.96273e-01 -1.13897e-01 -2.72660e+00 
 6.37489e-01 -1.13061e-01 -2.67595e+00 
 6.80138e-01 -1.11157e-01 -2.62213e+00 
 7.24356e-01 -1.08169e-01 -2.56508e+00 
 7.70318e-01 -1.04110e-01 -2.50475e+00 
 8.18189e-01 -9.89871e-02 -2.44109e+00 
 8.68175e-01 -9.28425e-02 -2.37407e+00 
 9.20475e-01 -8.57147e-02 -2.30364e+00 
 9.75333e-01 -7.76815e-02 -2.22979e+00 
 1.03298e+00 -6.88189e-02 -2.15248e+00 
 1.09371e+00 -5.92481e-02 -2.07174e+00 
 1.15778e+00 -4.90890e-02 -1.98757e+00 
 1.22552e+00 -3.85124e-02 -1.90006e+00 
 1.29724e+00 -2.76857e-02 -1.80926e+00 
 1.37327e+00 -1.68306e-02 -1.71533e+00 
 1.45395e+00 -6.15969e-03 -1.61841e+00 
 1.53962e+00  4.06176e-03 -1.51877e+00 
 1.63058e+00  1.35897e-02 -1.41667e+00 
 1.72715e+00  2.21374e-02 -1.31253e+00 
 1.82954e+00  2.94607e-02 -1.20676e+00 
 1.93797e+00  3.52937e-02 -1.09994e+00 
 2.05247e+00  3.94459e-02 -9.92639e-01 
 2.17305e+00  4.17371e-02 -8.85611e-01 
 2.29947e+00  4.21044e-02 -7.79589e-01 
 2.43141e+00  4.05330e-02 -6.75440e-01 
 2.56823e+00  3.71679e-02 -5.73986e-01 
 2.70919e+00  3.22350e-02 -4.76123e-01 
 2.85317e+00  2.61476e-02 -3.82636e-01 
 2.99896e+00  1.94124e-02 -2.94301e-01 
 3.14498e+00  1.27215e-02 -2.11701e-01 
 3.28959e+00  6.83987e-03 -1.35318e-01 
 3.43085e+00  2.66084e-03 -6.53630e-02 
 3.55812e+00 -1.78540e-02 -3.38078e-02 
-3.44451e+00  1.99072e-02 -3.04432e-02 
-3.30291e+00 -2.86329e-03 -5.95396e-02 
-3.14618e+00 -7.20825e-03 -1.25224e-01 
-2.98659e+00 -1.30448e-02 -1.99455e-01 
-2.82661e+00 -1.92456e-02 -2.81803e-01 
-2.66832e+00 -2.48691e-02 -3.71496e-01 
-2.51361e+00 -2.91074e-02 -4.67615e-01 
-2.36391e+00 -3.14112e-02 -5.69034e-01 
-2.22042e+00 -3.13834e-02 -6.74624e-01 
-2.08389e+00 -2.88726e-02 -7.83167e-01 
-1.95484e+00 -2.38458e-02 -8.93569e-01 
-1.83346e+00 -1.64599e-02 -1.00473e+00 
-1.71979e+00 -6.92992e-03 -1.11576e+00 
-1.61361e+00  4.40793e-03 -1.22577e+00 
-1.51466e+00  1.72186e-02 -1.33413e+00 
-1.42253e+00  3.11049e-02 -1.44023e+00 
-1.33680e+00  4.57121e-02 -1.54364e+00 
-1.25699e+00  6.06627e-02 -1.64399e+00 
-1.18263e+00  7.56427e-02 -1.74105e+00 
-1.11326e+00  9.03363e-02 -1.83460e+00 
-1.04844e+00  1.04497e-01 -1.92457e+00 
-9.87729e-01  1.17884e-01 -2.01085e+00 
-9.30759e-01  1.30323e-01 -2.09345e+00 
-8.77152e-01  1.41646e-01 -2.17234e+00 
-8.26590e-01  1.51744e-01 -2.24758e+00 
-7.78758e-01  1.60511e-01 -2.31918e+00 
-7.33397e-01  1.67891e-01 -2.38724e+00 
-6.90247e-01  1.73831e-01 -2.45179e+00 
-6.49097e-01  1.78316e-01 -2.51294e+00 
-6.09735e-01  1.81331e-01 -2.57072e+00 
-5.71993e-01  1.82894e-01 -2.62525e+00 
-5.35695e-01  1.83019e-01 -2.67657e+00 
-5.00708e-01  1.81746e-01 -2.72477e+00 
-4.66887e-01  1.79112e-01 -2.76991e+00 
-4.34126e-01  1.75174e-01 -2.81206e+00 
-4.02303e-01  1.69983e-01 -2.85128e+00 
-3.71333e-01  1.63607e-01 -2.88764e+00 
-3.41114e-01  1.56110e-01 -2.92118e+00 
-3.11577e-01  1.47568e-01 -2.95195e+00 
-2.82634e-01  1.38052e-01 -2.98001e+00 
-2.54228e-01  1.27643e-01 -3.00538e+00 
-2.26284e-01  1.16419e-01 -3.02811e+00 
-1.98752e-01  1.04462e-01 -3.04824e+00 
-1.71566e-01  9.18559e-02 -3.06579e+00 
-1.44684e-01  7.86851e-02 -3.08078e+00 
-1.18044e-01  6.50348e-02 -3.09324e+00 
-9.16107e-02  5.09915e-02 -3.10319e+00 
-6.53248e-02  3.66417e-02 -3.11064e+00 
-3.91544e-02  2.20729e-02 -3.11560e+00 
-1.30425e-02  7.37250e-03 -3.11808e+00 
 1.30425e-02 -7.37250e-03 -3.11808e+00 
 3.91544e-02 -2.20729e-02 -3.11560e+00 
 6.53248e-02 -3.66417e-02 -3.11064e+00 
 9.16107e-02 -5.09915e-02 -3.10319e+00 
 1.18044e-01 -6.50348e-02 -3.09324e+00 
 1.44684e-01 -7.86851e-02 -3.08078e+00 
 1.71566e-01 -9.18559e-02 -3.06579e+00 
 1.98752e-01 -1.04462e-01 -3.04824e+00 
 2.26284e-01 -1.16419e-01 -3.02811e+00 
 2.54228e-01 -1.27643e-01 -3.00538e+00 
 2.82634e-01 -1.38052e-01 -2.98001e+00 
 3.11577e-01 -1.47568e-01 -2.95195e+00 
 3.41114e-01 -1.56110e-01 -2.92118e+00 
 3.71333e-01 -1.63607e-01 -2.88764e+00 
 4.02303e-01 -1.69983e-01 -2.85128e+00 
 4.34126e-01 -1.75174e-01 -2.81206e+00 
 4.66887e-01 -1.79112e-01 -2.76991e+00 
 5.00708e-01 -1.81746e-01 -2.72477e+00 
 5.35695e-01 -1.83019e-01 -2.67657e+00 
 5.71993e-01 -1.82894e-01 -2.62525e+00 
 6.09735e-01 -1.81331e-01 -2.57072e+00 
 6.49097e-01 -1.78316e-01 -2.51294e+00 
 6.90247e-01 -1.73831e-01 -2.45179e+00 
 7.33397e-01 -1.67891e-01 -2.38724e+00 
 7.78758e-01 -1.60511e-01 -2.31918e+00 
 8.26590e-01 -1.51744e-01 -2.24758e+00 
 8.77152e-01 -1.41646e-01 -2.17234e+00 
 9.30759e-01 -1.30323e-01 -2.09345e+00 
 9.87729e-01 -1.17884e-01 -2.01085e+00 
 1.04844e+00 -1.04497e-01 -1.92457e+00 
 1.11326e+00 -9.03363e-02 -1.83460e+00 
 1.18263e+00 -7.56427e-02 -1.74105e+00 
 1.25699e+00 -6.06627e-02 -1.64399e+00 
 1.33680e+00 -4.57121e-02 -1.54364e+00 
 1.42253e+00 -3.11049e-02 -1.44023e+00 
 1.51466e+00 -1.72186e-02 -1.33413e+00 
 1.61361e+00 -4.40793e-03 -1.22577e+00 
 1.71979e+00  6.92992e-03 -1.11576e+00 
 1.83346e+00  1.64599e-02 -1.00473e+00 
 1.95484e+00  2.38458e-02 -8.93569e-01 
 2.08389e+00  2.88726e-02 -7.83167e-01 
 2.22042e+00  3.13834e-02 -6.74624e-01 
 2.36391e+00  3.14112e-02 -5.69034e-01 
 2.51361e+00  2.91074e-02 -4.67615e-01 
 2.66832e+00  2.48691e-02 -3.71496e-01 
 2.82661e+00  1.92456e-02 -2.81803e-01 
 2.98659e+00  1.30448e-02 -1.99455e-01 
 3.14618e+00  7.20825e-03 -1.25224e-01 
 3.30291e+00  2.86329e-03 -5.95396e-02 
 3.44451e+00 -1.99072e-02 -3.04432e-02 
-3.34665e+00  2.27435e-02 -2.69068e-02 
-3.18565e+00 -3.03509e-03 -5.35582e-02 
-3.00825e+00 -7.40419e-03 -1.15297e-01 
-2.82899e+00 -1.28260e-02 -1.88328e-01 
-2.65106e+00 -1.78586e-02 -2.71858e-01 
-2.47714e+00 -2.13426e-02 -3.64653e-01 
-2.30949e+00 -2.23534e-02 -4.65281e-01 
-2.14973e+00 -2.03403e-02 -5.72090e-01 
-1.99907e+00 -1.49925e-02 -6.83464e-01 
-1.85813e+00 -6.32456e-03 -7.97758e-01 
-1.72719e+00  5.48824e-03 -9.13535e-01 
-1.60614e+00  2.00530e-02 -1.02944e+00 
-1.49468e+00  3.69228e-02 -1.14442e+00 
-1.39228e+00  5.55430e-02 -1.25750e+00 
-1.29834e+00  7.53906e-02 -1.36801e+00 
-1.21216e+00  9.59126e-02 -1.47536e+00 
-1.13310e+00  1.16635e-01 -1.57920e+00 
-1.06044e+00  1.37092e-01 -1.67922e+00 
-9.93564e-01  1.56913e-01 -1.77528e+00 
-9.31858e-01  1.75752e-01 -1.86726e+00 
-8.74780e-01  1.93348e-01 -1.95517e+00 
-8.21815e-01  2.09467e-01 -2.03899e+00 
-7.72521e-01  2.23950e-01 -2.11882e+00 
-7.26479e-01  2.36656e-01 -2.19469e+00 
-6.83339e-01  2.47504e-01 -2.26673e+00 
-6.42768e-01  2.56427e-01 -2.33503e+00 
-6.04492e-01  2.63404e-01 -2.39971e+00 
-5.68247e-01  2.68421e-01 -2.46085e+00 
-5.33821e-01  2.71499e-01 -2.51860e+00 
-5.01004e-01  2.72662e-01 -2.57303e+00 
-4.69633e-01  2.71960e-01 -2.62426e+00 
-4.39541e-01  2.69445e-01 -2.67238e+00 
-4.10602e-01  2.65185e-01 -2.71749e+00 
-3.82680e-01  2.59250e-01 -2.75966e+00 
-3.55679e-01  2.51721e-01 -2.79899e+00 
-3.29488e-01  2.42680e-01 -2.83552e+00 
-3.04030e-01  2.32217e-01 -2.86935e+00 
-2.79214e-01  2.20421e-01 -2.90052e+00 
-2.54979e-01  2.07385e-01 -2.92910e+00 
-2.31248e-01  1.93206e-01 -2.95512e+00 
-2.07974e-01  1.77979e-01 -2.97864e+00 
-1.85087e-01  1.61802e-01 -2.99970e+00 
-1.62549e-01  1.44774e-01 -3.01834e+00 
-1.40301e-01  1.26995e-01 -3.03458e+00 
-1.18309e-01  1.08562e-01 -3.04845e+00 
-9.65184e-02  8.95776e-02 -3.05997e+00 
-7.49021e-02  7.01402e-02 -3.06917e+00 
-5.34079e-02  5.03522e-02 -3.07605e+00 
-3.20114e-02  3.03116e-02 -3.08064e+00 
-1.06626e-02  1.01214e-02 -3.08293e+00 
 1.06626e-02 -1.01214e-02 -3.08293e+00 
 3.20114e-02 -3.03116e-02 -3.08064e+00 
 5.34079e-02 -5.03522e-02 -3.07605e+00 
 7.49021e-02 -7.01402e-02 -3.06917e+00 
 9.65184e-02 -8.95776e-02 -3.05997e+00 
 1.18309e-01 -1.08562e-01 -3.04845e+00 
 1.40301e-01 -1.26995e-01 -3.03458e+00 
 1.62549e-01 -1.44774e-01 -3.01834e+00 
 1.85087e-01 -1.61802e-01 -2.99970e+00 
 2.07974e-01 -1.77979e-01 -2.97864e+00 
 2.31248e-01 -1.93206e-01 -2.95512e+00 
 2.54979e-01 -2.07385e-01 -2.92910e+00 
 2.79214e-01 -2.20421e-01 -2.90052e+00 
 3.04030e-01 -2.32217e-01 -2.86935e+00 
 3.29488e-01 -2.42680e-01 -2.83552e+00 
 3.55679e-01 -2.51721e-01 -2.79899e+00 
 3.82680e-01 -2.59250e-01 -2.75966e+00 
 4.10602e-01 -2.65185e-01 -2.71749e+00 
 4.39541e-01 -2.69445e-01 -2.67238e+00 
 4.69633e-01 -2.71960e-01 -2.62426e+00 
 5.01004e-01 -2.72662e-01 -2.57303e+00 
 5.33821e-01 -2.71499e-01 -2.51860e+00 
 5.68247e-01 -2.68421e-01 -2.46085e+00 
 6.04492e-01 -2.63404e-01 -2.39971e+00 
 6.42768e-01 -2.56427e-01 -2.33503e+00 
 6.83339e-01 -2.47504e-01 -2.26673e+00 
 7.26479e-01 -2.36656e-01 -2.19469e+00 
 7.72521e-01 -2.23950e-01 -2.11882e+00 
 8.21815e-01 -2.09467e-01 -2.03899e+00 
 8.74780e-01 -1.93348e-01 -1.95517e+00 
 9.31858e-01 -1.75752e-01 -1.86726e+00 
 9.93564e-01 -1.56913e-01 -1.77528e+00 
 1.06044e+00 -1.37092e-01 -1.67922e+00 
 1.13310e+00 -1.16635e-01 -1.57920e+00 
 1.21216e+00 -9.59126e-02 -1.47536e+00 
 1.29834e+00 -7.53906e-02 -1.36801e+00 
 1.39228e+00 -5.55430e-02 -1.25750e+00 
 1.49468e+00 -3.69228e-02 -1.14442e+00 
 1.60614e+00 -2.00530e-02 -1.02944e+00 
 1.72719e+00 -5.48824e-03 -9.13535e-01 
 1.85813e+00  6.32456e-03 -7.97758e-01 
 1.99907e+00  1.49925e-02 -6.83464e-01 
 2.14973e+00  2.03403e-02 -5.72090e-01 
 2.30949e+00  2.23534e-02 -4.65281e-01 
 2.47714e+00  2.13426e-02 -3.64653e-01 
 2.65106e+00  1.78586e-02 -2.71858e-01 
 2.82899e+00  1.28260e-02 -1.88328e-01 
 3.00825e+00  7.40419e-03 -1.15297e-01 
 3.18565e+00  3.03509e-03 -5.35582e-02 
 3.34665e+00 -2.27435e-02 -2.69068e-02 
-3.26598e+00  2.66588e-02 -2.32981e-02 
-3.07871e+00 -3.14235e-03 -4.76794e-02 
-2.87370e+00 -7.27248e-03 -1.06275e-01 
-2.66869e+00 -1.16353e-02 -1.79789e-01 
-2.46797e+00 -1.43559e-02 -2.66813e-01 
-2.27493e+00 -1.40139e-02 -3.65349e-01 
-2.09224e+00 -9.60501e-03 -4.73154e-01 
-1.92163e+00 -6.76777e-04 -5.87788e-01 
-1.76410e+00  1.28496e-02 -7.06948e-01 
-1.61991e+00  3.06291e-02 -8.28437e-01 
-1.48884e+00  5.21192e-02 -9.50429e-01 
-1.37024e+00  7.65555e-02 -1.07133e+00 
-1.26326e+00  1.03158e-01 -1.18997e+00 
-1.16687e+00  1.31091e-01 -1.30538e+00 
-1.08007e+00  1.59612e-01 -1.41696e+00 
-1.00180e+00  1.88011e-01 -1.52424e+00 
-9.31112e-01  2.15712e-01 -1.62699e+00 
-8.67092e-01  2.42192e-01 -1.72506e+00 
-8.08940e-01  2.67063e-01 -1.81846e+00 
-7.55917e-01  2.89985e-01 -1.90720e+00 
-7.07391e-01  3.10728e-01 -1.99143e+00 
-6.62787e-01  3.29101e-01 -2.07124e+00 
-6.21622e-01  3.44994e-01 -2.14680e+00 
-5.83456e-01  3.58325e-01 -2.21826e+00 
-5.47925e-01  3.69070e-01 -2.28581e+00 
-5.14696e-01  3.77220e-01 -2.34958e+00 
-4.83498e-01  3.82809e-01 -2.40976e+00 
-4.54077e-01  3.85878e-01 -2.46646e+00 
-4.26230e-01  3.86496e-01 -2.51987e+00 
-3.99765e-01  3.84737e-01 -2.57008e+00 
-3.74529e-01  3.80692e-01 -2.61724e+00 
-3.50373e-01  3.74454e-01 -2.66144e+00 
-3.27183e-01  3.66126e-01 -2.70280e+00 
-3.04840e-01  3.55814e-01 -2.74141e+00 
-2.83260e-01  3.43627e-01 -2.77737e+00 
-2.62347e-01  3.29678e-01 -2.81074e+00 
-2.42036e-01  3.14079e-01 -2.84160e+00 
-2.22249e-01  2.96947e-01 -2.87001e+00 
-2.02937e-01  2.78393e-01 -2.89603e+00 
-1.84033e-01  2.58535e-01 -2.91972e+00 
-1.65499e-01  2.37486e-01 -2.94111e+00 
-1.47277e-01  2.15364e-01 -2.96026e+00 
-1.29339e-01  1.92279e-01 -2.97719e+00 
-1.11631e-01  1.68350e-01 -2.99194e+00 
-9.41312e-02  1.43686e-01 -3.00453e+00 
-7.67915e-02  1.18405e-01 -3.01499e+00 
-5.95930e-02  9.26159e-02 -3.02334e+00 
-4.24908e-02  6.64362e-02 -3.02959e+00 
-2.54684e-02  3.99731e-02 -3.03375e+00 
-8.48262e-03  1.33444e-02 -3.03583e+00 
 8.48262e-03 -1.33444e-02 -3.03583e+00 
 2.54684e-02 -3.99731e-02 -3.03375e+00 
 4.24908e-02 -6.64362e-02 -3.02959e+00 
 5.95930e-02 -9.26159e-02 -3.02334e+00 
 7.67915e-02 -1.18405e-01 -3.01499e+00 
 9.41312e-02 -1.43686e-01 -3.00453e+00 
 1.11631e-01 -1.68350e-01 -2.99194e+00 
 1.29339e-01 -1.92279e-01 -2.97719e+00 
 1.47277e-01 -2.15364e-01 -2.96026e+00 
 1.65499e-01 -2.37486e-01 -2.94111e+00 
 1.84033e-01 -2.58535e-01 -2.91972e+00 
 2.02937e-01 -2.78393e-01 -2.89603e+00 
 2.22249e-01 -2.96947e-01 -2.87001e+00 
 2.42036e-01 -3.14079e-01 -2.84160e+00 
 2.62347e-01 -3.29678e-01 -2.81074e+00 
 2.83260e-01 -3.43627e-01 -2.77737e+00 
 3.04840e-01 -3.55814e-01 -2.74141e+00 
 3.27183e-01 -3.66126e-01 -2.70280e+00 
 3.50373e-01 -3.74454e-01 -2.66144e+00 
 3.74529e-01 -3.80692e-01 -2.61724e+00 
 3.99765e-01 -3.84737e-01 -2.57008e+00 
 4.26230e-01 -3.86496e-01 -2.51987e+00 
 4.54077e-01 -3.85878e-01 -2.46646e+00 
 4.83498e-01 -3.82809e-01 -2.40976e+00 
 5.14696e-01 -3.77220e-01 -2.34958e+00 
 5.47925e-01 -3.69070e-01 -2.28581e+00 
 5.83456e-01 -3.58325e-01 -2.21826e+00 
 6.21622e-01 -3.44994e-01 -2.14680e+00 
 6.62787e-01 -3.29101e-01 -2.07124e+00 
 7.07391e-01 -3.10728e-01 -1.99143e+00 
 7.55917e-01 -2.89985e-01 -1.90720e+00 
 8.08940e-01 -2.67063e-01 -1.81846e+00 
 8.67092e-01 -2.42192e-01 -1.72506e+00 
 9.31112e-01 -2.15712e-01 -1.62699e+00 
 1.00180e+00 -1.88011e-01 -1.52424e+00 
 1.08007e+00 -1.59612e-01 -1.41696e+00 
 1.16687e+00 -1.31091e-01 -1.30538e+00 
 1.26326e+00 -1.03158e-01 -1.18997e+00 
 1.37024e+00 -7.65555e-02 -1.07133e+00 
 1.48884e+00 -5.21192e-02 -9.50429e-01 
 1.61991e+00 -3.06291e-02 -8.28437e-01 
 1.76410e+00 -1.28496e-02 -7.06948e-01 
 1.92163e+00  6.76777e-04 -5.87788e-01 
 2.09224e+00  9.60501e-03 -4.73154e-01 
 2.27493e+00  1.40139e-02 -3.65349e-01 
 2.46797e+00  1.43559e-02 -2.66813e-01 
 2.66869e+00  1.16353e-02 -1.79789e-01 
 2.87370e+00  7.27248e-03 -1.06275e-01 
 3.07871e+00  3.14235e-03 -4.76794e-02 
 3.26598e+00 -2.66588e-02 -2.32981e-02 
-3.20388e+00  3.20780e-02 -1.98096e-02 
-2.98073e+00 -3.10591e-03 -4.24044e-02 
-2.73856e+00 -6.52225e-03 -9.94958e-02 
-2.49990e+00 -8.66681e-03 -1.76422e-01 
-2.27051e+00 -7.07872e-03 -2.70656e-01 
-2.05477e+00 -7.30109e-05 -3.78905e-01 
-1.85566e+00  1.33222e-02 -4.97609e-01 
-1.67467e+00  3.32102e-02 -6.23138e-01 
-1.51219e+00  5.91512e-02 -7.52258e-01 
-1.36759e+00  9.01783e-02 -8.82123e-01 
-1.23969e+00  1.25138e-01 -1.01056e+00 
-1.12696e+00  1.62723e-01 -1.13585e+00 
-1.02775e+00  2.01727e-01 -1.25689e+00 
-9.40408e-01  2.41003e-01 -1.37288e+00 
-8.63389e-01  2.79613e-01 -1.48346e+00 
-7.95274e-01  3.16741e-01 -1.58840e+00 
-7.34820e-01  3.51775e-01 -1.68774e+00 
-6.80922e-01  3.84216e-01 -1.78155e+00 
-6.32641e-01  4.13725e-01 -1.87004e+00 
-5.89160e-01  4.40044e-01 -1.95341e+00 
-5.49793e-01  4.63029e-01 -2.03194e+00 
-5.13947e-01  4.82588e-01 -2.10586e+00 
-4.81130e-01  4.98703e-01 -2.17546e+00 
-4.50913e-01  5.11386e-01 -2.24093e+00 
-4.22946e-01  5.20698e-01 -2.30255e+00 
-3.96919e-01  5.26714e-01 -2.36050e+00 
-3.72582e-01  5.29537e-01 -2.41501e+00 
-3.49708e-01  5.29278e-01 -2.46621e+00 
-3.28117e-01  5.26065e-01 -2.51432e+00 
-3.07640e-01  5.20027e-01 -2.55945e+00 
-2.88150e-01  5.11301e-01 -2.60176e+00 
-2.69518e-01  5.00027e-01 -2.64135e+00 
-2.51650e-01  4.86342e-01 -2.67835e+00 
-2.34447e-01  4.70392e-01 -2.71284e+00 
-2.17843e-01  4.52311e-01 -2.74493e+00 
-2.01755e-01  4.32245e-01 -2.77468e+00 
-1.86138e-01  4.10325e-01 -2.80217e+00 
-1.70923e-01  3.86695e-01 -2.82746e+00 
-1.56076e-01  3.61482e-01 -2.85062e+00 
-1.41541e-01  3.34828e-01 -2.87168e+00 
-1.27292e-01  3.06856e-01 -2.89070e+00 
-1.13281e-01  2.77704e-01 -2.90772e+00 
-9.94876e-02  2.47494e-01 -2.92276e+00 
-8.58689e-02  2.16361e-01 -2.93586e+00 
-7.24110e-02  1.84422e-01 -2.94704e+00 
-5.90730e-02  1.51812e-01 -2.95632e+00 
-4.58449e-02  1.18645e-01 -2.96373e+00 
-3.26878e-02  8.50539e-02 -2.96928e+00 
-1.95938e-02  5.11532e-02 -2.97297e+00 
-6.52529e-03  1.70734e-02 -2.97481e+00 
 6.52529e-03 -1.70734e-02 -2.97481e+00 
 1.95938e-02 -5.11532e-02 -2.97297e+00 
 3.26878e-02 -8.50539e-02 -2.96928e+00 
 4.58449e-02 -1.18645e-01 -2.96373e+00 
 5.90730e-02 -1.51812e-01 -2.95632e+00 
 7.24110e-02 -1.84422e-01 -2.94704e+00 
 8.58689e-02 -2.16361e-01 -2.93586e+00 
 9.94876e-02 -2.47494e-01 -2.92276e+00 
 1.13281e-01 -2.77704e-01 -2.90772e+00 
 1.27292e-01 -3.06856e-01 -2.89070e+00 
 1.41541e-01 -3.34828e-01 -2.87168e+00 
 1.56076e-01 -3.61482e-01 -2.85062e+00 
 1.70923e-01 -3.86695e-01 -2.82746e+00 
 1.86138e-01 -4.10325e-01 -2.80217e+00 
 2.01755e-01 -4.32245e-01 -2.77468e+00 
 2.17843e-01 -4.52311e-01 -2.74493e+00 
 2.34447e-01 -4.70392e-01 -2.71284e+00 
 2.51650e-01 -4.86342e-01 -2.67835e+00 
 2.69518e-01 -5.00027e-01 -2.64135e+00 
 2.88150e-01 -5.11301e-01 -2.60176e+00 
 3.07640e-01 -5.20027e-01 -2.55945e+00 
 3.28117e-01 -5.26065e-01 -2.51432e+00 
 3.49708e-01 -5.29278e-01 -2.46621e+00 
 3.72582e-01 -5.29537e-01 -2.41501e+00 
 3.96919e-01 -5.26714e-01 -2.36050e+00 
 4.22946e-01 -5.20698e-01 -2.30255e+00 
 4.50913e-01 -5.11386e-01 -2.24093e+00 
 4.81130e-01 -4.98703e-01 -2.17546e+00 
 5.13947e-01 -4.82588e-01 -2.10586e+00 
 5.49793e-01 -4.63029e-01 -2.03194e+00 
 5.89160e-01 -4.40044e-01 -1.95341e+00 
 6.32641e-01 -4.13725e-01 -1.87004e+00 
 6.80922e-01 -3.84216e-01 -1.78155e+00 
 7.34820e-01 -3.51775e-01 -1.68774e+00 
 7.95274e-01 -3.16741e-01 -1.58840e+00 
 8.63389e-01 -2.79613e-01 -1.48346e+00 
 9.40408e-01 -2.41003e-01 -1.37288e+00 
 1.02775e+00 -2.01727e-01 -1.25689e+00 
 1.12696e+00 -1.62723e-01 -1.13585e+00 
 1.23969e+00 -1.25138e-01 -1.01056e+00 
 1.36759e+00 -9.01783e-02 -8.82123e-01 
 1.51219e+00 -5.91512e-02 -7.52258e-01 
 1.67467e+00 -3.32102e-02 -6.23138e-01 
 1.85566e+00 -1.33222e-02 -4.97609e-01 
 2.05477e+00  7.30109e-05 -3.78905e-01 
 2.27051e+00  7.07872e-03 -2.70656e-01 
 2.49990e+00  8.66681e-03 -1.76422e-01 
 2.73856e+00  6.52225e-03 -9.94958e-02 
 2.98073e+00  3.10591e-03 -4.24044e-02 
 3.20388e+00 -3.20780e-02 -1.98096e-02 
-3.16166e+00  3.99026e-02 -1.68622e-02 
-2.88837e+00 -2.82683e-03 -3.86716e-02 
-2.59561e+00 -4.53292e-03 -9.75216e-02 
-2.31266e+00 -2.28045e-03 -1.82951e-01 
-2.04801e+00  7.22303e-03 -2.90437e-01 
-1.80682e+00  2.58853e-02 -4.14320e-01 
-1.59199e+00  5.41838e-02 -5.48862e-01 
-1.40388e+00  9.13683e-02 -6.88702e-01 
-1.24121e+00  1.35898e-01 -8.29464e-01 
-1.10156e+00  1.85698e-01 -9.67753e-01 
-9.82197e-01  2.38701e-01 -1.10133e+00 
-8.80256e-01  2.92925e-01 -1.22872e+00 
-7.93105e-01  3.46743e-01 -1.34923e+00 
-7.18369e-01  3.98788e-01 -1.46252e+00 
-6.54007e-01  4.48062e-01 -1.56868e+00 
-5.98275e-01  4.93791e-01 -1.66790e+00 
-5.49721e-01  5.35478e-01 -1.76058e+00 
-5.07134e-01  5.72774e-01 -1.84708e+00 
-4.69519e-01  6.05507e-01 -1.92786e+00 
-4.36051e-01  6.33591e-01 -2.00331e+00 
-4.06060e-01  6.57046e-01 -2.07385e+00 
-3.78984e-01  6.75932e-01 -2.13983e+00 
-3.54372e-01  6.90372e-01 -2.20162e+00 
-3.31841e-01  7.00504e-01 -2.25948e+00 
-3.11085e-01  7.06496e-01 -2.31373e+00 
-2.91838e-01  7.08523e-01 -2.36459e+00 
-2.73891e-01  7.06771e-01 -2.41228e+00 
-2.57057e-01  7.01427e-01 -2.45700e+00 
-2.41192e-01  6.92680e-01 -2.49892e+00 
-2.26161e-01  6.80717e-01 -2.53819e+00 
-2.11863e-01  6.65721e-01 -2.57495e+00 
-1.98197e-01  6.47875e-01 -2.60932e+00 
-1.85095e-01  6.27351e-01 -2.64140e+00 
-1.72477e-01  6.04328e-01 -2.67129e+00 
-1.60296e-01  5.78966e-01 -2.69908e+00 
-1.48489e-01  5.51436e-01 -2.72483e+00 
-1.37024e-01  5.21890e-01 -2.74862e+00 
-1.25848e-01  4.90491e-01 -2.77049e+00 
-1.14939e-01  4.57384e-01 -2.79051e+00 
-1.04252e-01  4.22725e-01 -2.80872e+00 
-9.37737e-02  3.86649e-01 -2.82516e+00 
-8.34626e-02  3.49311e-01 -2.83986e+00 
-7.33110e-02  3.10839e-01 -2.85285e+00 
-6.32816e-02  2.71382e-01 -2.86417e+00 
-5.33703e-02  2.31065e-01 -2.87383e+00 
-4.35419e-02  1.90033e-01 -2.88185e+00 
-3.37951e-02  1.48408e-01 -2.88825e+00 
-2.40962e-02  1.06334e-01 -2.89304e+00 
-1.44454e-02  6.39281e-02 -2.89623e+00 
-4.80986e-03  2.13336e-02 -2.89782e+00 
 4.80986e-03 -2.13336e-02 -2.89782e+00 
 1.44454e-02 -6.39281e-02 -2.89623e+00 
 2.40962e-02 -1.06334e-01 -2.89304e+00 
 3.37951e-02 -1.48408e-01 -2.88825e+00 
 4.35419e-02 -1.90033e-01 -2.88185e+00 
 5.33703e-02 -2.31065e-01 -2.87383e+00 
 6.32816e-02 -2.71382e-01 -2.86417e+00 
 7.33110e-02 -3.10839e-01 -2.85285e+00 
 8.34626e-02 -3.49311e-01 -2.83986e+00 
 9.37737e-02 -3.86649e-01 -2.82516e+00 
 1.04252e-01 -4.22725e-01 -2.80872e+00 
 1.14939e-01 -4.57384e-01 -2.79051e+00 
 1.25848e-01 -4.90491e-01 -2.77049e+00 
 1.37024e-01 -5.21890e-01 -2.74862e+00 
 1.48489e-01 -5.51436e-01 -2.72483e+00 
 1.60296e-01 -5.78966e-01 -2.69908e+00 
 1.72477e-01 -6.04328e-01 -2.67129e+00 
 1.85095e-01 -6.27351e-01 -2.64140e+00 
 1.98197e-01 -6.47875e-01 -2.60932e+00 
 2.11863e-01 -6.65721e-01 -2.57495e+00 
 2.26161e-01 -6.80717e-01 -2.53819e+00 
 2.41192e-01 -6.92680e-01 -2.49892e+00 
 2.57057e-01 -7.01427e-01 -2.45700e+00 
 2.73891e-01 -7.06771e-01 -2.41228e+00 
 2.91838e-01 -7.08523e-01 -2.36459e+00 
 3.11085e-01 -7.06496e-01 -2.31373e+00 
 3.31841e-01 -7.00504e-01 -2.25948e+00 
 3.54372e-01 -6.90372e-01 -2.20162e+00 
 3.78984e-01 -6.75932e-01 -2.13983e+00 
 4.06060e-01 -6.57046e-01 -2.07385e+00 
 4.36051e-01 -6.33591e-01 -2.00331e+00 
 4.69519e-01 -6.05507e-01 -1.92786e+00 
 5.07134e-01 -5.72774e-01 -1.84708e+00 
 5.49721e-01 -5.35478e-01 -1.76058e+00 
 5.98275e-01 -4.93791e-01 -1.66790e+00 
 6.54007e-01 -4.48062e-01 -1.56868e+00 
 7.18369e-01 -3.98788e-01 -1.46252e+00 
 7.93105e-01 -3.46743e-01 -1.34923e+00 
 8.80256e-01 -2.92925e-01 -1.22872e+00 
 9.82197e-01 -2.38701e-01 -1.10133e+00 
 1.10156e+00 -1.85698e-01 -9.67753e-01 
 1.24121e+00 -1.35898e-01 -8.29464e-01 
 1.40388e+00 -9.13683e-02 -6.88702e-01 
 1.59199e+00 -5.41838e-02 -5.48862e-01 
 1.80682e+00 -2.58853e-02 -4.14320e-01 
 2.04801e+00 -7.22303e-03 -2.90437e-01 
 2.31266e+00  2.28045e-03 -1.82951e-01 
 2.59561e+00  4.53292e-03 -9.75216e-02 
 2.88837e+00  2.82683e-03 -3.86716e-02 
 3.16166e+00 -3.99026e-02 -1.68622e-02 
-3.13969e+00  5.07669e-02 -1.52394e-02 
-2.79486e+00 -1.72206e-03 -3.86991e-02 
-2.43052e+00  1.70749e-05 -1.05435e-01 
-2.09019e+00  1.10477e-02 -2.08657e-01 
-1.78379e+00  3.56131e-02 -3.39229e-01 
-1.51801e+00  7.48950e-02 -4.87189e-01 
-1.29345e+00  1.28165e-01 -6.43294e-01 
-1.10680e+00  1.92431e-01 -7.99834e-01 
-9.53114e-01  2.63967e-01 -9.51614e-01 
-8.27031e-01  3.39025e-01 -1.09544e+00 
-7.23590e-01  4.14495e-01 -1.22981e+00 
-6.38455e-01  4.87882e-01 -1.35420e+00 
-5.68024e-01  5.57430e-01 -1.46882e+00 
-5.09357e-01  6.21891e-01 -1.57415e+00 
-4.60098e-01  6.80520e-01 -1.67095e+00 
-4.18375e-01  7.32869e-01 -1.75993e+00 
-3.82702e-01  7.78776e-01 -1.84190e+00 
-3.51908e-01  8.18221e-01 -1.91752e+00 
-3.25067e-01  8.51331e-01 -1.98746e+00 
-3.01444e-01  8.78288e-01 -2.05227e+00 
-2.80458e-01  8.99341e-01 -2.11248e+00 
-2.61640e-01  9.14753e-01 -2.16850e+00 
-2.44624e-01  9.24811e-01 -2.22073e+00 
-2.29104e-01  9.29797e-01 -2.26949e+00 
-2.14844e-01  9.29996e-01 -2.31508e+00 
-2.01642e-01  9.25685e-01 -2.35772e+00 
-1.89344e-01  9.17128e-01 -2.39765e+00 
-1.77808e-01  9.04585e-01 -2.43503e+00 
-1.66937e-01  8.88298e-01 -2.47005e+00 
-1.56627e-01  8.68507e-01 -2.50283e+00 
-1.46815e-01  8.45430e-01 -2.53350e+00 
-1.37424e-01  8.19290e-01 -2.56216e+00 
-1.28413e-01  7.90282e-01 -2.58891e+00 
-1.19721e-01  7.58613e-01 -2.61382e+00 
-1.11323e-01  7.24460e-01 -2.63699e+00 
-1.03170e-01  6.88017e-01 -2.65845e+00 
-9.52461e-02  6.49447e-01 -2.67828e+00 
-8.75104e-02  6.08930e-01 -2.69651e+00 
-7.99553e-02  5.66617e-01 -2.71320e+00 
-7.25431e-02  5.22681e-01 -2.72838e+00 
-6.52724e-02  4.77263e-01 -2.74209e+00 
-5.81087e-02  4.30527e-01 -2.75434e+00 
-5.10543e-02  3.82607e-01 -2.76518e+00 
-4.40768e-02  3.33662e-01 -2.77462e+00 
-3.71813e-02  2.83820e-01 -2.78268e+00 
-3.03368e-02  2.33236e-01 -2.78937e+00 
-2.35501e-02  1.82034e-01 -2.79470e+00 
-1.67912e-02  1.30365e-01 -2.79870e+00 
-1.00681e-02  7.83515e-02 -2.80136e+00 
-3.35127e-03  2.61430e-02 -2.80269e+00 
 3.35127e-03 -2.61430e-02 -2.80269e+00 
 1.00681e-02 -7.83515e-02 -2.80136e+00 
 1.67912e-02 -1.30365e-01 -2.79870e+00 
 2.35501e-02 -1.82034e-01 -2.79470e+00 
 3.03368e-02 -2.33236e-01 -2.78937e+00 
 3.71813e-02 -2.83820e-01 -2.78268e+00 
 4.40768e-02 -3.33662e-01 -2.77462e+00 
 5.10543e-02 -3.82607e-01 -2.76518e+00 
 5.81087e-02 -4.30527e-01 -2.75434e+00 
 6.52724e-02 -4.77263e-01 -2.74209e+00 
 7.25431e-02 -5.22681e-01 -2.72838e+00 
 7.99553e-02 -5.66617e-01 -2.71320e+00 
 8.75104e-02 -6.08930e-01 -2.69651e+00 
 9.52461e-02 -6.49447e-01 -2.67828e+00 
 1.03170e-01 -6.88017e-01 -2.65845e+00 
 1.11323e-01 -7.24460e-01 -2.63699e+00 
 1.19721e-01 -7.58613e-01 -2.61382e+00 
 1.28413e-01 -7.90282e-01 -2.58891e+00 
 1.37424e-01 -8.19290e-01 -2.56216e+00 
 1.46815e-01 -8.45430e-01 -2.53350e+00 
 1.56627e-01 -8.68507e-01 -2.50283e+00 
 1.66937e-01 -8.88298e-01 -2.47005e+00 
 1.77808e-01 -9.04585e-01 -2.43503e+00 
 1.89344e-01 -9.17128e-01 -2.39765e+00 
 2.01642e-01 -9.25685e-01 -2.35772e+00 
 2.14844e-01 -9.29996e-01 -2.31508e+00 
 2.29104e-01 -9.29797e-01 -2.26949e+00 
 2.44624e-01 -9.24811e-01 -2.22073e+00 
 2.61640e-01 -9.14753e-01 -2.16850e+00 
 2.80458e-01 -8.99341e-01 -2.11248e+00 
 3.01444e-01 -8.78288e-01 -2.05227e+00 
 3.25067e-01 -8.51331e-01 -1.98746e+00 
 3.51908e-01 -8.18221e-01 -1.91752e+00 
 3.82702e-01 -7.78776e-01 -1.84190e+00 
 4.18375e-01 -7.32869e-01 -1.75993e+00 
 4.60098e-01 -6.80520e-01 -1.67095e+00 
 5.09357e-01 -6.21891e-01 -1.57415e+00 
 5.68024e-01 -5.57430e-01 -1.46882e+00 
 6.38455e-01 -4.87882e-01 -1.35420e+00 
 7.23590e-01 -4.14495e-01 -1.22981e+00 
 8.27031e-01 -3.39025e-01 -1.09544e+00 
 9.53114e-01 -2.63967e-01 -9.51614e-01 
 1.10680e+00 -1.92431e-01 -7.99834e-01 
 1.29345e+00 -1.28165e-01 -6.43294e-01 
 1.51801e+00 -7.48950e-02 -4.87189e-01 
 1.78379e+00 -3.56131e-02 -3.39229e-01 
 2.09019e+00 -1.10477e-02 -2.08657e-01 
 2.43052e+00 -1.70749e-05 -1.05435e-01 
 2.79486e+00  1.72206e-03 -3.86991e-02 
 3.13969e+00 -5.07669e-02 -1.52394e-02 
-3.13943e+00  7.15629e-02 -1.76464e-02 
-2.68108e+00  2.23183e-05 -4.65835e-02 
-2.21789e+00  1.07808e-02 -1.35277e-01 
-1.80092e+00  4.07294e-02 -2.73042e-01 
-1.45377e+00  9.41224e-02 -4.42406e-01 
-1.17604e+00  1.71619e-01 -6.24987e-01 
-9.58614e-01  2.66827e-01 -8.05772e-01 
-7.89926e-01  3.71699e-01 -9.76090e-01 
-6.59270e-01  4.79364e-01 -1.13212e+00 
-5.57721e-01  5.84619e-01 -1.27281e+00 
-4.78254e-01  6.84054e-01 -1.39881e+00 
-4.15498e-01  7.75531e-01 -1.51133e+00 
-3.65396e-01  8.57960e-01 -1.61199e+00 
-3.24920e-01  9.30861e-01 -1.70226e+00 
-2.91799e-01  9.94238e-01 -1.78360e+00 
-2.64342e-01  1.04832e+00 -1.85720e+00 
-2.41273e-01  1.09352e+00 -1.92416e+00 
-2.21637e-01  1.13030e+00 -1.98532e+00 
-2.04703e-01  1.15919e+00 -2.04148e+00 
-1.89919e-01  1.18068e+00 -2.09322e+00 
-1.76858e-01  1.19527e+00 -2.14110e+00 
-1.65187e-01  1.20344e+00 -2.18550e+00 
-1.54653e-01  1.20563e+00 -2.22682e+00 
-1.45050e-01  1.20224e+00 -2.26534e+00 
-1.36223e-01  1.19365e+00 -2.30132e+00 
-1.28037e-01  1.18023e+00 -2.33497e+00 
-1.20399e-01  1.16230e+00 -2.36647e+00 
-1.13216e-01  1.14017e+00 -2.39598e+00 
-1.06431e-01  1.11411e+00 -2.42362e+00 
-9.99762e-02  1.08440e+00 -2.44951e+00 
-9.38191e-02  1.05129e+00 -2.47374e+00 
-8.79071e-02  1.01500e+00 -2.49640e+00 
-8.22225e-02  9.75764e-01 -2.51756e+00 
-7.67223e-02  9.33790e-01 -2.53729e+00 
-7.13993e-02  8.89267e-01 -2.55563e+00 
-6.62162e-02  8.42399e-01 -2.57264e+00 
-6.11729e-02  7.93354e-01 -2.58836e+00 
-5.62359e-02  7.42322e-01 -2.60283e+00 
-5.14103e-02  6.89456e-01 -2.61608e+00 
-4.66645e-02  6.34937e-01 -2.62813e+00 
-4.20073e-02  5.78904e-01 -2.63901e+00 
-3.74088e-02  5.21532e-01 -2.64875e+00 
-3.28801e-02  4.62952e-01 -2.65737e+00 
-2.83922e-02  4.03331e-01 -2.66487e+00 
-2.39582e-02  3.42796e-01 -2.67128e+00 
-1.95495e-02  2.81507e-01 -2.67660e+00 
-1.51805e-02  2.19588e-01 -2.68085e+00 
-1.08229e-02  1.57196e-01 -2.68403e+00 
-6.49186e-03  9.44515e-02 -2.68614e+00 
-2.15938e-03  3.15109e-02 -2.68720e+00 
 2.15938e-03 -3.15109e-02 -2.68720e+00 
 6.49186e-03 -9.44515e-02 -2.68614e+00 
 1.08229e-02 -1.57196e-01 -2.68403e+00 
 1.51805e-02 -2.19588e-01 -2.68085e+00 
 1.95495e-02 -2.81507e-01 -2.67660e+00 
 2.39582e-02 -3.42796e-01 -2.67128e+00 
 2.83922e-02 -4.03331e-01 -2.66487e+00 
 3.28801e-02 -4.62952e-01 -2.65737e+00 
 3.74088e-02 -5.21532e-01 -2.64875e+00 
 4.20073e-02 -5.78904e-01 -2.63901e+00 
 4.66645e-02 -6.34937e-01 -2.62813e+00 
 5.14103e-02 -6.89456e-01 -2.61608e+00 
 5.62359e-02 -7.42322e-01 -2.60283e+00 
 6.11729e-02 -7.93354e-01 -2.58836e+00 
 6.62162e-02 -8.42399e-01 -2.57264e+00 
 7.13993e-02 -8.89267e-01 -2.55563e+00 
 7.67223e-02 -9.33790e-01 -2.53729e+00 
 8.22225e-02 -9.75764e-01 -2.51756e+00 
 8.79071e-02 -1.01500e+00 -2.49640e+00 
 9.38191e-02 -1.05129e+00 -2.47374e+00 
 9.99762e-02 -1.08440e+00 -2.44951e+00 
 1.06431e-01 -1.11411e+00 -2.42362e+00 
 1.13216e-01 -1.14017e+00 -2.39598e+00 
 1.20399e-01 -1.16230e+00 -2.36647e+00 
 1.28037e-01 -1.18023e+00 -2.33497e+00 
 1.36223e-01 -1.19365e+00 -2.30132e+00 
 1.45050e-01 -1.20224e+00 -2.26534e+00 
 1.54653e-01 -1.20563e+00 -2.22682e+00 
 1.65187e-01 -1.20344e+00 -2.18550e+00 
 1.76858e-01 -1.19527e+00 -2.14110e+00 
 1.89919e-01 -1.18068e+00 -2.09322e+00 
 2.04703e-01 -1.15919e+00 -2.04148e+00 
 2.21637e-01 -1.13030e+00 -1.98532e+00 
 2.41273e-01 -1.09352e+00 -1.92416e+00 
 2.64342e-01 -1.04832e+00 -1.85720e+00 
 2.91799e-01 -9.94238e-01 -1.78360e+00 
 3.24920e-01 -9.30861e-01 -1.70226e+00 
 3.65396e-01 -8.57960e-01 -1.61199e+00 
 4.15498e-01 -7.75531e-01 -1.51133e+00 
 4.78254e-01 -6.84054e-01 -1.39881e+00 
 5.57721e-01 -5.84619e-01 -1.27281e+00 
 6.59270e-01 -4.79364e-01 -1.13212e+00 
 7.89926e-01 -3.71699e-01 -9.76090e-01 
 9.58614e-01 -2.66827e-01 -8.05772e-01 
 1.17604e+00 -1.71619e-01 -6.24987e-01 
 1.45377e+00 -9.41224e-02 -4.42406e-01 
 1.80092e+00 -4.07294e-02 -2.73042e-01 
 2.21789e+00 -1.07808e-02 -1.35277e-01 
 2.68108e+00 -2.23183e-05 -4.65835e-02 
 3.13943e+00 -7.15629e-02 -1.76464e-02 
-3.14089e+00  8.86956e-02 -2.85122e-02 
-2.52170e+00  1.07304e-02 -7.98734e-02 
-1.88491e+00  3.93984e-02 -2.16088e-01 
-1.39604e+00  1.08471e-01 -4.21533e-01 
-1.04050e+00  2.27661e-01 -6.51914e-01 
-7.87189e-01  3.76941e-01 -8.70903e-01 
-6.07304e-01  5.36688e-01 -1.06538e+00 
-4.78860e-01  6.93566e-01 -1.23272e+00 
-3.86177e-01  8.39914e-01 -1.37509e+00 
-3.18388e-01  9.71897e-01 -1.49599e+00 
-2.68011e-01  1.08818e+00 -1.59922e+00 
-2.29938e-01  1.18874e+00 -1.68801e+00 
-2.00632e-01  1.27433e+00 -1.76518e+00 
-1.77661e-01  1.34599e+00 -1.83288e+00 
-1.59309e-01  1.40488e+00 -1.89292e+00 
-1.44378e-01  1.45214e+00 -1.94663e+00 
-1.32003e-01  1.48883e+00 -1.99513e+00 
-1.21569e-01  1.51591e+00 -2.03921e+00 
-1.12622e-01  1.53427e+00 -2.07957e+00 
-1.04830e-01  1.54465e+00 -2.11672e+00 
-9.79480e-02  1.54774e+00 -2.15109e+00 
-9.17848e-02  1.54415e+00 -2.18300e+00 
-8.62049e-02  1.53440e+00 -2.21274e+00 
-8.10924e-02  1.51898e+00 -2.24050e+00 
-7.63715e-02  1.49831e+00 -2.26649e+00 
-7.19661e-02  1.47278e+00 -2.29084e+00 
-6.78353e-02  1.44273e+00 -2.31370e+00 
-6.39249e-02  1.40849e+00 -2.33513e+00 
-6.02147e-02  1.37034e+00 -2.35527e+00 
-5.66625e-02  1.32856e+00 -2.37415e+00 
-5.32617e-02  1.28340e+00 -2.39186e+00 
-4.99766e-02  1.23509e+00 -2.40845e+00 
-4.68092e-02  1.18385e+00 -2.42397e+00 
-4.37279e-02  1.12989e+00 -2.43845e+00 
-4.07402e-02  1.07341e+00 -2.45193e+00 
-3.78167e-02  1.01460e+00 -2.46445e+00 
-3.49693e-02  9.53624e-01 -2.47604e+00 
-3.21693e-02  8.90679e-01 -2.48671e+00 
-2.94317e-02  8.25909e-01 -2.49649e+00 
-2.67283e-02  7.59498e-01 -2.50539e+00 
-2.40765e-02  6.91581e-01 -2.51344e+00 
-2.14481e-02  6.22333e-01 -2.52065e+00 
-1.88620e-02  5.51881e-01 -2.52702e+00 
-1.62904e-02  4.80396e-01 -2.53258e+00 
-1.37531e-02  4.07997e-01 -2.53733e+00 
-1.12222e-02  3.34851e-01 -2.54127e+00 
-8.71858e-03  2.61074e-01 -2.54442e+00 
-6.21415e-03  1.86829e-01 -2.54678e+00 
-3.73021e-03  1.12230e-01 -2.54835e+00 
-1.23879e-03  3.74379e-02 -2.54913e+00 
 1.23879e-03 -3.74379e-02 -2.54913e+00 
 3.73021e-03 -1.12230e-01 -2.54835e+00 
 6.21415e-03 -1.86829e-01 -2.54678e+00 
 8.71858e-03 -2.61074e-01 -2.54442e+00 
 1.12222e-02 -3.34851e-01 -2.54127e+00 
 1.37531e-02 -4.07997e-01 -2.53733e+00 
 1.62904e-02 -4.80396e-01 -2.53258e+00 
 1.88620e-02 -5.51881e-01 -2.52702e+00 
 2.14481e-02 -6.22333e-01 -2.52065e+00 
 2.40765e-02 -6.91581e-01 -2.51344e+00 
 2.67283e-02 -7.59498e-01 -2.50539e+00 
 2.94317e-02 -8.25909e-01 -2.49649e+00 
 3.21693e-02 -8.90679e-01 -2.48671e+00 
 3.49693e-02 -9.53624e-01 -2.47604e+00 
 3.78167e-02 -1.01460e+00 -2.46445e+00 
 4.07402e-02 -1.07341e+00 -2.45193e+00 
 4.37279e-02 -1.12989e+00 -2.43845e+00 
 4.68092e-02 -1.18385e+00 -2.42397e+00 
 4.99766e-02 -1.23509e+00 -2.40845e+00 
 5.32617e-02 -1.28340e+00 -2.39186e+00 
 5.66625e-02 -1.32856e+00 -2.37415e+00 
 6.02147e-02 -1.37034e+00 -2.35527e+00 
 6.39249e-02 -1.40849e+00 -2.33513e+00 
 6.78353e-02 -1.44273e+00 -2.31370e+00 
 7.19661e-02 -1.47278e+00 -2.29084e+00 
 7.63715e-02 -1.49831e+00 -2.26649e+00 
 8.10924e-02 -1.51898e+00 -2.24050e+00 
 8.62049e-02 -1.53440e+00 -2.21274e+00 
 9.17848e-02 -1.54415e+00 -2.18300e+00 
 9.79480e-02 -1.54774e+00 -2.15109e+00 
 1.04830e-01 -1.54465e+00 -2.11672e+00 
 1.12622e-01 -1.53427e+00 -2.07957e+00 
 1.21569e-01 -1.51591e+00 -2.03921e+00 
 1.32003e-01 -1.48883e+00 -1.99513e+00 
 1.44378e-01 -1.45214e+00 -1.94663e+00 
 1.59309e-01 -1.40488e+00 -1.89292e+00 
 1.77661e-01 -1.34599e+00 -1.83288e+00 
 2.00632e-01 -1.27433e+00 -1.76518e+00 
 2.29938e-01 -1.18874e+00 -1.68801e+00 
 2.68011e-01 -1.08818e+00 -1.59922e+00 
 3.18388e-01 -9.71897e-01 -1.49599e+00 
 3.86177e-01 -8.39914e-01 -1.37509e+00 
 4.78860e-01 -6.93566e-01 -1.23272e+00 
 6.07304e-01 -5.36688e-01 -1.06538e+00 
 7.87189e-01 -3.76941e-01 -8.70903e-01 
 1.04050e+00 -2.27661e-01 -6.51914e-01 
 1.39604e+00 -1.08471e-01 -4.21533e-01 
 1.88491e+00 -3.93984e-02 -2.16088e-01 
 2.52170e+00 -1.07304e-02 -7.98734e-02 
 3.14089e+00 -8.86956e-02 -2.85122e-02 
-3.20044e+00  2.40186e-01 -9.01485e-02 
-2.09080e+00  2.46409e-02 -1.75084e-01 
-1.33294e+00  1.04900e-01 -4.44262e-01 
-8.70227e-01  3.19214e-01 -7.69640e-01 
-5.86067e-01  5.80355e-01 -1.04451e+00 
-4.08866e-01  8.35065e-01 -1.26001e+00 
-2.96027e-01  1.06338e+00 -1.42593e+00 
-2.22542e-01  1.25907e+00 -1.55401e+00 
-1.73488e-01  1.42284e+00 -1.65438e+00 
-1.39910e-01  1.55775e+00 -1.73456e+00 
-1.16297e-01  1.66760e+00 -1.80006e+00 
-9.92492e-02  1.75594e+00 -1.85473e+00 
-8.65916e-02  1.82591e+00 -1.90134e+00 
-7.69431e-02  1.88007e+00 -1.94180e+00 
-6.93837e-02  1.92060e+00 -1.97753e+00 
-6.33105e-02  1.94923e+00 -2.00948e+00 
-5.83084e-02  1.96739e+00 -2.03842e+00 
-5.40933e-02  1.97624e+00 -2.06486e+00 
-5.04683e-02  1.97676e+00 -2.08921e+00 
-4.72878e-02  1.96976e+00 -2.11177e+00 
-4.44559e-02  1.95592e+00 -2.13278e+00 
-4.18898e-02  1.93583e+00 -2.15242e+00 
-3.95441e-02  1.91000e+00 -2.17083e+00 
-3.73658e-02  1.87887e+00 -2.18812e+00 
-3.53361e-02  1.84283e+00 -2.20440e+00 
-3.34163e-02  1.80224e+00 -2.21973e+00 
-3.16031e-02  1.75740e+00 -2.23418e+00 
-2.98645e-02  1.70861e+00 -2.24780e+00 
-2.82065e-02  1.65613e+00 -2.26063e+00 
-2.66003e-02  1.60021e+00 -2.27271e+00 
-2.50580e-02  1.54106e+00 -2.28407e+00 
-2.35518e-02  1.47892e+00 -2.29474e+00 
-2.20983e-02  1.41398e+00 -2.30475e+00 
-2.06698e-02  1.34643e+00 -2.31411e+00 
-1.92858e-02  1.27645e+00 -2.32285e+00 
-1.79186e-02  1.20423e+00 -2.33097e+00 
-1.65899e-02  1.12992e+00 -2.33851e+00 
-1.52714e-02  1.05371e+00 -2.34545e+00 
-1.39867e-02  9.75721e-01 -2.35182e+00 
-1.27070e-02  8.96145e-01 -2.35763e+00 
-1.14572e-02  8.15103e-01 -2.36289e+00 
-1.02079e-02  7.32768e-01 -2.36760e+00 
-8.98519e-03  6.49258e-01 -2.37177e+00 
-7.75921e-03  5.64742e-01 -2.37541e+00 
-6.55679e-03  4.79332e-01 -2.37852e+00 
-5.34772e-03  3.93194e-01 -2.38110e+00 
-4.15938e-03  3.06437e-01 -2.38317e+00 
-2.96134e-03  2.19225e-01 -2.38471e+00 
-1.78128e-03  1.31664e-01 -2.38574e+00 
-5.88689e-04  4.39162e-02 -2.38626e+00 
 5.88689e-04 -4.39162e-02 -2.38626e+00 
 1.78128e-03 -1.31664e-01 -2.38574e+00 
 2.96134e-03 -2.19225e-01 -2.38471e+00 
 4.15938e-03 -3.06437e-01 -2.38317e+00 
 5.34772e-03 -3.93194e-01 -2.38110e+00 
 6.55679e-03 -4.79332e-01 -2.37852e+00 
 7.75921e-03 -5.64742e-01 -2.37541e+00 
 8.98519e-03 -6.49258e-01 -2.37177e+00 
 1.02079e-02 -7.32768e-01 -2.36760e+00 
 1.14572e-02 -8.15103e-01 -2.36289e+00 
 1.27070e-02 -8.96145e-01 -2.35763e+00 
 1.39867e-02 -9.75721e-01 -2.35182e+00 
 1.52714e-02 -1.05371e+00 -2.34545e+00 
 1.65899e-02 -1.12992e+00 -2.33851e+00 
 1.79186e-02 -1.20423e+00 -2.33097e+00 
 1.92858e-02 -1.27645e+00 -2.32285e+00 
 2.06698e-02 -1.34643e+00 -2.31411e+00 
 2.20983e-02 -1.41398e+00 -2.30475e+00 
 2.35518e-02 -1.47892e+00 -2.29474e+00 
 2.50580e-02 -1.54106e+00 -2.28407e+00 
 2.66003e-02 -1.60021e+00 -2.27271e+00 
 2.82065e-02 -1.65613e+00 -2.26063e+00 
 2.98645e-02 -1.70861e+00 -2.24780e+00 
 3.16031e-02 -1.75740e+00 -2.23418e+00 
 3.34163e-02 -1.80224e+00 -2.21973e+00 
 3.53361e-02 -1.84283e+00 -2.20440e+00 
 3.73658e-02 -1.87887e+00 -2.18812e+00 
 3.95441e-02 -1.91000e+00 -2.17083e+00 
 4.18898e-02 -1.93583e+00 -2.15242e+00 
 4.44559e-02 -1.95592e+00 -2.13278e+00 
 4.72878e-02 -1.96976e+00 -2.11177e+00 
 5.04683e-02 -1.97676e+00 -2.08921e+00 
 5.40933e-02 -1.97624e+00 -2.06486e+00 
 5.83084e-02 -1.96739e+00 -2.03842e+00 
 6.33105e-02 -1.94923e+00 -2.00948e+00 
 6.93837e-02 -1.92060e+00 -1.97753e+00 
 7.69431e-02 -1.88007e+00 -1.94180e+00 
 8.65916e-02 -1.82591e+00 -1.90134e+00 
 9.92492e-02 -1.75594e+00 -1.85473e+00 
 1.16297e-01 -1.66760e+00 -1.80006e+00 
 1.39910e-01 -1.55775e+00 -1.73456e+00 
 1.73488e-01 -1.42284e+00 -1.65438e+00 
 2.22542e-01 -1.25907e+00 -1.55401e+00 
 2.96027e-01 -1.06338e+00 -1.42593e+00 
 4.08866e-01 -8.35065e-01 -1.26001e+00 
 5.86067e-01 -5.80355e-01 -1.04451e+00 
 8.70227e-01 -3.19214e-01 -7.69640e-01 
 1.33294e+00 -1.04900e-01 -4.44262e-01 
 2.09080e+00 -2.46409e-02 -1.75084e-01 
 3.20044e+00 -2.40186e-01 -9.01485e-02 
-2.50987e+00  1.00034e-01 -3.03737e-01 
-1.29252e+00  6.94977e-02 -5.99500e-01 
-6.88937e-01  6.00646e-01 -1.08922e+00 
-3.86279e-01  1.11896e+00 -1.40587e+00 
-2.29423e-01  1.51148e+00 -1.59619e+00 
-1.44123e-01  1.80318e+00 -1.71648e+00 
-9.61642e-02  2.01707e+00 -1.79548e+00 
-6.82183e-02  2.17434e+00 -1.84999e+00 
-5.13262e-02  2.29028e+00 -1.88965e+00 
-4.07206e-02  2.37563e+00 -1.91998e+00 
-3.37841e-02  2.43771e+00 -1.94432e+00 
-2.90567e-02  2.48160e+00 -1.96462e+00 
-2.56933e-02  2.51079e+00 -1.98214e+00 
-2.31972e-02  2.52781e+00 -1.99763e+00 
-2.12691e-02  2.53445e+00 -2.01162e+00 
-1.97189e-02  2.53208e+00 -2.02443e+00 
-1.84334e-02  2.52172e+00 -2.03630e+00 
-1.73285e-02  2.50419e+00 -2.04736e+00 
-1.63620e-02  2.48012e+00 -2.05776e+00 
-1.54885e-02  2.45008e+00 -2.06755e+00 
-1.46964e-02  2.41449e+00 -2.07682e+00 
-1.39551e-02  2.37378e+00 -2.08559e+00 
-1.32675e-02  2.32824e+00 -2.09392e+00 
-1.26086e-02  2.27823e+00 -2.10182e+00 
-1.19891e-02  2.22398e+00 -2.10932e+00 
-1.13858e-02  2.16578e+00 -2.11644e+00 
-1.08142e-02  2.10382e+00 -2.12321e+00 
-1.02510e-02  2.03836e+00 -2.12961e+00 
-9.71508e-03  1.96957e+00 -2.13569e+00 
-9.18227e-03  1.89768e+00 -2.14142e+00 
-8.67416e-03  1.82283e+00 -2.14685e+00 
-8.16541e-03  1.74524e+00 -2.15196e+00 
-7.67962e-03  1.66504e+00 -2.15678e+00 
-7.19034e-03  1.58243e+00 -2.16128e+00 
-6.72280e-03  1.49754e+00 -2.16551e+00 
-6.24950e-03  1.41056e+00 -2.16944e+00 
-5.79700e-03  1.32160e+00 -2.17310e+00 
-5.33685e-03  1.23084e+00 -2.17647e+00 
-4.89672e-03  1.13840e+00 -2.17957e+00 
-4.44732e-03  1.04446e+00 -2.18240e+00 
-4.01725e-03  9.49107e-01 -2.18497e+00 
-3.57650e-03  8.52527e-01 -2.18727e+00 
-3.15440e-03  7.54818e-01 -2.18931e+00 
-2.72038e-03  6.56149e-01 -2.19109e+00 
-2.30434e-03  5.56618e-01 -2.19261e+00 
-1.87528e-03  4.56392e-01 -2.19388e+00 
-1.46348e-03  3.55567e-01 -2.19489e+00 
-1.03769e-03  2.54306e-01 -2.19565e+00 
-6.28400e-04  1.52707e-01 -2.19615e+00 
-2.04237e-04  5.09310e-02 -2.19641e+00 
 2.04237e-04 -5.09310e-02 -2.19641e+00 
 6.28400e-04 -1.52707e-01 -2.19615e+00 
 1.03769e-03 -2.54306e-01 -2.19565e+00 
 1.46348e-03 -3.55567e-01 -2.19489e+00 
 1.87528e-03 -4.56392e-01 -2.19388e+00 
 2.30434e-03 -5.56618e-01 -2.19261e+00 
 2.72038e-03 -6.56149e-01 -2.19109e+00 
 3.15440e-03 -7.54818e-01 -2.18931e+00 
 3.57650e-03 -8.52527e-01 -2.18727e+00 
 4.01725e-03 -9.49107e-01 -2.18497e+00 
 4.44732e-03 -1.04446e+00 -2.18240e+00 
 4.89672e-03 -1.13840e+00 -2.17957e+00 
 5.33685e-03 -1.23084e+00 -2.17647e+00 
 5.79700e-03 -1.32160e+00 -2.17310e+00 
 6.24950e-03 -1.41056e+00 -2.16944e+00 
 6.72280e-03 -1.49754e+00 -2.16551e+00 
 7.19034e-03 -1.58243e+00 -2.16128e+00 
 7.67962e-03 -1.66504e+00 -2.15678e+00 
 8.16541e-03 -1.74524e+00 -2.15196e+00 
 8.67416e-03 -1.82283e+00 -2.14685e+00 
 9.18227e-03 -1.89768e+00 -2.14142e+00 
 9.71508e-03 -1.96957e+00 -2.13569e+00 
 1.02510e-02 -2.03836e+00 -2.12961e+00 
 1.08142e-02 -2.10382e+00 -2.12321e+00 
 1.13858e-02 -2.16578e+00 -2.11644e+00 
 1.19891e-02 -2.22398e+00 -2.10932e+00 
 1.26086e-02 -2.27823e+00 -2.10182e+00 
 1.32675e-02 -2.32824e+00 -2.09392e+00 
 1.39551e-02 -2.37378e+00 -2.08559e+00 
 1.46964e-02 -2.41449e+00 -2.07682e+00 
 1.54885e-02 -2.45008e+00 -2.06755e+00 
 1.63620e-02 -2.48012e+00 -2.05776e+00 
 1.73285e-02 -2.50419e+00 -2.04736e+00 
 1.84334e-02 -2.52172e+00 -2.03630e+00 
 1.97189e-02 -2.53208e+00 -2.02443e+00 
 2.12691e-02 -2.53445e+00 -2.01162e+00 
 2.31972e-02 -2.52781e+00 -1.99763e+00 
 2.56933e-02 -2.51079e+00 -1.98214e+00 
 2.90567e-02 -2.48160e+00 -1.96462e+00 
 3.37841e-02 -2.43771e+00 -1.94432e+00 
 4.07206e-02 -2.37563e+00 -1.91998e+00 
 5.13262e-02 -2.29028e+00 -1.88965e+00 
 6.82183e-02 -2.17434e+00 -1.84999e+00 
 9.61642e-02 -2.01707e+00 -1.79548e+00 
 1.44123e-01 -1.80318e+00 -1.71648e+00 
 2.29423e-01 -1.51148e+00 -1.59619e+00 
 3.86279e-01 -1.11896e+00 -1.40587e+00 
 6.88937e-01 -6.00646e-01 -1.08922e+00 
 1.29252e+00 -6.94977e-02 -5.99500e-01 
 2.50987e+00 -1.00034e-01 -3.03737e-01 
-1.46930e+00  2.10799e+00 -5.02735e-01 
-5.35371e-01  2.48551e+00 -1.00847e+00 
-1.16528e-01  3.21472e+00 -1.60435e+00 
 1.73504e-02  3.41800e+00 -1.80620e+00 
 6.29140e-02  3.48198e+00 -1.89745e+00 
 7.44306e-02  3.48768e+00 -1.93895e+00 
 7.37504e-02  3.47356e+00 -1.95983e+00 
 6.89903e-02  3.45227e+00 -1.97157e+00 
 6.33831e-02  3.42843e+00 -1.97929e+00 
 5.80136e-02  3.40287e+00 -1.98515e+00 
 5.32640e-02  3.37561e+00 -1.99019e+00 
 4.91359e-02  3.34603e+00 -1.99481e+00 
 4.55919e-02  3.31379e+00 -1.99922e+00 
 4.25170e-02  3.27838e+00 -2.00347e+00 
 3.98444e-02  3.23962e+00 -2.00763e+00 
 3.74832e-02  3.19722e+00 -2.01167e+00 
 3.53859e-02  3.15114e+00 -2.01562e+00 
 3.34932e-02  3.10126e+00 -2.01946e+00 
 3.17743e-02  3.04764e+00 -2.02319e+00 
 3.01926e-02  2.99023e+00 -2.02680e+00 
 2.87269e-02  2.92915e+00 -2.03030e+00 
 2.73558e-02  2.86441e+00 -2.03366e+00 
 2.60630e-02  2.79616e+00 -2.03692e+00 
 2.48374e-02  2.72444e+00 -2.04004e+00 
 2.36648e-02  2.64941e+00 -2.04304e+00 
 2.25416e-02  2.57115e+00 -2.04591e+00 
 2.14540e-02  2.48981e+00 -2.04867e+00 
 2.04040e-02  2.40548e+00 -2.05129e+00 
 1.93772e-02  2.31832e+00 -2.05380e+00 
 1.83801e-02  2.22843e+00 -2.05617e+00 
 1.73974e-02  2.13596e+00 -2.05843e+00 
 1.64391e-02  2.04103e+00 -2.06056e+00 
 1.54884e-02  1.94378e+00 -2.06258e+00 
 1.45587e-02  1.84433e+00 -2.06447e+00 
 1.36316e-02  1.74281e+00 -2.06625e+00 
 1.27231e-02  1.63936e+00 -2.06791e+00 
 1.18134e-02  1.53409e+00 -2.06946e+00 
 1.09205e-02  1.42715e+00 -2.07088e+00 
 1.00236e-02  1.31865e+00 -2.07220e+00 
 9.14247e-03  1.20873e+00 -2.07340e+00 
 8.25487e-03  1.09751e+00 -2.07450e+00 
 7.38236e-03  9.85124e-01 -2.07547e+00 
 6.50146e-03  8.71679e-01 -2.07634e+00 
 5.63521e-03  7.57323e-01 -2.07710e+00 
 4.75896e-03  6.42155e-01 -2.07775e+00 
 3.89708e-03  5.26326e-01 -2.07829e+00 
 3.02386e-03  4.09930e-01 -2.07872e+00 
 2.16478e-03  2.93121e-01 -2.07905e+00 
 1.29320e-03  1.75989e-01 -2.07926e+00 
 4.35556e-04  5.86914e-02 -2.07937e+00 
-4.35556e-04 -5.86914e-02 -2.07937e+00 
-1.29320e-03 -1.75989e-01 -2.07926e+00 
-2.16478e-03 -2.93121e-01 -2.07905e+00 
-3.02386e-03 -4.09930e-01 -2.07872e+00 
-3.89708e-03 -5.26326e-01 -2.07829e+00 
-4.75896e-03 -6.42155e-01 -2.07775e+00 
-5.63521e-03 -7.57323e-01 -2.07710e+00 
-6.50146e-03 -8.71679e-01 -2.07634e+00 
-7.38236e-03 -9.85124e-01 -2.07547e+00 
-8.25487e-03 -1.09751e+00 -2.07450e+00 
-9.14247e-03 -1.20873e+00 -2.07340e+00 
-1.00236e-02 -1.31865e+00 -2.07220e+00 
-1.09205e-02 -1.42715e+00 -2.07088e+00 
-1.18134e-02 -1.53409e+00 -2.06946e+00 
-1.27231e-02 -1.63936e+00 -2.06791e+00 
-1.36316e-02 -1.74281e+00 -2.06625e+00 
-1.45587e-02 -1.84433e+00 -2.06447e+00 
-1.54884e-02 -1.94378e+00 -2.06258e+00 
-1.64391e-02 -2.04103e+00 -2.06056e+00 
-1.73974e-02 -2.13596e+00 -2.05843e+00 
-1.83801e-02 -2.22843e+00 -2.05617e+00 
-1.93772e-02 -2.31832e+00 -2.05380e+00 
-2.04040e-02 -2.40548e+00 -2.05129e+00 
-2.14540e-02 -2.48981e+00 -2.04867e+00 
-2.25416e-02 -2.57115e+00 -2.04591e+00 
-2.36648e-02 -2.64941e+00 -2.04304e+00 
-2.48374e-02 -2.72444e+00 -2.04004e+00 
-2.60630e-02 -2.79616e+00 -2.03692e+00 
-2.73558e-02 -2.86441e+00 -2.03366e+00 
-2.87269e-02 -2.92915e+00 -2.03030e+00 
-3.01926e-02 -2.99023e+00 -2.02680e+00 
-3.17743e-02 -3.04764e+00 -2.02319e+00 
-3.34932e-02 -3.10126e+00 -2.01946e+00 
-3.53859e-02 -3.15114e+00 -2.01562e+00 
-3.74832e-02 -3.19722e+00 -2.01167e+00 
-3.98444e-02 -3.23962e+00 -2.00763e+00 
-4.25170e-02 -3.27838e+00 -2.00347e+00 
-4.55919e-02 -3.31379e+00 -1.99922e+00 
-4.91359e-02 -3.34603e+00 -1.99481e+00 
-5.32640e-02 -3.37561e+00 -1.99019e+00 
-5.80136e-02 -3.40287e+00 -1.98515e+00 
-6.33831e-02 -3.42843e+00 -1.97929e+00 
-6.89903e-02 -3.45227e+00 -1.97157e+00 
-7.37504e-02 -3.47356e+00 -1.95983e+00 
-7.44306e-02 -3.48768e+00 -1.93895e+00 
-6.29140e-02 -3.48198e+00 -1.89745e+00 
-1.73504e-02 -3.41800e+00 -1.80620e+00 
 1.16528e-01 -3.21472e+00 -1.60435e+00 
 5.35371e-01 -2.48551e+00 -1.00847e+00 
 1.46930e+00 -2.10799e+00 -5.02735e-01 
-4.07920e+01 -1.08730e+01 -8.55408e+00 
-3.03846e+01 -8.45059e+00 -8.19872e+00 
-2.64581e+01 -8.46094e+00 -6.85287e+00 
-2.41418e+01 -8.34036e+00 -5.94929e+00 
-2.25315e+01 -8.19033e+00 -5.26417e+00 
-2.12906e+01 -8.01262e+00 -4.71810e+00 
-2.02680e+01 -7.81967e+00 -4.26713e+00 
-1.93857e+01 -7.61891e+00 -3.88451e+00 
-1.85996e+01 -7.41486e+00 -3.55343e+00 
-1.78824e+01 -7.20998e+00 -3.26254e+00 
-1.72171e+01 -7.00570e+00 -3.00405e+00 
-1.65918e+01 -6.80273e+00 -2.77222e+00 
-1.59982e+01 -6.60147e+00 -2.56283e+00 
-1.54304e+01 -6.40205e+00 -2.37257e+00 
-1.48839e+01 -6.20456e+00 -2.19890e+00 
-1.43553e+01 -6.00893e+00 -2.03971e+00 
-1.38420e+01 -5.81515e+00 -1.89333e+00 
-1.33418e+01 -5.62310e+00 -1.75834e+00 
-1.28532e+01 -5.43275e+00 -1.63358e+00 
-1.23746e+01 -5.24397e+00 -1.51803e+00 
-1.19050e+01 -5.05671e+00 -1.41086e+00 
-1.14433e+01 -4.87085e+00 -1.31130e+00 
-1.09888e+01 -4.68635e+00 -1.21875e+00 
-1.05407e+01 -4.50310e+00 -1.13263e+00 
-1.00986e+01 -4.32106e+00 -1.05245e+00 
-9.66164e+00 -4.14014e+00 -9.77774e-01 
-9.22961e+00 -3.96029e+00 -9.08229e-01 
-8.80197e+00 -3.78143e+00 -8.43458e-01 
-8.37843e+00 -3.60352e+00 -7.83170e-01 
-7.95858e+00 -3.42649e+00 -7.27080e-01 
-7.54218e+00 -3.25030e+00 -6.74955e-01 
-7.12888e+00 -3.07488e+00 -6.26563e-01 
-6.71852e+00 -2.90021e+00 -5.81718e-01 
-6.31076e+00 -2.72620e+00 -5.40232e-01 
-5.90548e+00 -2.55284e+00 -5.01954e-01 
-5.50238e+00 -2.38006e+00 -4.66731e-01 
-5.10136e+00 -2.20784e+00 -4.34441e-01 
-4.70216e+00 -2.03610e+00 -4.04961e-01 
-4.30467e+00 -1.86484e+00 -3.78194e-01 
-3.90866e+00 -1.69399e+00 -3.54040e-01 
-3.51406e+00 -1.52353e+00 -3.32423e-01 
-3.12062e+00 -1.35340e+00 -3.13265e-01 
-2.72828e+00 -1.18358e+00 -2.96506e-01 
-2.33682e+00 -1.01400e+00 -2.82088e-01 
-1.94619e+00 -8.44671e-01 -2.69966e-01 
-1.55616e+00 -6.75507e-01 -2.60100e-01 
-1.16669e+00 -5.06508e-01 -2.52459e-01 
-7.77565e-01 -3.37604e-01 -2.47018e-01 
-3.88733e-01 -1.68790e-01 -2.43761e-01 
-1.06518e-12 -4.99744e-13 -2.42680e-01 
 3.88733e-01  1.68790e-01 -2.43761e-01 
 7.77565e-01  3.37604e-01 -2.47018e-01 
 1.16669e+00  5.06508e-01 -2.52459e-01 
 1.55616e+00  6.75507e-01 -2.60100e-01 
 1.94619e+00  8.44671e-01 -2.69966e-01 
 2.33682e+00  1.01400e+00 -2.82088e-01 
 2.72828e+00  1.18358e+00 -2.96506e-01 
 3.12062e+00  1.35340e+00 -3.13265e-01 
 3.51406e+00  1.52353e+00 -3.32423e-01 
 3.90866e+00  1.69399e+00 -3.54040e-01 
 4.30467e+00  1.86484e+00 -3.78194e-01 
 4.70216e+00  2.03610e+00 -4.04961e-01 
 5.10136e+00  2.20784e+00 -4.34441e-01 
 5.50238e+00  2.38006e+00 -4.66731e-01 
 5.90548e+00  2.55284e+00 -5.01954e-01 
 6.31076e+00  2.72620e+00 -5.40232e-01 
 6.71852e+00  2.90021e+00 -5.81718e-01 
 7.12888e+00  3.07488e+00 -6.26563e-01 
 7.54218e+00  3.25030e+00 -6.74955e-01 
 7.95858e+00  3.42649e+00 -7.27080e-01 
 8.37843e+00  3.60352e+00 -7.83170e-01 
 8.80197e+00  3.78143e+00 -8.43458e-01 
 9.22961e+00  3.96029e+00 -9.08229e-01 
 9.66164e+00  4.14014e+00 -9.77774e-01 
 1.00986e+01  4.32106e+00 -1.05245e+00 
 1.05407e+01  4.50310e+00 -1.13263e+00 
 1.09888e+01  4.68635e+00 -1.21875e+00 
 1.14433e+01  4.87085e+00 -1.31130e+00 
 1.19050e+01  5.05671e+00 -1.41086e+00 
 1.23746e+01  5.24397e+00 -1.51803e+00 
 1.28532e+01  5.43275e+00 -1.63358e+00 
 1.33418e+01  5.62310e+00 -1.75834e+00 
 1.38420e+01  5.81515e+00 -1.89333e+00 
 1.43553e+01  6.00893e+00 -2.03971e+00 
 1.48839e+01  6.20456e+00 -2.19890e+00 
 1.54304e+01  6.40205e+00 -2.37257e+00 
 1.59982e+01  6.60147e+00 -2.56283e+00 
 1.65918e+01  6.80273e+00 -2.77222e+00 
 1.72171e+01  7.00570e+00 -3.00405e+00 
 1.78824e+01  7.20998e+00 -3.26254e+00 
 1.85996e+01  7.41486e+00 -3.55343e+00 
 1.93857e+01  7.61891e+00 -3.88451e+00 
 2.02680e+01  7.81967e+00 -4.26713e+00 
 2.12906e+01  8.01262e+00 -4.71810e+00 
 2.25315e+01  8.19033e+00 -5.26417e+00 
 2.41418e+01  8.34036e+00 -5.94929e+00 
 2.64581e+01  8.46094e+00 -6.85287e+00 
 3.03846e+01  8.45059e+00 -8.19872e+00 
 4.07920e+01  1.08730e+01 -8.55408e+00 
-2.63605e+01  1.90950e+00  3.55036e-01 
-2.95366e+01 -2.55535e+00 -4.36579e+00 
-2.75268e+01 -3.93651e+00 -5.26243e+00 
-2.55326e+01 -4.77000e+00 -5.38470e+00 
-2.38744e+01 -5.26862e+00 -5.20017e+00 
-2.25014e+01 -5.57016e+00 -4.91308e+00 
-2.13402e+01 -5.74126e+00 -4.60101e+00 
-2.03333e+01 -5.82425e+00 -4.29534e+00 
-1.94401e+01 -5.84593e+00 -4.00781e+00 
-1.86323e+01 -5.82409e+00 -3.74188e+00 
-1.78901e+01 -5.77068e+00 -3.49760e+00 
-1.71992e+01 -5.69397e+00 -3.27363e+00 
-1.65492e+01 -5.59976e+00 -3.06824e+00 
-1.59325e+01 -5.49222e+00 -2.87958e+00 
-1.53433e+01 -5.37441e+00 -2.70599e+00 
-1.47770e+01 -5.24855e+00 -2.54592e+00 
-1.42303e+01 -5.11637e+00 -2.39807e+00 
-1.37002e+01 -4.97914e+00 -2.26121e+00 
-1.31847e+01 -4.83789e+00 -2.13435e+00 
-1.26817e+01 -4.69337e+00 -2.01657e+00 
-1.21900e+01 -4.54622e+00 -1.90711e+00 
-1.17081e+01 -4.39692e+00 -1.80525e+00 
-1.12351e+01 -4.24589e+00 -1.71041e+00 
-1.07699e+01 -4.09341e+00 -1.62203e+00 
-1.03120e+01 -3.93978e+00 -1.53965e+00 
-9.86037e+00 -3.78519e+00 -1.46284e+00 
-9.41469e+00 -3.62983e+00 -1.39123e+00 
-8.97429e+00 -3.47383e+00 -1.32448e+00 
-8.53879e+00 -3.31734e+00 -1.26230e+00 
-8.10768e+00 -3.16041e+00 -1.20440e+00 
-7.68068e+00 -3.00318e+00 -1.15055e+00 
-7.25736e+00 -2.84567e+00 -1.10053e+00 
-6.83748e+00 -2.68798e+00 -1.05414e+00 
-6.42068e+00 -2.53011e+00 -1.01120e+00 
-6.00677e+00 -2.37215e+00 -9.71562e-01 
-5.59543e+00 -2.21408e+00 -9.35067e-01 
-5.18650e+00 -2.05597e+00 -9.01594e-01 
-4.77968e+00 -1.89780e+00 -8.71022e-01 
-4.37486e+00 -1.73963e+00 -8.43251e-01 
-3.97176e+00 -1.58143e+00 -8.18182e-01 
-3.57027e+00 -1.42325e+00 -7.95738e-01 
-3.17013e+00 -1.26506e+00 -7.75842e-01 
-2.77126e+00 -1.10689e+00 -7.58432e-01 
-2.37341e+00 -9.48721e-01 -7.43451e-01 
-1.97650e+00 -7.90582e-01 -7.30853e-01 
-1.58030e+00 -6.32439e-01 -7.20598e-01 
-1.18473e+00 -4.74325e-01 -7.12655e-01 
-7.89557e-01 -3.16204e-01 -7.06998e-01 
-3.94720e-01 -1.58106e-01 -7.03611e-01 
-1.04855e-12 -5.45069e-13 -7.02484e-01 
 3.94720e-01  1.58106e-01 -7.03611e-01 
 7.89557e-01  3.16204e-01 -7.06998e-01 
 1.18473e+00  4.74325e-01 -7.12655e-01 
 1.58030e+00  6.32439e-01 -7.20598e-01 
 1.97650e+00  7.90582e-01 -7.30853e-01 
 2.37341e+00  9.48721e-01 -7.43451e-01 
 2.77126e+00  1.10689e+00 -7.58432e-01 
 3.17013e+00  1.26506e+00 -7.75842e-01 
 3.57027e+00  1.42325e+00 -7.95738e-01 
 3.97176e+00  1.58143e+00 -8.18182e-01 
 4.37486e+00  1.73963e+00 -8.43251e-01 
 4.77968e+00  1.89780e+00 -8.71022e-01 
 5.18650e+00  2.05597e+00 -9.01594e-01 
 5.59543e+00  2.21408e+00 -9.35067e-01 
 6.00677e+00  2.37215e+00 -9.71562e-01 
 6.42068e+00  2.53011e+00 -1.01120e+00 
 6.83748e+00  2.68798e+00 -1.05414e+00 
 7.25736e+00  2.84567e+00 -1.10053e+00 
 7.68068e+00  3.00318e+00 -1.15055e+00 
 8.10768e+00  3.16041e+00 -1.20440e+00 
 8.53879e+00  3.31734e+00 -1.26230e+00 
 8.97429e+00  3.47383e+00 -1.32448e+00 
 9.41469e+00  3.62983e+00 -1.39123e+00 
 9.86037e+00  3.78519e+00 -1.46284e+00 
 1.03120e+01  3.93978e+00 -1.53965e+00 
 1.07699e+01  4.09341e+00 -1.62203e+00 
 1.12351e+01  4.24589e+00 -1.71041e+00 
 1.17081e+01  4.39692e+00 -1.80525e+00 
 1.21900e+01  4.54622e+00 -1.90711e+00 
 1.26817e+01  4.69337e+00 -2.01657e+00 
 1.31847e+01  4.83789e+00 -2.13435e+00 
 1.37002e+01  4.97914e+00 -2.26121e+00 
 1.42303e+01  5.11637e+00 -2.39807e+00 
 1.47770e+01  5.24855e+00 -2.54592e+00 
 1.53433e+01  5.37441e+00 -2.70599e+00 
 1.59325e+01  5.49222e+00 -2.87958e+00 
 1.65492e+01  5.59976e+00 -3.06824e+00 
 1.71992e+01  5.69397e+00 -3.27363e+00 
 1.78901e+01  5.77068e+00 -3.49760e+00 
 1.86323e+01  5.82409e+00 -3.74188e+00 
 1.94401e+01  5.84593e+00 -4.00781e+00 
 2.03333e+01  5.82425e+00 -4.29534e+00 
 2.13402e+01  5.74126e+00 -4.60101e+00 
 2.25014e+01  5.57016e+00 -4.91308e+00 
 2.38744e+01  5.26862e+00 -5.20017e+00 
 2.55326e+01  4.77000e+00 -5.38470e+00 
 2.75268e+01  3.93651e+00 -5.26243e+00 
 2.95366e+01  2.55535e+00 -4.36579e+00 
 2.63605e+01 -1.90950e+00  3.55036e-01 
-2.44669e+01  1.39027e-01  6.30325e-02 
-2.50064e+01  9.09925e-03 -1.34229e+00 
-2.54164e+01 -1.19795e+00 -2.70421e+00 
-2.47387e+01 -2.12121e+00 -3.45935e+00 
-2.37379e+01 -2.83326e+00 -3.83697e+00 
-2.26866e+01 -3.36791e+00 -3.97504e+00 
-2.16766e+01 -3.76323e+00 -3.97335e+00 
-2.07335e+01 -4.04970e+00 -3.89219e+00 
-1.98594e+01 -4.25136e+00 -3.76779e+00 
-1.90476e+01 -4.38700e+00 -3.62164e+00 
-1.82900e+01 -4.47088e+00 -3.46649e+00 
-1.75784e+01 -4.51398e+00 -3.30980e+00 
-1.69060e+01 -4.52464e+00 -3.15591e+00 
-1.62665e+01 -4.50933e+00 -3.00723e+00 
-1.56553e+01 -4.47299e+00 -2.86508e+00 
-1.50681e+01 -4.41954e+00 -2.73002e+00 
-1.45017e+01 -4.35202e+00 -2.60226e+00 
-1.39534e+01 -4.27285e+00 -2.48173e+00 
-1.34209e+01 -4.18398e+00 -2.36824e+00 
-1.29022e+01 -4.08696e+00 -2.26149e+00 
-1.23958e+01 -3.98307e+00 -2.16119e+00 
-1.19003e+01 -3.87335e+00 -2.06699e+00 
-1.14147e+01 -3.75867e+00 -1.97859e+00 
-1.09377e+01 -3.63973e+00 -1.89564e+00 
-1.04687e+01 -3.51713e+00 -1.81786e+00 
-1.00068e+01 -3.39136e+00 -1.74497e+00 
-9.55138e+00 -3.26287e+00 -1.67670e+00 
-9.10185e+00 -3.13199e+00 -1.61280e+00 
-8.65775e+00 -2.99905e+00 -1.55306e+00 
-8.21851e+00 -2.86430e+00 -1.49725e+00 
-7.78381e+00 -2.72798e+00 -1.44521e+00 
-7.35316e+00 -2.59027e+00 -1.39673e+00 
-6.92632e+00 -2.45137e+00 -1.35167e+00 
-6.50287e+00 -2.31139e+00 -1.30988e+00 
-6.08260e+00 -2.17049e+00 -1.27122e+00 
-5.66515e+00 -2.02877e+00 -1.23557e+00 
-5.25036e+00 -1.88634e+00 -1.20283e+00 
-4.83789e+00 -1.74328e+00 -1.17288e+00 
-4.42760e+00 -1.59967e+00 -1.14564e+00 
-4.01920e+00 -1.45558e+00 -1.12102e+00 
-3.61256e+00 -1.31109e+00 -1.09896e+00 
-3.20740e+00 -1.16623e+00 -1.07939e+00 
-2.80363e+00 -1.02108e+00 -1.06225e+00 
-2.40098e+00 -8.75659e-01 -1.04749e+00 
-1.99935e+00 -7.30037e-01 -1.03508e+00 
-1.59850e+00 -5.84225e-01 -1.02496e+00 
-1.19833e+00 -4.38292e-01 -1.01713e+00 
-7.98602e-01 -2.92244e-01 -1.01155e+00 
-3.99236e-01 -1.46144e-01 -1.00820e+00 
-1.03190e-12 -6.11566e-13 -1.00709e+00 
 3.99236e-01  1.46144e-01 -1.00820e+00 
 7.98602e-01  2.92244e-01 -1.01155e+00 
 1.19833e+00  4.38292e-01 -1.01713e+00 
 1.59850e+00  5.84225e-01 -1.02496e+00 
 1.99935e+00  7.30037e-01 -1.03508e+00 
 2.40098e+00  8.75659e-01 -1.04749e+00 
 2.80363e+00  1.02108e+00 -1.06225e+00 
 3.20740e+00  1.16623e+00 -1.07939e+00 
 3.61256e+00  1.31109e+00 -1.09896e+00 
 4.01920e+00  1.45558e+00 -1.12102e+00 
 4.42760e+00  1.59967e+00 -1.14564e+00 
 4.83789e+00  1.74328e+00 -1.17288e+00 
 5.25036e+00  1.88634e+00 -1.20283e+00 
 5.66515e+00  2.02877e+00 -1.23557e+00 
 6.08260e+00  2.17049e+00 -1.27122e+00 
 6.50287e+00  2.31139e+00 -1.30988e+00 
 6.92632e+00  2.45137e+00 -1.35167e+00 
 7.35316e+00  2.59027e+00 -1.39673e+00 
 7.78381e+00  2.72798e+00 -1.44521e+00 
 8.21851e+00  2.86430e+00 -1.49725e+00 
 8.65775e+00  2.99905e+00 -1.55306e+00 
 9.10185e+00  3.13199e+00 -1.61280e+00 
 9.55138e+00  3.26287e+00 -1.67670e+00 
 1.00068e+01  3.39136e+00 -1.74497e+00 
 1.04687e+01  3.51713e+00 -1.81786e+00 
 1.09377e+01  3.63973e+00 -1.89564e+00 
 1.14147e+01  3.75867e+00 -1.97859e+00 
 1.19003e+01  3.87335e+00 -2.06699e+00 
 1.23958e+01  3.98307e+00 -2.16119e+00 
 1.29022e+01  4.08696e+00 -2.26149e+00 
 1.34209e+01  4.18398e+00 -2.36824e+00 
 1.39534e+01  4.27285e+00 -2.48173e+00 
 1.45017e+01  4.35202e+00 -2.60226e+00 
 1.50681e+01  4.41954e+00 -2.73002e+00 
 1.56553e+01  4.47299e+00 -2.86508e+00 
 1.62665e+01  4.50933e+00 -3.00723e+00 
 1.69060e+01  4.52464e+00 -3.15591e+00 
 1.75784e+01  4.51398e+00 -3.30980e+00 
 1.82900e+01  4.47088e+00 -3.46649e+00 
 1.90476e+01  4.38700e+00 -3.62164e+00 
 1.98594e+01  4.25136e+00 -3.76779e+00 
 2.07335e+01  4.04970e+00 -3.89219e+00 
 2.16766e+01  3.76323e+00 -3.97335e+00 
 2.26866e+01  3.36791e+00 -3.97504e+00 
 2.37379e+01  2.83326e+00 -3.83697e+00 
 2.47387e+01  2.12121e+00 -3.45935e+00 
 2.54164e+01  1.19795e+00 -2.70421e+00 
 2.50064e+01 -9.09925e-03 -1.34229e+00 
 2.44669e+01 -1.39027e-01  6.30325e-02 
-2.32109e+01  1.63624e-01  1.83591e-02 
-2.35822e+01 -8.61830e-02 -7.60970e-01 
-2.36015e+01 -3.67049e-01 -1.45463e+00 
-2.34259e+01 -8.96284e-01 -2.12329e+00 
-2.29363e+01 -1.43198e+00 -2.62163e+00 
-2.22658e+01 -1.91636e+00 -2.95496e+00 
-2.15139e+01 -2.32996e+00 -3.15421e+00 
-2.07384e+01 -2.67160e+00 -3.25456e+00 
-1.99698e+01 -2.94653e+00 -3.28493e+00 
-1.92222e+01 -3.16265e+00 -3.26731e+00 
-1.85018e+01 -3.32797e+00 -3.21756e+00 
-1.78097e+01 -3.45010e+00 -3.14697e+00 
-1.71453e+01 -3.53561e+00 -3.06343e+00 
-1.65066e+01 -3.59025e+00 -2.97243e+00 
-1.58914e+01 -3.61875e+00 -2.87776e+00 
-1.52974e+01 -3.62515e+00 -2.78203e+00 
-1.47226e+01 -3.61277e+00 -2.68702e+00 
-1.41647e+01 -3.58439e+00 -2.59393e+00 
-1.36222e+01 -3.54233e+00 -2.50356e+00 
-1.30934e+01 -3.48852e+00 -2.41641e+00 
-1.25769e+01 -3.42459e+00 -2.33280e+00 
-1.20716e+01 -3.35189e+00 -2.25289e+00 
-1.15763e+01 -3.27159e+00 -2.17677e+00 
-1.10901e+01 -3.18465e+00 -2.10444e+00 
-1.06122e+01 -3.09193e+00 -2.03587e+00 
-1.01418e+01 -2.99411e+00 -1.97098e+00 
-9.67820e+00 -2.89184e+00 -1.90970e+00 
-9.22084e+00 -2.78562e+00 -1.85192e+00 
-8.76924e+00 -2.67594e+00 -1.79755e+00 
-8.32283e+00 -2.56317e+00 -1.74647e+00 
-7.88124e+00 -2.44768e+00 -1.69858e+00 
-7.44399e+00 -2.32976e+00 -1.65377e+00 
-7.01080e+00 -2.20971e+00 -1.61195e+00 
-6.58124e+00 -2.08773e+00 -1.57302e+00 
-6.15508e+00 -1.96407e+00 -1.53689e+00 
-5.73195e+00 -1.83888e+00 -1.50348e+00 
-5.31165e+00 -1.71237e+00 -1.47270e+00 
-4.89385e+00 -1.58466e+00 -1.44449e+00 
-4.47839e+00 -1.45591e+00 -1.41877e+00 
-4.06494e+00 -1.32622e+00 -1.39549e+00 
-3.65339e+00 -1.19574e+00 -1.37460e+00 
-3.24343e+00 -1.06454e+00 -1.35603e+00 
-2.83495e+00 -9.32742e-01 -1.33975e+00 
-2.42767e+00 -8.00412e-01 -1.32571e+00 
-2.02149e+00 -6.67660e-01 -1.31390e+00 
-1.61614e+00 -5.34540e-01 -1.30426e+00 
-1.21152e+00 -4.01152e-01 -1.29680e+00 
-8.07376e-01 -2.67543e-01 -1.29147e+00 
-4.03618e-01 -1.33811e-01 -1.28829e+00 
-1.01276e-12 -7.02769e-13 -1.28722e+00 
 4.03618e-01  1.33811e-01 -1.28829e+00 
 8.07376e-01  2.67543e-01 -1.29147e+00 
 1.21152e+00  4.01152e-01 -1.29680e+00 
 1.61614e+00  5.34540e-01 -1.30426e+00 
 2.02149e+00  6.67660e-01 -1.31390e+00 
 2.42767e+00  8.00412e-01 -1.32571e+00 
 2.83495e+00  9.32742e-01 -1.33975e+00 
 3.24343e+00  1.06454e+00 -1.35603e+00 
 3.65339e+00  1.19574e+00 -1.37460e+00 
 4.06494e+00  1.32622e+00 -1.39549e+00 
 4.47839e+00  1.45591e+00 -1.41877e+00 
 4.89385e+00  1.58466e+00 -1.44449e+00 
 5.31165e+00  1.71237e+00 -1.47270e+00 
 5.73195e+00  1.83888e+00 -1.50348e+00 
 6.15508e+00  1.96407e+00 -1.53689e+00 
 6.58124e+00  2.08773e+00 -1.57302e+00 
 7.01080e+00  2.20971e+00 -1.61195e+00 
 7.44399e+00  2.32976e+00 -1.65377e+00 
 7.88124e+00  2.44768e+00 -1.69858e+00 
 8.32283e+00  2.56317e+00 -1.74647e+00 
 8.76924e+00  2.67594e+00 -1.79755e+00 
 9.22084e+00  2.78562e+00 -1.85192e+00 
 9.67820e+00  2.89184e+00 -1.90970e+00 
 1.01418e+01  2.99411e+00 -1.97098e+00 
 1.06122e+01  3.09193e+00 -2.03587e+00 
 1.10901e+01  3.18465e+00 -2.10444e+00 
 1.15763e+01  3.27159e+00 -2.17677e+00 
 1.20716e+01  3.35189e+00 -2.25289e+00 
 1.25769e+01  3.42459e+00 -2.33280e+00 
 1.30934e+01  3.48852e+00 -2.41641e+00 
 1.36222e+01  3.54233e+00 -2.50356e+00 
 1.41647e+01  3.58439e+00 -2.59393e+00 
 1.47226e+01  3.61277e+00 -2.68702e+00 
 1.52974e+01  3.62515e+00 -2.78203e+00 
 1.58914e+01  3.61875e+00 -2.87776e+00 
 1.65066e+01  3.59025e+00 -2.97243e+00 
 1.71453e+01  3.53561e+00 -3.06343e+00 
 1.78097e+01  3.45010e+00 -3.14697e+00 
 1.85018e+01  3.32797e+00 -3.21756e+00 
 1.92222e+01  3.16265e+00 -3.26731e+00 
 1.99698e+01  2.94653e+00 -3.28493e+00 
 2.07384e+01  2.67160e+00 -3.25456e+00 
 2.15139e+01  2.32996e+00 -3.15421e+00 
 2.22658e+01  1.91636e+00 -2.95496e+00 
 2.29363e+01  1.43198e+00 -2.62163e+00 
 2.34259e+01  8.96284e-01 -2.12329e+00 
 2.36015e+01  3.67049e-01 -1.45463e+00 
 2.35822e+01  8.61830e-02 -7.60970e-01 
 2.32109e+01 -1.63624e-01  1.83591e-02 
-2.24392e+01  5.94173e-02  7.30980e-04 
-2.25840e+01 -1.51849e-02 -4.79812e-01 
-2.25813e+01 -1.89318e-01 -9.38269e-01 
-2.24073e+01 -4.33781e-01 -1.39570e+00 
-2.20930e+01 -7.52378e-01 -1.81745e+00 
-2.16411e+01 -1.09210e+00 -2.16616e+00 
-2.10900e+01 -1.42160e+00 -2.43352e+00 
-2.04781e+01 -1.72370e+00 -2.62545e+00 
-1.98350e+01 -1.99041e+00 -2.75359e+00 
-1.91805e+01 -2.21934e+00 -2.83058e+00 
-1.85272e+01 -2.41106e+00 -2.86785e+00 
-1.78825e+01 -2.56791e+00 -2.87500e+00 
-1.72507e+01 -2.69282e+00 -2.85976e+00 
-1.66336e+01 -2.78906e+00 -2.82820e+00 
-1.60321e+01 -2.85973e+00 -2.78499e+00 
-1.54460e+01 -2.90783e+00 -2.73372e+00 
-1.48748e+01 -2.93600e+00 -2.67712e+00 
-1.43176e+01 -2.94665e+00 -2.61724e+00 
-1.37735e+01 -2.94188e+00 -2.55563e+00 
-1.32416e+01 -2.92355e+00 -2.49346e+00 
-1.27211e+01 -2.89326e+00 -2.43158e+00 
-1.22108e+01 -2.85242e+00 -2.37065e+00 
-1.17102e+01 -2.80226e+00 -2.31114e+00 
-1.12183e+01 -2.74385e+00 -2.25339e+00 
-1.07345e+01 -2.67813e+00 -2.19764e+00 
-1.02582e+01 -2.60591e+00 -2.14407e+00 
-9.78868e+00 -2.52790e+00 -2.09279e+00 
-9.32544e+00 -2.44473e+00 -2.04388e+00 
-8.86802e+00 -2.35697e+00 -1.99737e+00 
-8.41589e+00 -2.26508e+00 -1.95328e+00 
-7.96870e+00 -2.16953e+00 -1.91162e+00 
-7.52597e+00 -2.07067e+00 -1.87236e+00 
-7.08743e+00 -1.96887e+00 -1.83548e+00 
-6.65264e+00 -1.86442e+00 -1.80096e+00 
-6.22138e+00 -1.75762e+00 -1.76876e+00 
-5.79326e+00 -1.64869e+00 -1.73885e+00 
-5.36809e+00 -1.53788e+00 -1.71119e+00 
-4.94552e+00 -1.42537e+00 -1.68574e+00 
-4.52539e+00 -1.31138e+00 -1.66247e+00 
-4.10738e+00 -1.19605e+00 -1.64134e+00 
-3.69134e+00 -1.07956e+00 -1.62233e+00 
-3.27697e+00 -9.62036e-01 -1.60540e+00 
-2.86415e+00 -8.43639e-01 -1.59053e+00 
-2.45259e+00 -7.24472e-01 -1.57770e+00 
-2.04218e+00 -6.04679e-01 -1.56687e+00 
-1.63264e+00 -4.84353e-01 -1.55804e+00 
-1.22386e+00 -3.63626e-01 -1.55118e+00 
-8.15592e-01 -2.42581e-01 -1.54629e+00 
-4.07721e-01 -1.21345e-01 -1.54336e+00 
-9.78780e-13 -8.33485e-13 -1.54239e+00 
 4.07721e-01  1.21345e-01 -1.54336e+00 
 8.15592e-01  2.42581e-01 -1.54629e+00 
 1.22386e+00  3.63626e-01 -1.55118e+00 
 1.63264e+00  4.84353e-01 -1.55804e+00 
 2.04218e+00  6.04679e-01 -1.56687e+00 
 2.45259e+00  7.24472e-01 -1.57770e+00 
 2.86415e+00  8.43639e-01 -1.59053e+00 
 3.27697e+00  9.62036e-01 -1.60540e+00 
 3.69134e+00  1.07956e+00 -1.62233e+00 
 4.10738e+00  1.19605e+00 -1.64134e+00 
 4.52539e+00  1.31138e+00 -1.66247e+00 
 4.94552e+00  1.42537e+00 -1.68574e+00 
 5.36809e+00  1.53788e+00 -1.71119e+00 
 5.79326e+00  1.64869e+00 -1.73885e+00 
 6.22138e+00  1.75762e+00 -1.76876e+00 
 6.65264e+00  1.86442e+00 -1.80096e+00 
 7.08743e+00  1.96887e+00 -1.83548e+00 
 7.52597e+00  2.07067e+00 -1.87236e+00 
 7.96870e+00  2.16953e+00 -1.91162e+00 
 8.41589e+00  2.26508e+00 -1.95328e+00 
 8.86802e+00  2.35697e+00 -1.99737e+00 
 9.32544e+00  2.44473e+00 -2.04388e+00 
 9.78868e+00  2.52790e+00 -2.09279e+00 
 1.02582e+01  2.60591e+00 -2.14407e+00 
 1.07345e+01  2.67813e+00 -2.19764e+00 
 1.12183e+01  2.74385e+00 -2.25339e+00 
 1.17102e+01  2.80226e+00 -2.31114e+00 
 1.22108e+01  2.85242e+00 -2.37065e+00 
 1.27211e+01  2.89326e+00 -2.43158e+00 
 1.32416e+01  2.92355e+00 -2.49346e+00 
 1.37735e+01  2.94188e+00 -2.55563e+00 
 1.43176e+01  2.94665e+00 -2.61724e+00 
 1.48748e+01  2.93600e+00 -2.67712e+00 
 1.54460e+01  2.90783e+00 -2.73372e+00 
 1.60321e+01  2.85973e+00 -2.78499e+00 
 1.66336e+01  2.78906e+00 -2.82820e+00 
 1.72507e+01  2.69282e+00 -2.85976e+00 
 1.78825e+01  2.56791e+00 -2.87500e+00 
 1.85272e+01  2.41106e+00 -2.86785e+00 
 1.91805e+01  2.21934e+00 -2.83058e+00 
 1.98350e+01  1.99041e+00 -2.75359e+00 
 2.04781e+01  1.72370e+00 -2.62545e+00 
 2.10900e+01  1.42160e+00 -2.43352e+00 
 2.16411e+01  1.09210e+00 -2.16616e+00 
 2.20930e+01  7.52378e-01 -1.81745e+00 
 2.24073e+01  4.33781e-01 -1.39570e+00 
 2.25813e+01  1.89318e-01 -9.38269e-01 
 2.25840e+01  1.51849e-02 -4.79812e-01 
 2.24392e+01 -5.94173e-02  7.30980e-04 
-2.19058e+01  3.21650e-02 -4.32969e-03 
-2.19197e+01 -1.11418e-02 -3.35293e-01 
-2.18411e+01 -9.61783e-02 -6.55037e-01 
-2.16690e+01 -2.39909e-01 -9.93071e-01 
-2.13976e+01 -4.26762e-01 -1.32336e+00 
-2.10374e+01 -6.46189e-01 -1.62737e+00 
-2.05998e+01 -8.79892e-01 -1.89102e+00 
-2.01018e+01 -1.11287e+00 -2.10873e+00 
-1.95615e+01 -1.33446e+00 -2.28088e+00 
-1.89943e+01 -1.53808e+00 -2.41142e+00 
-1.84124e+01 -1.72003e+00 -2.50576e+00 
-1.78246e+01 -1.87884e+00 -2.56973e+00 
-1.72371e+01 -2.01431e+00 -2.60876e+00 
-1.66541e+01 -2.12721e+00 -2.62773e+00 
-1.60782e+01 -2.21874e+00 -2.63080e+00 
-1.55111e+01 -2.29042e+00 -2.62144e+00 
-1.49535e+01 -2.34383e+00 -2.60251e+00 
-1.44058e+01 -2.38058e+00 -2.57635e+00 
-1.38680e+01 -2.40220e+00 -2.54485e+00 
-1.33399e+01 -2.41013e+00 -2.50951e+00 
-1.28211e+01 -2.40572e+00 -2.47154e+00 
-1.23112e+01 -2.39017e+00 -2.43190e+00 
-1.18097e+01 -2.36460e+00 -2.39138e+00 
-1.13161e+01 -2.33000e+00 -2.35057e+00 
-1.08299e+01 -2.28727e+00 -2.30995e+00 
-1.03506e+01 -2.23722e+00 -2.26991e+00 
-9.87784e+00 -2.18057e+00 -2.23074e+00 
-9.41103e+00 -2.11796e+00 -2.19267e+00 
-8.94985e+00 -2.05000e+00 -2.15589e+00 
-8.49381e+00 -1.97719e+00 -2.12053e+00 
-8.04262e+00 -1.90001e+00 -2.08671e+00 
-7.59584e+00 -1.81888e+00 -2.05448e+00 
-7.15321e+00 -1.73421e+00 -2.02393e+00 
-6.71434e+00 -1.64631e+00 -1.99509e+00 
-6.27900e+00 -1.55554e+00 -1.96799e+00 
-5.84683e+00 -1.46215e+00 -1.94264e+00 
-5.41763e+00 -1.36644e+00 -1.91906e+00 
-4.99107e+00 -1.26862e+00 -1.89726e+00 
-4.56698e+00 -1.16894e+00 -1.87723e+00 
-4.14505e+00 -1.06759e+00 -1.85897e+00 
-3.72512e+00 -9.64783e-01 -1.84248e+00 
-3.30690e+00 -8.60672e-01 -1.82775e+00 
-2.89026e+00 -7.55449e-01 -1.81478e+00 
-2.47491e+00 -6.49255e-01 -1.80355e+00 
-2.06073e+00 -5.42259e-01 -1.79406e+00 
-1.64745e+00 -4.34588e-01 -1.78631e+00 
-1.23496e+00 -3.26401e-01 -1.78029e+00 
-8.22982e-01 -2.17812e-01 -1.77599e+00 
-4.11414e-01 -1.08974e-01 -1.77341e+00 
-9.66389e-13 -9.88648e-13 -1.77255e+00 
 4.11414e-01  1.08974e-01 -1.77341e+00 
 8.22982e-01  2.17812e-01 -1.77599e+00 
 1.23496e+00  3.26401e-01 -1.78029e+00 
 1.64745e+00  4.34588e-01 -1.78631e+00 
 2.06073e+00  5.42259e-01 -1.79406e+00 
 2.47491e+00  6.49255e-01 -1.80355e+00 
 2.89026e+00  7.55449e-01 -1.81478e+00 
 3.30690e+00  8.60672e-01 -1.82775e+00 
 3.72512e+00  9.64783e-01 -1.84248e+00 
 4.14505e+00  1.06759e+00 -1.85897e+00 
 4.56698e+00  1.16894e+00 -1.87723e+00 
 4.99107e+00  1.26862e+00 -1.89726e+00 
 5.41763e+00  1.36644e+00 -1.91906e+00 
 5.84683e+00  1.46215e+00 -1.94264e+00 
 6.27900e+00  1.55554e+00 -1.96799e+00 
 6.71434e+00  1.64631e+00 -1.99509e+00 
 7.15321e+00  1.73421e+00 -2.02393e+00 
 7.59584e+00  1.81888e+00 -2.05448e+00 
 8.04262e+00  1.90001e+00 -2.08671e+00 
 8.49381e+00  1.97719e+00 -2.12053e+00 
 8.94985e+00  2.05000e+00 -2.15589e+00 
 9.41103e+00  2.11796e+00 -2.19267e+00 
 9.87784e+00  2.18057e+00 -2.23074e+00 
 1.03506e+01  2.23722e+00 -2.26991e+00 
 1.08299e+01  2.28727e+00 -2.30995e+00 
 1.13161e+01  2.33000e+00 -2.35057e+00 
 1.18097e+01  2.36460e+00 -2.39138e+00 
 1.23112e+01  2.39017e+00 -2.43190e+00 
 1.28211e+01  2.40572e+00 -2.47154e+00 
 1.33399e+01  2.41013e+00 -2.50951e+00 
 1.38680e+01  2.40220e+00 -2.54485e+00 
 1.44058e+01  2.38058e+00 -2.57635e+00 
 1.49535e+01  2.34383e+00 -2.60251e+00 
 1.55111e+01  2.29042e+00 -2.62144e+00 
 1.60782e+01  2.21874e+00 -2.63080e+00 
 1.66541e+01  2.12721e+00 -2.62773e+00 
 1.72371e+01  2.01431e+00 -2.60876e+00 
 1.78246e+01  1.87884e+00 -2.56973e+00 
 1.84124e+01  1.72003e+00 -2.50576e+00 
 1.89943e+01  1.53808e+00 -2.41142e+00 
 1.95615e+01  1.33446e+00 -2.28088e+00 
 2.01018e+01  1.11287e+00 -2.10873e+00 
 2.05998e+01  8.79892e-01 -1.89102e+00 
 2.10374e+01  6.46189e-01 -1.62737e+00 
 2.13976e+01  4.26762e-01 -1.32336e+00 
 2.16690e+01  2.39909e-01 -9.93071e-01 
 2.18411e+01  9.61783e-02 -6.55037e-01 
 2.19197e+01  1.11418e-02 -3.35293e-01 
 2.19058e+01 -3.21650e-02 -4.32969e-03 
-2.15137e+01  1.17812e-02 -7.17515e-03 
-2.14299e+01 -4.68653e-03 -2.53565e-01 
-2.12936e+01 -5.54550e-02 -4.92492e-01 
-2.10962e+01 -1.39488e-01 -7.50880e-01 
-2.08353e+01 -2.55989e-01 -1.01439e+00 
-2.05116e+01 -3.98061e-01 -1.26970e+00 
-2.01310e+01 -5.58096e-01 -1.50668e+00 
-1.97010e+01 -7.27339e-01 -1.71838e+00 
-1.92314e+01 -8.97786e-01 -1.90126e+00 
-1.87317e+01 -1.06310e+00 -2.05464e+00 
-1.82109e+01 -1.21861e+00 -2.17976e+00 
-1.76763e+01 -1.36125e+00 -2.27903e+00 
-1.71340e+01 -1.48911e+00 -2.35538e+00 
-1.65887e+01 -1.60133e+00 -2.41192e+00 
-1.60437e+01 -1.69764e+00 -2.45159e+00 
-1.55014e+01 -1.77833e+00 -2.47715e+00 
-1.49638e+01 -1.84392e+00 -2.49103e+00 
-1.44317e+01 -1.89519e+00 -2.49536e+00 
-1.39061e+01 -1.93300e+00 -2.49197e+00 
-1.33871e+01 -1.95828e+00 -2.48241e+00 
-1.28752e+01 -1.97192e+00 -2.46799e+00 
-1.23701e+01 -1.97485e+00 -2.44982e+00 
-1.18720e+01 -1.96792e+00 -2.42880e+00 
-1.13803e+01 -1.95195e+00 -2.40570e+00 
-1.08951e+01 -1.92770e+00 -2.38116e+00 
-1.04159e+01 -1.89589e+00 -2.35570e+00 
-9.94252e+00 -1.85716e+00 -2.32975e+00 
-9.47455e+00 -1.81212e+00 -2.30366e+00 
-9.01178e+00 -1.76133e+00 -2.27774e+00 
-8.55379e+00 -1.70530e+00 -2.25223e+00 
-8.10037e+00 -1.64450e+00 -2.22732e+00 
-7.65113e+00 -1.57934e+00 -2.20317e+00 
-7.20586e+00 -1.51024e+00 -2.17992e+00 
-6.76421e+00 -1.43755e+00 -2.15769e+00 
-6.32599e+00 -1.36161e+00 -2.13655e+00 
-5.89085e+00 -1.28272e+00 -2.11657e+00 
-5.45862e+00 -1.20117e+00 -2.09783e+00 
-5.02899e+00 -1.11722e+00 -2.08036e+00 
-4.60179e+00 -1.03114e+00 -2.06420e+00 
-4.17672e+00 -9.43123e-01 -2.04937e+00 
-3.75364e+00 -8.53415e-01 -2.03592e+00 
-3.33226e+00 -7.62200e-01 -2.02384e+00 
-2.91245e+00 -6.69688e-01 -2.01316e+00 
-2.49393e+00 -5.76043e-01 -2.00389e+00 
-2.07658e+00 -4.81459e-01 -1.99603e+00 
-1.66013e+00 -3.86085e-01 -1.98959e+00 
-1.24447e+00 -2.90103e-01 -1.98458e+00 
-8.29318e-01 -1.93652e-01 -1.98100e+00 
-4.14582e-01 -9.69054e-02 -1.97885e+00 
-9.51373e-13 -1.17362e-12 -1.97813e+00 
 4.14582e-01  9.69054e-02 -1.97885e+00 
 8.29318e-01  1.93652e-01 -1.98100e+00 
 1.24447e+00  2.90103e-01 -1.98458e+00 
 1.66013e+00  3.86085e-01 -1.98959e+00 
 2.07658e+00  4.81459e-01 -1.99603e+00 
 2.49393e+00  5.76043e-01 -2.00389e+00 
 2.91245e+00  6.69688e-01 -2.01316e+00 
 3.33226e+00  7.62200e-01 -2.02384e+00 
 3.75364e+00  8.53415e-01 -2.03592e+00 
 4.17672e+00  9.43123e-01 -2.04937e+00 
 4.60179e+00  1.03114e+00 -2.06420e+00 
 5.02899e+00  1.11722e+00 -2.08036e+00 
 5.45862e+00  1.20117e+00 -2.09783e+00 
 5.89085e+00  1.28272e+00 -2.11657e+00 
 6.32599e+00  1.36161e+00 -2.13655e+00 
 6.76421e+00  1.43755e+00 -2.15769e+00 
 7.20586e+00  1.51024e+00 -2.17992e+00 
 7.65113e+00  1.57934e+00 -2.20317e+00 
 8.10037e+00  1.64450e+00 -2.22732e+00 
 8.55379e+00  1.70530e+00 -2.25223e+00 
 9.01178e+00  1.76133e+00 -2.27774e+00 
 9.47455e+00  1.81212e+00 -2.30366e+00 
 9.94252e+00  1.85716e+00 -2.32975e+00 
 1.04159e+01  1.89589e+00 -2.35570e+00 
 1.08951e+01  1.92770e+00 -2.38116e+00 
 1.13803e+01  1.95195e+00 -2.40570e+00 
 1.18720e+01  1.96792e+00 -2.42880e+00 
 1.23701e+01  1.97485e+00 -2.44982e+00 
 1.28752e+01  1.97192e+00 -2.46799e+00 
 1.33871e+01  1.95828e+00 -2.48241e+00 
 1.39061e+01  1.93300e+00 -2.49197e+00 
 1.44317e+01  1.89519e+00 -2.49536e+00 
 1.49638e+01  1.84392e+00 -2.49103e+00 
 1.55014e+01  1.77833e+00 -2.47715e+00 
 1.60437e+01  1.69764e+00 -2.45159e+00 
 1.65887e+01  1.60133e+00 -2.41192e+00 
 1.71340e+01  1.48911e+00 -2.35538e+00 
 1.76763e+01  1.36125e+00 -2.27903e+00 
 1.82109e+01  1.21861e+00 -2.17976e+00 
 1.87317e+01  1.06310e+00 -2.05464e+00 
 1.92314e+01  8.97786e-01 -1.90126e+00 
 1.97010e+01  7.27339e-01 -1.71838e+00 
 2.01310e+01  5.58096e-01 -1.50668e+00 
 2.05116e+01  3.98061e-01 -1.26970e+00 
 2.08353e+01  2.55989e-01 -1.01439e+00 
 2.10962e+01  1.39488e-01 -7.50880e-01 
 2.12936e+01  5.54550e-02 -4.92492e-01 
 2.14299e+01  4.68653e-03 -2.53565e-01 
 2.15137e+01 -1.17812e-02 -7.17515e-03 
-2.12048e+01  1.83982e-04 -9.11195e-03 
-2.10499e+01 -2.44932e-03 -2.05208e-01 
-2.08647e+01 -3.25671e-02 -3.93852e-01 
-2.06400e+01 -8.47844e-02 -6.00278e-01 
-2.03723e+01 -1.58717e-01 -8.15438e-01 
-2.00609e+01 -2.52341e-01 -1.03081e+00 
-1.97076e+01 -3.61677e-01 -1.23885e+00 
-1.93161e+01 -4.82055e-01 -1.43379e+00 
-1.88913e+01 -6.08478e-01 -1.61154e+00 
-1.84388e+01 -7.36321e-01 -1.76984e+00 
-1.79645e+01 -8.61581e-01 -1.90782e+00 
-1.74737e+01 -9.81131e-01 -2.02580e+00 
-1.69714e+01 -1.09259e+00 -2.12484e+00 
-1.64615e+01 -1.19435e+00 -2.20647e+00 
-1.59474e+01 -1.28535e+00 -2.27242e+00 
-1.54316e+01 -1.36507e+00 -2.32453e+00 
-1.49164e+01 -1.43330e+00 -2.36457e+00 
-1.44032e+01 -1.49014e+00 -2.39421e+00 
-1.38932e+01 -1.53586e+00 -2.41499e+00 
-1.33871e+01 -1.57088e+00 -2.42828e+00 
-1.28856e+01 -1.59571e+00 -2.43530e+00 
-1.23888e+01 -1.61091e+00 -2.43712e+00 
-1.18972e+01 -1.61704e+00 -2.43467e+00 
-1.14107e+01 -1.61470e+00 -2.42875e+00 
-1.09293e+01 -1.60447e+00 -2.42006e+00 
-1.04529e+01 -1.58691e+00 -2.40919e+00 
-9.98139e+00 -1.56255e+00 -2.39666e+00 
-9.51455e+00 -1.53191e+00 -2.38289e+00 
-9.05228e+00 -1.49548e+00 -2.36825e+00 
-8.59425e+00 -1.45371e+00 -2.35307e+00 
-8.14036e+00 -1.40703e+00 -2.33760e+00 
-7.69028e+00 -1.35584e+00 -2.32208e+00 
-7.24387e+00 -1.30053e+00 -2.30671e+00 
-6.80081e+00 -1.24143e+00 -2.29163e+00 
-6.36097e+00 -1.17889e+00 -2.27700e+00 
-5.92403e+00 -1.11320e+00 -2.26293e+00 
-5.48985e+00 -1.04466e+00 -2.24952e+00 
-5.05815e+00 -9.73531e-01 -2.23686e+00 
-4.62878e+00 -9.00085e-01 -2.22500e+00 
-4.20145e+00 -8.24545e-01 -2.21403e+00 
-3.77606e+00 -7.47155e-01 -2.20397e+00 
-3.35230e+00 -6.68117e-01 -2.19488e+00 
-2.93007e+00 -5.87651e-01 -2.18679e+00 
-2.50909e+00 -5.05940e-01 -2.17973e+00 
-2.08926e+00 -4.23191e-01 -2.17372e+00 
-1.67029e+00 -3.39571e-01 -2.16877e+00 
-1.25210e+00 -2.55275e-01 -2.16492e+00 
-8.34416e-01 -1.70461e-01 -2.16215e+00 
-4.17133e-01 -8.53180e-02 -2.16049e+00 
-8.93472e-13 -1.34988e-12 -2.15994e+00 
 4.17133e-01  8.53180e-02 -2.16049e+00 
 8.34416e-01  1.70461e-01 -2.16215e+00 
 1.25210e+00  2.55275e-01 -2.16492e+00 
 1.67029e+00  3.39571e-01 -2.16877e+00 
 2.08926e+00  4.23191e-01 -2.17372e+00 
 2.50909e+00  5.05940e-01 -2.17973e+00 
 2.93007e+00  5.87651e-01 -2.18679e+00 
 3.35230e+00  6.68117e-01 -2.19488e+00 
 3.77606e+00  7.47155e-01 -2.20397e+00 
 4.20145e+00  8.24545e-01 -2.21403e+00 
 4.62878e+00  9.00085e-01 -2.22500e+00 
 5.05815e+00  9.73531e-01 -2.23686e+00 
 5.48985e+00  1.04466e+00 -2.24952e+00 
 5.92403e+00  1.11320e+00 -2.26293e+00 
 6.36097e+00  1.17889e+00 -2.27700e+00 
 6.80081e+00  1.24143e+00 -2.29163e+00 
 7.24387e+00  1.30053e+00 -2.30671e+00 
 7.69028e+00  1.35584e+00 -2.32208e+00 
 8.14036e+00  1.40703e+00 -2.33760e+00 
 8.59425e+00  1.45371e+00 -2.35307e+00 
 9.05228e+00  1.49548e+00 -2.36825e+00 
 9.51455e+00  1.53191e+00 -2.38289e+00 
 9.98139e+00  1.56255e+00 -2.39666e+00 
 1.04529e+01  1.58691e+00 -2.40919e+00 
 1.09293e+01  1.60447e+00 -2.42006e+00 
 1.14107e+01  1.61470e+00 -2.42875e+00 
 1.18972e+01  1.61704e+00 -2.43467e+00 
 1.23888e+01  1.61091e+00 -2.43712e+00 
 1.28856e+01  1.59571e+00 -2.43530e+00 
 1.33871e+01  1.57088e+00 -2.42828e+00 
 1.38932e+01  1.53586e+00 -2.41499e+00 
 1.44032e+01  1.49014e+00 -2.39421e+00 
 1.49164e+01  1.43330e+00 -2.36457e+00 
 1.54316e+01  1.36507e+00 -2.32453e+00 
 1.59474e+01  1.28535e+00 -2.27242e+00 
 1.64615e+01  1.19435e+00 -2.20647e+00 
 1.69714e+01  1.09259e+00 -2.12484e+00 
 1.74737e+01  9.81131e-01 -2.02580e+00 
 1.79645e+01  8.61581e-01 -1.90782e+00 
 1.84388e+01  7.36321e-01 -1.76984e+00 
 1.88913e+01  6.08478e-01 -1.61154e+00 
 1.93161e+01  4.82055e-01 -1.43379e+00 
 1.97076e+01  3.61677e-01 -1.23885e+00 
 2.00609e+01  2.52341e-01 -1.03081e+00 
 2.03723e+01  1.58717e-01 -8.15438e-01 
 2.06400e+01  8.47844e-02 -6.00278e-01 
 2.08647e+01  3.25671e-02 -3.93852e-01 
 2.10499e+01  2.44932e-03 -2.05208e-01 
 2.12048e+01 -1.83982e-04 -9.11195e-03 
-2.09469e+01 -7.65764e-03 -1.07694e-02 
-2.07384e+01 -1.02049e-03 -1.76021e-01 
-2.05139e+01 -1.95319e-02 -3.32501e-01 
-2.02631e+01 -5.24135e-02 -5.04113e-01 
-1.99830e+01 -1.00386e-01 -6.85069e-01 
-1.96720e+01 -1.62728e-01 -8.69631e-01 
-1.93304e+01 -2.37708e-01 -1.05247e+00 
-1.89596e+01 -3.22796e-01 -1.22909e+00 
-1.85622e+01 -4.15026e-01 -1.39588e+00 
-1.81412e+01 -5.11350e-01 -1.55032e+00 
-1.77003e+01 -6.08832e-01 -1.69081e+00 
-1.72431e+01 -7.04906e-01 -1.81662e+00 
-1.67732e+01 -7.97376e-01 -1.92770e+00 
-1.62937e+01 -8.84534e-01 -2.02451e+00 
-1.58076e+01 -9.65050e-01 -2.10782e+00 
-1.53170e+01 -1.03801e+00 -2.17868e+00 
-1.48241e+01 -1.10279e+00 -2.23818e+00 
-1.43305e+01 -1.15907e+00 -2.28751e+00 
-1.38375e+01 -1.20668e+00 -2.32778e+00 
-1.33461e+01 -1.24569e+00 -2.36010e+00 
-1.28570e+01 -1.27623e+00 -2.38548e+00 
-1.23709e+01 -1.29857e+00 -2.40485e+00 
-1.18882e+01 -1.31301e+00 -2.41906e+00 
-1.14091e+01 -1.31992e+00 -2.42886e+00 
-1.09338e+01 -1.31967e+00 -2.43493e+00 
-1.04623e+01 -1.31268e+00 -2.43788e+00 
-9.99472e+00 -1.29933e+00 -2.43822e+00 
-9.53098e+00 -1.28002e+00 -2.43642e+00 
-9.07105e+00 -1.25516e+00 -2.43289e+00 
-8.61475e+00 -1.22513e+00 -2.42798e+00 
-8.16202e+00 -1.19028e+00 -2.42200e+00 
-7.71262e+00 -1.15097e+00 -2.41523e+00 
-7.26649e+00 -1.10755e+00 -2.40789e+00 
-6.82337e+00 -1.06032e+00 -2.40019e+00 
-6.38316e+00 -1.00961e+00 -2.39230e+00 
-5.94560e+00 -9.55687e-01 -2.38438e+00 
-5.51059e+00 -8.98849e-01 -2.37656e+00 
-5.07785e+00 -8.39347e-01 -2.36896e+00 
-4.64729e+00 -7.77441e-01 -2.36167e+00 
-4.21864e+00 -7.13363e-01 -2.35477e+00 
-3.79181e+00 -6.47352e-01 -2.34834e+00 
-3.36651e+00 -5.79617e-01 -2.34245e+00 
-2.94266e+00 -5.10382e-01 -2.33714e+00 
-2.52000e+00 -4.39838e-01 -2.33245e+00 
-2.09843e+00 -3.68197e-01 -2.32843e+00 
-1.67768e+00 -2.95637e-01 -2.32510e+00 
-1.25767e+00 -2.22360e-01 -2.32249e+00 
-8.38141e-01 -1.48535e-01 -2.32061e+00 
-4.19000e-01 -7.43597e-02 -2.31948e+00 
-8.57076e-13 -1.54075e-12 -2.31910e+00 
 4.19000e-01  7.43597e-02 -2.31948e+00 
 8.38141e-01  1.48535e-01 -2.32061e+00 
 1.25767e+00  2.22360e-01 -2.32249e+00 
 1.67768e+00  2.95637e-01 -2.32510e+00 
 2.09843e+00  3.68197e-01 -2.32843e+00 
 2.52000e+00  4.39838e-01 -2.33245e+00 
 2.94266e+00  5.10382e-01 -2.33714e+00 
 3.36651e+00  5.79617e-01 -2.34245e+00 
 3.79181e+00  6.47352e-01 -2.34834e+00 
 4.21864e+00  7.13363e-01 -2.35477e+00 
 4.64729e+00  7.77441e-01 -2.36167e+00 
 5.07785e+00  8.39347e-01 -2.36896e+00 
 5.51059e+00  8.98849e-01 -2.37656e+00 
 5.94560e+00  9.55687e-01 -2.38438e+00 
 6.38316e+00  1.00961e+00 -2.39230e+00 
 6.82337e+00  1.06032e+00 -2.40019e+00 
 7.26649e+00  1.10755e+00 -2.40789e+00 
 7.71262e+00  1.15097e+00 -2.41523e+00 
 8.16202e+00  1.19028e+00 -2.42200e+00 
 8.61475e+00  1.22513e+00 -2.42798e+00 
 9.07105e+00  1.25516e+00 -2.43289e+00 
 9.53098e+00  1.28002e+00 -2.43642e+00 
 9.99472e+00  1.29933e+00 -2.43822e+00 
 1.04623e+01  1.31268e+00 -2.43788e+00 
 1.09338e+01  1.31967e+00 -2.43493e+00 
 1.14091e+01  1.31992e+00 -2.42886e+00 
 1.18882e+01  1.31301e+00 -2.41906e+00 
 1.23709e+01  1.29857e+00 -2.40485e+00 
 1.28570e+01  1.27623e+00 -2.38548e+00 
 1.33461e+01  1.24569e+00 -2.36010e+00 
 1.38375e+01  1.20668e+00 -2.32778e+00 
 1.43305e+01  1.15907e+00 -2.28751e+00 
 1.48241e+01  1.10279e+00 -2.23818e+00 
 1.53170e+01  1.03801e+00 -2.17868e+00 
 1.58076e+01  9.65050e-01 -2.10782e+00 
 1.62937e+01  8.84534e-01 -2.02451e+00 
 1.67732e+01  7.97376e-01 -1.92770e+00 
 1.72431e+01  7.04906e-01 -1.81662e+00 
 1.77003e+01  6.08832e-01 -1.69081e+00 
 1.81412e+01  5.11350e-01 -1.55032e+00 
 1.85622e+01  4.15026e-01 -1.39588e+00 
 1.89596e+01  3.22796e-01 -1.22909e+00 
 1.93304e+01  2.37708e-01 -1.05247e+00 
 1.96720e+01  1.62728e-01 -8.69631e-01 
 1.99830e+01  1.00386e-01 -6.85069e-01 
 2.02631e+01  5.24135e-02 -5.04113e-01 
 2.05139e+01  1.95319e-02 -3.32501e-01 
 2.07384e+01  1.02049e-03 -1.76021e-01 
 2.09469e+01  7.65764e-03 -1.07694e-02 
-2.07203e+01 -1.30094e-02 -1.23020e-02 
-2.04711e+01 -2.45989e-04 -1.58426e-01 
-2.02150e+01 -1.15548e-02 -2.93943e-01 
-1.99413e+01 -3.24606e-02 -4.41979e-01 
-1.96474e+01 -6.38000e-02 -5.98695e-01 
-1.93316e+01 -1.05598e-01 -7.60188e-01 
-1.89933e+01 -1.57126e-01 -9.22653e-01 
-1.86330e+01 -2.17097e-01 -1.08271e+00 
-1.82517e+01 -2.83790e-01 -1.23742e+00 
-1.78511e+01 -3.55282e-01 -1.38451e+00 
-1.74335e+01 -4.29563e-01 -1.52223e+00 
-1.70011e+01 -5.04725e-01 -1.64951e+00 
-1.65565e+01 -5.78999e-01 -1.76570e+00 
-1.61018e+01 -6.50877e-01 -1.87066e+00 
-1.56393e+01 -7.19072e-01 -1.96454e+00 
-1.51710e+01 -7.82585e-01 -2.04777e+00 
-1.46988e+01 -8.40622e-01 -2.12094e+00 
-1.42239e+01 -8.92638e-01 -2.18475e+00 
-1.37478e+01 -9.38243e-01 -2.23997e+00 
-1.32715e+01 -9.77234e-01 -2.28737e+00 
-1.27958e+01 -1.00951e+00 -2.32773e+00 
-1.23214e+01 -1.03511e+00 -2.36179e+00 
-1.18489e+01 -1.05411e+00 -2.39026e+00 
-1.13786e+01 -1.06668e+00 -2.41380e+00 
-1.09110e+01 -1.07304e+00 -2.43301e+00 
-1.04460e+01 -1.07343e+00 -2.44845e+00 
-9.98399e+00 -1.06812e+00 -2.46061e+00 
-9.52491e+00 -1.05739e+00 -2.46995e+00 
-9.06886e+00 -1.04154e+00 -2.47688e+00 
-8.61575e+00 -1.02086e+00 -2.48176e+00 
-8.16561e+00 -9.95645e-01 -2.48491e+00 
-7.71827e+00 -9.66190e-01 -2.48662e+00 
-7.27372e+00 -9.32782e-01 -2.48715e+00 
-6.83177e+00 -8.95698e-01 -2.48673e+00 
-6.39238e+00 -8.55213e-01 -2.48554e+00 
-5.95532e+00 -8.11586e-01 -2.48377e+00 
-5.52053e+00 -7.65078e-01 -2.48158e+00 
-5.08779e+00 -7.15927e-01 -2.47909e+00 
-4.65702e+00 -6.64380e-01 -2.47643e+00 
-4.22797e+00 -6.10657e-01 -2.47370e+00 
-3.80059e+00 -5.54990e-01 -2.47099e+00 
-3.37462e+00 -4.97584e-01 -2.46837e+00 
-2.94998e+00 -4.38659e-01 -2.46592e+00 
-2.52643e+00 -3.78408e-01 -2.46369e+00 
-2.10390e+00 -3.17038e-01 -2.46173e+00 
-1.68213e+00 -2.54734e-01 -2.46007e+00 
-1.26105e+00 -1.91696e-01 -2.45875e+00 
-8.40414e-01 -1.28100e-01 -2.45780e+00 
-4.20142e-01 -6.41439e-02 -2.45721e+00 
-8.27422e-13 -1.69692e-12 -2.45702e+00 
 4.20142e-01  6.41439e-02 -2.45721e+00 
 8.40414e-01  1.28100e-01 -2.45780e+00 
 1.26105e+00  1.91696e-01 -2.45875e+00 
 1.68213e+00  2.54734e-01 -2.46007e+00 
 2.10390e+00  3.17038e-01 -2.46173e+00 
 2.52643e+00  3.78408e-01 -2.46369e+00 
 2.94998e+00  4.38659e-01 -2.46592e+00 
 3.37462e+00  4.97584e-01 -2.46837e+00 
 3.80059e+00  5.54990e-01 -2.47099e+00 
 4.22797e+00  6.10657e-01 -2.47370e+00 
 4.65702e+00  6.64380e-01 -2.47643e+00 
 5.08779e+00  7.15927e-01 -2.47909e+00 
 5.52053e+00  7.65078e-01 -2.48158e+00 
 5.95532e+00  8.11586e-01 -2.48377e+00 
 6.39238e+00  8.55213e-01 -2.48554e+00 
 6.83177e+00  8.95698e-01 -2.48673e+00 
 7.27372e+00  9.32782e-01 -2.48715e+00 
 7.71827e+00  9.66190e-01 -2.48662e+00 
 8.16561e+00  9.95645e-01 -2.48491e+00 
 8.61575e+00  1.02086e+00 -2.48176e+00 
 9.06886e+00  1.04154e+00 -2.47688e+00 
 9.52491e+00  1.05739e+00 -2.46995e+00 
 9.98399e+00  1.06812e+00 -2.46061e+00 
 1.04460e+01  1.07343e+00 -2.44845e+00 
 1.09110e+01  1.07304e+00 -2.43301e+00 
 1.13786e+01  1.06668e+00 -2.41380e+00 
 1.18489e+01  1.05411e+00 -2.39026e+00 
 1.23214e+01  1.03511e+00 -2.36179e+00 
 1.27958e+01  1.00951e+00 -2.32773e+00 
 1.32715e+01  9.77234e-01 -2.28737e+00 
 1.37478e+01  9.38243e-01 -2.23997e+00 
 1.42239e+01  8.92638e-01 -2.18475e+00 
 1.46988e+01  8.40622e-01 -2.12094e+00 
 1.51710e+01  7.82585e-01 -2.04777e+00 
 1.56393e+01  7.19072e-01 -1.96454e+00 
 1.61018e+01  6.50877e-01 -1.87066e+00 
 1.65565e+01  5.78999e-01 -1.76570e+00 
 1.70011e+01  5.04725e-01 -1.64951e+00 
 1.74335e+01  4.29563e-01 -1.52223e+00 
 1.78511e+01  3.55282e-01 -1.38451e+00 
 1.82517e+01  2.83790e-01 -1.23742e+00 
 1.86330e+01  2.17097e-01 -1.08271e+00 
 1.89933e+01  1.57126e-01 -9.22653e-01 
 1.93316e+01  1.05598e-01 -7.60188e-01 
 1.96474e+01  6.38000e-02 -5.98695e-01 
 1.99413e+01  3.24606e-02 -4.41979e-01 
 2.02150e+01  1.15548e-02 -2.93943e-01 
 2.04711e+01  2.45989e-04 -1.58426e-01 
 2.07203e+01  1.30094e-02 -1.23020e-02 
-2.05128e+01 -1.68108e-02 -1.37592e-02 
-2.02322e+01  2.16984e-04 -1.48119e-01 
-1.99510e+01 -6.53741e-03 -2.69878e-01 
-1.96579e+01 -1.97040e-02 -4.01827e-01 
-1.93508e+01 -4.01304e-02 -5.41360e-01 
-1.90281e+01 -6.81153e-02 -6.85769e-01 
-1.86890e+01 -1.03464e-01 -8.32324e-01 
-1.83332e+01 -1.45561e-01 -9.78505e-01 
-1.79612e+01 -1.93446e-01 -1.12200e+00 
-1.75737e+01 -2.45940e-01 -1.26090e+00 
-1.71720e+01 -3.01716e-01 -1.39361e+00 
-1.67575e+01 -3.59429e-01 -1.51897e+00 
-1.63319e+01 -4.17749e-01 -1.63614e+00 
-1.58968e+01 -4.75465e-01 -1.74466e+00 
-1.54539e+01 -5.31472e-01 -1.84432e+00 
-1.50045e+01 -5.84844e-01 -1.93516e+00 
-1.45504e+01 -6.34785e-01 -2.01739e+00 
-1.40925e+01 -6.80683e-01 -2.09137e+00 
-1.36323e+01 -7.22043e-01 -2.15754e+00 
-1.31705e+01 -7.58526e-01 -2.21641e+00 
-1.27081e+01 -7.89886e-01 -2.26851e+00 
-1.22457e+01 -8.15999e-01 -2.31441e+00 
-1.17840e+01 -8.36801e-01 -2.35464e+00 
-1.13234e+01 -8.52317e-01 -2.38974e+00 
-1.08642e+01 -8.62614e-01 -2.42021e+00 
-1.04069e+01 -8.67814e-01 -2.44654e+00 
-9.95149e+00 -8.68065e-01 -2.46916e+00 
-9.49822e+00 -8.63550e-01 -2.48850e+00 
-9.04722e+00 -8.54465e-01 -2.50493e+00 
-8.59848e+00 -8.41024e-01 -2.51880e+00 
-8.15208e+00 -8.23450e-01 -2.53043e+00 
-7.70794e+00 -8.01971e-01 -2.54010e+00 
-7.26611e+00 -7.76820e-01 -2.54807e+00 
-6.82642e+00 -7.48225e-01 -2.55457e+00 
-6.38891e+00 -7.16422e-01 -2.55981e+00 
-5.95337e+00 -6.81634e-01 -2.56399e+00 
-5.51981e+00 -6.44091e-01 -2.56725e+00 
-5.08802e+00 -6.04008e-01 -2.56977e+00 
-4.65796e+00 -5.61610e-01 -2.57165e+00 
-4.22942e+00 -5.17101e-01 -2.57303e+00 
-3.80236e+00 -4.70697e-01 -2.57399e+00 
-3.37656e+00 -4.22593e-01 -2.57464e+00 
-2.95195e+00 -3.72998e-01 -2.57504e+00 
-2.52832e+00 -3.22098e-01 -2.57526e+00 
-2.10561e+00 -2.70095e-01 -2.57536e+00 
-1.68359e+00 -2.17169e-01 -2.57538e+00 
-1.26220e+00 -1.63516e-01 -2.57536e+00 
-8.41203e-01 -1.09312e-01 -2.57532e+00 
-4.20544e-01 -5.47486e-02 -2.57529e+00 
-7.87477e-13 -1.90075e-12 -2.57528e+00 
 4.20544e-01  5.47486e-02 -2.57529e+00 
 8.41203e-01  1.09312e-01 -2.57532e+00 
 1.26220e+00  1.63516e-01 -2.57536e+00 
 1.68359e+00  2.17169e-01 -2.57538e+00 
 2.10561e+00  2.70095e-01 -2.57536e+00 
 2.52832e+00  3.22098e-01 -2.57526e+00 
 2.95195e+00  3.72998e-01 -2.57504e+00 
 3.37656e+00  4.22593e-01 -2.57464e+00 
 3.80236e+00  4.70697e-01 -2.57399e+00 
 4.22942e+00  5.17101e-01 -2.57303e+00 
 4.65796e+00  5.61610e-01 -2.57165e+00 
 5.08802e+00  6.04008e-01 -2.56977e+00 
 5.51981e+00  6.44091e-01 -2.56725e+00 
 5.95337e+00  6.81634e-01 -2.56399e+00 
 6.38891e+00  7.16422e-01 -2.55981e+00 
 6.82642e+00  7.48225e-01 -2.55457e+00 
 7.26611e+00  7.76820e-01 -2.54807e+00 
 7.70794e+00  8.01971e-01 -2.54010e+00 
 8.15208e+00  8.23450e-01 -2.53043e+00 
 8.59848e+00  8.41024e-01 -2.51880e+00 
 9.04722e+00  8.54465e-01 -2.50493e+00 
 9.49822e+00  8.63550e-01 -2.48850e+00 
 9.95149e+00  8.68065e-01 -2.46916e+00 
 1.04069e+01  8.67814e-01 -2.44654e+00 
 1.08642e+01  8.62614e-01 -2.42021e+00 
 1.13234e+01  8.52317e-01 -2.38974e+00 
 1.17840e+01  8.36801e-01 -2.35464e+00 
 1.22457e+01  8.15999e-01 -2.31441e+00 
 1.27081e+01  7.89886e-01 -2.26851e+00 
 1.31705e+01  7.58526e-01 -2.21641e+00 
 1.36323e+01  7.22043e-01 -2.15754e+00 
 1.40925e+01  6.80683e-01 -2.09137e+00 
 1.45504e+01  6.34785e-01 -2.01739e+00 
 1.50045e+01  5.84844e-01 -1.93516e+00 
 1.54539e+01  5.31472e-01 -1.84432e+00 
 1.58968e+01  4.75465e-01 -1.74466e+00 
 1.63319e+01  4.17749e-01 -1.63614e+00 
 1.67575e+01  3.59429e-01 -1.51897e+00 
 1.71720e+01  3.01716e-01 -1.39361e+00 
 1.75737e+01  2.45940e-01 -1.26090e+00 
 1.79612e+01  1.93446e-01 -1.12200e+00 
 1.83332e+01  1.45561e-01 -9.78505e-01 
 1.86890e+01  1.03464e-01 -8.32324e-01 
 1.90281e+01  6.81153e-02 -6.85769e-01 
 1.93508e+01  4.01304e-02 -5.41360e-01 
 1.96579e+01  1.97040e-02 -4.01827e-01 
 1.99510e+01  6.53741e-03 -2.69878e-01 
 2.02322e+01 -2.16984e-04 -1.48119e-01 
 2.05128e+01  1.68108e-02 -1.37592e-02 
-2.03163e+01 -1.95578e-02 -1.51499e-02 
-2.00115e+01  4.86469e-04 -1.42510e-01 
-1.97103e+01 -3.30121e-03 -2.55280e-01 
-1.94013e+01 -1.13595e-02 -3.76247e-01 
-1.90825e+01 -2.44566e-02 -5.03606e-01 
-1.87526e+01 -4.29988e-02 -6.35453e-01 
-1.84106e+01 -6.70496e-02 -7.69809e-01 
-1.80561e+01 -9.63704e-02 -9.04799e-01 
-1.76891e+01 -1.30455e-01 -1.03863e+00 
-1.73098e+01 -1.68603e-01 -1.16976e+00 
-1.69190e+01 -2.09965e-01 -1.29681e+00 
-1.65174e+01 -2.53622e-01 -1.41871e+00 
-1.61061e+01 -2.98616e-01 -1.53458e+00 
-1.56862e+01 -3.44025e-01 -1.64386e+00 
-1.52590e+01 -3.88963e-01 -1.74613e+00 
-1.48254e+01 -4.32644e-01 -1.84122e+00 
-1.43867e+01 -4.74354e-01 -1.92910e+00 
-1.39438e+01 -5.13504e-01 -2.00988e+00 
-1.34979e+01 -5.49584e-01 -2.08375e+00 
-1.30496e+01 -5.82207e-01 -2.15102e+00 
-1.25998e+01 -6.11056e-01 -2.21202e+00 
-1.21491e+01 -6.35917e-01 -2.26713e+00 
-1.16982e+01 -6.56634e-01 -2.31674e+00 
-1.12474e+01 -6.73132e-01 -2.36127e+00 
-1.07972e+01 -6.85377e-01 -2.40110e+00 
-1.03480e+01 -6.93396e-01 -2.43663e+00 
-9.89992e+00 -6.97243e-01 -2.46823e+00 
-9.45322e+00 -6.97015e-01 -2.49627e+00 
-9.00811e+00 -6.92827e-01 -2.52107e+00 
-8.56460e+00 -6.84822e-01 -2.54296e+00 
-8.12286e+00 -6.73152e-01 -2.56222e+00 
-7.68284e+00 -6.57987e-01 -2.57912e+00 
-7.24463e+00 -6.39504e-01 -2.59391e+00 
-6.80814e+00 -6.17886e-01 -2.60683e+00 
-6.37341e+00 -5.93322e-01 -2.61806e+00 
-5.94031e+00 -5.66001e-01 -2.62780e+00 
-5.50886e+00 -5.36118e-01 -2.63623e+00 
-5.07889e+00 -5.03861e-01 -2.64348e+00 
-4.65040e+00 -4.69426e-01 -2.64970e+00 
-4.22321e+00 -4.32999e-01 -2.65500e+00 
-3.79729e+00 -3.94774e-01 -2.65950e+00 
-3.37246e+00 -3.54933e-01 -2.66329e+00 
-2.94867e+00 -3.13666e-01 -2.66645e+00 
-2.52574e+00 -2.71152e-01 -2.66905e+00 
-2.10362e+00 -2.27577e-01 -2.67115e+00 
-1.68210e+00 -1.83116e-01 -2.67280e+00 
-1.26114e+00 -1.37954e-01 -2.67405e+00 
-8.40524e-01 -9.22600e-02 -2.67492e+00 
-4.20212e-01 -4.62194e-02 -2.67543e+00 
-8.02155e-13 -2.11477e-12 -2.67560e+00 
 4.20212e-01  4.62194e-02 -2.67543e+00 
 8.40524e-01  9.22600e-02 -2.67492e+00 
 1.26114e+00  1.37954e-01 -2.67405e+00 
 1.68210e+00  1.83116e-01 -2.67280e+00 
 2.10362e+00  2.27577e-01 -2.67115e+00 
 2.52574e+00  2.71152e-01 -2.66905e+00 
 2.94867e+00  3.13666e-01 -2.66645e+00 
 3.37246e+00  3.54933e-01 -2.66329e+00 
 3.79729e+00  3.94774e-01 -2.65950e+00 
 4.22321e+00  4.32999e-01 -2.65500e+00 
 4.65040e+00  4.69426e-01 -2.64970e+00 
 5.07889e+00  5.03861e-01 -2.64348e+00 
 5.50886e+00  5.36118e-01 -2.63623e+00 
 5.94031e+00  5.66001e-01 -2.62780e+00 
 6.37341e+00  5.93322e-01 -2.61806e+00 
 6.80814e+00  6.17886e-01 -2.60683e+00 
 7.24463e+00  6.39504e-01 -2.59391e+00 
 7.68284e+00  6.57987e-01 -2.57912e+00 
 8.12286e+00  6.73152e-01 -2.56222e+00 
 8.56460e+00  6.84822e-01 -2.54296e+00 
 9.00811e+00  6.92827e-01 -2.52107e+00 
 9.45322e+00  6.97015e-01 -2.49627e+00 
 9.89992e+00  6.97243e-01 -2.46823e+00 
 1.03480e+01  6.93396e-01 -2.43663e+00 
 1.07972e+01  6.85377e-01 -2.40110e+00 
 1.12474e+01  6.73132e-01 -2.36127e+00 
 1.16982e+01  6.56634e-01 -2.31674e+00 
 1.21491e+01  6.35917e-01 -2.26713e+00 
 1.25998e+01  6.11056e-01 -2.21202e+00 
 1.30496e+01  5.82207e-01 -2.15102e+00 
 1.34979e+01  5.49584e-01 -2.08375e+00 
 1.39438e+01  5.13504e-01 -2.00988e+00 
 1.43867e+01  4.74354e-01 -1.92910e+00 
 1.48254e+01  4.32644e-01 -1.84122e+00 
 1.52590e+01  3.88963e-01 -1.74613e+00 
 1.56862e+01  3.44025e-01 -1.64386e+00 
 1.61061e+01  2.98616e-01 -1.53458e+00 
 1.65174e+01  2.53622e-01 -1.41871e+00 
 1.69190e+01  2.09965e-01 -1.29681e+00 
 1.73098e+01  1.68603e-01 -1.16976e+00 
 1.76891e+01  1.30455e-01 -1.03863e+00 
 1.80561e+01  9.63704e-02 -9.04799e-01 
 1.84106e+01  6.70496e-02 -7.69809e-01 
 1.87526e+01  4.29988e-02 -6.35453e-01 
 1.90825e+01  2.44566e-02 -5.03606e-01 
 1.94013e+01  1.13595e-02 -3.76247e-01 
 1.97103e+01  3.30121e-03 -2.55280e-01 
 2.00115e+01 -4.86469e-04 -1.42510e-01 
 2.03163e+01  1.95578e-02 -1.51499e-02 
-2.01258e+01 -2.15680e-02 -1.64714e-02 
-1.98022e+01  6.39683e-04 -1.39975e-01 
-1.94853e+01 -1.19040e-03 -2.46978e-01 
-1.91633e+01 -5.81858e-03 -3.60501e-01 
-1.88345e+01 -1.39192e-02 -4.79272e-01 
-1.84978e+01 -2.59179e-02 -6.01939e-01 
-1.81524e+01 -4.20023e-02 -7.27052e-01 
-1.77975e+01 -6.21399e-02 -8.53217e-01 
-1.74330e+01 -8.60956e-02 -9.79050e-01 
-1.70589e+01 -1.13476e-01 -1.10332e+00 
-1.66755e+01 -1.43751e-01 -1.22489e+00 
-1.62831e+01 -1.76312e-01 -1.34282e+00 
-1.58826e+01 -2.10488e-01 -1.45629e+00 
-1.54745e+01 -2.45601e-01 -1.56472e+00 
-1.50598e+01 -2.80971e-01 -1.66762e+00 
-1.46391e+01 -3.15966e-01 -1.76472e+00 
-1.42135e+01 -3.49987e-01 -1.85582e+00 
-1.37835e+01 -3.82512e-01 -1.94088e+00 
-1.33502e+01 -4.13070e-01 -2.01995e+00 
-1.29141e+01 -4.41275e-01 -2.09316e+00 
-1.24760e+01 -4.66795e-01 -2.16067e+00 
-1.20363e+01 -4.89377e-01 -2.22275e+00 
-1.15957e+01 -5.08818e-01 -2.27963e+00 
-1.11546e+01 -5.24983e-01 -2.33163e+00 
-1.07135e+01 -5.37774e-01 -2.37902e+00 
-1.02725e+01 -5.47150e-01 -2.42212e+00 
-9.83213e+00 -5.53100e-01 -2.46123e+00 
-9.39245e+00 -5.55653e-01 -2.49663e+00 
-8.95374e+00 -5.54862e-01 -2.52862e+00 
-8.51608e+00 -5.50806e-01 -2.55747e+00 
-8.07965e+00 -5.43582e-01 -2.58342e+00 
-7.64444e+00 -5.33307e-01 -2.60673e+00 
-7.21059e+00 -5.20108e-01 -2.62763e+00 
-6.77803e+00 -5.04123e-01 -2.64631e+00 
-6.34685e+00 -4.85501e-01 -2.66298e+00 
-5.91695e+00 -4.64393e-01 -2.67782e+00 
-5.48837e+00 -4.40961e-01 -2.69097e+00 
-5.06099e+00 -4.15363e-01 -2.70261e+00 
-4.63483e+00 -3.87767e-01 -2.71285e+00 
-4.20974e+00 -3.58336e-01 -2.72183e+00 
-3.78572e+00 -3.27241e-01 -2.72964e+00 
-3.36260e+00 -2.94644e-01 -2.73638e+00 
-2.94038e+00 -2.60720e-01 -2.74214e+00 
-2.51887e+00 -2.25628e-01 -2.74699e+00 
-2.09806e+00 -1.89544e-01 -2.75099e+00 
-1.67776e+00 -1.52628e-01 -2.75419e+00 
-1.25795e+00 -1.15052e-01 -2.75664e+00 
-8.38429e-01 -7.69752e-02 -2.75837e+00 
-4.19174e-01 -3.85717e-02 -2.75940e+00 
-7.96699e-13 -2.30638e-12 -2.75974e+00 
 4.19174e-01  3.85717e-02 -2.75940e+00 
 8.38429e-01  7.69752e-02 -2.75837e+00 
 1.25795e+00  1.15052e-01 -2.75664e+00 
 1.67776e+00  1.52628e-01 -2.75419e+00 
 2.09806e+00  1.89544e-01 -2.75099e+00 
 2.51887e+00  2.25628e-01 -2.74699e+00 
 2.94038e+00  2.60720e-01 -2.74214e+00 
 3.36260e+00  2.94644e-01 -2.73638e+00 
 3.78572e+00  3.27241e-01 -2.72964e+00 
 4.20974e+00  3.58336e-01 -2.72183e+00 
 4.63483e+00  3.87767e-01 -2.71285e+00 
 5.06099e+00  4.15363e-01 -2.70261e+00 
 5.48837e+00  4.40961e-01 -2.69097e+00 
 5.91695e+00  4.64393e-01 -2.67782e+00 
 6.34685e+00  4.85501e-01 -2.66298e+00 
 6.77803e+00  5.04123e-01 -2.64631e+00 
 7.21059e+00  5.20108e-01 -2.62763e+00 
 7.64444e+00  5.33307e-01 -2.60673e+00 
 8.07965e+00  5.43582e-01 -2.58342e+00 
 8.51608e+00  5.50806e-01 -2.55747e+00 
 8.95374e+00  5.54862e-01 -2.52862e+00 
 9.39245e+00  5.55653e-01 -2.49663e+00 
 9.83213e+00  5.53100e-01 -2.46123e+00 
 1.02725e+01  5.47150e-01 -2.42212e+00 
 1.07135e+01  5.37774e-01 -2.37902e+00 
 1.11546e+01  5.24983e-01 -2.33163e+00 
 1.15957e+01  5.08818e-01 -2.27963e+00 
 1.20363e+01  4.89377e-01 -2.22275e+00 
 1.24760e+01  4.66795e-01 -2.16067e+00 
 1.29141e+01  4.41275e-01 -2.09316e+00 
 1.33502e+01  4.13070e-01 -2.01995e+00 
 1.37835e+01  3.82512e-01 -1.94088e+00 
 1.42135e+01  3.49987e-01 -1.85582e+00 
 1.46391e+01  3.15966e-01 -1.76472e+00 
 1.50598e+01  2.80971e-01 -1.66762e+00 
 1.54745e+01  2.45601e-01 -1.56472e+00 
 1.58826e+01  2.10488e-01 -1.45629e+00 
 1.62831e+01  1.76312e-01 -1.34282e+00 
 1.66755e+01  1.43751e-01 -1.22489e+00 
 1.70589e+01  1.13476e-01 -1.10332e+00 
 1.74330e+01  8.60956e-02 -9.79050e-01 
 1.77975e+01  6.21399e-02 -8.53217e-01 
 1.81524e+01  4.20023e-02 -7.27052e-01 
 1.84978e+01  2.59179e-02 -6.01939e-01 
 1.88345e+01  1.39192e-02 -4.79272e-01 
 1.91633e+01  5.81858e-03 -3.60501e-01 
 1.94853e+01  1.19040e-03 -2.46978e-01 
 1.98022e+01 -6.39683e-04 -1.39975e-01 
 2.01258e+01  2.15680e-02 -1.64714e-02 
-1.99376e+01 -2.30447e-02 -1.77191e-02 
-1.95998e+01  7.19052e-04 -1.39462e-01 
-1.92706e+01  1.88543e-04 -2.42910e-01 
-1.89381e+01 -2.11649e-03 -3.51471e-01 
-1.86011e+01 -6.77728e-03 -4.64240e-01 
-1.82586e+01 -1.42015e-02 -5.80250e-01 
-1.79096e+01 -2.46281e-02 -6.98430e-01 
-1.75536e+01 -3.81355e-02 -8.17740e-01 
-1.71903e+01 -5.46493e-02 -9.37112e-01 
-1.68194e+01 -7.39687e-02 -1.05558e+00 
-1.64412e+01 -9.57785e-02 -1.17221e+00 
-1.60556e+01 -1.19687e-01 -1.28622e+00 
-1.56632e+01 -1.45237e-01 -1.39688e+00 
-1.52643e+01 -1.71943e-01 -1.50363e+00 
-1.48596e+01 -1.99299e-01 -1.60600e+00 
-1.44495e+01 -2.26815e-01 -1.70364e+00 
-1.40348e+01 -2.54009e-01 -1.79631e+00 
-1.36159e+01 -2.80442e-01 -1.88388e+00 
-1.31936e+01 -3.05706e-01 -1.96626e+00 
-1.27684e+01 -3.29449e-01 -2.04349e+00 
-1.23408e+01 -3.51353e-01 -2.11563e+00 
-1.19113e+01 -3.71163e-01 -2.18282e+00 
-1.14805e+01 -3.88659e-01 -2.24519e+00 
-1.10487e+01 -4.03677e-01 -2.30296e+00 
-1.06163e+01 -4.16086e-01 -2.35631e+00 
-1.01835e+01 -4.25802e-01 -2.40549e+00 
-9.75087e+00 -4.32769e-01 -2.45071e+00 
-9.31839e+00 -4.36971e-01 -2.49221e+00 
-8.88639e+00 -4.38411e-01 -2.53022e+00 
-8.45494e+00 -4.37123e-01 -2.56496e+00 
-8.02426e+00 -4.33158e-01 -2.59666e+00 
-7.59436e+00 -4.26588e-01 -2.62552e+00 
-7.16540e+00 -4.17499e-01 -2.65173e+00 
-6.73736e+00 -4.05990e-01 -2.67550e+00 
-6.31033e+00 -3.92172e-01 -2.69699e+00 
-5.88426e+00 -3.76163e-01 -2.71637e+00 
-5.45920e+00 -3.58091e-01 -2.73378e+00 
-5.03507e+00 -3.38087e-01 -2.74937e+00 
-4.61190e+00 -3.16290e-01 -2.76327e+00 
-4.18958e+00 -2.92840e-01 -2.77558e+00 
-3.76813e+00 -2.67883e-01 -2.78642e+00 
-3.34740e+00 -2.41562e-01 -2.79588e+00 
-2.92741e+00 -2.14031e-01 -2.80404e+00 
-2.50800e+00 -1.85434e-01 -2.81097e+00 
-2.08918e+00 -1.55926e-01 -2.81673e+00 
-1.67077e+00 -1.25654e-01 -2.82137e+00 
-1.25277e+00 -9.47759e-02 -2.82494e+00 
-8.35004e-01 -6.34369e-02 -2.82746e+00 
-4.17471e-01 -3.17959e-02 -2.82897e+00 
-7.24059e-13 -2.51310e-12 -2.82947e+00 
 4.17471e-01  3.17959e-02 -2.82897e+00 
 8.35004e-01  6.34369e-02 -2.82746e+00 
 1.25277e+00  9.47759e-02 -2.82494e+00 
 1.67077e+00  1.25654e-01 -2.82137e+00 
 2.08918e+00  1.55926e-01 -2.81673e+00 
 2.50800e+00  1.85434e-01 -2.81097e+00 
 2.92741e+00  2.14031e-01 -2.80404e+00 
 3.34740e+00  2.41562e-01 -2.79588e+00 
 3.76813e+00  2.67883e-01 -2.78642e+00 
 4.18958e+00  2.92840e-01 -2.77558e+00 
 4.61190e+00  3.16290e-01 -2.76327e+00 
 5.03507e+00  3.38087e-01 -2.74937e+00 
 5.45920e+00  3.58091e-01 -2.73378e+00 
 5.88426e+00  3.76163e-01 -2.71637e+00 
 6.31033e+00  3.92172e-01 -2.69699e+00 
 6.73736e+00  4.05990e-01 -2.67550e+00 
 7.16540e+00  4.17499e-01 -2.65173e+00 
 7.59436e+00  4.26588e-01 -2.62552e+00 
 8.02426e+00  4.33158e-01 -2.59666e+00 
 8.45494e+00  4.37123e-01 -2.56496e+00 
 8.88639e+00  4.38411e-01 -2.53022e+00 
 9.31839e+00  4.36971e-01 -2.49221e+00 
 9.75087e+00  4.32769e-01 -2.45071e+00 
 1.01835e+01  4.25802e-01 -2.40549e+00 
 1.06163e+01  4.16086e-01 -2.35631e+00 
 1.10487e+01  4.03677e-01 -2.30296e+00 
 1.14805e+01  3.88659e-01 -2.24519e+00 
 1.19113e+01  3.71163e-01 -2.18282e+00 
 1.23408e+01  3.51353e-01 -2.11563e+00 
 1.27684e+01  3.29449e-01 -2.04349e+00 
 1.31936e+01  3.05706e-01 -1.96626e+00 
 1.36159e+01  2.80442e-01 -1.88388e+00 
 1.40348e+01  2.54009e-01 -1.79631e+00 
 1.44495e+01  2.26815e-01 -1.70364e+00 
 1.48596e+01  1.99299e-01 -1.60600e+00 
 1.52643e+01  1.71943e-01 -1.50363e+00 
 1.56632e+01  1.45237e-01 -1.39688e+00 
 1.60556e+01  1.19687e-01 -1.28622e+00 
 1.64412e+01  9.57785e-02 -1.17221e+00 
 1.68194e+01  7.39687e-02 -1.05558e+00 
 1.71903e+01  5.46493e-02 -9.37112e-01 
 1.75536e+01  3.81355e-02 -8.17740e-01 
 1.79096e+01  2.46281e-02 -6.98430e-01 
 1.82586e+01  1.42015e-02 -5.80250e-01 
 1.86011e+01  6.77728e-03 -4.64240e-01 
 1.89381e+01  2.11649e-03 -3.51471e-01 
 1.92706e+01 -1.88543e-04 -2.42910e-01 
 1.95998e+01 -7.19052e-04 -1.39462e-01 
 1.99376e+01  2.30447e-02 -1.77191e-02 
-1.97497e+01 -2.41257e-02 -1.88892e-02 
-1.94009e+01  7.50988e-04 -1.40273e-01 
-1.90622e+01  1.07932e-03 -2.41693e-01 
-1.87216e+01  3.50169e-04 -3.47050e-01 
-1.83781e+01 -1.93366e-03 -4.55695e-01 
-1.80306e+01 -6.14577e-03 -5.66930e-01 
-1.76786e+01 -1.25389e-02 -6.79962e-01 
-1.73213e+01 -2.12474e-02 -7.94013e-01 
-1.69584e+01 -3.22905e-02 -9.08258e-01 
-1.65897e+01 -4.55881e-02 -1.02194e+00 
-1.62152e+01 -6.09668e-02 -1.13431e+00 
-1.58347e+01 -7.81855e-02 -1.24472e+00 
-1.54486e+01 -9.69401e-02 -1.35254e+00 
-1.50570e+01 -1.16894e-01 -1.45727e+00 
-1.46604e+01 -1.37679e-01 -1.55846e+00 
-1.42590e+01 -1.58924e-01 -1.65577e+00 
-1.38535e+01 -1.80255e-01 -1.74893e+00 
-1.34440e+01 -2.01318e-01 -1.83775e+00 
-1.30313e+01 -2.21771e-01 -1.92210e+00 
-1.26156e+01 -2.41310e-01 -2.00193e+00 
-1.21975e+01 -2.59650e-01 -2.07722e+00 
-1.17774e+01 -2.76553e-01 -2.14803e+00 
-1.13556e+01 -2.91804e-01 -2.21443e+00 
-1.09325e+01 -3.05233e-01 -2.27654e+00 
-1.05085e+01 -3.16693e-01 -2.33448e+00 
-1.00838e+01 -3.26081e-01 -2.38843e+00 
-9.65870e+00 -3.33313e-01 -2.43852e+00 
-9.23342e+00 -3.38343e-01 -2.48496e+00 
-8.80822e+00 -3.41141e-01 -2.52790e+00 
-8.38317e+00 -3.41708e-01 -2.56754e+00 
-7.95850e+00 -3.40061e-01 -2.60405e+00 
-7.53425e+00 -3.36236e-01 -2.63760e+00 
-7.11058e+00 -3.30286e-01 -2.66837e+00 
-6.68747e+00 -3.22278e-01 -2.69651e+00 
-6.26507e+00 -3.12289e-01 -2.72218e+00 
-5.84332e+00 -3.00408e-01 -2.74552e+00 
-5.42231e+00 -2.86735e-01 -2.76668e+00 
-5.00197e+00 -2.71373e-01 -2.78577e+00 
-4.58236e+00 -2.54436e-01 -2.80291e+00 
-4.16338e+00 -2.36039e-01 -2.81821e+00 
-3.74508e+00 -2.16306e-01 -2.83176e+00 
-3.32734e+00 -1.95360e-01 -2.84366e+00 
-2.91018e+00 -1.73333e-01 -2.85398e+00 
-2.49347e+00 -1.50351e-01 -2.86279e+00 
-2.07723e+00 -1.26552e-01 -2.87014e+00 
-1.66132e+00 -1.02065e-01 -2.87609e+00 
-1.24575e+00 -7.70318e-02 -2.88068e+00 
-8.30355e-01 -5.15832e-02 -2.88393e+00 
-4.15155e-01 -2.58614e-02 -2.88588e+00 
-7.48572e-13 -2.63346e-12 -2.88652e+00 
 4.15155e-01  2.58614e-02 -2.88588e+00 
 8.30355e-01  5.15832e-02 -2.88393e+00 
 1.24575e+00  7.70318e-02 -2.88068e+00 
 1.66132e+00  1.02065e-01 -2.87609e+00 
 2.07723e+00  1.26552e-01 -2.87014e+00 
 2.49347e+00  1.50351e-01 -2.86279e+00 
 2.91018e+00  1.73333e-01 -2.85398e+00 
 3.32734e+00  1.95360e-01 -2.84366e+00 
 3.74508e+00  2.16306e-01 -2.83176e+00 
 4.16338e+00  2.36039e-01 -2.81821e+00 
 4.58236e+00  2.54436e-01 -2.80291e+00 
 5.00197e+00  2.71373e-01 -2.78577e+00 
 5.42231e+00  2.86735e-01 -2.76668e+00 
 5.84332e+00  3.00408e-01 -2.74552e+00 
 6.26507e+00  3.12289e-01 -2.72218e+00 
 6.68747e+00  3.22278e-01 -2.69651e+00 
 7.11058e+00  3.30286e-01 -2.66837e+00 
 7.53425e+00  3.36236e-01 -2.63760e+00 
 7.95850e+00  3.40061e-01 -2.60405e+00 
 8.38317e+00  3.41708e-01 -2.56754e+00 
 8.80822e+00  3.41141e-01 -2.52790e+00 
 9.23342e+00  3.38343e-01 -2.48496e+00 
 9.65870e+00  3.33313e-01 -2.43852e+00 
 1.00838e+01  3.26081e-01 -2.38843e+00 
 1.05085e+01  3.16693e-01 -2.33448e+00 
 1.09325e+01  3.05233e-01 -2.27654e+00 
 1.13556e+01  2.91804e-01 -2.21443e+00 
 1.17774e+01  2.76553e-01 -2.14803e+00 
 1.21975e+01  2.59650e-01 -2.07722e+00 
 1.26156e+01  2.41310e-01 -2.00193e+00 
 1.30313e+01  2.21771e-01 -1.92210e+00 
 1.34440e+01  2.01318e-01 -1.83775e+00 
 1.38535e+01  1.80255e-01 -1.74893e+00 
 1.42590e+01  1.58924e-01 -1.65577e+00 
 1.46604e+01  1.37679e-01 -1.55846e+00 
 1.50570e+01  1.16894e-01 -1.45727e+00 
 1.54486e+01  9.69401e-02 -1.35254e+00 
 1.58347e+01  7.81855e-02 -1.24472e+00 
 1.62152e+01  6.09668e-02 -1.13431e+00 
 1.65897e+01  4.55881e-02 -1.02194e+00 
 1.69584e+01  3.22905e-02 -9.08258e-01 
 1.73213e+01  2.12474e-02 -7.94013e-01 
 1.76786e+01  1.25389e-02 -6.79962e-01 
 1.80306e+01  6.14577e-03 -5.66930e-01 
 1.83781e+01  1.93366e-03 -4.55695e-01 
 1.87216e+01 -3.50169e-04 -3.47050e-01 
 1.90622e+01 -1.07932e-03 -2.41693e-01 
 1.94009e+01 -7.50988e-04 -1.40273e-01 
 1.97497e+01  2.41257e-02 -1.88892e-02 
-1.95605e+01 -2.49070e-02 -1.99798e-02 
-1.92035e+01  7.52092e-04 -1.41932e-01 
-1.88576e+01  1.63858e-03 -2.42386e-01 
-1.85108e+01  1.97096e-03 -3.45790e-01 
-1.81622e+01  1.32537e-03 -4.51676e-01 
-1.78109e+01 -6.32709e-04 -5.59543e-01 
-1.74563e+01 -4.15026e-03 -6.68800e-01 
-1.70979e+01 -9.38598e-03 -7.78863e-01 
-1.67353e+01 -1.64122e-02 -8.89095e-01 
-1.63682e+01 -2.52226e-02 -9.98911e-01 
-1.59964e+01 -3.57373e-02 -1.10770e+00 
-1.56199e+01 -4.78174e-02 -1.21494e+00 
-1.52388e+01 -6.12695e-02 -1.32009e+00 
-1.48531e+01 -7.58657e-02 -1.42273e+00 
-1.44632e+01 -9.13449e-02 -1.52245e+00 
-1.40691e+01 -1.07435e-01 -1.61894e+00 
-1.36713e+01 -1.23850e-01 -1.71190e+00 
-1.32700e+01 -1.40313e-01 -1.80114e+00 
-1.28656e+01 -1.56547e-01 -1.88650e+00 
-1.24584e+01 -1.72299e-01 -1.96788e+00 
-1.20488e+01 -1.87325e-01 -2.04522e+00 
-1.16371e+01 -2.01413e-01 -2.11851e+00 
-1.12236e+01 -2.14365e-01 -2.18777e+00 
-1.08087e+01 -2.26019e-01 -2.25306e+00 
-1.03926e+01 -2.36229e-01 -2.31445e+00 
-9.97554e+00 -2.44884e-01 -2.37204e+00 
-9.55786e+00 -2.51888e-01 -2.42594e+00 
-9.13967e+00 -2.57176e-01 -2.47627e+00 
-8.72123e+00 -2.60701e-01 -2.52318e+00 
-8.30265e+00 -2.62438e-01 -2.56679e+00 
-7.88412e+00 -2.62381e-01 -2.60725e+00 
-7.46570e+00 -2.60542e-01 -2.64471e+00 
-7.04757e+00 -2.56944e-01 -2.67928e+00 
-6.62971e+00 -2.51630e-01 -2.71112e+00 
-6.21228e+00 -2.44652e-01 -2.74034e+00 
-5.79523e+00 -2.36073e-01 -2.76708e+00 
-5.37869e+00 -2.25965e-01 -2.79146e+00 
-4.96258e+00 -2.14411e-01 -2.81358e+00 
-4.54699e+00 -2.01500e-01 -2.83354e+00 
-4.13184e+00 -1.87325e-01 -2.85145e+00 
-3.71719e+00 -1.71989e-01 -2.86739e+00 
-3.30294e+00 -1.55594e-01 -2.88144e+00 
-2.88914e+00 -1.38252e-01 -2.89367e+00 
-2.47566e+00 -1.20072e-01 -2.90415e+00 
-2.06255e+00 -1.01172e-01 -2.91292e+00 
-1.64968e+00 -8.16665e-02 -2.92003e+00 
-1.23707e+00 -6.16771e-02 -2.92553e+00 
-8.24602e-01 -4.13207e-02 -2.92943e+00 
-4.12287e-01 -2.07222e-02 -2.93176e+00 
-7.13292e-13 -2.97472e-12 -2.93254e+00 
 4.12287e-01  2.07222e-02 -2.93176e+00 
 8.24602e-01  4.13207e-02 -2.92943e+00 
 1.23707e+00  6.16771e-02 -2.92553e+00 
 1.64968e+00  8.16665e-02 -2.92003e+00 
 2.06255e+00  1.01172e-01 -2.91292e+00 
 2.47566e+00  1.20072e-01 -2.90415e+00 
 2.88914e+00  1.38252e-01 -2.89367e+00 
 3.30294e+00  1.55594e-01 -2.88144e+00 
 3.71719e+00  1.71989e-01 -2.86739e+00 
 4.13184e+00  1.87325e-01 -2.85145e+00 
 4.54699e+00  2.01500e-01 -2.83354e+00 
 4.96258e+00  2.14411e-01 -2.81358e+00 
 5.37869e+00  2.25965e-01 -2.79146e+00 
 5.79523e+00  2.36073e-01 -2.76708e+00 
 6.21228e+00  2.44652e-01 -2.74034e+00 
 6.62971e+00  2.51630e-01 -2.71112e+00 
 7.04757e+00  2.56944e-01 -2.67928e+00 
 7.46570e+00  2.60542e-01 -2.64471e+00 
 7.88412e+00  2.62381e-01 -2.60725e+00 
 8.30265e+00  2.62438e-01 -2.56679e+00 
 8.72123e+00  2.60701e-01 -2.52318e+00 
 9.13967e+00  2.57176e-01 -2.47627e+00 
 9.55786e+00  2.51888e-01 -2.42594e+00 
 9.97554e+00  2.44884e-01 -2.37204e+00 
 1.03926e+01  2.36229e-01 -2.31445e+00 
 1.08087e+01  2.26019e-01 -2.25306e+00 
 1.12236e+01  2.14365e-01 -2.18777e+00 
 1.16371e+01  2.01413e-01 -2.11851e+00 
 1.20488e+01  1.87325e-01 -2.04522e+00 
 1.24584e+01  1.72299e-01 -1.96788e+00 
 1.28656e+01  1.56547e-01 -1.88650e+00 
 1.32700e+01  1.40313e-01 -1.80114e+00 
 1.36713e+01  1.23850e-01 -1.71190e+00 
 1.40691e+01  1.07435e-01 -1.61894e+00 
 1.44632e+01  9.13449e-02 -1.52245e+00 
 1.48531e+01  7.58657e-02 -1.42273e+00 
 1.52388e+01  6.12695e-02 -1.32009e+00 
 1.56199e+01  4.78174e-02 -1.21494e+00 
 1.59964e+01  3.57373e-02 -1.10770e+00 
 1.63682e+01  2.52226e-02 -9.98911e-01 
 1.67353e+01  1.64122e-02 -8.89095e-01 
 1.70979e+01  9.38598e-03 -7.78863e-01 
 1.74563e+01  4.15026e-03 -6.68800e-01 
 1.78109e+01  6.32709e-04 -5.59543e-01 
 1.81622e+01 -1.32537e-03 -4.51676e-01 
 1.85108e+01 -1.97096e-03 -3.45790e-01 
 1.88576e+01 -1.63858e-03 -2.42386e-01 
 1.92035e+01 -7.52092e-04 -1.41932e-01 
 1.95605e+01  2.49070e-02 -1.99798e-02 
-1.93689e+01 -2.54574e-02 -2.09903e-02 
-1.90060e+01  7.33218e-04 -1.44114e-01 
-1.86549e+01  1.96983e-03 -2.44334e-01 
-1.83035e+01  3.00457e-03 -3.46675e-01 
-1.79511e+01  3.47645e-03 -4.50799e-01 
-1.75970e+01  3.08990e-03 -5.56350e-01 
-1.72406e+01  1.61337e-03 -6.62881e-01 
-1.68814e+01 -1.11841e-03 -7.69959e-01 
-1.65190e+01 -5.20543e-03 -8.77091e-01 
-1.61532e+01 -1.06861e-02 -9.83821e-01 
-1.57838e+01 -1.75404e-02 -1.08966e+00 
-1.54105e+01 -2.56990e-02 -1.19419e+00 
-1.50336e+01 -3.50463e-02 -1.29696e+00 
-1.46528e+01 -4.54342e-02 -1.39760e+00 
-1.42685e+01 -5.66827e-02 -1.49577e+00 
-1.38806e+01 -6.85965e-02 -1.59117e+00 
-1.34894e+01 -8.09632e-02 -1.68353e+00 
-1.30952e+01 -9.35703e-02 -1.77265e+00 
-1.26981e+01 -1.06200e-01 -1.85836e+00 
-1.22984e+01 -1.18646e-01 -1.94055e+00 
-1.18965e+01 -1.30708e-01 -2.01912e+00 
-1.14924e+01 -1.42202e-01 -2.09402e+00 
-1.10866e+01 -1.52956e-01 -2.16523e+00 
-1.06793e+01 -1.62822e-01 -2.23278e+00 
-1.02706e+01 -1.71663e-01 -2.29667e+00 
-9.86088e+00 -1.79370e-01 -2.35699e+00 
-9.45029e+00 -1.85846e-01 -2.41378e+00 
-9.03899e+00 -1.91018e-01 -2.46714e+00 
-8.62721e+00 -1.94826e-01 -2.51715e+00 
-8.21505e+00 -1.97235e-01 -2.56393e+00 
-7.80270e+00 -1.98220e-01 -2.60757e+00 
-7.39021e+00 -1.97775e-01 -2.64819e+00 
-6.97775e+00 -1.95906e-01 -2.68589e+00 
-6.56534e+00 -1.92633e-01 -2.72078e+00 
-6.15312e+00 -1.87989e-01 -2.75297e+00 
-5.74107e+00 -1.82016e-01 -2.78257e+00 
-5.32931e+00 -1.74766e-01 -2.80966e+00 
-4.91778e+00 -1.66300e-01 -2.83436e+00 
-4.50659e+00 -1.56687e-01 -2.85674e+00 
-4.09567e+00 -1.46001e-01 -2.87689e+00 
-3.68509e+00 -1.34324e-01 -2.89488e+00 
-3.27476e+00 -1.21741e-01 -2.91079e+00 
-2.86476e+00 -1.08344e-01 -2.92468e+00 
-2.45497e+00 -9.42261e-02 -2.93660e+00 
-2.04545e+00 -7.94858e-02 -2.94660e+00 
-1.63610e+00 -6.42211e-02 -2.95473e+00 
-1.22694e+00 -4.85369e-02 -2.96102e+00 
-8.17874e-01 -3.25341e-02 -2.96550e+00 
-4.08931e-01 -1.63207e-02 -2.96817e+00 
-7.63419e-13 -3.32384e-12 -2.96906e+00 
 4.08931e-01  1.63207e-02 -2.96817e+00 
 8.17874e-01  3.25341e-02 -2.96550e+00 
 1.22694e+00  4.85369e-02 -2.96102e+00 
 1.63610e+00  6.42211e-02 -2.95473e+00 
 2.04545e+00  7.94858e-02 -2.94660e+00 
 2.45497e+00  9.42261e-02 -2.93660e+00 
 2.86476e+00  1.08344e-01 -2.92468e+00 
 3.27476e+00  1.21741e-01 -2.91079e+00 
 3.68509e+00  1.34324e-01 -2.89488e+00 
 4.09567e+00  1.46001e-01 -2.87689e+00 
 4.50659e+00  1.56687e-01 -2.85674e+00 
 4.91778e+00  1.66300e-01 -2.83436e+00 
 5.32931e+00  1.74766e-01 -2.80966e+00 
 5.74107e+00  1.82016e-01 -2.78257e+00 
 6.15312e+00  1.87989e-01 -2.75297e+00 
 6.56534e+00  1.92633e-01 -2.72078e+00 
 6.97775e+00  1.95906e-01 -2.68589e+00 
 7.39021e+00  1.97775e-01 -2.64819e+00 
 7.80270e+00  1.98220e-01 -2.60757e+00 
 8.21505e+00  1.97235e-01 -2.56393e+00 
 8.62721e+00  1.94826e-01 -2.51715e+00 
 9.03899e+00  1.91018e-01 -2.46714e+00 
 9.45029e+00  1.85846e-01 -2.41378e+00 
 9.86088e+00  1.79370e-01 -2.35699e+00 
 1.02706e+01  1.71663e-01 -2.29667e+00 
 1.06793e+01  1.62822e-01 -2.23278e+00 
 1.10866e+01  1.52956e-01 -2.16523e+00 
 1.14924e+01  1.42202e-01 -2.09402e+00 
 1.18965e+01  1.30708e-01 -2.01912e+00 
 1.22984e+01  1.18646e-01 -1.94055e+00 
 1.26981e+01  1.06200e-01 -1.85836e+00 
 1.30952e+01  9.35703e-02 -1.77265e+00 
 1.34894e+01  8.09632e-02 -1.68353e+00 
 1.38806e+01  6.85965e-02 -1.59117e+00 
 1.42685e+01  5.66827e-02 -1.49577e+00 
 1.46528e+01  4.54342e-02 -1.39760e+00 
 1.50336e+01  3.50463e-02 -1.29696e+00 
 1.54105e+01  2.56990e-02 -1.19419e+00 
 1.57838e+01  1.75404e-02 -1.08966e+00 
 1.61532e+01  1.06861e-02 -9.83821e-01 
 1.65190e+01  5.20543e-03 -8.77091e-01 
 1.68814e+01  1.11841e-03 -7.69959e-01 
 1.72406e+01 -1.61337e-03 -6.62881e-01 
 1.75970e+01 -3.08990e-03 -5.56350e-01 
 1.79511e+01 -3.47645e-03 -4.50799e-01 
 1.83035e+01 -3.00457e-03 -3.46675e-01 
 1.86549e+01 -1.96983e-03 -2.44334e-01 
 1.90060e+01 -7.33218e-04 -1.44114e-01 
 1.93689e+01  2.54574e-02 -2.09903e-02 
-1.91745e+01 -2.58275e-02 -2.19219e-02 
-1.88075e+01  7.01613e-04 -1.46593e-01 
-1.84528e+01  2.14314e-03 -2.47079e-01 
-1.80983e+01  3.62683e-03 -3.48988e-01 
-1.77433e+01  4.84521e-03 -4.52077e-01 
-1.73872e+01  5.53914e-03 -5.56093e-01 
-1.70296e+01  5.49671e-03 -6.60701e-01 
-1.66700e+01  4.55614e-03 -7.65580e-01 
-1.63081e+01  2.60511e-03 -8.70346e-01 
-1.59435e+01 -4.20332e-04 -9.74649e-01 
-1.55762e+01 -4.53811e-03 -1.07810e+00 
-1.52058e+01 -9.72534e-03 -1.18035e+00 
-1.48324e+01 -1.59208e-02 -1.28104e+00 
-1.44559e+01 -2.30337e-02 -1.37987e+00 
-1.40765e+01 -3.09448e-02 -1.47651e+00 
-1.36940e+01 -3.95179e-02 -1.57073e+00 
-1.33086e+01 -4.85989e-02 -1.66227e+00 
-1.29206e+01 -5.80286e-02 -1.75095e+00 
-1.25301e+01 -6.76393e-02 -1.83658e+00 
-1.21371e+01 -7.72683e-02 -1.91906e+00 
-1.17421e+01 -8.67521e-02 -1.99825e+00 
-1.13450e+01 -9.59390e-02 -2.07412e+00 
-1.09463e+01 -1.04683e-01 -2.14659e+00 
-1.05459e+01 -1.12853e-01 -2.21566e+00 
-1.01443e+01 -1.20328e-01 -2.28133e+00 
-9.74143e+00 -1.27006e-01 -2.34361e+00 
-9.33764e+00 -1.32793e-01 -2.40255e+00 
-8.93298e+00 -1.37617e-01 -2.45819e+00 
-8.52770e+00 -1.41414e-01 -2.51059e+00 
-8.12185e+00 -1.44141e-01 -2.55983e+00 
-7.71564e+00 -1.45763e-01 -2.60597e+00 
-7.30909e+00 -1.46263e-01 -2.64911e+00 
-6.90240e+00 -1.45634e-01 -2.68932e+00 
-6.49555e+00 -1.43881e-01 -2.72670e+00 
-6.08871e+00 -1.41021e-01 -2.76131e+00 
-5.68185e+00 -1.37079e-01 -2.79326e+00 
-5.27510e+00 -1.32092e-01 -2.82261e+00 
-4.86843e+00 -1.26102e-01 -2.84945e+00 
-4.46193e+00 -1.19161e-01 -2.87384e+00 
-4.05555e+00 -1.11326e-01 -2.89588e+00 
-3.64938e+00 -1.02663e-01 -2.91561e+00 
-3.24334e+00 -9.32383e-02 -2.93309e+00 
-2.83751e+00 -8.31276e-02 -2.94839e+00 
-2.43180e+00 -7.24070e-02 -2.96155e+00 
-2.02627e+00 -6.11591e-02 -2.97261e+00 
-1.62084e+00 -4.94660e-02 -2.98161e+00 
-1.21555e+00 -3.74157e-02 -2.98858e+00 
-8.10301e-01 -2.50941e-02 -2.99355e+00 
-4.05151e-01 -1.25928e-02 -2.99652e+00 
-7.97145e-13 -3.45182e-12 -2.99750e+00 
 4.05151e-01  1.25928e-02 -2.99652e+00 
 8.10301e-01  2.50941e-02 -2.99355e+00 
 1.21555e+00  3.74157e-02 -2.98858e+00 
 1.62084e+00  4.94660e-02 -2.98161e+00 
 2.02627e+00  6.11591e-02 -2.97261e+00 
 2.43180e+00  7.24070e-02 -2.96155e+00 
 2.83751e+00  8.31276e-02 -2.94839e+00 
 3.24334e+00  9.32383e-02 -2.93309e+00 
 3.64938e+00  1.02663e-01 -2.91561e+00 
 4.05555e+00  1.11326e-01 -2.89588e+00 
 4.46193e+00  1.19161e-01 -2.87384e+00 
 4.86843e+00  1.26102e-01 -2.84945e+00 
 5.27510e+00  1.32092e-01 -2.82261e+00 
 5.68185e+00  1.37079e-01 -2.79326e+00 
 6.08871e+00  1.41021e-01 -2.76131e+00 
 6.49555e+00  1.43881e-01 -2.72670e+00 
 6.90240e+00  1.45634e-01 -2.68932e+00 
 7.30909e+00  1.46263e-01 -2.64911e+00 
 7.71564e+00  1.45763e-01 -2.60597e+00 
 8.12185e+00  1.44141e-01 -2.55983e+00 
 8.52770e+00  1.41414e-01 -2.51059e+00 
 8.93298e+00  1.37617e-01 -2.45819e+00 
 9.33764e+00  1.32793e-01 -2.40255e+00 
 9.74143e+00  1.27006e-01 -2.34361e+00 
 1.01443e+01  1.20328e-01 -2.28133e+00 
 1.05459e+01  1.12853e-01 -2.21566e+00 
 1.09463e+01  1.04683e-01 -2.14659e+00 
 1.13450e+01  9.59390e-02 -2.07412e+00 
 1.17421e+01  8.67521e-02 -1.99825e+00 
 1.21371e+01  7.72683e-02 -1.91906e+00 
 1.25301e+01  6.76393e-02 -1.83658e+00 
 1.29206e+01  5.80286e-02 -1.75095e+00 
 1.33086e+01  4.85989e-02 -1.66227e+00 
 1.36940e+01  3.95179e-02 -1.57073e+00 
 1.40765e+01  3.09448e-02 -1.47651e+00 
 1.44559e+01  2.30337e-02 -1.37987e+00 
 1.48324e+01  1.59208e-02 -1.28104e+00 
 1.52058e+01  9.72534e-03 -1.18035e+00 
 1.55762e+01  4.53811e-03 -1.07810e+00 
 1.59435e+01  4.20332e-04 -9.74649e-01 
 1.63081e+01 -2.60511e-03 -8.70346e-01 
 1.66700e+01 -4.55614e-03 -7.65580e-01 
 1.70296e+01 -5.49671e-03 -6.60701e-01 
 1.73872e+01 -5.53914e-03 -5.56093e-01 
 1.77433e+01 -4.84521e-03 -4.52077e-01 
 1.80983e+01 -3.62683e-03 -3.48988e-01 
 1.84528e+01 -2.14314e-03 -2.47079e-01 
 1.88075e+01 -7.01613e-04 -1.46593e-01 
 1.91745e+01  2.58275e-02 -2.19219e-02 
-1.89769e+01 -2.60551e-02 -2.27765e-02 
-1.86073e+01  6.62212e-04 -1.49211e-01 
-1.82504e+01  2.20694e-03 -2.50297e-01 
-1.78938e+01  3.95972e-03 -3.52216e-01 
-1.75373e+01  5.65846e-03 -4.54795e-01 
-1.71801e+01  7.07711e-03 -5.57858e-01 
-1.68220e+01  8.02460e-03 -6.61154e-01 
-1.64625e+01  8.34803e-03 -7.64445e-01 
-1.61013e+01  7.93210e-03 -8.67433e-01 
-1.57381e+01  6.69957e-03 -9.69850e-01 
-1.53728e+01  4.60931e-03 -1.07138e+00 
-1.50051e+01  1.65379e-03 -1.17176e+00 
-1.46349e+01 -2.14320e-03 -1.27068e+00 
-1.42622e+01 -6.73176e-03 -1.36789e+00 
-1.38871e+01 -1.20375e-02 -1.46312e+00 
-1.35094e+01 -1.79688e-02 -1.55616e+00 
-1.31293e+01 -2.44173e-02 -1.64678e+00 
-1.27468e+01 -3.12665e-02 -1.73482e+00 
-1.23622e+01 -3.83904e-02 -1.82010e+00 
-1.19753e+01 -4.56628e-02 -1.90251e+00 
-1.15866e+01 -5.29544e-02 -1.98193e+00 
-1.11960e+01 -6.01422e-02 -2.05828e+00 
-1.08037e+01 -6.71048e-02 -2.13149e+00 
-1.04099e+01 -7.37318e-02 -2.20153e+00 
-1.00149e+01 -7.99178e-02 -2.26838e+00 
-9.61855e+00 -8.55709e-02 -2.33204e+00 
-9.22123e+00 -9.06066e-02 -2.39251e+00 
-8.82298e+00 -9.49550e-02 -2.44982e+00 
-8.42400e+00 -9.85544e-02 -2.50400e+00 
-8.02433e+00 -1.01358e-01 -2.55511e+00 
-7.62417e+00 -1.03327e-01 -2.60318e+00 
-7.22354e+00 -1.04438e-01 -2.64828e+00 
-6.82261e+00 -1.04673e-01 -2.69047e+00 
-6.42139e+00 -1.04029e-01 -2.72981e+00 
-6.02002e+00 -1.02510e-01 -2.76636e+00 
-5.61849e+00 -1.00131e-01 -2.80020e+00 
-5.21693e+00 -9.69118e-02 -2.83138e+00 
-4.81531e+00 -9.28836e-02 -2.85997e+00 
-4.41373e+00 -8.80830e-02 -2.88603e+00 
-4.01214e+00 -8.25530e-02 -2.90962e+00 
-3.61065e+00 -7.63428e-02 -2.93079e+00 
-3.20919e+00 -6.95061e-02 -2.94959e+00 
-2.80784e+00 -6.21021e-02 -2.96606e+00 
-2.40652e+00 -5.41925e-02 -2.98026e+00 
-2.00532e+00 -4.58445e-02 -2.99221e+00 
-1.60415e+00 -3.71256e-02 -3.00194e+00 
-1.20308e+00 -2.81086e-02 -3.00948e+00 
-8.02009e-01 -1.88649e-02 -3.01486e+00 
-4.01011e-01 -9.47071e-03 -3.01808e+00 
-8.50987e-13 -3.43280e-12 -3.01915e+00 
 4.01011e-01  9.47071e-03 -3.01808e+00 
 8.02009e-01  1.88649e-02 -3.01486e+00 
 1.20308e+00  2.81086e-02 -3.00948e+00 
 1.60415e+00  3.71256e-02 -3.00194e+00 
 2.00532e+00  4.58445e-02 -2.99221e+00 
 2.40652e+00  5.41925e-02 -2.98026e+00 
 2.80784e+00  6.21021e-02 -2.96606e+00 
 3.20919e+00  6.95061e-02 -2.94959e+00 
 3.61065e+00  7.63428e-02 -2.93079e+00 
 4.01214e+00  8.25530e-02 -2.90962e+00 
 4.41373e+00  8.80830e-02 -2.88603e+00 
 4.81531e+00  9.28836e-02 -2.85997e+00 
 5.21693e+00  9.69118e-02 -2.83138e+00 
 5.61849e+00  1.00131e-01 -2.80020e+00 
 6.02002e+00  1.02510e-01 -2.76636e+00 
 6.42139e+00  1.04029e-01 -2.72981e+00 
 6.82261e+00  1.04673e-01 -2.69047e+00 
 7.22354e+00  1.04438e-01 -2.64828e+00 
 7.62417e+00  1.03327e-01 -2.60318e+00 
 8.02433e+00  1.01358e-01 -2.55511e+00 
 8.42400e+00  9.85544e-02 -2.50400e+00 
 8.82298e+00  9.49550e-02 -2.44982e+00 
 9.22123e+00  9.06066e-02 -2.39251e+00 
 9.61855e+00  8.55709e-02 -2.33204e+00 
 1.00149e+01  7.99178e-02 -2.26838e+00 
 1.04099e+01  7.37318e-02 -2.20153e+00 
 1.08037e+01  6.71048e-02 -2.13149e+00 
 1.11960e+01  6.01422e-02 -2.05828e+00 
 1.15866e+01  5.29544e-02 -1.98193e+00 
 1.19753e+01  4.56628e-02 -1.90251e+00 
 1.23622e+01  3.83904e-02 -1.82010e+00 
 1.27468e+01  3.12665e-02 -1.73482e+00 
 1.31293e+01  2.44173e-02 -1.64678e+00 
 1.35094e+01  1.79688e-02 -1.55616e+00 
 1.38871e+01  1.20375e-02 -1.46312e+00 
 1.42622e+01  6.73176e-03 -1.36789e+00 
 1.46349e+01  2.14320e-03 -1.27068e+00 
 1.50051e+01 -1.65379e-03 -1.17176e+00 
 1.53728e+01 -4.60931e-03 -1.07138e+00 
 1.57381e+01 -6.69957e-03 -9.69850e-01 
 1.61013e+01 -7.93210e-03 -8.67433e-01 
 1.64625e+01 -8.34803e-03 -7.64445e-01 
 1.68220e+01 -8.02460e-03 -6.61154e-01 
 1.71801e+01 -7.07711e-03 -5.57858e-01 
 1.75373e+01 -5.65846e-03 -4.54795e-01 
 1.78938e+01 -3.95972e-03 -3.52216e-01 
 1.82504e+01 -2.20694e-03 -2.50297e-01 
 1.86073e+01 -6.62212e-04 -1.49211e-01 
 1.89769e+01  2.60551e-02 -2.27765e-02 
-1.87760e+01 -2.61692e-02 -2.35572e-02 
-1.84051e+01  6.18424e-04 -1.51859e-01 
-1.80469e+01  2.19522e-03 -2.53759e-01 
-1.76894e+01  4.08923e-03 -3.55993e-01 
-1.73322e+01  6.07683e-03 -4.58440e-01 
-1.69747e+01  7.96144e-03 -5.60979e-01 
-1.66167e+01  9.57249e-03 -6.63424e-01 
-1.62578e+01  1.07686e-02 -7.65600e-01 
-1.58976e+01  1.14371e-02 -8.67275e-01 
-1.55360e+01  1.14952e-02 -9.68247e-01 
-1.51727e+01  1.08885e-02 -1.06826e+00 
-1.48076e+01  9.59011e-03 -1.16711e+00 
-1.44405e+01  7.59853e-03 -1.26454e+00 
-1.40714e+01  4.93482e-03 -1.36035e+00 
-1.37002e+01  1.64088e-03 -1.45430e+00 
-1.33269e+01 -2.22529e-03 -1.54622e+00 
-1.29516e+01 -6.59027e-03 -1.63591e+00 
-1.25742e+01 -1.13714e-02 -1.72322e+00 
-1.21949e+01 -1.64761e-02 -1.80799e+00 
-1.18137e+01 -2.18091e-02 -1.89010e+00 
-1.14307e+01 -2.72700e-02 -1.96944e+00 
-1.10461e+01 -3.27614e-02 -2.04594e+00 
-1.06599e+01 -3.81848e-02 -2.11950e+00 
-1.02723e+01 -4.34488e-02 -2.19010e+00 
-9.88339e+00 -4.84642e-02 -2.25769e+00 
-9.49329e+00 -5.31516e-02 -2.32225e+00 
-9.10217e+00 -5.74361e-02 -2.38376e+00 
-8.71007e+00 -6.12540e-02 -2.44225e+00 
-8.31719e+00 -6.45476e-02 -2.49772e+00 
-7.92356e+00 -6.72708e-02 -2.55020e+00 
-7.52934e+00 -6.93841e-02 -2.59971e+00 
-7.13456e+00 -7.08594e-02 -2.64630e+00 
-6.73938e+00 -7.16755e-02 -2.69000e+00 
-6.34379e+00 -7.18215e-02 -2.73087e+00 
-5.94795e+00 -7.12934e-02 -2.76894e+00 
-5.55183e+00 -7.00962e-02 -2.80427e+00 
-5.15557e+00 -6.82412e-02 -2.83690e+00 
-4.75914e+00 -6.57475e-02 -2.86690e+00 
-4.36264e+00 -6.26403e-02 -2.89429e+00 
-3.96604e+00 -5.89504e-02 -2.91914e+00 
-3.56945e+00 -5.47145e-02 -2.94147e+00 
-3.17279e+00 -4.99734e-02 -2.96134e+00 
-2.77617e+00 -4.47732e-02 -2.97878e+00 
-2.37951e+00 -3.91624e-02 -2.99382e+00 
-1.98291e+00 -3.31946e-02 -3.00650e+00 
-1.58628e+00 -2.69240e-02 -3.01684e+00 
-1.18971e+00 -2.04096e-02 -3.02485e+00 
-7.93116e-01 -1.37096e-02 -3.03057e+00 
-3.96570e-01 -6.88616e-03 -3.03399e+00 
-6.72587e-13 -3.28764e-12 -3.03513e+00 
 3.96570e-01  6.88616e-03 -3.03399e+00 
 7.93116e-01  1.37096e-02 -3.03057e+00 
 1.18971e+00  2.04096e-02 -3.02485e+00 
 1.58628e+00  2.69240e-02 -3.01684e+00 
 1.98291e+00  3.31946e-02 -3.00650e+00 
 2.37951e+00  3.91624e-02 -2.99382e+00 
 2.77617e+00  4.47732e-02 -2.97878e+00 
 3.17279e+00  4.99734e-02 -2.96134e+00 
 3.56945e+00  5.47145e-02 -2.94147e+00 
 3.96604e+00  5.89504e-02 -2.91914e+00 
 4.36264e+00  6.26403e-02 -2.89429e+00 
 4.75914e+00  6.57475e-02 -2.86690e+00 
 5.15557e+00  6.82412e-02 -2.83690e+00 
 5.55183e+00  7.00962e-02 -2.80427e+00 
 5.94795e+00  7.12934e-02 -2.76894e+00 
 6.34379e+00  7.18215e-02 -2.73087e+00 
 6.73938e+00  7.16755e-02 -2.69000e+00 
 7.13456e+00  7.08594e-02 -2.64630e+00 
 7.52934e+00  6.93841e-02 -2.59971e+00 
 7.92356e+00  6.72708e-02 -2.55020e+00 
 8.31719e+00  6.45476e-02 -2.49772e+00 
 8.71007e+00  6.12540e-02 -2.44225e+00 
 9.10217e+00  5.74361e-02 -2.38376e+00 
 9.49329e+00  5.31516e-02 -2.32225e+00 
 9.88339e+00  4.84642e-02 -2.25769e+00 
 1.02723e+01  4.34488e-02 -2.19010e+00 
 1.06599e+01  3.81848e-02 -2.11950e+00 
 1.10461e+01  3.27614e-02 -2.04594e+00 
 1.14307e+01  2.72700e-02 -1.96944e+00 
 1.18137e+01  2.18091e-02 -1.89010e+00 
 1.21949e+01  1.64761e-02 -1.80799e+00 
 1.25742e+01  1.13714e-02 -1.72322e+00 
 1.29516e+01  6.59027e-03 -1.63591e+00 
 1.33269e+01  2.22529e-03 -1.54622e+00 
 1.37002e+01 -1.64088e-03 -1.45430e+00 
 1.40714e+01 -4.93482e-03 -1.36035e+00 
 1.44405e+01 -7.59853e-03 -1.26454e+00 
 1.48076e+01 -9.59011e-03 -1.16711e+00 
 1.51727e+01 -1.08885e-02 -1.06826e+00 
 1.55360e+01 -1.14952e-02 -9.68247e-01 
 1.58976e+01 -1.14371e-02 -8.67275e-01 
 1.62578e+01 -1.07686e-02 -7.65600e-01 
 1.66167e+01 -9.57249e-03 -6.63424e-01 
 1.69747e+01 -7.96144e-03 -5.60979e-01 
 1.73322e+01 -6.07683e-03 -4.58440e-01 
 1.76894e+01 -4.08923e-03 -3.55993e-01 
 1.80469e+01 -2.19522e-03 -2.53759e-01 
 1.84051e+01 -6.18424e-04 -1.51859e-01 
 1.87760e+01  2.61692e-02 -2.35572e-02 
-1.85717e+01 -2.61924e-02 -2.42675e-02 
-1.82005e+01  5.72621e-04 -1.54461e-01 
-1.78422e+01  2.13220e-03 -2.57302e-01 
-1.74846e+01  4.07684e-03 -3.60056e-01 
-1.71274e+01  6.21559e-03 -4.62636e-01 
-1.67703e+01  8.37787e-03 -5.64966e-01 
-1.64130e+01  1.04124e-02 -6.66905e-01 
-1.60550e+01  1.21904e-02 -7.68330e-01 
-1.56963e+01  1.36050e-02 -8.69060e-01 
-1.53364e+01  1.45727e-02 -9.68942e-01 
-1.49753e+01  1.50326e-02 -1.06777e+00 
-1.46128e+01  1.49460e-02 -1.16539e+00 
-1.42487e+01  1.42948e-02 -1.26158e+00 
-1.38830e+01  1.30799e-02 -1.35619e+00 
-1.35156e+01  1.13201e-02 -1.44901e+00 
-1.31464e+01  9.04850e-03 -1.53991e+00 
-1.27755e+01  6.31198e-03 -1.62869e+00 
-1.24029e+01  3.16692e-03 -1.71524e+00 
-1.20286e+01 -3.20799e-04 -1.79940e+00 
-1.16526e+01 -4.08083e-03 -1.88108e+00 
-1.12751e+01 -8.03730e-03 -1.96016e+00 
-1.08960e+01 -1.21143e-02 -2.03656e+00 
-1.05155e+01 -1.62340e-02 -2.11021e+00 
-1.01337e+01 -2.03221e-02 -2.18105e+00 
-9.75069e+00 -2.43049e-02 -2.24902e+00 
-9.36650e+00 -2.81154e-02 -2.31412e+00 
-8.98132e+00 -3.16891e-02 -2.37631e+00 
-8.59515e+00 -3.49697e-02 -2.43558e+00 
-8.20818e+00 -3.79050e-02 -2.49193e+00 
-7.82042e+00 -4.04519e-02 -2.54538e+00 
-7.43202e+00 -4.25721e-02 -2.59593e+00 
-7.04301e+00 -4.42366e-02 -2.64361e+00 
-6.65352e+00 -4.54217e-02 -2.68843e+00 
-6.26355e+00 -4.61125e-02 -2.73045e+00 
-5.87324e+00 -4.62997e-02 -2.76968e+00 
-5.48258e+00 -4.59815e-02 -2.80616e+00 
-5.09170e+00 -4.51618e-02 -2.83992e+00 
-4.70055e+00 -4.38513e-02 -2.87101e+00 
-4.30926e+00 -4.20656e-02 -2.89945e+00 
-3.91779e+00 -3.98260e-02 -2.92529e+00 
-3.52625e+00 -3.71585e-02 -2.94855e+00 
-3.13458e+00 -3.40934e-02 -2.96927e+00 
-2.74288e+00 -3.06652e-02 -2.98748e+00 
-2.35109e+00 -2.69113e-02 -3.00321e+00 
-1.95930e+00 -2.28730e-02 -3.01647e+00 
-1.56745e+00 -1.85933e-02 -3.02729e+00 
-1.17561e+00 -1.41185e-02 -3.03569e+00 
-7.83733e-01 -9.49512e-03 -3.04168e+00 
-3.91883e-01 -4.77270e-03 -3.04527e+00 
-6.57621e-13 -3.43772e-12 -3.04647e+00 
 3.91883e-01  4.77270e-03 -3.04527e+00 
 7.83733e-01  9.49512e-03 -3.04168e+00 
 1.17561e+00  1.41185e-02 -3.03569e+00 
 1.56745e+00  1.85933e-02 -3.02729e+00 
 1.95930e+00  2.28730e-02 -3.01647e+00 
 2.35109e+00  2.69113e-02 -3.00321e+00 
 2.74288e+00  3.06652e-02 -2.98748e+00 
 3.13458e+00  3.40934e-02 -2.96927e+00 
 3.52625e+00  3.71585e-02 -2.94855e+00 
 3.91779e+00  3.98260e-02 -2.92529e+00 
 4.30926e+00  4.20656e-02 -2.89945e+00 
 4.70055e+00  4.38513e-02 -2.87101e+00 
 5.09170e+00  4.51618e-02 -2.83992e+00 
 5.48258e+00  4.59815e-02 -2.80616e+00 
 5.87324e+00  4.62997e-02 -2.76968e+00 
 6.26355e+00  4.61125e-02 -2.73045e+00 
 6.65352e+00  4.54217e-02 -2.68843e+00 
 7.04301e+00  4.42366e-02 -2.64361e+00 
 7.43202e+00  4.25721e-02 -2.59593e+00 
 7.82042e+00  4.04519e-02 -2.54538e+00 
 8.20818e+00  3.79050e-02 -2.49193e+00 
 8.59515e+00  3.49697e-02 -2.43558e+00 
 8.98132e+00  3.16891e-02 -2.37631e+00 
 9.36650e+00  2.81154e-02 -2.31412e+00 
 9.75069e+00  2.43049e-02 -2.24902e+00 
 1.01337e+01  2.03221e-02 -2.18105e+00 
 1.05155e+01  1.62340e-02 -2.11021e+00 
 1.08960e+01  1.21143e-02 -2.03656e+00 
 1.12751e+01  8.03730e-03 -1.96016e+00 
 1.16526e+01  4.08083e-03 -1.88108e+00 
 1.20286e+01  3.20799e-04 -1.79940e+00 
 1.24029e+01 -3.16692e-03 -1.71524e+00 
 1.27755e+01 -6.31198e-03 -1.62869e+00 
 1.31464e+01 -9.04850e-03 -1.53991e+00 
 1.35156e+01 -1.13201e-02 -1.44901e+00 
 1.38830e+01 -1.30799e-02 -1.35619e+00 
 1.42487e+01 -1.42948e-02 -1.26158e+00 
 1.46128e+01 -1.49460e-02 -1.16539e+00 
 1.49753e+01 -1.50326e-02 -1.06777e+00 
 1.53364e+01 -1.45727e-02 -9.68942e-01 
 1.56963e+01 -1.36050e-02 -8.69060e-01 
 1.60550e+01 -1.21904e-02 -7.68330e-01 
 1.64130e+01 -1.04124e-02 -6.66905e-01 
 1.67703e+01 -8.37787e-03 -5.64966e-01 
 1.71274e+01 -6.21559e-03 -4.62636e-01 
 1.74846e+01 -4.07684e-03 -3.60056e-01 
 1.78422e+01 -2.13220e-03 -2.57302e-01 
 1.82005e+01 -5.72621e-04 -1.54461e-01 
 1.85717e+01  2.61924e-02 -2.42675e-02 
-1.83642e+01 -2.61421e-02 -2.49112e-02 
-1.79936e+01  5.26460e-04 -1.56967e-01 
-1.76358e+01  2.03528e-03 -2.60816e-01 
-1.72789e+01  3.96697e-03 -3.64218e-01 
-1.69225e+01  6.15840e-03 -4.67114e-01 
-1.65663e+01  8.46173e-03 -5.69461e-01 
-1.62102e+01  1.07435e-02 -6.71152e-01 
-1.58536e+01  1.28876e-02 -7.72103e-01 
-1.54966e+01  1.47945e-02 -8.72173e-01 
-1.51388e+01  1.63834e-02 -9.71248e-01 
-1.47800e+01  1.75908e-02 -1.06917e+00 
-1.44202e+01  1.83718e-02 -1.16580e+00 
-1.40591e+01  1.86974e-02 -1.26098e+00 
-1.36967e+01  1.85555e-02 -1.35457e+00 
-1.33330e+01  1.79481e-02 -1.44641e+00 
-1.29678e+01  1.68903e-02 -1.53638e+00 
-1.26011e+01  1.54091e-02 -1.62431e+00 
-1.22330e+01  1.35408e-02 -1.71011e+00 
-1.18634e+01  1.13304e-02 -1.79364e+00 
-1.14923e+01  8.82799e-03 -1.87480e+00 
-1.11199e+01  6.08969e-03 -1.95350e+00 
-1.07461e+01  3.17308e-03 -2.02965e+00 
-1.03711e+01  1.38628e-04 -2.10318e+00 
-9.99477e+00 -2.95463e-03 -2.17403e+00 
-9.61736e+00 -6.04721e-03 -2.24215e+00 
-9.23883e+00 -9.08351e-03 -2.30751e+00 
-8.85935e+00 -1.20093e-02 -2.37007e+00 
-8.47891e+00 -1.47761e-02 -2.42982e+00 
-8.09767e+00 -1.73381e-02 -2.48674e+00 
-7.71563e+00 -1.96561e-02 -2.54083e+00 
-7.33294e+00 -2.16947e-02 -2.59209e+00 
-6.94959e+00 -2.34256e-02 -2.64053e+00 
-6.56573e+00 -2.48246e-02 -2.68616e+00 
-6.18135e+00 -2.58746e-02 -2.72901e+00 
-5.79657e+00 -2.65629e-02 -2.76909e+00 
-5.41138e+00 -2.68836e-02 -2.80642e+00 
-5.02590e+00 -2.68350e-02 -2.84103e+00 
-4.64010e+00 -2.64212e-02 -2.87295e+00 
-4.25410e+00 -2.56509e-02 -2.90219e+00 
-3.86786e+00 -2.45374e-02 -2.92879e+00 
-3.48149e+00 -2.30982e-02 -2.95277e+00 
-3.09494e+00 -2.13547e-02 -2.97416e+00 
-2.70830e+00 -1.93318e-02 -2.99297e+00 
-2.32154e+00 -1.70575e-02 -3.00923e+00 
-1.93474e+00 -1.45627e-02 -3.02295e+00 
-1.54784e+00 -1.18802e-02 -3.03416e+00 
-1.16093e+00 -9.04564e-03 -3.04286e+00 
-7.73957e-01 -6.09518e-03 -3.04907e+00 
-3.86998e-01 -3.06723e-03 -3.05279e+00 
-7.07977e-13 -3.22743e-12 -3.05403e+00 
 3.86998e-01  3.06723e-03 -3.05279e+00 
 7.73957e-01  6.09518e-03 -3.04907e+00 
 1.16093e+00  9.04564e-03 -3.04286e+00 
 1.54784e+00  1.18802e-02 -3.03416e+00 
 1.93474e+00  1.45627e-02 -3.02295e+00 
 2.32154e+00  1.70575e-02 -3.00923e+00 
 2.70830e+00  1.93318e-02 -2.99297e+00 
 3.09494e+00  2.13547e-02 -2.97416e+00 
 3.48149e+00  2.30982e-02 -2.95277e+00 
 3.86786e+00  2.45374e-02 -2.92879e+00 
 4.25410e+00  2.56509e-02 -2.90219e+00 
 4.64010e+00  2.64212e-02 -2.87295e+00 
 5.02590e+00  2.68350e-02 -2.84103e+00 
 5.41138e+00  2.68836e-02 -2.80642e+00 
 5.79657e+00  2.65629e-02 -2.76909e+00 
 6.18135e+00  2.58746e-02 -2.72901e+00 
 6.56573e+00  2.48246e-02 -2.68616e+00 
 6.94959e+00  2.34256e-02 -2.64053e+00 
 7.33294e+00  2.16947e-02 -2.59209e+00 
 7.71563e+00  1.96561e-02 -2.54083e+00 
 8.09767e+00  1.73381e-02 -2.48674e+00 
 8.47891e+00  1.47761e-02 -2.42982e+00 
 8.85935e+00  1.20093e-02 -2.37007e+00 
 9.23883e+00  9.08351e-03 -2.30751e+00 
 9.61736e+00  6.04721e-03 -2.24215e+00 
 9.99477e+00  2.95463e-03 -2.17403e+00 
 1.03711e+01 -1.38628e-04 -2.10318e+00 
 1.07461e+01 -3.17308e-03 -2.02965e+00 
 1.11199e+01 -6.08969e-03 -1.95350e+00 
 1.14923e+01 -8.82799e-03 -1.87480e+00 
 1.18634e+01 -1.13304e-02 -1.79364e+00 
 1.22330e+01 -1.35408e-02 -1.71011e+00 
 1.26011e+01 -1.54091e-02 -1.62431e+00 
 1.29678e+01 -1.68903e-02 -1.53638e+00 
 1.33330e+01 -1.79481e-02 -1.44641e+00 
 1.36967e+01 -1.85555e-02 -1.35457e+00 
 1.40591e+01 -1.86974e-02 -1.26098e+00 
 1.44202e+01 -1.83718e-02 -1.16580e+00 
 1.47800e+01 -1.75908e-02 -1.06917e+00 
 1.51388e+01 -1.63834e-02 -9.71248e-01 
 1.54966e+01 -1.47945e-02 -8.72173e-01 
 1.58536e+01 -1.28876e-02 -7.72103e-01 
 1.62102e+01 -1.07435e-02 -6.71152e-01 
 1.65663e+01 -8.46173e-03 -5.69461e-01 
 1.69225e+01 -6.15840e-03 -4.67114e-01 
 1.72789e+01 -3.96697e-03 -3.64218e-01 
 1.76358e+01 -2.03528e-03 -2.60816e-01 
 1.79936e+01 -5.26460e-04 -1.56967e-01 
 1.83642e+01  2.61421e-02 -2.49112e-02 
-1.81535e+01 -2.60325e-02 -2.54926e-02 
-1.77842e+01  4.81089e-04 -1.59343e-01 
-1.74277e+01  1.91703e-03 -2.64221e-01 
-1.70720e+01  3.79196e-03 -3.68346e-01 
-1.67170e+01  5.96642e-03 -4.71679e-01 
-1.63624e+01  8.31247e-03 -5.74202e-01 
-1.60078e+01  1.07128e-02 -6.75835e-01 
-1.56531e+01  1.30634e-02 -7.76522e-01 
-1.52981e+01  1.52730e-02 -8.76153e-01 
-1.49426e+01  1.72652e-02 -9.74647e-01 
-1.45864e+01  1.89770e-02 -1.07187e+00 
-1.42293e+01  2.03603e-02 -1.16773e+00 
-1.38714e+01  2.13803e-02 -1.26208e+00 
-1.35123e+01  2.20159e-02 -1.35483e+00 
-1.31522e+01  2.22577e-02 -1.44582e+00 
-1.27908e+01  2.21080e-02 -1.53497e+00 
-1.24282e+01  2.15792e-02 -1.62213e+00 
-1.20644e+01  2.06921e-02 -1.70721e+00 
-1.16994e+01  1.94757e-02 -1.79010e+00 
-1.13330e+01  1.79643e-02 -1.87071e+00 
-1.09655e+01  1.61979e-02 -1.94895e+00 
-1.05968e+01  1.42191e-02 -2.02475e+00 
-1.02269e+01  1.20737e-02 -2.09803e+00 
-9.85587e+00  9.80768e-03 -2.16874e+00 
-9.48384e+00  7.46817e-03 -2.23682e+00 
-9.11076e+00  5.10026e-03 -2.30224e+00 
-8.73679e+00  2.74866e-03 -2.36494e+00 
-8.36190e+00  4.54317e-04 -2.42493e+00 
-7.98623e+00 -1.74342e-03 -2.48216e+00 
-7.60978e+00 -3.81009e-03 -2.53664e+00 
-7.23267e+00 -5.71370e-03 -2.58835e+00 
-6.85490e+00 -7.42777e-03 -2.63730e+00 
-6.47660e+00 -8.92887e-03 -2.68348e+00 
-6.09774e+00 -1.01992e-02 -2.72690e+00 
-5.71846e+00 -1.12245e-02 -2.76757e+00 
-5.33873e+00 -1.19957e-02 -2.80552e+00 
-4.95867e+00 -1.25075e-02 -2.84074e+00 
-4.57826e+00 -1.27594e-02 -2.87326e+00 
-4.19760e+00 -1.27544e-02 -2.90309e+00 
-3.81665e+00 -1.25000e-02 -2.93026e+00 
-3.43553e+00 -1.20066e-02 -2.95478e+00 
-3.05420e+00 -1.12885e-02 -2.97666e+00 
-2.67275e+00 -1.03628e-02 -2.99593e+00 
-2.29113e+00 -9.24935e-03 -3.01259e+00 
-1.90944e+00 -7.97041e-03 -3.02667e+00 
-1.52763e+00 -6.55029e-03 -3.03817e+00 
-1.14580e+00 -5.01525e-03 -3.04710e+00 
-7.63876e-01 -3.39260e-03 -3.05348e+00 
-3.81960e-01 -1.71117e-03 -3.05730e+00 
-8.88253e-13 -2.99414e-12 -3.05857e+00 
 3.81960e-01  1.71117e-03 -3.05730e+00 
 7.63876e-01  3.39260e-03 -3.05348e+00 
 1.14580e+00  5.01525e-03 -3.04710e+00 
 1.52763e+00  6.55029e-03 -3.03817e+00 
 1.90944e+00  7.97041e-03 -3.02667e+00 
 2.29113e+00  9.24935e-03 -3.01259e+00 
 2.67275e+00  1.03628e-02 -2.99593e+00 
 3.05420e+00  1.12885e-02 -2.97666e+00 
 3.43553e+00  1.20066e-02 -2.95478e+00 
 3.81665e+00  1.25000e-02 -2.93026e+00 
 4.19760e+00  1.27544e-02 -2.90309e+00 
 4.57826e+00  1.27594e-02 -2.87326e+00 
 4.95867e+00  1.25075e-02 -2.84074e+00 
 5.33873e+00  1.19957e-02 -2.80552e+00 
 5.71846e+00  1.12245e-02 -2.76757e+00 
 6.09774e+00  1.01992e-02 -2.72690e+00 
 6.47660e+00  8.92887e-03 -2.68348e+00 
 6.85490e+00  7.42777e-03 -2.63730e+00 
 7.23267e+00  5.71370e-03 -2.58835e+00 
 7.60978e+00  3.81009e-03 -2.53664e+00 
 7.98623e+00  1.74342e-03 -2.48216e+00 
 8.36190e+00 -4.54317e-04 -2.42493e+00 
 8.73679e+00 -2.74866e-03 -2.36494e+00 
 9.11076e+00 -5.10026e-03 -2.30224e+00 
 9.48384e+00 -7.46817e-03 -2.23682e+00 
 9.85587e+00 -9.80768e-03 -2.16874e+00 
 1.02269e+01 -1.20737e-02 -2.09803e+00 
 1.05968e+01 -1.42191e-02 -2.02475e+00 
 1.09655e+01 -1.61979e-02 -1.94895e+00 
 1.13330e+01 -1.79643e-02 -1.87071e+00 
 1.16994e+01 -1.94757e-02 -1.79010e+00 
 1.20644e+01 -2.06921e-02 -1.70721e+00 
 1.24282e+01 -2.15792e-02 -1.62213e+00 
 1.27908e+01 -2.21080e-02 -1.53497e+00 
 1.31522e+01 -2.22577e-02 -1.44582e+00 
 1.35123e+01 -2.20159e-02 -1.35483e+00 
 1.38714e+01 -2.13803e-02 -1.26208e+00 
 1.42293e+01 -2.03603e-02 -1.16773e+00 
 1.45864e+01 -1.89770e-02 -1.07187e+00 
 1.49426e+01 -1.72652e-02 -9.74647e-01 
 1.52981e+01 -1.52730e-02 -8.76153e-01 
 1.56531e+01 -1.30634e-02 -7.76522e-01 
 1.60078e+01 -1.07128e-02 -6.75835e-01 
 1.63624e+01 -8.31247e-03 -5.74202e-01 
 1.67170e+01 -5.96642e-03 -4.71679e-01 
 1.70720e+01 -3.79196e-03 -3.68346e-01 
 1.74277e+01 -1.91703e-03 -2.64221e-01 
 1.77842e+01 -4.81089e-04 -1.59343e-01 
 1.81535e+01  2.60325e-02 -2.54926e-02 
-1.79398e+01 -2.58746e-02 -2.60158e-02 
-1.75725e+01  4.37297e-04 -1.61570e-01 
-1.72178e+01  1.78658e-03 -2.67466e-01 
-1.68640e+01  3.57545e-03 -3.72349e-01 
-1.65108e+01  5.68465e-03 -4.76195e-01 
-1.61581e+01  8.00356e-03 -5.79003e-01 
-1.58056e+01  1.04294e-02 -6.80713e-01 
-1.54531e+01  1.28696e-02 -7.81292e-01 
-1.51005e+01  1.52412e-02 -8.80654e-01 
-1.47474e+01  1.74731e-02 -9.78742e-01 
-1.43940e+01  1.95045e-02 -1.07545e+00 
-1.40399e+01  2.12872e-02 -1.17071e+00 
-1.36851e+01  2.27828e-02 -1.26440e+00 
-1.33294e+01  2.39650e-02 -1.35644e+00 
-1.29729e+01  2.48169e-02 -1.44671e+00 
-1.26153e+01  2.53317e-02 -1.53513e+00 
-1.22568e+01  2.55111e-02 -1.62159e+00 
-1.18972e+01  2.53647e-02 -1.70601e+00 
-1.15365e+01  2.49090e-02 -1.78829e+00 
-1.11748e+01  2.41661e-02 -1.86835e+00 
-1.08120e+01  2.31632e-02 -1.94610e+00 
-1.04481e+01  2.19307e-02 -2.02148e+00 
-1.00832e+01  2.05025e-02 -2.09443e+00 
-9.71730e+00  1.89135e-02 -2.16488e+00 
-9.35046e+00  1.72003e-02 -2.23279e+00 
-8.98267e+00  1.53986e-02 -2.29811e+00 
-8.61404e+00  1.35448e-02 -2.36080e+00 
-8.24455e+00  1.16727e-02 -2.42085e+00 
-7.87431e+00  9.81536e-03 -2.47821e+00 
-7.50332e+00  8.00261e-03 -2.53288e+00 
-7.13169e+00  6.26256e-03 -2.58483e+00 
-6.75940e+00  4.61929e-03 -2.63407e+00 
-6.38658e+00  3.09470e-03 -2.68058e+00 
-6.01319e+00  1.70628e-03 -2.72437e+00 
-5.63937e+00  4.69029e-04 -2.76543e+00 
-5.26508e+00 -6.06526e-04 -2.80378e+00 
-4.89044e+00 -1.51245e-03 -2.83942e+00 
-4.51542e+00 -2.24509e-03 -2.87236e+00 
-4.14012e+00 -2.80335e-03 -2.90261e+00 
-3.76451e+00 -3.18998e-03 -2.93018e+00 
-3.38870e+00 -3.41017e-03 -2.95508e+00 
-3.01265e+00 -3.47240e-03 -2.97733e+00 
-2.63646e+00 -3.38731e-03 -2.99692e+00 
-2.26007e+00 -3.16820e-03 -3.01389e+00 
-1.88359e+00 -2.83020e-03 -3.02822e+00 
-1.50698e+00 -2.39039e-03 -3.03994e+00 
-1.13032e+00 -1.86729e-03 -3.04904e+00 
-7.53564e-01 -1.28063e-03 -3.05554e+00 
-3.76806e-01 -6.51127e-04 -3.05944e+00 
-7.69404e-13 -3.07021e-12 -3.06074e+00 
 3.76806e-01  6.51127e-04 -3.05944e+00 
 7.53564e-01  1.28063e-03 -3.05554e+00 
 1.13032e+00  1.86729e-03 -3.04904e+00 
 1.50698e+00  2.39039e-03 -3.03994e+00 
 1.88359e+00  2.83020e-03 -3.02822e+00 
 2.26007e+00  3.16820e-03 -3.01389e+00 
 2.63646e+00  3.38731e-03 -2.99692e+00 
 3.01265e+00  3.47240e-03 -2.97733e+00 
 3.38870e+00  3.41017e-03 -2.95508e+00 
 3.76451e+00  3.18998e-03 -2.93018e+00 
 4.14012e+00  2.80335e-03 -2.90261e+00 
 4.51542e+00  2.24509e-03 -2.87236e+00 
 4.89044e+00  1.51245e-03 -2.83942e+00 
 5.26508e+00  6.06526e-04 -2.80378e+00 
 5.63937e+00 -4.69029e-04 -2.76543e+00 
 6.01319e+00 -1.70628e-03 -2.72437e+00 
 6.38658e+00 -3.09470e-03 -2.68058e+00 
 6.75940e+00 -4.61929e-03 -2.63407e+00 
 7.13169e+00 -6.26256e-03 -2.58483e+00 
 7.50332e+00 -8.00261e-03 -2.53288e+00 
 7.87431e+00 -9.81536e-03 -2.47821e+00 
 8.24455e+00 -1.16727e-02 -2.42085e+00 
 8.61404e+00 -1.35448e-02 -2.36080e+00 
 8.98267e+00 -1.53986e-02 -2.29811e+00 
 9.35046e+00 -1.72003e-02 -2.23279e+00 
 9.71730e+00 -1.89135e-02 -2.16488e+00 
 1.00832e+01 -2.05025e-02 -2.09443e+00 
 1.04481e+01 -2.19307e-02 -2.02148e+00 
 1.08120e+01 -2.31632e-02 -1.94610e+00 
 1.11748e+01 -2.41661e-02 -1.86835e+00 
 1.15365e+01 -2.49090e-02 -1.78829e+00 
 1.18972e+01 -2.53647e-02 -1.70601e+00 
 1.22568e+01 -2.55111e-02 -1.62159e+00 
 1.26153e+01 -2.53317e-02 -1.53513e+00 
 1.29729e+01 -2.48169e-02 -1.44671e+00 
 1.33294e+01 -2.39650e-02 -1.35644e+00 
 1.36851e+01 -2.27828e-02 -1.26440e+00 
 1.40399e+01 -2.12872e-02 -1.17071e+00 
 1.43940e+01 -1.95045e-02 -1.07545e+00 
 1.47474e+01 -1.74731e-02 -9.78742e-01 
 1.51005e+01 -1.52412e-02 -8.80654e-01 
 1.54531e+01 -1.28696e-02 -7.81292e-01 
 1.58056e+01 -1.04294e-02 -6.80713e-01 
 1.61581e+01 -8.00356e-03 -5.79003e-01 
 1.65108e+01 -5.68465e-03 -4.76195e-01 
 1.68640e+01 -3.57545e-03 -3.72349e-01 
 1.72178e+01 -1.78658e-03 -2.67466e-01 
 1.75725e+01 -4.37297e-04 -1.61570e-01 
 1.79398e+01  2.58746e-02 -2.60158e-02 
-1.77234e+01 -2.56775e-02 -2.64852e-02 
-1.73585e+01  3.95606e-04 -1.63637e-01 
-1.70061e+01  1.65055e-03 -2.70518e-01 
-1.66546e+01  3.33475e-03 -3.76166e-01 
-1.63038e+01  5.34624e-03 -4.80565e-01 
-1.59534e+01  7.58948e-03 -5.83728e-01 
-1.56033e+01  9.97456e-03 -6.85611e-01 
-1.52533e+01  1.24196e-02 -7.86197e-01 
-1.49033e+01  1.48496e-02 -8.85419e-01 
-1.45531e+01  1.71995e-02 -9.83239e-01 
-1.42026e+01  1.94117e-02 -1.07957e+00 
-1.38515e+01  2.14391e-02 -1.17437e+00 
-1.35000e+01  2.32423e-02 -1.26752e+00 
-1.31478e+01  2.47920e-02 -1.35898e+00 
-1.27949e+01  2.60666e-02 -1.44865e+00 
-1.24412e+01  2.70532e-02 -1.53645e+00 
-1.20866e+01  2.77459e-02 -1.62228e+00 
-1.17311e+01  2.81460e-02 -1.70609e+00 
-1.13748e+01  2.82608e-02 -1.78779e+00 
-1.10175e+01  2.81029e-02 -1.86730e+00 
-1.06593e+01  2.76894e-02 -1.94456e+00 
-1.03002e+01  2.70414e-02 -2.01950e+00 
-9.94019e+00  2.61826e-02 -2.09206e+00 
-9.57924e+00  2.51391e-02 -2.16219e+00 
-9.21747e+00  2.39384e-02 -2.22984e+00 
-8.85481e+00  2.26086e-02 -2.29496e+00 
-8.49139e+00  2.11784e-02 -2.35752e+00 
-8.12716e+00  1.96752e-02 -2.41749e+00 
-7.76224e+00  1.81266e-02 -2.47483e+00 
-7.39660e+00  1.65576e-02 -2.52954e+00 
-7.03035e+00  1.49927e-02 -2.58157e+00 
-6.66346e+00  1.34531e-02 -2.63094e+00 
-6.29604e+00  1.19588e-02 -2.67762e+00 
-5.92807e+00  1.05264e-02 -2.72161e+00 
-5.55966e+00  9.17079e-03 -2.76290e+00 
-5.19078e+00  7.90319e-03 -2.80150e+00 
-4.82154e+00  6.73302e-03 -2.83740e+00 
-4.45190e+00  5.66617e-03 -2.87061e+00 
-4.08198e+00  4.70663e-03 -2.90112e+00 
-3.71173e+00  3.85513e-03 -2.92896e+00 
-3.34126e+00  3.11059e-03 -2.95412e+00 
-2.97053e+00  2.46904e-03 -2.97661e+00 
-2.59964e+00  1.92492e-03 -2.99643e+00 
-2.22855e+00  1.47025e-03 -3.01360e+00 
-1.85735e+00  1.09574e-03 -3.02811e+00 
-1.48600e+00  7.90243e-04 -3.03998e+00 
-1.11459e+00  5.41624e-04 -3.04921e+00 
-7.43085e-01  3.36480e-04 -3.05579e+00 
-3.71568e-01  1.60823e-04 -3.05974e+00 
-8.03327e-13 -2.50403e-12 -3.06106e+00 
 3.71568e-01 -1.60823e-04 -3.05974e+00 
 7.43085e-01 -3.36480e-04 -3.05579e+00 
 1.11459e+00 -5.41624e-04 -3.04921e+00 
 1.48600e+00 -7.90243e-04 -3.03998e+00 
 1.85735e+00 -1.09574e-03 -3.02811e+00 
 2.22855e+00 -1.47025e-03 -3.01360e+00 
 2.59964e+00 -1.92492e-03 -2.99643e+00 
 2.97053e+00 -2.46904e-03 -2.97661e+00 
 3.34126e+00 -3.11059e-03 -2.95412e+00 
 3.71173e+00 -3.85513e-03 -2.92896e+00 
 4.08198e+00 -4.70663e-03 -2.90112e+00 
 4.45190e+00 -5.66617e-03 -2.87061e+00 
 4.82154e+00 -6.73302e-03 -2.83740e+00 
 5.19078e+00 -7.90319e-03 -2.80150e+00 
 5.55966e+00 -9.17079e-03 -2.76290e+00 
 5.92807e+00 -1.05264e-02 -2.72161e+00 
 6.29604e+00 -1.19588e-02 -2.67762e+00 
 6.66346e+00 -1.34531e-02 -2.63094e+00 
 7.03035e+00 -1.49927e-02 -2.58157e+00 
 7.39660e+00 -1.65576e-02 -2.52954e+00 
 7.76224e+00 -1.81266e-02 -2.47483e+00 
 8.12716e+00 -1.96752e-02 -2.41749e+00 
 8.49139e+00 -2.11784e-02 -2.35752e+00 
 8.85481e+00 -2.26086e-02 -2.29496e+00 
 9.21747e+00 -2.39384e-02 -2.22984e+00 
 9.57924e+00 -2.51391e-02 -2.16219e+00 
 9.94019e+00 -2.61826e-02 -2.09206e+00 
 1.03002e+01 -2.70414e-02 -2.01950e+00 
 1.06593e+01 -2.76894e-02 -1.94456e+00 
 1.10175e+01 -2.81029e-02 -1.86730e+00 
 1.13748e+01 -2.82608e-02 -1.78779e+00 
 1.17311e+01 -2.81460e-02 -1.70609e+00 
 1.20866e+01 -2.77459e-02 -1.62228e+00 
 1.24412e+01 -2.70532e-02 -1.53645e+00 
 1.27949e+01 -2.60666e-02 -1.44865e+00 
 1.31478e+01 -2.47920e-02 -1.35898e+00 
 1.35000e+01 -2.32423e-02 -1.26752e+00 
 1.38515e+01 -2.14391e-02 -1.17437e+00 
 1.42026e+01 -1.94117e-02 -1.07957e+00 
 1.45531e+01 -1.71995e-02 -9.83239e-01 
 1.49033e+01 -1.48496e-02 -8.85419e-01 
 1.52533e+01 -1.24196e-02 -7.86197e-01 
 1.56033e+01 -9.97456e-03 -6.85611e-01 
 1.59534e+01 -7.58948e-03 -5.83728e-01 
 1.63038e+01 -5.34624e-03 -4.80565e-01 
 1.66546e+01 -3.33475e-03 -3.76166e-01 
 1.70061e+01 -1.65055e-03 -2.70518e-01 
 1.73585e+01 -3.95606e-04 -1.63637e-01 
 1.77234e+01  2.56775e-02 -2.64852e-02 
-1.75044e+01 -2.54485e-02 -2.69050e-02 
-1.71424e+01  3.56348e-04 -1.65540e-01 
-1.67927e+01  1.51368e-03 -2.73360e-01 
-1.64439e+01  3.08250e-03 -3.79758e-01 
-1.60957e+01  4.97562e-03 -4.84726e-01 
-1.57480e+01  7.11059e-03 -5.88286e-01 
-1.54007e+01  9.40900e-03 -6.90405e-01 
-1.50535e+01  1.17985e-02 -7.91081e-01 
-1.47064e+01  1.42121e-02 -8.90258e-01 
-1.43592e+01  1.65904e-02 -9.87917e-01 
-1.40118e+01  1.88799e-02 -1.08399e+00 
-1.36641e+01  2.10354e-02 -1.17843e+00 
-1.33159e+01  2.30182e-02 -1.27117e+00 
-1.29673e+01  2.47976e-02 -1.36215e+00 
-1.26180e+01  2.63494e-02 -1.45130e+00 
-1.22681e+01  2.76566e-02 -1.53856e+00 
-1.19176e+01  2.87081e-02 -1.62385e+00 
-1.15663e+01  2.94995e-02 -1.70711e+00 
-1.12142e+01  3.00311e-02 -1.78827e+00 
-1.08613e+01  3.03085e-02 -1.86727e+00 
-1.05077e+01  3.03410e-02 -1.94404e+00 
-1.01532e+01  3.01421e-02 -2.01853e+00 
-9.79792e+00  2.97279e-02 -2.09067e+00 
-9.44183e+00  2.91168e-02 -2.16044e+00 
-9.08500e+00  2.83292e-02 -2.22777e+00 
-8.72738e+00  2.73864e-02 -2.29262e+00 
-8.36905e+00  2.63108e-02 -2.35496e+00 
-8.00999e+00  2.51242e-02 -2.41476e+00 
-7.65028e+00  2.38491e-02 -2.47198e+00 
-7.28989e+00  2.25063e-02 -2.52661e+00 
-6.92893e+00  2.11166e-02 -2.57861e+00 
-6.56736e+00  1.96986e-02 -2.62799e+00 
-6.20529e+00  1.82700e-02 -2.67470e+00 
-5.84267e+00  1.68462e-02 -2.71876e+00 
-5.47963e+00  1.54413e-02 -2.76015e+00 
-5.11612e+00  1.40668e-02 -2.79886e+00 
-4.75225e+00  1.27329e-02 -2.83490e+00 
-4.38799e+00  1.14467e-02 -2.86825e+00 
-4.02343e+00  1.02143e-02 -2.89893e+00 
-3.65854e+00  9.03898e-03 -2.92692e+00 
-3.29343e+00  7.92266e-03 -2.95224e+00 
-2.92804e+00  6.86486e-03 -2.97488e+00 
-2.56249e+00  5.86397e-03 -2.99484e+00 
-2.19672e+00  4.91625e-03 -3.01214e+00 
-1.83084e+00  4.01705e-03 -3.02677e+00 
-1.46480e+00  3.16002e-03 -3.03874e+00 
-1.09870e+00  2.33821e-03 -3.04804e+00 
-7.32493e-01  1.54338e-03 -3.05468e+00 
-3.66272e-01  7.67065e-04 -3.05867e+00 
-1.10648e-12 -1.52213e-12 -3.06000e+00 
 3.66272e-01 -7.67065e-04 -3.05867e+00 
 7.32493e-01 -1.54338e-03 -3.05468e+00 
 1.09870e+00 -2.33821e-03 -3.04804e+00 
 1.46480e+00 -3.16002e-03 -3.03874e+00 
 1.83084e+00 -4.01705e-03 -3.02677e+00 
 2.19672e+00 -4.91625e-03 -3.01214e+00 
 2.56249e+00 -5.86397e-03 -2.99484e+00 
 2.92804e+00 -6.86486e-03 -2.97488e+00 
 3.29343e+00 -7.92266e-03 -2.95224e+00 
 3.65854e+00 -9.03898e-03 -2.92692e+00 
 4.02343e+00 -1.02143e-02 -2.89893e+00 
 4.38799e+00 -1.14467e-02 -2.86825e+00 
 4.75225e+00 -1.27329e-02 -2.83490e+00 
 5.11612e+00 -1.40668e-02 -2.79886e+00 
 5.47963e+00 -1.54413e-02 -2.76015e+00 
 5.84267e+00 -1.68462e-02 -2.71876e+00 
 6.20529e+00 -1.82700e-02 -2.67470e+00 
 6.56736e+00 -1.96986e-02 -2.62799e+00 
 6.92893e+00 -2.11166e-02 -2.57861e+00 
 7.28989e+00 -2.25063e-02 -2.52661e+00 
 7.65028e+00 -2.38491e-02 -2.47198e+00 
 8.00999e+00 -2.51242e-02 -2.41476e+00 
 8.36905e+00 -2.63108e-02 -2.35496e+00 
 8.72738e+00 -2.73864e-02 -2.29262e+00 
 9.08500e+00 -2.83292e-02 -2.22777e+00 
 9.44183e+00 -2.91168e-02 -2.16044e+00 
 9.79792e+00 -2.97279e-02 -2.09067e+00 
 1.01532e+01 -3.01421e-02 -2.01853e+00 
 1.05077e+01 -3.03410e-02 -1.94404e+00 
 1.08613e+01 -3.03085e-02 -1.86727e+00 
 1.12142e+01 -3.00311e-02 -1.78827e+00 
 1.15663e+01 -2.94995e-02 -1.70711e+00 
 1.19176e+01 -2.87081e-02 -1.62385e+00 
 1.22681e+01 -2.76566e-02 -1.53856e+00 
 1.26180e+01 -2.63494e-02 -1.45130e+00 
 1.29673e+01 -2.47976e-02 -1.36215e+00 
 1.33159e+01 -2.30182e-02 -1.27117e+00 
 1.36641e+01 -2.10354e-02 -1.17843e+00 
 1.40118e+01 -1.88799e-02 -1.08399e+00 
 1.43592e+01 -1.65904e-02 -9.87917e-01 
 1.47064e+01 -1.42121e-02 -8.90258e-01 
 1.50535e+01 -1.17985e-02 -7.91081e-01 
 1.54007e+01 -9.40900e-03 -6.90405e-01 
 1.57480e+01 -7.11059e-03 -5.88286e-01 
 1.60957e+01 -4.97562e-03 -4.84726e-01 
 1.64439e+01 -3.08250e-03 -3.79758e-01 
 1.67927e+01 -1.51368e-03 -2.73360e-01 
 1.71424e+01 -3.56348e-04 -1.65540e-01 
 1.75044e+01  2.54485e-02 -2.69050e-02 
-1.72830e+01 -2.51936e-02 -2.72792e-02 
-1.69242e+01  3.19710e-04 -1.67280e-01 
-1.65777e+01  1.37937e-03 -2.75982e-01 
-1.62319e+01  2.82785e-03 -3.83103e-01 
-1.58867e+01  4.59066e-03 -4.88637e-01 
-1.55420e+01  6.59673e-03 -5.92615e-01 
-1.51977e+01  8.77778e-03 -6.95010e-01 
-1.48536e+01  1.10702e-02 -7.95832e-01 
-1.45097e+01  1.34142e-02 -8.95036e-01 
-1.41657e+01  1.57562e-02 -9.92612e-01 
-1.38216e+01  1.80469e-02 -1.08850e+00 
-1.34773e+01  2.02439e-02 -1.18269e+00 
-1.31326e+01  2.23098e-02 -1.27510e+00 
-1.27876e+01  2.42140e-02 -1.36570e+00 
-1.24421e+01  2.59308e-02 -1.45442e+00 
-1.20961e+01  2.74411e-02 -1.54122e+00 
-1.17496e+01  2.87304e-02 -1.62603e+00 
-1.14024e+01  2.97902e-02 -1.70880e+00 
-1.10546e+01  3.06158e-02 -1.78946e+00 
-1.07061e+01  3.12075e-02 -1.86798e+00 
-1.03569e+01  3.15691e-02 -1.94428e+00 
-1.00070e+01  3.17078e-02 -2.01832e+00 
-9.65644e+00  3.16338e-02 -2.09005e+00 
-9.30513e+00  3.13595e-02 -2.15943e+00 
-8.95317e+00  3.08994e-02 -2.22641e+00 
-8.60049e+00  3.02692e-02 -2.29096e+00 
-8.24718e+00  2.94860e-02 -2.35302e+00 
-7.89318e+00  2.85669e-02 -2.41258e+00 
-7.53860e+00  2.75297e-02 -2.46961e+00 
-7.18339e+00  2.63917e-02 -2.52408e+00 
-6.82765e+00  2.51702e-02 -2.57596e+00 
-6.47133e+00  2.38811e-02 -2.62524e+00 
-6.11453e+00  2.25401e-02 -2.67190e+00 
-5.75722e+00  2.11610e-02 -2.71593e+00 
-5.39949e+00  1.97570e-02 -2.75731e+00 
-5.04132e+00  1.83393e-02 -2.79605e+00 
-4.68279e+00  1.69182e-02 -2.83211e+00 
-4.32387e+00  1.55018e-02 -2.86552e+00 
-3.96467e+00  1.40973e-02 -2.89626e+00 
-3.60513e+00  1.27098e-02 -2.92432e+00 
-3.24537e+00  1.13434e-02 -2.94971e+00 
-2.88534e+00  1.00002e-02 -2.97243e+00 
-2.52513e+00  8.68175e-03 -2.99247e+00 
-2.16471e+00  7.38743e-03 -3.00984e+00 
-1.80417e+00  6.11629e-03 -3.02453e+00 
-1.44347e+00  4.86577e-03 -3.03655e+00 
-1.08271e+00  3.63303e-03 -3.04590e+00 
-7.21830e-01  2.41401e-03 -3.05257e+00 
-3.60941e-01  1.20463e-03 -3.05658e+00 
-1.43131e-12 -6.95004e-13 -3.05791e+00 
 3.60941e-01 -1.20463e-03 -3.05658e+00 
 7.21830e-01 -2.41401e-03 -3.05257e+00 
 1.08271e+00 -3.63303e-03 -3.04590e+00 
 1.44347e+00 -4.86577e-03 -3.03655e+00 
 1.80417e+00 -6.11629e-03 -3.02453e+00 
 2.16471e+00 -7.38743e-03 -3.00984e+00 
 2.52513e+00 -8.68175e-03 -2.99247e+00 
 2.88534e+00 -1.00002e-02 -2.97243e+00 
 3.24537e+00 -1.13434e-02 -2.94971e+00 
 3.60513e+00 -1.27098e-02 -2.92432e+00 
 3.96467e+00 -1.40973e-02 -2.89626e+00 
 4.32387e+00 -1.55018e-02 -2.86552e+00 
 4.68279e+00 -1.69182e-02 -2.83211e+00 
 5.04132e+00 -1.83393e-02 -2.79605e+00 
 5.39949e+00 -1.97570e-02 -2.75731e+00 
 5.75722e+00 -2.11610e-02 -2.71593e+00 
 6.11453e+00 -2.25401e-02 -2.67190e+00 
 6.47133e+00 -2.38811e-02 -2.62524e+00 
 6.82765e+00 -2.51702e-02 -2.57596e+00 
 7.18339e+00 -2.63917e-02 -2.52408e+00 
 7.53860e+00 -2.75297e-02 -2.46961e+00 
 7.89318e+00 -2.85669e-02 -2.41258e+00 
 8.24718e+00 -2.94860e-02 -2.35302e+00 
 8.60049e+00 -3.02692e-02 -2.29096e+00 
 8.95317e+00 -3.08994e-02 -2.22641e+00 
 9.30513e+00 -3.13595e-02 -2.15943e+00 
 9.65644e+00 -3.16338e-02 -2.09005e+00 
 1.00070e+01 -3.17078e-02 -2.01832e+00 
 1.03569e+01 -3.15691e-02 -1.94428e+00 
 1.07061e+01 -3.12075e-02 -1.86798e+00 
 1.10546e+01 -3.06158e-02 -1.78946e+00 
 1.14024e+01 -2.97902e-02 -1.70880e+00 
 1.17496e+01 -2.87304e-02 -1.62603e+00 
 1.20961e+01 -2.74411e-02 -1.54122e+00 
 1.24421e+01 -2.59308e-02 -1.45442e+00 
 1.27876e+01 -2.42140e-02 -1.36570e+00 
 1.31326e+01 -2.23098e-02 -1.27510e+00 
 1.34773e+01 -2.02439e-02 -1.18269e+00 
 1.38216e+01 -1.80469e-02 -1.08850e+00 
 1.41657e+01 -1.57562e-02 -9.92612e-01 
 1.45097e+01 -1.34142e-02 -8.95036e-01 
 1.48536e+01 -1.10702e-02 -7.95832e-01 
 1.51977e+01 -8.77778e-03 -6.95010e-01 
 1.55420e+01 -6.59673e-03 -5.92615e-01 
 1.58867e+01 -4.59066e-03 -4.88637e-01 
 1.62319e+01 -2.82785e-03 -3.83103e-01 
 1.65777e+01 -1.37937e-03 -2.75982e-01 
 1.69242e+01 -3.19710e-04 -1.67280e-01 
 1.72830e+01  2.51936e-02 -2.72792e-02 
-1.70594e+01 -2.49176e-02 -2.76119e-02 
-1.67043e+01  2.85776e-04 -1.68861e-01 
-1.63611e+01  1.24996e-03 -2.78385e-01 
-1.60186e+01  2.57736e-03 -3.86190e-01 
-1.56767e+01  4.20436e-03 -4.92275e-01 
-1.53353e+01  6.06979e-03 -5.96674e-01 
-1.49943e+01  8.11430e-03 -6.99369e-01 
-1.46535e+01  1.02821e-02 -8.00374e-01 
-1.43129e+01  1.25201e-02 -8.99654e-01 
-1.39723e+01  1.47802e-02 -9.97209e-01 
-1.36317e+01  1.70174e-02 -1.09299e+00 
-1.32909e+01  1.91925e-02 -1.18699e+00 
-1.29500e+01  2.12699e-02 -1.27914e+00 
-1.26087e+01  2.32199e-02 -1.36943e+00 
-1.22671e+01  2.50166e-02 -1.45780e+00 
-1.19250e+01  2.66398e-02 -1.54421e+00 
-1.15825e+01  2.80729e-02 -1.62859e+00 
-1.12395e+01  2.93047e-02 -1.71093e+00 
-1.08959e+01  3.03272e-02 -1.79115e+00 
-1.05518e+01  3.11367e-02 -1.86922e+00 
-1.02070e+01  3.17328e-02 -1.94508e+00 
-9.86169e+00  3.21183e-02 -2.01870e+00 
-9.51576e+00  3.22985e-02 -2.09002e+00 
-9.16918e+00  3.22812e-02 -2.15901e+00 
-8.82202e+00  3.20762e-02 -2.22562e+00 
-8.47422e+00  3.16946e-02 -2.28982e+00 
-8.12585e+00  3.11490e-02 -2.35158e+00 
-7.77686e+00  3.04526e-02 -2.41087e+00 
-7.42735e+00  2.96194e-02 -2.46765e+00 
-7.07724e+00  2.86633e-02 -2.52190e+00 
-6.72665e+00  2.75986e-02 -2.57359e+00 
-6.37552e+00  2.64388e-02 -2.62272e+00 
-6.02394e+00  2.51975e-02 -2.66925e+00 
-5.67188e+00  2.38869e-02 -2.71318e+00 
-5.31943e+00  2.25192e-02 -2.75448e+00 
-4.96655e+00  2.11050e-02 -2.79316e+00 
-4.61333e+00  1.96544e-02 -2.82919e+00 
-4.25973e+00  1.81758e-02 -2.86258e+00 
-3.90585e+00  1.66772e-02 -2.89330e+00 
-3.55165e+00  1.51648e-02 -2.92137e+00 
-3.19723e+00  1.36443e-02 -2.94677e+00 
-2.84254e+00  1.21197e-02 -2.96950e+00 
-2.48768e+00  1.05946e-02 -2.98956e+00 
-2.13261e+00  9.07097e-03 -3.00695e+00 
-1.77742e+00  7.55067e-03 -3.02167e+00 
-1.42207e+00  6.03406e-03 -3.03371e+00 
-1.06666e+00  4.52149e-03 -3.04307e+00 
-7.11132e-01  3.01216e-03 -3.04976e+00 
-3.55592e-01  1.50548e-03 -3.05378e+00 
-1.20853e-12  3.10729e-13 -3.05511e+00 
 3.55592e-01 -1.50548e-03 -3.05378e+00 
 7.11132e-01 -3.01216e-03 -3.04976e+00 
 1.06666e+00 -4.52149e-03 -3.04307e+00 
 1.42207e+00 -6.03406e-03 -3.03371e+00 
 1.77742e+00 -7.55067e-03 -3.02167e+00 
 2.13261e+00 -9.07097e-03 -3.00695e+00 
 2.48768e+00 -1.05946e-02 -2.98956e+00 
 2.84254e+00 -1.21197e-02 -2.96950e+00 
 3.19723e+00 -1.36443e-02 -2.94677e+00 
 3.55165e+00 -1.51648e-02 -2.92137e+00 
 3.90585e+00 -1.66772e-02 -2.89330e+00 
 4.25973e+00 -1.81758e-02 -2.86258e+00 
 4.61333e+00 -1.96544e-02 -2.82919e+00 
 4.96655e+00 -2.11050e-02 -2.79316e+00 
 5.31943e+00 -2.25192e-02 -2.75448e+00 
 5.67188e+00 -2.38869e-02 -2.71318e+00 
 6.02394e+00 -2.51975e-02 -2.66925e+00 
 6.37552e+00 -2.64388e-02 -2.62272e+00 
 6.72665e+00 -2.75986e-02 -2.57359e+00 
 7.07724e+00 -2.86633e-02 -2.52190e+00 
 7.42735e+00 -2.96194e-02 -2.46765e+00 
 7.77686e+00 -3.04526e-02 -2.41087e+00 
 8.12585e+00 -3.11490e-02 -2.35158e+00 
 8.47422e+00 -3.16946e-02 -2.28982e+00 
 8.82202e+00 -3.20762e-02 -2.22562e+00 
 9.16918e+00 -3.22812e-02 -2.15901e+00 
 9.51576e+00 -3.22985e-02 -2.09002e+00 
 9.86169e+00 -3.21183e-02 -2.01870e+00 
 1.02070e+01 -3.17328e-02 -1.94508e+00 
 1.05518e+01 -3.11367e-02 -1.86922e+00 
 1.08959e+01 -3.03272e-02 -1.79115e+00 
 1.12395e+01 -2.93047e-02 -1.71093e+00 
 1.15825e+01 -2.80729e-02 -1.62859e+00 
 1.19250e+01 -2.66398e-02 -1.54421e+00 
 1.22671e+01 -2.50166e-02 -1.45780e+00 
 1.26087e+01 -2.32199e-02 -1.36943e+00 
 1.29500e+01 -2.12699e-02 -1.27914e+00 
 1.32909e+01 -1.91925e-02 -1.18699e+00 
 1.36317e+01 -1.70174e-02 -1.09299e+00 
 1.39723e+01 -1.47802e-02 -9.97209e-01 
 1.43129e+01 -1.25201e-02 -8.99654e-01 
 1.46535e+01 -1.02821e-02 -8.00374e-01 
 1.49943e+01 -8.11430e-03 -6.99369e-01 
 1.53353e+01 -6.06979e-03 -5.96674e-01 
 1.56767e+01 -4.20436e-03 -4.92275e-01 
 1.60186e+01 -2.57736e-03 -3.86190e-01 
 1.63611e+01 -1.24996e-03 -2.78385e-01 
 1.67043e+01 -2.85776e-04 -1.68861e-01 
 1.70594e+01  2.49176e-02 -2.76119e-02 
-1.68339e+01 -2.46246e-02 -2.79067e-02 
-1.64826e+01  2.54551e-04 -1.70291e-01 
-1.61430e+01  1.12703e-03 -2.80572e-01 
-1.58041e+01  2.33560e-03 -3.89018e-01 
-1.54657e+01  3.82600e-03 -4.95629e-01 
-1.51278e+01  5.54563e-03 -6.00444e-01 
-1.47904e+01  7.44301e-03 -7.03446e-01 
-1.44531e+01  9.46929e-03 -8.04657e-01 
-1.41160e+01  1.15776e-02 -9.04049e-01 
-1.37790e+01  1.37249e-02 -1.00163e+00 
-1.34421e+01  1.58705e-02 -1.09735e+00 
-1.31050e+01  1.79783e-02 -1.19122e+00 
-1.27678e+01  2.00152e-02 -1.28318e+00 
-1.24304e+01  2.19527e-02 -1.37322e+00 
-1.20927e+01  2.37656e-02 -1.46129e+00 
-1.17546e+01  2.54332e-02 -1.54737e+00 
-1.14162e+01  2.69382e-02 -1.63139e+00 
-1.10773e+01  2.82674e-02 -1.71334e+00 
-1.07381e+01  2.94107e-02 -1.79316e+00 
-1.03983e+01  3.03618e-02 -1.87083e+00 
-1.00580e+01  3.11171e-02 -1.94628e+00 
-9.71720e+00  3.16761e-02 -2.01949e+00 
-9.37588e+00  3.20405e-02 -2.09041e+00 
-9.03399e+00  3.22145e-02 -2.15902e+00 
-8.69159e+00  3.22040e-02 -2.22526e+00 
-8.34861e+00  3.20166e-02 -2.28912e+00 
-8.00514e+00  3.16613e-02 -2.35055e+00 
-7.66110e+00  3.11479e-02 -2.40954e+00 
-7.31659e+00  3.04873e-02 -2.46604e+00 
-6.97154e+00  2.96904e-02 -2.52004e+00 
-6.62604e+00  2.87689e-02 -2.57151e+00 
-6.28005e+00  2.77341e-02 -2.62044e+00 
-5.93365e+00  2.65977e-02 -2.66679e+00 
-5.58679e+00  2.53704e-02 -2.71056e+00 
-5.23957e+00  2.40632e-02 -2.75173e+00 
-4.89193e+00  2.26859e-02 -2.79030e+00 
-4.54399e+00  2.12483e-02 -2.82623e+00 
-4.19568e+00  1.97587e-02 -2.85954e+00 
-3.84710e+00  1.82255e-02 -2.89020e+00 
-3.49822e+00  1.66555e-02 -2.91822e+00 
-3.14912e+00  1.50555e-02 -2.94358e+00 
-2.79976e+00  1.34307e-02 -2.96629e+00 
-2.45024e+00  1.17863e-02 -2.98633e+00 
-2.10051e+00  1.01262e-02 -3.00370e+00 
-1.75067e+00  8.45413e-03 -3.01841e+00 
-1.40067e+00  6.77281e-03 -3.03044e+00 
-1.05060e+00  5.08499e-03 -3.03980e+00 
-7.00427e-01  3.39234e-03 -3.04649e+00 
-3.50239e-01  1.69694e-03 -3.05050e+00 
-1.54390e-12  1.01811e-12 -3.05184e+00 
 3.50239e-01 -1.69694e-03 -3.05050e+00 
 7.00427e-01 -3.39234e-03 -3.04649e+00 
 1.05060e+00 -5.08499e-03 -3.03980e+00 
 1.40067e+00 -6.77281e-03 -3.03044e+00 
 1.75067e+00 -8.45413e-03 -3.01841e+00 
 2.10051e+00 -1.01262e-02 -3.00370e+00 
 2.45024e+00 -1.17863e-02 -2.98633e+00 
 2.79976e+00 -1.34307e-02 -2.96629e+00 
 3.14912e+00 -1.50555e-02 -2.94358e+00 
 3.49822e+00 -1.66555e-02 -2.91822e+00 
 3.84710e+00 -1.82255e-02 -2.89020e+00 
 4.19568e+00 -1.97587e-02 -2.85954e+00 
 4.54399e+00 -2.12483e-02 -2.82623e+00 
 4.89193e+00 -2.26859e-02 -2.79030e+00 
 5.23957e+00 -2.40632e-02 -2.75173e+00 
 5.58679e+00 -2.53704e-02 -2.71056e+00 
 5.93365e+00 -2.65977e-02 -2.66679e+00 
 6.28005e+00 -2.77341e-02 -2.62044e+00 
 6.62604e+00 -2.87689e-02 -2.57151e+00 
 6.97154e+00 -2.96904e-02 -2.52004e+00 
 7.31659e+00 -3.04873e-02 -2.46604e+00 
 7.66110e+00 -3.11479e-02 -2.40954e+00 
 8.00514e+00 -3.16613e-02 -2.35055e+00 
 8.34861e+00 -3.20166e-02 -2.28912e+00 
 8.69159e+00 -3.22040e-02 -2.22526e+00 
 9.03399e+00 -3.22145e-02 -2.15902e+00 
 9.37588e+00 -3.20405e-02 -2.09041e+00 
 9.71720e+00 -3.16761e-02 -2.01949e+00 
 1.00580e+01 -3.11171e-02 -1.94628e+00 
 1.03983e+01 -3.03618e-02 -1.87083e+00 
 1.07381e+01 -2.94107e-02 -1.79316e+00 
 1.10773e+01 -2.82674e-02 -1.71334e+00 
 1.14162e+01 -2.69382e-02 -1.63139e+00 
 1.17546e+01 -2.54332e-02 -1.54737e+00 
 1.20927e+01 -2.37656e-02 -1.46129e+00 
 1.24304e+01 -2.19527e-02 -1.37322e+00 
 1.27678e+01 -2.00152e-02 -1.28318e+00 
 1.31050e+01 -1.79783e-02 -1.19122e+00 
 1.34421e+01 -1.58705e-02 -1.09735e+00 
 1.37790e+01 -1.37249e-02 -1.00163e+00 
 1.41160e+01 -1.15776e-02 -9.04049e-01 
 1.44531e+01 -9.46929e-03 -8.04657e-01 
 1.47904e+01 -7.44301e-03 -7.03446e-01 
 1.51278e+01 -5.54563e-03 -6.00444e-01 
 1.54657e+01 -3.82600e-03 -4.95629e-01 
 1.58041e+01 -2.33560e-03 -3.89018e-01 
 1.61430e+01 -1.12703e-03 -2.80572e-01 
 1.64826e+01 -2.54551e-04 -1.70291e-01 
 1.68339e+01  2.46246e-02 -2.79067e-02 
-1.66067e+01 -2.43179e-02 -2.81673e-02 
-1.62593e+01  2.25985e-04 -1.71578e-01 
-1.59236e+01  1.01156e-03 -2.82551e-01 
-1.55884e+01  2.10566e-03 -3.91591e-01 
-1.52538e+01  3.46205e-03 -4.98700e-01 
-1.49197e+01  5.03554e-03 -6.03914e-01 
-1.45859e+01  6.78157e-03 -7.07224e-01 
-1.42523e+01  8.65750e-03 -8.08653e-01 
-1.39190e+01  1.06220e-02 -9.08177e-01 
-1.35857e+01  1.26368e-02 -1.00581e+00 
-1.32526e+01  1.46654e-02 -1.10152e+00 
-1.29193e+01  1.66747e-02 -1.19530e+00 
-1.25860e+01  1.86343e-02 -1.28711e+00 
-1.22525e+01  2.05173e-02 -1.37696e+00 
-1.19188e+01  2.22995e-02 -1.46478e+00 
-1.15848e+01  2.39607e-02 -1.55058e+00 
-1.12506e+01  2.54831e-02 -1.63429e+00 
-1.09160e+01  2.68528e-02 -1.71590e+00 
-1.05810e+01  2.80583e-02 -1.79537e+00 
-1.02456e+01  2.90915e-02 -1.87266e+00 
-9.90977e+00  2.99467e-02 -1.94774e+00 
-9.57348e+00  3.06208e-02 -2.02057e+00 
-9.23675e+00  3.11131e-02 -2.09112e+00 
-8.89953e+00  3.14248e-02 -2.15936e+00 
-8.56186e+00  3.15589e-02 -2.22524e+00 
-8.22368e+00  3.15203e-02 -2.28876e+00 
-7.88506e+00  3.13150e-02 -2.34986e+00 
-7.54594e+00  3.09500e-02 -2.40853e+00 
-7.20638e+00  3.04336e-02 -2.46474e+00 
-6.86634e+00  2.97743e-02 -2.51847e+00 
-6.52590e+00  2.89816e-02 -2.56969e+00 
-6.18500e+00  2.80647e-02 -2.61838e+00 
-5.84372e+00  2.70336e-02 -2.66452e+00 
-5.50202e+00  2.58976e-02 -2.70811e+00 
-5.15999e+00  2.46665e-02 -2.74911e+00 
-4.81757e+00  2.33494e-02 -2.78752e+00 
-4.47486e+00  2.19552e-02 -2.82332e+00 
-4.13181e+00  2.04923e-02 -2.85651e+00 
-3.78851e+00  1.89690e-02 -2.88707e+00 
-3.44492e+00  1.73924e-02 -2.91500e+00 
-3.10112e+00  1.57699e-02 -2.94029e+00 
-2.75707e+00  1.41075e-02 -2.96293e+00 
-2.41287e+00  1.24116e-02 -2.98292e+00 
-2.06847e+00  1.06872e-02 -3.00025e+00 
-1.72396e+00  8.93965e-03 -3.01492e+00 
-1.37929e+00  7.17316e-03 -3.02693e+00 
-1.03457e+00  5.39229e-03 -3.03627e+00 
-6.89736e-01  3.60058e-03 -3.04295e+00 
-3.44893e-01  1.80208e-03 -3.04695e+00 
-1.77298e-12  2.05979e-12 -3.04829e+00 
 3.44893e-01 -1.80208e-03 -3.04695e+00 
 6.89736e-01 -3.60058e-03 -3.04295e+00 
 1.03457e+00 -5.39229e-03 -3.03627e+00 
 1.37929e+00 -7.17316e-03 -3.02693e+00 
 1.72396e+00 -8.93965e-03 -3.01492e+00 
 2.06847e+00 -1.06872e-02 -3.00025e+00 
 2.41287e+00 -1.24116e-02 -2.98292e+00 
 2.75707e+00 -1.41075e-02 -2.96293e+00 
 3.10112e+00 -1.57699e-02 -2.94029e+00 
 3.44492e+00 -1.73924e-02 -2.91500e+00 
 3.78851e+00 -1.89690e-02 -2.88707e+00 
 4.13181e+00 -2.04923e-02 -2.85651e+00 
 4.47486e+00 -2.19552e-02 -2.82332e+00 
 4.81757e+00 -2.33494e-02 -2.78752e+00 
 5.15999e+00 -2.46665e-02 -2.74911e+00 
 5.50202e+00 -2.58976e-02 -2.70811e+00 
 5.84372e+00 -2.70336e-02 -2.66452e+00 
 6.18500e+00 -2.80647e-02 -2.61838e+00 
 6.52590e+00 -2.89816e-02 -2.56969e+00 
 6.86634e+00 -2.97743e-02 -2.51847e+00 
 7.20638e+00 -3.04336e-02 -2.46474e+00 
 7.54594e+00 -3.09500e-02 -2.40853e+00 
 7.88506e+00 -3.13150e-02 -2.34986e+00 
 8.22368e+00 -3.15203e-02 -2.28876e+00 
 8.56186e+00 -3.15589e-02 -2.22524e+00 
 8.89953e+00 -3.14248e-02 -2.15936e+00 
 9.23675e+00 -3.11131e-02 -2.09112e+00 
 9.57348e+00 -3.06208e-02 -2.02057e+00 
 9.90977e+00 -2.99467e-02 -1.94774e+00 
 1.02456e+01 -2.90915e-02 -1.87266e+00 
 1.05810e+01 -2.80583e-02 -1.79537e+00 
 1.09160e+01 -2.68528e-02 -1.71590e+00 
 1.12506e+01 -2.54831e-02 -1.63429e+00 
 1.15848e+01 -2.39607e-02 -1.55058e+00 
 1.19188e+01 -2.22995e-02 -1.46478e+00 
 1.22525e+01 -2.05173e-02 -1.37696e+00 
 1.25860e+01 -1.86343e-02 -1.28711e+00 
 1.29193e+01 -1.66747e-02 -1.19530e+00 
 1.32526e+01 -1.46654e-02 -1.10152e+00 
 1.35857e+01 -1.26368e-02 -1.00581e+00 
 1.39190e+01 -1.06220e-02 -9.08177e-01 
 1.42523e+01 -8.65750e-03 -8.08653e-01 
 1.45859e+01 -6.78157e-03 -7.07224e-01 
 1.49197e+01 -5.03554e-03 -6.03914e-01 
 1.52538e+01 -3.46205e-03 -4.98700e-01 
 1.55884e+01 -2.10566e-03 -3.91591e-01 
 1.59236e+01 -1.01156e-03 -2.82551e-01 
 1.62593e+01 -2.25985e-04 -1.71578e-01 
 1.66067e+01  2.43179e-02 -2.81673e-02 
-1.63778e+01 -2.40001e-02 -2.83970e-02 
-1.60347e+01  1.99985e-04 -1.72730e-01 
-1.57029e+01  9.04123e-04 -2.84334e-01 
-1.53718e+01  1.88952e-03 -3.93921e-01 
-1.50411e+01  3.11683e-03 -5.01492e-01 
-1.47108e+01  4.54731e-03 -6.07086e-01 
-1.43809e+01  6.14243e-03 -7.10695e-01 
-1.40512e+01  7.86508e-03 -8.12344e-01 
-1.37217e+01  9.67897e-03 -9.12015e-01 
-1.33924e+01  1.15501e-02 -1.00972e+00 
-1.30631e+01  1.34458e-02 -1.10544e+00 
-1.27338e+01  1.53363e-02 -1.19917e+00 
-1.24045e+01  1.71936e-02 -1.29088e+00 
-1.20750e+01  1.89927e-02 -1.38057e+00 
-1.17455e+01  2.07109e-02 -1.46820e+00 
-1.14156e+01  2.23285e-02 -1.55375e+00 
-1.10856e+01  2.38282e-02 -1.63719e+00 
-1.07552e+01  2.51958e-02 -1.71851e+00 
-1.04246e+01  2.64189e-02 -1.79766e+00 
-1.00936e+01  2.74885e-02 -1.87462e+00 
-9.76224e+00  2.83974e-02 -1.94936e+00 
-9.43048e+00  2.91409e-02 -2.02184e+00 
-9.09835e+00  2.97161e-02 -2.09204e+00 
-8.76578e+00  3.01224e-02 -2.15993e+00 
-8.43283e+00  3.03606e-02 -2.22547e+00 
-8.09942e+00  3.04332e-02 -2.28865e+00 
-7.76563e+00  3.03440e-02 -2.34943e+00 
-7.43138e+00  3.00978e-02 -2.40779e+00 
-7.09675e+00  2.97007e-02 -2.46370e+00 
-6.76169e+00  2.91592e-02 -2.51715e+00 
-6.42626e+00  2.84807e-02 -2.56810e+00 
-6.09041e+00  2.76730e-02 -2.61654e+00 
-5.75422e+00  2.67444e-02 -2.66245e+00 
-5.41765e+00  2.57029e-02 -2.70582e+00 
-5.08077e+00  2.45571e-02 -2.74663e+00 
-4.74353e+00  2.33153e-02 -2.78486e+00 
-4.40602e+00  2.19858e-02 -2.82051e+00 
-4.06819e+00  2.05765e-02 -2.85355e+00 
-3.73014e+00  1.90956e-02 -2.88399e+00 
-3.39180e+00  1.75502e-02 -2.91180e+00 
-3.05328e+00  1.59479e-02 -2.93699e+00 
-2.71452e+00  1.42953e-02 -2.95955e+00 
-2.37561e+00  1.25994e-02 -2.97946e+00 
-2.03652e+00  1.08661e-02 -2.99673e+00 
-1.69732e+00  9.10156e-03 -3.01135e+00 
-1.35798e+00  7.31124e-03 -3.02332e+00 
-1.01858e+00  5.50091e-03 -3.03263e+00 
-6.79075e-01  3.67542e-03 -3.03928e+00 
-3.39561e-01  1.84024e-03 -3.04327e+00 
-1.81848e-12  2.07289e-12 -3.04460e+00 
 3.39561e-01 -1.84024e-03 -3.04327e+00 
 6.79075e-01 -3.67542e-03 -3.03928e+00 
 1.01858e+00 -5.50091e-03 -3.03263e+00 
 1.35798e+00 -7.31124e-03 -3.02332e+00 
 1.69732e+00 -9.10156e-03 -3.01135e+00 
 2.03652e+00 -1.08661e-02 -2.99673e+00 
 2.37561e+00 -1.25994e-02 -2.97946e+00 
 2.71452e+00 -1.42953e-02 -2.95955e+00 
 3.05328e+00 -1.59479e-02 -2.93699e+00 
 3.39180e+00 -1.75502e-02 -2.91180e+00 
 3.73014e+00 -1.90956e-02 -2.88399e+00 
 4.06819e+00 -2.05765e-02 -2.85355e+00 
 4.40602e+00 -2.19858e-02 -2.82051e+00 
 4.74353e+00 -2.33153e-02 -2.78486e+00 
 5.08077e+00 -2.45571e-02 -2.74663e+00 
 5.41765e+00 -2.57029e-02 -2.70582e+00 
 5.75422e+00 -2.67444e-02 -2.66245e+00 
 6.09041e+00 -2.76730e-02 -2.61654e+00 
 6.42626e+00 -2.84807e-02 -2.56810e+00 
 6.76169e+00 -2.91592e-02 -2.51715e+00 
 7.09675e+00 -2.97007e-02 -2.46370e+00 
 7.43138e+00 -3.00978e-02 -2.40779e+00 
 7.76563e+00 -3.03440e-02 -2.34943e+00 
 8.09942e+00 -3.04332e-02 -2.28865e+00 
 8.43283e+00 -3.03606e-02 -2.22547e+00 
 8.76578e+00 -3.01224e-02 -2.15993e+00 
 9.09835e+00 -2.97161e-02 -2.09204e+00 
 9.43048e+00 -2.91409e-02 -2.02184e+00 
 9.76224e+00 -2.83974e-02 -1.94936e+00 
 1.00936e+01 -2.74885e-02 -1.87462e+00 
 1.04246e+01 -2.64189e-02 -1.79766e+00 
 1.07552e+01 -2.51958e-02 -1.71851e+00 
 1.10856e+01 -2.38282e-02 -1.63719e+00 
 1.14156e+01 -2.23285e-02 -1.55375e+00 
 1.17455e+01 -2.07109e-02 -1.46820e+00 
 1.20750e+01 -1.89927e-02 -1.38057e+00 
 1.24045e+01 -1.71936e-02 -1.29088e+00 
 1.27338e+01 -1.53363e-02 -1.19917e+00 
 1.30631e+01 -1.34458e-02 -1.10544e+00 
 1.33924e+01 -1.15501e-02 -1.00972e+00 
 1.37217e+01 -9.67897e-03 -9.12015e-01 
 1.40512e+01 -7.86508e-03 -8.12344e-01 
 1.43809e+01 -6.14243e-03 -7.10695e-01 
 1.47108e+01 -4.54731e-03 -6.07086e-01 
 1.50411e+01 -3.11683e-03 -5.01492e-01 
 1.53718e+01 -1.88952e-03 -3.93921e-01 
 1.57029e+01 -9.04123e-04 -2.84334e-01 
 1.60347e+01 -1.99985e-04 -1.72730e-01 
 1.63778e+01  2.40001e-02 -2.83970e-02 
-1.61475e+01 -2.36734e-02 -2.85989e-02 
-1.58087e+01  1.76433e-04 -1.73758e-01 
-1.54812e+01  8.04936e-04 -2.85932e-01 
-1.51541e+01  1.68829e-03 -3.96018e-01 
-1.48275e+01  2.79305e-03 -5.04016e-01 
-1.45013e+01  4.08605e-03 -6.09967e-01 
-1.41754e+01  5.53406e-03 -7.13861e-01 
-1.38497e+01  7.10481e-03 -8.15729e-01 
-1.35242e+01  8.76654e-03 -9.15551e-01 
-1.31989e+01  1.04892e-02 -1.01335e+00 
-1.28737e+01  1.22437e-02 -1.10909e+00 
-1.25485e+01  1.40033e-02 -1.20280e+00 
-1.22232e+01  1.57424e-02 -1.29444e+00 
-1.18979e+01  1.74382e-02 -1.38400e+00 
-1.15725e+01  1.90694e-02 -1.47147e+00 
-1.12469e+01  2.06175e-02 -1.55683e+00 
-1.09211e+01  2.20655e-02 -1.64004e+00 
-1.05951e+01  2.33996e-02 -1.72110e+00 
-1.02688e+01  2.46072e-02 -1.79997e+00 
-9.94222e+00  2.56787e-02 -1.87663e+00 
-9.61537e+00  2.66059e-02 -1.95106e+00 
-9.28815e+00  2.73832e-02 -2.02322e+00 
-8.96062e+00  2.80062e-02 -2.09310e+00 
-8.63270e+00  2.84730e-02 -2.16066e+00 
-8.30445e+00  2.87825e-02 -2.22588e+00 
-7.97581e+00  2.89357e-02 -2.28874e+00 
-7.64682e+00  2.89344e-02 -2.34920e+00 
-7.31743e+00  2.87819e-02 -2.40726e+00 
-6.98770e+00  2.84824e-02 -2.46287e+00 
-6.65758e+00  2.80407e-02 -2.51604e+00 
-6.32714e+00  2.74628e-02 -2.56672e+00 
-5.99631e+00  2.67549e-02 -2.61491e+00 
-5.66518e+00  2.59237e-02 -2.66058e+00 
-5.33370e+00  2.49764e-02 -2.70373e+00 
-5.00193e+00  2.39204e-02 -2.74433e+00 
-4.66984e+00  2.27631e-02 -2.78237e+00 
-4.33750e+00  2.15121e-02 -2.81783e+00 
-4.00487e+00  2.01750e-02 -2.85072e+00 
-3.67203e+00  1.87593e-02 -2.88101e+00 
-3.33892e+00  1.72723e-02 -2.90869e+00 
-3.00564e+00  1.57215e-02 -2.93376e+00 
-2.67215e+00  1.41137e-02 -2.95622e+00 
-2.33851e+00  1.24562e-02 -2.97604e+00 
-2.00470e+00  1.07553e-02 -2.99324e+00 
-1.67079e+00  9.01787e-03 -3.00779e+00 
-1.33675e+00  7.25007e-03 -3.01971e+00 
-1.00265e+00  5.45845e-03 -3.02898e+00 
-6.68454e-01  3.64877e-03 -3.03560e+00 
-3.34250e-01  1.82741e-03 -3.03957e+00 
-1.62231e-12  2.00511e-12 -3.04090e+00 
 3.34250e-01 -1.82741e-03 -3.03957e+00 
 6.68454e-01 -3.64877e-03 -3.03560e+00 
 1.00265e+00 -5.45845e-03 -3.02898e+00 
 1.33675e+00 -7.25007e-03 -3.01971e+00 
 1.67079e+00 -9.01787e-03 -3.00779e+00 
 2.00470e+00 -1.07553e-02 -2.99324e+00 
 2.33851e+00 -1.24562e-02 -2.97604e+00 
 2.67215e+00 -1.41137e-02 -2.95622e+00 
 3.00564e+00 -1.57215e-02 -2.93376e+00 
 3.33892e+00 -1.72723e-02 -2.90869e+00 
 3.67203e+00 -1.87593e-02 -2.88101e+00 
 4.00487e+00 -2.01750e-02 -2.85072e+00 
 4.33750e+00 -2.15121e-02 -2.81783e+00 
 4.66984e+00 -2.27631e-02 -2.78237e+00 
 5.00193e+00 -2.39204e-02 -2.74433e+00 
 5.33370e+00 -2.49764e-02 -2.70373e+00 
 5.66518e+00 -2.59237e-02 -2.66058e+00 
 5.99631e+00 -2.67549e-02 -2.61491e+00 
 6.32714e+00 -2.74628e-02 -2.56672e+00 
 6.65758e+00 -2.80407e-02 -2.51604e+00 
 6.98770e+00 -2.84824e-02 -2.46287e+00 
 7.31743e+00 -2.87819e-02 -2.40726e+00 
 7.64682e+00 -2.89344e-02 -2.34920e+00 
 7.97581e+00 -2.89357e-02 -2.28874e+00 
 8.30445e+00 -2.87825e-02 -2.22588e+00 
 8.63270e+00 -2.84730e-02 -2.16066e+00 
 8.96062e+00 -2.80062e-02 -2.09310e+00 
 9.28815e+00 -2.73832e-02 -2.02322e+00 
 9.61537e+00 -2.66059e-02 -1.95106e+00 
 9.94222e+00 -2.56787e-02 -1.87663e+00 
 1.02688e+01 -2.46072e-02 -1.79997e+00 
 1.05951e+01 -2.33996e-02 -1.72110e+00 
 1.09211e+01 -2.20655e-02 -1.64004e+00 
 1.12469e+01 -2.06175e-02 -1.55683e+00 
 1.15725e+01 -1.90694e-02 -1.47147e+00 
 1.18979e+01 -1.74382e-02 -1.38400e+00 
 1.22232e+01 -1.57424e-02 -1.29444e+00 
 1.25485e+01 -1.40033e-02 -1.20280e+00 
 1.28737e+01 -1.22437e-02 -1.10909e+00 
 1.31989e+01 -1.04892e-02 -1.01335e+00 
 1.35242e+01 -8.76654e-03 -9.15551e-01 
 1.38497e+01 -7.10481e-03 -8.15729e-01 
 1.41754e+01 -5.53406e-03 -7.13861e-01 
 1.45013e+01 -4.08605e-03 -6.09967e-01 
 1.48275e+01 -2.79305e-03 -5.04016e-01 
 1.51541e+01 -1.68829e-03 -3.96018e-01 
 1.54812e+01 -8.04936e-04 -2.85932e-01 
 1.58087e+01 -1.76433e-04 -1.73758e-01 
 1.61475e+01  2.36734e-02 -2.85989e-02 
-1.59159e+01 -2.33396e-02 -2.87759e-02 
-1.55817e+01  1.55188e-04 -1.74672e-01 
-1.52584e+01  7.13986e-04 -2.87358e-01 
-1.49356e+01  1.50244e-03 -3.97897e-01 
-1.46132e+01  2.49218e-03 -5.06287e-01 
-1.42911e+01  3.65486e-03 -6.12568e-01 
-1.39693e+01  4.96185e-03 -7.16733e-01 
-1.36478e+01  6.38519e-03 -8.18810e-01 
-1.33265e+01  7.89711e-03 -9.18786e-01 
-1.30053e+01  9.47121e-03 -1.01668e+00 
-1.26842e+01  1.10816e-02 -1.11247e+00 
-1.23632e+01  1.27044e-02 -1.20617e+00 
-1.20421e+01  1.43166e-02 -1.29776e+00 
-1.17210e+01  1.58972e-02 -1.38723e+00 
-1.13998e+01  1.74266e-02 -1.47456e+00 
-1.10785e+01  1.88875e-02 -1.55975e+00 
-1.07571e+01  2.02639e-02 -1.64277e+00 
-1.04354e+01  2.15422e-02 -1.72361e+00 
-1.01136e+01  2.27102e-02 -1.80223e+00 
-9.79144e+00  2.37581e-02 -1.87863e+00 
-9.46909e+00  2.46772e-02 -1.95278e+00 
-9.14643e+00  2.54611e-02 -2.02466e+00 
-8.82351e+00  2.61049e-02 -2.09423e+00 
-8.50025e+00  2.66053e-02 -2.16149e+00 
-8.17671e+00  2.69601e-02 -2.22641e+00 
-7.85281e+00  2.71691e-02 -2.28897e+00 
-7.52862e+00  2.72328e-02 -2.34913e+00 
-7.20407e+00  2.71530e-02 -2.40689e+00 
-6.87922e+00  2.69324e-02 -2.46222e+00 
-6.55402e+00  2.65748e-02 -2.51511e+00 
-6.22854e+00  2.60845e-02 -2.56553e+00 
-5.90271e+00  2.54667e-02 -2.61347e+00 
-5.57661e+00  2.47269e-02 -2.65890e+00 
-5.25018e+00  2.38711e-02 -2.70182e+00 
-4.92351e+00  2.29058e-02 -2.74220e+00 
-4.59653e+00  2.18377e-02 -2.78004e+00 
-4.26934e+00  2.06736e-02 -2.81533e+00 
-3.94187e+00  1.94205e-02 -2.84804e+00 
-3.61420e+00  1.80855e-02 -2.87817e+00 
-3.28630e+00  1.66757e-02 -2.90572e+00 
-2.95824e+00  1.51984e-02 -2.93066e+00 
-2.62998e+00  1.36603e-02 -2.95300e+00 
-2.30159e+00  1.20687e-02 -2.97273e+00 
-1.97303e+00  1.04304e-02 -2.98984e+00 
-1.64439e+00  8.75240e-03 -3.00432e+00 
-1.31561e+00  7.04124e-03 -3.01618e+00 
-9.86793e-01  5.30393e-03 -3.02541e+00 
-6.57882e-01  3.54678e-03 -3.03200e+00 
-3.28963e-01  1.77672e-03 -3.03595e+00 
-1.75451e-12  2.19393e-12 -3.03727e+00 
 3.28963e-01 -1.77672e-03 -3.03595e+00 
 6.57882e-01 -3.54678e-03 -3.03200e+00 
 9.86793e-01 -5.30393e-03 -3.02541e+00 
 1.31561e+00 -7.04124e-03 -3.01618e+00 
 1.64439e+00 -8.75240e-03 -3.00432e+00 
 1.97303e+00 -1.04304e-02 -2.98984e+00 
 2.30159e+00 -1.20687e-02 -2.97273e+00 
 2.62998e+00 -1.36603e-02 -2.95300e+00 
 2.95824e+00 -1.51984e-02 -2.93066e+00 
 3.28630e+00 -1.66757e-02 -2.90572e+00 
 3.61420e+00 -1.80855e-02 -2.87817e+00 
 3.94187e+00 -1.94205e-02 -2.84804e+00 
 4.26934e+00 -2.06736e-02 -2.81533e+00 
 4.59653e+00 -2.18377e-02 -2.78004e+00 
 4.92351e+00 -2.29058e-02 -2.74220e+00 
 5.25018e+00 -2.38711e-02 -2.70182e+00 
 5.57661e+00 -2.47269e-02 -2.65890e+00 
 5.90271e+00 -2.54667e-02 -2.61347e+00 
 6.22854e+00 -2.60845e-02 -2.56553e+00 
 6.55402e+00 -2.65748e-02 -2.51511e+00 
 6.87922e+00 -2.69324e-02 -2.46222e+00 
 7.20407e+00 -2.71530e-02 -2.40689e+00 
 7.52862e+00 -2.72328e-02 -2.34913e+00 
 7.85281e+00 -2.71691e-02 -2.28897e+00 
 8.17671e+00 -2.69601e-02 -2.22641e+00 
 8.50025e+00 -2.66053e-02 -2.16149e+00 
 8.82351e+00 -2.61049e-02 -2.09423e+00 
 9.14643e+00 -2.54611e-02 -2.02466e+00 
 9.46909e+00 -2.46772e-02 -1.95278e+00 
 9.79144e+00 -2.37581e-02 -1.87863e+00 
 1.01136e+01 -2.27102e-02 -1.80223e+00 
 1.04354e+01 -2.15422e-02 -1.72361e+00 
 1.07571e+01 -2.02639e-02 -1.64277e+00 
 1.10785e+01 -1.88875e-02 -1.55975e+00 
 1.13998e+01 -1.74266e-02 -1.47456e+00 
 1.17210e+01 -1.58972e-02 -1.38723e+00 
 1.20421e+01 -1.43166e-02 -1.29776e+00 
 1.23632e+01 -1.27044e-02 -1.20617e+00 
 1.26842e+01 -1.10816e-02 -1.11247e+00 
 1.30053e+01 -9.47121e-03 -1.01668e+00 
 1.33265e+01 -7.89711e-03 -9.18786e-01 
 1.36478e+01 -6.38519e-03 -8.18810e-01 
 1.39693e+01 -4.96185e-03 -7.16733e-01 
 1.42911e+01 -3.65486e-03 -6.12568e-01 
 1.46132e+01 -2.49218e-03 -5.06287e-01 
 1.49356e+01 -1.50244e-03 -3.97897e-01 
 1.52584e+01 -7.13986e-04 -2.87358e-01 
 1.55817e+01 -1.55188e-04 -1.74672e-01 
 1.59159e+01  2.33396e-02 -2.87759e-02 
-1.56832e+01 -2.30003e-02 -2.89307e-02 
-1.53536e+01  1.36102e-04 -1.75481e-01 
-1.50347e+01  6.31082e-04 -2.88626e-01 
-1.47162e+01  1.33199e-03 -3.99573e-01 
-1.43981e+01  2.21478e-03 -5.08320e-01 
-1.40804e+01  3.25528e-03 -6.14905e-01 
-1.37629e+01  4.42889e-03 -7.19321e-01 
-1.34456e+01  5.71142e-03 -8.21599e-01 
-1.31285e+01  7.07867e-03 -9.21724e-01 
-1.28115e+01  8.50746e-03 -1.01972e+00 
-1.24947e+01  9.97495e-03 -1.11556e+00 
-1.21779e+01  1.14598e-02 -1.20927e+00 
-1.18611e+01  1.29414e-02 -1.30083e+00 
-1.15443e+01  1.44007e-02 -1.39023e+00 
-1.12275e+01  1.58198e-02 -1.47745e+00 
-1.09105e+01  1.71826e-02 -1.56251e+00 
-1.05934e+01  1.84743e-02 -1.64536e+00 
-1.02762e+01  1.96818e-02 -1.72600e+00 
-9.95878e+00  2.07933e-02 -1.80441e+00 
-9.64116e+00  2.17992e-02 -1.88058e+00 
-9.32335e+00  2.26907e-02 -1.95447e+00 
-9.00527e+00  2.34612e-02 -2.02609e+00 
-8.68697e+00  2.41050e-02 -2.09540e+00 
-8.36837e+00  2.46183e-02 -2.16238e+00 
-8.04954e+00  2.49982e-02 -2.22702e+00 
-7.73039e+00  2.52432e-02 -2.28929e+00 
-7.41099e+00  2.53531e-02 -2.34918e+00 
-7.09127e+00  2.53286e-02 -2.40666e+00 
-6.77129e+00  2.51713e-02 -2.46172e+00 
-6.45100e+00  2.48838e-02 -2.51435e+00 
-6.13045e+00  2.44695e-02 -2.56451e+00 
-5.80960e+00  2.39324e-02 -2.61220e+00 
-5.48850e+00  2.32770e-02 -2.65739e+00 
-5.16711e+00  2.25085e-02 -2.70009e+00 
-4.84550e+00  2.16325e-02 -2.74026e+00 
-4.52361e+00  2.06548e-02 -2.77790e+00 
-4.20153e+00  1.95816e-02 -2.81300e+00 
-3.87919e+00  1.84194e-02 -2.84554e+00 
-3.55669e+00  1.71748e-02 -2.87551e+00 
-3.23396e+00  1.58543e-02 -2.90291e+00 
-2.91108e+00  1.44651e-02 -2.92773e+00 
-2.58802e+00  1.30137e-02 -2.94995e+00 
-2.26485e+00  1.15073e-02 -2.96957e+00 
-1.94152e+00  9.95262e-03 -2.98659e+00 
-1.61812e+00  8.35683e-03 -3.00100e+00 
-1.29459e+00  6.72654e-03 -3.01280e+00 
-9.71018e-01  5.06896e-03 -3.02197e+00 
-6.47363e-01  3.39065e-03 -3.02853e+00 
-3.23703e-01  1.69881e-03 -3.03247e+00 
-1.62470e-12  2.24268e-12 -3.03378e+00 
 3.23703e-01 -1.69881e-03 -3.03247e+00 
 6.47363e-01 -3.39065e-03 -3.02853e+00 
 9.71018e-01 -5.06896e-03 -3.02197e+00 
 1.29459e+00 -6.72654e-03 -3.01280e+00 
 1.61812e+00 -8.35683e-03 -3.00100e+00 
 1.94152e+00 -9.95262e-03 -2.98659e+00 
 2.26485e+00 -1.15073e-02 -2.96957e+00 
 2.58802e+00 -1.30137e-02 -2.94995e+00 
 2.91108e+00 -1.44651e-02 -2.92773e+00 
 3.23396e+00 -1.58543e-02 -2.90291e+00 
 3.55669e+00 -1.71748e-02 -2.87551e+00 
 3.87919e+00 -1.84194e-02 -2.84554e+00 
 4.20153e+00 -1.95816e-02 -2.81300e+00 
 4.52361e+00 -2.06548e-02 -2.77790e+00 
 4.84550e+00 -2.16325e-02 -2.74026e+00 
 5.16711e+00 -2.25085e-02 -2.70009e+00 
 5.48850e+00 -2.32770e-02 -2.65739e+00 
 5.80960e+00 -2.39324e-02 -2.61220e+00 
 6.13045e+00 -2.44695e-02 -2.56451e+00 
 6.45100e+00 -2.48838e-02 -2.51435e+00 
 6.77129e+00 -2.51713e-02 -2.46172e+00 
 7.09127e+00 -2.53286e-02 -2.40666e+00 
 7.41099e+00 -2.53531e-02 -2.34918e+00 
 7.73039e+00 -2.52432e-02 -2.28929e+00 
 8.04954e+00 -2.49982e-02 -2.22702e+00 
 8.36837e+00 -2.46183e-02 -2.16238e+00 
 8.68697e+00 -2.41050e-02 -2.09540e+00 
 9.00527e+00 -2.34612e-02 -2.02609e+00 
 9.32335e+00 -2.26907e-02 -1.95447e+00 
 9.64116e+00 -2.17992e-02 -1.88058e+00 
 9.95878e+00 -2.07933e-02 -1.80441e+00 
 1.02762e+01 -1.96818e-02 -1.72600e+00 
 1.05934e+01 -1.84743e-02 -1.64536e+00 
 1.09105e+01 -1.71826e-02 -1.56251e+00 
 1.12275e+01 -1.58198e-02 -1.47745e+00 
 1.15443e+01 -1.44007e-02 -1.39023e+00 
 1.18611e+01 -1.29414e-02 -1.30083e+00 
 1.21779e+01 -1.14598e-02 -1.20927e+00 
 1.24947e+01 -9.97495e-03 -1.11556e+00 
 1.28115e+01 -8.50746e-03 -1.01972e+00 
 1.31285e+01 -7.07867e-03 -9.21724e-01 
 1.34456e+01 -5.71142e-03 -8.21599e-01 
 1.37629e+01 -4.42889e-03 -7.19321e-01 
 1.40804e+01 -3.25528e-03 -6.14905e-01 
 1.43981e+01 -2.21478e-03 -5.08320e-01 
 1.47162e+01 -1.33199e-03 -3.99573e-01 
 1.50347e+01 -6.31082e-04 -2.88626e-01 
 1.53536e+01 -1.36102e-04 -1.75481e-01 
 1.56832e+01  2.30003e-02 -2.89307e-02 
-1.54495e+01 -2.26566e-02 -2.90656e-02 
-1.51246e+01  1.19018e-04 -1.76195e-01 
-1.48102e+01  5.55903e-04 -2.89750e-01 
-1.44962e+01  1.17658e-03 -4.01063e-01 
-1.41825e+01  1.96072e-03 -5.10132e-01 
-1.38691e+01  2.88774e-03 -6.16995e-01 
-1.35560e+01  3.93653e-03 -7.21643e-01 
-1.32430e+01  5.08622e-03 -8.24109e-01 
-1.29303e+01  6.31576e-03 -9.24377e-01 
-1.26176e+01  7.60491e-03 -1.02247e+00 
-1.23051e+01  8.93352e-03 -1.11838e+00 
-1.19926e+01  1.02827e-02 -1.21211e+00 
-1.16802e+01  1.16339e-02 -1.30364e+00 
-1.13678e+01  1.29702e-02 -1.39299e+00 
-1.10553e+01  1.42751e-02 -1.48013e+00 
-1.07427e+01  1.55341e-02 -1.56507e+00 
-1.04301e+01  1.67332e-02 -1.64777e+00 
-1.01173e+01  1.78603e-02 -1.72825e+00 
-9.80442e+00  1.89042e-02 -1.80647e+00 
-9.49133e+00  1.98556e-02 -1.88243e+00 
-9.17808e+00  2.07058e-02 -1.95611e+00 
-8.86461e+00  2.14481e-02 -2.02749e+00 
-8.55095e+00  2.20766e-02 -2.09655e+00 
-8.23703e+00  2.25871e-02 -2.16329e+00 
-7.92291e+00  2.29762e-02 -2.22767e+00 
-7.60851e+00  2.32418e-02 -2.28968e+00 
-7.29390e+00  2.33829e-02 -2.34931e+00 
-6.97900e+00  2.33994e-02 -2.40654e+00 
-6.66388e+00  2.32922e-02 -2.46134e+00 
-6.34848e+00  2.30629e-02 -2.51371e+00 
-6.03286e+00  2.27140e-02 -2.56363e+00 
-5.71696e+00  2.22486e-02 -2.61108e+00 
-5.40085e+00  2.16706e-02 -2.65605e+00 
-5.08447e+00  2.09842e-02 -2.69853e+00 
-4.76790e+00  2.01942e-02 -2.73849e+00 
-4.45108e+00  1.93057e-02 -2.77594e+00 
-4.13408e+00  1.83245e-02 -2.81085e+00 
-3.81685e+00  1.72561e-02 -2.84322e+00 
-3.49947e+00  1.61068e-02 -2.87304e+00 
-3.18189e+00  1.48828e-02 -2.90029e+00 
-2.86418e+00  1.35906e-02 -2.92498e+00 
-2.54629e+00  1.22367e-02 -2.94708e+00 
-2.22831e+00  1.08279e-02 -2.96660e+00 
-1.91018e+00  9.37082e-03 -2.98353e+00 
-1.59198e+00  7.87246e-03 -2.99786e+00 
-1.27367e+00  6.33941e-03 -3.00960e+00 
-9.55326e-01  4.77885e-03 -3.01872e+00 
-6.36899e-01  3.19737e-03 -3.02525e+00 
-3.18470e-01  1.60221e-03 -3.02916e+00 
-1.49023e-12  1.92586e-12 -3.03047e+00 
 3.18470e-01 -1.60221e-03 -3.02916e+00 
 6.36899e-01 -3.19737e-03 -3.02525e+00 
 9.55326e-01 -4.77885e-03 -3.01872e+00 
 1.27367e+00 -6.33941e-03 -3.00960e+00 
 1.59198e+00 -7.87246e-03 -2.99786e+00 
 1.91018e+00 -9.37082e-03 -2.98353e+00 
 2.22831e+00 -1.08279e-02 -2.96660e+00 
 2.54629e+00 -1.22367e-02 -2.94708e+00 
 2.86418e+00 -1.35906e-02 -2.92498e+00 
 3.18189e+00 -1.48828e-02 -2.90029e+00 
 3.49947e+00 -1.61068e-02 -2.87304e+00 
 3.81685e+00 -1.72561e-02 -2.84322e+00 
 4.13408e+00 -1.83245e-02 -2.81085e+00 
 4.45108e+00 -1.93057e-02 -2.77594e+00 
 4.76790e+00 -2.01942e-02 -2.73849e+00 
 5.08447e+00 -2.09842e-02 -2.69853e+00 
 5.40085e+00 -2.16706e-02 -2.65605e+00 
 5.71696e+00 -2.22486e-02 -2.61108e+00 
 6.03286e+00 -2.27140e-02 -2.56363e+00 
 6.34848e+00 -2.30629e-02 -2.51371e+00 
 6.66388e+00 -2.32922e-02 -2.46134e+00 
 6.97900e+00 -2.33994e-02 -2.40654e+00 
 7.29390e+00 -2.33829e-02 -2.34931e+00 
 7.60851e+00 -2.32418e-02 -2.28968e+00 
 7.92291e+00 -2.29762e-02 -2.22767e+00 
 8.23703e+00 -2.25871e-02 -2.16329e+00 
 8.55095e+00 -2.20766e-02 -2.09655e+00 
 8.86461e+00 -2.14481e-02 -2.02749e+00 
 9.17808e+00 -2.07058e-02 -1.95611e+00 
 9.49133e+00 -1.98556e-02 -1.88243e+00 
 9.80442e+00 -1.89042e-02 -1.80647e+00 
 1.01173e+01 -1.78603e-02 -1.72825e+00 
 1.04301e+01 -1.67332e-02 -1.64777e+00 
 1.07427e+01 -1.55341e-02 -1.56507e+00 
 1.10553e+01 -1.42751e-02 -1.48013e+00 
 1.13678e+01 -1.29702e-02 -1.39299e+00 
 1.16802e+01 -1.16339e-02 -1.30364e+00 
 1.19926e+01 -1.02827e-02 -1.21211e+00 
 1.23051e+01 -8.93352e-03 -1.11838e+00 
 1.26176e+01 -7.60491e-03 -1.02247e+00 
 1.29303e+01 -6.31576e-03 -9.24377e-01 
 1.32430e+01 -5.08622e-03 -8.24109e-01 
 1.35560e+01 -3.93653e-03 -7.21643e-01 
 1.38691e+01 -2.88774e-03 -6.16995e-01 
 1.41825e+01 -1.96072e-03 -5.10132e-01 
 1.44962e+01 -1.17658e-03 -4.01063e-01 
 1.48102e+01 -5.55903e-04 -2.89750e-01 
 1.51246e+01 -1.19018e-04 -1.76195e-01 
 1.54495e+01  2.26566e-02 -2.90656e-02 
-1.52149e+01 -2.23095e-02 -2.91829e-02 
-1.48947e+01  1.03777e-04 -1.76824e-01 
-1.45849e+01  4.88044e-04 -2.90741e-01 
-1.42754e+01  1.03562e-03 -4.02381e-01 
-1.39663e+01  1.72937e-03 -5.11740e-01 
-1.36573e+01  2.55177e-03 -6.18855e-01 
-1.33486e+01  3.48478e-03 -7.23716e-01 
-1.30401e+01  4.51041e-03 -8.26355e-01 
-1.27318e+01  5.61041e-03 -9.26759e-01 
-1.24235e+01  6.76713e-03 -1.02495e+00 
-1.21154e+01  7.96289e-03 -1.12092e+00 
-1.18074e+01  9.18099e-03 -1.21467e+00 
-1.14994e+01  1.04050e-02 -1.30620e+00 
-1.11913e+01  1.16196e-02 -1.39551e+00 
-1.08833e+01  1.28101e-02 -1.48258e+00 
-1.05752e+01  1.39631e-02 -1.56743e+00 
-1.02671e+01  1.50660e-02 -1.65001e+00 
-9.95879e+00  1.61074e-02 -1.73035e+00 
-9.65043e+00  1.70769e-02 -1.80840e+00 
-9.34190e+00  1.79655e-02 -1.88419e+00 
-9.03325e+00  1.87651e-02 -1.95766e+00 
-8.72440e+00  1.94689e-02 -2.02884e+00 
-8.41540e+00  2.00711e-02 -2.09768e+00 
-8.10617e+00  2.05672e-02 -2.16419e+00 
-7.79677e+00  2.09536e-02 -2.22833e+00 
-7.48713e+00  2.12278e-02 -2.29011e+00 
-7.17730e+00  2.13882e-02 -2.34950e+00 
-6.86723e+00  2.14341e-02 -2.40649e+00 
-6.55696e+00  2.13659e-02 -2.46105e+00 
-6.24644e+00  2.11845e-02 -2.51319e+00 
-5.93573e+00  2.08916e-02 -2.56288e+00 
-5.62477e+00  2.04898e-02 -2.61011e+00 
-5.31363e+00  1.99821e-02 -2.65487e+00 
-5.00224e+00  1.93719e-02 -2.69714e+00 
-4.69069e+00  1.86636e-02 -2.73690e+00 
-4.37891e+00  1.78615e-02 -2.77416e+00 
-4.06698e+00  1.69708e-02 -2.80890e+00 
-3.75483e+00  1.59964e-02 -2.84110e+00 
-3.44256e+00  1.49442e-02 -2.87076e+00 
-3.13009e+00  1.38197e-02 -2.89788e+00 
-2.81752e+00  1.26292e-02 -2.92243e+00 
-2.50478e+00  1.13787e-02 -2.94442e+00 
-2.19196e+00  1.00747e-02 -2.96384e+00 
-1.87900e+00  8.72349e-03 -2.98068e+00 
-1.56599e+00  7.33188e-03 -2.99493e+00 
-1.25287e+00  5.90625e-03 -3.00660e+00 
-9.39718e-01  4.45358e-03 -3.01568e+00 
-6.26491e-01  2.98035e-03 -3.02217e+00 
-3.13265e-01  1.49364e-03 -3.02607e+00 
-1.79186e-12  2.54130e-12 -3.02736e+00 
 3.13265e-01 -1.49364e-03 -3.02607e+00 
 6.26491e-01 -2.98035e-03 -3.02217e+00 
 9.39718e-01 -4.45358e-03 -3.01568e+00 
 1.25287e+00 -5.90625e-03 -3.00660e+00 
 1.56599e+00 -7.33188e-03 -2.99493e+00 
 1.87900e+00 -8.72349e-03 -2.98068e+00 
 2.19196e+00 -1.00747e-02 -2.96384e+00 
 2.50478e+00 -1.13787e-02 -2.94442e+00 
 2.81752e+00 -1.26292e-02 -2.92243e+00 
 3.13009e+00 -1.38197e-02 -2.89788e+00 
 3.44256e+00 -1.49442e-02 -2.87076e+00 
 3.75483e+00 -1.59964e-02 -2.84110e+00 
 4.06698e+00 -1.69708e-02 -2.80890e+00 
 4.37891e+00 -1.78615e-02 -2.77416e+00 
 4.69069e+00 -1.86636e-02 -2.73690e+00 
 5.00224e+00 -1.93719e-02 -2.69714e+00 
 5.31363e+00 -1.99821e-02 -2.65487e+00 
 5.62477e+00 -2.04898e-02 -2.61011e+00 
 5.93573e+00 -2.08916e-02 -2.56288e+00 
 6.24644e+00 -2.11845e-02 -2.51319e+00 
 6.55696e+00 -2.13659e-02 -2.46105e+00 
 6.86723e+00 -2.14341e-02 -2.40649e+00 
 7.17730e+00 -2.13882e-02 -2.34950e+00 
 7.48713e+00 -2.12278e-02 -2.29011e+00 
 7.79677e+00 -2.09536e-02 -2.22833e+00 
 8.10617e+00 -2.05672e-02 -2.16419e+00 
 8.41540e+00 -2.00711e-02 -2.09768e+00 
 8.72440e+00 -1.94689e-02 -2.02884e+00 
 9.03325e+00 -1.87651e-02 -1.95766e+00 
 9.34190e+00 -1.79655e-02 -1.88419e+00 
 9.65043e+00 -1.70769e-02 -1.80840e+00 
 9.95879e+00 -1.61074e-02 -1.73035e+00 
 1.02671e+01 -1.50660e-02 -1.65001e+00 
 1.05752e+01 -1.39631e-02 -1.56743e+00 
 1.08833e+01 -1.28101e-02 -1.48258e+00 
 1.11913e+01 -1.16196e-02 -1.39551e+00 
 1.14994e+01 -1.04050e-02 -1.30620e+00 
 1.18074e+01 -9.18099e-03 -1.21467e+00 
 1.21154e+01 -7.96289e-03 -1.12092e+00 
 1.24235e+01 -6.76713e-03 -1.02495e+00 
 1.27318e+01 -5.61041e-03 -9.26759e-01 
 1.30401e+01 -4.51041e-03 -8.26355e-01 
 1.33486e+01 -3.48478e-03 -7.23716e-01 
 1.36573e+01 -2.55177e-03 -6.18855e-01 
 1.39663e+01 -1.72937e-03 -5.11740e-01 
 1.42754e+01 -1.03562e-03 -4.02381e-01 
 1.45849e+01 -4.88044e-04 -2.90741e-01 
 1.48947e+01 -1.03777e-04 -1.76824e-01 
 1.52149e+01  2.23095e-02 -2.91829e-02 
-1.49796e+01 -2.19598e-02 -2.92847e-02 
-1.46642e+01  9.02223e-05 -1.77374e-01 
-1.43591e+01  4.27041e-04 -2.91612e-01 
-1.40541e+01  9.08355e-04 -4.03544e-01 
-1.37495e+01  1.51973e-03 -5.13162e-01 
-1.34451e+01  2.24632e-03 -6.20503e-01 
-1.31409e+01  3.07270e-03 -7.25558e-01 
-1.28369e+01  3.98341e-03 -8.28357e-01 
-1.25331e+01  4.96269e-03 -9.28888e-01 
-1.22293e+01  5.99517e-03 -1.02717e+00 
-1.19257e+01  7.06538e-03 -1.12320e+00 
-1.16221e+01  8.15865e-03 -1.21699e+00 
-1.13186e+01  9.26037e-03 -1.30852e+00 
-1.10150e+01  1.03570e-02 -1.39780e+00 
-1.07115e+01  1.14353e-02 -1.48482e+00 
-1.04079e+01  1.24832e-02 -1.56958e+00 
-1.01043e+01  1.34891e-02 -1.65206e+00 
-9.80055e+00  1.44427e-02 -1.73228e+00 
-9.49676e+00  1.53343e-02 -1.81019e+00 
-9.19283e+00  1.61555e-02 -1.88581e+00 
-8.88880e+00  1.68986e-02 -1.95912e+00 
-8.58459e+00  1.75571e-02 -2.03011e+00 
-8.28026e+00  1.81253e-02 -2.09875e+00 
-7.97574e+00  1.85987e-02 -2.16506e+00 
-7.67108e+00  1.89735e-02 -2.22899e+00 
-7.36620e+00  1.92471e-02 -2.29056e+00 
-7.06116e+00  1.94174e-02 -2.34973e+00 
-6.75591e+00  1.94835e-02 -2.40650e+00 
-6.45049e+00  1.94452e-02 -2.46084e+00 
-6.14484e+00  1.93029e-02 -2.51277e+00 
-5.83903e+00  1.90579e-02 -2.56224e+00 
-5.53300e+00  1.87120e-02 -2.60927e+00 
-5.22682e+00  1.82676e-02 -2.65382e+00 
-4.92041e+00  1.77278e-02 -2.69590e+00 
-4.61386e+00  1.70961e-02 -2.73548e+00 
-4.30710e+00  1.63764e-02 -2.77256e+00 
-4.00021e+00  1.55731e-02 -2.80712e+00 
-3.69313e+00  1.46909e-02 -2.83917e+00 
-3.38593e+00  1.37349e-02 -2.86869e+00 
-3.07857e+00  1.27102e-02 -2.89566e+00 
-2.77110e+00  1.16226e-02 -2.92009e+00 
-2.46349e+00  1.04778e-02 -2.94197e+00 
-2.15580e+00  9.28175e-03 -2.96129e+00 
-1.84799e+00  8.04045e-03 -2.97804e+00 
-1.54013e+00  6.76034e-03 -2.99223e+00 
-1.23217e+00  5.44753e-03 -3.00384e+00 
-9.24192e-01  4.10868e-03 -3.01287e+00 
-6.16138e-01  2.75002e-03 -3.01932e+00 
-3.08087e-01  1.37835e-03 -3.02320e+00 
-1.66917e-12  3.16311e-12 -3.02449e+00 
 3.08087e-01 -1.37835e-03 -3.02320e+00 
 6.16138e-01 -2.75002e-03 -3.01932e+00 
 9.24192e-01 -4.10868e-03 -3.01287e+00 
 1.23217e+00 -5.44753e-03 -3.00384e+00 
 1.54013e+00 -6.76034e-03 -2.99223e+00 
 1.84799e+00 -8.04045e-03 -2.97804e+00 
 2.15580e+00 -9.28175e-03 -2.96129e+00 
 2.46349e+00 -1.04778e-02 -2.94197e+00 
 2.77110e+00 -1.16226e-02 -2.92009e+00 
 3.07857e+00 -1.27102e-02 -2.89566e+00 
 3.38593e+00 -1.37349e-02 -2.86869e+00 
 3.69313e+00 -1.46909e-02 -2.83917e+00 
 4.00021e+00 -1.55731e-02 -2.80712e+00 
 4.30710e+00 -1.63764e-02 -2.77256e+00 
 4.61386e+00 -1.70961e-02 -2.73548e+00 
 4.92041e+00 -1.77278e-02 -2.69590e+00 
 5.22682e+00 -1.82676e-02 -2.65382e+00 
 5.53300e+00 -1.87120e-02 -2.60927e+00 
 5.83903e+00 -1.90579e-02 -2.56224e+00 
 6.14484e+00 -1.93029e-02 -2.51277e+00 
 6.45049e+00 -1.94452e-02 -2.46084e+00 
 6.75591e+00 -1.94835e-02 -2.40650e+00 
 7.06116e+00 -1.94174e-02 -2.34973e+00 
 7.36620e+00 -1.92471e-02 -2.29056e+00 
 7.67108e+00 -1.89735e-02 -2.22899e+00 
 7.97574e+00 -1.85987e-02 -2.16506e+00 
 8.28026e+00 -1.81253e-02 -2.09875e+00 
 8.58459e+00 -1.75571e-02 -2.03011e+00 
 8.88880e+00 -1.68986e-02 -1.95912e+00 
 9.19283e+00 -1.61555e-02 -1.88581e+00 
 9.49676e+00 -1.53343e-02 -1.81019e+00 
 9.80055e+00 -1.44427e-02 -1.73228e+00 
 1.01043e+01 -1.34891e-02 -1.65206e+00 
 1.04079e+01 -1.24832e-02 -1.56958e+00 
 1.07115e+01 -1.14353e-02 -1.48482e+00 
 1.10150e+01 -1.03570e-02 -1.39780e+00 
 1.13186e+01 -9.26037e-03 -1.30852e+00 
 1.16221e+01 -8.15865e-03 -1.21699e+00 
 1.19257e+01 -7.06538e-03 -1.12320e+00 
 1.22293e+01 -5.99517e-03 -1.02717e+00 
 1.25331e+01 -4.96269e-03 -9.28888e-01 
 1.28369e+01 -3.98341e-03 -8.28357e-01 
 1.31409e+01 -3.07270e-03 -7.25558e-01 
 1.34451e+01 -2.24632e-03 -6.20503e-01 
 1.37495e+01 -1.51973e-03 -5.13162e-01 
 1.40541e+01 -9.08355e-04 -4.03544e-01 
 1.43591e+01 -4.27041e-04 -2.91612e-01 
 1.46642e+01 -9.02223e-05 -1.77374e-01 
 1.49796e+01  2.19598e-02 -2.92847e-02 
-1.47436e+01 -2.16081e-02 -2.93727e-02 
-1.44331e+01  7.82017e-05 -1.77855e-01 
-1.41326e+01  3.72395e-04 -2.92376e-01 
-1.38323e+01  7.93895e-04 -4.04565e-01 
-1.35323e+01  1.33058e-03 -5.14414e-01 
-1.32325e+01  1.96987e-03 -6.21958e-01 
-1.29329e+01  2.69864e-03 -7.27187e-01 
-1.26334e+01  3.50362e-03 -8.30132e-01 
-1.23341e+01  4.37123e-03 -9.30780e-01 
-1.20349e+01  5.28814e-03 -1.02916e+00 
-1.17358e+01  6.24087e-03 -1.12524e+00 
-1.14367e+01  7.21654e-03 -1.21906e+00 
-1.11377e+01  8.20230e-03 -1.31060e+00 
-1.08387e+01  9.18613e-03 -1.39986e+00 
-1.05398e+01  1.01562e-02 -1.48684e+00 
-1.02407e+01  1.11017e-02 -1.57153e+00 
-9.94168e+00  1.20122e-02 -1.65393e+00 
-9.64255e+00  1.28783e-02 -1.73404e+00 
-9.34336e+00  1.36910e-02 -1.81183e+00 
-9.04406e+00  1.44427e-02 -1.88732e+00 
-8.74468e+00  1.51261e-02 -1.96047e+00 
-8.44514e+00  1.57351e-02 -2.03129e+00 
-8.14551e+00  1.62643e-02 -2.09976e+00 
-7.84571e+00  1.67091e-02 -2.16589e+00 
-7.54578e+00  1.70659e-02 -2.22963e+00 
-7.24568e+00  1.73320e-02 -2.29100e+00 
-6.94544e+00  1.75050e-02 -2.34997e+00 
-6.64500e+00  1.75839e-02 -2.40655e+00 
-6.34443e+00  1.75680e-02 -2.46070e+00 
-6.04366e+00  1.74575e-02 -2.51242e+00 
-5.74274e+00  1.72531e-02 -2.56170e+00 
-5.44163e+00  1.69562e-02 -2.60854e+00 
-5.14039e+00  1.65688e-02 -2.65290e+00 
-4.83895e+00  1.60934e-02 -2.69480e+00 
-4.53738e+00  1.55329e-02 -2.73420e+00 
-4.23563e+00  1.48908e-02 -2.77112e+00 
-3.93376e+00  1.41710e-02 -2.80553e+00 
-3.63172e+00  1.33775e-02 -2.83743e+00 
-3.32958e+00  1.25151e-02 -2.86680e+00 
-3.02729e+00  1.15883e-02 -2.89365e+00 
-2.72491e+00  1.06025e-02 -2.91797e+00 
-2.42240e+00  9.56285e-03 -2.93974e+00 
-2.11982e+00  8.47496e-03 -2.95896e+00 
-1.81714e+00  7.34435e-03 -2.97563e+00 
-1.51441e+00  6.17707e-03 -2.98975e+00 
-1.21158e+00  4.97885e-03 -3.00130e+00 
-9.08744e-01  3.75597e-03 -3.01029e+00 
-6.05838e-01  2.51432e-03 -3.01671e+00 
-3.02936e-01  1.26033e-03 -3.02056e+00 
-1.45961e-12  2.71085e-12 -3.02185e+00 
 3.02936e-01 -1.26033e-03 -3.02056e+00 
 6.05838e-01 -2.51432e-03 -3.01671e+00 
 9.08744e-01 -3.75597e-03 -3.01029e+00 
 1.21158e+00 -4.97885e-03 -3.00130e+00 
 1.51441e+00 -6.17707e-03 -2.98975e+00 
 1.81714e+00 -7.34435e-03 -2.97563e+00 
 2.11982e+00 -8.47496e-03 -2.95896e+00 
 2.42240e+00 -9.56285e-03 -2.93974e+00 
 2.72491e+00 -1.06025e-02 -2.91797e+00 
 3.02729e+00 -1.15883e-02 -2.89365e+00 
 3.32958e+00 -1.25151e-02 -2.86680e+00 
 3.63172e+00 -1.33775e-02 -2.83743e+00 
 3.93376e+00 -1.41710e-02 -2.80553e+00 
 4.23563e+00 -1.48908e-02 -2.77112e+00 
 4.53738e+00 -1.55329e-02 -2.73420e+00 
 4.83895e+00 -1.60934e-02 -2.69480e+00 
 5.14039e+00 -1.65688e-02 -2.65290e+00 
 5.44163e+00 -1.69562e-02 -2.60854e+00 
 5.74274e+00 -1.72531e-02 -2.56170e+00 
 6.04366e+00 -1.74575e-02 -2.51242e+00 
 6.34443e+00 -1.75680e-02 -2.46070e+00 
 6.64500e+00 -1.75839e-02 -2.40655e+00 
 6.94544e+00 -1.75050e-02 -2.34997e+00 
 7.24568e+00 -1.73320e-02 -2.29100e+00 
 7.54578e+00 -1.70659e-02 -2.22963e+00 
 7.84571e+00 -1.67091e-02 -2.16589e+00 
 8.14551e+00 -1.62643e-02 -2.09976e+00 
 8.44514e+00 -1.57351e-02 -2.03129e+00 
 8.74468e+00 -1.51261e-02 -1.96047e+00 
 9.04406e+00 -1.44427e-02 -1.88732e+00 
 9.34336e+00 -1.36910e-02 -1.81183e+00 
 9.64255e+00 -1.28783e-02 -1.73404e+00 
 9.94168e+00 -1.20122e-02 -1.65393e+00 
 1.02407e+01 -1.11017e-02 -1.57153e+00 
 1.05398e+01 -1.01562e-02 -1.48684e+00 
 1.08387e+01 -9.18613e-03 -1.39986e+00 
 1.11377e+01 -8.20230e-03 -1.31060e+00 
 1.14367e+01 -7.21654e-03 -1.21906e+00 
 1.17358e+01 -6.24087e-03 -1.12524e+00 
 1.20349e+01 -5.28814e-03 -1.02916e+00 
 1.23341e+01 -4.37123e-03 -9.30780e-01 
 1.26334e+01 -3.50362e-03 -8.30132e-01 
 1.29329e+01 -2.69864e-03 -7.27187e-01 
 1.32325e+01 -1.96987e-03 -6.21958e-01 
 1.35323e+01 -1.33058e-03 -5.14414e-01 
 1.38323e+01 -7.93895e-04 -4.04565e-01 
 1.41326e+01 -3.72395e-04 -2.92376e-01 
 1.44331e+01 -7.82017e-05 -1.77855e-01 
 1.47436e+01  2.16081e-02 -2.93727e-02 
-1.45069e+01 -2.12550e-02 -2.94485e-02 
-1.42014e+01  6.75672e-05 -1.78274e-01 
-1.39056e+01  3.23589e-04 -2.93043e-01 
-1.36101e+01  6.91290e-04 -4.05458e-01 
-1.33147e+01  1.16051e-03 -5.15511e-01 
-1.30196e+01  1.72062e-03 -6.23236e-01 
-1.27246e+01  2.36046e-03 -7.28622e-01 
-1.24297e+01  3.06870e-03 -8.31699e-01 
-1.21350e+01  3.83365e-03 -9.32454e-01 
-1.18404e+01  4.64378e-03 -1.03091e+00 
-1.15459e+01  5.48739e-03 -1.12706e+00 
-1.12514e+01  6.35324e-03 -1.22091e+00 
-1.09570e+01  7.23004e-03 -1.31245e+00 
-1.06625e+01  8.10720e-03 -1.40171e+00 
-1.03681e+01  8.97422e-03 -1.48865e+00 
-1.00737e+01  9.82148e-03 -1.57329e+00 
-9.77927e+00  1.06396e-02 -1.65562e+00 
-9.48476e+00  1.14201e-02 -1.73563e+00 
-9.19021e+00  1.21548e-02 -1.81332e+00 
-8.89556e+00  1.28368e-02 -1.88869e+00 
-8.60085e+00  1.34593e-02 -1.96170e+00 
-8.30601e+00  1.40166e-02 -2.03239e+00 
-8.01109e+00  1.45037e-02 -2.10070e+00 
-7.71602e+00  1.49162e-02 -2.16666e+00 
-7.42085e+00  1.52506e-02 -2.23024e+00 
-7.12552e+00  1.55041e-02 -2.29144e+00 
-6.83009e+00  1.56744e-02 -2.35023e+00 
-6.53447e+00  1.57602e-02 -2.40663e+00 
-6.23875e+00  1.57607e-02 -2.46059e+00 
-5.94284e+00  1.56757e-02 -2.51214e+00 
-5.64682e+00  1.55056e-02 -2.56124e+00 
-5.35062e+00  1.52516e-02 -2.60790e+00 
-5.05431e+00  1.49151e-02 -2.65210e+00 
-4.75782e+00  1.44982e-02 -2.69383e+00 
-4.46122e+00  1.40035e-02 -2.73307e+00 
-4.16446e+00  1.34339e-02 -2.76984e+00 
-3.86760e+00  1.27928e-02 -2.80410e+00 
-3.57059e+00  1.20838e-02 -2.83586e+00 
-3.27349e+00  1.13111e-02 -2.86511e+00 
-2.97625e+00  1.04789e-02 -2.89184e+00 
-2.67894e+00  9.59206e-03 -2.91604e+00 
-2.38150e+00  8.65514e-03 -2.93772e+00 
-2.08402e+00  7.67341e-03 -2.95685e+00 
-1.78643e+00  6.65192e-03 -2.97345e+00 
-1.48880e+00  5.59626e-03 -2.98749e+00 
-1.19109e+00  4.51174e-03 -2.99899e+00 
-8.93372e-01  3.40419e-03 -3.00794e+00 
-5.95587e-01  2.27913e-03 -3.01433e+00 
-2.97810e-01  1.14252e-03 -3.01817e+00 
-1.38360e-12  3.16970e-12 -3.01945e+00 
 2.97810e-01 -1.14252e-03 -3.01817e+00 
 5.95587e-01 -2.27913e-03 -3.01433e+00 
 8.93372e-01 -3.40419e-03 -3.00794e+00 
 1.19109e+00 -4.51174e-03 -2.99899e+00 
 1.48880e+00 -5.59626e-03 -2.98749e+00 
 1.78643e+00 -6.65192e-03 -2.97345e+00 
 2.08402e+00 -7.67341e-03 -2.95685e+00 
 2.38150e+00 -8.65514e-03 -2.93772e+00 
 2.67894e+00 -9.59206e-03 -2.91604e+00 
 2.97625e+00 -1.04789e-02 -2.89184e+00 
 3.27349e+00 -1.13111e-02 -2.86511e+00 
 3.57059e+00 -1.20838e-02 -2.83586e+00 
 3.86760e+00 -1.27928e-02 -2.80410e+00 
 4.16446e+00 -1.34339e-02 -2.76984e+00 
 4.46122e+00 -1.40035e-02 -2.73307e+00 
 4.75782e+00 -1.44982e-02 -2.69383e+00 
 5.05431e+00 -1.49151e-02 -2.65210e+00 
 5.35062e+00 -1.52516e-02 -2.60790e+00 
 5.64682e+00 -1.55056e-02 -2.56124e+00 
 5.94284e+00 -1.56757e-02 -2.51214e+00 
 6.23875e+00 -1.57607e-02 -2.46059e+00 
 6.53447e+00 -1.57602e-02 -2.40663e+00 
 6.83009e+00 -1.56744e-02 -2.35023e+00 
 7.12552e+00 -1.55041e-02 -2.29144e+00 
 7.42085e+00 -1.52506e-02 -2.23024e+00 
 7.71602e+00 -1.49162e-02 -2.16666e+00 
 8.01109e+00 -1.45037e-02 -2.10070e+00 
 8.30601e+00 -1.40166e-02 -2.03239e+00 
 8.60085e+00 -1.34593e-02 -1.96170e+00 
 8.89556e+00 -1.28368e-02 -1.88869e+00 
 9.19021e+00 -1.21548e-02 -1.81332e+00 
 9.48476e+00 -1.14201e-02 -1.73563e+00 
 9.77927e+00 -1.06396e-02 -1.65562e+00 
 1.00737e+01 -9.82148e-03 -1.57329e+00 
 1.03681e+01 -8.97422e-03 -1.48865e+00 
 1.06625e+01 -8.10720e-03 -1.40171e+00 
 1.09570e+01 -7.23004e-03 -1.31245e+00 
 1.12514e+01 -6.35324e-03 -1.22091e+00 
 1.15459e+01 -5.48739e-03 -1.12706e+00 
 1.18404e+01 -4.64378e-03 -1.03091e+00 
 1.21350e+01 -3.83365e-03 -9.32454e-01 
 1.24297e+01 -3.06870e-03 -8.31699e-01 
 1.27246e+01 -2.36046e-03 -7.28622e-01 
 1.30196e+01 -1.72062e-03 -6.23236e-01 
 1.33147e+01 -1.16051e-03 -5.15511e-01 
 1.36101e+01 -6.91290e-04 -4.05458e-01 
 1.39056e+01 -3.23589e-04 -2.93043e-01 
 1.42014e+01 -6.75672e-05 -1.78274e-01 
 1.45069e+01  2.12550e-02 -2.94485e-02 
-1.42698e+01 -2.09007e-02 -2.95138e-02 
-1.39692e+01  5.81777e-05 -1.78637e-01 
-1.36782e+01  2.80105e-04 -2.93622e-01 
-1.33874e+01  5.99550e-04 -4.06237e-01 
-1.30968e+01  1.00802e-03 -5.16470e-01 
-1.28063e+01  1.49656e-03 -6.24355e-01 
-1.25160e+01  2.05570e-03 -7.29880e-01 
-1.22258e+01  2.67578e-03 -8.33076e-01 
-1.19357e+01  3.34679e-03 -9.33927e-01 
-1.16457e+01  4.05879e-03 -1.03246e+00 
-1.13558e+01  4.80166e-03 -1.12866e+00 
-1.10660e+01  5.56562e-03 -1.22255e+00 
-1.07762e+01  6.34081e-03 -1.31410e+00 
-1.04864e+01  7.11793e-03 -1.40335e+00 
-1.01966e+01  7.88774e-03 -1.49026e+00 
-9.90680e+00  8.64170e-03 -1.57486e+00 
-9.61700e+00  9.37145e-03 -1.65713e+00 
-9.32715e+00  1.00694e-02 -1.73707e+00 
-9.03727e+00  1.07283e-02 -1.81466e+00 
-8.74730e+00  1.13417e-02 -1.88992e+00 
-8.45728e+00  1.19036e-02 -1.96283e+00 
-8.16716e+00  1.24086e-02 -2.03338e+00 
-7.87697e+00  1.28521e-02 -2.10157e+00 
-7.58665e+00  1.32300e-02 -2.16738e+00 
-7.29625e+00  1.35390e-02 -2.23081e+00 
-7.00570e+00  1.37763e-02 -2.29185e+00 
-6.71507e+00  1.39398e-02 -2.35049e+00 
-6.42429e+00  1.40280e-02 -2.40672e+00 
-6.13341e+00  1.40398e-02 -2.46053e+00 
-5.84237e+00  1.39752e-02 -2.51191e+00 
-5.55123e+00  1.38341e-02 -2.56086e+00 
-5.25994e+00  1.36174e-02 -2.60736e+00 
-4.96855e+00  1.33263e-02 -2.65140e+00 
-4.67700e+00  1.29625e-02 -2.69298e+00 
-4.38537e+00  1.25281e-02 -2.73208e+00 
-4.09358e+00  1.20257e-02 -2.76870e+00 
-3.80172e+00  1.14582e-02 -2.80283e+00 
-3.50971e+00  1.08289e-02 -2.83447e+00 
-3.21763e+00  1.01414e-02 -2.86360e+00 
-2.92543e+00  9.39955e-03 -2.89022e+00 
-2.63316e+00  8.60754e-03 -2.91432e+00 
-2.34079e+00  7.76965e-03 -2.93590e+00 
-2.04837e+00  6.89060e-03 -2.95496e+00 
-1.75586e+00  5.97502e-03 -2.97148e+00 
-1.46331e+00  5.02800e-03 -2.98547e+00 
-1.17070e+00  4.05441e-03 -2.99692e+00 
-8.78069e-01  3.05961e-03 -3.00582e+00 
-5.85383e-01  2.04865e-03 -3.01219e+00 
-2.92707e-01  1.02705e-03 -3.01601e+00 
-1.00568e-12  3.40156e-12 -3.01728e+00 
 2.92707e-01 -1.02705e-03 -3.01601e+00 
 5.85383e-01 -2.04865e-03 -3.01219e+00 
 8.78069e-01 -3.05961e-03 -3.00582e+00 
 1.17070e+00 -4.05441e-03 -2.99692e+00 
 1.46331e+00 -5.02800e-03 -2.98547e+00 
 1.75586e+00 -5.97502e-03 -2.97148e+00 
 2.04837e+00 -6.89060e-03 -2.95496e+00 
 2.34079e+00 -7.76965e-03 -2.93590e+00 
 2.63316e+00 -8.60754e-03 -2.91432e+00 
 2.92543e+00 -9.39955e-03 -2.89022e+00 
 3.21763e+00 -1.01414e-02 -2.86360e+00 
 3.50971e+00 -1.08289e-02 -2.83447e+00 
 3.80172e+00 -1.14582e-02 -2.80283e+00 
 4.09358e+00 -1.20257e-02 -2.76870e+00 
 4.38537e+00 -1.25281e-02 -2.73208e+00 
 4.67700e+00 -1.29625e-02 -2.69298e+00 
 4.96855e+00 -1.33263e-02 -2.65140e+00 
 5.25994e+00 -1.36174e-02 -2.60736e+00 
 5.55123e+00 -1.38341e-02 -2.56086e+00 
 5.84237e+00 -1.39752e-02 -2.51191e+00 
 6.13341e+00 -1.40398e-02 -2.46053e+00 
 6.42429e+00 -1.40280e-02 -2.40672e+00 
 6.71507e+00 -1.39398e-02 -2.35049e+00 
 7.00570e+00 -1.37763e-02 -2.29185e+00 
 7.29625e+00 -1.35390e-02 -2.23081e+00 
 7.58665e+00 -1.32300e-02 -2.16738e+00 
 7.87697e+00 -1.28521e-02 -2.10157e+00 
 8.16716e+00 -1.24086e-02 -2.03338e+00 
 8.45728e+00 -1.19036e-02 -1.96283e+00 
 8.74730e+00 -1.13417e-02 -1.88992e+00 
 9.03727e+00 -1.07283e-02 -1.81466e+00 
 9.32715e+00 -1.00694e-02 -1.73707e+00 
 9.61700e+00 -9.37145e-03 -1.65713e+00 
 9.90680e+00 -8.64170e-03 -1.57486e+00 
 1.01966e+01 -7.88774e-03 -1.49026e+00 
 1.04864e+01 -7.11793e-03 -1.40335e+00 
 1.07762e+01 -6.34081e-03 -1.31410e+00 
 1.10660e+01 -5.56562e-03 -1.22255e+00 
 1.13558e+01 -4.80166e-03 -1.12866e+00 
 1.16457e+01 -4.05879e-03 -1.03246e+00 
 1.19357e+01 -3.34679e-03 -9.33927e-01 
 1.22258e+01 -2.67578e-03 -8.33076e-01 
 1.25160e+01 -2.05570e-03 -7.29880e-01 
 1.28063e+01 -1.49656e-03 -6.24355e-01 
 1.30968e+01 -1.00802e-03 -5.16470e-01 
 1.33874e+01 -5.99550e-04 -4.06237e-01 
 1.36782e+01 -2.80105e-04 -2.93622e-01 
 1.39692e+01 -5.81777e-05 -1.78637e-01 
 1.42698e+01  2.09007e-02 -2.95138e-02 
-1.40322e+01 -2.05458e-02 -2.95697e-02 
-1.37366e+01  4.98993e-05 -1.78951e-01 
-1.34504e+01  2.41426e-04 -2.94124e-01 
-1.31644e+01  5.17675e-04 -4.06912e-01 
-1.28785e+01  8.71557e-04 -5.17303e-01 
-1.25927e+01  1.29556e-03 -6.25329e-01 
-1.23071e+01  1.78166e-03 -7.30978e-01 
-1.20216e+01  2.32167e-03 -8.34279e-01 
-1.17362e+01  2.90701e-03 -9.35217e-01 
-1.14509e+01  3.52917e-03 -1.03382e+00 
-1.11657e+01  4.17942e-03 -1.13007e+00 
-1.08805e+01  4.84931e-03 -1.22398e+00 
-1.05953e+01  5.53025e-03 -1.31556e+00 
-1.03102e+01  6.21415e-03 -1.40480e+00 
-1.00251e+01  6.89289e-03 -1.49169e+00 
-9.73998e+00  7.55897e-03 -1.57626e+00 
-9.45486e+00  8.20499e-03 -1.65847e+00 
-9.16969e+00  8.82424e-03 -1.73835e+00 
-8.88450e+00  9.41021e-03 -1.81586e+00 
-8.59924e+00  9.95714e-03 -1.89104e+00 
-8.31394e+00  1.04595e-02 -1.96384e+00 
-8.02855e+00  1.09127e-02 -2.03428e+00 
-7.74310e+00  1.13122e-02 -2.10235e+00 
-7.45754e+00  1.16545e-02 -2.16804e+00 
-7.17192e+00  1.19362e-02 -2.23133e+00 
-6.88617e+00  1.21549e-02 -2.29224e+00 
-6.60035e+00  1.23085e-02 -2.35074e+00 
-6.31440e+00  1.23955e-02 -2.40683e+00 
-6.02837e+00  1.24148e-02 -2.46049e+00 
-5.74220e+00  1.23661e-02 -2.51173e+00 
-5.45594e+00  1.22494e-02 -2.56053e+00 
-5.16955e+00  1.20652e-02 -2.60689e+00 
-4.88308e+00  1.18145e-02 -2.65079e+00 
-4.59647e+00  1.14986e-02 -2.69223e+00 
-4.30978e+00  1.11194e-02 -2.73120e+00 
-4.02296e+00  1.06790e-02 -2.76770e+00 
-3.73608e+00  1.01801e-02 -2.80171e+00 
-3.44906e+00  9.62533e-03 -2.83323e+00 
-3.16199e+00  9.01805e-03 -2.86225e+00 
-2.87481e+00  8.36159e-03 -2.88877e+00 
-2.58757e+00  7.65974e-03 -2.91279e+00 
-2.30024e+00  6.91631e-03 -2.93429e+00 
-2.01287e+00  6.13554e-03 -2.95326e+00 
-1.72541e+00  5.32160e-03 -2.96972e+00 
-1.43793e+00  4.47907e-03 -2.98366e+00 
-1.15038e+00  3.61239e-03 -2.99506e+00 
-8.62830e-01  2.72641e-03 -3.00393e+00 
-5.75222e-01  1.82572e-03 -3.01027e+00 
-2.87626e-01  9.15344e-04 -3.01407e+00 
-1.42394e-12  2.33488e-12 -3.01534e+00 
 2.87626e-01 -9.15344e-04 -3.01407e+00 
 5.75222e-01 -1.82572e-03 -3.01027e+00 
 8.62830e-01 -2.72641e-03 -3.00393e+00 
 1.15038e+00 -3.61239e-03 -2.99506e+00 
 1.43793e+00 -4.47907e-03 -2.98366e+00 
 1.72541e+00 -5.32160e-03 -2.96972e+00 
 2.01287e+00 -6.13554e-03 -2.95326e+00 
 2.30024e+00 -6.91631e-03 -2.93429e+00 
 2.58757e+00 -7.65974e-03 -2.91279e+00 
 2.87481e+00 -8.36159e-03 -2.88877e+00 
 3.16199e+00 -9.01805e-03 -2.86225e+00 
 3.44906e+00 -9.62533e-03 -2.83323e+00 
 3.73608e+00 -1.01801e-02 -2.80171e+00 
 4.02296e+00 -1.06790e-02 -2.76770e+00 
 4.30978e+00 -1.11194e-02 -2.73120e+00 
 4.59647e+00 -1.14986e-02 -2.69223e+00 
 4.88308e+00 -1.18145e-02 -2.65079e+00 
 5.16955e+00 -1.20652e-02 -2.60689e+00 
 5.45594e+00 -1.22494e-02 -2.56053e+00 
 5.74220e+00 -1.23661e-02 -2.51173e+00 
 6.02837e+00 -1.24148e-02 -2.46049e+00 
 6.31440e+00 -1.23955e-02 -2.40683e+00 
 6.60035e+00 -1.23085e-02 -2.35074e+00 
 6.88617e+00 -1.21549e-02 -2.29224e+00 
 7.17192e+00 -1.19362e-02 -2.23133e+00 
 7.45754e+00 -1.16545e-02 -2.16804e+00 
 7.74310e+00 -1.13122e-02 -2.10235e+00 
 8.02855e+00 -1.09127e-02 -2.03428e+00 
 8.31394e+00 -1.04595e-02 -1.96384e+00 
 8.59924e+00 -9.95714e-03 -1.89104e+00 
 8.88450e+00 -9.41021e-03 -1.81586e+00 
 9.16969e+00 -8.82424e-03 -1.73835e+00 
 9.45486e+00 -8.20499e-03 -1.65847e+00 
 9.73998e+00 -7.55897e-03 -1.57626e+00 
 1.00251e+01 -6.89289e-03 -1.49169e+00 
 1.03102e+01 -6.21415e-03 -1.40480e+00 
 1.05953e+01 -5.53025e-03 -1.31556e+00 
 1.08805e+01 -4.84931e-03 -1.22398e+00 
 1.11657e+01 -4.17942e-03 -1.13007e+00 
 1.14509e+01 -3.52917e-03 -1.03382e+00 
 1.17362e+01 -2.90701e-03 -9.35217e-01 
 1.20216e+01 -2.32167e-03 -8.34279e-01 
 1.23071e+01 -1.78166e-03 -7.30978e-01 
 1.25927e+01 -1.29556e-03 -6.25329e-01 
 1.28785e+01 -8.71557e-04 -5.17303e-01 
 1.31644e+01 -5.17675e-04 -4.06912e-01 
 1.34504e+01 -2.41426e-04 -2.94124e-01 
 1.37366e+01 -4.98993e-05 -1.78951e-01 
 1.40322e+01  2.05458e-02 -2.95697e-02 
-1.37943e+01 -2.01903e-02 -2.96173e-02 
-1.35036e+01  4.26053e-05 -1.79220e-01 
-1.32223e+01  2.07049e-04 -2.94557e-01 
-1.29410e+01  4.44669e-04 -4.07495e-01 
-1.26599e+01  7.49565e-04 -5.18023e-01 
-1.23789e+01  1.11544e-03 -6.26173e-01 
-1.20981e+01  1.53555e-03 -7.31930e-01 
-1.18173e+01  2.00294e-03 -8.35324e-01 
-1.15366e+01  2.51032e-03 -9.36339e-01 
-1.12560e+01  3.05042e-03 -1.03500e+00 
-1.09755e+01  3.61577e-03 -1.13130e+00 
-1.06950e+01  4.19906e-03 -1.22524e+00 
-1.04145e+01  4.79291e-03 -1.31683e+00 
-1.01341e+01  5.39027e-03 -1.40607e+00 
-9.85368e+00  5.98411e-03 -1.49295e+00 
-9.57324e+00  6.56785e-03 -1.57748e+00 
-9.29283e+00  7.13502e-03 -1.65966e+00 
-9.01236e+00  7.67971e-03 -1.73948e+00 
-8.73189e+00  8.19616e-03 -1.81693e+00 
-8.45135e+00  8.67927e-03 -1.89202e+00 
-8.17079e+00  9.12413e-03 -1.96474e+00 
-7.89015e+00  9.52652e-03 -2.03509e+00 
-7.60946e+00  9.88249e-03 -2.10305e+00 
-7.32868e+00  1.01887e-02 -2.16863e+00 
-7.04785e+00  1.04423e-02 -2.23181e+00 
-6.76690e+00  1.06408e-02 -2.29260e+00 
-6.48590e+00  1.07823e-02 -2.35097e+00 
-6.20479e+00  1.08654e-02 -2.40694e+00 
-5.92360e+00  1.08890e-02 -2.46047e+00 
-5.64230e+00  1.08527e-02 -2.51159e+00 
-5.36093e+00  1.07564e-02 -2.56026e+00 
-5.07943e+00  1.06004e-02 -2.60649e+00 
-4.79787e+00  1.03856e-02 -2.65027e+00 
-4.51619e+00  1.01129e-02 -2.69159e+00 
-4.23444e+00  9.78399e-03 -2.73044e+00 
-3.95258e+00  9.40068e-03 -2.76682e+00 
-3.67066e+00  8.96519e-03 -2.80072e+00 
-3.38863e+00  8.47995e-03 -2.83214e+00 
-3.10655e+00  7.94780e-03 -2.86107e+00 
-2.82437e+00  7.37169e-03 -2.88750e+00 
-2.54215e+00  6.75496e-03 -2.91143e+00 
-2.25983e+00  6.10100e-03 -2.93286e+00 
-1.97750e+00  5.41357e-03 -2.95177e+00 
-1.69508e+00  4.69639e-03 -2.96817e+00 
-1.41265e+00  3.95355e-03 -2.98205e+00 
-1.13015e+00  3.18902e-03 -2.99341e+00 
-8.47649e-01  2.40715e-03 -3.00225e+00 
-5.65100e-01  1.61206e-03 -3.00857e+00 
-2.82564e-01  8.08263e-04 -3.01236e+00 
-7.31041e-13  3.20565e-12 -3.01362e+00 
 2.82564e-01 -8.08263e-04 -3.01236e+00 
 5.65100e-01 -1.61206e-03 -3.00857e+00 
 8.47649e-01 -2.40715e-03 -3.00225e+00 
 1.13015e+00 -3.18902e-03 -2.99341e+00 
 1.41265e+00 -3.95355e-03 -2.98205e+00 
 1.69508e+00 -4.69639e-03 -2.96817e+00 
 1.97750e+00 -5.41357e-03 -2.95177e+00 
 2.25983e+00 -6.10100e-03 -2.93286e+00 
 2.54215e+00 -6.75496e-03 -2.91143e+00 
 2.82437e+00 -7.37169e-03 -2.88750e+00 
 3.10655e+00 -7.94780e-03 -2.86107e+00 
 3.38863e+00 -8.47995e-03 -2.83214e+00 
 3.67066e+00 -8.96519e-03 -2.80072e+00 
 3.95258e+00 -9.40068e-03 -2.76682e+00 
 4.23444e+00 -9.78399e-03 -2.73044e+00 
 4.51619e+00 -1.01129e-02 -2.69159e+00 
 4.79787e+00 -1.03856e-02 -2.65027e+00 
 5.07943e+00 -1.06004e-02 -2.60649e+00 
 5.36093e+00 -1.07564e-02 -2.56026e+00 
 5.64230e+00 -1.08527e-02 -2.51159e+00 
 5.92360e+00 -1.08890e-02 -2.46047e+00 
 6.20479e+00 -1.08654e-02 -2.40694e+00 
 6.48590e+00 -1.07823e-02 -2.35097e+00 
 6.76690e+00 -1.06408e-02 -2.29260e+00 
 7.04785e+00 -1.04423e-02 -2.23181e+00 
 7.32868e+00 -1.01887e-02 -2.16863e+00 
 7.60946e+00 -9.88249e-03 -2.10305e+00 
 7.89015e+00 -9.52652e-03 -2.03509e+00 
 8.17079e+00 -9.12413e-03 -1.96474e+00 
 8.45135e+00 -8.67927e-03 -1.89202e+00 
 8.73189e+00 -8.19616e-03 -1.81693e+00 
 9.01236e+00 -7.67971e-03 -1.73948e+00 
 9.29283e+00 -7.13502e-03 -1.65966e+00 
 9.57324e+00 -6.56785e-03 -1.57748e+00 
 9.85368e+00 -5.98411e-03 -1.49295e+00 
 1.01341e+01 -5.39027e-03 -1.40607e+00 
 1.04145e+01 -4.79291e-03 -1.31683e+00 
 1.06950e+01 -4.19906e-03 -1.22524e+00 
 1.09755e+01 -3.61577e-03 -1.13130e+00 
 1.12560e+01 -3.05042e-03 -1.03500e+00 
 1.15366e+01 -2.51032e-03 -9.36339e-01 
 1.18173e+01 -2.00294e-03 -8.35324e-01 
 1.20981e+01 -1.53555e-03 -7.31930e-01 
 1.23789e+01 -1.11544e-03 -6.26173e-01 
 1.26599e+01 -7.49565e-04 -5.18023e-01 
 1.29410e+01 -4.44669e-04 -4.07495e-01 
 1.32223e+01 -2.07049e-04 -2.94557e-01 
 1.35036e+01 -4.26053e-05 -1.79220e-01 
 1.37943e+01  2.01903e-02 -2.96173e-02 
-1.35560e+01 -1.98345e-02 -2.96579e-02 
-1.32704e+01  3.61766e-05 -1.79451e-01 
-1.29938e+01  1.76486e-04 -2.94927e-01 
-1.27174e+01  3.79553e-04 -4.07996e-01 
-1.24411e+01  6.40481e-04 -5.18643e-01 
-1.21649e+01  9.54017e-04 -6.26899e-01 
-1.18888e+01  1.31449e-03 -7.32750e-01 
-1.16128e+01  1.71605e-03 -8.36226e-01 
-1.13369e+01  2.15253e-03 -9.37309e-01 
-1.10610e+01  2.61775e-03 -1.03603e+00 
-1.07852e+01  3.10532e-03 -1.13236e+00 
-1.05094e+01  3.60903e-03 -1.22634e+00 
-1.02337e+01  4.12253e-03 -1.31794e+00 
-9.95797e+00  4.63975e-03 -1.40718e+00 
-9.68228e+00  5.15462e-03 -1.49405e+00 
-9.40657e+00  5.66147e-03 -1.57856e+00 
-9.13088e+00  6.15464e-03 -1.66069e+00 
-8.85515e+00  6.62902e-03 -1.74047e+00 
-8.57941e+00  7.07955e-03 -1.81786e+00 
-8.30362e+00  7.50177e-03 -1.89289e+00 
-8.02781e+00  7.89135e-03 -1.96553e+00 
-7.75193e+00  8.24456e-03 -2.03580e+00 
-7.47602e+00  8.55787e-03 -2.10367e+00 
-7.20003e+00  8.82835e-03 -2.16916e+00 
-6.92399e+00  9.05332e-03 -2.23224e+00 
-6.64786e+00  9.23067e-03 -2.29292e+00 
-6.37168e+00  9.35855e-03 -2.35119e+00 
-6.09540e+00  9.43569e-03 -2.40704e+00 
-5.81907e+00  9.46109e-03 -2.46047e+00 
-5.54264e+00  9.43424e-03 -2.51147e+00 
-5.26614e+00  9.35497e-03 -2.56003e+00 
-4.98954e+00  9.22353e-03 -2.60615e+00 
-4.71289e+00  9.04050e-03 -2.64982e+00 
-4.43613e+00  8.80681e-03 -2.69103e+00 
-4.15932e+00  8.52373e-03 -2.72978e+00 
-3.88240e+00  8.19283e-03 -2.76606e+00 
-3.60544e+00  7.81601e-03 -2.79987e+00 
-3.32838e+00  7.39537e-03 -2.83120e+00 
-3.05128e+00  6.93337e-03 -2.86004e+00 
-2.77409e+00  6.43256e-03 -2.88639e+00 
-2.49687e+00  5.89589e-03 -2.91025e+00 
-2.21957e+00  5.32630e-03 -2.93160e+00 
-1.94224e+00  4.72711e-03 -2.95046e+00 
-1.66485e+00  4.10158e-03 -2.96681e+00 
-1.38745e+00  3.45333e-03 -2.98064e+00 
-1.10998e+00  2.78587e-03 -2.99197e+00 
-8.32521e-01  2.10304e-03 -3.00078e+00 
-5.55013e-01  1.40850e-03 -3.00707e+00 
-2.77520e-01  7.06228e-04 -3.01085e+00 
-1.12538e-12  3.14572e-12 -3.01211e+00 
 2.77520e-01 -7.06228e-04 -3.01085e+00 
 5.55013e-01 -1.40850e-03 -3.00707e+00 
 8.32521e-01 -2.10304e-03 -3.00078e+00 
 1.10998e+00 -2.78587e-03 -2.99197e+00 
 1.38745e+00 -3.45333e-03 -2.98064e+00 
 1.66485e+00 -4.10158e-03 -2.96681e+00 
 1.94224e+00 -4.72711e-03 -2.95046e+00 
 2.21957e+00 -5.32630e-03 -2.93160e+00 
 2.49687e+00 -5.89589e-03 -2.91025e+00 
 2.77409e+00 -6.43256e-03 -2.88639e+00 
 3.05128e+00 -6.93337e-03 -2.86004e+00 
 3.32838e+00 -7.39537e-03 -2.83120e+00 
 3.60544e+00 -7.81601e-03 -2.79987e+00 
 3.88240e+00 -8.19283e-03 -2.76606e+00 
 4.15932e+00 -8.52373e-03 -2.72978e+00 
 4.43613e+00 -8.80681e-03 -2.69103e+00 
 4.71289e+00 -9.04050e-03 -2.64982e+00 
 4.98954e+00 -9.22353e-03 -2.60615e+00 
 5.26614e+00 -9.35497e-03 -2.56003e+00 
 5.54264e+00 -9.43424e-03 -2.51147e+00 
 5.81907e+00 -9.46109e-03 -2.46047e+00 
 6.09540e+00 -9.43569e-03 -2.40704e+00 
 6.37168e+00 -9.35855e-03 -2.35119e+00 
 6.64786e+00 -9.23067e-03 -2.29292e+00 
 6.92399e+00 -9.05332e-03 -2.23224e+00 
 7.20003e+00 -8.82835e-03 -2.16916e+00 
 7.47602e+00 -8.55787e-03 -2.10367e+00 
 7.75193e+00 -8.24456e-03 -2.03580e+00 
 8.02781e+00 -7.89135e-03 -1.96553e+00 
 8.30362e+00 -7.50177e-03 -1.89289e+00 
 8.57941e+00 -7.07955e-03 -1.81786e+00 
 8.85515e+00 -6.62902e-03 -1.74047e+00 
 9.13088e+00 -6.15464e-03 -1.66069e+00 
 9.40657e+00 -5.66147e-03 -1.57856e+00 
 9.68228e+00 -5.15462e-03 -1.49405e+00 
 9.95797e+00 -4.63975e-03 -1.40718e+00 
 1.02337e+01 -4.12253e-03 -1.31794e+00 
 1.05094e+01 -3.60903e-03 -1.22634e+00 
 1.07852e+01 -3.10532e-03 -1.13236e+00 
 1.10610e+01 -2.61775e-03 -1.03603e+00 
 1.13369e+01 -2.15253e-03 -9.37309e-01 
 1.16128e+01 -1.71605e-03 -8.36226e-01 
 1.18888e+01 -1.31449e-03 -7.32750e-01 
 1.21649e+01 -9.54017e-04 -6.26899e-01 
 1.24411e+01 -6.40481e-04 -5.18643e-01 
 1.27174e+01 -3.79553e-04 -4.07996e-01 
 1.29938e+01 -1.76486e-04 -2.94927e-01 
 1.32704e+01 -3.61766e-05 -1.79451e-01 
 1.35560e+01  1.98345e-02 -2.96579e-02 
-1.33174e+01 -1.94785e-02 -2.96921e-02 
-1.30368e+01  3.05002e-05 -1.79647e-01 
-1.27652e+01  1.49266e-04 -2.95243e-01 
-1.24936e+01  3.21369e-04 -4.08422e-01 
-1.22221e+01  5.42768e-04 -5.19171e-01 
-1.19507e+01  8.09094e-04 -6.27519e-01 
-1.16794e+01  1.11561e-03 -7.33452e-01 
-1.14082e+01  1.45742e-03 -8.36997e-01 
-1.11370e+01  1.82933e-03 -9.38140e-01 
-1.08659e+01  2.22614e-03 -1.03690e+00 
-1.05949e+01  2.64245e-03 -1.13328e+00 
-1.03238e+01  3.07297e-03 -1.22728e+00 
-1.00528e+01  3.51231e-03 -1.31889e+00 
-9.78186e+00  3.95532e-03 -1.40813e+00 
-9.51092e+00  4.39679e-03 -1.49499e+00 
-9.23995e+00  4.83187e-03 -1.57948e+00 
-8.96901e+00  5.25572e-03 -1.66159e+00 
-8.69802e+00  5.66391e-03 -1.74132e+00 
-8.42705e+00  6.05210e-03 -1.81867e+00 
-8.15602e+00  6.41641e-03 -1.89364e+00 
-7.88498e+00  6.75310e-03 -1.96622e+00 
-7.61387e+00  7.05891e-03 -2.03642e+00 
-7.34275e+00  7.33077e-03 -2.10422e+00 
-7.07155e+00  7.56608e-03 -2.16962e+00 
-6.80033e+00  7.76250e-03 -2.23262e+00 
-6.52901e+00  7.91815e-03 -2.29321e+00 
-6.25767e+00  8.03137e-03 -2.35138e+00 
-5.98623e+00  8.10101e-03 -2.40714e+00 
-5.71475e+00  8.12615e-03 -2.46047e+00 
-5.44318e+00  8.10630e-03 -2.51137e+00 
-5.17157e+00  8.04125e-03 -2.55984e+00 
-4.89986e+00  7.93115e-03 -2.60586e+00 
-4.62811e+00  7.77646e-03 -2.64943e+00 
-4.35627e+00  7.57795e-03 -2.69056e+00 
-4.08438e+00  7.33667e-03 -2.72921e+00 
-3.81241e+00  7.05393e-03 -2.76541e+00 
-3.54039e+00  6.73136e-03 -2.79913e+00 
-3.26829e+00  6.37074e-03 -2.83038e+00 
-2.99617e+00  5.97417e-03 -2.85915e+00 
-2.72396e+00  5.54387e-03 -2.88543e+00 
-2.45172e+00  5.08235e-03 -2.90922e+00 
-2.17942e+00  4.59218e-03 -2.93052e+00 
-1.90710e+00  4.07622e-03 -2.94932e+00 
-1.63471e+00  3.53731e-03 -2.96562e+00 
-1.36232e+00  2.97860e-03 -2.97942e+00 
-1.08988e+00  2.40313e-03 -2.99071e+00 
-8.17439e-01  1.81425e-03 -2.99950e+00 
-5.44958e-01  1.21514e-03 -3.00578e+00 
-2.72492e-01  6.09299e-04 -3.00954e+00 
-7.67644e-13  1.39241e-12 -3.01080e+00 
 2.72492e-01 -6.09299e-04 -3.00954e+00 
 5.44958e-01 -1.21514e-03 -3.00578e+00 
 8.17439e-01 -1.81425e-03 -2.99950e+00 
 1.08988e+00 -2.40313e-03 -2.99071e+00 
 1.36232e+00 -2.97860e-03 -2.97942e+00 
 1.63471e+00 -3.53731e-03 -2.96562e+00 
 1.90710e+00 -4.07622e-03 -2.94932e+00 
 2.17942e+00 -4.59218e-03 -2.93052e+00 
 2.45172e+00 -5.08235e-03 -2.90922e+00 
 2.72396e+00 -5.54387e-03 -2.88543e+00 
 2.99617e+00 -5.97417e-03 -2.85915e+00 
 3.26829e+00 -6.37074e-03 -2.83038e+00 
 3.54039e+00 -6.73136e-03 -2.79913e+00 
 3.81241e+00 -7.05393e-03 -2.76541e+00 
 4.08438e+00 -7.33667e-03 -2.72921e+00 
 4.35627e+00 -7.57795e-03 -2.69056e+00 
 4.62811e+00 -7.77646e-03 -2.64943e+00 
 4.89986e+00 -7.93115e-03 -2.60586e+00 
 5.17157e+00 -8.04125e-03 -2.55984e+00 
 5.44318e+00 -8.10630e-03 -2.51137e+00 
 5.71475e+00 -8.12615e-03 -2.46047e+00 
 5.98623e+00 -8.10101e-03 -2.40714e+00 
 6.25767e+00 -8.03137e-03 -2.35138e+00 
 6.52901e+00 -7.91815e-03 -2.29321e+00 
 6.80033e+00 -7.76250e-03 -2.23262e+00 
 7.07155e+00 -7.56608e-03 -2.16962e+00 
 7.34275e+00 -7.33077e-03 -2.10422e+00 
 7.61387e+00 -7.05891e-03 -2.03642e+00 
 7.88498e+00 -6.75310e-03 -1.96622e+00 
 8.15602e+00 -6.41641e-03 -1.89364e+00 
 8.42705e+00 -6.05210e-03 -1.81867e+00 
 8.69802e+00 -5.66391e-03 -1.74132e+00 
 8.96901e+00 -5.25572e-03 -1.66159e+00 
 9.23995e+00 -4.83187e-03 -1.57948e+00 
 9.51092e+00 -4.39679e-03 -1.49499e+00 
 9.78186e+00 -3.95532e-03 -1.40813e+00 
 1.00528e+01 -3.51231e-03 -1.31889e+00 
 1.03238e+01 -3.07297e-03 -1.22728e+00 
 1.05949e+01 -2.64245e-03 -1.13328e+00 
 1.08659e+01 -2.22614e-03 -1.03690e+00 
 1.11370e+01 -1.82933e-03 -9.38140e-01 
 1.14082e+01 -1.45742e-03 -8.36997e-01 
 1.16794e+01 -1.11561e-03 -7.33452e-01 
 1.19507e+01 -8.09094e-04 -6.27519e-01 
 1.22221e+01 -5.42768e-04 -5.19171e-01 
 1.24936e+01 -3.21369e-04 -4.08422e-01 
 1.27652e+01 -1.49266e-04 -2.95243e-01 
 1.30368e+01 -3.05002e-05 -1.79647e-01 
 1.33174e+01  1.94785e-02 -2.96921e-02 
-1.30786e+01 -1.91223e-02 -2.97207e-02 
-1.28031e+01  2.54734e-05 -1.79812e-01 
-1.25363e+01  1.24927e-04 -2.95508e-01 
-1.22695e+01  2.69189e-04 -4.08782e-01 
-1.20029e+01  4.54918e-04 -5.19617e-01 
-1.17363e+01  6.78515e-04 -6.28043e-01 
-1.14699e+01  9.36054e-04 -7.34045e-01 
-1.12034e+01  1.22345e-03 -8.37651e-01 
-1.09371e+01  1.53639e-03 -9.38844e-01 
-1.06707e+01  1.87052e-03 -1.03765e+00 
-1.04045e+01  2.22131e-03 -1.13405e+00 
-1.01382e+01  2.58435e-03 -1.22807e+00 
-9.87198e+00  2.95510e-03 -1.31970e+00 
-9.60576e+00  3.32923e-03 -1.40894e+00 
-9.33958e+00  3.70234e-03 -1.49580e+00 
-9.07338e+00  4.07035e-03 -1.58027e+00 
-8.80720e+00  4.42915e-03 -1.66235e+00 
-8.54098e+00  4.77501e-03 -1.74206e+00 
-8.27477e+00  5.10422e-03 -1.81937e+00 
-8.00852e+00  5.41350e-03 -1.89429e+00 
-7.74226e+00  5.69965e-03 -1.96682e+00 
-7.47595e+00  5.95989e-03 -2.03695e+00 
-7.20963e+00  6.19158e-03 -2.10469e+00 
-6.94323e+00  6.39251e-03 -2.17002e+00 
-6.67682e+00  6.56065e-03 -2.23294e+00 
-6.41033e+00  6.69435e-03 -2.29346e+00 
-6.14382e+00  6.79221e-03 -2.35155e+00 
-5.87723e+00  6.85318e-03 -2.40723e+00 
-5.61061e+00  6.87646e-03 -2.46048e+00 
-5.34391e+00  6.86160e-03 -2.51130e+00 
-5.07717e+00  6.80838e-03 -2.55968e+00 
-4.81036e+00  6.71691e-03 -2.60562e+00 
-4.54351e+00  6.58754e-03 -2.64911e+00 
-4.27657e+00  6.42089e-03 -2.69015e+00 
-4.00961e+00  6.21784e-03 -2.72873e+00 
-3.74257e+00  5.97948e-03 -2.76485e+00 
-3.47550e+00  5.70718e-03 -2.79850e+00 
-3.20835e+00  5.40242e-03 -2.82968e+00 
-2.94119e+00  5.06699e-03 -2.85839e+00 
-2.67395e+00  4.70277e-03 -2.88461e+00 
-2.40669e+00  4.31189e-03 -2.90834e+00 
-2.13937e+00  3.89653e-03 -2.92959e+00 
-1.87204e+00  3.45912e-03 -2.94835e+00 
-1.60465e+00  3.00210e-03 -2.96461e+00 
-1.33726e+00  2.52813e-03 -2.97838e+00 
-1.06983e+00  2.03983e-03 -2.98964e+00 
-8.02398e-01  1.54006e-03 -2.99840e+00 
-5.34929e-01  1.03154e-03 -3.00467e+00 
-2.67477e-01  5.17248e-04 -3.00842e+00 
-1.46151e-12  1.16308e-12 -3.00968e+00 
 2.67477e-01 -5.17248e-04 -3.00842e+00 
 5.34929e-01 -1.03154e-03 -3.00467e+00 
 8.02398e-01 -1.54006e-03 -2.99840e+00 
 1.06983e+00 -2.03983e-03 -2.98964e+00 
 1.33726e+00 -2.52813e-03 -2.97838e+00 
 1.60465e+00 -3.00210e-03 -2.96461e+00 
 1.87204e+00 -3.45912e-03 -2.94835e+00 
 2.13937e+00 -3.89653e-03 -2.92959e+00 
 2.40669e+00 -4.31189e-03 -2.90834e+00 
 2.67395e+00 -4.70277e-03 -2.88461e+00 
 2.94119e+00 -5.06699e-03 -2.85839e+00 
 3.20835e+00 -5.40242e-03 -2.82968e+00 
 3.47550e+00 -5.70718e-03 -2.79850e+00 
 3.74257e+00 -5.97948e-03 -2.76485e+00 
 4.00961e+00 -6.21784e-03 -2.72873e+00 
 4.27657e+00 -6.42089e-03 -2.69015e+00 
 4.54351e+00 -6.58754e-03 -2.64911e+00 
 4.81036e+00 -6.71691e-03 -2.60562e+00 
 5.07717e+00 -6.80838e-03 -2.55968e+00 
 5.34391e+00 -6.86160e-03 -2.51130e+00 
 5.61061e+00 -6.87646e-03 -2.46048e+00 
 5.87723e+00 -6.85318e-03 -2.40723e+00 
 6.14382e+00 -6.79221e-03 -2.35155e+00 
 6.41033e+00 -6.69435e-03 -2.29346e+00 
 6.67682e+00 -6.56065e-03 -2.23294e+00 
 6.94323e+00 -6.39251e-03 -2.17002e+00 
 7.20963e+00 -6.19158e-03 -2.10469e+00 
 7.47595e+00 -5.95989e-03 -2.03695e+00 
 7.74226e+00 -5.69965e-03 -1.96682e+00 
 8.00852e+00 -5.41350e-03 -1.89429e+00 
 8.27477e+00 -5.10422e-03 -1.81937e+00 
 8.54098e+00 -4.77501e-03 -1.74206e+00 
 8.80720e+00 -4.42915e-03 -1.66235e+00 
 9.07338e+00 -4.07035e-03 -1.58027e+00 
 9.33958e+00 -3.70234e-03 -1.49580e+00 
 9.60576e+00 -3.32923e-03 -1.40894e+00 
 9.87198e+00 -2.95510e-03 -1.31970e+00 
 1.01382e+01 -2.58435e-03 -1.22807e+00 
 1.04045e+01 -2.22131e-03 -1.13405e+00 
 1.06707e+01 -1.87052e-03 -1.03765e+00 
 1.09371e+01 -1.53639e-03 -9.38844e-01 
 1.12034e+01 -1.22345e-03 -8.37651e-01 
 1.14699e+01 -9.36054e-04 -7.34045e-01 
 1.17363e+01 -6.78515e-04 -6.28043e-01 
 1.20029e+01 -4.54918e-04 -5.19617e-01 
 1.22695e+01 -2.69189e-04 -4.08782e-01 
 1.25363e+01 -1.24927e-04 -2.95508e-01 
 1.28031e+01 -2.54734e-05 -1.79812e-01 
 1.30786e+01  1.91223e-02 -2.97207e-02 
-1.28396e+01 -1.87660e-02 -2.97445e-02 
-1.25691e+01  2.09734e-05 -1.79949e-01 
-1.23072e+01  1.03040e-04 -2.95729e-01 
-1.20454e+01  2.22082e-04 -4.09081e-01 
-1.17836e+01  3.75448e-04 -5.19988e-01 
-1.15218e+01  5.60160e-04 -6.28480e-01 
-1.12602e+01  7.72986e-04 -7.34540e-01 
-1.09986e+01  1.01057e-03 -8.38196e-01 
-1.07370e+01  1.26934e-03 -9.39432e-01 
-1.04755e+01  1.54573e-03 -1.03827e+00 
-1.02140e+01  1.83600e-03 -1.13470e+00 
-9.95253e+00  2.13650e-03 -1.22874e+00 
-9.69110e+00  2.44349e-03 -1.32038e+00 
-9.42967e+00  2.75340e-03 -1.40962e+00 
-9.16826e+00  3.06258e-03 -1.49647e+00 
-8.90684e+00  3.36764e-03 -1.58093e+00 
-8.64544e+00  3.66520e-03 -1.66300e+00 
-8.38400e+00  3.95215e-03 -1.74267e+00 
-8.12258e+00  4.22541e-03 -1.81995e+00 
-7.86112e+00  4.48226e-03 -1.89483e+00 
-7.59965e+00  4.72004e-03 -1.96732e+00 
-7.33814e+00  4.93642e-03 -2.03740e+00 
-7.07662e+00  5.12922e-03 -2.10508e+00 
-6.81504e+00  5.29657e-03 -2.17036e+00 
-6.55345e+00  5.43678e-03 -2.23322e+00 
-6.29180e+00  5.54848e-03 -2.29367e+00 
-6.03012e+00  5.63048e-03 -2.35170e+00 
-5.76838e+00  5.68189e-03 -2.40731e+00 
-5.50662e+00  5.70204e-03 -2.46049e+00 
-5.24479e+00  5.69054e-03 -2.51124e+00 
-4.98293e+00  5.64719e-03 -2.55955e+00 
-4.72100e+00  5.57205e-03 -2.60542e+00 
-4.45905e+00  5.46543e-03 -2.64884e+00 
-4.19703e+00  5.32782e-03 -2.68982e+00 
-3.93498e+00  5.15993e-03 -2.72833e+00 
-3.67287e+00  4.96267e-03 -2.76439e+00 
-3.41074e+00  4.73715e-03 -2.79798e+00 
-3.14853e+00  4.48462e-03 -2.82910e+00 
-2.88632e+00  4.20655e-03 -2.85775e+00 
-2.62404e+00  3.90449e-03 -2.88392e+00 
-2.36175e+00  3.58023e-03 -2.90761e+00 
-2.09941e+00  3.23556e-03 -2.92882e+00 
-1.83706e+00  2.87253e-03 -2.94753e+00 
-1.57466e+00  2.49313e-03 -2.96376e+00 
-1.31226e+00  2.09961e-03 -2.97750e+00 
-1.04982e+00  1.69414e-03 -2.98874e+00 
-7.87392e-01  1.27910e-03 -2.99748e+00 
-5.24923e-01  8.56764e-04 -3.00373e+00 
-2.62473e-01  4.29615e-04 -3.00748e+00 
-8.77676e-13  2.67462e-12 -3.00873e+00 
 2.62473e-01 -4.29615e-04 -3.00748e+00 
 5.24923e-01 -8.56764e-04 -3.00373e+00 
 7.87392e-01 -1.27910e-03 -2.99748e+00 
 1.04982e+00 -1.69414e-03 -2.98874e+00 
 1.31226e+00 -2.09961e-03 -2.97750e+00 
 1.57466e+00 -2.49313e-03 -2.96376e+00 
 1.83706e+00 -2.87253e-03 -2.94753e+00 
 2.09941e+00 -3.23556e-03 -2.92882e+00 
 2.36175e+00 -3.58023e-03 -2.90761e+00 
 2.62404e+00 -3.90449e-03 -2.88392e+00 
 2.88632e+00 -4.20655e-03 -2.85775e+00 
 3.14853e+00 -4.48462e-03 -2.82910e+00 
 3.41074e+00 -4.73715e-03 -2.79798e+00 
 3.67287e+00 -4.96267e-03 -2.76439e+00 
 3.93498e+00 -5.15993e-03 -2.72833e+00 
 4.19703e+00 -5.32782e-03 -2.68982e+00 
 4.45905e+00 -5.46543e-03 -2.64884e+00 
 4.72100e+00 -5.57205e-03 -2.60542e+00 
 4.98293e+00 -5.64719e-03 -2.55955e+00 
 5.24479e+00 -5.69054e-03 -2.51124e+00 
 5.50662e+00 -5.70204e-03 -2.46049e+00 
 5.76838e+00 -5.68189e-03 -2.40731e+00 
 6.03012e+00 -5.63048e-03 -2.35170e+00 
 6.29180e+00 -5.54848e-03 -2.29367e+00 
 6.55345e+00 -5.43678e-03 -2.23322e+00 
 6.81504e+00 -5.29657e-03 -2.17036e+00 
 7.07662e+00 -5.12922e-03 -2.10508e+00 
 7.33814e+00 -4.93642e-03 -2.03740e+00 
 7.59965e+00 -4.72004e-03 -1.96732e+00 
 7.86112e+00 -4.48226e-03 -1.89483e+00 
 8.12258e+00 -4.22541e-03 -1.81995e+00 
 8.38400e+00 -3.95215e-03 -1.74267e+00 
 8.64544e+00 -3.66520e-03 -1.66300e+00 
 8.90684e+00 -3.36764e-03 -1.58093e+00 
 9.16826e+00 -3.06258e-03 -1.49647e+00 
 9.42967e+00 -2.75340e-03 -1.40962e+00 
 9.69110e+00 -2.44349e-03 -1.32038e+00 
 9.95253e+00 -2.13650e-03 -1.22874e+00 
 1.02140e+01 -1.83600e-03 -1.13470e+00 
 1.04755e+01 -1.54573e-03 -1.03827e+00 
 1.07370e+01 -1.26934e-03 -9.39432e-01 
 1.09986e+01 -1.01057e-03 -8.38196e-01 
 1.12602e+01 -7.72986e-04 -7.34540e-01 
 1.15218e+01 -5.60160e-04 -6.28480e-01 
 1.17836e+01 -3.75448e-04 -5.19988e-01 
 1.20454e+01 -2.22082e-04 -4.09081e-01 
 1.23072e+01 -1.03040e-04 -2.95729e-01 
 1.25691e+01 -2.09734e-05 -1.79949e-01 
 1.28396e+01  1.87660e-02 -2.97445e-02 
-1.26004e+01 -1.84098e-02 -2.97639e-02 
-1.23350e+01  1.69903e-05 -1.80061e-01 
-1.20780e+01  8.30177e-05 -2.95910e-01 
-1.18210e+01  1.79133e-04 -4.09326e-01 
-1.15641e+01  3.02925e-04 -5.20292e-01 
-1.13072e+01  4.51967e-04 -6.28837e-01 
-1.10504e+01  6.23638e-04 -7.34944e-01 
-1.07936e+01  8.15222e-04 -8.38642e-01 
-1.05369e+01  1.02384e-03 -9.39913e-01 
-1.02802e+01  1.24661e-03 -1.03878e+00 
-1.00235e+01  1.48052e-03 -1.13523e+00 
-9.76684e+00  1.72263e-03 -1.22929e+00 
-9.51021e+00  1.96992e-03 -1.32093e+00 
-9.25357e+00  2.21951e-03 -1.41018e+00 
-8.99696e+00  2.46848e-03 -1.49702e+00 
-8.74033e+00  2.71408e-03 -1.58148e+00 
-8.48372e+00  2.95361e-03 -1.66352e+00 
-8.22708e+00  3.18455e-03 -1.74318e+00 
-7.97045e+00  3.40445e-03 -1.82042e+00 
-7.71379e+00  3.61109e-03 -1.89528e+00 
-7.45713e+00  3.80236e-03 -1.96772e+00 
-7.20042e+00  3.97638e-03 -2.03777e+00 
-6.94372e+00  4.13139e-03 -2.10541e+00 
-6.68696e+00  4.26590e-03 -2.17064e+00 
-6.43020e+00  4.37856e-03 -2.23345e+00 
-6.17338e+00  4.46825e-03 -2.29385e+00 
-5.91655e+00  4.53403e-03 -2.35182e+00 
-5.65966e+00  4.57520e-03 -2.40738e+00 
-5.40276e+00  4.59120e-03 -2.46050e+00 
-5.14579e+00  4.58172e-03 -2.51119e+00 
-4.88881e+00  4.54662e-03 -2.55944e+00 
-4.63177e+00  4.48595e-03 -2.60526e+00 
-4.37472e+00  4.39994e-03 -2.64862e+00 
-4.11760e+00  4.28900e-03 -2.68954e+00 
-3.86047e+00  4.15371e-03 -2.72800e+00 
-3.60328e+00  3.99480e-03 -2.76401e+00 
-3.34608e+00  3.81316e-03 -2.79755e+00 
-3.08882e+00  3.60979e-03 -2.82863e+00 
-2.83155e+00  3.38589e-03 -2.85723e+00 
-2.57423e+00  3.14269e-03 -2.88336e+00 
-2.31690e+00  2.88164e-03 -2.90701e+00 
-2.05952e+00  2.60418e-03 -2.92818e+00 
-1.80215e+00  2.31195e-03 -2.94687e+00 
-1.54473e+00  2.00657e-03 -2.96307e+00 
-1.28731e+00  1.68984e-03 -2.97678e+00 
-1.02986e+00  1.36349e-03 -2.98800e+00 
-7.72414e-01  1.02944e-03 -2.99673e+00 
-5.14937e-01  6.89537e-04 -3.00297e+00 
-2.57480e-01  3.45760e-04 -3.00671e+00 
-1.14728e-12  3.50263e-12 -3.00796e+00 
 2.57480e-01 -3.45760e-04 -3.00671e+00 
 5.14937e-01 -6.89537e-04 -3.00297e+00 
 7.72414e-01 -1.02944e-03 -2.99673e+00 
 1.02986e+00 -1.36349e-03 -2.98800e+00 
 1.28731e+00 -1.68984e-03 -2.97678e+00 
 1.54473e+00 -2.00657e-03 -2.96307e+00 
 1.80215e+00 -2.31195e-03 -2.94687e+00 
 2.05952e+00 -2.60418e-03 -2.92818e+00 
 2.31690e+00 -2.88164e-03 -2.90701e+00 
 2.57423e+00 -3.14269e-03 -2.88336e+00 
 2.83155e+00 -3.38589e-03 -2.85723e+00 
 3.08882e+00 -3.60979e-03 -2.82863e+00 
 3.34608e+00 -3.81316e-03 -2.79755e+00 
 3.60328e+00 -3.99480e-03 -2.76401e+00 
 3.86047e+00 -4.15371e-03 -2.72800e+00 
 4.11760e+00 -4.28900e-03 -2.68954e+00 
 4.37472e+00 -4.39994e-03 -2.64862e+00 
 4.63177e+00 -4.48595e-03 -2.60526e+00 
 4.88881e+00 -4.54662e-03 -2.55944e+00 
 5.14579e+00 -4.58172e-03 -2.51119e+00 
 5.40276e+00 -4.59120e-03 -2.46050e+00 
 5.65966e+00 -4.57520e-03 -2.40738e+00 
 5.91655e+00 -4.53403e-03 -2.35182e+00 
 6.17338e+00 -4.46825e-03 -2.29385e+00 
 6.43020e+00 -4.37856e-03 -2.23345e+00 
 6.68696e+00 -4.26590e-03 -2.17064e+00 
 6.94372e+00 -4.13139e-03 -2.10541e+00 
 7.20042e+00 -3.97638e-03 -2.03777e+00 
 7.45713e+00 -3.80236e-03 -1.96772e+00 
 7.71379e+00 -3.61109e-03 -1.89528e+00 
 7.97045e+00 -3.40445e-03 -1.82042e+00 
 8.22708e+00 -3.18455e-03 -1.74318e+00 
 8.48372e+00 -2.95361e-03 -1.66352e+00 
 8.74033e+00 -2.71408e-03 -1.58148e+00 
 8.99696e+00 -2.46848e-03 -1.49702e+00 
 9.25357e+00 -2.21951e-03 -1.41018e+00 
 9.51021e+00 -1.96992e-03 -1.32093e+00 
 9.76684e+00 -1.72263e-03 -1.22929e+00 
 1.00235e+01 -1.48052e-03 -1.13523e+00 
 1.02802e+01 -1.24661e-03 -1.03878e+00 
 1.05369e+01 -1.02384e-03 -9.39913e-01 
 1.07936e+01 -8.15222e-04 -8.38642e-01 
 1.10504e+01 -6.23638e-04 -7.34944e-01 
 1.13072e+01 -4.51967e-04 -6.28837e-01 
 1.15641e+01 -3.02925e-04 -5.20292e-01 
 1.18210e+01 -1.79133e-04 -4.09326e-01 
 1.20780e+01 -8.30177e-05 -2.95910e-01 
 1.23350e+01 -1.69903e-05 -1.80061e-01 
 1.26004e+01  1.84098e-02 -2.97639e-02 
-1.23611e+01 -1.80530e-02 -2.97793e-02 
-1.21008e+01  1.24544e-05 -1.80150e-01 
-1.18487e+01  6.44935e-05 -2.96053e-01 
-1.15966e+01  1.39577e-04 -4.09520e-01 
-1.13446e+01  2.36034e-04 -5.20533e-01 
-1.10925e+01  3.51961e-04 -6.29120e-01 
-1.08406e+01  4.85303e-04 -7.35265e-01 
-1.05886e+01  6.33927e-04 -8.38995e-01 
-1.03367e+01  7.95582e-04 -9.40294e-01 
-1.00848e+01  9.68011e-04 -1.03918e+00 
-9.83299e+00  1.14887e-03 -1.13565e+00 
-9.58113e+00  1.33588e-03 -1.22972e+00 
-9.32931e+00  1.52669e-03 -1.32137e+00 
-9.07748e+00  1.71907e-03 -1.41062e+00 
-8.82567e+00  1.91077e-03 -1.49746e+00 
-8.57384e+00  2.09969e-03 -1.58190e+00 
-8.32203e+00  2.28372e-03 -1.66394e+00 
-8.07020e+00  2.46096e-03 -1.74357e+00 
-7.81838e+00  2.62953e-03 -1.82080e+00 
-7.56652e+00  2.78773e-03 -1.89563e+00 
-7.31467e+00  2.93395e-03 -1.96805e+00 
-7.06278e+00  3.06678e-03 -2.03806e+00 
-6.81090e+00  3.18487e-03 -2.10566e+00 
-6.55896e+00  3.28712e-03 -2.17085e+00 
-6.30703e+00  3.37249e-03 -2.23362e+00 
-6.05505e+00  3.44016e-03 -2.29398e+00 
-5.80307e+00  3.48943e-03 -2.35191e+00 
-5.55103e+00  3.51978e-03 -2.40743e+00 
-5.29899e+00  3.53080e-03 -2.46050e+00 
-5.04690e+00  3.52229e-03 -2.51115e+00 
-4.79480e+00  3.49414e-03 -2.55936e+00 
-4.54264e+00  3.44643e-03 -2.60513e+00 
-4.29049e+00  3.37934e-03 -2.64845e+00 
-4.03827e+00  3.29320e-03 -2.68933e+00 
-3.78605e+00  3.18847e-03 -2.72774e+00 
-3.53378e+00  3.06571e-03 -2.76371e+00 
-3.28151e+00  2.92562e-03 -2.79721e+00 
-3.02918e+00  2.76899e-03 -2.82825e+00 
-2.77686e+00  2.59671e-03 -2.85682e+00 
-2.52448e+00  2.40976e-03 -2.88291e+00 
-2.27211e+00  2.20922e-03 -2.90653e+00 
-2.01970e+00  1.99621e-03 -2.92768e+00 
-1.76729e+00  1.77197e-03 -2.94634e+00 
-1.51484e+00  1.53773e-03 -2.96252e+00 
-1.26240e+00  1.29488e-03 -2.97621e+00 
-1.00992e+00  1.04472e-03 -2.98742e+00 
-7.57460e-01  7.88723e-04 -2.99614e+00 
-5.04967e-01  5.28275e-04 -3.00237e+00 
-2.52494e-01  2.64890e-04 -3.00610e+00 
-8.81490e-13  2.83689e-12 -3.00735e+00 
 2.52494e-01 -2.64890e-04 -3.00610e+00 
 5.04967e-01 -5.28275e-04 -3.00237e+00 
 7.57460e-01 -7.88723e-04 -2.99614e+00 
 1.00992e+00 -1.04472e-03 -2.98742e+00 
 1.26240e+00 -1.29488e-03 -2.97621e+00 
 1.51484e+00 -1.53773e-03 -2.96252e+00 
 1.76729e+00 -1.77197e-03 -2.94634e+00 
 2.01970e+00 -1.99621e-03 -2.92768e+00 
 2.27211e+00 -2.20922e-03 -2.90653e+00 
 2.52448e+00 -2.40976e-03 -2.88291e+00 
 2.77686e+00 -2.59671e-03 -2.85682e+00 
 3.02918e+00 -2.76899e-03 -2.82825e+00 
 3.28151e+00 -2.92562e-03 -2.79721e+00 
 3.53378e+00 -3.06571e-03 -2.76371e+00 
 3.78605e+00 -3.18847e-03 -2.72774e+00 
 4.03827e+00 -3.29320e-03 -2.68933e+00 
 4.29049e+00 -3.37934e-03 -2.64845e+00 
 4.54264e+00 -3.44643e-03 -2.60513e+00 
 4.79480e+00 -3.49414e-03 -2.55936e+00 
 5.04690e+00 -3.52229e-03 -2.51115e+00 
 5.29899e+00 -3.53080e-03 -2.46050e+00 
 5.55103e+00 -3.51978e-03 -2.40743e+00 
 5.80307e+00 -3.48943e-03 -2.35191e+00 
 6.05505e+00 -3.44016e-03 -2.29398e+00 
 6.30703e+00 -3.37249e-03 -2.23362e+00 
 6.55896e+00 -3.28712e-03 -2.17085e+00 
 6.81090e+00 -3.18487e-03 -2.10566e+00 
 7.06278e+00 -3.06678e-03 -2.03806e+00 
 7.31467e+00 -2.93395e-03 -1.96805e+00 
 7.56652e+00 -2.78773e-03 -1.89563e+00 
 7.81838e+00 -2.62953e-03 -1.82080e+00 
 8.07020e+00 -2.46096e-03 -1.74357e+00 
 8.32203e+00 -2.28372e-03 -1.66394e+00 
 8.57384e+00 -2.09969e-03 -1.58190e+00 
 8.82567e+00 -1.91077e-03 -1.49746e+00 
 9.07748e+00 -1.71907e-03 -1.41062e+00 
 9.32931e+00 -1.52669e-03 -1.32137e+00 
 9.58113e+00 -1.33588e-03 -1.22972e+00 
 9.83299e+00 -1.14887e-03 -1.13565e+00 
 1.00848e+01 -9.68011e-04 -1.03918e+00 
 1.03367e+01 -7.95582e-04 -9.40294e-01 
 1.05886e+01 -6.33927e-04 -8.38995e-01 
 1.08406e+01 -4.85303e-04 -7.35265e-01 
 1.10925e+01 -3.51961e-04 -6.29120e-01 
 1.13446e+01 -2.36034e-04 -5.20533e-01 
 1.15966e+01 -1.39577e-04 -4.09520e-01 
 1.18487e+01 -6.44935e-05 -2.96053e-01 
 1.21008e+01 -1.24544e-05 -1.80150e-01 
 1.23611e+01  1.80530e-02 -2.97793e-02 
-1.21217e+01 -1.77044e-02 -2.97840e-02 
-1.18665e+01  6.01853e-06 -1.80214e-01 
-1.16193e+01  4.46763e-05 -2.96159e-01 
-1.13721e+01  9.99990e-05 -4.09664e-01 
-1.11249e+01  1.70727e-04 -5.20712e-01 
-1.08778e+01  2.55436e-04 -6.29330e-01 
-1.06307e+01  3.52571e-04 -7.35504e-01 
-1.03836e+01  4.60530e-04 -8.39258e-01 
-1.01365e+01  5.77630e-04 -9.40576e-01 
-9.88947e+00  7.02196e-04 -1.03948e+00 
-9.64245e+00  8.32502e-04 -1.13596e+00 
-9.39541e+00  9.66877e-04 -1.23004e+00 
-9.14841e+00  1.10362e-03 -1.32169e+00 
-8.90139e+00  1.24111e-03 -1.41094e+00 
-8.65440e+00  1.37775e-03 -1.49778e+00 
-8.40738e+00  1.51202e-03 -1.58222e+00 
-8.16038e+00  1.64245e-03 -1.66424e+00 
-7.91335e+00  1.76768e-03 -1.74386e+00 
-7.66634e+00  1.88640e-03 -1.82107e+00 
-7.41930e+00  1.99744e-03 -1.89588e+00 
-7.17227e+00  2.09967e-03 -1.96828e+00 
-6.92520e+00  2.19214e-03 -2.03827e+00 
-6.67814e+00  2.27394e-03 -2.10584e+00 
-6.43104e+00  2.34431e-03 -2.17101e+00 
-6.18394e+00  2.40258e-03 -2.23375e+00 
-5.93680e+00  2.44820e-03 -2.29408e+00 
-5.68967e+00  2.48071e-03 -2.35198e+00 
-5.44249e+00  2.49981e-03 -2.40745e+00 
-5.19531e+00  2.50525e-03 -2.46050e+00 
-4.94809e+00  2.49691e-03 -2.51111e+00 
-4.70086e+00  2.47478e-03 -2.55929e+00 
-4.45360e+00  2.43893e-03 -2.60503e+00 
-4.20633e+00  2.38954e-03 -2.64831e+00 
-3.95902e+00  2.32685e-03 -2.68916e+00 
-3.71171e+00  2.25123e-03 -2.72755e+00 
-3.46435e+00  2.16309e-03 -2.76348e+00 
-3.21700e+00  2.06294e-03 -2.79695e+00 
-2.96961e+00  1.95133e-03 -2.82796e+00 
-2.72222e+00  1.82893e-03 -2.85651e+00 
-2.47479e+00  1.69640e-03 -2.88258e+00 
-2.22737e+00  1.55452e-03 -2.90618e+00 
-1.97991e+00  1.40406e-03 -2.92730e+00 
-1.73247e+00  1.24588e-03 -2.94595e+00 
-1.48498e+00  1.08085e-03 -2.96211e+00 
-1.23751e+00  9.09904e-04 -2.97579e+00 
-9.90008e-01  7.33960e-04 -2.98699e+00 
-7.42523e-01  5.54015e-04 -2.99570e+00 
-4.95008e-01  3.71026e-04 -3.00192e+00 
-2.47514e-01  1.86027e-04 -3.00565e+00 
-2.05861e-12  1.14854e-12 -3.00690e+00 
 2.47514e-01 -1.86027e-04 -3.00565e+00 
 4.95008e-01 -3.71026e-04 -3.00192e+00 
 7.42523e-01 -5.54015e-04 -2.99570e+00 
 9.90008e-01 -7.33960e-04 -2.98699e+00 
 1.23751e+00 -9.09904e-04 -2.97579e+00 
 1.48498e+00 -1.08085e-03 -2.96211e+00 
 1.73247e+00 -1.24588e-03 -2.94595e+00 
 1.97991e+00 -1.40406e-03 -2.92730e+00 
 2.22737e+00 -1.55452e-03 -2.90618e+00 
 2.47479e+00 -1.69640e-03 -2.88258e+00 
 2.72222e+00 -1.82893e-03 -2.85651e+00 
 2.96961e+00 -1.95133e-03 -2.82796e+00 
 3.21700e+00 -2.06294e-03 -2.79695e+00 
 3.46435e+00 -2.16309e-03 -2.76348e+00 
 3.71171e+00 -2.25123e-03 -2.72755e+00 
 3.95902e+00 -2.32685e-03 -2.68916e+00 
 4.20633e+00 -2.38954e-03 -2.64831e+00 
 4.45360e+00 -2.43893e-03 -2.60503e+00 
 4.70086e+00 -2.47478e-03 -2.55929e+00 
 4.94809e+00 -2.49691e-03 -2.51111e+00 
 5.19531e+00 -2.50525e-03 -2.46050e+00 
 5.44249e+00 -2.49981e-03 -2.40745e+00 
 5.68967e+00 -2.48071e-03 -2.35198e+00 
 5.93680e+00 -2.44820e-03 -2.29408e+00 
 6.18394e+00 -2.40258e-03 -2.23375e+00 
 6.43104e+00 -2.34431e-03 -2.17101e+00 
 6.67814e+00 -2.27394e-03 -2.10584e+00 
 6.92520e+00 -2.19214e-03 -2.03827e+00 
 7.17227e+00 -2.09967e-03 -1.96828e+00 
 7.41930e+00 -1.99744e-03 -1.89588e+00 
 7.66634e+00 -1.88640e-03 -1.82107e+00 
 7.91335e+00 -1.76768e-03 -1.74386e+00 
 8.16038e+00 -1.64245e-03 -1.66424e+00 
 8.40738e+00 -1.51202e-03 -1.58222e+00 
 8.65440e+00 -1.37775e-03 -1.49778e+00 
 8.90139e+00 -1.24111e-03 -1.41094e+00 
 9.14841e+00 -1.10362e-03 -1.32169e+00 
 9.39541e+00 -9.66877e-04 -1.23004e+00 
 9.64245e+00 -8.32502e-04 -1.13596e+00 
 9.88947e+00 -7.02196e-04 -1.03948e+00 
 1.01365e+01 -5.77630e-04 -9.40576e-01 
 1.03836e+01 -4.60530e-04 -8.39258e-01 
 1.06307e+01 -3.52571e-04 -7.35504e-01 
 1.08778e+01 -2.55436e-04 -6.29330e-01 
 1.11249e+01 -1.70727e-04 -5.20712e-01 
 1.13721e+01 -9.99990e-05 -4.09664e-01 
 1.16193e+01 -4.46763e-05 -2.96159e-01 
 1.18665e+01 -6.01853e-06 -1.80214e-01 
 1.21217e+01  1.77044e-02 -2.97840e-02 
-1.18822e+01 -1.73375e-02 -2.98024e-02 
-1.16321e+01  7.60580e-06 -1.80268e-01 
-1.13898e+01  3.25098e-05 -2.96241e-01 
-1.11475e+01  6.84131e-05 -4.09772e-01 
-1.09052e+01  1.14176e-04 -5.20843e-01 
-1.06629e+01  1.68698e-04 -6.29483e-01 
-1.04207e+01  2.30832e-04 -7.35675e-01 
-1.01785e+01  2.99449e-04 -8.39445e-01 
-9.93627e+00  3.73380e-04 -9.40776e-01 
-9.69405e+00  4.51503e-04 -1.03969e+00 
-9.45187e+00  5.32667e-04 -1.13618e+00 
-9.20966e+00  6.15793e-04 -1.23026e+00 
-8.96749e+00  6.99786e-04 -1.32192e+00 
-8.72529e+00  7.83642e-04 -1.41117e+00 
-8.48311e+00  8.66354e-04 -1.49800e+00 
-8.24091e+00  9.47019e-04 -1.58243e+00 
-7.99873e+00  1.02474e-03 -1.66445e+00 
-7.75652e+00  1.09874e-03 -1.74406e+00 
-7.51433e+00  1.16824e-03 -1.82126e+00 
-7.27210e+00  1.23261e-03 -1.89606e+00 
-7.02989e+00  1.29120e-03 -1.96843e+00 
-6.78765e+00  1.34351e-03 -2.03841e+00 
-6.54541e+00  1.38905e-03 -2.10596e+00 
-6.30315e+00  1.42745e-03 -2.17111e+00 
-6.06089e+00  1.45838e-03 -2.23383e+00 
-5.81859e+00  1.48158e-03 -2.29414e+00 
-5.57631e+00  1.49687e-03 -2.35202e+00 
-5.33398e+00  1.50413e-03 -2.40747e+00 
-5.09167e+00  1.50329e-03 -2.46050e+00 
-4.84932e+00  1.49435e-03 -2.51109e+00 
-4.60697e+00  1.47736e-03 -2.55924e+00 
-4.36459e+00  1.45245e-03 -2.60496e+00 
-4.12222e+00  1.41974e-03 -2.64823e+00 
-3.87981e+00  1.37946e-03 -2.68905e+00 
-3.63741e+00  1.33185e-03 -2.72742e+00 
-3.39497e+00  1.27720e-03 -2.76333e+00 
-3.15254e+00  1.21582e-03 -2.79679e+00 
-2.91007e+00  1.14807e-03 -2.82778e+00 
-2.66762e+00  1.07434e-03 -2.85631e+00 
-2.42514e+00  9.95031e-04 -2.88236e+00 
-2.18266e+00  9.10592e-04 -2.90595e+00 
-1.94016e+00  8.21472e-04 -2.92706e+00 
-1.69767e+00  7.28152e-04 -2.94569e+00 
-1.45515e+00  6.31117e-04 -2.96185e+00 
-1.21264e+00  5.30882e-04 -2.97552e+00 
-9.70111e-01  4.27953e-04 -2.98671e+00 
-7.27597e-01  3.22868e-04 -2.99541e+00 
-4.85057e-01  2.16149e-04 -3.00163e+00 
-2.42538e-01  1.08349e-04 -3.00536e+00 
-1.36032e-12  4.76412e-12 -3.00661e+00 
 2.42538e-01 -1.08349e-04 -3.00536e+00 
 4.85057e-01 -2.16149e-04 -3.00163e+00 
 7.27597e-01 -3.22868e-04 -2.99541e+00 
 9.70111e-01 -4.27953e-04 -2.98671e+00 
 1.21264e+00 -5.30882e-04 -2.97552e+00 
 1.45515e+00 -6.31117e-04 -2.96185e+00 
 1.69767e+00 -7.28152e-04 -2.94569e+00 
 1.94016e+00 -8.21472e-04 -2.92706e+00 
 2.18266e+00 -9.10592e-04 -2.90595e+00 
 2.42514e+00 -9.95031e-04 -2.88236e+00 
 2.66762e+00 -1.07434e-03 -2.85631e+00 
 2.91007e+00 -1.14807e-03 -2.82778e+00 
 3.15254e+00 -1.21582e-03 -2.79679e+00 
 3.39497e+00 -1.27720e-03 -2.76333e+00 
 3.63741e+00 -1.33185e-03 -2.72742e+00 
 3.87981e+00 -1.37946e-03 -2.68905e+00 
 4.12222e+00 -1.41974e-03 -2.64823e+00 
 4.36459e+00 -1.45245e-03 -2.60496e+00 
 4.60697e+00 -1.47736e-03 -2.55924e+00 
 4.84932e+00 -1.49435e-03 -2.51109e+00 
 5.09167e+00 -1.50329e-03 -2.46050e+00 
 5.33398e+00 -1.50413e-03 -2.40747e+00 
 5.57631e+00 -1.49687e-03 -2.35202e+00 
 5.81859e+00 -1.48158e-03 -2.29414e+00 
 6.06089e+00 -1.45838e-03 -2.23383e+00 
 6.30315e+00 -1.42745e-03 -2.17111e+00 
 6.54541e+00 -1.38905e-03 -2.10596e+00 
 6.78765e+00 -1.34351e-03 -2.03841e+00 
 7.02989e+00 -1.29120e-03 -1.96843e+00 
 7.27210e+00 -1.23261e-03 -1.89606e+00 
 7.51433e+00 -1.16824e-03 -1.82126e+00 
 7.75652e+00 -1.09874e-03 -1.74406e+00 
 7.99873e+00 -1.02474e-03 -1.66445e+00 
 8.24091e+00 -9.47019e-04 -1.58243e+00 
 8.48311e+00 -8.66354e-04 -1.49800e+00 
 8.72529e+00 -7.83642e-04 -1.41117e+00 
 8.96749e+00 -6.99786e-04 -1.32192e+00 
 9.20966e+00 -6.15793e-04 -1.23026e+00 
 9.45187e+00 -5.32667e-04 -1.13618e+00 
 9.69405e+00 -4.51503e-04 -1.03969e+00 
 9.93627e+00 -3.73380e-04 -9.40776e-01 
 1.01785e+01 -2.99449e-04 -8.39445e-01 
 1.04207e+01 -2.30832e-04 -7.35675e-01 
 1.06629e+01 -1.68698e-04 -6.29483e-01 
 1.09052e+01 -1.14176e-04 -5.20843e-01 
 1.11475e+01 -6.84130e-05 -4.09772e-01 
 1.13898e+01 -3.25098e-05 -2.96241e-01 
 1.16321e+01 -7.60580e-06 -1.80268e-01 
 1.18822e+01  1.73375e-02 -2.98024e-02 
-1.16427e+01 -1.69808e-02 -2.98088e-02 
-1.13976e+01  7.77534e-06 -1.80299e-01 
-1.11602e+01  2.00265e-05 -2.96289e-01 
-1.09228e+01  3.72926e-05 -4.09835e-01 
-1.06855e+01  5.88209e-05 -5.20920e-01 
-1.04481e+01  8.38704e-05 -6.29572e-01 
-1.02107e+01  1.11724e-04 -7.35773e-01 
-9.97334e+00  1.41708e-04 -8.39551e-01 
-9.73600e+00  1.73172e-04 -9.40888e-01 
-9.49863e+00  2.05518e-04 -1.03981e+00 
-9.26128e+00  2.38173e-04 -1.13630e+00 
-9.02391e+00  2.70625e-04 -1.23038e+00 
-8.78657e+00  3.02389e-04 -1.32204e+00 
-8.54919e+00  3.33047e-04 -1.41129e+00 
-8.31184e+00  3.62209e-04 -1.49811e+00 
-8.07446e+00  3.89549e-04 -1.58254e+00 
-7.83710e+00  4.14775e-04 -1.66455e+00 
-7.59971e+00  4.37654e-04 -1.74416e+00 
-7.36233e+00  4.57984e-04 -1.82135e+00 
-7.12493e+00  4.75621e-04 -1.89614e+00 
-6.88754e+00  4.90448e-04 -1.96851e+00 
-6.65012e+00  5.02399e-04 -2.03847e+00 
-6.41272e+00  5.11432e-04 -2.10602e+00 
-6.17529e+00  5.17548e-04 -2.17115e+00 
-5.93787e+00  5.20770e-04 -2.23386e+00 
-5.70042e+00  5.21154e-04 -2.29416e+00 
-5.46298e+00  5.18773e-04 -2.35203e+00 
-5.22552e+00  5.13725e-04 -2.40748e+00 
-4.98806e+00  5.06121e-04 -2.46049e+00 
-4.75058e+00  4.96087e-04 -2.51107e+00 
-4.51312e+00  4.83761e-04 -2.55921e+00 
-4.27562e+00  4.69287e-04 -2.60492e+00 
-4.03814e+00  4.52814e-04 -2.64818e+00 
-3.80063e+00  4.34494e-04 -2.68899e+00 
-3.56313e+00  4.14480e-04 -2.72735e+00 
-3.32561e+00  3.92921e-04 -2.76326e+00 
-3.08810e+00  3.69967e-04 -2.79670e+00 
-2.85056e+00  3.45757e-04 -2.82769e+00 
-2.61305e+00  3.20432e-04 -2.85621e+00 
-2.37550e+00  2.94118e-04 -2.88226e+00 
-2.13797e+00  2.66940e-04 -2.90584e+00 
-1.90042e+00  2.39011e-04 -2.92695e+00 
-1.66289e+00  2.10441e-04 -2.94557e+00 
-1.42533e+00  1.81325e-04 -2.96172e+00 
-1.18779e+00  1.51761e-04 -2.97539e+00 
-9.50222e-01  1.21829e-04 -2.98658e+00 
-7.12678e-01  9.16154e-05 -2.99528e+00 
-4.75110e-01  6.11901e-05 -3.00150e+00 
-2.37564e-01  3.06297e-05 -3.00523e+00 
-1.04667e-12  3.50458e-12 -3.00647e+00 
 2.37564e-01 -3.06297e-05 -3.00523e+00 
 4.75110e-01 -6.11901e-05 -3.00150e+00 
 7.12678e-01 -9.16154e-05 -2.99528e+00 
 9.50222e-01 -1.21829e-04 -2.98658e+00 
 1.18779e+00 -1.51761e-04 -2.97539e+00 
 1.42533e+00 -1.81325e-04 -2.96172e+00 
 1.66289e+00 -2.10441e-04 -2.94557e+00 
 1.90042e+00 -2.39011e-04 -2.92695e+00 
 2.13797e+00 -2.66940e-04 -2.90584e+00 
 2.37550e+00 -2.94118e-04 -2.88226e+00 
 2.61305e+00 -3.20432e-04 -2.85621e+00 
 2.85056e+00 -3.45757e-04 -2.82769e+00 
 3.08810e+00 -3.69967e-04 -2.79670e+00 
 3.32561e+00 -3.92921e-04 -2.76326e+00 
 3.56313e+00 -4.14480e-04 -2.72735e+00 
 3.80063e+00 -4.34494e-04 -2.68899e+00 
 4.03814e+00 -4.52814e-04 -2.64818e+00 
 4.27562e+00 -4.69287e-04 -2.60492e+00 
 4.51312e+00 -4.83761e-04 -2.55921e+00 
 4.75058e+00 -4.96087e-04 -2.51107e+00 
 4.98806e+00 -5.06121e-04 -2.46049e+00 
 5.22552e+00 -5.13725e-04 -2.40748e+00 
 5.46298e+00 -5.18773e-04 -2.35203e+00 
 5.70042e+00 -5.21154e-04 -2.29416e+00 
 5.93787e+00 -5.20770e-04 -2.23386e+00 
 6.17529e+00 -5.17548e-04 -2.17115e+00 
 6.41272e+00 -5.11432e-04 -2.10602e+00 
 6.65012e+00 -5.02399e-04 -2.03847e+00 
 6.88754e+00 -4.90448e-04 -1.96851e+00 
 7.12493e+00 -4.75621e-04 -1.89614e+00 
 7.36233e+00 -4.57984e-04 -1.82135e+00 
 7.59971e+00 -4.37654e-04 -1.74416e+00 
 7.83710e+00 -4.14775e-04 -1.66455e+00 
 8.07446e+00 -3.89549e-04 -1.58254e+00 
 8.31184e+00 -3.62209e-04 -1.49811e+00 
 8.54919e+00 -3.33047e-04 -1.41129e+00 
 8.78657e+00 -3.02389e-04 -1.32204e+00 
 9.02391e+00 -2.70625e-04 -1.23038e+00 
 9.26128e+00 -2.38173e-04 -1.13630e+00 
 9.49863e+00 -2.05518e-04 -1.03981e+00 
 9.73600e+00 -1.73172e-04 -9.40888e-01 
 9.97334e+00 -1.41708e-04 -8.39551e-01 
 1.02107e+01 -1.11724e-04 -7.35773e-01 
 1.04481e+01 -8.38704e-05 -6.29572e-01 
 1.06855e+01 -5.88209e-05 -5.20920e-01 
 1.09228e+01 -3.72926e-05 -4.09835e-01 
 1.11602e+01 -2.00265e-05 -2.96289e-01 
 1.13976e+01 -7.77534e-06 -1.80299e-01 
 1.16427e+01  1.69808e-02 -2.98088e-02 
-1.14031e+01 -1.66271e-02 -2.98084e-02 
-1.11631e+01  3.51430e-07 -1.80306e-01 
-1.09307e+01  7.41706e-07 -2.96300e-01 
-1.06982e+01 -1.23969e-07 -4.09850e-01 
-1.04657e+01 -2.50244e-06 -5.20936e-01 
-1.02332e+01 -6.71594e-06 -6.29589e-01 
-1.00007e+01 -1.30284e-05 -7.35791e-01 
-9.76823e+00 -2.16456e-05 -8.39568e-01 
-9.53574e+00 -3.26964e-05 -9.40904e-01 
-9.30322e+00 -4.62503e-05 -1.03982e+00 
-9.07071e+00 -6.23006e-05 -1.13631e+00 
-8.83818e+00 -8.07892e-05 -1.23039e+00 
-8.60567e+00 -1.01587e-04 -1.32204e+00 
-8.37312e+00 -1.24523e-04 -1.41129e+00 
-8.14059e+00 -1.49365e-04 -1.49811e+00 
-7.90803e+00 -1.75853e-04 -1.58254e+00 
-7.67549e+00 -2.03671e-04 -1.66454e+00 
-7.44292e+00 -2.32491e-04 -1.74415e+00 
-7.21036e+00 -2.61942e-04 -1.82134e+00 
-6.97778e+00 -2.91652e-04 -1.89612e+00 
-6.74521e+00 -3.21216e-04 -1.96849e+00 
-6.51262e+00 -3.50245e-04 -2.03845e+00 
-6.28005e+00 -3.78327e-04 -2.10599e+00 
-6.04745e+00 -4.05076e-04 -2.17113e+00 
-5.81487e+00 -4.30096e-04 -2.23384e+00 
-5.58226e+00 -4.53028e-04 -2.29414e+00 
-5.34968e+00 -4.73514e-04 -2.35200e+00 
-5.11707e+00 -4.91238e-04 -2.40745e+00 
-4.88448e+00 -5.05897e-04 -2.46046e+00 
-4.65186e+00 -5.17237e-04 -2.51105e+00 
-4.41927e+00 -5.25026e-04 -2.55919e+00 
-4.18666e+00 -5.29083e-04 -2.60490e+00 
-3.95407e+00 -5.29254e-04 -2.64816e+00 
-3.72146e+00 -5.25442e-04 -2.68897e+00 
-3.48887e+00 -5.17580e-04 -2.72733e+00 
-3.25626e+00 -5.05657e-04 -2.76324e+00 
-3.02367e+00 -4.89697e-04 -2.79669e+00 
-2.79106e+00 -4.69773e-04 -2.82768e+00 
-2.55848e+00 -4.45997e-04 -2.85620e+00 
-2.32587e+00 -4.18528e-04 -2.88226e+00 
-2.09329e+00 -3.87561e-04 -2.90584e+00 
-1.86069e+00 -3.53328e-04 -2.92695e+00 
-1.62811e+00 -3.16099e-04 -2.94558e+00 
-1.39551e+00 -2.76173e-04 -2.96173e+00 
-1.16293e+00 -2.33882e-04 -2.97540e+00 
-9.30336e-01 -1.89577e-04 -2.98659e+00 
-6.97761e-01 -1.43638e-04 -2.99529e+00 
-4.65164e-01 -9.64550e-05 -3.00151e+00 
-2.32591e-01 -4.84386e-05 -3.00524e+00 
-1.28913e-13  2.26344e-12 -3.00648e+00 
 2.32591e-01  4.84386e-05 -3.00524e+00 
 4.65164e-01  9.64550e-05 -3.00151e+00 
 6.97761e-01  1.43639e-04 -2.99529e+00 
 9.30336e-01  1.89577e-04 -2.98659e+00 
 1.16293e+00  2.33882e-04 -2.97540e+00 
 1.39551e+00  2.76173e-04 -2.96173e+00 
 1.62811e+00  3.16099e-04 -2.94558e+00 
 1.86069e+00  3.53328e-04 -2.92695e+00 
 2.09329e+00  3.87561e-04 -2.90584e+00 
 2.32587e+00  4.18528e-04 -2.88226e+00 
 2.55848e+00  4.45997e-04 -2.85620e+00 
 2.79106e+00  4.69773e-04 -2.82768e+00 
 3.02367e+00  4.89697e-04 -2.79669e+00 
 3.25626e+00  5.05657e-04 -2.76324e+00 
 3.48887e+00  5.17580e-04 -2.72733e+00 
 3.72146e+00  5.25442e-04 -2.68897e+00 
 3.95407e+00  5.29254e-04 -2.64816e+00 
 4.18666e+00  5.29083e-04 -2.60490e+00 
 4.41927e+00  5.25026e-04 -2.55919e+00 
 4.65186e+00  5.17237e-04 -2.51105e+00 
 4.88448e+00  5.05897e-04 -2.46046e+00 
 5.11707e+00  4.91238e-04 -2.40745e+00 
 5.34968e+00  4.73514e-04 -2.35200e+00 
 5.58226e+00  4.53028e-04 -2.29414e+00 
 5.81487e+00  4.30096e-04 -2.23384e+00 
 6.04745e+00  4.05076e-04 -2.17113e+00 
 6.28005e+00  3.78327e-04 -2.10599e+00 
 6.51262e+00  3.50245e-04 -2.03845e+00 
 6.74521e+00  3.21216e-04 -1.96849e+00 
 6.97778e+00  2.91652e-04 -1.89612e+00 
 7.21036e+00  2.61942e-04 -1.82134e+00 
 7.44292e+00  2.32491e-04 -1.74415e+00 
 7.67549e+00  2.03671e-04 -1.66454e+00 
 7.90803e+00  1.75853e-04 -1.58254e+00 
 8.14059e+00  1.49365e-04 -1.49811e+00 
 8.37312e+00  1.24523e-04 -1.41129e+00 
 8.60567e+00  1.01587e-04 -1.32204e+00 
 8.83818e+00  8.07892e-05 -1.23039e+00 
 9.07071e+00  6.23006e-05 -1.13631e+00 
 9.30322e+00  4.62503e-05 -1.03982e+00 
 9.53574e+00  3.26964e-05 -9.40904e-01 
 9.76823e+00  2.16456e-05 -8.39568e-01 
 1.00007e+01  1.30284e-05 -7.35791e-01 
 1.02332e+01  6.71594e-06 -6.29589e-01 
 1.04657e+01  2.50244e-06 -5.20936e-01 
 1.06982e+01  1.23964e-07 -4.09850e-01 
 1.09307e+01 -7.41704e-07 -2.96300e-01 
 1.11631e+01 -3.51431e-07 -1.80306e-01 
 1.14031e+01  1.66271e-02 -2.98084e-02 
-1.11636e+01 -1.62697e-02 -2.98074e-02 
-1.09287e+01 -2.59691e-06 -1.80297e-01 
-1.07011e+01 -1.53970e-05 -2.96284e-01 
-1.04735e+01 -3.51977e-05 -4.09825e-01 
-1.02460e+01 -6.22557e-05 -5.20903e-01 
-1.00184e+01 -9.65705e-05 -6.29547e-01 
-9.79076e+00 -1.37996e-04 -7.35739e-01 
-9.56312e+00 -1.86275e-04 -8.39508e-01 
-9.33548e+00 -2.41021e-04 -9.40835e-01 
-9.10781e+00 -3.01761e-04 -1.03975e+00 
-8.88015e+00 -3.67906e-04 -1.13623e+00 
-8.65245e+00 -4.38806e-04 -1.23030e+00 
-8.42477e+00 -5.13710e-04 -1.32194e+00 
-8.19705e+00 -5.91836e-04 -1.41119e+00 
-7.96934e+00 -6.72319e-04 -1.49801e+00 
-7.74160e+00 -7.54289e-04 -1.58243e+00 
-7.51388e+00 -8.36809e-04 -1.66443e+00 
-7.28613e+00 -9.18969e-04 -1.74404e+00 
-7.05839e+00 -9.99810e-04 -1.82123e+00 
-6.83063e+00 -1.07842e-03 -1.89602e+00 
-6.60288e+00 -1.15387e-03 -1.96839e+00 
-6.37511e+00 -1.22528e-03 -2.03836e+00 
-6.14737e+00 -1.29178e-03 -2.10590e+00 
-5.91960e+00 -1.35258e-03 -2.17105e+00 
-5.69186e+00 -1.40690e-03 -2.23377e+00 
-5.46409e+00 -1.45406e-03 -2.29407e+00 
-5.23636e+00 -1.49342e-03 -2.35195e+00 
-5.00860e+00 -1.52442e-03 -2.40741e+00 
-4.78088e+00 -1.54656e-03 -2.46043e+00 
-4.55313e+00 -1.55947e-03 -2.51103e+00 
-4.32542e+00 -1.56279e-03 -2.55918e+00 
-4.09769e+00 -1.55631e-03 -2.60491e+00 
-3.86999e+00 -1.53988e-03 -2.64818e+00 
-3.64227e+00 -1.51345e-03 -2.68901e+00 
-3.41459e+00 -1.47703e-03 -2.72738e+00 
-3.18689e+00 -1.43077e-03 -2.76331e+00 
-2.95923e+00 -1.37485e-03 -2.79677e+00 
-2.73155e+00 -1.30958e-03 -2.82777e+00 
-2.50390e+00 -1.23532e-03 -2.85631e+00 
-2.27623e+00 -1.15253e-03 -2.88237e+00 
-2.04860e+00 -1.06173e-03 -2.90596e+00 
-1.82095e+00 -9.63512e-04 -2.92708e+00 
-1.59332e+00 -8.58538e-04 -2.94572e+00 
-1.36568e+00 -7.47511e-04 -2.96188e+00 
-1.13807e+00 -6.31211e-04 -2.97556e+00 
-9.10443e-01 -5.10431e-04 -2.98675e+00 
-6.82839e-01 -3.86038e-04 -2.99546e+00 
-4.55215e-01 -2.58891e-04 -3.00168e+00 
-2.27616e-01 -1.29912e-04 -3.00541e+00 
-9.84525e-13  3.14097e-12 -3.00666e+00 
 2.27616e-01  1.29912e-04 -3.00541e+00 
 4.55215e-01  2.58891e-04 -3.00168e+00 
 6.82839e-01  3.86038e-04 -2.99546e+00 
 9.10443e-01  5.10431e-04 -2.98675e+00 
 1.13807e+00  6.31211e-04 -2.97556e+00 
 1.36568e+00  7.47511e-04 -2.96188e+00 
 1.59332e+00  8.58538e-04 -2.94572e+00 
 1.82095e+00  9.63512e-04 -2.92708e+00 
 2.04860e+00  1.06173e-03 -2.90596e+00 
 2.27623e+00  1.15253e-03 -2.88237e+00 
 2.50390e+00  1.23532e-03 -2.85631e+00 
 2.73155e+00  1.30958e-03 -2.82777e+00 
 2.95923e+00  1.37485e-03 -2.79677e+00 
 3.18689e+00  1.43077e-03 -2.76331e+00 
 3.41459e+00  1.47703e-03 -2.72738e+00 
 3.64227e+00  1.51345e-03 -2.68901e+00 
 3.86999e+00  1.53988e-03 -2.64818e+00 
 4.09769e+00  1.55631e-03 -2.60491e+00 
 4.32542e+00  1.56279e-03 -2.55918e+00 
 4.55313e+00  1.55947e-03 -2.51103e+00 
 4.78088e+00  1.54656e-03 -2.46043e+00 
 5.00860e+00  1.52442e-03 -2.40741e+00 
 5.23636e+00  1.49342e-03 -2.35195e+00 
 5.46409e+00  1.45406e-03 -2.29407e+00 
 5.69186e+00  1.40690e-03 -2.23377e+00 
 5.91960e+00  1.35258e-03 -2.17105e+00 
 6.14737e+00  1.29178e-03 -2.10590e+00 
 6.37511e+00  1.22528e-03 -2.03836e+00 
 6.60288e+00  1.15387e-03 -1.96839e+00 
 6.83063e+00  1.07842e-03 -1.89602e+00 
 7.05839e+00  9.99810e-04 -1.82123e+00 
 7.28613e+00  9.18969e-04 -1.74404e+00 
 7.51388e+00  8.36809e-04 -1.66443e+00 
 7.74160e+00  7.54289e-04 -1.58243e+00 
 7.96934e+00  6.72319e-04 -1.49801e+00 
 8.19705e+00  5.91836e-04 -1.41119e+00 
 8.42477e+00  5.13710e-04 -1.32194e+00 
 8.65245e+00  4.38806e-04 -1.23030e+00 
 8.88015e+00  3.67906e-04 -1.13623e+00 
 9.10781e+00  3.01761e-04 -1.03975e+00 
 9.33548e+00  2.41021e-04 -9.40835e-01 
 9.56312e+00  1.86275e-04 -8.39508e-01 
 9.79076e+00  1.37996e-04 -7.35739e-01 
 1.00184e+01  9.65705e-05 -6.29547e-01 
 1.02460e+01  6.22558e-05 -5.20903e-01 
 1.04735e+01  3.51977e-05 -4.09825e-01 
 1.07011e+01  1.53970e-05 -2.96284e-01 
 1.09287e+01  2.59691e-06 -1.80297e-01 
 1.11636e+01  1.62697e-02 -2.98074e-02 
-1.09240e+01 -1.59122e-02 -2.98036e-02 
-1.06942e+01 -5.80052e-06 -1.80269e-01 
-1.04716e+01 -3.20337e-05 -2.96236e-01 
-1.02489e+01 -7.17280e-05 -4.09756e-01 
-1.00263e+01 -1.24697e-04 -5.20814e-01 
-9.80354e+00 -1.90586e-04 -6.29438e-01 
-9.58081e+00 -2.68816e-04 -7.35612e-01 
-9.35803e+00 -3.58653e-04 -8.39363e-01 
-9.13525e+00 -4.59170e-04 -9.40674e-01 
-8.91243e+00 -5.69330e-04 -1.03957e+00 
-8.68961e+00 -6.87934e-04 -1.13604e+00 
-8.46674e+00 -8.13716e-04 -1.23010e+00 
-8.24388e+00 -9.45274e-04 -1.32174e+00 
-8.02099e+00 -1.08119e-03 -1.41097e+00 
-7.79810e+00 -1.21992e-03 -1.49779e+00 
-7.57518e+00 -1.35998e-03 -1.58221e+00 
-7.35227e+00 -1.49976e-03 -1.66422e+00 
-7.12933e+00 -1.63776e-03 -1.74382e+00 
-6.90641e+00 -1.77239e-03 -1.82102e+00 
-6.68346e+00 -1.90218e-03 -1.89581e+00 
-6.46054e+00 -2.02564e-03 -1.96820e+00 
-6.23759e+00 -2.14140e-03 -2.03818e+00 
-6.01467e+00 -2.24809e-03 -2.10574e+00 
-5.79173e+00 -2.34451e-03 -2.17090e+00 
-5.56882e+00 -2.42948e-03 -2.23364e+00 
-5.34590e+00 -2.50199e-03 -2.29396e+00 
-5.12301e+00 -2.56106e-03 -2.35186e+00 
-4.90010e+00 -2.60593e-03 -2.40734e+00 
-4.67724e+00 -2.63589e-03 -2.46039e+00 
-4.45436e+00 -2.65039e-03 -2.51101e+00 
-4.23152e+00 -2.64901e-03 -2.55919e+00 
-4.00868e+00 -2.63149e-03 -2.60494e+00 
-3.78587e+00 -2.59765e-03 -2.64824e+00 
-3.56305e+00 -2.54751e-03 -2.68910e+00 
-3.34027e+00 -2.48119e-03 -2.72750e+00 
-3.11749e+00 -2.39896e-03 -2.76345e+00 
-2.89475e+00 -2.30121e-03 -2.79693e+00 
-2.67199e+00 -2.18845e-03 -2.82796e+00 
-2.44928e+00 -2.06136e-03 -2.85652e+00 
-2.22656e+00 -1.92065e-03 -2.88260e+00 
-2.00387e+00 -1.76723e-03 -2.90622e+00 
-1.78117e+00 -1.60204e-03 -2.92735e+00 
-1.55851e+00 -1.42617e-03 -2.94601e+00 
-1.33584e+00 -1.24073e-03 -2.96218e+00 
-1.11319e+00 -1.04698e-03 -2.97587e+00 
-8.90536e-01 -8.46176e-04 -2.98708e+00 
-6.67906e-01 -6.39686e-04 -2.99579e+00 
-4.45259e-01 -4.28864e-04 -3.00202e+00 
-2.22637e-01 -2.15166e-04 -3.00576e+00 
-3.93116e-13  4.45808e-12 -3.00700e+00 
 2.22637e-01  2.15166e-04 -3.00576e+00 
 4.45259e-01  4.28864e-04 -3.00202e+00 
 6.67906e-01  6.39686e-04 -2.99579e+00 
 8.90536e-01  8.46176e-04 -2.98708e+00 
 1.11319e+00  1.04698e-03 -2.97587e+00 
 1.33584e+00  1.24073e-03 -2.96218e+00 
 1.55851e+00  1.42617e-03 -2.94601e+00 
 1.78117e+00  1.60204e-03 -2.92735e+00 
 2.00387e+00  1.76723e-03 -2.90622e+00 
 2.22656e+00  1.92065e-03 -2.88260e+00 
 2.44928e+00  2.06136e-03 -2.85652e+00 
 2.67199e+00  2.18845e-03 -2.82796e+00 
 2.89475e+00  2.30121e-03 -2.79693e+00 
 3.11749e+00  2.39896e-03 -2.76345e+00 
 3.34027e+00  2.48119e-03 -2.72750e+00 
 3.56305e+00  2.54751e-03 -2.68910e+00 
 3.78587e+00  2.59765e-03 -2.64824e+00 
 4.00868e+00  2.63149e-03 -2.60494e+00 
 4.23152e+00  2.64901e-03 -2.55919e+00 
 4.45436e+00  2.65039e-03 -2.51101e+00 
 4.67724e+00  2.63589e-03 -2.46039e+00 
 4.90010e+00  2.60593e-03 -2.40734e+00 
 5.12301e+00  2.56106e-03 -2.35186e+00 
 5.34590e+00  2.50199e-03 -2.29396e+00 
 5.56882e+00  2.42948e-03 -2.23364e+00 
 5.79173e+00  2.34451e-03 -2.17090e+00 
 6.01467e+00  2.24809e-03 -2.10574e+00 
 6.23759e+00  2.14140e-03 -2.03818e+00 
 6.46054e+00  2.02564e-03 -1.96820e+00 
 6.68346e+00  1.90218e-03 -1.89581e+00 
 6.90641e+00  1.77239e-03 -1.82102e+00 
 7.12933e+00  1.63776e-03 -1.74382e+00 
 7.35227e+00  1.49976e-03 -1.66422e+00 
 7.57518e+00  1.35998e-03 -1.58221e+00 
 7.79810e+00  1.21992e-03 -1.49779e+00 
 8.02099e+00  1.08119e-03 -1.41097e+00 
 8.24388e+00  9.45274e-04 -1.32174e+00 
 8.46674e+00  8.13716e-04 -1.23010e+00 
 8.68961e+00  6.87934e-04 -1.13604e+00 
 8.91243e+00  5.69330e-04 -1.03957e+00 
 9.13525e+00  4.59170e-04 -9.40674e-01 
 9.35803e+00  3.58653e-04 -8.39363e-01 
 9.58081e+00  2.68816e-04 -7.35612e-01 
 9.80354e+00  1.90586e-04 -6.29438e-01 
 1.00263e+01  1.24697e-04 -5.20814e-01 
 1.02489e+01  7.17280e-05 -4.09756e-01 
 1.04716e+01  3.20337e-05 -2.96236e-01 
 1.06942e+01  5.80052e-06 -1.80269e-01 
 1.09240e+01  1.59122e-02 -2.98036e-02 
-1.06846e+01 -1.55544e-02 -2.97964e-02 
-1.04599e+01 -9.29588e-06 -1.80220e-01 
-1.02421e+01 -4.99041e-05 -2.96153e-01 
-1.00244e+01 -1.10797e-04 -4.09641e-01 
-9.80660e+00 -1.91450e-04 -5.20666e-01 
-9.58876e+00 -2.91077e-04 -6.29260e-01 
-9.37090e+00 -4.08620e-04 -7.35405e-01 
-9.15299e+00 -5.42821e-04 -8.39128e-01 
-8.93506e+00 -6.92172e-04 -9.40415e-01 
-8.71708e+00 -8.55031e-04 -1.03929e+00 
-8.49909e+00 -1.02954e-03 -1.13574e+00 
-8.28106e+00 -1.21379e-03 -1.22979e+00 
-8.06302e+00 -1.40566e-03 -1.32141e+00 
-7.84494e+00 -1.60306e-03 -1.41064e+00 
-7.62686e+00 -1.80375e-03 -1.49745e+00 
-7.40875e+00 -2.00555e-03 -1.58187e+00 
-7.19065e+00 -2.20617e-03 -1.66388e+00 
-6.97252e+00 -2.40345e-03 -1.74350e+00 
-6.75441e+00 -2.59516e-03 -1.82070e+00 
-6.53627e+00 -2.77923e-03 -1.89551e+00 
-6.31816e+00 -2.95358e-03 -1.96791e+00 
-6.10003e+00 -3.11631e-03 -2.03791e+00 
-5.88192e+00 -3.26554e-03 -2.10550e+00 
-5.66381e+00 -3.39962e-03 -2.17068e+00 
-5.44573e+00 -3.51695e-03 -2.23345e+00 
-5.22765e+00 -3.61616e-03 -2.29381e+00 
-5.00960e+00 -3.69597e-03 -2.35174e+00 
-4.79155e+00 -3.75535e-03 -2.40726e+00 
-4.57354e+00 -3.79338e-03 -2.46034e+00 
-4.35553e+00 -3.80937e-03 -2.51100e+00 
-4.13756e+00 -3.80280e-03 -2.55922e+00 
-3.91960e+00 -3.77334e-03 -2.60501e+00 
-3.70168e+00 -3.72084e-03 -2.64835e+00 
-3.48376e+00 -3.64536e-03 -2.68924e+00 
-3.26589e+00 -3.54714e-03 -2.72768e+00 
-3.04803e+00 -3.42658e-03 -2.76367e+00 
-2.83021e+00 -3.28431e-03 -2.79719e+00 
-2.61239e+00 -3.12106e-03 -2.82825e+00 
-2.39461e+00 -2.93779e-03 -2.85684e+00 
-2.17683e+00 -2.73556e-03 -2.88296e+00 
-1.95910e+00 -2.51564e-03 -2.90660e+00 
-1.74136e+00 -2.27935e-03 -2.92776e+00 
-1.52366e+00 -2.02823e-03 -2.94644e+00 
-1.30596e+00 -1.76384e-03 -2.96264e+00 
-1.08829e+00 -1.48792e-03 -2.97635e+00 
-8.70606e-01 -1.20223e-03 -2.98757e+00 
-6.52956e-01 -9.08667e-04 -2.99629e+00 
-4.35291e-01 -6.09107e-04 -3.00253e+00 
-2.17652e-01 -3.05569e-04 -3.00627e+00 
-2.92755e-13  4.83178e-12 -3.00752e+00 
 2.17652e-01  3.05569e-04 -3.00627e+00 
 4.35291e-01  6.09107e-04 -3.00253e+00 
 6.52956e-01  9.08667e-04 -2.99629e+00 
 8.70606e-01  1.20223e-03 -2.98757e+00 
 1.08829e+00  1.48792e-03 -2.97635e+00 
 1.30596e+00  1.76384e-03 -2.96264e+00 
 1.52366e+00  2.02823e-03 -2.94644e+00 
 1.74136e+00  2.27935e-03 -2.92776e+00 
 1.95910e+00  2.51564e-03 -2.90660e+00 
 2.17683e+00  2.73556e-03 -2.88296e+00 
 2.39461e+00  2.93779e-03 -2.85684e+00 
 2.61239e+00  3.12106e-03 -2.82825e+00 
 2.83021e+00  3.28431e-03 -2.79719e+00 
 3.04803e+00  3.42658e-03 -2.76367e+00 
 3.26589e+00  3.54714e-03 -2.72768e+00 
 3.48376e+00  3.64536e-03 -2.68924e+00 
 3.70168e+00  3.72084e-03 -2.64835e+00 
 3.91960e+00  3.77334e-03 -2.60501e+00 
 4.13756e+00  3.80280e-03 -2.55922e+00 
 4.35553e+00  3.80937e-03 -2.51100e+00 
 4.57354e+00  3.79338e-03 -2.46034e+00 
 4.79155e+00  3.75535e-03 -2.40726e+00 
 5.00960e+00  3.69597e-03 -2.35174e+00 
 5.22765e+00  3.61616e-03 -2.29381e+00 
 5.44573e+00  3.51695e-03 -2.23345e+00 
 5.66381e+00  3.39962e-03 -2.17068e+00 
 5.88192e+00  3.26554e-03 -2.10550e+00 
 6.10003e+00  3.11631e-03 -2.03791e+00 
 6.31816e+00  2.95358e-03 -1.96791e+00 
 6.53627e+00  2.77923e-03 -1.89551e+00 
 6.75441e+00  2.59516e-03 -1.82070e+00 
 6.97252e+00  2.40345e-03 -1.74350e+00 
 7.19065e+00  2.20617e-03 -1.66388e+00 
 7.40875e+00  2.00555e-03 -1.58187e+00 
 7.62686e+00  1.80375e-03 -1.49745e+00 
 7.84494e+00  1.60306e-03 -1.41064e+00 
 8.06302e+00  1.40566e-03 -1.32141e+00 
 8.28106e+00  1.21379e-03 -1.22979e+00 
 8.49909e+00  1.02954e-03 -1.13574e+00 
 8.71708e+00  8.55031e-04 -1.03929e+00 
 8.93506e+00  6.92172e-04 -9.40415e-01 
 9.15299e+00  5.42821e-04 -8.39128e-01 
 9.37090e+00  4.08620e-04 -7.35405e-01 
 9.58876e+00  2.91077e-04 -6.29260e-01 
 9.80660e+00  1.91450e-04 -5.20666e-01 
 1.00244e+01  1.10797e-04 -4.09641e-01 
 1.02421e+01  4.99041e-05 -2.96153e-01 
 1.04599e+01  9.29589e-06 -1.80220e-01 
 1.06846e+01  1.55544e-02 -2.97964e-02 
-1.04451e+01 -1.51961e-02 -2.97856e-02 
-1.02255e+01 -1.31321e-05 -1.80148e-01 
-1.00128e+01 -6.94379e-05 -2.96033e-01 
-9.79991e+00 -1.53429e-04 -4.09474e-01 
-9.58702e+00 -2.64196e-04 -5.20455e-01 
-9.37406e+00 -4.00495e-04 -6.29005e-01 
-9.16106e+00 -5.60732e-04 -7.35110e-01 
-8.94800e+00 -7.43070e-04 -8.38797e-01 
-8.73492e+00 -9.45360e-04 -9.40052e-01 
-8.52178e+00 -1.16529e-03 -1.03890e+00 
-8.30862e+00 -1.40030e-03 -1.13532e+00 
-8.09540e+00 -1.64774e-03 -1.22935e+00 
-7.88217e+00 -1.90476e-03 -1.32096e+00 
-7.66890e+00 -2.16852e-03 -1.41018e+00 
-7.45563e+00 -2.43600e-03 -1.49699e+00 
-7.24232e+00 -2.70430e-03 -1.58141e+00 
-7.02902e+00 -2.97039e-03 -1.66342e+00 
-6.81569e+00 -3.23140e-03 -1.74305e+00 
-6.60238e+00 -3.48442e-03 -1.82027e+00 
-6.38904e+00 -3.72673e-03 -1.89510e+00 
-6.17573e+00 -3.95560e-03 -1.96752e+00 
-5.96241e+00 -4.16859e-03 -2.03755e+00 
-5.74912e+00 -4.36328e-03 -2.10518e+00 
-5.53583e+00 -4.53753e-03 -2.17040e+00 
-5.32257e+00 -4.68929e-03 -2.23320e+00 
-5.10932e+00 -4.81684e-03 -2.29361e+00 
-4.89611e+00 -4.91855e-03 -2.35158e+00 
-4.68291e+00 -4.99314e-03 -2.40715e+00 
-4.46975e+00 -5.03944e-03 -2.46028e+00 
-4.25660e+00 -5.05664e-03 -2.51099e+00 
-4.04351e+00 -5.04409e-03 -2.55927e+00 
-3.83043e+00 -5.00143e-03 -2.60511e+00 
-3.61740e+00 -4.92852e-03 -2.64850e+00 
-3.40439e+00 -4.82549e-03 -2.68944e+00 
-3.19143e+00 -4.69268e-03 -2.72793e+00 
-2.97848e+00 -4.53069e-03 -2.76397e+00 
-2.76558e+00 -4.34034e-03 -2.79754e+00 
-2.55270e+00 -4.12265e-03 -2.82865e+00 
-2.33986e+00 -3.87888e-03 -2.85728e+00 
-2.12704e+00 -3.61043e-03 -2.88345e+00 
-1.91426e+00 -3.31899e-03 -2.90713e+00 
-1.70149e+00 -3.00628e-03 -2.92833e+00 
-1.48876e+00 -2.67432e-03 -2.94704e+00 
-1.27603e+00 -2.32514e-03 -2.96326e+00 
-1.06334e+00 -1.96101e-03 -2.97699e+00 
-8.50645e-01 -1.58421e-03 -2.98823e+00 
-6.37982e-01 -1.19722e-03 -2.99698e+00 
-4.25307e-01 -8.02459e-04 -3.00322e+00 
-2.12660e-01 -4.02545e-04 -3.00697e+00 
-9.43996e-13  2.46183e-12 -3.00822e+00 
 2.12660e-01  4.02545e-04 -3.00697e+00 
 4.25307e-01  8.02459e-04 -3.00322e+00 
 6.37982e-01  1.19722e-03 -2.99698e+00 
 8.50645e-01  1.58421e-03 -2.98823e+00 
 1.06334e+00  1.96101e-03 -2.97699e+00 
 1.27603e+00  2.32514e-03 -2.96326e+00 
 1.48876e+00  2.67432e-03 -2.94704e+00 
 1.70149e+00  3.00628e-03 -2.92833e+00 
 1.91426e+00  3.31899e-03 -2.90713e+00 
 2.12704e+00  3.61043e-03 -2.88345e+00 
 2.33986e+00  3.87888e-03 -2.85728e+00 
 2.55270e+00  4.12265e-03 -2.82865e+00 
 2.76558e+00  4.34034e-03 -2.79754e+00 
 2.97848e+00  4.53069e-03 -2.76397e+00 
 3.19143e+00  4.69268e-03 -2.72793e+00 
 3.40439e+00  4.82549e-03 -2.68944e+00 
 3.61740e+00  4.92852e-03 -2.64850e+00 
 3.83043e+00  5.00143e-03 -2.60511e+00 
 4.04351e+00  5.04409e-03 -2.55927e+00 
 4.25660e+00  5.05664e-03 -2.51099e+00 
 4.46975e+00  5.03944e-03 -2.46028e+00 
 4.68291e+00  4.99314e-03 -2.40715e+00 
 4.89611e+00  4.91855e-03 -2.35158e+00 
 5.10932e+00  4.81684e-03 -2.29361e+00 
 5.32257e+00  4.68929e-03 -2.23320e+00 
 5.53583e+00  4.53753e-03 -2.17040e+00 
 5.74912e+00  4.36328e-03 -2.10518e+00 
 5.96241e+00  4.16859e-03 -2.03755e+00 
 6.17573e+00  3.95560e-03 -1.96752e+00 
 6.38904e+00  3.72673e-03 -1.89510e+00 
 6.60238e+00  3.48442e-03 -1.82027e+00 
 6.81569e+00  3.23140e-03 -1.74305e+00 
 7.02902e+00  2.97039e-03 -1.66342e+00 
 7.24232e+00  2.70430e-03 -1.58141e+00 
 7.45563e+00  2.43600e-03 -1.49699e+00 
 7.66890e+00  2.16852e-03 -1.41018e+00 
 7.88217e+00  1.90476e-03 -1.32096e+00 
 8.09540e+00  1.64774e-03 -1.22935e+00 
 8.30862e+00  1.40030e-03 -1.13532e+00 
 8.52178e+00  1.16529e-03 -1.03890e+00 
 8.73492e+00  9.45360e-04 -9.40052e-01 
 8.94800e+00  7.43070e-04 -8.38797e-01 
 9.16106e+00  5.60732e-04 -7.35110e-01 
 9.37406e+00  4.00495e-04 -6.29005e-01 
 9.58702e+00  2.64196e-04 -5.20455e-01 
 9.79991e+00  1.53429e-04 -4.09474e-01 
 1.00128e+01  6.94379e-05 -2.96033e-01 
 1.02255e+01  1.31321e-05 -1.80148e-01 
 1.04451e+01  1.51961e-02 -2.97856e-02 
-1.02059e+01 -1.48372e-02 -2.97708e-02 
-9.99135e+00 -1.74128e-05 -1.80051e-01 
-9.78349e+00 -9.11195e-05 -2.95873e-01 
-9.57553e+00 -2.00667e-04 -4.09252e-01 
-9.36753e+00 -3.44694e-04 -5.20174e-01 
-9.15944e+00 -5.21434e-04 -6.28668e-01 
-8.95131e+00 -7.28690e-04 -7.34721e-01 
-8.74310e+00 -9.63971e-04 -8.38361e-01 
-8.53485e+00 -1.22441e-03 -9.39573e-01 
-8.32653e+00 -1.50696e-03 -1.03838e+00 
-8.11819e+00 -1.80826e-03 -1.13478e+00 
-7.90978e+00 -2.12486e-03 -1.22878e+00 
-7.70136e+00 -2.45308e-03 -1.32037e+00 
-7.49288e+00 -2.78927e-03 -1.40958e+00 
-7.28440e+00 -3.12958e-03 -1.49638e+00 
-7.07588e+00 -3.47030e-03 -1.58081e+00 
-6.86737e+00 -3.80759e-03 -1.66283e+00 
-6.65883e+00 -4.13783e-03 -1.74247e+00 
-6.45030e+00 -4.45734e-03 -1.81971e+00 
-6.24176e+00 -4.76271e-03 -1.89457e+00 
-6.03325e+00 -5.05055e-03 -1.96703e+00 
-5.82472e+00 -5.31779e-03 -2.03710e+00 
-5.61624e+00 -5.56143e-03 -2.10476e+00 
-5.40776e+00 -5.77884e-03 -2.17003e+00 
-5.19932e+00 -5.96750e-03 -2.23289e+00 
-4.99089e+00 -6.12527e-03 -2.29335e+00 
-4.78251e+00 -6.25019e-03 -2.35139e+00 
-4.57415e+00 -6.34068e-03 -2.40702e+00 
-4.36585e+00 -6.39538e-03 -2.46021e+00 
-4.15756e+00 -6.41329e-03 -2.51099e+00 
-3.94934e+00 -6.39367e-03 -2.55933e+00 
-3.74114e+00 -6.33613e-03 -2.60524e+00 
-3.53300e+00 -6.24054e-03 -2.64870e+00 
-3.32489e+00 -6.10711e-03 -2.68971e+00 
-3.11684e+00 -5.93633e-03 -2.72827e+00 
-2.90881e+00 -5.72897e-03 -2.76437e+00 
-2.70085e+00 -5.48611e-03 -2.79800e+00 
-2.49291e+00 -5.20904e-03 -2.82917e+00 
-2.28502e+00 -4.89938e-03 -2.85786e+00 
-2.07715e+00 -4.55892e-03 -2.88408e+00 
-1.86934e+00 -4.18974e-03 -2.90781e+00 
-1.66154e+00 -3.79405e-03 -2.92905e+00 
-1.45379e+00 -3.37436e-03 -2.94780e+00 
-1.24605e+00 -2.93322e-03 -2.96406e+00 
-1.03835e+00 -2.47348e-03 -2.97783e+00 
-8.30643e-01 -1.99795e-03 -2.98909e+00 
-6.22978e-01 -1.50974e-03 -2.99785e+00 
-4.15303e-01 -1.01185e-03 -3.00411e+00 
-2.07657e-01 -5.07563e-04 -3.00787e+00 
-8.92494e-13  2.79787e-12 -3.00912e+00 
 2.07657e-01  5.07563e-04 -3.00787e+00 
 4.15303e-01  1.01185e-03 -3.00411e+00 
 6.22978e-01  1.50974e-03 -2.99785e+00 
 8.30643e-01  1.99795e-03 -2.98909e+00 
 1.03835e+00  2.47348e-03 -2.97783e+00 
 1.24605e+00  2.93322e-03 -2.96406e+00 
 1.45379e+00  3.37436e-03 -2.94780e+00 
 1.66154e+00  3.79405e-03 -2.92905e+00 
 1.86934e+00  4.18974e-03 -2.90781e+00 
 2.07715e+00  4.55892e-03 -2.88408e+00 
 2.28502e+00  4.89938e-03 -2.85786e+00 
 2.49291e+00  5.20904e-03 -2.82917e+00 
 2.70085e+00  5.48611e-03 -2.79800e+00 
 2.90881e+00  5.72897e-03 -2.76437e+00 
 3.11684e+00  5.93633e-03 -2.72827e+00 
 3.32489e+00  6.10711e-03 -2.68971e+00 
 3.53300e+00  6.24054e-03 -2.64870e+00 
 3.74114e+00  6.33613e-03 -2.60524e+00 
 3.94934e+00  6.39367e-03 -2.55933e+00 
 4.15756e+00  6.41329e-03 -2.51099e+00 
 4.36585e+00  6.39538e-03 -2.46021e+00 
 4.57415e+00  6.34068e-03 -2.40702e+00 
 4.78251e+00  6.25019e-03 -2.35139e+00 
 4.99089e+00  6.12527e-03 -2.29335e+00 
 5.19932e+00  5.96750e-03 -2.23289e+00 
 5.40776e+00  5.77884e-03 -2.17003e+00 
 5.61624e+00  5.56143e-03 -2.10476e+00 
 5.82472e+00  5.31779e-03 -2.03710e+00 
 6.03325e+00  5.05055e-03 -1.96703e+00 
 6.24176e+00  4.76271e-03 -1.89457e+00 
 6.45030e+00  4.45734e-03 -1.81971e+00 
 6.65883e+00  4.13783e-03 -1.74247e+00 
 6.86737e+00  3.80759e-03 -1.66283e+00 
 7.07588e+00  3.47030e-03 -1.58081e+00 
 7.28440e+00  3.12958e-03 -1.49638e+00 
 7.49288e+00  2.78927e-03 -1.40958e+00 
 7.70136e+00  2.45308e-03 -1.32037e+00 
 7.90978e+00  2.12486e-03 -1.22878e+00 
 8.11819e+00  1.80826e-03 -1.13478e+00 
 8.32653e+00  1.50696e-03 -1.03838e+00 
 8.53485e+00  1.22441e-03 -9.39573e-01 
 8.74310e+00  9.63971e-04 -8.38361e-01 
 8.95131e+00  7.28690e-04 -7.34721e-01 
 9.15944e+00  5.21434e-04 -6.28668e-01 
 9.36753e+00  3.44694e-04 -5.20174e-01 
 9.57553e+00  2.00667e-04 -4.09252e-01 
 9.78349e+00  9.11195e-05 -2.95873e-01 
 9.99135e+00  1.74128e-05 -1.80051e-01 
 1.02059e+01  1.48372e-02 -2.97708e-02 
-9.96671e+00 -1.44778e-02 -2.97513e-02 
-9.75730e+00 -2.22504e-05 -1.79927e-01 
-9.55435e+00 -1.15480e-04 -2.95668e-01 
-9.35130e+00 -2.53637e-04 -4.08968e-01 
-9.14818e+00 -4.34826e-04 -5.19815e-01 
-8.94495e+00 -6.56672e-04 -6.28240e-01 
-8.74167e+00 -9.16281e-04 -7.34228e-01 
-8.53830e+00 -1.21042e-03 -8.37809e-01 
-8.33487e+00 -1.53541e-03 -9.38968e-01 
-8.13136e+00 -1.88735e-03 -1.03773e+00 
-7.92782e+00 -2.26200e-03 -1.13409e+00 
-7.72421e+00 -2.65503e-03 -1.22806e+00 
-7.52057e+00 -3.06181e-03 -1.31963e+00 
-7.31688e+00 -3.47780e-03 -1.40883e+00 
-7.11317e+00 -3.89822e-03 -1.49563e+00 
-6.90943e+00 -4.31848e-03 -1.58005e+00 
-6.70569e+00 -4.73385e-03 -1.66209e+00 
-6.50192e+00 -5.13988e-03 -1.74175e+00 
-6.29817e+00 -5.53206e-03 -1.81902e+00 
-6.09441e+00 -5.90623e-03 -1.89392e+00 
-5.89068e+00 -6.25827e-03 -1.96642e+00 
-5.68694e+00 -6.58444e-03 -2.03653e+00 
-5.48325e+00 -6.88114e-03 -2.10426e+00 
-5.27957e+00 -7.14517e-03 -2.16959e+00 
-5.07594e+00 -7.37352e-03 -2.23251e+00 
-4.87233e+00 -7.56364e-03 -2.29304e+00 
-4.66878e+00 -7.71319e-03 -2.35115e+00 
-4.46526e+00 -7.82031e-03 -2.40686e+00 
-4.26180e+00 -7.88339e-03 -2.46014e+00 
-4.05838e+00 -7.90129e-03 -2.51100e+00 
-3.85502e+00 -7.87316e-03 -2.55942e+00 
-3.65170e+00 -7.79859e-03 -2.60541e+00 
-3.44846e+00 -7.67748e-03 -2.64895e+00 
-3.24525e+00 -7.51014e-03 -2.69005e+00 
-3.04211e+00 -7.29722e-03 -2.72869e+00 
-2.83901e+00 -7.03970e-03 -2.76487e+00 
-2.63598e+00 -6.73894e-03 -2.79858e+00 
-2.43299e+00 -6.39654e-03 -2.82982e+00 
-2.23006e+00 -6.01452e-03 -2.85858e+00 
-2.02715e+00 -5.59505e-03 -2.88486e+00 
-1.82432e+00 -5.14072e-03 -2.90865e+00 
-1.62150e+00 -4.65420e-03 -2.92995e+00 
-1.41874e+00 -4.13857e-03 -2.94876e+00 
-1.21599e+00 -3.59692e-03 -2.96506e+00 
-1.01329e+00 -3.03272e-03 -2.97886e+00 
-8.10591e-01 -2.44939e-03 -2.99016e+00 
-6.07935e-01 -1.85070e-03 -2.99894e+00 
-4.05273e-01 -1.24029e-03 -3.00522e+00 
-2.02642e-01 -6.22130e-04 -3.00899e+00 
 3.39245e-13  5.99880e-12 -3.01025e+00 
 2.02642e-01  6.22130e-04 -3.00899e+00 
 4.05273e-01  1.24029e-03 -3.00522e+00 
 6.07935e-01  1.85070e-03 -2.99894e+00 
 8.10591e-01  2.44939e-03 -2.99016e+00 
 1.01329e+00  3.03272e-03 -2.97886e+00 
 1.21599e+00  3.59692e-03 -2.96506e+00 
 1.41874e+00  4.13857e-03 -2.94876e+00 
 1.62150e+00  4.65420e-03 -2.92995e+00 
 1.82432e+00  5.14072e-03 -2.90865e+00 
 2.02715e+00  5.59505e-03 -2.88486e+00 
 2.23006e+00  6.01452e-03 -2.85858e+00 
 2.43299e+00  6.39654e-03 -2.82982e+00 
 2.63598e+00  6.73894e-03 -2.79858e+00 
 2.83901e+00  7.03970e-03 -2.76487e+00 
 3.04211e+00  7.29722e-03 -2.72869e+00 
 3.24525e+00  7.51014e-03 -2.69005e+00 
 3.44846e+00  7.67748e-03 -2.64895e+00 
 3.65170e+00  7.79859e-03 -2.60541e+00 
 3.85502e+00  7.87316e-03 -2.55942e+00 
 4.05838e+00  7.90129e-03 -2.51100e+00 
 4.26180e+00  7.88339e-03 -2.46014e+00 
 4.46526e+00  7.82031e-03 -2.40686e+00 
 4.66878e+00  7.71319e-03 -2.35115e+00 
 4.87233e+00  7.56364e-03 -2.29304e+00 
 5.07594e+00  7.37352e-03 -2.23251e+00 
 5.27957e+00  7.14517e-03 -2.16959e+00 
 5.48325e+00  6.88114e-03 -2.10426e+00 
 5.68694e+00  6.58444e-03 -2.03653e+00 
 5.89068e+00  6.25827e-03 -1.96642e+00 
 6.09441e+00  5.90623e-03 -1.89392e+00 
 6.29817e+00  5.53206e-03 -1.81902e+00 
 6.50192e+00  5.13988e-03 -1.74175e+00 
 6.70569e+00  4.73385e-03 -1.66209e+00 
 6.90943e+00  4.31848e-03 -1.58005e+00 
 7.11317e+00  3.89822e-03 -1.49563e+00 
 7.31688e+00  3.47780e-03 -1.40883e+00 
 7.52057e+00  3.06181e-03 -1.31963e+00 
 7.72421e+00  2.65503e-03 -1.22806e+00 
 7.92782e+00  2.26200e-03 -1.13409e+00 
 8.13136e+00  1.88735e-03 -1.03773e+00 
 8.33487e+00  1.53541e-03 -9.38968e-01 
 8.53830e+00  1.21042e-03 -8.37809e-01 
 8.74167e+00  9.16281e-04 -7.34228e-01 
 8.94495e+00  6.56672e-04 -6.28240e-01 
 9.14818e+00  4.34826e-04 -5.19815e-01 
 9.35130e+00  2.53637e-04 -4.08968e-01 
 9.55435e+00  1.15480e-04 -2.95668e-01 
 9.75730e+00  2.22504e-05 -1.79927e-01 
 9.96671e+00  1.44778e-02 -2.97513e-02 
-9.72775e+00 -1.41176e-02 -2.97267e-02 
-9.52343e+00 -2.77697e-05 -1.79772e-01 
-9.32539e+00 -1.43101e-04 -2.95412e-01 
-9.12723e+00 -3.13566e-04 -4.08615e-01 
-8.92898e+00 -5.36635e-04 -5.19370e-01 
-8.73061e+00 -8.09212e-04 -6.27708e-01 
-8.53217e+00 -1.12760e-03 -7.33617e-01 
-8.33361e+00 -1.48769e-03 -8.37126e-01 
-8.13500e+00 -1.88488e-03 -9.38223e-01 
-7.93628e+00 -2.31432e-03 -1.03693e+00 
-7.73753e+00 -2.77075e-03 -1.13325e+00 
-7.53869e+00 -3.24883e-03 -1.22718e+00 
-7.33982e+00 -3.74291e-03 -1.31873e+00 
-7.14089e+00 -4.24741e-03 -1.40791e+00 
-6.94195e+00 -4.75653e-03 -1.49471e+00 
-6.74296e+00 -5.26471e-03 -1.57914e+00 
-6.54397e+00 -5.76622e-03 -1.66119e+00 
-6.34496e+00 -6.25571e-03 -1.74088e+00 
-6.14597e+00 -6.72775e-03 -1.81818e+00 
-5.94697e+00 -7.17738e-03 -1.89312e+00 
-5.74801e+00 -7.59965e-03 -1.96567e+00 
-5.54905e+00 -7.99015e-03 -2.03585e+00 
-5.35014e+00 -8.34457e-03 -2.10364e+00 
-5.15124e+00 -8.65914e-03 -2.16905e+00 
-4.95241e+00 -8.93032e-03 -2.23206e+00 
-4.75361e+00 -9.15512e-03 -2.29267e+00 
-4.55488e+00 -9.33080e-03 -2.35088e+00 
-4.35619e+00 -9.45520e-03 -2.40668e+00 
-4.15757e+00 -9.52649e-03 -2.46005e+00 
-3.95900e+00 -9.54337e-03 -2.51101e+00 
-3.76052e+00 -9.50488e-03 -2.55954e+00 
-3.56208e+00 -9.41062e-03 -2.60563e+00 
-3.36373e+00 -9.26054e-03 -2.64927e+00 
-3.16542e+00 -9.05505e-03 -2.69047e+00 
-2.96721e+00 -8.79501e-03 -2.72921e+00 
-2.76904e+00 -8.48164e-03 -2.76548e+00 
-2.57095e+00 -8.11659e-03 -2.79929e+00 
-2.37291e+00 -7.70185e-03 -2.83062e+00 
-2.17494e+00 -7.23983e-03 -2.85946e+00 
-1.97702e+00 -6.73318e-03 -2.88582e+00 
-1.77916e+00 -6.18499e-03 -2.90968e+00 
-1.58134e+00 -5.59848e-03 -2.93105e+00 
-1.38358e+00 -4.97732e-03 -2.94991e+00 
-1.18584e+00 -4.32521e-03 -2.96627e+00 
-9.88154e-01 -3.64628e-03 -2.98012e+00 
-7.90478e-01 -2.94461e-03 -2.99145e+00 
-5.92846e-01 -2.22468e-03 -3.00027e+00 
-3.95213e-01 -1.49084e-03 -3.00657e+00 
-1.97611e-01 -7.47774e-04 -3.01035e+00 
-5.23023e-13  4.62829e-12 -3.01161e+00 
 1.97611e-01  7.47774e-04 -3.01035e+00 
 3.95213e-01  1.49084e-03 -3.00657e+00 
 5.92846e-01  2.22468e-03 -3.00027e+00 
 7.90478e-01  2.94461e-03 -2.99145e+00 
 9.88154e-01  3.64628e-03 -2.98012e+00 
 1.18584e+00  4.32521e-03 -2.96627e+00 
 1.38358e+00  4.97732e-03 -2.94991e+00 
 1.58134e+00  5.59848e-03 -2.93105e+00 
 1.77916e+00  6.18499e-03 -2.90968e+00 
 1.97702e+00  6.73318e-03 -2.88582e+00 
 2.17494e+00  7.23983e-03 -2.85946e+00 
 2.37291e+00  7.70185e-03 -2.83062e+00 
 2.57095e+00  8.11659e-03 -2.79929e+00 
 2.76904e+00  8.48164e-03 -2.76548e+00 
 2.96721e+00  8.79501e-03 -2.72921e+00 
 3.16542e+00  9.05505e-03 -2.69047e+00 
 3.36373e+00  9.26054e-03 -2.64927e+00 
 3.56208e+00  9.41062e-03 -2.60563e+00 
 3.76052e+00  9.50488e-03 -2.55954e+00 
 3.95900e+00  9.54337e-03 -2.51101e+00 
 4.15757e+00  9.52649e-03 -2.46005e+00 
 4.35619e+00  9.45520e-03 -2.40668e+00 
 4.55488e+00  9.33080e-03 -2.35088e+00 
 4.75361e+00  9.15512e-03 -2.29267e+00 
 4.95241e+00  8.93032e-03 -2.23206e+00 
 5.15124e+00  8.65914e-03 -2.16905e+00 
 5.35014e+00  8.34457e-03 -2.10364e+00 
 5.54905e+00  7.99015e-03 -2.03585e+00 
 5.74801e+00  7.59965e-03 -1.96567e+00 
 5.94697e+00  7.17738e-03 -1.89312e+00 
 6.14597e+00  6.72775e-03 -1.81818e+00 
 6.34496e+00  6.25571e-03 -1.74088e+00 
 6.54397e+00  5.76622e-03 -1.66119e+00 
 6.74296e+00  5.26471e-03 -1.57914e+00 
 6.94195e+00  4.75653e-03 -1.49471e+00 
 7.14089e+00  4.24741e-03 -1.40791e+00 
 7.33982e+00  3.74291e-03 -1.31873e+00 
 7.53869e+00  3.24883e-03 -1.22718e+00 
 7.73753e+00  2.77075e-03 -1.13325e+00 
 7.93628e+00  2.31432e-03 -1.03693e+00 
 8.13500e+00  1.88488e-03 -9.38223e-01 
 8.33361e+00  1.48769e-03 -8.37126e-01 
 8.53217e+00  1.12760e-03 -7.33617e-01 
 8.73061e+00  8.09212e-04 -6.27708e-01 
 8.92898e+00  5.36635e-04 -5.19370e-01 
 9.12723e+00  3.13566e-04 -4.08615e-01 
 9.32539e+00  1.43101e-04 -2.95412e-01 
 9.52343e+00  2.77697e-05 -1.79772e-01 
 9.72775e+00  1.41176e-02 -2.97267e-02 
-9.48902e+00 -1.37568e-02 -2.96961e-02 
-9.28979e+00 -3.41084e-05 -1.79581e-01 
-9.09665e+00 -1.74616e-04 -2.95098e-01 
-8.90337e+00 -3.81794e-04 -4.08183e-01 
-8.70998e+00 -6.52343e-04 -5.18827e-01 
-8.51645e+00 -9.82316e-04 -6.27061e-01 
-8.32283e+00 -1.36706e-03 -7.32874e-01 
-8.12908e+00 -1.80149e-03 -8.36298e-01 
-7.93525e+00 -2.27989e-03 -9.37319e-01 
-7.74131e+00 -2.79634e-03 -1.03597e+00 
-7.54732e+00 -3.34441e-03 -1.13223e+00 
-7.35323e+00 -3.91763e-03 -1.22612e+00 
-7.15911e+00 -4.50916e-03 -1.31764e+00 
-6.96492e+00 -5.11229e-03 -1.40681e+00 
-6.77071e+00 -5.72007e-03 -1.49360e+00 
-6.57646e+00 -6.32584e-03 -1.57804e+00 
-6.38221e+00 -6.92278e-03 -1.66011e+00 
-6.18794e+00 -7.50453e-03 -1.73983e+00 
-5.99369e+00 -8.06466e-03 -1.81718e+00 
-5.79943e+00 -8.59732e-03 -1.89217e+00 
-5.60521e+00 -9.09668e-03 -1.96479e+00 
-5.41101e+00 -9.55755e-03 -2.03505e+00 
-5.21686e+00 -9.97490e-03 -2.10292e+00 
-5.02275e+00 -1.03444e-02 -2.16842e+00 
-4.82870e+00 -1.06618e-02 -2.23152e+00 
-4.63470e+00 -1.09237e-02 -2.29224e+00 
-4.44078e+00 -1.11271e-02 -2.35055e+00 
-4.24691e+00 -1.12693e-02 -2.40647e+00 
-4.05313e+00 -1.13484e-02 -2.45996e+00 
-3.85941e+00 -1.13629e-02 -2.51104e+00 
-3.66579e+00 -1.13118e-02 -2.55968e+00 
-3.47224e+00 -1.11946e-02 -2.60590e+00 
-3.27878e+00 -1.10114e-02 -2.64966e+00 
-3.08538e+00 -1.07627e-02 -2.69098e+00 
-2.89209e+00 -1.04497e-02 -2.72983e+00 
-2.69886e+00 -1.00738e-02 -2.76622e+00 
-2.50572e+00 -9.63708e-03 -2.80014e+00 
-2.31264e+00 -9.14185e-03 -2.83157e+00 
-2.11965e+00 -8.59104e-03 -2.86051e+00 
-1.92671e+00 -7.98777e-03 -2.88697e+00 
-1.73386e+00 -7.33573e-03 -2.91092e+00 
-1.54104e+00 -6.63871e-03 -2.93236e+00 
-1.34830e+00 -5.90104e-03 -2.95130e+00 
-1.15558e+00 -5.12709e-03 -2.96772e+00 
-9.62930e-01 -4.32170e-03 -2.98162e+00 
-7.70292e-01 -3.48967e-03 -2.99299e+00 
-5.77702e-01 -2.63626e-03 -3.00185e+00 
-3.85115e-01 -1.76654e-03 -3.00817e+00 
-1.92561e-01 -8.86027e-04 -3.01197e+00 
 1.87878e-13  6.55374e-12 -3.01323e+00 
 1.92561e-01  8.86027e-04 -3.01197e+00 
 3.85115e-01  1.76654e-03 -3.00817e+00 
 5.77702e-01  2.63626e-03 -3.00185e+00 
 7.70292e-01  3.48967e-03 -2.99299e+00 
 9.62930e-01  4.32170e-03 -2.98162e+00 
 1.15558e+00  5.12709e-03 -2.96772e+00 
 1.34830e+00  5.90104e-03 -2.95130e+00 
 1.54104e+00  6.63871e-03 -2.93236e+00 
 1.73386e+00  7.33573e-03 -2.91092e+00 
 1.92671e+00  7.98777e-03 -2.88697e+00 
 2.11965e+00  8.59104e-03 -2.86051e+00 
 2.31264e+00  9.14185e-03 -2.83157e+00 
 2.50572e+00  9.63708e-03 -2.80014e+00 
 2.69886e+00  1.00738e-02 -2.76622e+00 
 2.89209e+00  1.04497e-02 -2.72983e+00 
 3.08538e+00  1.07627e-02 -2.69098e+00 
 3.27878e+00  1.10114e-02 -2.64966e+00 
 3.47224e+00  1.11946e-02 -2.60590e+00 
 3.66579e+00  1.13118e-02 -2.55968e+00 
 3.85941e+00  1.13629e-02 -2.51104e+00 
 4.05313e+00  1.13484e-02 -2.45996e+00 
 4.24691e+00  1.12693e-02 -2.40647e+00 
 4.44078e+00  1.11271e-02 -2.35055e+00 
 4.63470e+00  1.09237e-02 -2.29224e+00 
 4.82870e+00  1.06618e-02 -2.23152e+00 
 5.02275e+00  1.03444e-02 -2.16842e+00 
 5.21686e+00  9.97490e-03 -2.10292e+00 
 5.41101e+00  9.55755e-03 -2.03505e+00 
 5.60521e+00  9.09668e-03 -1.96479e+00 
 5.79943e+00  8.59732e-03 -1.89217e+00 
 5.99369e+00  8.06466e-03 -1.81718e+00 
 6.18794e+00  7.50453e-03 -1.73983e+00 
 6.38221e+00  6.92278e-03 -1.66011e+00 
 6.57646e+00  6.32584e-03 -1.57804e+00 
 6.77071e+00  5.72007e-03 -1.49360e+00 
 6.96492e+00  5.11229e-03 -1.40681e+00 
 7.15911e+00  4.50916e-03 -1.31764e+00 
 7.35323e+00  3.91763e-03 -1.22612e+00 
 7.54732e+00  3.34441e-03 -1.13223e+00 
 7.74131e+00  2.79634e-03 -1.03597e+00 
 7.93525e+00  2.27989e-03 -9.37319e-01 
 8.12908e+00  1.80149e-03 -8.36298e-01 
 8.32283e+00  1.36706e-03 -7.32874e-01 
 8.51645e+00  9.82316e-04 -6.27061e-01 
 8.70998e+00  6.52343e-04 -5.18827e-01 
 8.90337e+00  3.81794e-04 -4.08183e-01 
 9.09665e+00  1.74616e-04 -2.95098e-01 
 9.28979e+00  3.41084e-05 -1.79581e-01 
 9.48902e+00  1.37568e-02 -2.96961e-02 
-9.25056e+00 -1.33952e-02 -2.96585e-02 
-9.05641e+00 -4.14189e-05 -1.79349e-01 
-8.86818e+00 -2.10725e-04 -2.94718e-01 
-8.67976e+00 -4.59784e-04 -4.07662e-01 
-8.49122e+00 -7.84375e-04 -5.18172e-01 
-8.30251e+00 -1.17953e-03 -6.26282e-01 
-8.11368e+00 -1.63950e-03 -7.31982e-01 
-7.92471e+00 -2.15799e-03 -8.35305e-01 
-7.73565e+00 -2.72807e-03 -9.36238e-01 
-7.54647e+00 -3.34253e-03 -1.03481e+00 
-7.35721e+00 -3.99363e-03 -1.13101e+00 
-7.16785e+00 -4.67360e-03 -1.22486e+00 
-6.97845e+00 -5.37426e-03 -1.31635e+00 
-6.78897e+00 -6.08762e-03 -1.40549e+00 
-6.59948e+00 -6.80542e-03 -1.49228e+00 
-6.40993e+00 -7.51979e-03 -1.57674e+00 
-6.22039e+00 -8.22269e-03 -1.65884e+00 
-6.03083e+00 -8.90663e-03 -1.73860e+00 
-5.84129e+00 -9.56411e-03 -1.81600e+00 
-5.65175e+00 -1.01883e-02 -1.89106e+00 
-5.46226e+00 -1.07723e-02 -1.96376e+00 
-5.27280e+00 -1.13103e-02 -2.03410e+00 
-5.08340e+00 -1.17963e-02 -2.10207e+00 
-4.89404e+00 -1.22253e-02 -2.16768e+00 
-4.70477e+00 -1.25926e-02 -2.23090e+00 
-4.51555e+00 -1.28943e-02 -2.29174e+00 
-4.32643e+00 -1.31268e-02 -2.35018e+00 
-4.13738e+00 -1.32873e-02 -2.40623e+00 
-3.94843e+00 -1.33735e-02 -2.45986e+00 
-3.75956e+00 -1.33838e-02 -2.51108e+00 
-3.57081e+00 -1.33171e-02 -2.55987e+00 
-3.38213e+00 -1.31731e-02 -2.60623e+00 
-3.19357e+00 -1.29519e-02 -2.65013e+00 
-3.00509e+00 -1.26542e-02 -2.69159e+00 
-2.81672e+00 -1.22815e-02 -2.73058e+00 
-2.62844e+00 -1.18354e-02 -2.76711e+00 
-2.44026e+00 -1.13184e-02 -2.80115e+00 
-2.25216e+00 -1.07334e-02 -2.83270e+00 
-2.06415e+00 -1.00838e-02 -2.86176e+00 
-1.87622e+00 -9.37322e-03 -2.88833e+00 
-1.68837e+00 -8.60601e-03 -2.91238e+00 
-1.50058e+00 -7.78661e-03 -2.93391e+00 
-1.31287e+00 -6.92008e-03 -2.95293e+00 
-1.12520e+00 -6.01148e-03 -2.96942e+00 
-9.37601e-01 -5.06646e-03 -2.98339e+00 
-7.50021e-01 -4.09058e-03 -2.99481e+00 
-5.62494e-01 -3.08993e-03 -3.00371e+00 
-3.74974e-01 -2.07041e-03 -3.01006e+00 
-1.87490e-01 -1.03840e-03 -3.01387e+00 
-7.07261e-13  4.80886e-12 -3.01514e+00 
 1.87490e-01  1.03840e-03 -3.01387e+00 
 3.74974e-01  2.07041e-03 -3.01006e+00 
 5.62494e-01  3.08993e-03 -3.00371e+00 
 7.50021e-01  4.09058e-03 -2.99481e+00 
 9.37601e-01  5.06646e-03 -2.98339e+00 
 1.12520e+00  6.01148e-03 -2.96942e+00 
 1.31287e+00  6.92008e-03 -2.95293e+00 
 1.50058e+00  7.78661e-03 -2.93391e+00 
 1.68837e+00  8.60601e-03 -2.91238e+00 
 1.87622e+00  9.37322e-03 -2.88833e+00 
 2.06415e+00  1.00838e-02 -2.86176e+00 
 2.25216e+00  1.07334e-02 -2.83270e+00 
 2.44026e+00  1.13184e-02 -2.80115e+00 
 2.62844e+00  1.18354e-02 -2.76711e+00 
 2.81672e+00  1.22815e-02 -2.73058e+00 
 3.00509e+00  1.26542e-02 -2.69159e+00 
 3.19357e+00  1.29519e-02 -2.65013e+00 
 3.38213e+00  1.31731e-02 -2.60623e+00 
 3.57081e+00  1.33171e-02 -2.55987e+00 
 3.75956e+00  1.33838e-02 -2.51108e+00 
 3.94843e+00  1.33735e-02 -2.45986e+00 
 4.13738e+00  1.32873e-02 -2.40623e+00 
 4.32643e+00  1.31268e-02 -2.35018e+00 
 4.51555e+00  1.28943e-02 -2.29174e+00 
 4.70477e+00  1.25926e-02 -2.23090e+00 
 4.89404e+00  1.22253e-02 -2.16768e+00 
 5.08340e+00  1.17963e-02 -2.10207e+00 
 5.27280e+00  1.13103e-02 -2.03410e+00 
 5.46226e+00  1.07723e-02 -1.96376e+00 
 5.65175e+00  1.01883e-02 -1.89106e+00 
 5.84129e+00  9.56411e-03 -1.81600e+00 
 6.03083e+00  8.90663e-03 -1.73860e+00 
 6.22039e+00  8.22269e-03 -1.65884e+00 
 6.40993e+00  7.51979e-03 -1.57674e+00 
 6.59948e+00  6.80542e-03 -1.49228e+00 
 6.78897e+00  6.08762e-03 -1.40549e+00 
 6.97845e+00  5.37426e-03 -1.31635e+00 
 7.16785e+00  4.67360e-03 -1.22486e+00 
 7.35721e+00  3.99363e-03 -1.13101e+00 
 7.54647e+00  3.34253e-03 -1.03481e+00 
 7.73565e+00  2.72807e-03 -9.36238e-01 
 7.92471e+00  2.15799e-03 -8.35305e-01 
 8.11368e+00  1.63950e-03 -7.31982e-01 
 8.30251e+00  1.17953e-03 -6.26282e-01 
 8.49122e+00  7.84375e-04 -5.18172e-01 
 8.67976e+00  4.59784e-04 -4.07662e-01 
 8.86818e+00  2.10725e-04 -2.94718e-01 
 9.05641e+00  4.14189e-05 -1.79349e-01 
 9.25056e+00  1.33952e-02 -2.96585e-02 
-9.01245e+00 -1.30329e-02 -2.96129e-02 
-8.82337e+00 -4.98708e-05 -1.79071e-01 
-8.64001e+00 -2.52195e-04 -2.94263e-01 
-8.45645e+00 -5.49145e-04 -4.07039e-01 
-8.27273e+00 -9.35386e-04 -5.17390e-01 
-8.08882e+00 -1.40474e-03 -6.25354e-01 
-7.90477e+00 -1.95013e-03 -7.30922e-01 
-7.72056e+00 -2.56390e-03 -8.34125e-01 
-7.53623e+00 -3.23766e-03 -9.34955e-01 
-7.35176e+00 -3.96274e-03 -1.03344e+00 
-7.16721e+00 -4.72987e-03 -1.12957e+00 
-6.98255e+00 -5.52981e-03 -1.22337e+00 
-6.79784e+00 -6.35284e-03 -1.31482e+00 
-6.61304e+00 -7.18953e-03 -1.40395e+00 
-6.42822e+00 -8.03017e-03 -1.49074e+00 
-6.24336e+00 -8.86549e-03 -1.57521e+00 
-6.05849e+00 -9.68613e-03 -1.65734e+00 
-5.87361e+00 -1.04833e-02 -1.73715e+00 
-5.68876e+00 -1.12484e-02 -1.81462e+00 
-5.50392e+00 -1.19734e-02 -1.88976e+00 
-5.31913e+00 -1.26505e-02 -1.96255e+00 
-5.13438e+00 -1.32728e-02 -2.03300e+00 
-4.94971e+00 -1.38336e-02 -2.10109e+00 
-4.76510e+00 -1.43272e-02 -2.16683e+00 
-4.58058e+00 -1.47482e-02 -2.23018e+00 
-4.39613e+00 -1.50922e-02 -2.29117e+00 
-4.21180e+00 -1.53551e-02 -2.34977e+00 
-4.02756e+00 -1.55339e-02 -2.40597e+00 
-3.84344e+00 -1.56261e-02 -2.45977e+00 
-3.65941e+00 -1.56299e-02 -2.51115e+00 
-3.47551e+00 -1.55443e-02 -2.56010e+00 
-3.29172e+00 -1.53688e-02 -2.60663e+00 
-3.10806e+00 -1.51039e-02 -2.65070e+00 
-2.92449e+00 -1.47504e-02 -2.69232e+00 
-2.74107e+00 -1.43101e-02 -2.73147e+00 
-2.55773e+00 -1.37851e-02 -2.76815e+00 
-2.37453e+00 -1.31783e-02 -2.80234e+00 
-2.19141e+00 -1.24930e-02 -2.83404e+00 
-2.00842e+00 -1.17333e-02 -2.86323e+00 
-1.82550e+00 -1.09035e-02 -2.88992e+00 
-1.64268e+00 -1.00085e-02 -2.91408e+00 
-1.45994e+00 -9.05352e-03 -2.93573e+00 
-1.27728e+00 -8.04439e-03 -2.95484e+00 
-1.09468e+00 -6.98695e-03 -2.97142e+00 
-9.12149e-01 -5.88772e-03 -2.98545e+00 
-7.29652e-01 -4.75308e-03 -2.99694e+00 
-5.47211e-01 -3.59003e-03 -3.00588e+00 
-3.64783e-01 -2.40534e-03 -3.01227e+00 
-1.82393e-01 -1.20633e-03 -3.01610e+00 
-8.47748e-13  5.51934e-12 -3.01738e+00 
 1.82393e-01  1.20633e-03 -3.01610e+00 
 3.64783e-01  2.40534e-03 -3.01227e+00 
 5.47211e-01  3.59003e-03 -3.00588e+00 
 7.29652e-01  4.75308e-03 -2.99694e+00 
 9.12149e-01  5.88772e-03 -2.98545e+00 
 1.09468e+00  6.98695e-03 -2.97142e+00 
 1.27728e+00  8.04439e-03 -2.95484e+00 
 1.45994e+00  9.05352e-03 -2.93573e+00 
 1.64268e+00  1.00085e-02 -2.91408e+00 
 1.82550e+00  1.09035e-02 -2.88992e+00 
 2.00842e+00  1.17333e-02 -2.86323e+00 
 2.19141e+00  1.24930e-02 -2.83404e+00 
 2.37453e+00  1.31783e-02 -2.80234e+00 
 2.55773e+00  1.37851e-02 -2.76815e+00 
 2.74107e+00  1.43101e-02 -2.73147e+00 
 2.92449e+00  1.47504e-02 -2.69232e+00 
 3.10806e+00  1.51039e-02 -2.65070e+00 
 3.29172e+00  1.53688e-02 -2.60663e+00 
 3.47551e+00  1.55443e-02 -2.56010e+00 
 3.65941e+00  1.56299e-02 -2.51115e+00 
 3.84344e+00  1.56261e-02 -2.45977e+00 
 4.02756e+00  1.55339e-02 -2.40597e+00 
 4.21180e+00  1.53551e-02 -2.34977e+00 
 4.39613e+00  1.50922e-02 -2.29117e+00 
 4.58058e+00  1.47482e-02 -2.23018e+00 
 4.76510e+00  1.43272e-02 -2.16683e+00 
 4.94971e+00  1.38336e-02 -2.10109e+00 
 5.13438e+00  1.32728e-02 -2.03300e+00 
 5.31913e+00  1.26505e-02 -1.96255e+00 
 5.50392e+00  1.19734e-02 -1.88976e+00 
 5.68876e+00  1.12484e-02 -1.81462e+00 
 5.87361e+00  1.04833e-02 -1.73715e+00 
 6.05849e+00  9.68613e-03 -1.65734e+00 
 6.24336e+00  8.86549e-03 -1.57521e+00 
 6.42822e+00  8.03017e-03 -1.49074e+00 
 6.61304e+00  7.18953e-03 -1.40395e+00 
 6.79784e+00  6.35284e-03 -1.31482e+00 
 6.98255e+00  5.52981e-03 -1.22337e+00 
 7.16721e+00  4.72987e-03 -1.12957e+00 
 7.35176e+00  3.96274e-03 -1.03344e+00 
 7.53623e+00  3.23766e-03 -9.34955e-01 
 7.72056e+00  2.56390e-03 -8.34125e-01 
 7.90477e+00  1.95013e-03 -7.30922e-01 
 8.08882e+00  1.40474e-03 -6.25354e-01 
 8.27273e+00  9.35386e-04 -5.17390e-01 
 8.45645e+00  5.49145e-04 -4.07039e-01 
 8.64001e+00  2.52195e-04 -2.94263e-01 
 8.82337e+00  4.98708e-05 -1.79071e-01 
 9.01245e+00  1.30329e-02 -2.96129e-02 
-8.77473e+00 -1.26699e-02 -2.95580e-02 
-8.59071e+00 -5.96529e-05 -1.78739e-01 
-8.41222e+00 -2.99873e-04 -2.93722e-01 
-8.23349e+00 -6.51642e-04 -4.06299e-01 
-8.05457e+00 -1.10828e-03 -5.16464e-01 
-7.87543e+00 -1.66216e-03 -6.24257e-01 
-7.69613e+00 -2.30465e-03 -7.29669e-01 
-7.51664e+00 -3.02649e-03 -8.32735e-01 
-7.33701e+00 -3.81758e-03 -9.33446e-01 
-7.15723e+00 -4.66756e-03 -1.03183e+00 
-6.97735e+00 -5.56542e-03 -1.12788e+00 
-6.79735e+00 -6.50021e-03 -1.22162e+00 
-6.61728e+00 -7.46048e-03 -1.31303e+00 
-6.43713e+00 -8.43518e-03 -1.40214e+00 
-6.25695e+00 -9.41291e-03 -1.48894e+00 
-6.07672e+00 -1.03829e-02 -1.57343e+00 
-5.89650e+00 -1.13343e-02 -1.65561e+00 
-5.71627e+00 -1.22569e-02 -1.73548e+00 
-5.53607e+00 -1.31408e-02 -1.81303e+00 
-5.35590e+00 -1.39767e-02 -1.88826e+00 
-5.17579e+00 -1.47558e-02 -1.96116e+00 
-4.99573e+00 -1.54702e-02 -2.03174e+00 
-4.81576e+00 -1.61123e-02 -2.09997e+00 
-4.63586e+00 -1.66756e-02 -2.16585e+00 
-4.45608e+00 -1.71541e-02 -2.22937e+00 
-4.27639e+00 -1.75427e-02 -2.29053e+00 
-4.09684e+00 -1.78372e-02 -2.34930e+00 
-3.91739e+00 -1.80341e-02 -2.40569e+00 
-3.73809e+00 -1.81306e-02 -2.45967e+00 
-3.55890e+00 -1.81250e-02 -2.51125e+00 
-3.37987e+00 -1.80161e-02 -2.56039e+00 
-3.20095e+00 -1.78038e-02 -2.60710e+00 
-3.02219e+00 -1.74885e-02 -2.65137e+00 
-2.84356e+00 -1.70714e-02 -2.69317e+00 
-2.66507e+00 -1.65547e-02 -2.73251e+00 
-2.48671e+00 -1.59410e-02 -2.76936e+00 
-2.30849e+00 -1.52335e-02 -2.80373e+00 
-2.13037e+00 -1.44364e-02 -2.83559e+00 
-1.95240e+00 -1.35541e-02 -2.86494e+00 
-1.77452e+00 -1.25918e-02 -2.89177e+00 
-1.59676e+00 -1.15551e-02 -2.91607e+00 
-1.41908e+00 -1.04501e-02 -2.93784e+00 
-1.24150e+00 -9.28328e-03 -2.95706e+00 
-1.06399e+00 -8.06150e-03 -2.97373e+00 
-8.86558e-01 -6.79215e-03 -2.98785e+00 
-7.09168e-01 -5.48251e-03 -2.99940e+00 
-5.31843e-01 -4.14056e-03 -3.00839e+00 
-3.54535e-01 -2.77400e-03 -3.01482e+00 
-1.77268e-01 -1.39116e-03 -3.01868e+00 
-3.95558e-13  5.40589e-12 -3.01996e+00 
 1.77268e-01  1.39116e-03 -3.01868e+00 
 3.54535e-01  2.77400e-03 -3.01482e+00 
 5.31843e-01  4.14056e-03 -3.00839e+00 
 7.09168e-01  5.48251e-03 -2.99940e+00 
 8.86558e-01  6.79215e-03 -2.98785e+00 
 1.06399e+00  8.06150e-03 -2.97373e+00 
 1.24150e+00  9.28328e-03 -2.95706e+00 
 1.41908e+00  1.04501e-02 -2.93784e+00 
 1.59676e+00  1.15551e-02 -2.91607e+00 
 1.77452e+00  1.25918e-02 -2.89177e+00 
 1.95240e+00  1.35541e-02 -2.86494e+00 
 2.13037e+00  1.44364e-02 -2.83559e+00 
 2.30849e+00  1.52335e-02 -2.80373e+00 
 2.48671e+00  1.59410e-02 -2.76936e+00 
 2.66507e+00  1.65547e-02 -2.73251e+00 
 2.84356e+00  1.70714e-02 -2.69317e+00 
 3.02219e+00  1.74885e-02 -2.65137e+00 
 3.20095e+00  1.78038e-02 -2.60710e+00 
 3.37987e+00  1.80161e-02 -2.56039e+00 
 3.55890e+00  1.81250e-02 -2.51125e+00 
 3.73809e+00  1.81306e-02 -2.45967e+00 
 3.91739e+00  1.80341e-02 -2.40569e+00 
 4.09684e+00  1.78372e-02 -2.34930e+00 
 4.27639e+00  1.75427e-02 -2.29053e+00 
 4.45608e+00  1.71541e-02 -2.22937e+00 
 4.63586e+00  1.66756e-02 -2.16585e+00 
 4.81576e+00  1.61123e-02 -2.09997e+00 
 4.99573e+00  1.54702e-02 -2.03174e+00 
 5.17579e+00  1.47558e-02 -1.96116e+00 
 5.35590e+00  1.39767e-02 -1.88826e+00 
 5.53607e+00  1.31408e-02 -1.81303e+00 
 5.71627e+00  1.22569e-02 -1.73548e+00 
 5.89650e+00  1.13343e-02 -1.65561e+00 
 6.07672e+00  1.03829e-02 -1.57343e+00 
 6.25695e+00  9.41291e-03 -1.48894e+00 
 6.43713e+00  8.43518e-03 -1.40214e+00 
 6.61728e+00  7.46048e-03 -1.31303e+00 
 6.79735e+00  6.50021e-03 -1.22162e+00 
 6.97735e+00  5.56542e-03 -1.12788e+00 
 7.15723e+00  4.66756e-03 -1.03183e+00 
 7.33701e+00  3.81758e-03 -9.33446e-01 
 7.51664e+00  3.02649e-03 -8.32735e-01 
 7.69613e+00  2.30465e-03 -7.29669e-01 
 7.87543e+00  1.66216e-03 -6.24257e-01 
 8.05457e+00  1.10828e-03 -5.16464e-01 
 8.23349e+00  6.51642e-04 -4.06299e-01 
 8.41222e+00  2.99873e-04 -2.93722e-01 
 8.59071e+00  5.96529e-05 -1.78739e-01 
 8.77473e+00  1.26699e-02 -2.95580e-02 
-8.53750e+00 -1.23062e-02 -2.94922e-02 
-8.35852e+00 -7.09755e-05 -1.78345e-01 
-8.18487e+00 -3.54693e-04 -2.93081e-01 
-8.01095e+00 -7.69211e-04 -4.05425e-01 
-7.83680e+00 -1.30623e-03 -5.15374e-01 
-7.66240e+00 -1.95640e-03 -6.22967e-01 
-7.48780e+00 -2.70923e-03 -7.28199e-01 
-7.31299e+00 -3.55360e-03 -8.31106e-01 
-7.13803e+00 -4.47741e-03 -9.31680e-01 
-6.96289e+00 -5.46836e-03 -1.02995e+00 
-6.78763e+00 -6.51341e-03 -1.12591e+00 
-6.61224e+00 -7.59966e-03 -1.21958e+00 
-6.43678e+00 -8.71371e-03 -1.31096e+00 
-6.26123e+00 -9.84263e-03 -1.40005e+00 
-6.08565e+00 -1.09732e-02 -1.48685e+00 
-5.91002e+00 -1.20929e-02 -1.57137e+00 
-5.73440e+00 -1.31892e-02 -1.65360e+00 
-5.55877e+00 -1.42504e-02 -1.73355e+00 
-5.38320e+00 -1.52651e-02 -1.81119e+00 
-5.20765e+00 -1.62228e-02 -1.88654e+00 
-5.03218e+00 -1.71134e-02 -1.95957e+00 
-4.85678e+00 -1.79279e-02 -2.03029e+00 
-4.68149e+00 -1.86579e-02 -2.09868e+00 
-4.50629e+00 -1.92960e-02 -2.16474e+00 
-4.33123e+00 -1.98356e-02 -2.22845e+00 
-4.15628e+00 -2.02712e-02 -2.28981e+00 
-3.98149e+00 -2.05978e-02 -2.34878e+00 
-3.80683e+00 -2.08118e-02 -2.40539e+00 
-3.63233e+00 -2.09104e-02 -2.45958e+00 
-3.45798e+00 -2.08916e-02 -2.51138e+00 
-3.28381e+00 -2.07544e-02 -2.56074e+00 
-3.10978e+00 -2.04988e-02 -2.60768e+00 
-2.93593e+00 -2.01255e-02 -2.65216e+00 
-2.76222e+00 -1.96361e-02 -2.69418e+00 
-2.58870e+00 -1.90331e-02 -2.73372e+00 
-2.41531e+00 -1.83196e-02 -2.77078e+00 
-2.24209e+00 -1.74996e-02 -2.80534e+00 
-2.06900e+00 -1.65776e-02 -2.83739e+00 
-1.89606e+00 -1.55592e-02 -2.86691e+00 
-1.72324e+00 -1.44499e-02 -2.89391e+00 
-1.55056e+00 -1.32564e-02 -2.91836e+00 
-1.37797e+00 -1.19856e-02 -2.94027e+00 
-1.20550e+00 -1.06450e-02 -2.95961e+00 
-1.03311e+00 -9.24214e-03 -2.97639e+00 
-8.60806e-01 -7.78558e-03 -2.99060e+00 
-6.88556e-01 -6.28353e-03 -3.00224e+00 
-5.16377e-01 -4.74501e-03 -3.01129e+00 
-3.44222e-01 -3.17871e-03 -3.01776e+00 
-1.72110e-01 -1.59405e-03 -3.02164e+00 
-4.84796e-13  3.20319e-12 -3.02293e+00 
 1.72110e-01  1.59405e-03 -3.02164e+00 
 3.44222e-01  3.17871e-03 -3.01776e+00 
 5.16377e-01  4.74501e-03 -3.01129e+00 
 6.88556e-01  6.28353e-03 -3.00224e+00 
 8.60806e-01  7.78558e-03 -2.99060e+00 
 1.03311e+00  9.24214e-03 -2.97639e+00 
 1.20550e+00  1.06450e-02 -2.95961e+00 
 1.37797e+00  1.19856e-02 -2.94027e+00 
 1.55056e+00  1.32564e-02 -2.91836e+00 
 1.72324e+00  1.44499e-02 -2.89391e+00 
 1.89606e+00  1.55592e-02 -2.86691e+00 
 2.06900e+00  1.65776e-02 -2.83739e+00 
 2.24209e+00  1.74996e-02 -2.80534e+00 
 2.41531e+00  1.83196e-02 -2.77078e+00 
 2.58870e+00  1.90331e-02 -2.73372e+00 
 2.76222e+00  1.96361e-02 -2.69418e+00 
 2.93593e+00  2.01255e-02 -2.65216e+00 
 3.10978e+00  2.04988e-02 -2.60768e+00 
 3.28381e+00  2.07544e-02 -2.56074e+00 
 3.45798e+00  2.08916e-02 -2.51138e+00 
 3.63233e+00  2.09104e-02 -2.45958e+00 
 3.80683e+00  2.08118e-02 -2.40539e+00 
 3.98149e+00  2.05978e-02 -2.34878e+00 
 4.15628e+00  2.02712e-02 -2.28981e+00 
 4.33123e+00  1.98356e-02 -2.22845e+00 
 4.50629e+00  1.92960e-02 -2.16474e+00 
 4.68149e+00  1.86579e-02 -2.09868e+00 
 4.85678e+00  1.79279e-02 -2.03029e+00 
 5.03218e+00  1.71134e-02 -1.95957e+00 
 5.20765e+00  1.62228e-02 -1.88654e+00 
 5.38320e+00  1.52651e-02 -1.81119e+00 
 5.55877e+00  1.42504e-02 -1.73355e+00 
 5.73440e+00  1.31892e-02 -1.65360e+00 
 5.91002e+00  1.20929e-02 -1.57137e+00 
 6.08565e+00  1.09732e-02 -1.48685e+00 
 6.26123e+00  9.84263e-03 -1.40005e+00 
 6.43678e+00  8.71371e-03 -1.31096e+00 
 6.61224e+00  7.59966e-03 -1.21958e+00 
 6.78763e+00  6.51341e-03 -1.12591e+00 
 6.96289e+00  5.46836e-03 -1.02995e+00 
 7.13803e+00  4.47741e-03 -9.31680e-01 
 7.31299e+00  3.55360e-03 -8.31106e-01 
 7.48780e+00  2.70923e-03 -7.28199e-01 
 7.66240e+00  1.95640e-03 -6.22967e-01 
 7.83680e+00  1.30623e-03 -5.15374e-01 
 8.01095e+00  7.69211e-04 -4.05425e-01 
 8.18487e+00  3.54693e-04 -2.93081e-01 
 8.35852e+00  7.09755e-05 -1.78345e-01 
 8.53750e+00  1.23062e-02 -2.94922e-02 
-8.30083e+00 -1.19419e-02 -2.94138e-02 
-8.12687e+00 -8.40732e-05 -1.77881e-01 
-7.95804e+00 -4.17685e-04 -2.92328e-01 
-7.78889e+00 -9.03976e-04 -4.04400e-01 
-7.61947e+00 -1.53269e-03 -5.14095e-01 
-7.44977e+00 -2.29245e-03 -6.21457e-01 
-7.27984e+00 -3.17057e-03 -7.26481e-01 
-7.10966e+00 -4.15370e-03 -8.29206e-01 
-6.93931e+00 -5.22746e-03 -9.29623e-01 
-6.76876e+00 -6.37728e-03 -1.02777e+00 
-6.59808e+00 -7.58779e-03 -1.12363e+00 
-6.42725e+00 -8.84388e-03 -1.21723e+00 
-6.25634e+00 -1.01299e-02 -1.30855e+00 
-6.08534e+00 -1.14308e-02 -1.39763e+00 
-5.91430e+00 -1.27313e-02 -1.48444e+00 
-5.74322e+00 -1.40170e-02 -1.56901e+00 
-5.57216e+00 -1.52734e-02 -1.65130e+00 
-5.40110e+00 -1.64873e-02 -1.73133e+00 
-5.23010e+00 -1.76455e-02 -1.80909e+00 
-5.05914e+00 -1.87363e-02 -1.88457e+00 
-4.88828e+00 -1.97482e-02 -1.95776e+00 
-4.71750e+00 -2.06711e-02 -2.02865e+00 
-4.54686e+00 -2.14956e-02 -2.09723e+00 
-4.37633e+00 -2.22135e-02 -2.16350e+00 
-4.20597e+00 -2.28175e-02 -2.22742e+00 
-4.03574e+00 -2.33015e-02 -2.28900e+00 
-3.86569e+00 -2.36602e-02 -2.34822e+00 
-3.69580e+00 -2.38899e-02 -2.40506e+00 
-3.52611e+00 -2.39873e-02 -2.45951e+00 
-3.35659e+00 -2.39507e-02 -2.51156e+00 
-3.18728e+00 -2.37792e-02 -2.56117e+00 
-3.01813e+00 -2.34728e-02 -2.60836e+00 
-2.84920e+00 -2.30328e-02 -2.65309e+00 
-2.68044e+00 -2.24610e-02 -2.69535e+00 
-2.51188e+00 -2.17606e-02 -2.73514e+00 
-2.34348e+00 -2.09351e-02 -2.77243e+00 
-2.17528e+00 -1.99895e-02 -2.80720e+00 
-2.00723e+00 -1.89288e-02 -2.83946e+00 
-1.83936e+00 -1.77593e-02 -2.86919e+00 
-1.67163e+00 -1.64876e-02 -2.89637e+00 
-1.50405e+00 -1.51212e-02 -2.92099e+00 
-1.33658e+00 -1.36678e-02 -2.94305e+00 
-1.16925e+00 -1.21360e-02 -2.96254e+00 
-1.00201e+00 -1.05344e-02 -2.97944e+00 
-8.34874e-01 -8.87262e-03 -2.99375e+00 
-6.67799e-01 -7.15978e-03 -3.00548e+00 
-5.00802e-01 -5.40609e-03 -3.01460e+00 
-3.33835e-01 -3.62128e-03 -3.02111e+00 
-1.66916e-01 -1.81590e-03 -3.02503e+00 
-1.73260e-13  4.91858e-12 -3.02633e+00 
 1.66916e-01  1.81590e-03 -3.02503e+00 
 3.33835e-01  3.62128e-03 -3.02111e+00 
 5.00802e-01  5.40609e-03 -3.01460e+00 
 6.67799e-01  7.15978e-03 -3.00548e+00 
 8.34874e-01  8.87262e-03 -2.99375e+00 
 1.00201e+00  1.05344e-02 -2.97944e+00 
 1.16925e+00  1.21360e-02 -2.96254e+00 
 1.33658e+00  1.36678e-02 -2.94305e+00 
 1.50405e+00  1.51212e-02 -2.92099e+00 
 1.67163e+00  1.64876e-02 -2.89637e+00 
 1.83936e+00  1.77593e-02 -2.86919e+00 
 2.00723e+00  1.89288e-02 -2.83946e+00 
 2.17528e+00  1.99895e-02 -2.80720e+00 
 2.34348e+00  2.09351e-02 -2.77243e+00 
 2.51188e+00  2.17606e-02 -2.73514e+00 
 2.68044e+00  2.24610e-02 -2.69535e+00 
 2.84920e+00  2.30328e-02 -2.65309e+00 
 3.01813e+00  2.34728e-02 -2.60836e+00 
 3.18728e+00  2.37792e-02 -2.56117e+00 
 3.35659e+00  2.39507e-02 -2.51156e+00 
 3.52611e+00  2.39873e-02 -2.45951e+00 
 3.69580e+00  2.38899e-02 -2.40506e+00 
 3.86569e+00  2.36602e-02 -2.34822e+00 
 4.03574e+00  2.33015e-02 -2.28900e+00 
 4.20597e+00  2.28175e-02 -2.22742e+00 
 4.37633e+00  2.22135e-02 -2.16350e+00 
 4.54686e+00  2.14956e-02 -2.09723e+00 
 4.71750e+00  2.06711e-02 -2.02865e+00 
 4.88828e+00  1.97482e-02 -1.95776e+00 
 5.05914e+00  1.87363e-02 -1.88457e+00 
 5.23010e+00  1.76455e-02 -1.80909e+00 
 5.40110e+00  1.64873e-02 -1.73133e+00 
 5.57216e+00  1.52734e-02 -1.65130e+00 
 5.74322e+00  1.40170e-02 -1.56901e+00 
 5.91430e+00  1.27313e-02 -1.48444e+00 
 6.08534e+00  1.14308e-02 -1.39763e+00 
 6.25634e+00  1.01299e-02 -1.30855e+00 
 6.42725e+00  8.84388e-03 -1.21723e+00 
 6.59808e+00  7.58779e-03 -1.12363e+00 
 6.76876e+00  6.37728e-03 -1.02777e+00 
 6.93931e+00  5.22746e-03 -9.29623e-01 
 7.10966e+00  4.15370e-03 -8.29206e-01 
 7.27984e+00  3.17057e-03 -7.26481e-01 
 7.44977e+00  2.29245e-03 -6.21457e-01 
 7.61947e+00  1.53269e-03 -5.14095e-01 
 7.78889e+00  9.03976e-04 -4.04400e-01 
 7.95804e+00  4.17685e-04 -2.92328e-01 
 8.12687e+00  8.40732e-05 -1.77881e-01 
 8.30083e+00  1.19419e-02 -2.94138e-02 
-8.06482e+00 -1.15771e-02 -2.93207e-02 
-7.89586e+00 -9.92078e-05 -1.77335e-01 
-7.73181e+00 -4.89979e-04 -2.91445e-01 
-7.56740e+00 -1.05826e-03 -4.03200e-01 
-7.40266e+00 -1.79145e-03 -5.12602e-01 
-7.23761e+00 -2.67573e-03 -6.19697e-01 
-7.07229e+00 -3.69585e-03 -7.24483e-01 
-6.90670e+00 -4.83587e-03 -8.26999e-01 
-6.74089e+00 -6.07873e-03 -9.27240e-01 
-6.57488e+00 -7.40721e-03 -1.02524e+00 
-6.40871e+00 -8.80331e-03 -1.12099e+00 
-6.24238e+00 -1.02493e-02 -1.21451e+00 
-6.07596e+00 -1.17271e-02 -1.30579e+00 
-5.90945e+00 -1.32193e-02 -1.39486e+00 
-5.74290e+00 -1.47081e-02 -1.48169e+00 
-5.57632e+00 -1.61772e-02 -1.56630e+00 
-5.40975e+00 -1.76099e-02 -1.64867e+00 
-5.24320e+00 -1.89912e-02 -1.72881e+00 
-5.07673e+00 -2.03062e-02 -1.80669e+00 
-4.91032e+00 -2.15416e-02 -1.88233e+00 
-4.74403e+00 -2.26846e-02 -1.95570e+00 
-4.57784e+00 -2.37240e-02 -2.02680e+00 
-4.41181e+00 -2.46493e-02 -2.09560e+00 
-4.24592e+00 -2.54514e-02 -2.16210e+00 
-4.08023e+00 -2.61224e-02 -2.22628e+00 
-3.91470e+00 -2.66557e-02 -2.28812e+00 
-3.74938e+00 -2.70457e-02 -2.34761e+00 
-3.58426e+00 -2.72884e-02 -2.40473e+00 
-3.41936e+00 -2.73804e-02 -2.45946e+00 
-3.25467e+00 -2.73203e-02 -2.51179e+00 
-3.09021e+00 -2.71070e-02 -2.56170e+00 
-2.92596e+00 -2.67413e-02 -2.60917e+00 
-2.76195e+00 -2.62245e-02 -2.65418e+00 
-2.59814e+00 -2.55593e-02 -2.69672e+00 
-2.43456e+00 -2.47492e-02 -2.73677e+00 
-2.27118e+00 -2.37986e-02 -2.77432e+00 
-2.10802e+00 -2.27130e-02 -2.80935e+00 
-1.94504e+00 -2.14985e-02 -2.84184e+00 
-1.78226e+00 -2.01622e-02 -2.87179e+00 
-1.61964e+00 -1.87115e-02 -2.89918e+00 
-1.45720e+00 -1.71551e-02 -2.92399e+00 
-1.29489e+00 -1.55016e-02 -2.94623e+00 
-1.13273e+00 -1.37606e-02 -2.96587e+00 
-9.70674e-01 -1.19419e-02 -2.98291e+00 
-8.08740e-01 -1.00561e-02 -2.99734e+00 
-6.46878e-01 -8.11352e-03 -3.00916e+00 
-4.85103e-01 -6.12546e-03 -3.01836e+00 
-3.23365e-01 -4.10278e-03 -3.02493e+00 
-1.61680e-01 -2.05724e-03 -3.02887e+00 
-8.45196e-14  6.11911e-12 -3.03019e+00 
 1.61680e-01  2.05724e-03 -3.02887e+00 
 3.23365e-01  4.10278e-03 -3.02493e+00 
 4.85103e-01  6.12546e-03 -3.01836e+00 
 6.46878e-01  8.11352e-03 -3.00916e+00 
 8.08740e-01  1.00561e-02 -2.99734e+00 
 9.70674e-01  1.19419e-02 -2.98291e+00 
 1.13273e+00  1.37606e-02 -2.96587e+00 
 1.29489e+00  1.55016e-02 -2.94623e+00 
 1.45720e+00  1.71551e-02 -2.92399e+00 
 1.61964e+00  1.87115e-02 -2.89918e+00 
 1.78226e+00  2.01622e-02 -2.87179e+00 
 1.94504e+00  2.14985e-02 -2.84184e+00 
 2.10802e+00  2.27130e-02 -2.80935e+00 
 2.27118e+00  2.37986e-02 -2.77432e+00 
 2.43456e+00  2.47492e-02 -2.73677e+00 
 2.59814e+00  2.55593e-02 -2.69672e+00 
 2.76195e+00  2.62245e-02 -2.65418e+00 
 2.92596e+00  2.67413e-02 -2.60917e+00 
 3.09021e+00  2.71070e-02 -2.56170e+00 
 3.25467e+00  2.73203e-02 -2.51179e+00 
 3.41936e+00  2.73804e-02 -2.45946e+00 
 3.58426e+00  2.72884e-02 -2.40473e+00 
 3.74938e+00  2.70457e-02 -2.34761e+00 
 3.91470e+00  2.66557e-02 -2.28812e+00 
 4.08023e+00  2.61224e-02 -2.22628e+00 
 4.24592e+00  2.54514e-02 -2.16210e+00 
 4.41181e+00  2.46493e-02 -2.09560e+00 
 4.57784e+00  2.37240e-02 -2.02680e+00 
 4.74403e+00  2.26846e-02 -1.95570e+00 
 4.91032e+00  2.15416e-02 -1.88233e+00 
 5.07673e+00  2.03062e-02 -1.80669e+00 
 5.24320e+00  1.89912e-02 -1.72881e+00 
 5.40975e+00  1.76099e-02 -1.64867e+00 
 5.57632e+00  1.61772e-02 -1.56630e+00 
 5.74290e+00  1.47081e-02 -1.48169e+00 
 5.90945e+00  1.32193e-02 -1.39486e+00 
 6.07596e+00  1.17271e-02 -1.30579e+00 
 6.24238e+00  1.02493e-02 -1.21451e+00 
 6.40871e+00  8.80331e-03 -1.12099e+00 
 6.57488e+00  7.40721e-03 -1.02524e+00 
 6.74089e+00  6.07873e-03 -9.27240e-01 
 6.90670e+00  4.83587e-03 -8.26999e-01 
 7.07229e+00  3.69585e-03 -7.24483e-01 
 7.23761e+00  2.67573e-03 -6.19697e-01 
 7.40266e+00  1.79145e-03 -5.12602e-01 
 7.56740e+00  1.05826e-03 -4.03200e-01 
 7.73181e+00  4.89979e-04 -2.91445e-01 
 7.89586e+00  9.92078e-05 -1.77335e-01 
 8.06482e+00  1.15771e-02 -2.93207e-02 
-7.82959e+00 -1.12123e-02 -2.92107e-02 
-7.66559e+00 -1.16671e-04 -1.76696e-01 
-7.50629e+00 -5.72818e-04 -2.90413e-01 
-7.34655e+00 -1.23459e-03 -4.01801e-01 
-7.18646e+00 -2.08659e-03 -5.10866e-01 
-7.02599e+00 -3.11209e-03 -6.17655e-01 
-6.86522e+00 -4.29283e-03 -7.22168e-01 
-6.70414e+00 -5.60980e-03 -8.24448e-01 
-6.54282e+00 -7.04285e-03 -9.24489e-01 
-6.38126e+00 -8.57172e-03 -1.02233e+00 
-6.21953e+00 -1.01754e-02 -1.11795e+00 
-6.05764e+00 -1.18332e-02 -1.21139e+00 
-5.89564e+00 -1.35241e-02 -1.30262e+00 
-5.73355e+00 -1.52280e-02 -1.39168e+00 
-5.57142e+00 -1.69248e-02 -1.47854e+00 
-5.40927e+00 -1.85954e-02 -1.56321e+00 
-5.24714e+00 -2.02212e-02 -1.64568e+00 
-5.08505e+00 -2.17851e-02 -1.72594e+00 
-4.92305e+00 -2.32703e-02 -1.80399e+00 
-4.76113e+00 -2.46619e-02 -1.87982e+00 
-4.59936e+00 -2.59456e-02 -1.95339e+00 
-4.43772e+00 -2.71091e-02 -2.02472e+00 
-4.27627e+00 -2.81407e-02 -2.09378e+00 
-4.11499e+00 -2.90307e-02 -2.16055e+00 
-3.95394e+00 -2.97703e-02 -2.22501e+00 
-3.79309e+00 -3.03527e-02 -2.28716e+00 
-3.63249e+00 -3.07718e-02 -2.34695e+00 
-3.47212e+00 -3.10235e-02 -2.40439e+00 
-3.31201e+00 -3.11047e-02 -2.45944e+00 
-3.15214e+00 -3.10138e-02 -2.51210e+00 
-2.99254e+00 -3.07503e-02 -2.56233e+00 
-2.83319e+00 -3.03152e-02 -2.61012e+00 
-2.67411e+00 -2.97105e-02 -2.65545e+00 
-2.51527e+00 -2.89393e-02 -2.69830e+00 
-2.35669e+00 -2.80061e-02 -2.73865e+00 
-2.19835e+00 -2.69159e-02 -2.77649e+00 
-2.04025e+00 -2.56752e-02 -2.81180e+00 
-1.88236e+00 -2.42909e-02 -2.84456e+00 
-1.72470e+00 -2.27712e-02 -2.87475e+00 
-1.56723e+00 -2.11244e-02 -2.90237e+00 
-1.40996e+00 -1.93603e-02 -2.92740e+00 
-1.25284e+00 -1.74885e-02 -2.94983e+00 
-1.09589e+00 -1.55200e-02 -2.96965e+00 
-9.39070e-01 -1.34654e-02 -2.98684e+00 
-7.82380e-01 -1.13366e-02 -3.00140e+00 
-6.25775e-01 -9.14507e-03 -3.01333e+00 
-4.69267e-01 -6.90332e-03 -3.02261e+00 
-3.12804e-01 -4.62333e-03 -3.02924e+00 
-1.56397e-01 -2.31813e-03 -3.03322e+00 
-9.97488e-13  5.13724e-12 -3.03455e+00 
 1.56397e-01  2.31813e-03 -3.03322e+00 
 3.12804e-01  4.62333e-03 -3.02924e+00 
 4.69267e-01  6.90332e-03 -3.02261e+00 
 6.25775e-01  9.14507e-03 -3.01333e+00 
 7.82380e-01  1.13366e-02 -3.00140e+00 
 9.39070e-01  1.34654e-02 -2.98684e+00 
 1.09589e+00  1.55200e-02 -2.96965e+00 
 1.25284e+00  1.74885e-02 -2.94983e+00 
 1.40996e+00  1.93603e-02 -2.92740e+00 
 1.56723e+00  2.11244e-02 -2.90237e+00 
 1.72470e+00  2.27712e-02 -2.87475e+00 
 1.88236e+00  2.42909e-02 -2.84456e+00 
 2.04025e+00  2.56752e-02 -2.81180e+00 
 2.19835e+00  2.69159e-02 -2.77649e+00 
 2.35669e+00  2.80061e-02 -2.73865e+00 
 2.51527e+00  2.89393e-02 -2.69830e+00 
 2.67411e+00  2.97105e-02 -2.65545e+00 
 2.83319e+00  3.03152e-02 -2.61012e+00 
 2.99254e+00  3.07503e-02 -2.56233e+00 
 3.15214e+00  3.10138e-02 -2.51210e+00 
 3.31201e+00  3.11047e-02 -2.45944e+00 
 3.47212e+00  3.10235e-02 -2.40439e+00 
 3.63249e+00  3.07718e-02 -2.34695e+00 
 3.79309e+00  3.03527e-02 -2.28716e+00 
 3.95394e+00  2.97703e-02 -2.22501e+00 
 4.11499e+00  2.90307e-02 -2.16055e+00 
 4.27627e+00  2.81407e-02 -2.09378e+00 
 4.43772e+00  2.71091e-02 -2.02472e+00 
 4.59936e+00  2.59456e-02 -1.95339e+00 
 4.76113e+00  2.46619e-02 -1.87982e+00 
 4.92305e+00  2.32703e-02 -1.80399e+00 
 5.08505e+00  2.17851e-02 -1.72594e+00 
 5.24714e+00  2.02212e-02 -1.64568e+00 
 5.40927e+00  1.85954e-02 -1.56321e+00 
 5.57142e+00  1.69248e-02 -1.47854e+00 
 5.73355e+00  1.52280e-02 -1.39168e+00 
 5.89564e+00  1.35241e-02 -1.30262e+00 
 6.05764e+00  1.18332e-02 -1.21139e+00 
 6.21953e+00  1.01754e-02 -1.11795e+00 
 6.38126e+00  8.57172e-03 -1.02233e+00 
 6.54282e+00  7.04285e-03 -9.24489e-01 
 6.70414e+00  5.60980e-03 -8.24448e-01 
 6.86522e+00  4.29283e-03 -7.22168e-01 
 7.02599e+00  3.11209e-03 -6.17655e-01 
 7.18646e+00  2.08659e-03 -5.10866e-01 
 7.34655e+00  1.23459e-03 -4.01801e-01 
 7.50629e+00  5.72818e-04 -2.90413e-01 
 7.66559e+00  1.16671e-04 -1.76696e-01 
 7.82959e+00  1.12123e-02 -2.92107e-02 
-7.59528e+00 -1.08475e-02 -2.90810e-02 
-7.43619e+00 -1.36787e-04 -1.75950e-01 
-7.28157e+00 -6.67563e-04 -2.89212e-01 
-7.12647e+00 -1.43572e-03 -4.00177e-01 
-6.97093e+00 -2.42253e-03 -5.08854e-01 
-6.81498e+00 -3.60780e-03 -6.15292e-01 
-6.65868e+00 -4.96972e-03 -7.19496e-01 
-6.50204e+00 -6.48573e-03 -8.21508e-01 
-6.34512e+00 -8.13206e-03 -9.21326e-01 
-6.18795e+00 -9.88494e-03 -1.01898e+00 
-6.03058e+00 -1.17198e-02 -1.11447e+00 
-5.87303e+00 -1.36128e-02 -1.20782e+00 
-5.71538e+00 -1.55395e-02 -1.29901e+00 
-5.55762e+00 -1.74770e-02 -1.38806e+00 
-5.39984e+00 -1.94020e-02 -1.47496e+00 
-5.24204e+00 -2.12932e-02 -1.55971e+00 
-5.08429e+00 -2.31292e-02 -1.64229e+00 
-4.92659e+00 -2.48908e-02 -1.72271e+00 
-4.76900e+00 -2.65593e-02 -1.80095e+00 
-4.61152e+00 -2.81181e-02 -1.87699e+00 
-4.45422e+00 -2.95513e-02 -1.95081e+00 
-4.29708e+00 -3.08455e-02 -2.02241e+00 
-4.14017e+00 -3.19879e-02 -2.09176e+00 
-3.98347e+00 -3.29681e-02 -2.15884e+00 
-3.82703e+00 -3.37766e-02 -2.22363e+00 
-3.67084e+00 -3.44062e-02 -2.28612e+00 
-3.51493e+00 -3.48508e-02 -2.34626e+00 
-3.35930e+00 -3.51061e-02 -2.40406e+00 
-3.20397e+00 -3.51691e-02 -2.45948e+00 
-3.04892e+00 -3.50387e-02 -2.51250e+00 
-2.89419e+00 -3.47148e-02 -2.56309e+00 
-2.73974e+00 -3.41988e-02 -2.61124e+00 
-2.58561e+00 -3.34935e-02 -2.65692e+00 
-2.43175e+00 -3.26028e-02 -2.70012e+00 
-2.27820e+00 -3.15319e-02 -2.74081e+00 
-2.12491e+00 -3.02868e-02 -2.77897e+00 
-1.97190e+00 -2.88749e-02 -2.81459e+00 
-1.81914e+00 -2.73041e-02 -2.84764e+00 
-1.66664e+00 -2.55838e-02 -2.87811e+00 
-1.51435e+00 -2.37234e-02 -2.90599e+00 
-1.36229e+00 -2.17337e-02 -2.93126e+00 
-1.21041e+00 -1.96255e-02 -2.95390e+00 
-1.05872e+00 -1.74110e-02 -2.97391e+00 
-9.07170e-01 -1.51020e-02 -2.99127e+00 
-7.55771e-01 -1.27115e-02 -3.00598e+00 
-6.04471e-01 -1.02522e-02 -3.01802e+00 
-4.53279e-01 -7.73792e-03 -3.02739e+00 
-3.02141e-01 -5.18175e-03 -3.03409e+00 
-1.51064e-01 -2.59795e-03 -3.03811e+00 
-2.84701e-13  7.58085e-12 -3.03945e+00 
 1.51064e-01  2.59795e-03 -3.03811e+00 
 3.02141e-01  5.18175e-03 -3.03409e+00 
 4.53279e-01  7.73792e-03 -3.02739e+00 
 6.04471e-01  1.02522e-02 -3.01802e+00 
 7.55771e-01  1.27115e-02 -3.00598e+00 
 9.07170e-01  1.51020e-02 -2.99127e+00 
 1.05872e+00  1.74110e-02 -2.97391e+00 
 1.21041e+00  1.96255e-02 -2.95390e+00 
 1.36229e+00  2.17337e-02 -2.93126e+00 
 1.51435e+00  2.37234e-02 -2.90599e+00 
 1.66664e+00  2.55838e-02 -2.87811e+00 
 1.81914e+00  2.73041e-02 -2.84764e+00 
 1.97190e+00  2.88749e-02 -2.81459e+00 
 2.12491e+00  3.02868e-02 -2.77897e+00 
 2.27820e+00  3.15319e-02 -2.74081e+00 
 2.43175e+00  3.26028e-02 -2.70012e+00 
 2.58561e+00  3.34935e-02 -2.65692e+00 
 2.73974e+00  3.41988e-02 -2.61124e+00 
 2.89419e+00  3.47148e-02 -2.56309e+00 
 3.04892e+00  3.50387e-02 -2.51250e+00 
 3.20397e+00  3.51691e-02 -2.45948e+00 
 3.35930e+00  3.51061e-02 -2.40406e+00 
 3.51493e+00  3.48508e-02 -2.34626e+00 
 3.67084e+00  3.44062e-02 -2.28612e+00 
 3.82703e+00  3.37766e-02 -2.22363e+00 
 3.98347e+00  3.29681e-02 -2.15884e+00 
 4.14017e+00  3.19879e-02 -2.09176e+00 
 4.29708e+00  3.08455e-02 -2.02241e+00 
 4.45422e+00  2.95513e-02 -1.95081e+00 
 4.61152e+00  2.81181e-02 -1.87699e+00 
 4.76900e+00  2.65593e-02 -1.80095e+00 
 4.92659e+00  2.48908e-02 -1.72271e+00 
 5.08429e+00  2.31292e-02 -1.64229e+00 
 5.24204e+00  2.12932e-02 -1.55971e+00 
 5.39984e+00  1.94020e-02 -1.47496e+00 
 5.55762e+00  1.74770e-02 -1.38806e+00 
 5.71538e+00  1.55395e-02 -1.29901e+00 
 5.87303e+00  1.36128e-02 -1.20782e+00 
 6.03058e+00  1.17198e-02 -1.11447e+00 
 6.18795e+00  9.88494e-03 -1.01898e+00 
 6.34512e+00  8.13206e-03 -9.21326e-01 
 6.50204e+00  6.48573e-03 -8.21508e-01 
 6.65868e+00  4.96972e-03 -7.19496e-01 
 6.81498e+00  3.60780e-03 -6.15292e-01 
 6.97093e+00  2.42253e-03 -5.08854e-01 
 7.12647e+00  1.43572e-03 -4.00177e-01 
 7.28157e+00  6.67563e-04 -2.89212e-01 
 7.43619e+00  1.36787e-04 -1.75950e-01 
 7.59528e+00  1.08475e-02 -2.90810e-02 
-7.36203e+00 -1.04834e-02 -2.89285e-02 
-7.20779e+00 -1.59917e-04 -1.75082e-01 
-7.05780e+00 -7.75701e-04 -2.87819e-01 
-6.90724e+00 -1.66464e-03 -3.98297e-01 
-6.75620e+00 -2.80401e-03 -5.06529e-01 
-6.60468e+00 -4.16955e-03 -6.12568e-01 
-6.45276e+00 -5.73525e-03 -7.16421e-01 
-6.30046e+00 -7.47440e-03 -8.18133e-01 
-6.14785e+00 -9.35903e-03 -9.17701e-01 
-5.99496e+00 -1.13614e-02 -1.01516e+00 
-5.84185e+00 -1.34528e-02 -1.11050e+00 
-5.68856e+00 -1.56057e-02 -1.20376e+00 
-5.53515e+00 -1.77921e-02 -1.29490e+00 
-5.38165e+00 -1.99856e-02 -1.38396e+00 
-5.22813e+00 -2.21598e-02 -1.47091e+00 
-5.07460e+00 -2.42904e-02 -1.55576e+00 
-4.92114e+00 -2.63535e-02 -1.63849e+00 
-4.76776e+00 -2.83275e-02 -1.71909e+00 
-4.61451e+00 -3.01916e-02 -1.79754e+00 
-4.46142e+00 -3.19276e-02 -1.87383e+00 
-4.30853e+00 -3.35179e-02 -1.94794e+00 
-4.15585e+00 -3.49478e-02 -2.01985e+00 
-4.00343e+00 -3.62038e-02 -2.08953e+00 
-3.85127e+00 -3.72745e-02 -2.15697e+00 
-3.69941e+00 -3.81501e-02 -2.22213e+00 
-3.54785e+00 -3.88231e-02 -2.28501e+00 
-3.39662e+00 -3.92873e-02 -2.34555e+00 
-3.24571e+00 -3.95387e-02 -2.40375e+00 
-3.09516e+00 -3.95745e-02 -2.45957e+00 
-2.94493e+00 -3.93939e-02 -2.51300e+00 
-2.79507e+00 -3.89976e-02 -2.56400e+00 
-2.64554e+00 -3.83877e-02 -2.61256e+00 
-2.49636e+00 -3.75677e-02 -2.65863e+00 
-2.34751e+00 -3.65425e-02 -2.70222e+00 
-2.19901e+00 -3.53182e-02 -2.74328e+00 
-2.05081e+00 -3.39019e-02 -2.78180e+00 
-1.90293e+00 -3.23022e-02 -2.81775e+00 
-1.75533e+00 -3.05280e-02 -2.85113e+00 
-1.60802e+00 -2.85897e-02 -2.88191e+00 
-1.46096e+00 -2.64982e-02 -2.91007e+00 
-1.31415e+00 -2.42653e-02 -2.93559e+00 
-1.16755e+00 -2.19031e-02 -2.95847e+00 
-1.02117e+00 -1.94249e-02 -2.97869e+00 
-8.74943e-01 -1.68438e-02 -2.99623e+00 
-7.28888e-01 -1.41740e-02 -3.01110e+00 
-5.82947e-01 -1.14294e-02 -3.02327e+00 
-4.37125e-01 -8.62504e-03 -3.03274e+00 
-2.91367e-01 -5.77514e-03 -3.03951e+00 
-1.45676e-01 -2.89525e-03 -3.04358e+00 
-6.03113e-13  4.83754e-12 -3.04493e+00 
 1.45676e-01  2.89525e-03 -3.04358e+00 
 2.91367e-01  5.77514e-03 -3.03951e+00 
 4.37125e-01  8.62504e-03 -3.03274e+00 
 5.82947e-01  1.14294e-02 -3.02327e+00 
 7.28888e-01  1.41740e-02 -3.01110e+00 
 8.74943e-01  1.68438e-02 -2.99623e+00 
 1.02117e+00  1.94249e-02 -2.97869e+00 
 1.16755e+00  2.19031e-02 -2.95847e+00 
 1.31415e+00  2.42653e-02 -2.93559e+00 
 1.46096e+00  2.64982e-02 -2.91007e+00 
 1.60802e+00  2.85897e-02 -2.88191e+00 
 1.75533e+00  3.05280e-02 -2.85113e+00 
 1.90293e+00  3.23022e-02 -2.81775e+00 
 2.05081e+00  3.39019e-02 -2.78180e+00 
 2.19901e+00  3.53182e-02 -2.74328e+00 
 2.34751e+00  3.65425e-02 -2.70222e+00 
 2.49636e+00  3.75677e-02 -2.65863e+00 
 2.64554e+00  3.83877e-02 -2.61256e+00 
 2.79507e+00  3.89976e-02 -2.56400e+00 
 2.94493e+00  3.93939e-02 -2.51300e+00 
 3.09516e+00  3.95745e-02 -2.45957e+00 
 3.24571e+00  3.95387e-02 -2.40375e+00 
 3.39662e+00  3.92873e-02 -2.34555e+00 
 3.54785e+00  3.88231e-02 -2.28501e+00 
 3.69941e+00  3.81501e-02 -2.22213e+00 
 3.85127e+00  3.72745e-02 -2.15697e+00 
 4.00343e+00  3.62038e-02 -2.08953e+00 
 4.15585e+00  3.49478e-02 -2.01985e+00 
 4.30853e+00  3.35179e-02 -1.94794e+00 
 4.46142e+00  3.19276e-02 -1.87383e+00 
 4.61451e+00  3.01916e-02 -1.79754e+00 
 4.76776e+00  2.83275e-02 -1.71909e+00 
 4.92114e+00  2.63535e-02 -1.63849e+00 
 5.07460e+00  2.42904e-02 -1.55576e+00 
 5.22813e+00  2.21598e-02 -1.47091e+00 
 5.38165e+00  1.99856e-02 -1.38396e+00 
 5.53515e+00  1.77921e-02 -1.29490e+00 
 5.68856e+00  1.56057e-02 -1.20376e+00 
 5.84185e+00  1.34528e-02 -1.11050e+00 
 5.99496e+00  1.13614e-02 -1.01516e+00 
 6.14785e+00  9.35903e-03 -9.17701e-01 
 6.30046e+00  7.47440e-03 -8.18133e-01 
 6.45276e+00  5.73525e-03 -7.16421e-01 
 6.60468e+00  4.16955e-03 -6.12568e-01 
 6.75620e+00  2.80401e-03 -5.06529e-01 
 6.90724e+00  1.66464e-03 -3.98297e-01 
 7.05780e+00  7.75701e-04 -2.87819e-01 
 7.20779e+00  1.59917e-04 -1.75082e-01 
 7.36203e+00  1.04834e-02 -2.89285e-02 
-7.13000e+00 -1.01205e-02 -2.87499e-02 
-6.98056e+00 -1.86464e-04 -1.74075e-01 
-6.83510e+00 -8.98847e-04 -2.86207e-01 
-6.68901e+00 -1.92456e-03 -3.96127e-01 
-6.54236e+00 -3.23609e-03 -5.03851e-01 
-6.39518e+00 -4.80439e-03 -6.09438e-01 
-6.24753e+00 -6.59850e-03 -7.12896e-01 
-6.09946e+00 -8.58689e-03 -8.14271e-01 
-5.95105e+00 -1.07367e-02 -9.13562e-01 
-5.80233e+00 -1.30156e-02 -1.01081e+00 
-5.65338e+00 -1.53903e-02 -1.10599e+00 
-5.50423e+00 -1.78289e-02 -1.19915e+00 
-5.35497e+00 -2.02995e-02 -1.29026e+00 
-5.20561e+00 -2.27718e-02 -1.37934e+00 
-5.05625e+00 -2.52159e-02 -1.46636e+00 
-4.90690e+00 -2.76045e-02 -1.55133e+00 
-4.75765e+00 -2.99108e-02 -1.63422e+00 
-4.60850e+00 -3.21107e-02 -1.71504e+00 
-4.45952e+00 -3.41813e-02 -1.79375e+00 
-4.31074e+00 -3.61024e-02 -1.87034e+00 
-4.16220e+00 -3.78552e-02 -1.94477e+00 
-4.01392e+00 -3.94237e-02 -2.01704e+00 
-3.86595e+00 -4.07933e-02 -2.08710e+00 
-3.71829e+00 -4.19525e-02 -2.15495e+00 
-3.57099e+00 -4.28908e-02 -2.22053e+00 
-3.42403e+00 -4.36007e-02 -2.28384e+00 
-3.27747e+00 -4.40762e-02 -2.34483e+00 
-3.13127e+00 -4.43135e-02 -2.40348e+00 
-2.98549e+00 -4.43104e-02 -2.45976e+00 
-2.84009e+00 -4.40668e-02 -2.51364e+00 
-2.69510e+00 -4.35841e-02 -2.56509e+00 
-2.55050e+00 -4.28654e-02 -2.61409e+00 
-2.40631e+00 -4.19151e-02 -2.66061e+00 
-2.26249e+00 -4.07392e-02 -2.70461e+00 
-2.11905e+00 -3.93451e-02 -2.74608e+00 
-1.97597e+00 -3.77409e-02 -2.78500e+00 
-1.83326e+00 -3.59363e-02 -2.82133e+00 
-1.69086e+00 -3.39417e-02 -2.85506e+00 
-1.54879e+00 -3.17687e-02 -2.88617e+00 
-1.40700e+00 -2.94293e-02 -2.91463e+00 
-1.26550e+00 -2.69367e-02 -2.94044e+00 
-1.12423e+00 -2.43041e-02 -2.96357e+00 
-9.83204e-01 -2.15461e-02 -2.98402e+00 
-8.42362e-01 -1.86770e-02 -3.00176e+00 
-7.01707e-01 -1.57123e-02 -3.01680e+00 
-5.61183e-01 -1.26670e-02 -3.02911e+00 
-4.20791e-01 -9.55722e-03 -3.03869e+00 
-2.80472e-01 -6.39850e-03 -3.04555e+00 
-1.40226e-01 -3.20752e-03 -3.04966e+00 
-2.03102e-13  2.35683e-12 -3.05103e+00 
 1.40226e-01  3.20752e-03 -3.04966e+00 
 2.80472e-01  6.39850e-03 -3.04555e+00 
 4.20791e-01  9.55722e-03 -3.03869e+00 
 5.61183e-01  1.26670e-02 -3.02911e+00 
 7.01707e-01  1.57123e-02 -3.01680e+00 
 8.42362e-01  1.86770e-02 -3.00176e+00 
 9.83204e-01  2.15461e-02 -2.98402e+00 
 1.12423e+00  2.43041e-02 -2.96357e+00 
 1.26550e+00  2.69367e-02 -2.94044e+00 
 1.40700e+00  2.94293e-02 -2.91463e+00 
 1.54879e+00  3.17687e-02 -2.88617e+00 
 1.69086e+00  3.39417e-02 -2.85506e+00 
 1.83326e+00  3.59363e-02 -2.82133e+00 
 1.97597e+00  3.77409e-02 -2.78500e+00 
 2.11905e+00  3.93451e-02 -2.74608e+00 
 2.26249e+00  4.07392e-02 -2.70461e+00 
 2.40631e+00  4.19151e-02 -2.66061e+00 
 2.55050e+00  4.28654e-02 -2.61409e+00 
 2.69510e+00  4.35841e-02 -2.56509e+00 
 2.84009e+00  4.40668e-02 -2.51364e+00 
 2.98549e+00  4.43104e-02 -2.45976e+00 
 3.13127e+00  4.43135e-02 -2.40348e+00 
 3.27747e+00  4.40762e-02 -2.34483e+00 
 3.42403e+00  4.36007e-02 -2.28384e+00 
 3.57099e+00  4.28908e-02 -2.22053e+00 
 3.71829e+00  4.19525e-02 -2.15495e+00 
 3.86595e+00  4.07933e-02 -2.08710e+00 
 4.01392e+00  3.94237e-02 -2.01704e+00 
 4.16220e+00  3.78552e-02 -1.94477e+00 
 4.31074e+00  3.61024e-02 -1.87034e+00 
 4.45952e+00  3.41813e-02 -1.79375e+00 
 4.60850e+00  3.21107e-02 -1.71504e+00 
 4.75765e+00  2.99108e-02 -1.63422e+00 
 4.90690e+00  2.76045e-02 -1.55133e+00 
 5.05625e+00  2.52159e-02 -1.46636e+00 
 5.20561e+00  2.27718e-02 -1.37934e+00 
 5.35497e+00  2.02995e-02 -1.29026e+00 
 5.50423e+00  1.78289e-02 -1.19915e+00 
 5.65338e+00  1.53903e-02 -1.10599e+00 
 5.80233e+00  1.30156e-02 -1.01081e+00 
 5.95105e+00  1.07367e-02 -9.13562e-01 
 6.09946e+00  8.58689e-03 -8.14271e-01 
 6.24753e+00  6.59850e-03 -7.12896e-01 
 6.39518e+00  4.80439e-03 -6.09438e-01 
 6.54236e+00  3.23609e-03 -5.03851e-01 
 6.68901e+00  1.92456e-03 -3.96127e-01 
 6.83510e+00  8.98847e-04 -2.86207e-01 
 6.98056e+00  1.86464e-04 -1.74075e-01 
 7.13000e+00  1.01205e-02 -2.87499e-02 
-6.89941e+00 -9.75968e-03 -2.85411e-02 
-6.75466e+00 -2.16874e-04 -1.72910e-01 
-6.61365e+00 -1.03875e-03 -2.84347e-01 
-6.47192e+00 -2.21890e-03 -3.93629e-01 
-6.32954e+00 -3.72414e-03 -5.00777e-01 
-6.18657e+00 -5.51970e-03 -6.05852e-01 
-6.04308e+00 -7.56889e-03 -7.08866e-01 
-5.89911e+00 -9.83449e-03 -8.09867e-01 
-5.75477e+00 -1.22781e-02 -9.08854e-01 
-5.61009e+00 -1.48619e-02 -1.00586e+00 
-5.46516e+00 -1.75475e-02 -1.10089e+00 
-5.32003e+00 -2.02984e-02 -1.19395e+00 
-5.17479e+00 -2.30777e-02 -1.28503e+00 
-5.02947e+00 -2.58513e-02 -1.37414e+00 
-4.88415e+00 -2.85854e-02 -1.46125e+00 
-4.73888e+00 -3.12492e-02 -1.54638e+00 
-4.59373e+00 -3.38129e-02 -1.62948e+00 
-4.44873e+00 -3.62501e-02 -1.71055e+00 
-4.30394e+00 -3.85353e-02 -1.78956e+00 
-4.15939e+00 -4.06469e-02 -1.86649e+00 
-4.01515e+00 -4.25644e-02 -1.94130e+00 
-3.87121e+00 -4.42709e-02 -2.01397e+00 
-3.72764e+00 -4.57512e-02 -2.08447e+00 
-3.58444e+00 -4.69931e-02 -2.15277e+00 
-3.44166e+00 -4.79862e-02 -2.21883e+00 
-3.29929e+00 -4.87231e-02 -2.28263e+00 
-3.15737e+00 -4.91982e-02 -2.34412e+00 
-3.01588e+00 -4.94082e-02 -2.40328e+00 
-2.87486e+00 -4.93518e-02 -2.46006e+00 
-2.73429e+00 -4.90298e-02 -2.51445e+00 
-2.59420e+00 -4.84445e-02 -2.56640e+00 
-2.45454e+00 -4.76002e-02 -2.61589e+00 
-2.31535e+00 -4.65026e-02 -2.66288e+00 
-2.17659e+00 -4.51589e-02 -2.70735e+00 
-2.03826e+00 -4.35777e-02 -2.74926e+00 
-1.90034e+00 -4.17686e-02 -2.78861e+00 
-1.76283e+00 -3.97426e-02 -2.82535e+00 
-1.62567e+00 -3.75113e-02 -2.85946e+00 
-1.48889e+00 -3.50878e-02 -2.89092e+00 
-1.35243e+00 -3.24852e-02 -2.91972e+00 
-1.21629e+00 -2.97182e-02 -2.94584e+00 
-1.08041e+00 -2.68012e-02 -2.96925e+00 
-9.44799e-01 -2.37500e-02 -2.98994e+00 
-8.09398e-01 -2.05799e-02 -3.00790e+00 
-6.74205e-01 -1.73079e-02 -3.02311e+00 
-5.39161e-01 -1.39497e-02 -3.03557e+00 
-4.04261e-01 -1.05230e-02 -3.04528e+00 
-2.69447e-01 -7.04410e-03 -3.05221e+00 
-1.34712e-01 -3.53085e-03 -3.05637e+00 
-1.30064e-12  1.12252e-12 -3.05776e+00 
 1.34712e-01  3.53085e-03 -3.05637e+00 
 2.69447e-01  7.04410e-03 -3.05221e+00 
 4.04261e-01  1.05230e-02 -3.04528e+00 
 5.39161e-01  1.39497e-02 -3.03557e+00 
 6.74205e-01  1.73079e-02 -3.02311e+00 
 8.09398e-01  2.05799e-02 -3.00790e+00 
 9.44799e-01  2.37500e-02 -2.98994e+00 
 1.08041e+00  2.68012e-02 -2.96925e+00 
 1.21629e+00  2.97182e-02 -2.94584e+00 
 1.35243e+00  3.24852e-02 -2.91972e+00 
 1.48889e+00  3.50878e-02 -2.89092e+00 
 1.62567e+00  3.75113e-02 -2.85946e+00 
 1.76283e+00  3.97426e-02 -2.82535e+00 
 1.90034e+00  4.17686e-02 -2.78861e+00 
 2.03826e+00  4.35777e-02 -2.74926e+00 
 2.17659e+00  4.51589e-02 -2.70735e+00 
 2.31535e+00  4.65026e-02 -2.66288e+00 
 2.45454e+00  4.76002e-02 -2.61589e+00 
 2.59420e+00  4.84445e-02 -2.56640e+00 
 2.73429e+00  4.90298e-02 -2.51445e+00 
 2.87486e+00  4.93518e-02 -2.46006e+00 
 3.01588e+00  4.94082e-02 -2.40328e+00 
 3.15737e+00  4.91982e-02 -2.34412e+00 
 3.29929e+00  4.87231e-02 -2.28263e+00 
 3.44166e+00  4.79862e-02 -2.21883e+00 
 3.58444e+00  4.69931e-02 -2.15277e+00 
 3.72764e+00  4.57512e-02 -2.08447e+00 
 3.87121e+00  4.42709e-02 -2.01397e+00 
 4.01515e+00  4.25644e-02 -1.94130e+00 
 4.15939e+00  4.06469e-02 -1.86649e+00 
 4.30394e+00  3.85353e-02 -1.78956e+00 
 4.44873e+00  3.62501e-02 -1.71055e+00 
 4.59373e+00  3.38129e-02 -1.62948e+00 
 4.73888e+00  3.12492e-02 -1.54638e+00 
 4.88415e+00  2.85854e-02 -1.46125e+00 
 5.02947e+00  2.58513e-02 -1.37414e+00 
 5.17479e+00  2.30777e-02 -1.28503e+00 
 5.32003e+00  2.02984e-02 -1.19395e+00 
 5.46516e+00  1.75475e-02 -1.10089e+00 
 5.61009e+00  1.48619e-02 -1.00586e+00 
 5.75477e+00  1.22781e-02 -9.08854e-01 
 5.89911e+00  9.83449e-03 -8.09867e-01 
 6.04308e+00  7.56889e-03 -7.08866e-01 
 6.18657e+00  5.51970e-03 -6.05852e-01 
 6.32954e+00  3.72414e-03 -5.00777e-01 
 6.47192e+00  2.21890e-03 -3.93629e-01 
 6.61365e+00  1.03875e-03 -2.84347e-01 
 6.75466e+00  2.16874e-04 -1.72910e-01 
 6.89941e+00  9.75968e-03 -2.85411e-02 
-6.67046e+00 -9.40185e-03 -2.82976e-02 
-6.53030e+00 -2.51642e-04 -1.71566e-01 
-6.39362e+00 -1.19731e-03 -2.82207e-01 
-6.25611e+00 -2.55132e-03 -3.90762e-01 
-6.11788e+00 -4.27375e-03 -4.97258e-01 
-5.97897e+00 -6.32311e-03 -6.01758e-01 
-5.83948e+00 -8.65592e-03 -7.04276e-01 
-5.69947e+00 -1.12284e-02 -8.04863e-01 
-5.55905e+00 -1.39956e-02 -9.03518e-01 
-5.41826e+00 -1.69138e-02 -1.00028e+00 
-5.27721e+00 -1.99385e-02 -1.09513e+00 
-5.13595e+00 -2.30278e-02 -1.18810e+00 
-4.99459e+00 -2.61399e-02 -1.27916e+00 
-4.85317e+00 -2.92360e-02 -1.36833e+00 
-4.71178e+00 -3.22781e-02 -1.45557e+00 
-4.57047e+00 -3.52320e-02 -1.54088e+00 
-4.42932e+00 -3.80647e-02 -1.62423e+00 
-4.28836e+00 -4.07470e-02 -1.70560e+00 
-4.14768e+00 -4.32515e-02 -1.78495e+00 
-4.00728e+00 -4.55547e-02 -1.86228e+00 
-3.86726e+00 -4.76349e-02 -1.93752e+00 
-3.72760e+00 -4.94745e-02 -2.01066e+00 
-3.58838e+00 -5.10576e-02 -2.08165e+00 
-3.44960e+00 -5.23720e-02 -2.15047e+00 
-3.31131e+00 -5.34076e-02 -2.21706e+00 
-3.17350e+00 -5.41573e-02 -2.28141e+00 
-3.03621e+00 -5.46162e-02 -2.34345e+00 
-2.89943e+00 -5.47821e-02 -2.40317e+00 
-2.76318e+00 -5.46547e-02 -2.46051e+00 
-2.62745e+00 -5.42358e-02 -2.51545e+00 
-2.49226e+00 -5.35293e-02 -2.56794e+00 
-2.35757e+00 -5.25408e-02 -2.61797e+00 
-2.22341e+00 -5.12774e-02 -2.66548e+00 
-2.08974e+00 -4.97479e-02 -2.71046e+00 
-1.95656e+00 -4.79622e-02 -2.75286e+00 
-1.82384e+00 -4.59315e-02 -2.79266e+00 
-1.69158e+00 -4.36684e-02 -2.82984e+00 
-1.55972e+00 -4.11857e-02 -2.86436e+00 
-1.42828e+00 -3.84980e-02 -2.89621e+00 
-1.29720e+00 -3.56197e-02 -2.92537e+00 
-1.16647e+00 -3.25668e-02 -2.95180e+00 
-1.03605e+00 -2.93548e-02 -2.97551e+00 
-9.05919e-01 -2.60008e-02 -2.99646e+00 
-7.76025e-01 -2.25212e-02 -3.01465e+00 
-6.46360e-01 -1.89340e-02 -3.03006e+00 
-5.16863e-01 -1.52561e-02 -3.04268e+00 
-3.87525e-01 -1.15060e-02 -3.05250e+00 
-2.58283e-01 -7.70088e-03 -3.05953e+00 
-1.29128e-01 -3.85970e-03 -3.06374e+00 
-1.30645e-13  3.60351e-12 -3.06515e+00 
 1.29128e-01  3.85970e-03 -3.06374e+00 
 2.58283e-01  7.70088e-03 -3.05953e+00 
 3.87525e-01  1.15060e-02 -3.05250e+00 
 5.16863e-01  1.52561e-02 -3.04268e+00 
 6.46360e-01  1.89340e-02 -3.03006e+00 
 7.76025e-01  2.25212e-02 -3.01465e+00 
 9.05919e-01  2.60008e-02 -2.99646e+00 
 1.03605e+00  2.93548e-02 -2.97551e+00 
 1.16647e+00  3.25668e-02 -2.95180e+00 
 1.29720e+00  3.56197e-02 -2.92537e+00 
 1.42828e+00  3.84980e-02 -2.89621e+00 
 1.55972e+00  4.11857e-02 -2.86436e+00 
 1.69158e+00  4.36684e-02 -2.82984e+00 
 1.82384e+00  4.59315e-02 -2.79266e+00 
 1.95656e+00  4.79622e-02 -2.75286e+00 
 2.08974e+00  4.97479e-02 -2.71046e+00 
 2.22341e+00  5.12774e-02 -2.66548e+00 
 2.35757e+00  5.25408e-02 -2.61797e+00 
 2.49226e+00  5.35293e-02 -2.56794e+00 
 2.62745e+00  5.42358e-02 -2.51545e+00 
 2.76318e+00  5.46547e-02 -2.46051e+00 
 2.89943e+00  5.47821e-02 -2.40317e+00 
 3.03621e+00  5.46162e-02 -2.34345e+00 
 3.17350e+00  5.41573e-02 -2.28141e+00 
 3.31131e+00  5.34076e-02 -2.21706e+00 
 3.44960e+00  5.23720e-02 -2.15047e+00 
 3.58838e+00  5.10576e-02 -2.08165e+00 
 3.72760e+00  4.94745e-02 -2.01066e+00 
 3.86726e+00  4.76349e-02 -1.93752e+00 
 4.00728e+00  4.55547e-02 -1.86228e+00 
 4.14768e+00  4.32515e-02 -1.78495e+00 
 4.28836e+00  4.07470e-02 -1.70560e+00 
 4.42932e+00  3.80647e-02 -1.62423e+00 
 4.57047e+00  3.52320e-02 -1.54088e+00 
 4.71178e+00  3.22781e-02 -1.45557e+00 
 4.85317e+00  2.92360e-02 -1.36833e+00 
 4.99459e+00  2.61399e-02 -1.27916e+00 
 5.13595e+00  2.30278e-02 -1.18810e+00 
 5.27721e+00  1.99385e-02 -1.09513e+00 
 5.41826e+00  1.69138e-02 -1.00028e+00 
 5.55905e+00  1.39956e-02 -9.03518e-01 
 5.69947e+00  1.12284e-02 -8.04863e-01 
 5.83948e+00  8.65592e-03 -7.04276e-01 
 5.97897e+00  6.32311e-03 -6.01758e-01 
 6.11788e+00  4.27375e-03 -4.97258e-01 
 6.25611e+00  2.55132e-03 -3.90762e-01 
 6.39362e+00  1.19731e-03 -2.82207e-01 
 6.53030e+00  2.51642e-04 -1.71566e-01 
 6.67046e+00  9.40185e-03 -2.82976e-02 
-6.44341e+00 -9.04837e-03 -2.80142e-02 
-6.30770e+00 -2.91321e-04 -1.70018e-01 
-6.17521e+00 -1.37654e-03 -2.79752e-01 
-6.04177e+00 -2.92566e-03 -3.87483e-01 
-5.90752e+00 -4.89074e-03 -4.93242e-01 
-5.77250e+00 -7.22232e-03 -5.97098e-01 
-5.63684e+00 -9.86901e-03 -6.99066e-01 
-5.50061e+00 -1.27794e-02 -7.99198e-01 
-5.36393e+00 -1.59011e-02 -8.97494e-01 
-5.22686e+00 -1.91832e-02 -9.93988e-01 
-5.08952e+00 -2.25748e-02 -1.08867e+00 
-4.95198e+00 -2.60279e-02 -1.18155e+00 
-4.81434e+00 -2.94949e-02 -1.27262e+00 
-4.67667e+00 -3.29321e-02 -1.36187e+00 
-4.53907e+00 -3.62973e-02 -1.44926e+00 
-4.40159e+00 -3.95524e-02 -1.53481e+00 
-4.26432e+00 -4.26610e-02 -1.61845e+00 
-4.12730e+00 -4.55916e-02 -1.70018e+00 
-3.99062e+00 -4.83145e-02 -1.77994e+00 
-3.85430e+00 -5.08049e-02 -1.85772e+00 
-3.71841e+00 -5.30400e-02 -1.93345e+00 
-3.58298e+00 -5.50017e-02 -2.00712e+00 
-3.44806e+00 -5.66739e-02 -2.07867e+00 
-3.31366e+00 -5.80449e-02 -2.14807e+00 
-3.17983e+00 -5.91049e-02 -2.21525e+00 
-3.04656e+00 -5.98479e-02 -2.28020e+00 
-2.91389e+00 -6.02701e-02 -2.34286e+00 
-2.78181e+00 -6.03705e-02 -2.40319e+00 
-2.65034e+00 -6.01503e-02 -2.46114e+00 
-2.51946e+00 -5.96130e-02 -2.51669e+00 
-2.38920e+00 -5.87640e-02 -2.56978e+00 
-2.25951e+00 -5.76107e-02 -2.62038e+00 
-2.13041e+00 -5.61620e-02 -2.66845e+00 
-2.00187e+00 -5.44281e-02 -2.71397e+00 
-1.87388e+00 -5.24210e-02 -2.75689e+00 
-1.74641e+00 -5.01533e-02 -2.79719e+00 
-1.61945e+00 -4.76391e-02 -2.83483e+00 
-1.49295e+00 -4.48929e-02 -2.86980e+00 
-1.36691e+00 -4.19306e-02 -2.90205e+00 
-1.24127e+00 -3.87679e-02 -2.93158e+00 
-1.11603e+00 -3.54220e-02 -2.95836e+00 
-9.91119e-01 -3.19097e-02 -2.98238e+00 
-8.66537e-01 -2.82492e-02 -3.00360e+00 
-7.42219e-01 -2.44577e-02 -3.02203e+00 
-6.18152e-01 -2.05542e-02 -3.03764e+00 
-4.94274e-01 -1.65563e-02 -3.05043e+00 
-3.70569e-01 -1.24835e-02 -3.06039e+00 
-2.46973e-01 -8.35368e-03 -3.06750e+00 
-1.23471e-01 -4.18645e-03 -3.07178e+00 
-1.80237e-12  3.98569e-12 -3.07320e+00 
 1.23471e-01  4.18645e-03 -3.07178e+00 
 2.46973e-01  8.35368e-03 -3.06750e+00 
 3.70569e-01  1.24835e-02 -3.06039e+00 
 4.94274e-01  1.65563e-02 -3.05043e+00 
 6.18152e-01  2.05542e-02 -3.03764e+00 
 7.42219e-01  2.44577e-02 -3.02203e+00 
 8.66537e-01  2.82492e-02 -3.00360e+00 
 9.91119e-01  3.19097e-02 -2.98238e+00 
 1.11603e+00  3.54220e-02 -2.95836e+00 
 1.24127e+00  3.87679e-02 -2.93158e+00 
 1.36691e+00  4.19306e-02 -2.90205e+00 
 1.49295e+00  4.48929e-02 -2.86980e+00 
 1.61945e+00  4.76391e-02 -2.83483e+00 
 1.74641e+00  5.01533e-02 -2.79719e+00 
 1.87388e+00  5.24210e-02 -2.75689e+00 
 2.00187e+00  5.44281e-02 -2.71397e+00 
 2.13041e+00  5.61620e-02 -2.66845e+00 
 2.25951e+00  5.76107e-02 -2.62038e+00 
 2.38920e+00  5.87640e-02 -2.56978e+00 
 2.51946e+00  5.96130e-02 -2.51669e+00 
 2.65034e+00  6.01503e-02 -2.46114e+00 
 2.78181e+00  6.03705e-02 -2.40319e+00 
 2.91389e+00  6.02701e-02 -2.34286e+00 
 3.04656e+00  5.98479e-02 -2.28020e+00 
 3.17983e+00  5.91049e-02 -2.21525e+00 
 3.31366e+00  5.80449e-02 -2.14807e+00 
 3.44806e+00  5.66739e-02 -2.07867e+00 
 3.58298e+00  5.50017e-02 -2.00712e+00 
 3.71841e+00  5.30400e-02 -1.93345e+00 
 3.85430e+00  5.08049e-02 -1.85772e+00 
 3.99062e+00  4.83145e-02 -1.77994e+00 
 4.12730e+00  4.55916e-02 -1.70018e+00 
 4.26432e+00  4.26610e-02 -1.61845e+00 
 4.40159e+00  3.95524e-02 -1.53481e+00 
 4.53907e+00  3.62973e-02 -1.44926e+00 
 4.67667e+00  3.29321e-02 -1.36187e+00 
 4.81434e+00  2.94949e-02 -1.27262e+00 
 4.95198e+00  2.60279e-02 -1.18155e+00 
 5.08952e+00  2.25748e-02 -1.08867e+00 
 5.22686e+00  1.91832e-02 -9.93988e-01 
 5.36393e+00  1.59011e-02 -8.97494e-01 
 5.50061e+00  1.27794e-02 -7.99198e-01 
 5.63684e+00  9.86901e-03 -6.99066e-01 
 5.77250e+00  7.22232e-03 -5.97098e-01 
 5.90752e+00  4.89074e-03 -4.93242e-01 
 6.04177e+00  2.92566e-03 -3.87483e-01 
 6.17521e+00  1.37654e-03 -2.79752e-01 
 6.30770e+00  2.91321e-04 -1.70018e-01 
 6.44341e+00  9.04837e-03 -2.80142e-02 
-6.21855e+00 -8.70087e-03 -2.76852e-02 
-6.08712e+00 -3.36522e-04 -1.68242e-01 
-5.95863e+00 -1.57861e-03 -2.76942e-01 
-5.82909e+00 -3.34593e-03 -3.83741e-01 
-5.69861e+00 -5.58099e-03 -4.88673e-01 
-5.56729e+00 -8.22497e-03 -5.91811e-01 
-5.43526e+00 -1.12172e-02 -6.93172e-01 
-5.30260e+00 -1.44973e-02 -7.92809e-01 
-5.16945e+00 -1.80044e-02 -8.90720e-01 
-5.03590e+00 -2.16795e-02 -9.86939e-01 
-4.90208e+00 -2.54644e-02 -1.08145e+00 
-4.76807e+00 -2.93041e-02 -1.17426e+00 
-4.63398e+00 -3.31450e-02 -1.26536e+00 
-4.49990e+00 -3.69381e-02 -1.35472e+00 
-4.36593e+00 -4.06364e-02 -1.44233e+00 
-4.23213e+00 -4.41980e-02 -1.52815e+00 
-4.09861e+00 -4.75833e-02 -1.61214e+00 
-3.96542e+00 -5.07583e-02 -1.69429e+00 
-3.83264e+00 -5.36916e-02 -1.77452e+00 
-3.70030e+00 -5.63571e-02 -1.85282e+00 
-3.56849e+00 -5.87315e-02 -1.92912e+00 
-3.43721e+00 -6.07966e-02 -2.00339e+00 
-3.30654e+00 -6.25367e-02 -2.07556e+00 
-3.17648e+00 -6.39408e-02 -2.14560e+00 
-3.04708e+00 -6.50003e-02 -2.21345e+00 
-2.91834e+00 -6.57106e-02 -2.27906e+00 
-2.79029e+00 -6.60695e-02 -2.34239e+00 
-2.66291e+00 -6.60779e-02 -2.40339e+00 
-2.53623e+00 -6.57388e-02 -2.46201e+00 
-2.41023e+00 -6.50579e-02 -2.51821e+00 
-2.28492e+00 -6.40426e-02 -2.57194e+00 
-2.16026e+00 -6.27022e-02 -2.62316e+00 
-2.03627e+00 -6.10477e-02 -2.67184e+00 
-1.91291e+00 -5.90914e-02 -2.71793e+00 
-1.79016e+00 -5.68470e-02 -2.76140e+00 
-1.66799e+00 -5.43289e-02 -2.80222e+00 
-1.54639e+00 -5.15529e-02 -2.84035e+00 
-1.42531e+00 -4.85350e-02 -2.87578e+00 
-1.30473e+00 -4.52925e-02 -2.90846e+00 
-1.18461e+00 -4.18424e-02 -2.93839e+00 
-1.06491e+00 -3.82031e-02 -2.96552e+00 
-9.45593e-01 -3.43923e-02 -2.98986e+00 
-8.26631e-01 -3.04292e-02 -3.01137e+00 
-7.07962e-01 -2.63317e-02 -3.03004e+00 
-5.89568e-01 -2.21195e-02 -3.04586e+00 
-4.71383e-01 -1.78109e-02 -3.05883e+00 
-3.53386e-01 -1.34257e-02 -3.06892e+00 
-2.35512e-01 -8.98241e-03 -3.07613e+00 
-1.17738e-01 -4.50101e-03 -3.08046e+00 
-2.57644e-13  6.48074e-12 -3.08190e+00 
 1.17738e-01  4.50101e-03 -3.08046e+00 
 2.35512e-01  8.98241e-03 -3.07613e+00 
 3.53386e-01  1.34257e-02 -3.06892e+00 
 4.71383e-01  1.78109e-02 -3.05883e+00 
 5.89568e-01  2.21195e-02 -3.04586e+00 
 7.07962e-01  2.63317e-02 -3.03004e+00 
 8.26631e-01  3.04292e-02 -3.01137e+00 
 9.45593e-01  3.43923e-02 -2.98986e+00 
 1.06491e+00  3.82031e-02 -2.96552e+00 
 1.18461e+00  4.18424e-02 -2.93839e+00 
 1.30473e+00  4.52925e-02 -2.90846e+00 
 1.42531e+00  4.85350e-02 -2.87578e+00 
 1.54639e+00  5.15529e-02 -2.84035e+00 
 1.66799e+00  5.43289e-02 -2.80222e+00 
 1.79016e+00  5.68470e-02 -2.76140e+00 
 1.91291e+00  5.90914e-02 -2.71793e+00 
 2.03627e+00  6.10477e-02 -2.67184e+00 
 2.16026e+00  6.27022e-02 -2.62316e+00 
 2.28492e+00  6.40426e-02 -2.57194e+00 
 2.41023e+00  6.50579e-02 -2.51821e+00 
 2.53623e+00  6.57388e-02 -2.46201e+00 
 2.66291e+00  6.60779e-02 -2.40339e+00 
 2.79029e+00  6.60695e-02 -2.34239e+00 
 2.91834e+00  6.57106e-02 -2.27906e+00 
 3.04708e+00  6.50003e-02 -2.21345e+00 
 3.17648e+00  6.39408e-02 -2.14560e+00 
 3.30654e+00  6.25367e-02 -2.07556e+00 
 3.43721e+00  6.07966e-02 -2.00339e+00 
 3.56849e+00  5.87315e-02 -1.92912e+00 
 3.70030e+00  5.63571e-02 -1.85282e+00 
 3.83264e+00  5.36916e-02 -1.77452e+00 
 3.96542e+00  5.07583e-02 -1.69429e+00 
 4.09861e+00  4.75833e-02 -1.61214e+00 
 4.23213e+00  4.41980e-02 -1.52815e+00 
 4.36593e+00  4.06364e-02 -1.44233e+00 
 4.49990e+00  3.69381e-02 -1.35472e+00 
 4.63398e+00  3.31450e-02 -1.26536e+00 
 4.76807e+00  2.93041e-02 -1.17426e+00 
 4.90208e+00  2.54644e-02 -1.08145e+00 
 5.03590e+00  2.16795e-02 -9.86939e-01 
 5.16945e+00  1.80044e-02 -8.90720e-01 
 5.30260e+00  1.44973e-02 -7.92809e-01 
 5.43526e+00  1.12172e-02 -6.93172e-01 
 5.56729e+00  8.22497e-03 -5.91811e-01 
 5.69861e+00  5.58099e-03 -4.88673e-01 
 5.82909e+00  3.34593e-03 -3.83741e-01 
 5.95863e+00  1.57861e-03 -2.76942e-01 
 6.08712e+00  3.36522e-04 -1.68242e-01 
 6.21855e+00  8.70087e-03 -2.76852e-02 
-5.99617e+00 -8.36143e-03 -2.73040e-02 
-5.86883e+00 -3.87930e-04 -1.66207e-01 
-5.74414e+00 -1.80581e-03 -2.73737e-01 
-5.61826e+00 -3.81624e-03 -3.79484e-01 
-5.49133e+00 -6.35038e-03 -4.83492e-01 
-5.36347e+00 -9.33833e-03 -5.85834e-01 
-5.23482e+00 -1.27085e-02 -6.86531e-01 
-5.10550e+00 -1.63903e-02 -7.85632e-01 
-4.97566e+00 -2.03129e-02 -8.83138e-01 
-4.84540e+00 -2.44084e-02 -9.79075e-01 
-4.71487e+00 -2.86098e-02 -1.07342e+00 
-4.58418e+00 -3.28550e-02 -1.16620e+00 
-4.45344e+00 -3.70837e-02 -1.25735e+00 
-4.32276e+00 -4.12411e-02 -1.34688e+00 
-4.19225e+00 -4.52753e-02 -1.43474e+00 
-4.06199e+00 -4.91407e-02 -1.52091e+00 
-3.93208e+00 -5.27946e-02 -1.60532e+00 
-3.80259e+00 -5.62009e-02 -1.68795e+00 
-3.67360e+00 -5.93267e-02 -1.76873e+00 
-3.54515e+00 -6.21454e-02 -1.84762e+00 
-3.41733e+00 -6.46334e-02 -1.92456e+00 
-3.29016e+00 -6.67733e-02 -1.99950e+00 
-3.16369e+00 -6.85503e-02 -2.07237e+00 
-3.03794e+00 -6.99549e-02 -2.14312e+00 
-2.91295e+00 -7.09804e-02 -2.21170e+00 
-2.78872e+00 -7.16243e-02 -2.27805e+00 
-2.66528e+00 -7.18865e-02 -2.34211e+00 
-2.54262e+00 -7.17704e-02 -2.40384e+00 
-2.42076e+00 -7.12815e-02 -2.46317e+00 
-2.29966e+00 -7.04281e-02 -2.52007e+00 
-2.17934e+00 -6.92199e-02 -2.57448e+00 
-2.05976e+00 -6.76688e-02 -2.62636e+00 
-1.94092e+00 -6.57882e-02 -2.67567e+00 
-1.82279e+00 -6.35923e-02 -2.72237e+00 
-1.70534e+00 -6.10970e-02 -2.76641e+00 
-1.58854e+00 -5.83187e-02 -2.80778e+00 
-1.47237e+00 -5.52748e-02 -2.84642e+00 
-1.35677e+00 -5.19828e-02 -2.88232e+00 
-1.24173e+00 -4.84615e-02 -2.91544e+00 
-1.12718e+00 -4.47288e-02 -2.94577e+00 
-1.01311e+00 -4.08043e-02 -2.97327e+00 
-8.99454e-01 -3.67064e-02 -2.99793e+00 
-7.86187e-01 -3.24549e-02 -3.01973e+00 
-6.73242e-01 -2.80683e-02 -3.03866e+00 
-5.60597e-01 -2.35667e-02 -3.05469e+00 
-4.48182e-01 -1.89685e-02 -3.06783e+00 
-3.35971e-01 -1.42939e-02 -3.07806e+00 
-2.23895e-01 -9.56108e-03 -3.08537e+00 
-1.11927e-01 -4.79032e-03 -3.08975e+00 
 8.37624e-13  4.95360e-12 -3.09122e+00 
 1.11927e-01  4.79032e-03 -3.08975e+00 
 2.23895e-01  9.56108e-03 -3.08537e+00 
 3.35971e-01  1.42939e-02 -3.07806e+00 
 4.48182e-01  1.89685e-02 -3.06783e+00 
 5.60597e-01  2.35667e-02 -3.05469e+00 
 6.73242e-01  2.80683e-02 -3.03866e+00 
 7.86187e-01  3.24549e-02 -3.01973e+00 
 8.99454e-01  3.67064e-02 -2.99793e+00 
 1.01311e+00  4.08043e-02 -2.97327e+00 
 1.12718e+00  4.47288e-02 -2.94577e+00 
 1.24173e+00  4.84615e-02 -2.91544e+00 
 1.35677e+00  5.19828e-02 -2.88232e+00 
 1.47237e+00  5.52748e-02 -2.84642e+00 
 1.58854e+00  5.83187e-02 -2.80778e+00 
 1.70534e+00  6.10970e-02 -2.76641e+00 
 1.82279e+00  6.35923e-02 -2.72237e+00 
 1.94092e+00  6.57882e-02 -2.67567e+00 
 2.05976e+00  6.76688e-02 -2.62636e+00 
 2.17934e+00  6.92199e-02 -2.57448e+00 
 2.29966e+00  7.04281e-02 -2.52007e+00 
 2.42076e+00  7.12815e-02 -2.46317e+00 
 2.54262e+00  7.17704e-02 -2.40384e+00 
 2.66528e+00  7.18865e-02 -2.34211e+00 
 2.78872e+00  7.16243e-02 -2.27805e+00 
 2.91295e+00  7.09804e-02 -2.21170e+00 
 3.03794e+00  6.99549e-02 -2.14312e+00 
 3.16369e+00  6.85503e-02 -2.07237e+00 
 3.29016e+00  6.67733e-02 -1.99950e+00 
 3.41733e+00  6.46334e-02 -1.92456e+00 
 3.54515e+00  6.21454e-02 -1.84762e+00 
 3.67360e+00  5.93267e-02 -1.76873e+00 
 3.80259e+00  5.62009e-02 -1.68795e+00 
 3.93208e+00  5.27946e-02 -1.60532e+00 
 4.06199e+00  4.91407e-02 -1.52091e+00 
 4.19225e+00  4.52753e-02 -1.43474e+00 
 4.32276e+00  4.12411e-02 -1.34688e+00 
 4.45344e+00  3.70837e-02 -1.25735e+00 
 4.58418e+00  3.28550e-02 -1.16620e+00 
 4.71487e+00  2.86098e-02 -1.07342e+00 
 4.84540e+00  2.44084e-02 -9.79075e-01 
 4.97566e+00  2.03129e-02 -8.83138e-01 
 5.10550e+00  1.63903e-02 -7.85632e-01 
 5.23482e+00  1.27085e-02 -6.86531e-01 
 5.36347e+00  9.33833e-03 -5.85834e-01 
 5.49133e+00  6.35038e-03 -4.83492e-01 
 5.61826e+00  3.81624e-03 -3.79484e-01 
 5.74414e+00  1.80581e-03 -2.73737e-01 
 5.86883e+00  3.87930e-04 -1.66207e-01 
 5.99617e+00  8.36143e-03 -2.73040e-02 
-5.77666e+00 -8.03267e-03 -2.68630e-02 
-5.65316e+00 -4.46307e-04 -1.63883e-01 
-5.53201e+00 -2.06055e-03 -2.70089e-01 
-5.40952e+00 -4.34075e-03 -3.74658e-01 
-5.28586e+00 -7.20455e-03 -4.77637e-01 
-5.16118e+00 -1.05690e-02 -5.79103e-01 
-5.03564e+00 -1.43497e-02 -6.79077e-01 
-4.90937e+00 -1.84642e-02 -7.77607e-01 
-4.78257e+00 -2.28302e-02 -8.74690e-01 
-4.65534e+00 -2.73696e-02 -9.70349e-01 
-4.52786e+00 -3.20061e-02 -1.06456e+00 
-4.40024e+00 -3.66693e-02 -1.15732e+00 
-4.27264e+00 -4.12917e-02 -1.24858e+00 
-4.14515e+00 -4.58127e-02 -1.33834e+00 
-4.01792e+00 -5.01756e-02 -1.42652e+00 
-3.89102e+00 -5.43310e-02 -1.51310e+00 
-3.76458e+00 -5.82335e-02 -1.59801e+00 
-3.63866e+00 -6.18455e-02 -1.68121e+00 
-3.51335e+00 -6.51331e-02 -1.76262e+00 
-3.38870e+00 -6.80699e-02 -1.84219e+00 
-3.26480e+00 -7.06332e-02 -1.91984e+00 
-3.14166e+00 -7.28067e-02 -1.99553e+00 
-3.01936e+00 -7.45778e-02 -2.06917e+00 
-2.89788e+00 -7.59392e-02 -2.14072e+00 
-2.77730e+00 -7.68869e-02 -2.21009e+00 
-2.65758e+00 -7.74213e-02 -2.27723e+00 
-2.53877e+00 -7.75454e-02 -2.34208e+00 
-2.42085e+00 -7.72657e-02 -2.40459e+00 
-2.30383e+00 -7.65909e-02 -2.46468e+00 
-2.18767e+00 -7.55322e-02 -2.52232e+00 
-2.07239e+00 -7.41025e-02 -2.57745e+00 
-1.95794e+00 -7.23164e-02 -2.63002e+00 
-1.84431e+00 -7.01899e-02 -2.67998e+00 
-1.73147e+00 -6.77397e-02 -2.72731e+00 
-1.61939e+00 -6.49841e-02 -2.77194e+00 
-1.50802e+00 -6.19410e-02 -2.81387e+00 
-1.39735e+00 -5.86299e-02 -2.85303e+00 
-1.28730e+00 -5.50695e-02 -2.88941e+00 
-1.17787e+00 -5.12799e-02 -2.92298e+00 
-1.06898e+00 -4.72800e-02 -2.95371e+00 
-9.60613e-01 -4.30901e-02 -2.98158e+00 
-8.52694e-01 -3.87290e-02 -3.00657e+00 
-7.45199e-01 -3.42170e-02 -3.02866e+00 
-6.38057e-01 -2.95724e-02 -3.04783e+00 
-5.31238e-01 -2.48155e-02 -3.06408e+00 
-4.24671e-01 -1.99643e-02 -3.07739e+00 
-3.18323e-01 -1.50388e-02 -3.08775e+00 
-2.12123e-01 -1.00567e-02 -3.09516e+00 
-1.06039e-01 -5.03786e-03 -3.09960e+00 
-2.26624e-12 -2.52383e-12 -3.10108e+00 
 1.06039e-01  5.03786e-03 -3.09960e+00 
 2.12123e-01  1.00567e-02 -3.09516e+00 
 3.18323e-01  1.50388e-02 -3.08775e+00 
 4.24671e-01  1.99643e-02 -3.07739e+00 
 5.31238e-01  2.48155e-02 -3.06408e+00 
 6.38057e-01  2.95724e-02 -3.04783e+00 
 7.45199e-01  3.42170e-02 -3.02866e+00 
 8.52694e-01  3.87290e-02 -3.00657e+00 
 9.60613e-01  4.30901e-02 -2.98158e+00 
 1.06898e+00  4.72800e-02 -2.95371e+00 
 1.17787e+00  5.12799e-02 -2.92298e+00 
 1.28730e+00  5.50695e-02 -2.88941e+00 
 1.39735e+00  5.86299e-02 -2.85303e+00 
 1.50802e+00  6.19410e-02 -2.81387e+00 
 1.61939e+00  6.49841e-02 -2.77194e+00 
 1.73147e+00  6.77397e-02 -2.72731e+00 
 1.84431e+00  7.01899e-02 -2.67998e+00 
 1.95794e+00  7.23164e-02 -2.63002e+00 
 2.07239e+00  7.41025e-02 -2.57745e+00 
 2.18767e+00  7.55322e-02 -2.52232e+00 
 2.30383e+00  7.65909e-02 -2.46468e+00 
 2.42085e+00  7.72657e-02 -2.40459e+00 
 2.53877e+00  7.75454e-02 -2.34208e+00 
 2.65758e+00  7.74213e-02 -2.27723e+00 
 2.77730e+00  7.68869e-02 -2.21009e+00 
 2.89788e+00  7.59392e-02 -2.14072e+00 
 3.01936e+00  7.45778e-02 -2.06917e+00 
 3.14166e+00  7.28067e-02 -1.99553e+00 
 3.26480e+00  7.06332e-02 -1.91984e+00 
 3.38870e+00  6.80699e-02 -1.84219e+00 
 3.51335e+00  6.51331e-02 -1.76262e+00 
 3.63866e+00  6.18455e-02 -1.68121e+00 
 3.76458e+00  5.82335e-02 -1.59801e+00 
 3.89102e+00  5.43310e-02 -1.51310e+00 
 4.01792e+00  5.01756e-02 -1.42652e+00 
 4.14515e+00  4.58127e-02 -1.33834e+00 
 4.27264e+00  4.12917e-02 -1.24858e+00 
 4.40024e+00  3.66693e-02 -1.15732e+00 
 4.52786e+00  3.20061e-02 -1.06456e+00 
 4.65534e+00  2.73696e-02 -9.70349e-01 
 4.78257e+00  2.28302e-02 -8.74690e-01 
 4.90937e+00  1.84642e-02 -7.77607e-01 
 5.03564e+00  1.43497e-02 -6.79077e-01 
 5.16118e+00  1.05690e-02 -5.79103e-01 
 5.28586e+00  7.20455e-03 -4.77637e-01 
 5.40952e+00  4.34075e-03 -3.74658e-01 
 5.53201e+00  2.06055e-03 -2.70089e-01 
 5.65316e+00  4.46307e-04 -1.63883e-01 
 5.77666e+00  8.03267e-03 -2.68630e-02 
-5.56039e+00 -7.71783e-03 -2.63539e-02 
-5.44043e+00 -5.12508e-04 -1.61236e-01 
-5.32252e+00 -2.34533e-03 -2.65950e-01 
-5.20310e+00 -4.92353e-03 -3.69202e-01 
-5.08240e+00 -8.14865e-03 -4.71043e-01 
-4.96056e+00 -1.19222e-02 -5.71551e-01 
-4.83779e+00 -1.61450e-02 -6.70747e-01 
-4.71427e+00 -2.07206e-02 -7.68676e-01 
-4.59018e+00 -2.55538e-02 -8.65330e-01 
-4.46568e+00 -3.05549e-02 -9.60724e-01 
-4.34096e+00 -3.56372e-02 -1.05482e+00 
-4.21616e+00 -4.07214e-02 -1.14762e+00 
-4.09145e+00 -4.57325e-02 -1.23905e+00 
-3.96693e+00 -5.06039e-02 -1.32910e+00 
-3.84278e+00 -5.52742e-02 -1.41769e+00 
-3.71907e+00 -5.96907e-02 -1.50477e+00 
-3.59593e+00 -6.38060e-02 -1.59027e+00 
-3.47345e+00 -6.75815e-02 -1.67413e+00 
-3.35171e+00 -7.09837e-02 -1.75626e+00 
-3.23078e+00 -7.39871e-02 -1.83660e+00 
-3.11072e+00 -7.65710e-02 -1.91506e+00 
-2.99157e+00 -7.87216e-02 -1.99158e+00 
-2.87339e+00 -8.04292e-02 -2.06607e+00 
-2.75619e+00 -8.16902e-02 -2.13848e+00 
-2.63999e+00 -8.25042e-02 -2.20871e+00 
-2.52481e+00 -8.28755e-02 -2.27671e+00 
-2.41065e+00 -8.28112e-02 -2.34240e+00 
-2.29750e+00 -8.23216e-02 -2.40573e+00 
-2.18536e+00 -8.14193e-02 -2.46662e+00 
-2.07419e+00 -8.01193e-02 -2.52503e+00 
-1.96401e+00 -7.84379e-02 -2.58090e+00 
-1.85475e+00 -7.63928e-02 -2.63418e+00 
-1.74640e+00 -7.40032e-02 -2.68482e+00 
-1.63892e+00 -7.12883e-02 -2.73278e+00 
-1.53228e+00 -6.82686e-02 -2.77801e+00 
-1.42642e+00 -6.49640e-02 -2.82049e+00 
-1.32132e+00 -6.13957e-02 -2.86017e+00 
-1.21691e+00 -5.75836e-02 -2.89703e+00 
-1.11317e+00 -5.35489e-02 -2.93103e+00 
-1.01001e+00 -4.93108e-02 -2.96216e+00 
-9.07424e-01 -4.48903e-02 -2.99039e+00 
-8.05324e-01 -4.03061e-02 -3.01570e+00 
-7.03679e-01 -3.55782e-02 -3.03807e+00 
-6.02416e-01 -3.07248e-02 -3.05749e+00 
-5.01501e-01 -2.57653e-02 -3.07394e+00 
-4.00857e-01 -2.07171e-02 -3.08741e+00 
-3.00449e-01 -1.55992e-02 -3.09790e+00 
-2.00201e-01 -1.04283e-02 -3.10540e+00 
-1.00076e-01 -5.22305e-03 -3.10990e+00 
-1.75399e-12 -5.73026e-13 -3.11140e+00 
 1.00076e-01  5.22305e-03 -3.10990e+00 
 2.00201e-01  1.04283e-02 -3.10540e+00 
 3.00449e-01  1.55992e-02 -3.09790e+00 
 4.00857e-01  2.07171e-02 -3.08741e+00 
 5.01501e-01  2.57653e-02 -3.07394e+00 
 6.02416e-01  3.07248e-02 -3.05749e+00 
 7.03679e-01  3.55782e-02 -3.03807e+00 
 8.05324e-01  4.03061e-02 -3.01570e+00 
 9.07424e-01  4.48903e-02 -2.99039e+00 
 1.01001e+00  4.93108e-02 -2.96216e+00 
 1.11317e+00  5.35489e-02 -2.93103e+00 
 1.21691e+00  5.75836e-02 -2.89703e+00 
 1.32132e+00  6.13957e-02 -2.86017e+00 
 1.42642e+00  6.49640e-02 -2.82049e+00 
 1.53228e+00  6.82686e-02 -2.77801e+00 
 1.63892e+00  7.12883e-02 -2.73278e+00 
 1.74640e+00  7.40032e-02 -2.68482e+00 
 1.85475e+00  7.63928e-02 -2.63418e+00 
 1.96401e+00  7.84379e-02 -2.58090e+00 
 2.07419e+00  8.01193e-02 -2.52503e+00 
 2.18536e+00  8.14193e-02 -2.46662e+00 
 2.29750e+00  8.23216e-02 -2.40573e+00 
 2.41065e+00  8.28112e-02 -2.34240e+00 
 2.52481e+00  8.28755e-02 -2.27671e+00 
 2.63999e+00  8.25042e-02 -2.20871e+00 
 2.75619e+00  8.16902e-02 -2.13848e+00 
 2.87339e+00  8.04292e-02 -2.06607e+00 
 2.99157e+00  7.87216e-02 -1.99158e+00 
 3.11072e+00  7.65710e-02 -1.91506e+00 
 3.23078e+00  7.39871e-02 -1.83660e+00 
 3.35171e+00  7.09837e-02 -1.75626e+00 
 3.47345e+00  6.75815e-02 -1.67413e+00 
 3.59593e+00  6.38060e-02 -1.59027e+00 
 3.71907e+00  5.96907e-02 -1.50477e+00 
 3.84278e+00  5.52742e-02 -1.41769e+00 
 3.96693e+00  5.06039e-02 -1.32910e+00 
 4.09145e+00  4.57325e-02 -1.23905e+00 
 4.21616e+00  4.07214e-02 -1.14762e+00 
 4.34096e+00  3.56372e-02 -1.05482e+00 
 4.46568e+00  3.05549e-02 -9.60724e-01 
 4.59018e+00  2.55538e-02 -8.65330e-01 
 4.71427e+00  2.07206e-02 -7.68676e-01 
 4.83779e+00  1.61450e-02 -6.70747e-01 
 4.96056e+00  1.19222e-02 -5.71551e-01 
 5.08240e+00  8.14865e-03 -4.71043e-01 
 5.20310e+00  4.92353e-03 -3.69202e-01 
 5.32252e+00  2.34533e-03 -2.65950e-01 
 5.44043e+00  5.12508e-04 -1.61236e-01 
 5.56039e+00  7.71783e-03 -2.63539e-02 
-5.34783e+00 -7.42099e-03 -2.57669e-02 
-5.23104e+00 -5.87503e-04 -1.58226e-01 
-5.11599e+00 -2.66274e-03 -2.61267e-01 
-4.99927e+00 -5.56846e-03 -3.63055e-01 
-4.88112e+00 -9.18697e-03 -4.63645e-01 
-4.76174e+00 -1.34015e-02 -5.63115e-01 
-4.64137e+00 -1.80953e-02 -6.61483e-01 
-4.52021e+00 -2.31559e-02 -7.58791e-01 
-4.39848e+00 -2.84732e-02 -8.55020e-01 
-4.27638e+00 -3.39447e-02 -9.50177e-01 
-4.15410e+00 -3.94722e-02 -1.04422e+00 
-4.03182e+00 -4.49669e-02 -1.13711e+00 
-3.90972e+00 -5.03460e-02 -1.22880e+00 
-3.78794e+00 -5.55372e-02 -1.31923e+00 
-3.66664e+00 -6.04747e-02 -1.40832e+00 
-3.54593e+00 -6.51034e-02 -1.49601e+00 
-3.42595e+00 -6.93749e-02 -1.58220e+00 
-3.30677e+00 -7.32508e-02 -1.66682e+00 
-3.18850e+00 -7.66991e-02 -1.74977e+00 
-3.07119e+00 -7.96968e-02 -1.83098e+00 
-2.95492e+00 -8.22266e-02 -1.91034e+00 
-2.83972e+00 -8.42786e-02 -1.98778e+00 
-2.72565e+00 -8.58478e-02 -2.06320e+00 
-2.61270e+00 -8.69352e-02 -2.13653e+00 
-2.50092e+00 -8.75456e-02 -2.20769e+00 
-2.39029e+00 -8.76883e-02 -2.27659e+00 
-2.28082e+00 -8.73754e-02 -2.34316e+00 
-2.17249e+00 -8.66221e-02 -2.40735e+00 
-2.06529e+00 -8.54459e-02 -2.46907e+00 
-1.95919e+00 -8.38656e-02 -2.52827e+00 
-1.85416e+00 -8.19021e-02 -2.58489e+00 
-1.75017e+00 -7.95763e-02 -2.63888e+00 
-1.64718e+00 -7.69107e-02 -2.69019e+00 
-1.54514e+00 -7.39272e-02 -2.73878e+00 
-1.44402e+00 -7.06486e-02 -2.78460e+00 
-1.34376e+00 -6.70967e-02 -2.82762e+00 
-1.24431e+00 -6.32940e-02 -2.86780e+00 
-1.14562e+00 -5.92615e-02 -2.90512e+00 
-1.04764e+00 -5.50207e-02 -2.93955e+00 
-9.50307e-01 -5.05914e-02 -2.97105e+00 
-8.53575e-01 -4.59941e-02 -2.99962e+00 
-7.57369e-01 -4.12471e-02 -3.02522e+00 
-6.61651e-01 -3.63697e-02 -3.04785e+00 
-5.66343e-01 -3.13789e-02 -3.06750e+00 
-4.71405e-01 -2.62929e-02 -3.08413e+00 
-3.76758e-01 -2.11275e-02 -3.09776e+00 
-2.82362e-01 -1.59001e-02 -3.10837e+00 
-1.88137e-01 -1.06256e-02 -3.11595e+00 
-9.40417e-02 -5.32068e-03 -3.12050e+00 
-1.09732e-12  1.03674e-12 -3.12202e+00 
 9.40417e-02  5.32068e-03 -3.12050e+00 
 1.88137e-01  1.06256e-02 -3.11595e+00 
 2.82362e-01  1.59001e-02 -3.10837e+00 
 3.76758e-01  2.11275e-02 -3.09776e+00 
 4.71405e-01  2.62929e-02 -3.08413e+00 
 5.66343e-01  3.13789e-02 -3.06750e+00 
 6.61651e-01  3.63697e-02 -3.04785e+00 
 7.57369e-01  4.12471e-02 -3.02522e+00 
 8.53575e-01  4.59941e-02 -2.99962e+00 
 9.50307e-01  5.05914e-02 -2.97105e+00 
 1.04764e+00  5.50207e-02 -2.93955e+00 
 1.14562e+00  5.92615e-02 -2.90512e+00 
 1.24431e+00  6.32940e-02 -2.86780e+00 
 1.34376e+00  6.70967e-02 -2.82762e+00 
 1.44402e+00  7.06486e-02 -2.78460e+00 
 1.54514e+00  7.39272e-02 -2.73878e+00 
 1.64718e+00  7.69107e-02 -2.69019e+00 
 1.75017e+00  7.95763e-02 -2.63888e+00 
 1.85416e+00  8.19021e-02 -2.58489e+00 
 1.95919e+00  8.38656e-02 -2.52827e+00 
 2.06529e+00  8.54459e-02 -2.46907e+00 
 2.17249e+00  8.66221e-02 -2.40735e+00 
 2.28082e+00  8.73754e-02 -2.34316e+00 
 2.39029e+00  8.76883e-02 -2.27659e+00 
 2.50092e+00  8.75456e-02 -2.20769e+00 
 2.61270e+00  8.69352e-02 -2.13653e+00 
 2.72565e+00  8.58478e-02 -2.06320e+00 
 2.83972e+00  8.42786e-02 -1.98778e+00 
 2.95492e+00  8.22266e-02 -1.91034e+00 
 3.07119e+00  7.96968e-02 -1.83098e+00 
 3.18850e+00  7.66991e-02 -1.74977e+00 
 3.30677e+00  7.32508e-02 -1.66682e+00 
 3.42595e+00  6.93749e-02 -1.58220e+00 
 3.54593e+00  6.51034e-02 -1.49601e+00 
 3.66664e+00  6.04747e-02 -1.40832e+00 
 3.78794e+00  5.55372e-02 -1.31923e+00 
 3.90972e+00  5.03460e-02 -1.22880e+00 
 4.03182e+00  4.49669e-02 -1.13711e+00 
 4.15410e+00  3.94722e-02 -1.04422e+00 
 4.27638e+00  3.39447e-02 -9.50177e-01 
 4.39848e+00  2.84732e-02 -8.55020e-01 
 4.52021e+00  2.31559e-02 -7.58791e-01 
 4.64137e+00  1.80953e-02 -6.61483e-01 
 4.76174e+00  1.34015e-02 -5.63115e-01 
 4.88112e+00  9.18697e-03 -4.63645e-01 
 4.99927e+00  5.56846e-03 -3.63055e-01 
 5.11599e+00  2.66274e-03 -2.61267e-01 
 5.23104e+00  5.87503e-04 -1.58226e-01 
 5.34783e+00  7.42099e-03 -2.57669e-02 
-5.13946e+00 -7.14722e-03 -2.50911e-02 
-5.02541e+00 -6.72391e-04 -1.54815e-01 
-4.91277e+00 -3.01536e-03 -2.55986e-01 
-4.79829e+00 -6.27896e-03 -3.56155e-01 
-4.68223e+00 -1.03224e-02 -4.55379e-01 
-4.56485e+00 -1.50072e-02 -5.53735e-01 
-4.44643e+00 -2.01962e-02 -6.51237e-01 
-4.32720e+00 -2.57581e-02 -7.47916e-01 
-4.20743e+00 -3.15663e-02 -8.43743e-01 
-4.08733e+00 -3.75035e-02 -9.38712e-01 
-3.96714e+00 -4.34593e-02 -1.03276e+00 
-3.84705e+00 -4.93350e-02 -1.12585e+00 
-3.72728e+00 -5.50401e-02 -1.21789e+00 
-3.60797e+00 -6.04970e-02 -1.30881e+00 
-3.48931e+00 -6.56364e-02 -1.39852e+00 
-3.37140e+00 -7.04022e-02 -1.48693e+00 
-3.25441e+00 -7.47462e-02 -1.57393e+00 
-3.13840e+00 -7.86323e-02 -1.65944e+00 
-3.02350e+00 -8.20315e-02 -1.74332e+00 
-2.90975e+00 -8.49254e-02 -1.82550e+00 
-2.79722e+00 -8.73019e-02 -1.90585e+00 
-2.68595e+00 -8.91570e-02 -1.98429e+00 
-2.57599e+00 -9.04920e-02 -2.06072e+00 
-2.46732e+00 -9.13143e-02 -2.13504e+00 
-2.35998e+00 -9.16353e-02 -2.20717e+00 
-2.25395e+00 -9.14707e-02 -2.27702e+00 
-2.14923e+00 -9.08390e-02 -2.34450e+00 
-2.04578e+00 -8.97612e-02 -2.40956e+00 
-1.94360e+00 -8.82602e-02 -2.47211e+00 
-1.84263e+00 -8.63599e-02 -2.53210e+00 
-1.74286e+00 -8.40854e-02 -2.58947e+00 
-1.64422e+00 -8.14618e-02 -2.64416e+00 
-1.54668e+00 -7.85147e-02 -2.69612e+00 
-1.45017e+00 -7.52688e-02 -2.74531e+00 
-1.35466e+00 -7.17491e-02 -2.79168e+00 
-1.26007e+00 -6.79787e-02 -2.83522e+00 
-1.16637e+00 -6.39815e-02 -2.87586e+00 
-1.07348e+00 -5.97787e-02 -2.91360e+00 
-9.81355e-01 -5.53920e-02 -2.94841e+00 
-8.89915e-01 -5.08407e-02 -2.98025e+00 
-7.99117e-01 -4.61445e-02 -3.00912e+00 
-7.08881e-01 -4.13203e-02 -3.03499e+00 
-6.19163e-01 -3.63861e-02 -3.05785e+00 
-5.29880e-01 -3.13569e-02 -3.07769e+00 
-4.40987e-01 -2.62487e-02 -3.09449e+00 
-3.52404e-01 -2.10750e-02 -3.10825e+00 
-2.64084e-01 -1.58506e-02 -3.11896e+00 
-1.75946e-01 -1.05877e-02 -3.12661e+00 
-8.79447e-02 -5.30029e-03 -3.13121e+00 
 1.02720e-12  2.77365e-12 -3.13274e+00 
 8.79447e-02  5.30029e-03 -3.13121e+00 
 1.75946e-01  1.05877e-02 -3.12661e+00 
 2.64084e-01  1.58506e-02 -3.11896e+00 
 3.52404e-01  2.10750e-02 -3.10825e+00 
 4.40987e-01  2.62487e-02 -3.09449e+00 
 5.29880e-01  3.13569e-02 -3.07769e+00 
 6.19163e-01  3.63861e-02 -3.05785e+00 
 7.08881e-01  4.13203e-02 -3.03499e+00 
 7.99117e-01  4.61445e-02 -3.00912e+00 
 8.89915e-01  5.08407e-02 -2.98025e+00 
 9.81355e-01  5.53920e-02 -2.94841e+00 
 1.07348e+00  5.97787e-02 -2.91360e+00 
 1.16637e+00  6.39815e-02 -2.87586e+00 
 1.26007e+00  6.79787e-02 -2.83522e+00 
 1.35466e+00  7.17491e-02 -2.79168e+00 
 1.45017e+00  7.52688e-02 -2.74531e+00 
 1.54668e+00  7.85147e-02 -2.69612e+00 
 1.64422e+00  8.14618e-02 -2.64416e+00 
 1.74286e+00  8.40854e-02 -2.58947e+00 
 1.84263e+00  8.63599e-02 -2.53210e+00 
 1.94360e+00  8.82602e-02 -2.47211e+00 
 2.04578e+00  8.97612e-02 -2.40956e+00 
 2.14923e+00  9.08390e-02 -2.34450e+00 
 2.25395e+00  9.14707e-02 -2.27702e+00 
 2.35998e+00  9.16353e-02 -2.20717e+00 
 2.46732e+00  9.13143e-02 -2.13504e+00 
 2.57599e+00  9.04920e-02 -2.06072e+00 
 2.68595e+00  8.91570e-02 -1.98429e+00 
 2.79722e+00  8.73019e-02 -1.90585e+00 
 2.90975e+00  8.49254e-02 -1.82550e+00 
 3.02350e+00  8.20315e-02 -1.74332e+00 
 3.13840e+00  7.86323e-02 -1.65944e+00 
 3.25441e+00  7.47462e-02 -1.57393e+00 
 3.37140e+00  7.04022e-02 -1.48693e+00 
 3.48931e+00  6.56364e-02 -1.39852e+00 
 3.60797e+00  6.04970e-02 -1.30881e+00 
 3.72728e+00  5.50401e-02 -1.21789e+00 
 3.84705e+00  4.93350e-02 -1.12585e+00 
 3.96714e+00  4.34593e-02 -1.03276e+00 
 4.08733e+00  3.75035e-02 -9.38712e-01 
 4.20743e+00  3.15663e-02 -8.43743e-01 
 4.32720e+00  2.57581e-02 -7.47916e-01 
 4.44643e+00  2.01962e-02 -6.51237e-01 
 4.56485e+00  1.50072e-02 -5.53735e-01 
 4.68223e+00  1.03224e-02 -4.55379e-01 
 4.79829e+00  6.27896e-03 -3.56155e-01 
 4.91277e+00  3.01536e-03 -2.55986e-01 
 5.02541e+00  6.72391e-04 -1.54815e-01 
 5.13946e+00  7.14722e-03 -2.50911e-02 
-4.93583e+00 -6.90289e-03 -2.43139e-02 
-4.82398e+00 -7.68442e-04 -1.50959e-01 
-4.71322e+00 -3.40577e-03 -2.50050e-01 
-4.60042e+00 -7.05771e-03 -3.48440e-01 
-4.48592e+00 -1.15558e-02 -4.46187e-01 
-4.37001e+00 -1.67356e-02 -5.43363e-01 
-4.25301e+00 -2.24360e-02 -6.39974e-01 
-4.13522e+00 -2.85042e-02 -7.36038e-01 
-4.01693e+00 -3.47944e-02 -8.31511e-01 
-3.89840e+00 -4.11736e-02 -9.26367e-01 
-3.77990e+00 -4.75179e-02 -1.02052e+00 
-3.66165e+00 -5.37190e-02 -1.11392e+00 
-3.54389e+00 -5.96790e-02 -1.20643e+00 
-3.42677e+00 -6.53160e-02 -1.29799e+00 
-3.31051e+00 -7.05591e-02 -1.38846e+00 
-3.19523e+00 -7.53527e-02 -1.47773e+00 
-3.08107e+00 -7.96512e-02 -1.56568e+00 
-2.96812e+00 -8.34229e-02 -1.65219e+00 
-2.85650e+00 -8.66448e-02 -1.73712e+00 
-2.74625e+00 -8.93053e-02 -1.82038e+00 
-2.63745e+00 -9.13998e-02 -1.90182e+00 
-2.53011e+00 -9.29326e-02 -1.98134e+00 
-2.42427e+00 -9.39136e-02 -2.05883e+00 
-2.31993e+00 -9.43586e-02 -2.13420e+00 
-2.21709e+00 -9.42874e-02 -2.20733e+00 
-2.11573e+00 -9.37235e-02 -2.27815e+00 
-2.01584e+00 -9.26930e-02 -2.34655e+00 
-1.91737e+00 -9.12237e-02 -2.41248e+00 
-1.82030e+00 -8.93449e-02 -2.47585e+00 
-1.72457e+00 -8.70858e-02 -2.53661e+00 
-1.63014e+00 -8.44767e-02 -2.59468e+00 
-1.53695e+00 -8.15463e-02 -2.65002e+00 
-1.44496e+00 -7.83238e-02 -2.70258e+00 
-1.35408e+00 -7.48361e-02 -2.75233e+00 
-1.26428e+00 -7.11101e-02 -2.79920e+00 
-1.17546e+00 -6.71702e-02 -2.84319e+00 
-1.08760e+00 -6.30404e-02 -2.88424e+00 
-1.00059e+00 -5.87419e-02 -2.92234e+00 
-9.14393e-01 -5.42958e-02 -2.95747e+00 
-8.28926e-01 -4.97199e-02 -2.98960e+00 
-7.44136e-01 -4.50323e-02 -3.01871e+00 
-6.59939e-01 -4.02477e-02 -3.04480e+00 
-5.76285e-01 -3.53817e-02 -3.06784e+00 
-4.93090e-01 -3.04462e-02 -3.08784e+00 
-4.10302e-01 -2.54543e-02 -3.10477e+00 
-3.27839e-01 -2.04160e-02 -3.11863e+00 
-2.45650e-01 -1.53426e-02 -3.12942e+00 
-1.63653e-01 -1.02424e-02 -3.13713e+00 
-8.17962e-02 -5.12566e-03 -3.14175e+00 
 1.48109e-12  5.22170e-12 -3.14329e+00 
 8.17962e-02  5.12566e-03 -3.14175e+00 
 1.63653e-01  1.02424e-02 -3.13713e+00 
 2.45650e-01  1.53426e-02 -3.12942e+00 
 3.27839e-01  2.04160e-02 -3.11863e+00 
 4.10302e-01  2.54543e-02 -3.10477e+00 
 4.93090e-01  3.04462e-02 -3.08784e+00 
 5.76285e-01  3.53817e-02 -3.06784e+00 
 6.59939e-01  4.02477e-02 -3.04480e+00 
 7.44136e-01  4.50323e-02 -3.01871e+00 
 8.28926e-01  4.97199e-02 -2.98960e+00 
 9.14393e-01  5.42958e-02 -2.95747e+00 
 1.00059e+00  5.87419e-02 -2.92234e+00 
 1.08760e+00  6.30404e-02 -2.88424e+00 
 1.17546e+00  6.71702e-02 -2.84319e+00 
 1.26428e+00  7.11101e-02 -2.79920e+00 
 1.35408e+00  7.48361e-02 -2.75233e+00 
 1.44496e+00  7.83238e-02 -2.70258e+00 
 1.53695e+00  8.15463e-02 -2.65002e+00 
 1.63014e+00  8.44767e-02 -2.59468e+00 
 1.72457e+00  8.70858e-02 -2.53661e+00 
 1.82030e+00  8.93449e-02 -2.47585e+00 
 1.91737e+00  9.12237e-02 -2.41248e+00 
 2.01584e+00  9.26930e-02 -2.34655e+00 
 2.11573e+00  9.37235e-02 -2.27815e+00 
 2.21709e+00  9.42874e-02 -2.20733e+00 
 2.31993e+00  9.43586e-02 -2.13420e+00 
 2.42427e+00  9.39136e-02 -2.05883e+00 
 2.53011e+00  9.29326e-02 -1.98134e+00 
 2.63745e+00  9.13998e-02 -1.90182e+00 
 2.74625e+00  8.93053e-02 -1.82038e+00 
 2.85650e+00  8.66448e-02 -1.73712e+00 
 2.96812e+00  8.34229e-02 -1.65219e+00 
 3.08107e+00  7.96512e-02 -1.56568e+00 
 3.19523e+00  7.53527e-02 -1.47773e+00 
 3.31051e+00  7.05591e-02 -1.38846e+00 
 3.42677e+00  6.53160e-02 -1.29799e+00 
 3.54389e+00  5.96790e-02 -1.20643e+00 
 3.66165e+00  5.37190e-02 -1.11392e+00 
 3.77990e+00  4.75179e-02 -1.02052e+00 
 3.89840e+00  4.11736e-02 -9.26367e-01 
 4.01693e+00  3.47944e-02 -8.31511e-01 
 4.13522e+00  2.85042e-02 -7.36038e-01 
 4.25301e+00  2.24360e-02 -6.39974e-01 
 4.37001e+00  1.67356e-02 -5.43363e-01 
 4.48592e+00  1.15558e-02 -4.46187e-01 
 4.60042e+00  7.05771e-03 -3.48440e-01 
 4.71322e+00  3.40577e-03 -2.50050e-01 
 4.82398e+00  7.68442e-04 -1.50959e-01 
 4.93583e+00  6.90289e-03 -2.43139e-02 
-4.73755e+00 -6.69596e-03 -2.34209e-02 
-4.62724e+00 -8.77144e-04 -1.46610e-01 
-4.51771e+00 -3.83643e-03 -2.43400e-01 
-4.40595e+00 -7.90625e-03 -3.39849e-01 
-4.29235e+00 -1.28847e-02 -4.36016e-01 
-4.17727e+00 -1.85765e-02 -5.31963e-01 
-4.06110e+00 -2.47923e-02 -6.27683e-01 
-3.94417e+00 -3.13545e-02 -7.23175e-01 
-3.82683e+00 -3.80959e-02 -8.18374e-01 
-3.70939e+00 -4.48661e-02 -9.13227e-01 
-3.59214e+00 -5.15278e-02 -1.00762e+00 
-3.47534e+00 -5.79629e-02 -1.10147e+00 
-3.35925e+00 -6.40677e-02 -1.19463e+00 
-3.24405e+00 -6.97579e-02 -1.28699e+00 
-3.12996e+00 -7.49631e-02 -1.37838e+00 
-3.01711e+00 -7.96312e-02 -1.46867e+00 
-2.90565e+00 -8.37226e-02 -1.55772e+00 
-2.79567e+00 -8.72129e-02 -1.64537e+00 
-2.68727e+00 -9.00884e-02 -1.73148e+00 
-2.58051e+00 -9.23476e-02 -1.81591e+00 
-2.47544e+00 -9.39967e-02 -1.89852e+00 
-2.37206e+00 -9.50510e-02 -1.97920e+00 
-2.27041e+00 -9.55314e-02 -2.05780e+00 
-2.17047e+00 -9.54645e-02 -2.13424e+00 
-2.07222e+00 -9.48804e-02 -2.20839e+00 
-1.97563e+00 -9.38121e-02 -2.28016e+00 
-1.88068e+00 -9.22946e-02 -2.34947e+00 
-1.78730e+00 -9.03633e-02 -2.41623e+00 
-1.69546e+00 -8.80547e-02 -2.48037e+00 
-1.60508e+00 -8.54037e-02 -2.54183e+00 
-1.51612e+00 -8.24456e-02 -2.60055e+00 
-1.42850e+00 -7.92128e-02 -2.65647e+00 
-1.34216e+00 -7.57378e-02 -2.70955e+00 
-1.25701e+00 -7.20492e-02 -2.75976e+00 
-1.17301e+00 -6.81753e-02 -2.80705e+00 
-1.09007e+00 -6.41407e-02 -2.85140e+00 
-1.00812e+00 -5.99691e-02 -2.89277e+00 
-9.27083e-01 -5.56804e-02 -2.93115e+00 
-8.46896e-01 -5.12942e-02 -2.96651e+00 
-7.67472e-01 -4.68258e-02 -2.99885e+00 
-6.88754e-01 -4.22906e-02 -3.02814e+00 
-6.10655e-01 -3.77001e-02 -3.05437e+00 
-5.33120e-01 -3.30659e-02 -3.07754e+00 
-4.56061e-01 -2.83962e-02 -3.09763e+00 
-3.79424e-01 -2.36997e-02 -3.11464e+00 
-3.03124e-01 -1.89818e-02 -3.12857e+00 
-2.27106e-01 -1.42490e-02 -3.13940e+00 
-1.51287e-01 -9.50482e-03 -3.14714e+00 
-7.56119e-02 -4.75426e-03 -3.15179e+00 
 7.69015e-13  5.27576e-12 -3.15334e+00 
 7.56119e-02  4.75426e-03 -3.15179e+00 
 1.51287e-01  9.50482e-03 -3.14714e+00 
 2.27106e-01  1.42490e-02 -3.13940e+00 
 3.03124e-01  1.89818e-02 -3.12857e+00 
 3.79424e-01  2.36997e-02 -3.11464e+00 
 4.56061e-01  2.83962e-02 -3.09763e+00 
 5.33120e-01  3.30659e-02 -3.07754e+00 
 6.10655e-01  3.77001e-02 -3.05437e+00 
 6.88754e-01  4.22906e-02 -3.02814e+00 
 7.67472e-01  4.68258e-02 -2.99885e+00 
 8.46896e-01  5.12942e-02 -2.96651e+00 
 9.27083e-01  5.56804e-02 -2.93115e+00 
 1.00812e+00  5.99691e-02 -2.89277e+00 
 1.09007e+00  6.41407e-02 -2.85140e+00 
 1.17301e+00  6.81753e-02 -2.80705e+00 
 1.25701e+00  7.20492e-02 -2.75976e+00 
 1.34216e+00  7.57378e-02 -2.70955e+00 
 1.42850e+00  7.92128e-02 -2.65647e+00 
 1.51612e+00  8.24456e-02 -2.60055e+00 
 1.60508e+00  8.54037e-02 -2.54183e+00 
 1.69546e+00  8.80547e-02 -2.48037e+00 
 1.78730e+00  9.03633e-02 -2.41623e+00 
 1.88068e+00  9.22946e-02 -2.34947e+00 
 1.97563e+00  9.38121e-02 -2.28016e+00 
 2.07222e+00  9.48804e-02 -2.20839e+00 
 2.17047e+00  9.54645e-02 -2.13424e+00 
 2.27041e+00  9.55314e-02 -2.05780e+00 
 2.37206e+00  9.50510e-02 -1.97920e+00 
 2.47544e+00  9.39967e-02 -1.89852e+00 
 2.58051e+00  9.23476e-02 -1.81591e+00 
 2.68727e+00  9.00884e-02 -1.73148e+00 
 2.79567e+00  8.72129e-02 -1.64537e+00 
 2.90565e+00  8.37226e-02 -1.55772e+00 
 3.01711e+00  7.96312e-02 -1.46867e+00 
 3.12996e+00  7.49631e-02 -1.37838e+00 
 3.24405e+00  6.97579e-02 -1.28699e+00 
 3.35925e+00  6.40677e-02 -1.19463e+00 
 3.47534e+00  5.79629e-02 -1.10147e+00 
 3.59214e+00  5.15278e-02 -1.00762e+00 
 3.70939e+00  4.48661e-02 -9.13227e-01 
 3.82683e+00  3.80959e-02 -8.18374e-01 
 3.94417e+00  3.13545e-02 -7.23175e-01 
 4.06110e+00  2.47923e-02 -6.27683e-01 
 4.17727e+00  1.85765e-02 -5.31963e-01 
 4.29235e+00  1.28847e-02 -4.36016e-01 
 4.40595e+00  7.90625e-03 -3.39849e-01 
 4.51771e+00  3.83643e-03 -2.43400e-01 
 4.62724e+00  8.77144e-04 -1.46610e-01 
 4.73755e+00  6.69596e-03 -2.34209e-02 
-4.54528e+00 -6.53646e-03 -2.23951e-02 
-4.43572e+00 -1.00027e-03 -1.41721e-01 
-4.32665e+00 -4.30952e-03 -2.35978e-01 
-4.21513e+00 -8.82425e-03 -3.30331e-01 
-4.10167e+00 -1.43020e-02 -4.24831e-01 
-3.98668e+00 -2.05106e-02 -5.19526e-01 
-3.87063e+00 -2.72274e-02 -6.14389e-01 
-3.75390e+00 -3.42463e-02 -7.09392e-01 
-3.63692e+00 -4.13765e-02 -8.04440e-01 
-3.52001e+00 -4.84491e-02 -8.99445e-01 
-3.40354e+00 -5.53133e-02 -9.94260e-01 
-3.28778e+00 -6.18428e-02 -1.08876e+00 
-3.17301e+00 -6.79301e-02 -1.18276e+00 
-3.05945e+00 -7.34917e-02 -1.27611e+00 
-2.94731e+00 -7.84616e-02 -1.36861e+00 
-2.83672e+00 -8.27952e-02 -1.46012e+00 
-2.72785e+00 -8.64629e-02 -1.55041e+00 
-2.62078e+00 -8.94524e-02 -1.63936e+00 
-2.51560e+00 -9.17635e-02 -1.72675e+00 
-2.41234e+00 -9.34086e-02 -1.81247e+00 
-2.31105e+00 -9.44088e-02 -1.89632e+00 
-2.21171e+00 -9.47937e-02 -1.97819e+00 
-2.11435e+00 -9.45982e-02 -2.05793e+00 
-2.01892e+00 -9.38620e-02 -2.13544e+00 
-1.92539e+00 -9.26276e-02 -2.21058e+00 
-1.83371e+00 -9.09390e-02 -2.28327e+00 
-1.74384e+00 -8.88413e-02 -2.35341e+00 
-1.65569e+00 -8.63784e-02 -2.42094e+00 
-1.56922e+00 -8.35940e-02 -2.48576e+00 
-1.48433e+00 -8.05291e-02 -2.54782e+00 
-1.40097e+00 -7.72235e-02 -2.60707e+00 
-1.31904e+00 -7.37132e-02 -2.66346e+00 
-1.23847e+00 -7.00327e-02 -2.71694e+00 
-1.15918e+00 -6.62120e-02 -2.76749e+00 
-1.08108e+00 -6.22797e-02 -2.81507e+00 
-1.00410e+00 -5.82591e-02 -2.85966e+00 
-9.28157e-01 -5.41729e-02 -2.90122e+00 
-8.53162e-01 -5.00383e-02 -2.93977e+00 
-7.79050e-01 -4.58719e-02 -2.97526e+00 
-7.05728e-01 -4.16855e-02 -3.00769e+00 
-6.33134e-01 -3.74903e-02 -3.03706e+00 
-5.61179e-01 -3.32931e-02 -3.06335e+00 
-4.89800e-01 -2.91006e-02 -3.08655e+00 
-4.18911e-01 -2.49155e-02 -3.10668e+00 
-3.48453e-01 -2.07410e-02 -3.12371e+00 
-2.78339e-01 -1.65766e-02 -3.13764e+00 
-2.08513e-01 -1.24226e-02 -3.14849e+00 
-1.38889e-01 -8.27656e-03 -3.15623e+00 
-6.94123e-02 -4.13689e-03 -3.16088e+00 
-7.71277e-13  3.23612e-12 -3.16243e+00 
 6.94123e-02  4.13689e-03 -3.16088e+00 
 1.38889e-01  8.27656e-03 -3.15623e+00 
 2.08513e-01  1.24226e-02 -3.14849e+00 
 2.78339e-01  1.65766e-02 -3.13764e+00 
 3.48453e-01  2.07410e-02 -3.12371e+00 
 4.18911e-01  2.49155e-02 -3.10668e+00 
 4.89800e-01  2.91006e-02 -3.08655e+00 
 5.61179e-01  3.32931e-02 -3.06335e+00 
 6.33134e-01  3.74903e-02 -3.03706e+00 
 7.05728e-01  4.16855e-02 -3.00769e+00 
 7.79050e-01  4.58719e-02 -2.97526e+00 
 8.53162e-01  5.00383e-02 -2.93977e+00 
 9.28157e-01  5.41729e-02 -2.90122e+00 
 1.00410e+00  5.82591e-02 -2.85966e+00 
 1.08108e+00  6.22797e-02 -2.81507e+00 
 1.15918e+00  6.62120e-02 -2.76749e+00 
 1.23847e+00  7.00327e-02 -2.71694e+00 
 1.31904e+00  7.37132e-02 -2.66346e+00 
 1.40097e+00  7.72235e-02 -2.60707e+00 
 1.48433e+00  8.05291e-02 -2.54782e+00 
 1.56922e+00  8.35940e-02 -2.48576e+00 
 1.65569e+00  8.63784e-02 -2.42094e+00 
 1.74384e+00  8.88413e-02 -2.35341e+00 
 1.83371e+00  9.09390e-02 -2.28327e+00 
 1.92539e+00  9.26276e-02 -2.21058e+00 
 2.01892e+00  9.38620e-02 -2.13544e+00 
 2.11435e+00  9.45982e-02 -2.05793e+00 
 2.21171e+00  9.47937e-02 -1.97819e+00 
 2.31105e+00  9.44088e-02 -1.89632e+00 
 2.41234e+00  9.34086e-02 -1.81247e+00 
 2.51560e+00  9.17635e-02 -1.72675e+00 
 2.62078e+00  8.94524e-02 -1.63936e+00 
 2.72785e+00  8.64629e-02 -1.55041e+00 
 2.83672e+00  8.27952e-02 -1.46012e+00 
 2.94731e+00  7.84616e-02 -1.36861e+00 
 3.05945e+00  7.34917e-02 -1.27611e+00 
 3.17301e+00  6.79301e-02 -1.18276e+00 
 3.28778e+00  6.18428e-02 -1.08876e+00 
 3.40354e+00  5.53133e-02 -9.94260e-01 
 3.52001e+00  4.84491e-02 -8.99445e-01 
 3.63692e+00  4.13765e-02 -8.04440e-01 
 3.75390e+00  3.42463e-02 -7.09392e-01 
 3.87063e+00  2.72274e-02 -6.14389e-01 
 3.98668e+00  2.05106e-02 -5.19526e-01 
 4.10167e+00  1.43020e-02 -4.24831e-01 
 4.21513e+00  8.82425e-03 -3.30331e-01 
 4.32665e+00  4.30952e-03 -2.35978e-01 
 4.43572e+00  1.00027e-03 -1.41721e-01 
 4.54528e+00  6.53646e-03 -2.23951e-02 
-4.35975e+00 -6.43710e-03 -2.12170e-02 
-4.24998e+00 -1.13998e-03 -1.36239e-01 
-4.14040e+00 -4.82681e-03 -2.27731e-01 
-4.02820e+00 -9.80867e-03 -3.19844e-01 
-3.91396e+00 -1.57936e-02 -4.12617e-01 
-3.79819e+00 -2.25050e-02 -5.06077e-01 
-3.68144e+00 -2.96811e-02 -6.00165e-01 
-3.56417e+00 -3.70836e-02 -6.94818e-01 
-3.44686e+00 -4.44954e-02 -7.89896e-01 
-3.32990e+00 -5.17289e-02 -8.85268e-01 
-3.21369e+00 -5.86210e-02 -9.80738e-01 
-3.09853e+00 -6.50400e-02 -1.07613e+00 
-2.98475e+00 -7.08786e-02 -1.17122e+00 
-2.87255e+00 -7.60585e-02 -1.26580e+00 
-2.76216e+00 -8.05239e-02 -1.35964e+00 
-2.65372e+00 -8.42432e-02 -1.45254e+00 
-2.54738e+00 -8.72031e-02 -1.54427e+00 
-2.44320e+00 -8.94090e-02 -1.63464e+00 
-2.34127e+00 -9.08796e-02 -1.72344e+00 
-2.24159e+00 -9.16465e-02 -1.81050e+00 
-2.14418e+00 -9.17499e-02 -1.89564e+00 
-2.04903e+00 -9.12374e-02 -1.97872e+00 
-1.95611e+00 -9.01615e-02 -2.05958e+00 
-1.86535e+00 -8.85772e-02 -2.13811e+00 
-1.77672e+00 -8.65417e-02 -2.21417e+00 
-1.69012e+00 -8.41109e-02 -2.28769e+00 
-1.60550e+00 -8.13411e-02 -2.35855e+00 
-1.52276e+00 -7.82846e-02 -2.42671e+00 
-1.44182e+00 -7.49927e-02 -2.49206e+00 
-1.36258e+00 -7.15115e-02 -2.55458e+00 
-1.28496e+00 -6.78851e-02 -2.61420e+00 
-1.20886e+00 -6.41515e-02 -2.67089e+00 
-1.13419e+00 -6.03466e-02 -2.72460e+00 
-1.06085e+00 -5.64999e-02 -2.77533e+00 
-9.88769e-01 -5.26389e-02 -2.82302e+00 
-9.17832e-01 -4.87847e-02 -2.86769e+00 
-8.47971e-01 -4.49566e-02 -2.90930e+00 
-7.79084e-01 -4.11681e-02 -2.94785e+00 
-7.11100e-01 -3.74310e-02 -2.98332e+00 
-6.43924e-01 -3.37518e-02 -3.01572e+00 
-5.77488e-01 -3.01361e-02 -3.04504e+00 
-5.11701e-01 -2.65846e-02 -3.07127e+00 
-4.46497e-01 -2.30973e-02 -3.09442e+00 
-3.81788e-01 -1.96702e-02 -3.11448e+00 
-3.17512e-01 -1.62993e-02 -3.13145e+00 
-2.53585e-01 -1.29769e-02 -3.14534e+00 
-1.89946e-01 -9.69563e-03 -3.15614e+00 
-1.26511e-01 -6.44563e-03 -3.16386e+00 
-6.32229e-02 -3.21749e-03 -3.16848e+00 
 1.21060e-12  3.23105e-12 -3.17003e+00 
 6.32229e-02  3.21749e-03 -3.16848e+00 
 1.26511e-01  6.44563e-03 -3.16386e+00 
 1.89946e-01  9.69563e-03 -3.15614e+00 
 2.53585e-01  1.29769e-02 -3.14534e+00 
 3.17512e-01  1.62993e-02 -3.13145e+00 
 3.81788e-01  1.96702e-02 -3.11448e+00 
 4.46497e-01  2.30973e-02 -3.09442e+00 
 5.11701e-01  2.65846e-02 -3.07127e+00 
 5.77488e-01  3.01361e-02 -3.04504e+00 
 6.43924e-01  3.37518e-02 -3.01572e+00 
 7.11100e-01  3.74310e-02 -2.98332e+00 
 7.79084e-01  4.11681e-02 -2.94785e+00 
 8.47971e-01  4.49566e-02 -2.90930e+00 
 9.17832e-01  4.87847e-02 -2.86769e+00 
 9.88769e-01  5.26389e-02 -2.82302e+00 
 1.06085e+00  5.64999e-02 -2.77533e+00 
 1.13419e+00  6.03466e-02 -2.72460e+00 
 1.20886e+00  6.41515e-02 -2.67089e+00 
 1.28496e+00  6.78851e-02 -2.61420e+00 
 1.36258e+00  7.15115e-02 -2.55458e+00 
 1.44182e+00  7.49927e-02 -2.49206e+00 
 1.52276e+00  7.82846e-02 -2.42671e+00 
 1.60550e+00  8.13411e-02 -2.35855e+00 
 1.69012e+00  8.41109e-02 -2.28769e+00 
 1.77672e+00  8.65417e-02 -2.21417e+00 
 1.86535e+00  8.85772e-02 -2.13811e+00 
 1.95611e+00  9.01615e-02 -2.05958e+00 
 2.04903e+00  9.12374e-02 -1.97872e+00 
 2.14418e+00  9.17499e-02 -1.89564e+00 
 2.24159e+00  9.16465e-02 -1.81050e+00 
 2.34127e+00  9.08796e-02 -1.72344e+00 
 2.44320e+00  8.94090e-02 -1.63464e+00 
 2.54738e+00  8.72031e-02 -1.54427e+00 
 2.65372e+00  8.42432e-02 -1.45254e+00 
 2.76216e+00  8.05239e-02 -1.35964e+00 
 2.87255e+00  7.60585e-02 -1.26580e+00 
 2.98475e+00  7.08786e-02 -1.17122e+00 
 3.09853e+00  6.50400e-02 -1.07613e+00 
 3.21369e+00  5.86210e-02 -9.80738e-01 
 3.32990e+00  5.17289e-02 -8.85268e-01 
 3.44686e+00  4.44954e-02 -7.89896e-01 
 3.56417e+00  3.70836e-02 -6.94818e-01 
 3.68144e+00  2.96811e-02 -6.00165e-01 
 3.79819e+00  2.25050e-02 -5.06077e-01 
 3.91396e+00  1.57936e-02 -4.12617e-01 
 4.02820e+00  9.80867e-03 -3.19844e-01 
 4.14040e+00  4.82681e-03 -2.27731e-01 
 4.24998e+00  1.13998e-03 -1.36239e-01 
 4.35975e+00  6.43710e-03 -2.12170e-02 
-4.18174e+00 -6.41411e-03 -1.98629e-02 
-4.07057e+00 -1.29899e-03 -1.30112e-01 
-3.95935e+00 -5.38933e-03 -2.18609e-01 
-3.84534e+00 -1.08522e-02 -3.08365e-01 
-3.72923e+00 -1.73347e-02 -3.99396e-01 
-3.61166e+00 -2.45068e-02 -4.91695e-01 
-3.49326e+00 -3.20609e-02 -5.85160e-01 
-3.37459e+00 -3.97217e-02 -6.79675e-01 
-3.25620e+00 -4.72448e-02 -7.75044e-01 
-3.13854e+00 -5.44244e-02 -8.71072e-01 
-3.02205e+00 -6.10884e-02 -9.67501e-01 
-2.90707e+00 -6.71042e-02 -1.06409e+00 
-2.79393e+00 -7.23712e-02 -1.16056e+00 
-2.68286e+00 -7.68238e-02 -1.25665e+00 
-2.57408e+00 -8.04239e-02 -1.35208e+00 
-2.46773e+00 -8.31614e-02 -1.44659e+00 
-2.36391e+00 -8.50471e-02 -1.53992e+00 
-2.26269e+00 -8.61115e-02 -1.63184e+00 
-2.16412e+00 -8.63991e-02 -1.72213e+00 
-2.06817e+00 -8.59665e-02 -1.81059e+00 
-1.97484e+00 -8.48782e-02 -1.89701e+00 
-1.88406e+00 -8.32039e-02 -1.98126e+00 
-1.79579e+00 -8.10168e-02 -2.06316e+00 
-1.70993e+00 -7.83896e-02 -2.14260e+00 
-1.62641e+00 -7.53954e-02 -2.21945e+00 
-1.54512e+00 -7.21032e-02 -2.29363e+00 
-1.46596e+00 -6.85801e-02 -2.36504e+00 
-1.38883e+00 -6.48868e-02 -2.43362e+00 
-1.31361e+00 -6.10811e-02 -2.49931e+00 
-1.24019e+00 -5.72131e-02 -2.56206e+00 
-1.16848e+00 -5.33293e-02 -2.62183e+00 
-1.09834e+00 -4.94685e-02 -2.67859e+00 
-1.02970e+00 -4.56658e-02 -2.73231e+00 
-9.62430e-01 -4.19486e-02 -2.78299e+00 
-8.96444e-01 -3.83409e-02 -2.83059e+00 
-8.31632e-01 -3.48597e-02 -2.87513e+00 
-7.67912e-01 -3.15191e-02 -2.91657e+00 
-7.05179e-01 -2.83266e-02 -2.95494e+00 
-6.43357e-01 -2.52874e-02 -2.99022e+00 
-5.82348e-01 -2.24011e-02 -3.02242e+00 
-5.22079e-01 -1.96655e-02 -3.05154e+00 
-4.62458e-01 -1.70736e-02 -3.07758e+00 
-4.03419e-01 -1.46171e-02 -3.10054e+00 
-3.44873e-01 -1.22838e-02 -3.12043e+00 
-2.86756e-01 -1.00605e-02 -3.13726e+00 
-2.28985e-01 -7.93123e-03 -3.15102e+00 
-1.71498e-01 -5.87941e-03 -3.16172e+00 
-1.14214e-01 -3.88630e-03 -3.16936e+00 
-5.70748e-02 -1.93321e-03 -3.17394e+00 
-3.43152e-13  4.79260e-13 -3.17547e+00 
 5.70748e-02  1.93321e-03 -3.17394e+00 
 1.14214e-01  3.88630e-03 -3.16936e+00 
 1.71498e-01  5.87941e-03 -3.16172e+00 
 2.28985e-01  7.93123e-03 -3.15102e+00 
 2.86756e-01  1.00605e-02 -3.13726e+00 
 3.44873e-01  1.22838e-02 -3.12043e+00 
 4.03419e-01  1.46171e-02 -3.10054e+00 
 4.62458e-01  1.70736e-02 -3.07758e+00 
 5.22079e-01  1.96655e-02 -3.05154e+00 
 5.82348e-01  2.24011e-02 -3.02242e+00 
 6.43357e-01  2.52874e-02 -2.99022e+00 
 7.05179e-01  2.83266e-02 -2.95494e+00 
 7.67912e-01  3.15191e-02 -2.91657e+00 
 8.31632e-01  3.48597e-02 -2.87513e+00 
 8.96444e-01  3.83409e-02 -2.83059e+00 
 9.62430e-01  4.19486e-02 -2.78299e+00 
 1.02970e+00  4.56658e-02 -2.73231e+00 
 1.09834e+00  4.94685e-02 -2.67859e+00 
 1.16848e+00  5.33293e-02 -2.62183e+00 
 1.24019e+00  5.72131e-02 -2.56206e+00 
 1.31361e+00  6.10811e-02 -2.49931e+00 
 1.38883e+00  6.48868e-02 -2.43362e+00 
 1.46596e+00  6.85801e-02 -2.36504e+00 
 1.54512e+00  7.21032e-02 -2.29363e+00 
 1.62641e+00  7.53954e-02 -2.21945e+00 
 1.70993e+00  7.83896e-02 -2.14260e+00 
 1.79579e+00  8.10168e-02 -2.06316e+00 
 1.88406e+00  8.32039e-02 -1.98126e+00 
 1.97484e+00  8.48782e-02 -1.89701e+00 
 2.06817e+00  8.59665e-02 -1.81059e+00 
 2.16412e+00  8.63991e-02 -1.72213e+00 
 2.26269e+00  8.61115e-02 -1.63184e+00 
 2.36391e+00  8.50471e-02 -1.53992e+00 
 2.46773e+00  8.31614e-02 -1.44659e+00 
 2.57408e+00  8.04239e-02 -1.35208e+00 
 2.68286e+00  7.68238e-02 -1.25665e+00 
 2.79393e+00  7.23712e-02 -1.16056e+00 
 2.90707e+00  6.71042e-02 -1.06409e+00 
 3.02205e+00  6.10884e-02 -9.67501e-01 
 3.13854e+00  5.44244e-02 -8.71072e-01 
 3.25620e+00  4.72448e-02 -7.75044e-01 
 3.37459e+00  3.97217e-02 -6.79675e-01 
 3.49326e+00  3.20609e-02 -5.85160e-01 
 3.61166e+00  2.45068e-02 -4.91695e-01 
 3.72923e+00  1.73347e-02 -3.99396e-01 
 3.84534e+00  1.08522e-02 -3.08365e-01 
 3.95935e+00  5.38933e-03 -2.18609e-01 
 4.07057e+00  1.29899e-03 -1.30112e-01 
 4.18174e+00  6.41411e-03 -1.98629e-02 
-4.01211e+00 -6.48845e-03 -1.83047e-02 
-3.89810e+00 -1.48083e-03 -1.23287e-01 
-3.78383e+00 -5.99695e-03 -2.08578e-01 
-3.66664e+00 -1.19411e-02 -2.95902e-01 
-3.54737e+00 -1.88849e-02 -3.85242e-01 
-3.42679e+00 -2.64333e-02 -4.76539e-01 
-3.30565e+00 -3.42252e-02 -5.69629e-01 
-3.18462e+00 -4.19445e-02 -6.64321e-01 
-3.06432e+00 -4.93190e-02 -7.60340e-01 
-2.94526e+00 -5.61279e-02 -8.57410e-01 
-2.82794e+00 -6.21959e-02 -9.55190e-01 
-2.71273e+00 -6.73979e-02 -1.05336e+00 
-2.59995e+00 -7.16500e-02 -1.15156e+00 
-2.48984e+00 -7.49102e-02 -1.24948e+00 
-2.38261e+00 -7.71696e-02 -1.34675e+00 
-2.27836e+00 -7.84504e-02 -1.44308e+00 
-2.17718e+00 -7.87978e-02 -1.53816e+00 
-2.07908e+00 -7.82767e-02 -1.63174e+00 
-1.98407e+00 -7.69658e-02 -1.72355e+00 
-1.89210e+00 -7.49530e-02 -1.81338e+00 
-1.80310e+00 -7.23328e-02 -1.90103e+00 
-1.71698e+00 -6.92007e-02 -1.98632e+00 
-1.63366e+00 -6.56533e-02 -2.06911e+00 
-1.55298e+00 -6.17825e-02 -2.14927e+00 
-1.47485e+00 -5.76781e-02 -2.22669e+00 
-1.39913e+00 -5.34215e-02 -2.30129e+00 
-1.32568e+00 -4.90900e-02 -2.37298e+00 
-1.25438e+00 -4.47508e-02 -2.44171e+00 
-1.18509e+00 -4.04664e-02 -2.50744e+00 
-1.11768e+00 -3.62885e-02 -2.57013e+00 
-1.05203e+00 -3.22639e-02 -2.62975e+00 
-9.88007e-01 -2.84291e-02 -2.68630e+00 
-9.25505e-01 -2.48160e-02 -2.73974e+00 
-8.64396e-01 -2.14471e-02 -2.79009e+00 
-8.04585e-01 -1.83406e-02 -2.83733e+00 
-7.45953e-01 -1.55065e-02 -2.88147e+00 
-6.88412e-01 -1.29512e-02 -2.92251e+00 
-6.31854e-01 -1.06742e-02 -2.96047e+00 
-5.76199e-01 -8.67164e-03 -2.99534e+00 
-5.21346e-01 -6.93417e-03 -3.02714e+00 
-4.67223e-01 -5.44986e-03 -3.05587e+00 
-4.13736e-01 -4.20208e-03 -3.08156e+00 
-3.60818e-01 -3.17237e-03 -3.10419e+00 
-3.08382e-01 -2.33856e-03 -3.12379e+00 
-2.56365e-01 -1.67716e-03 -3.14036e+00 
-2.04684e-01 -1.16196e-03 -3.15391e+00 
-1.53280e-01 -7.65825e-04 -3.16444e+00 
-1.02072e-01 -4.59886e-04 -3.17195e+00 
-5.10045e-02 -2.14712e-04 -3.17646e+00 
-1.64145e-12 -3.60763e-12 -3.17797e+00 
 5.10045e-02  2.14712e-04 -3.17646e+00 
 1.02072e-01  4.59886e-04 -3.17195e+00 
 1.53280e-01  7.65825e-04 -3.16444e+00 
 2.04684e-01  1.16196e-03 -3.15391e+00 
 2.56365e-01  1.67716e-03 -3.14036e+00 
 3.08382e-01  2.33856e-03 -3.12379e+00 
 3.60818e-01  3.17237e-03 -3.10419e+00 
 4.13736e-01  4.20208e-03 -3.08156e+00 
 4.67223e-01  5.44986e-03 -3.05587e+00 
 5.21346e-01  6.93417e-03 -3.02714e+00 
 5.76199e-01  8.67164e-03 -2.99534e+00 
 6.31854e-01  1.06742e-02 -2.96047e+00 
 6.88412e-01  1.29512e-02 -2.92251e+00 
 7.45953e-01  1.55065e-02 -2.88147e+00 
 8.04585e-01  1.83406e-02 -2.83733e+00 
 8.64396e-01  2.14471e-02 -2.79009e+00 
 9.25505e-01  2.48160e-02 -2.73974e+00 
 9.88007e-01  2.84291e-02 -2.68630e+00 
 1.05203e+00  3.22639e-02 -2.62975e+00 
 1.11768e+00  3.62885e-02 -2.57013e+00 
 1.18509e+00  4.04664e-02 -2.50744e+00 
 1.25438e+00  4.47508e-02 -2.44171e+00 
 1.32568e+00  4.90900e-02 -2.37298e+00 
 1.39913e+00  5.34215e-02 -2.30129e+00 
 1.47485e+00  5.76781e-02 -2.22669e+00 
 1.55298e+00  6.17825e-02 -2.14927e+00 
 1.63366e+00  6.56533e-02 -2.06911e+00 
 1.71698e+00  6.92007e-02 -1.98632e+00 
 1.80310e+00  7.23328e-02 -1.90103e+00 
 1.89210e+00  7.49530e-02 -1.81338e+00 
 1.98407e+00  7.69658e-02 -1.72355e+00 
 2.07908e+00  7.82767e-02 -1.63174e+00 
 2.17718e+00  7.87978e-02 -1.53816e+00 
 2.27836e+00  7.84504e-02 -1.44308e+00 
 2.38261e+00  7.71696e-02 -1.34675e+00 
 2.48984e+00  7.49102e-02 -1.24948e+00 
 2.59995e+00  7.16500e-02 -1.15156e+00 
 2.71273e+00  6.73979e-02 -1.05336e+00 
 2.82794e+00  6.21959e-02 -9.55190e-01 
 2.94526e+00  5.61279e-02 -8.57410e-01 
 3.06432e+00  4.93190e-02 -7.60340e-01 
 3.18462e+00  4.19445e-02 -6.64321e-01 
 3.30565e+00  3.42252e-02 -5.69629e-01 
 3.42679e+00  2.64333e-02 -4.76539e-01 
 3.54737e+00  1.88849e-02 -3.85242e-01 
 3.66664e+00  1.19411e-02 -2.95902e-01 
 3.78383e+00  5.99695e-03 -2.08578e-01 
 3.89810e+00  1.48083e-03 -1.23287e-01 
 4.01211e+00  6.48845e-03 -1.83047e-02 
-3.85177e+00 -6.68753e-03 -1.65070e-02 
-3.73311e+00 -1.69025e-03 -1.15713e-01 
-3.61408e+00 -6.64764e-03 -1.97622e-01 
-3.49206e+00 -1.30515e-02 -2.82513e-01 
-3.36809e+00 -2.03789e-02 -3.70313e-01 
-3.24308e+00 -2.81557e-02 -4.60889e-01 
-3.11796e+00 -3.59589e-02 -5.53983e-01 
-2.99347e+00 -4.34286e-02 -6.49303e-01 
-2.87037e+00 -5.02670e-02 -7.46465e-01 
-2.74921e+00 -5.62454e-02 -8.45081e-01 
-2.63053e+00 -6.11966e-02 -9.44704e-01 
-2.51472e+00 -6.50164e-02 -1.04492e+00 
-2.40211e+00 -6.76530e-02 -1.14526e+00 
-2.29290e+00 -6.91040e-02 -1.24533e+00 
-2.18727e+00 -6.94054e-02 -1.34472e+00 
-2.08527e+00 -6.86262e-02 -1.44307e+00 
-1.98696e+00 -6.68594e-02 -1.54001e+00 
-1.89227e+00 -6.42152e-02 -1.63528e+00 
-1.80117e+00 -6.08154e-02 -1.72857e+00 
-1.71353e+00 -5.67864e-02 -1.81967e+00 
-1.62925e+00 -5.22572e-02 -1.90836e+00 
-1.54817e+00 -4.73523e-02 -1.99449e+00 
-1.47015e+00 -4.21931e-02 -2.07789e+00 
-1.39501e+00 -3.68907e-02 -2.15848e+00 
-1.32260e+00 -3.15504e-02 -2.23613e+00 
-1.25275e+00 -2.62640e-02 -2.31079e+00 
-1.18529e+00 -2.11163e-02 -2.38239e+00 
-1.12007e+00 -1.61782e-02 -2.45091e+00 
-1.05693e+00 -1.15130e-02 -2.51629e+00 
-9.95708e-01 -7.17077e-03 -2.57855e+00 
-9.36280e-01 -3.19458e-03 -2.63765e+00 
-8.78494e-01  3.84681e-04 -2.69361e+00 
-8.22232e-01  3.54209e-03 -2.74641e+00 
-7.67359e-01  6.26349e-03 -2.79609e+00 
-7.13771e-01  8.53973e-03 -2.84264e+00 
-6.61345e-01  1.03708e-02 -2.88608e+00 
-6.09989e-01  1.17607e-02 -2.92642e+00 
-5.59592e-01  1.27210e-02 -2.96370e+00 
-5.10073e-01  1.32668e-02 -2.99791e+00 
-4.61331e-01  1.34188e-02 -3.02908e+00 
-4.13292e-01  1.32007e-02 -3.05722e+00 
-3.65866e-01  1.26408e-02 -3.08236e+00 
-3.18986e-01  1.17693e-02 -3.10450e+00 
-2.72567e-01  1.06200e-02 -3.12366e+00 
-2.26548e-01  9.22851e-03 -3.13985e+00 
-1.80850e-01  7.63232e-03 -3.15308e+00 
-1.35415e-01  5.87068e-03 -3.16336e+00 
-9.01687e-02  3.98374e-03 -3.17070e+00 
-4.50542e-02  2.01299e-03 -3.17511e+00 
-7.09337e-13 -2.60132e-12 -3.17657e+00 
 4.50542e-02 -2.01299e-03 -3.17511e+00 
 9.01687e-02 -3.98374e-03 -3.17070e+00 
 1.35415e-01 -5.87068e-03 -3.16336e+00 
 1.80850e-01 -7.63232e-03 -3.15308e+00 
 2.26548e-01 -9.22851e-03 -3.13985e+00 
 2.72567e-01 -1.06200e-02 -3.12366e+00 
 3.18986e-01 -1.17693e-02 -3.10450e+00 
 3.65866e-01 -1.26408e-02 -3.08236e+00 
 4.13292e-01 -1.32007e-02 -3.05722e+00 
 4.61331e-01 -1.34188e-02 -3.02908e+00 
 5.10073e-01 -1.32668e-02 -2.99791e+00 
 5.59592e-01 -1.27210e-02 -2.96370e+00 
 6.09989e-01 -1.17607e-02 -2.92642e+00 
 6.61345e-01 -1.03708e-02 -2.88608e+00 
 7.13771e-01 -8.53973e-03 -2.84264e+00 
 7.67359e-01 -6.26349e-03 -2.79609e+00 
 8.22232e-01 -3.54209e-03 -2.74641e+00 
 8.78494e-01 -3.84681e-04 -2.69361e+00 
 9.36280e-01  3.19458e-03 -2.63765e+00 
 9.95708e-01  7.17077e-03 -2.57855e+00 
 1.05693e+00  1.15130e-02 -2.51629e+00 
 1.12007e+00  1.61782e-02 -2.45091e+00 
 1.18529e+00  2.11163e-02 -2.38239e+00 
 1.25275e+00  2.62640e-02 -2.31079e+00 
 1.32260e+00  3.15504e-02 -2.23613e+00 
 1.39501e+00  3.68907e-02 -2.15848e+00 
 1.47015e+00  4.21931e-02 -2.07789e+00 
 1.54817e+00  4.73523e-02 -1.99449e+00 
 1.62925e+00  5.22572e-02 -1.90836e+00 
 1.71353e+00  5.67864e-02 -1.81967e+00 
 1.80117e+00  6.08154e-02 -1.72857e+00 
 1.89227e+00  6.42152e-02 -1.63528e+00 
 1.98696e+00  6.68594e-02 -1.54001e+00 
 2.08527e+00  6.86262e-02 -1.44307e+00 
 2.18727e+00  6.94054e-02 -1.34472e+00 
 2.29290e+00  6.91040e-02 -1.24533e+00 
 2.40211e+00  6.76530e-02 -1.14526e+00 
 2.51472e+00  6.50164e-02 -1.04492e+00 
 2.63053e+00  6.11966e-02 -9.44704e-01 
 2.74921e+00  5.62454e-02 -8.45081e-01 
 2.87037e+00  5.02670e-02 -7.46465e-01 
 2.99347e+00  4.34286e-02 -6.49303e-01 
 3.11796e+00  3.59589e-02 -5.53983e-01 
 3.24308e+00  2.81557e-02 -4.60889e-01 
 3.36809e+00  2.03789e-02 -3.70313e-01 
 3.49206e+00  1.30515e-02 -2.82513e-01 
 3.61408e+00  6.64764e-03 -1.97622e-01 
 3.73311e+00  1.69025e-03 -1.15713e-01 
 3.85177e+00  6.68753e-03 -1.65070e-02 
-3.70168e+00 -7.04788e-03 -1.44250e-02 
-3.57614e+00 -1.93391e-03 -1.07341e-01 
-3.45023e+00 -7.33628e-03 -1.85758e-01 
-3.32138e+00 -1.41435e-02 -2.68327e-01 
-3.19084e+00 -2.17125e-02 -3.54888e-01 
-3.05975e+00 -2.94735e-02 -4.45195e-01 
-2.92920e+00 -3.69323e-02 -5.38860e-01 
-2.80008e+00 -4.36855e-02 -6.35442e-01 
-2.67323e+00 -4.94173e-02 -7.34409e-01 
-2.54928e+00 -5.39052e-02 -8.35225e-01 
-2.42878e+00 -5.70091e-02 -9.37300e-01 
-2.31213e+00 -5.86676e-02 -1.04009e+00 
-2.19962e+00 -5.88847e-02 -1.14303e+00 
-2.09142e+00 -5.77200e-02 -1.24561e+00 
-1.98762e+00 -5.52760e-02 -1.34736e+00 
-1.88822e+00 -5.16869e-02 -1.44785e+00 
-1.79318e+00 -4.71093e-02 -1.54669e+00 
-1.70237e+00 -4.17106e-02 -1.64356e+00 
-1.61566e+00 -3.56652e-02 -1.73818e+00 
-1.53286e+00 -2.91431e-02 -1.83030e+00 
-1.45379e+00 -2.23116e-02 -1.91974e+00 
-1.37822e+00 -1.53244e-02 -2.00633e+00 
-1.30595e+00 -8.32699e-03 -2.08995e+00 
-1.23677e+00 -1.44684e-03 -2.17051e+00 
-1.17046e+00  5.19895e-03 -2.24793e+00 
-1.10681e+00  1.15125e-02 -2.32217e+00 
-1.04565e+00  1.74063e-02 -2.39320e+00 
-9.86755e-01  2.28116e-02 -2.46100e+00 
-9.29973e-01  2.76689e-02 -2.52556e+00 
-8.75120e-01  3.19355e-02 -2.58690e+00 
-8.22049e-01  3.55767e-02 -2.64501e+00 
-7.70602e-01  3.85721e-02 -2.69994e+00 
-7.20648e-01  4.09084e-02 -2.75168e+00 
-6.72050e-01  4.25837e-02 -2.80028e+00 
-6.24694e-01  4.36020e-02 -2.84575e+00 
-5.78460e-01  4.39765e-02 -2.88813e+00 
-5.33250e-01  4.37252e-02 -2.92744e+00 
-4.88956e-01  4.28732e-02 -2.96372e+00 
-4.45495e-01  4.14495e-02 -2.99698e+00 
-4.02771e-01  3.94886e-02 -3.02726e+00 
-3.60709e-01  3.70282e-02 -3.05458e+00 
-3.19224e-01  3.41095e-02 -3.07896e+00 
-2.78250e-01  3.07769e-02 -3.10042e+00 
-2.37709e-01  2.70768e-02 -3.11898e+00 
-1.97540e-01  2.30584e-02 -3.13466e+00 
-1.57671e-01  1.87718e-02 -3.14747e+00 
-1.18046e-01  1.42694e-02 -3.15742e+00 
-7.85971e-02  9.60375e-03 -3.16452e+00 
-3.92705e-02  4.82937e-03 -3.16878e+00 
 2.59102e-13 -3.17075e-12 -3.17020e+00 
 3.92705e-02 -4.82937e-03 -3.16878e+00 
 7.85971e-02 -9.60375e-03 -3.16452e+00 
 1.18046e-01 -1.42694e-02 -3.15742e+00 
 1.57671e-01 -1.87718e-02 -3.14747e+00 
 1.97540e-01 -2.30584e-02 -3.13466e+00 
 2.37709e-01 -2.70768e-02 -3.11898e+00 
 2.78250e-01 -3.07769e-02 -3.10042e+00 
 3.19224e-01 -3.41095e-02 -3.07896e+00 
 3.60709e-01 -3.70282e-02 -3.05458e+00 
 4.02771e-01 -3.94886e-02 -3.02726e+00 
 4.45495e-01 -4.14495e-02 -2.99698e+00 
 4.88956e-01 -4.28732e-02 -2.96372e+00 
 5.33250e-01 -4.37252e-02 -2.92744e+00 
 5.78460e-01 -4.39765e-02 -2.88813e+00 
 6.24694e-01 -4.36020e-02 -2.84575e+00 
 6.72050e-01 -4.25837e-02 -2.80028e+00 
 7.20648e-01 -4.09084e-02 -2.75168e+00 
 7.70602e-01 -3.85721e-02 -2.69994e+00 
 8.22049e-01 -3.55767e-02 -2.64501e+00 
 8.75120e-01 -3.19355e-02 -2.58690e+00 
 9.29973e-01 -2.76689e-02 -2.52556e+00 
 9.86755e-01 -2.28116e-02 -2.46100e+00 
 1.04565e+00 -1.74063e-02 -2.39320e+00 
 1.10681e+00 -1.15125e-02 -2.32217e+00 
 1.17046e+00 -5.19895e-03 -2.24793e+00 
 1.23677e+00  1.44684e-03 -2.17051e+00 
 1.30595e+00  8.32699e-03 -2.08995e+00 
 1.37822e+00  1.53244e-02 -2.00633e+00 
 1.45379e+00  2.23116e-02 -1.91974e+00 
 1.53286e+00  2.91431e-02 -1.83030e+00 
 1.61566e+00  3.56652e-02 -1.73818e+00 
 1.70237e+00  4.17106e-02 -1.64356e+00 
 1.79318e+00  4.71093e-02 -1.54669e+00 
 1.88822e+00  5.16869e-02 -1.44785e+00 
 1.98762e+00  5.52760e-02 -1.34736e+00 
 2.09142e+00  5.77200e-02 -1.24561e+00 
 2.19962e+00  5.88847e-02 -1.14303e+00 
 2.31213e+00  5.86676e-02 -1.04009e+00 
 2.42878e+00  5.70091e-02 -9.37300e-01 
 2.54928e+00  5.39052e-02 -8.35225e-01 
 2.67323e+00  4.94173e-02 -7.34409e-01 
 2.80008e+00  4.36855e-02 -6.35442e-01 
 2.92920e+00  3.69323e-02 -5.38860e-01 
 3.05975e+00  2.94735e-02 -4.45195e-01 
 3.19084e+00  2.17125e-02 -3.54888e-01 
 3.32138e+00  1.41435e-02 -2.68327e-01 
 3.45023e+00  7.33628e-03 -1.85758e-01 
 3.57614e+00  1.93391e-03 -1.07341e-01 
 3.70168e+00  7.04788e-03 -1.44250e-02 
-3.56284e+00 -7.61914e-03 -1.19994e-02 
-3.42761e+00 -2.22159e-03 -9.81342e-02 
-3.29219e+00 -8.05262e-03 -1.73061e-01 
-3.15404e+00 -1.51504e-02 -2.53592e-01 
-3.01471e+00 -2.27183e-02 -3.39438e-01 
-2.87560e+00 -3.00697e-02 -4.30179e-01 
-2.73800e+00 -3.66332e-02 -5.25235e-01 
-2.60297e+00 -4.19675e-02 -6.23960e-01 
-2.47144e+00 -4.57571e-02 -7.25609e-01 
-2.34408e+00 -4.78121e-02 -8.29451e-01 
-2.22146e+00 -4.80517e-02 -9.34713e-01 
-2.10391e+00 -4.64923e-02 -1.04069e+00 
-1.99169e+00 -4.32278e-02 -1.14669e+00 
-1.88483e+00 -3.84114e-02 -1.25210e+00 
-1.78336e+00 -3.22400e-02 -1.35637e+00 
-1.68714e+00 -2.49349e-02 -1.45902e+00 
-1.59602e+00 -1.67334e-02 -1.55963e+00 
-1.50975e+00 -7.87126e-03 -1.65787e+00 
-1.42811e+00  1.41769e-03 -1.75346e+00 
-1.35080e+00  1.09171e-02 -1.84619e+00 
-1.27755e+00  2.04223e-02 -1.93586e+00 
-1.20807e+00  2.97537e-02 -2.02237e+00 
-1.14208e+00  3.87471e-02 -2.10560e+00 
-1.07932e+00  4.72652e-02 -2.18553e+00 
-1.01952e+00  5.51863e-02 -2.26209e+00 
-9.62434e-01  6.24145e-02 -2.33528e+00 
-9.07846e-01  6.88676e-02 -2.40510e+00 
-8.55528e-01  7.44862e-02 -2.47157e+00 
-8.05294e-01  7.92222e-02 -2.53470e+00 
-7.56949e-01  8.30470e-02 -2.59455e+00 
-7.10332e-01  8.59409e-02 -2.65113e+00 
-6.65279e-01  8.78999e-02 -2.70449e+00 
-6.21655e-01  8.89273e-02 -2.75467e+00 
-5.79316e-01  8.90384e-02 -2.80173e+00 
-5.38152e-01  8.82545e-02 -2.84569e+00 
-4.98039e-01  8.66058e-02 -2.88660e+00 
-4.58883e-01  8.41275e-02 -2.92450e+00 
-4.20578e-01  8.08612e-02 -2.95943e+00 
-3.83044e-01  7.68526e-02 -2.99143e+00 
-3.46188e-01  7.21516e-02 -3.02053e+00 
-3.09942e-01  6.68120e-02 -3.04677e+00 
-2.74224e-01  6.08897e-02 -3.07016e+00 
-2.38972e-01  5.44446e-02 -3.09074e+00 
-2.04115e-01  4.75369e-02 -3.10853e+00 
-1.69596e-01  4.02305e-02 -3.12355e+00 
-1.35350e-01  3.25887e-02 -3.13582e+00 
-1.01325e-01  2.46785e-02 -3.14534e+00 
-6.74592e-02  1.65650e-02 -3.15214e+00 
-3.37041e-02  8.31668e-03 -3.15622e+00 
-1.23001e-12 -1.12040e-11 -3.15758e+00 
 3.37041e-02 -8.31668e-03 -3.15622e+00 
 6.74592e-02 -1.65650e-02 -3.15214e+00 
 1.01325e-01 -2.46785e-02 -3.14534e+00 
 1.35350e-01 -3.25887e-02 -3.13582e+00 
 1.69596e-01 -4.02305e-02 -3.12355e+00 
 2.04115e-01 -4.75369e-02 -3.10853e+00 
 2.38972e-01 -5.44446e-02 -3.09074e+00 
 2.74224e-01 -6.08897e-02 -3.07016e+00 
 3.09942e-01 -6.68120e-02 -3.04677e+00 
 3.46188e-01 -7.21516e-02 -3.02053e+00 
 3.83044e-01 -7.68526e-02 -2.99143e+00 
 4.20578e-01 -8.08612e-02 -2.95943e+00 
 4.58883e-01 -8.41275e-02 -2.92450e+00 
 4.98039e-01 -8.66058e-02 -2.88660e+00 
 5.38152e-01 -8.82545e-02 -2.84569e+00 
 5.79316e-01 -8.90384e-02 -2.80173e+00 
 6.21655e-01 -8.89273e-02 -2.75467e+00 
 6.65279e-01 -8.78999e-02 -2.70449e+00 
 7.10332e-01 -8.59409e-02 -2.65113e+00 
 7.56949e-01 -8.30470e-02 -2.59455e+00 
 8.05294e-01 -7.92222e-02 -2.53470e+00 
 8.55528e-01 -7.44862e-02 -2.47157e+00 
 9.07846e-01 -6.88676e-02 -2.40510e+00 
 9.62434e-01 -6.24145e-02 -2.33528e+00 
 1.01952e+00 -5.51863e-02 -2.26209e+00 
 1.07932e+00 -4.72652e-02 -2.18553e+00 
 1.14208e+00 -3.87471e-02 -2.10560e+00 
 1.20807e+00 -2.97537e-02 -2.02237e+00 
 1.27755e+00 -2.04223e-02 -1.93586e+00 
 1.35080e+00 -1.09171e-02 -1.84619e+00 
 1.42811e+00 -1.41769e-03 -1.75346e+00 
 1.50975e+00  7.87126e-03 -1.65787e+00 
 1.59602e+00  1.67334e-02 -1.55963e+00 
 1.68714e+00  2.49349e-02 -1.45902e+00 
 1.78336e+00  3.22400e-02 -1.35637e+00 
 1.88483e+00  3.84114e-02 -1.25210e+00 
 1.99169e+00  4.32278e-02 -1.14669e+00 
 2.10391e+00  4.64923e-02 -1.04069e+00 
 2.22146e+00  4.80517e-02 -9.34713e-01 
 2.34408e+00  4.78121e-02 -8.29451e-01 
 2.47144e+00  4.57571e-02 -7.25609e-01 
 2.60297e+00  4.19675e-02 -6.23960e-01 
 2.73800e+00  3.66332e-02 -5.25235e-01 
 2.87560e+00  3.00697e-02 -4.30179e-01 
 3.01471e+00  2.27183e-02 -3.39438e-01 
 3.15404e+00  1.51504e-02 -2.53592e-01 
 3.29219e+00  8.05262e-03 -1.73061e-01 
 3.42761e+00  2.22159e-03 -9.81342e-02 
 3.56284e+00  7.61914e-03 -1.19994e-02 
-3.43625e+00 -8.47069e-03 -9.14879e-03 
-3.28775e+00 -2.56841e-03 -8.80713e-02 
-3.13952e+00 -8.77730e-03 -1.59692e-01 
-2.98903e+00 -1.59603e-02 -2.38743e-01 
-2.83822e+00 -2.31211e-02 -3.24728e-01 
-2.68884e+00 -2.94336e-02 -4.16969e-01 
-2.54241e+00 -3.42485e-02 -5.14595e-01 
-2.40016e+00 -3.71073e-02 -6.16663e-01 
-2.26310e+00 -3.77320e-02 -7.22139e-01 
-2.13193e+00 -3.60132e-02 -8.30025e-01 
-2.00714e+00 -3.19836e-02 -9.39318e-01 
-1.88899e+00 -2.57902e-02 -1.04913e+00 
-1.77756e+00 -1.76666e-02 -1.15860e+00 
-1.67278e+00 -7.90070e-03 -1.26704e+00 
-1.57446e+00  3.18328e-03 -1.37382e+00 
-1.48231e+00  1.52539e-02 -1.47843e+00 
-1.39603e+00  2.79785e-02 -1.58045e+00 
-1.31522e+00  4.10459e-02 -1.67957e+00 
-1.23951e+00  5.41624e-02 -1.77553e+00 
-1.16849e+00  6.70696e-02 -1.86815e+00 
-1.10181e+00  7.95331e-02 -1.95731e+00 
-1.03907e+00  9.13574e-02 -2.04294e+00 
-9.79939e-01  1.02371e-01 -2.12499e+00 
-9.24081e-01  1.12439e-01 -2.20346e+00 
-8.71203e-01  1.21448e-01 -2.27834e+00 
-8.21014e-01  1.29314e-01 -2.34969e+00 
-7.73268e-01  1.35973e-01 -2.41752e+00 
-7.27722e-01  1.41384e-01 -2.48192e+00 
-6.84173e-01  1.45520e-01 -2.54292e+00 
-6.42417e-01  1.48376e-01 -2.60059e+00 
-6.02290e-01  1.49953e-01 -2.65500e+00 
-5.63622e-01  1.50272e-01 -2.70620e+00 
-5.26279e-01  1.49356e-01 -2.75426e+00 
-4.90120e-01  1.47245e-01 -2.79925e+00 
-4.55034e-01  1.43981e-01 -2.84121e+00 
-4.20906e-01  1.39615e-01 -2.88021e+00 
-3.87644e-01  1.34202e-01 -2.91629e+00 
-3.55149e-01  1.27803e-01 -2.94951e+00 
-3.23344e-01  1.20482e-01 -2.97991e+00 
-2.92147e-01  1.12307e-01 -3.00753e+00 
-2.61493e-01  1.03349e-01 -3.03241e+00 
-2.31307e-01  9.36803e-02 -3.05458e+00 
-2.01535e-01  8.33763e-02 -3.07407e+00 
-1.72111e-01  7.25121e-02 -3.09091e+00 
-1.42987e-01  6.11673e-02 -3.10512e+00 
-1.14102e-01  4.94188e-02 -3.11672e+00 
-8.54118e-02  3.73481e-02 -3.12573e+00 
-5.68614e-02  2.50334e-02 -3.13215e+00 
-2.84083e-02  1.25577e-02 -3.13600e+00 
-1.17281e-12 -8.47802e-12 -3.13729e+00 
 2.84083e-02 -1.25577e-02 -3.13600e+00 
 5.68614e-02 -2.50334e-02 -3.13215e+00 
 8.54118e-02 -3.73481e-02 -3.12573e+00 
 1.14102e-01 -4.94188e-02 -3.11672e+00 
 1.42987e-01 -6.11673e-02 -3.10512e+00 
 1.72111e-01 -7.25121e-02 -3.09091e+00 
 2.01535e-01 -8.33763e-02 -3.07407e+00 
 2.31307e-01 -9.36803e-02 -3.05458e+00 
 2.61493e-01 -1.03349e-01 -3.03241e+00 
 2.92147e-01 -1.12307e-01 -3.00753e+00 
 3.23344e-01 -1.20482e-01 -2.97991e+00 
 3.55149e-01 -1.27803e-01 -2.94951e+00 
 3.87644e-01 -1.34202e-01 -2.91629e+00 
 4.20906e-01 -1.39615e-01 -2.88021e+00 
 4.55034e-01 -1.43981e-01 -2.84121e+00 
 4.90120e-01 -1.47245e-01 -2.79925e+00 
 5.26279e-01 -1.49356e-01 -2.75426e+00 
 5.63622e-01 -1.50272e-01 -2.70620e+00 
 6.02290e-01 -1.49953e-01 -2.65500e+00 
 6.42417e-01 -1.48376e-01 -2.60059e+00 
 6.84173e-01 -1.45520e-01 -2.54292e+00 
 7.27722e-01 -1.41384e-01 -2.48192e+00 
 7.73268e-01 -1.35973e-01 -2.41752e+00 
 8.21014e-01 -1.29314e-01 -2.34969e+00 
 8.71203e-01 -1.21448e-01 -2.27834e+00 
 9.24081e-01 -1.12439e-01 -2.20346e+00 
 9.79939e-01 -1.02371e-01 -2.12499e+00 
 1.03907e+00 -9.13574e-02 -2.04294e+00 
 1.10181e+00 -7.95331e-02 -1.95731e+00 
 1.16849e+00 -6.70696e-02 -1.86815e+00 
 1.23951e+00 -5.41624e-02 -1.77553e+00 
 1.31522e+00 -4.10459e-02 -1.67957e+00 
 1.39603e+00 -2.79785e-02 -1.58045e+00 
 1.48231e+00 -1.52539e-02 -1.47843e+00 
 1.57446e+00 -3.18328e-03 -1.37382e+00 
 1.67278e+00  7.90070e-03 -1.26704e+00 
 1.77756e+00  1.76666e-02 -1.15860e+00 
 1.88899e+00  2.57902e-02 -1.04913e+00 
 2.00714e+00  3.19836e-02 -9.39318e-01 
 2.13193e+00  3.60132e-02 -8.30025e-01 
 2.26310e+00  3.77320e-02 -7.22139e-01 
 2.40016e+00  3.71073e-02 -6.16663e-01 
 2.54241e+00  3.42485e-02 -5.14595e-01 
 2.68884e+00  2.94336e-02 -4.16969e-01 
 2.83822e+00  2.31211e-02 -3.24728e-01 
 2.98903e+00  1.59603e-02 -2.38743e-01 
 3.13952e+00  8.77730e-03 -1.59692e-01 
 3.28775e+00  2.56841e-03 -8.80713e-02 
 3.43625e+00  8.47069e-03 -9.14879e-03 
-3.32289e+00 -9.70319e-03 -5.75496e-03 
-3.15650e+00 -2.99852e-03 -7.71602e-02 
-2.99126e+00 -9.47480e-03 -1.45962e-01 
-2.82463e+00 -1.63792e-02 -2.24521e-01 
-2.65912e+00 -2.24555e-02 -3.12005e-01 
-2.49688e+00 -2.67159e-02 -4.07335e-01 
-2.33972e+00 -2.84515e-02 -5.09203e-01 
-2.18903e+00 -2.72366e-02 -6.16234e-01 
-2.04586e+00 -2.29048e-02 -7.26990e-01 
-1.91084e+00 -1.55130e-02 -8.40122e-01 
-1.78432e+00 -5.29468e-03 -9.54343e-01 
-1.66635e+00  7.39364e-03 -1.06855e+00 
-1.55677e+00  2.21129e-02 -1.18175e+00 
-1.45525e+00  3.83915e-02 -1.29316e+00 
-1.36136e+00  5.57453e-02 -1.40213e+00 
-1.27457e+00  7.37158e-02 -1.50816e+00 
-1.19437e+00  9.18694e-02 -1.61086e+00 
-1.12017e+00  1.09825e-01 -1.70998e+00 
-1.05145e+00  1.27240e-01 -1.80534e+00 
-9.87672e-01  1.43830e-01 -1.89684e+00 
-9.28368e-01  1.59349e-01 -1.98443e+00 
-8.73069e-01  1.73606e-01 -2.06810e+00 
-8.21374e-01  1.86442e-01 -2.14789e+00 
-7.72895e-01  1.97742e-01 -2.22385e+00 
-7.27303e-01  2.07418e-01 -2.29605e+00 
-6.84283e-01  2.15416e-01 -2.36458e+00 
-6.43570e-01  2.21702e-01 -2.42952e+00 
-6.04911e-01  2.26268e-01 -2.49098e+00 
-5.68098e-01  2.29118e-01 -2.54902e+00 
-5.32927e-01  2.30278e-01 -2.60376e+00 
-4.99232e-01  2.29781e-01 -2.65528e+00 
-4.66850e-01  2.27677e-01 -2.70367e+00 
-4.35652e-01  2.24018e-01 -2.74901e+00 
-4.05504e-01  2.18869e-01 -2.79137e+00 
-3.76303e-01  2.12298e-01 -2.83082e+00 
-3.47942e-01  2.04381e-01 -2.86744e+00 
-3.20335e-01  1.95194e-01 -2.90127e+00 
-2.93395e-01  1.84820e-01 -2.93239e+00 
-2.67053e-01  1.73343e-01 -2.96084e+00 
-2.41234e-01  1.60850e-01 -2.98667e+00 
-2.15881e-01  1.47430e-01 -3.00991e+00 
-1.90931e-01  1.33171e-01 -3.03062e+00 
-1.66333e-01  1.18166e-01 -3.04881e+00 
-1.42033e-01  1.02505e-01 -3.06451e+00 
-1.17988e-01  8.62832e-02 -3.07776e+00 
-9.41461e-02  6.95901e-02 -3.08858e+00 
-7.04700e-02  5.25226e-02 -3.09697e+00 
-4.69124e-02  3.51713e-02 -3.10296e+00 
-2.34372e-02  1.76334e-02 -3.10655e+00 
-9.92693e-13 -6.54851e-12 -3.10774e+00 
 2.34372e-02 -1.76334e-02 -3.10655e+00 
 4.69124e-02 -3.51713e-02 -3.10296e+00 
 7.04700e-02 -5.25226e-02 -3.09697e+00 
 9.41461e-02 -6.95901e-02 -3.08858e+00 
 1.17988e-01 -8.62832e-02 -3.07776e+00 
 1.42033e-01 -1.02505e-01 -3.06451e+00 
 1.66333e-01 -1.18166e-01 -3.04881e+00 
 1.90931e-01 -1.33171e-01 -3.03062e+00 
 2.15881e-01 -1.47430e-01 -3.00991e+00 
 2.41234e-01 -1.60850e-01 -2.98667e+00 
 2.67053e-01 -1.73343e-01 -2.96084e+00 
 2.93395e-01 -1.84820e-01 -2.93239e+00 
 3.20335e-01 -1.95194e-01 -2.90127e+00 
 3.47942e-01 -2.04381e-01 -2.86744e+00 
 3.76303e-01 -2.12298e-01 -2.83082e+00 
 4.05504e-01 -2.18869e-01 -2.79137e+00 
 4.35652e-01 -2.24018e-01 -2.74901e+00 
 4.66850e-01 -2.27677e-01 -2.70367e+00 
 4.99232e-01 -2.29781e-01 -2.65528e+00 
 5.32927e-01 -2.30278e-01 -2.60376e+00 
 5.68098e-01 -2.29118e-01 -2.54902e+00 
 6.04911e-01 -2.26268e-01 -2.49098e+00 
 6.43570e-01 -2.21702e-01 -2.42952e+00 
 6.84283e-01 -2.15416e-01 -2.36458e+00 
 7.27303e-01 -2.07418e-01 -2.29605e+00 
 7.72895e-01 -1.97742e-01 -2.22385e+00 
 8.21374e-01 -1.86442e-01 -2.14789e+00 
 8.73069e-01 -1.73606e-01 -2.06810e+00 
 9.28368e-01 -1.59349e-01 -1.98443e+00 
 9.87672e-01 -1.43830e-01 -1.89684e+00 
 1.05145e+00 -1.27240e-01 -1.80534e+00 
 1.12017e+00 -1.09825e-01 -1.70998e+00 
 1.19437e+00 -9.18694e-02 -1.61086e+00 
 1.27457e+00 -7.37158e-02 -1.50816e+00 
 1.36136e+00 -5.57453e-02 -1.40213e+00 
 1.45525e+00 -3.83915e-02 -1.29316e+00 
 1.55677e+00 -2.21129e-02 -1.18175e+00 
 1.66635e+00 -7.39364e-03 -1.06855e+00 
 1.78432e+00  5.29468e-03 -9.54343e-01 
 1.91084e+00  1.55130e-02 -8.40122e-01 
 2.04586e+00  2.29048e-02 -7.26990e-01 
 2.18903e+00  2.72366e-02 -6.16234e-01 
 2.33972e+00  2.84515e-02 -5.09203e-01 
 2.49688e+00  2.67159e-02 -4.07335e-01 
 2.65912e+00  2.24555e-02 -3.12005e-01 
 2.82463e+00  1.63792e-02 -2.24521e-01 
 2.99126e+00  9.47480e-03 -1.45962e-01 
 3.15650e+00  2.99852e-03 -7.71602e-02 
 3.32289e+00  9.70319e-03 -5.75496e-03 
-3.22364e+00 -1.14673e-02 -1.63646e-03 
-3.03325e+00 -3.55520e-03 -6.54622e-02 
-2.84554e+00 -1.00753e-02 -1.32441e-01 
-2.65803e+00 -1.60586e-02 -2.12185e-01 
-2.47394e+00 -1.99000e-02 -3.03309e-01 
-2.29594e+00 -2.04505e-02 -4.04088e-01 
-2.12619e+00 -1.70010e-02 -5.12548e-01 
-1.96616e+00 -9.27500e-03 -6.26673e-01 
-1.81685e+00  2.63830e-03 -7.44470e-01 
-1.67865e+00  1.83671e-02 -8.64145e-01 
-1.55161e+00  3.73414e-02 -9.84088e-01 
-1.43538e+00  5.88877e-02 -1.10299e+00 
-1.32942e+00  8.22850e-02 -1.21977e+00 
-1.23300e+00  1.06835e-01 -1.33361e+00 
-1.14534e+00  1.31874e-01 -1.44391e+00 
-1.06562e+00  1.56821e-01 -1.55027e+00 
-9.93051e-01  1.81159e-01 -1.65239e+00 
-9.26846e-01  2.04462e-01 -1.75016e+00 
-8.66311e-01  2.26371e-01 -1.84350e+00 
-8.10783e-01  2.46610e-01 -1.93243e+00 
-7.59689e-01  2.64953e-01 -2.01701e+00 
-7.12493e-01  2.81246e-01 -2.09734e+00 
-6.68744e-01  2.95368e-01 -2.17354e+00 
-6.28020e-01  3.07252e-01 -2.24573e+00 
-5.89972e-01  3.16857e-01 -2.31405e+00 
-5.54276e-01  3.24177e-01 -2.37865e+00 
-5.20662e-01  3.29225e-01 -2.43964e+00 
-4.88881e-01  3.32039e-01 -2.49719e+00 
-4.58729e-01  3.32665e-01 -2.55139e+00 
-4.30013e-01  3.31171e-01 -2.60238e+00 
-4.02576e-01  3.27627e-01 -2.65026e+00 
-3.76268e-01  3.22117e-01 -2.69514e+00 
-3.50970e-01  3.14729e-01 -2.73712e+00 
-3.26564e-01  3.05556e-01 -2.77628e+00 
-3.02955e-01  2.94695e-01 -2.81270e+00 
-2.80050e-01  2.82246e-01 -2.84647e+00 
-2.57775e-01  2.68311e-01 -2.87763e+00 
-2.36055e-01  2.52994e-01 -2.90627e+00 
-2.14830e-01  2.36401e-01 -2.93243e+00 
-1.94036e-01  2.18635e-01 -2.95616e+00 
-1.73627e-01  1.99806e-01 -2.97750e+00 
-1.53547e-01  1.80017e-01 -2.99650e+00 
-1.33757e-01  1.59378e-01 -3.01318e+00 
-1.14210e-01  1.37991e-01 -3.02758e+00 
-9.48705e-02  1.15968e-01 -3.03973e+00 
-7.56976e-02  9.34116e-02 -3.04964e+00 
-5.66596e-02  7.04317e-02 -3.05732e+00 
-3.77181e-02  4.71307e-02 -3.06281e+00 
-1.88435e-02  2.36193e-02 -3.06609e+00 
-3.34353e-13 -8.98170e-12 -3.06719e+00 
 1.88435e-02 -2.36193e-02 -3.06609e+00 
 3.77181e-02 -4.71307e-02 -3.06281e+00 
 5.66596e-02 -7.04317e-02 -3.05732e+00 
 7.56976e-02 -9.34116e-02 -3.04964e+00 
 9.48705e-02 -1.15968e-01 -3.03973e+00 
 1.14210e-01 -1.37991e-01 -3.02758e+00 
 1.33757e-01 -1.59378e-01 -3.01318e+00 
 1.53547e-01 -1.80017e-01 -2.99650e+00 
 1.73627e-01 -1.99806e-01 -2.97750e+00 
 1.94036e-01 -2.18635e-01 -2.95616e+00 
 2.14830e-01 -2.36401e-01 -2.93243e+00 
 2.36055e-01 -2.52994e-01 -2.90627e+00 
 2.57775e-01 -2.68311e-01 -2.87763e+00 
 2.80050e-01 -2.82246e-01 -2.84647e+00 
 3.02955e-01 -2.94695e-01 -2.81270e+00 
 3.26564e-01 -3.05556e-01 -2.77628e+00 
 3.50970e-01 -3.14729e-01 -2.73712e+00 
 3.76268e-01 -3.22117e-01 -2.69514e+00 
 4.02576e-01 -3.27627e-01 -2.65026e+00 
 4.30013e-01 -3.31171e-01 -2.60238e+00 
 4.58729e-01 -3.32665e-01 -2.55139e+00 
 4.88881e-01 -3.32039e-01 -2.49719e+00 
 5.20662e-01 -3.29225e-01 -2.43964e+00 
 5.54276e-01 -3.24177e-01 -2.37865e+00 
 5.89972e-01 -3.16857e-01 -2.31405e+00 
 6.28020e-01 -3.07252e-01 -2.24573e+00 
 6.68744e-01 -2.95368e-01 -2.17354e+00 
 7.12493e-01 -2.81246e-01 -2.09734e+00 
 7.59689e-01 -2.64953e-01 -2.01701e+00 
 8.10783e-01 -2.46610e-01 -1.93243e+00 
 8.66311e-01 -2.26371e-01 -1.84350e+00 
 9.26846e-01 -2.04462e-01 -1.75016e+00 
 9.93051e-01 -1.81159e-01 -1.65239e+00 
 1.06562e+00 -1.56821e-01 -1.55027e+00 
 1.14534e+00 -1.31874e-01 -1.44391e+00 
 1.23300e+00 -1.06835e-01 -1.33361e+00 
 1.32942e+00 -8.22850e-02 -1.21977e+00 
 1.43538e+00 -5.88877e-02 -1.10299e+00 
 1.55161e+00 -3.73414e-02 -9.84088e-01 
 1.67865e+00 -1.83671e-02 -8.64145e-01 
 1.81685e+00 -2.63830e-03 -7.44470e-01 
 1.96616e+00  9.27500e-03 -6.26673e-01 
 2.12619e+00  1.70010e-02 -5.12548e-01 
 2.29594e+00  2.04505e-02 -4.04088e-01 
 2.47394e+00  1.99000e-02 -3.03309e-01 
 2.65803e+00  1.60586e-02 -2.12185e-01 
 2.84554e+00  1.00753e-02 -1.32441e-01 
 3.03325e+00  3.55520e-03 -6.54622e-02 
 3.22364e+00  1.14673e-02 -1.63646e-03 
-3.13913e+00 -1.40122e-02  3.50604e-03 
-2.91649e+00 -4.30736e-03 -5.31349e-02 
-2.69913e+00 -1.04469e-02 -1.20164e-01 
-2.48469e+00 -1.43242e-02 -2.03916e-01 
-2.27742e+00 -1.39282e-02 -3.02050e-01 
-2.08063e+00 -7.97554e-03 -4.11779e-01 
-1.89679e+00  4.04985e-03 -5.30069e-01 
-1.72732e+00  2.20285e-02 -6.53973e-01 
-1.57290e+00  4.53405e-02 -7.80755e-01 
-1.43340e+00  7.30520e-02 -9.08103e-01 
-1.30824e+00  1.04067e-01 -1.03411e+00 
-1.19641e+00  1.37278e-01 -1.15735e+00 
-1.09677e+00  1.71624e-01 -1.27677e+00 
-1.00804e+00  2.06173e-01 -1.39169e+00 
-9.28997e-01  2.40109e-01 -1.50165e+00 
-8.58436e-01  2.72774e-01 -1.60647e+00 
-7.95292e-01  3.03623e-01 -1.70606e+00 
-7.38573e-01  3.32251e-01 -1.80047e+00 
-6.87430e-01  3.58337e-01 -1.88983e+00 
-6.41096e-01  3.81669e-01 -1.97430e+00 
-5.98927e-01  4.02092e-01 -2.05407e+00 
-5.60349e-01  4.19527e-01 -2.12937e+00 
-5.24885e-01  4.33930e-01 -2.20039e+00 
-4.92110e-01  4.45312e-01 -2.26735e+00 
-4.61677e-01  4.53700e-01 -2.33045e+00 
-4.33273e-01  4.59158e-01 -2.38988e+00 
-4.06642e-01  4.61760e-01 -2.44582e+00 
-3.81556e-01  4.61601e-01 -2.49843e+00 
-3.57826e-01  4.58782e-01 -2.54786e+00 
-3.35282e-01  4.53416e-01 -2.59426e+00 
-3.13784e-01  4.45618e-01 -2.63775e+00 
-2.93204e-01  4.35509e-01 -2.67844e+00 
-2.73439e-01  4.23214e-01 -2.71644e+00 
-2.54388e-01  4.08855e-01 -2.75185e+00 
-2.35973e-01  3.92562e-01 -2.78474e+00 
-2.18118e-01  3.74456e-01 -2.81520e+00 
-2.00761e-01  3.54668e-01 -2.84329e+00 
-1.83840e-01  3.33318e-01 -2.86909e+00 
-1.67308e-01  3.10536e-01 -2.89263e+00 
-1.51114e-01  2.86441e-01 -2.91398e+00 
-1.35220e-01  2.61159e-01 -2.93317e+00 
-1.19584e-01  2.34809e-01 -2.95025e+00 
-1.04173e-01  2.07516e-01 -2.96524e+00 
-8.89502e-02  1.79396e-01 -2.97817e+00 
-7.38894e-02  1.50573e-01 -2.98908e+00 
-5.89575e-02  1.21160e-01 -2.99798e+00 
-4.41302e-02  9.12806e-02 -3.00488e+00 
-2.93775e-02  6.10474e-02 -3.00980e+00 
-1.46768e-02  3.05833e-02 -3.01275e+00 
-1.67001e-12 -1.07482e-11 -3.01373e+00 
 1.46768e-02 -3.05833e-02 -3.01275e+00 
 2.93775e-02 -6.10474e-02 -3.00980e+00 
 4.41302e-02 -9.12806e-02 -3.00488e+00 
 5.89575e-02 -1.21160e-01 -2.99798e+00 
 7.38894e-02 -1.50573e-01 -2.98908e+00 
 8.89502e-02 -1.79396e-01 -2.97817e+00 
 1.04173e-01 -2.07516e-01 -2.96524e+00 
 1.19584e-01 -2.34809e-01 -2.95025e+00 
 1.35220e-01 -2.61159e-01 -2.93317e+00 
 1.51114e-01 -2.86441e-01 -2.91398e+00 
 1.67308e-01 -3.10536e-01 -2.89263e+00 
 1.83840e-01 -3.33318e-01 -2.86909e+00 
 2.00761e-01 -3.54668e-01 -2.84329e+00 
 2.18118e-01 -3.74456e-01 -2.81520e+00 
 2.35973e-01 -3.92562e-01 -2.78474e+00 
 2.54388e-01 -4.08855e-01 -2.75185e+00 
 2.73439e-01 -4.23214e-01 -2.71644e+00 
 2.93204e-01 -4.35509e-01 -2.67844e+00 
 3.13784e-01 -4.45618e-01 -2.63775e+00 
 3.35282e-01 -4.53416e-01 -2.59426e+00 
 3.57826e-01 -4.58782e-01 -2.54786e+00 
 3.81556e-01 -4.61601e-01 -2.49843e+00 
 4.06642e-01 -4.61760e-01 -2.44582e+00 
 4.33273e-01 -4.59158e-01 -2.38988e+00 
 4.61677e-01 -4.53700e-01 -2.33045e+00 
 4.92110e-01 -4.45312e-01 -2.26735e+00 
 5.24885e-01 -4.33930e-01 -2.20039e+00 
 5.60349e-01 -4.19527e-01 -2.12937e+00 
 5.98927e-01 -4.02092e-01 -2.05407e+00 
 6.41096e-01 -3.81669e-01 -1.97430e+00 
 6.87430e-01 -3.58337e-01 -1.88983e+00 
 7.38573e-01 -3.32251e-01 -1.80047e+00 
 7.95292e-01 -3.03623e-01 -1.70606e+00 
 8.58436e-01 -2.72774e-01 -1.60647e+00 
 9.28997e-01 -2.40109e-01 -1.50165e+00 
 1.00804e+00 -2.06173e-01 -1.39169e+00 
 1.09677e+00 -1.71624e-01 -1.27677e+00 
 1.19641e+00 -1.37278e-01 -1.15735e+00 
 1.30824e+00 -1.04067e-01 -1.03411e+00 
 1.43340e+00 -7.30520e-02 -9.08103e-01 
 1.57290e+00 -4.53405e-02 -7.80755e-01 
 1.72732e+00 -2.20285e-02 -6.53973e-01 
 1.89679e+00 -4.04985e-03 -5.30069e-01 
 2.08063e+00  7.97554e-03 -4.11779e-01 
 2.27742e+00  1.39282e-02 -3.02050e-01 
 2.48469e+00  1.43242e-02 -2.03916e-01 
 2.69913e+00  1.04469e-02 -1.20164e-01 
 2.91649e+00  4.30736e-03 -5.31349e-02 
 3.13913e+00  1.40122e-02  3.50604e-03 
-3.06955e+00 -1.77264e-02  1.02070e-02 
-2.80311e+00 -5.43862e-03 -4.05263e-02 
-2.54633e+00 -1.02486e-02 -1.11076e-01 
-2.29727e+00 -9.81418e-03 -2.03629e-01 
-2.06152e+00 -1.47110e-03 -3.14139e-01 
-1.84322e+00  1.58271e-02 -4.37956e-01 
-1.64492e+00  4.19898e-02 -5.70376e-01 
-1.46761e+00  7.59442e-02 -7.07110e-01 
-1.31108e+00  1.16035e-01 -8.44524e-01 
-1.17412e+00  1.60420e-01 -9.79863e-01 
-1.05499e+00  2.07291e-01 -1.11112e+00 
-9.51672e-01  2.55054e-01 -1.23703e+00 
-8.62130e-01  3.02345e-01 -1.35683e+00 
-7.84411e-01  3.48087e-01 -1.47017e+00 
-7.16778e-01  3.91425e-01 -1.57698e+00 
-6.57667e-01  4.31744e-01 -1.67740e+00 
-6.05759e-01  4.68586e-01 -1.77164e+00 
-5.59906e-01  5.01665e-01 -1.86003e+00 
-5.19161e-01  5.30790e-01 -1.94289e+00 
-4.82712e-01  5.55883e-01 -2.02058e+00 
-4.49898e-01  5.76918e-01 -2.09342e+00 
-4.20151e-01  5.93942e-01 -2.16175e+00 
-3.93015e-01  6.07023e-01 -2.22586e+00 
-3.68095e-01  6.16274e-01 -2.28603e+00 
-3.45074e-01  6.21817e-01 -2.34250e+00 
-3.23675e-01  6.23798e-01 -2.39552e+00 
-3.03678e-01  6.22364e-01 -2.44527e+00 
-2.84887e-01  6.17675e-01 -2.49196e+00 
-2.67145e-01  6.09889e-01 -2.53573e+00 
-2.50311e-01  5.99169e-01 -2.57674e+00 
-2.34274e-01  5.85673e-01 -2.61512e+00 
-2.18930e-01  5.69563e-01 -2.65099e+00 
-2.04197e-01  5.50997e-01 -2.68445e+00 
-1.89998e-01  5.30127e-01 -2.71560e+00 
-1.76273e-01  5.07110e-01 -2.74451e+00 
-1.62962e-01  4.82091e-01 -2.77127e+00 
-1.50018e-01  4.55222e-01 -2.79593e+00 
-1.37396e-01  4.26642e-01 -2.81857e+00 
-1.25060e-01  3.96499e-01 -2.83922e+00 
-1.12972e-01  3.64925e-01 -2.85794e+00 
-1.01104e-01  3.32065e-01 -2.87477e+00 
-8.94232e-02  2.98047e-01 -2.88973e+00 
-7.79075e-02  2.63009e-01 -2.90287e+00 
-6.65296e-02  2.27078e-01 -2.91420e+00 
-5.52695e-02  1.90390e-01 -2.92376e+00 
-4.41034e-02  1.53066e-01 -2.93155e+00 
-3.30135e-02  1.15241e-01 -2.93760e+00 
-2.19779e-02  7.70352e-02 -2.94191e+00 
-1.09803e-02  3.85818e-02 -2.94449e+00 
-6.46767e-13 -7.85150e-12 -2.94535e+00 
 1.09803e-02 -3.85818e-02 -2.94449e+00 
 2.19779e-02 -7.70352e-02 -2.94191e+00 
 3.30135e-02 -1.15241e-01 -2.93760e+00 
 4.41034e-02 -1.53066e-01 -2.93155e+00 
 5.52695e-02 -1.90390e-01 -2.92376e+00 
 6.65296e-02 -2.27078e-01 -2.91420e+00 
 7.79075e-02 -2.63009e-01 -2.90287e+00 
 8.94232e-02 -2.98047e-01 -2.88973e+00 
 1.01104e-01 -3.32065e-01 -2.87477e+00 
 1.12972e-01 -3.64925e-01 -2.85794e+00 
 1.25060e-01 -3.96499e-01 -2.83922e+00 
 1.37396e-01 -4.26642e-01 -2.81857e+00 
 1.50018e-01 -4.55222e-01 -2.79593e+00 
 1.62962e-01 -4.82091e-01 -2.77127e+00 
 1.76273e-01 -5.07110e-01 -2.74451e+00 
 1.89998e-01 -5.30127e-01 -2.71560e+00 
 2.04197e-01 -5.50997e-01 -2.68445e+00 
 2.18930e-01 -5.69563e-01 -2.65099e+00 
 2.34274e-01 -5.85673e-01 -2.61512e+00 
 2.50311e-01 -5.99169e-01 -2.57674e+00 
 2.67145e-01 -6.09889e-01 -2.53573e+00 
 2.84887e-01 -6.17675e-01 -2.49196e+00 
 3.03678e-01 -6.22364e-01 -2.44527e+00 
 3.23675e-01 -6.23798e-01 -2.39552e+00 
 3.45074e-01 -6.21817e-01 -2.34250e+00 
 3.68095e-01 -6.16274e-01 -2.28603e+00 
 3.93015e-01 -6.07023e-01 -2.22586e+00 
 4.20151e-01 -5.93942e-01 -2.16175e+00 
 4.49898e-01 -5.76918e-01 -2.09342e+00 
 4.82712e-01 -5.55883e-01 -2.02058e+00 
 5.19161e-01 -5.30790e-01 -1.94289e+00 
 5.59906e-01 -5.01665e-01 -1.86003e+00 
 6.05759e-01 -4.68586e-01 -1.77164e+00 
 6.57667e-01 -4.31744e-01 -1.67740e+00 
 7.16778e-01 -3.91425e-01 -1.57698e+00 
 7.84411e-01 -3.48087e-01 -1.47017e+00 
 8.62130e-01 -3.02345e-01 -1.35683e+00 
 9.51672e-01 -2.55054e-01 -1.23703e+00 
 1.05499e+00 -2.07291e-01 -1.11112e+00 
 1.17412e+00 -1.60420e-01 -9.79863e-01 
 1.31108e+00 -1.16035e-01 -8.44524e-01 
 1.46761e+00 -7.59442e-02 -7.07110e-01 
 1.64492e+00 -4.19898e-02 -5.70376e-01 
 1.84322e+00 -1.58271e-02 -4.37956e-01 
 2.06152e+00  1.47110e-03 -3.14139e-01 
 2.29727e+00  9.81418e-03 -2.03629e-01 
 2.54633e+00  1.02486e-02 -1.11076e-01 
 2.80311e+00  5.43862e-03 -4.05263e-02 
 3.06955e+00  1.77264e-02  1.02070e-02 
-3.01418e+00 -2.35728e-02  1.95383e-02 
-2.68697e+00 -7.07238e-03 -2.83828e-02 
-2.37734e+00 -8.86794e-03 -1.08987e-01 
-2.08364e+00  7.69348e-04 -2.18803e-01 
-1.81401e+00  2.40977e-02 -3.50253e-01 
-1.57293e+00  6.15320e-02 -4.95541e-01 
-1.36262e+00  1.10995e-01 -6.47193e-01 
-1.18255e+00  1.69290e-01 -7.99217e-01 
-1.03038e+00  2.33048e-01 -9.47306e-01 
-9.02731e-01  2.99272e-01 -1.08878e+00 
-7.96023e-01  3.65478e-01 -1.22213e+00 
-7.06790e-01  4.29774e-01 -1.34678e+00 
-6.31986e-01  4.90744e-01 -1.46264e+00 
-5.68967e-01  5.47428e-01 -1.57005e+00 
-5.15560e-01  5.99168e-01 -1.66947e+00 
-4.69952e-01  6.45599e-01 -1.76153e+00 
-4.30700e-01  6.86517e-01 -1.84680e+00 
-3.96616e-01  7.21886e-01 -1.92588e+00 
-3.66765e-01  7.51747e-01 -1.99933e+00 
-3.40377e-01  7.76233e-01 -2.06765e+00 
-3.16851e-01  7.95503e-01 -2.13129e+00 
-2.95688e-01  8.09764e-01 -2.19066e+00 
-2.76498e-01  8.19226e-01 -2.24611e+00 
-2.58954e-01  8.24122e-01 -2.29797e+00 
-2.42798e-01  8.24675e-01 -2.34649e+00 
-2.27814e-01  8.21119e-01 -2.39193e+00 
-2.13829e-01  8.13676e-01 -2.43449e+00 
-2.00695e-01  8.02568e-01 -2.47436e+00 
-1.88295e-01  7.88009e-01 -2.51169e+00 
-1.76526e-01  7.70205e-01 -2.54664e+00 
-1.65307e-01  7.49357e-01 -2.57931e+00 
-1.54563e-01  7.25657e-01 -2.60983e+00 
-1.44237e-01  6.99294e-01 -2.63828e+00 
-1.34275e-01  6.70446e-01 -2.66476e+00 
-1.24634e-01  6.39289e-01 -2.68933e+00 
-1.15273e-01  6.05990e-01 -2.71206e+00 
-1.06161e-01  5.70715e-01 -2.73302e+00 
-9.72655e-02  5.33620e-01 -2.75225e+00 
-8.85631e-02  4.94865e-01 -2.76979e+00 
-8.00277e-02  4.54594e-01 -2.78569e+00 
-7.16403e-02  4.12963e-01 -2.79997e+00 
-6.33794e-02  3.70108e-01 -2.81269e+00 
-5.52296e-02  3.26179e-01 -2.82384e+00 
-4.71724e-02  2.81308e-01 -2.83347e+00 
-3.91947e-02  2.35641e-01 -2.84158e+00 
-3.12801e-02  1.89305e-01 -2.84820e+00 
-2.34170e-02  1.42443e-01 -2.85334e+00 
-1.55904e-02  9.51798e-02 -2.85700e+00 
-7.78935e-03  4.76576e-02 -2.85919e+00 
-8.00174e-13 -6.75186e-12 -2.85992e+00 
 7.78935e-03 -4.76576e-02 -2.85919e+00 
 1.55904e-02 -9.51798e-02 -2.85700e+00 
 2.34170e-02 -1.42443e-01 -2.85334e+00 
 3.12801e-02 -1.89305e-01 -2.84820e+00 
 3.91947e-02 -2.35641e-01 -2.84158e+00 
 4.71724e-02 -2.81308e-01 -2.83347e+00 
 5.52296e-02 -3.26179e-01 -2.82384e+00 
 6.33794e-02 -3.70108e-01 -2.81269e+00 
 7.16403e-02 -4.12963e-01 -2.79997e+00 
 8.00277e-02 -4.54594e-01 -2.78569e+00 
 8.85631e-02 -4.94865e-01 -2.76979e+00 
 9.72655e-02 -5.33620e-01 -2.75225e+00 
 1.06161e-01 -5.70715e-01 -2.73302e+00 
 1.15273e-01 -6.05990e-01 -2.71206e+00 
 1.24634e-01 -6.39289e-01 -2.68933e+00 
 1.34275e-01 -6.70446e-01 -2.66476e+00 
 1.44237e-01 -6.99294e-01 -2.63828e+00 
 1.54563e-01 -7.25657e-01 -2.60983e+00 
 1.65307e-01 -7.49357e-01 -2.57931e+00 
 1.76526e-01 -7.70205e-01 -2.54664e+00 
 1.88295e-01 -7.88009e-01 -2.51169e+00 
 2.00695e-01 -8.02568e-01 -2.47436e+00 
 2.13829e-01 -8.13676e-01 -2.43449e+00 
 2.27814e-01 -8.21119e-01 -2.39193e+00 
 2.42798e-01 -8.24675e-01 -2.34649e+00 
 2.58954e-01 -8.24122e-01 -2.29797e+00 
 2.76498e-01 -8.19226e-01 -2.24611e+00 
 2.95688e-01 -8.09764e-01 -2.19066e+00 
 3.16851e-01 -7.95503e-01 -2.13129e+00 
 3.40377e-01 -7.76233e-01 -2.06765e+00 
 3.66765e-01 -7.51747e-01 -1.99933e+00 
 3.96616e-01 -7.21886e-01 -1.92588e+00 
 4.30700e-01 -6.86517e-01 -1.84680e+00 
 4.69952e-01 -6.45599e-01 -1.76153e+00 
 5.15560e-01 -5.99168e-01 -1.66947e+00 
 5.68967e-01 -5.47428e-01 -1.57005e+00 
 6.31986e-01 -4.90744e-01 -1.46264e+00 
 7.06790e-01 -4.29774e-01 -1.34678e+00 
 7.96023e-01 -3.65478e-01 -1.22213e+00 
 9.02731e-01 -2.99272e-01 -1.08878e+00 
 1.03038e+00 -2.33048e-01 -9.47306e-01 
 1.18255e+00 -1.69290e-01 -7.99217e-01 
 1.36262e+00 -1.10995e-01 -6.47193e-01 
 1.57293e+00 -6.15320e-02 -4.95541e-01 
 1.81401e+00 -2.40977e-02 -3.50253e-01 
 2.08364e+00 -7.69348e-04 -2.18803e-01 
 2.37734e+00  8.86794e-03 -1.08987e-01 
 2.68697e+00  7.07238e-03 -2.83828e-02 
 3.01418e+00  2.35728e-02  1.95383e-02 
-2.97040e+00 -3.24562e-02  3.38546e-02 
-2.55678e+00 -1.08293e-02 -1.84009e-02 
-2.17368e+00 -3.16496e-03 -1.22450e-01 
-1.82395e+00  2.53807e-02 -2.64560e-01 
-1.51572e+00  7.91045e-02 -4.31089e-01 
-1.25551e+00  1.52898e-01 -6.07171e-01 
-1.04261e+00  2.39526e-01 -7.81697e-01 
-8.71567e-01  3.32448e-01 -9.47877e-01 
-7.35447e-01  4.26513e-01 -1.10222e+00 
-6.27370e-01  5.18052e-01 -1.24352e+00 
-5.41397e-01  6.04555e-01 -1.37185e+00 
-4.72609e-01  6.84489e-01 -1.48803e+00 
-4.17143e-01  7.56942e-01 -1.59313e+00 
-3.71964e-01  8.21524e-01 -1.68838e+00 
-3.34766e-01  8.78118e-01 -1.77491e+00 
-3.03762e-01  9.26855e-01 -1.85380e+00 
-2.77609e-01  9.67964e-01 -1.92597e+00 
-2.55261e-01  1.00178e+00 -1.99223e+00 
-2.35934e-01  1.02865e+00 -2.05328e+00 
-2.19011e-01  1.04896e+00 -2.10972e+00 
-2.04025e-01  1.06308e+00 -2.16203e+00 
-1.90604e-01  1.07139e+00 -2.21066e+00 
-1.78465e-01  1.07424e+00 -2.25595e+00 
-1.67378e-01  1.07198e+00 -2.29822e+00 
-1.57167e-01  1.06492e+00 -2.33771e+00 
-1.47685e-01  1.05337e+00 -2.37466e+00 
-1.38820e-01  1.03761e+00 -2.40924e+00 
-1.30474e-01  1.01792e+00 -2.44163e+00 
-1.22575e-01  9.94549e-01 -2.47195e+00 
-1.15057e-01  9.67740e-01 -2.50033e+00 
-1.07870e-01  9.37721e-01 -2.52687e+00 
-1.00968e-01  9.04706e-01 -2.55167e+00 
-9.43167e-02  8.68905e-01 -2.57479e+00 
-8.78825e-02  8.30509e-01 -2.59632e+00 
-8.16407e-02  7.89713e-01 -2.61630e+00 
-7.55663e-02  7.46690e-01 -2.63480e+00 
-6.96411e-02  7.01621e-01 -2.65185e+00 
-6.38455e-02  6.54668e-01 -2.66750e+00 
-5.81657e-02  6.05999e-01 -2.68178e+00 
-5.25860e-02  5.55766e-01 -2.69473e+00 
-4.70954e-02  5.04130e-01 -2.70638e+00 
-4.16809e-02  4.51233e-01 -2.71673e+00 
-3.63334e-02  3.97230e-01 -2.72583e+00 
-3.10417e-02  3.42257e-01 -2.73368e+00 
-2.57981e-02  2.86466e-01 -2.74029e+00 
-2.05927e-02  2.29987e-01 -2.74569e+00 
-1.54184e-02  1.72967e-01 -2.74988e+00 
-1.02662e-02  1.15535e-01 -2.75286e+00 
-5.12959e-03  5.78374e-02 -2.75465e+00 
-1.36033e-12 -9.40183e-12 -2.75525e+00 
 5.12959e-03 -5.78374e-02 -2.75465e+00 
 1.02662e-02 -1.15535e-01 -2.75286e+00 
 1.54184e-02 -1.72967e-01 -2.74988e+00 
 2.05927e-02 -2.29987e-01 -2.74569e+00 
 2.57981e-02 -2.86466e-01 -2.74029e+00 
 3.10417e-02 -3.42257e-01 -2.73368e+00 
 3.63334e-02 -3.97230e-01 -2.72583e+00 
 4.16809e-02 -4.51233e-01 -2.71673e+00 
 4.70954e-02 -5.04130e-01 -2.70638e+00 
 5.25860e-02 -5.55766e-01 -2.69473e+00 
 5.81657e-02 -6.05999e-01 -2.68178e+00 
 6.38455e-02 -6.54668e-01 -2.66750e+00 
 6.96411e-02 -7.01621e-01 -2.65185e+00 
 7.55663e-02 -7.46690e-01 -2.63480e+00 
 8.16407e-02 -7.89713e-01 -2.61630e+00 
 8.78825e-02 -8.30509e-01 -2.59632e+00 
 9.43167e-02 -8.68905e-01 -2.57479e+00 
 1.00968e-01 -9.04706e-01 -2.55167e+00 
 1.07870e-01 -9.37721e-01 -2.52687e+00 
 1.15057e-01 -9.67740e-01 -2.50033e+00 
 1.22575e-01 -9.94549e-01 -2.47195e+00 
 1.30474e-01 -1.01792e+00 -2.44163e+00 
 1.38820e-01 -1.03761e+00 -2.40924e+00 
 1.47685e-01 -1.05337e+00 -2.37466e+00 
 1.57167e-01 -1.06492e+00 -2.33771e+00 
 1.67378e-01 -1.07198e+00 -2.29822e+00 
 1.78465e-01 -1.07424e+00 -2.25595e+00 
 1.90604e-01 -1.07139e+00 -2.21066e+00 
 2.04025e-01 -1.06308e+00 -2.16203e+00 
 2.19011e-01 -1.04896e+00 -2.10972e+00 
 2.35934e-01 -1.02865e+00 -2.05328e+00 
 2.55261e-01 -1.00178e+00 -1.99223e+00 
 2.77609e-01 -9.67964e-01 -1.92597e+00 
 3.03762e-01 -9.26855e-01 -1.85380e+00 
 3.34766e-01 -8.78118e-01 -1.77491e+00 
 3.71964e-01 -8.21524e-01 -1.68838e+00 
 4.17143e-01 -7.56942e-01 -1.59313e+00 
 4.72609e-01 -6.84489e-01 -1.48803e+00 
 5.41397e-01 -6.04555e-01 -1.37185e+00 
 6.27370e-01 -5.18052e-01 -1.24352e+00 
 7.35447e-01 -4.26513e-01 -1.10222e+00 
 8.71567e-01 -3.32448e-01 -9.47877e-01 
 1.04261e+00 -2.39526e-01 -7.81697e-01 
 1.25551e+00 -1.52898e-01 -6.07171e-01 
 1.51572e+00 -7.91045e-02 -4.31089e-01 
 1.82395e+00 -2.53807e-02 -2.64560e-01 
 2.17368e+00  3.16496e-03 -1.22450e-01 
 2.55678e+00  1.08293e-02 -1.84009e-02 
 2.97040e+00  3.24562e-02  3.38546e-02 
-2.93315e+00 -5.37029e-02  6.00149e-02 
-2.38549e+00 -1.31287e-02 -1.56531e-02 
-1.90444e+00  1.15017e-02 -1.70789e-01 
-1.47854e+00  9.24323e-02 -3.77960e-01 
-1.13754e+00  2.09750e-01 -5.98583e-01 
-8.78829e-01  3.44179e-01 -8.09974e-01 
-6.87333e-01  4.82557e-01 -1.00171e+00 
-5.46738e-01  6.16697e-01 -1.17087e+00 
-4.43432e-01  7.41841e-01 -1.31820e+00 
-3.66961e-01  8.55601e-01 -1.44608e+00 
-3.09737e-01  9.56954e-01 -1.55723e+00 
-2.66293e-01  1.04581e+00 -1.65437e+00 
-2.32789e-01  1.12251e+00 -1.73982e+00 
-2.06488e-01  1.18770e+00 -1.81558e+00 
-1.85469e-01  1.24210e+00 -1.88325e+00 
-1.68350e-01  1.28650e+00 -1.94418e+00 
-1.54155e-01  1.32164e+00 -1.99941e+00 
-1.42168e-01  1.34823e+00 -2.04981e+00 
-1.31875e-01  1.36693e+00 -2.09603e+00 
-1.22890e-01  1.37836e+00 -2.13866e+00 
-1.14935e-01  1.38305e+00 -2.17811e+00 
-1.07792e-01  1.38152e+00 -2.21477e+00 
-1.01306e-01  1.37422e+00 -2.24892e+00 
-9.53481e-02  1.36156e+00 -2.28081e+00 
-8.98268e-02  1.34392e+00 -2.31064e+00 
-8.46645e-02  1.32165e+00 -2.33858e+00 
-7.98051e-02  1.29507e+00 -2.36476e+00 
-7.51990e-02  1.26446e+00 -2.38932e+00 
-7.08109e-02  1.23011e+00 -2.41234e+00 
-6.66078e-02  1.19227e+00 -2.43392e+00 
-6.25665e-02  1.15118e+00 -2.45413e+00 
-5.86641e-02  1.10706e+00 -2.47303e+00 
-5.48847e-02  1.06013e+00 -2.49068e+00 
-5.12119e-02  1.01057e+00 -2.50713e+00 
-4.76344e-02  9.58602e-01 -2.52241e+00 
-4.41397e-02  9.04385e-01 -2.53657e+00 
-4.07196e-02  8.48108e-01 -2.54964e+00 
-3.73643e-02  7.89932e-01 -2.56164e+00 
-3.40674e-02  7.30031e-01 -2.57260e+00 
-3.08210e-02  6.68554e-01 -2.58255e+00 
-2.76199e-02  6.05665e-01 -2.59150e+00 
-2.44575e-02  5.41506e-01 -2.59946e+00 
-2.13296e-02  4.76236e-01 -2.60645e+00 
-1.82302e-02  4.09988e-01 -2.61249e+00 
-1.51557e-02  3.42917e-01 -2.61759e+00 
-1.21008e-02  2.75152e-01 -2.62174e+00 
-9.06209e-03  2.06845e-01 -2.62497e+00 
-6.03476e-03  1.38121e-01 -2.62727e+00 
-3.01558e-03  6.91314e-02 -2.62865e+00 
-1.39469e-12 -1.44504e-11 -2.62911e+00 
 3.01558e-03 -6.91314e-02 -2.62865e+00 
 6.03476e-03 -1.38121e-01 -2.62727e+00 
 9.06209e-03 -2.06845e-01 -2.62497e+00 
 1.21008e-02 -2.75152e-01 -2.62174e+00 
 1.51557e-02 -3.42917e-01 -2.61759e+00 
 1.82302e-02 -4.09988e-01 -2.61249e+00 
 2.13296e-02 -4.76236e-01 -2.60645e+00 
 2.44575e-02 -5.41506e-01 -2.59946e+00 
 2.76199e-02 -6.05665e-01 -2.59150e+00 
 3.08210e-02 -6.68554e-01 -2.58255e+00 
 3.40674e-02 -7.30031e-01 -2.57260e+00 
 3.73643e-02 -7.89932e-01 -2.56164e+00 
 4.07196e-02 -8.48108e-01 -2.54964e+00 
 4.41397e-02 -9.04385e-01 -2.53657e+00 
 4.76344e-02 -9.58602e-01 -2.52241e+00 
 5.12119e-02 -1.01057e+00 -2.50713e+00 
 5.48847e-02 -1.06013e+00 -2.49068e+00 
 5.86641e-02 -1.10706e+00 -2.47303e+00 
 6.25665e-02 -1.15118e+00 -2.45413e+00 
 6.66078e-02 -1.19227e+00 -2.43392e+00 
 7.08109e-02 -1.23011e+00 -2.41234e+00 
 7.51990e-02 -1.26446e+00 -2.38932e+00 
 7.98051e-02 -1.29507e+00 -2.36476e+00 
 8.46645e-02 -1.32165e+00 -2.33858e+00 
 8.98268e-02 -1.34392e+00 -2.31064e+00 
 9.53481e-02 -1.36156e+00 -2.28081e+00 
 1.01306e-01 -1.37422e+00 -2.24892e+00 
 1.07792e-01 -1.38152e+00 -2.21477e+00 
 1.14935e-01 -1.38305e+00 -2.17811e+00 
 1.22890e-01 -1.37836e+00 -2.13866e+00 
 1.31875e-01 -1.36693e+00 -2.09603e+00 
 1.42168e-01 -1.34823e+00 -2.04981e+00 
 1.54155e-01 -1.32164e+00 -1.99941e+00 
 1.68350e-01 -1.28650e+00 -1.94418e+00 
 1.85469e-01 -1.24210e+00 -1.88325e+00 
 2.06488e-01 -1.18770e+00 -1.81558e+00 
 2.32789e-01 -1.12251e+00 -1.73982e+00 
 2.66293e-01 -1.04581e+00 -1.65437e+00 
 3.09737e-01 -9.56954e-01 -1.55723e+00 
 3.66961e-01 -8.55601e-01 -1.44608e+00 
 4.43432e-01 -7.41841e-01 -1.31820e+00 
 5.46738e-01 -6.16697e-01 -1.17087e+00 
 6.87333e-01 -4.82557e-01 -1.00171e+00 
 8.78829e-01 -3.44179e-01 -8.09974e-01 
 1.13754e+00 -2.09750e-01 -5.98583e-01 
 1.47854e+00 -9.24323e-02 -3.77960e-01 
 1.90444e+00 -1.15017e-02 -1.70789e-01 
 2.38549e+00  1.31287e-02 -1.56531e-02 
 2.93315e+00  5.37029e-02  6.00149e-02 
-2.88656e+00 -7.84292e-02  1.19859e-01 
-2.14047e+00 -4.51703e-02 -2.96481e-02 
-1.46091e+00  1.03761e-01 -3.38320e-01 
-9.78236e-01  3.15304e-01 -6.51570e-01 
-6.62810e-01  5.35738e-01 -9.24108e-01 
-4.60567e-01  7.44043e-01 -1.14753e+00 
-3.30814e-01  9.31318e-01 -1.32671e+00 
-2.46614e-01  1.09511e+00 -1.47012e+00 
-1.91053e-01  1.23577e+00 -1.58580e+00 
-1.53578e-01  1.35499e+00 -1.68042e+00 
-1.27679e-01  1.45481e+00 -1.75908e+00 
-1.09273e-01  1.53739e+00 -1.82564e+00 
-9.58101e-02  1.60463e+00 -1.88289e+00 
-8.56527e-02  1.65829e+00 -1.93293e+00 
-7.77555e-02  1.69986e+00 -1.97727e+00 
-7.14240e-02  1.73063e+00 -2.01705e+00 
-6.62048e-02  1.75169e+00 -2.05308e+00 
-6.17843e-02  1.76401e+00 -2.08603e+00 
-5.79538e-02  1.76837e+00 -2.11636e+00 
-5.45625e-02  1.76550e+00 -2.14444e+00 
-5.15083e-02  1.75599e+00 -2.17055e+00 
-4.87138e-02  1.74038e+00 -2.19494e+00 
-4.61264e-02  1.71915e+00 -2.21776e+00 
-4.37037e-02  1.69271e+00 -2.23918e+00 
-4.14171e-02  1.66143e+00 -2.25930e+00 
-3.92419e-02  1.62566e+00 -2.27823e+00 
-3.71616e-02  1.58571e+00 -2.29604e+00 
-3.51609e-02  1.54186e+00 -2.31281e+00 
-3.32299e-02  1.49438e+00 -2.32858e+00 
-3.13583e-02  1.44350e+00 -2.34340e+00 
-2.95401e-02  1.38946e+00 -2.35733e+00 
-2.77678e-02  1.33246e+00 -2.37038e+00 
-2.60375e-02  1.27272e+00 -2.38260e+00 
-2.43435e-02  1.21043e+00 -2.39401e+00 
-2.26831e-02  1.14577e+00 -2.40463e+00 
-2.10519e-02  1.07890e+00 -2.41449e+00 
-1.94477e-02  1.01003e+00 -2.42360e+00 
-1.78670e-02  9.39284e-01 -2.43198e+00 
-1.63081e-02  8.66848e-01 -2.43964e+00 
-1.47680e-02  7.92861e-01 -2.44660e+00 
-1.32452e-02  7.17486e-01 -2.45286e+00 
-1.17370e-02  6.40859e-01 -2.45844e+00 
-1.02422e-02  5.63138e-01 -2.46335e+00 
-8.75844e-03  4.84452e-01 -2.46759e+00 
-7.28447e-03  4.04955e-01 -2.47116e+00 
-5.81814e-03  3.24771e-01 -2.47408e+00 
-4.35828e-03  2.44054e-01 -2.47635e+00 
-2.90286e-03  1.62924e-01 -2.47797e+00 
-1.45073e-03  8.15325e-02 -2.47894e+00 
-1.25070e-12 -1.72600e-11 -2.47926e+00 
 1.45073e-03 -8.15325e-02 -2.47894e+00 
 2.90286e-03 -1.62924e-01 -2.47797e+00 
 4.35828e-03 -2.44054e-01 -2.47635e+00 
 5.81814e-03 -3.24771e-01 -2.47408e+00 
 7.28447e-03 -4.04955e-01 -2.47116e+00 
 8.75844e-03 -4.84452e-01 -2.46759e+00 
 1.02422e-02 -5.63138e-01 -2.46335e+00 
 1.17370e-02 -6.40859e-01 -2.45844e+00 
 1.32452e-02 -7.17486e-01 -2.45286e+00 
 1.47680e-02 -7.92861e-01 -2.44660e+00 
 1.63081e-02 -8.66848e-01 -2.43964e+00 
 1.78670e-02 -9.39284e-01 -2.43198e+00 
 1.94477e-02 -1.01003e+00 -2.42360e+00 
 2.10519e-02 -1.07890e+00 -2.41449e+00 
 2.26831e-02 -1.14577e+00 -2.40463e+00 
 2.43435e-02 -1.21043e+00 -2.39401e+00 
 2.60375e-02 -1.27272e+00 -2.38260e+00 
 2.77678e-02 -1.33246e+00 -2.37038e+00 
 2.95401e-02 -1.38946e+00 -2.35733e+00 
 3.13583e-02 -1.44350e+00 -2.34340e+00 
 3.32299e-02 -1.49438e+00 -2.32858e+00 
 3.51609e-02 -1.54186e+00 -2.31281e+00 
 3.71616e-02 -1.58571e+00 -2.29604e+00 
 3.92419e-02 -1.62566e+00 -2.27823e+00 
 4.14171e-02 -1.66143e+00 -2.25930e+00 
 4.37037e-02 -1.69271e+00 -2.23918e+00 
 4.61264e-02 -1.71915e+00 -2.21776e+00 
 4.87138e-02 -1.74038e+00 -2.19494e+00 
 5.15083e-02 -1.75599e+00 -2.17055e+00 
 5.45625e-02 -1.76550e+00 -2.14444e+00 
 5.79538e-02 -1.76837e+00 -2.11636e+00 
 6.17843e-02 -1.76401e+00 -2.08603e+00 
 6.62048e-02 -1.75169e+00 -2.05308e+00 
 7.14240e-02 -1.73063e+00 -2.01705e+00 
 7.77555e-02 -1.69986e+00 -1.97727e+00 
 8.56527e-02 -1.65829e+00 -1.93293e+00 
 9.58101e-02 -1.60463e+00 -1.88289e+00 
 1.09273e-01 -1.53739e+00 -1.82564e+00 
 1.27679e-01 -1.45481e+00 -1.75908e+00 
 1.53578e-01 -1.35499e+00 -1.68042e+00 
 1.91053e-01 -1.23577e+00 -1.58580e+00 
 2.46614e-01 -1.09511e+00 -1.47012e+00 
 3.30814e-01 -9.31318e-01 -1.32671e+00 
 4.60567e-01 -7.44043e-01 -1.14753e+00 
 6.62810e-01 -5.35738e-01 -9.24108e-01 
 9.78236e-01 -3.15304e-01 -6.51570e-01 
 1.46091e+00 -1.03761e-01 -3.38320e-01 
 2.14047e+00  4.51703e-02 -2.96481e-02 
 2.88656e+00  7.84292e-02  1.19859e-01 
-2.86871e+00 -3.55697e-01  3.43043e-01 
-1.39306e+00  1.94230e-01 -3.52993e-01 
-6.81718e-01  6.34334e-01 -8.76518e-01 
-3.45974e-01  9.90741e-01 -1.22680e+00 
-1.82868e-01  1.27954e+00 -1.45987e+00 
-1.02090e-01  1.51001e+00 -1.61557e+00 
-6.14067e-02  1.69319e+00 -1.72238e+00 
-4.05592e-02  1.83856e+00 -1.79843e+00 
-2.96985e-02  1.95351e+00 -1.85493e+00 
-2.39002e-02  2.04390e+00 -1.89883e+00 
-2.07102e-02  2.11409e+00 -1.93436e+00 
-1.88571e-02  2.16747e+00 -1.96420e+00 
-1.77017e-02  2.20661e+00 -1.99003e+00 
-1.68984e-02  2.23351e+00 -2.01294e+00 
-1.62779e-02  2.24974e+00 -2.03362e+00 
-1.57417e-02  2.25654e+00 -2.05258e+00 
-1.52477e-02  2.25492e+00 -2.07012e+00 
-1.47662e-02  2.24571e+00 -2.08650e+00 
-1.42903e-02  2.22959e+00 -2.10185e+00 
-1.38104e-02  2.20714e+00 -2.11632e+00 
-1.33288e-02  2.17887e+00 -2.12999e+00 
-1.28418e-02  2.14519e+00 -2.14293e+00 
-1.23536e-02  2.10650e+00 -2.15519e+00 
-1.18621e-02  2.06314e+00 -2.16683e+00 
-1.13715e-02  2.01540e+00 -2.17786e+00 
-1.08799e-02  1.96358e+00 -2.18833e+00 
-1.03910e-02  1.90793e+00 -2.19825e+00 
-9.90303e-03  1.84868e+00 -2.20765e+00 
-9.41902e-03  1.78607e+00 -2.21654e+00 
-8.93703e-03  1.72029e+00 -2.22495e+00 
-8.45971e-03  1.65155e+00 -2.23287e+00 
-7.98511e-03  1.58003e+00 -2.24034e+00 
-7.51541e-03  1.50593e+00 -2.24734e+00 
-7.04873e-03  1.42939e+00 -2.25391e+00 
-6.58686e-03  1.35061e+00 -2.26004e+00 
-6.12803e-03  1.26974e+00 -2.26574e+00 
-5.67371e-03  1.18693e+00 -2.27102e+00 
-5.22225e-03  1.10233e+00 -2.27589e+00 
-4.77484e-03  1.01611e+00 -2.28035e+00 
-4.32999e-03  9.28396e-01 -2.28440e+00 
-3.88863e-03  8.39343e-01 -2.28806e+00 
-3.44943e-03  7.49079e-01 -2.29132e+00 
-3.01310e-03  6.57758e-01 -2.29418e+00 
-2.57848e-03  5.65501e-01 -2.29666e+00 
-2.14606e-03  4.72460e-01 -2.29876e+00 
-1.71486e-03  3.78752e-01 -2.30047e+00 
-1.28516e-03  2.84527e-01 -2.30180e+00 
-8.56181e-04  1.89899e-01 -2.30274e+00 
-4.27986e-04  9.50184e-02 -2.30331e+00 
-1.47136e-13 -1.32256e-11 -2.30350e+00 
 4.27986e-04 -9.50184e-02 -2.30331e+00 
 8.56181e-04 -1.89899e-01 -2.30274e+00 
 1.28516e-03 -2.84527e-01 -2.30180e+00 
 1.71486e-03 -3.78752e-01 -2.30047e+00 
 2.14606e-03 -4.72460e-01 -2.29876e+00 
 2.57848e-03 -5.65501e-01 -2.29666e+00 
 3.01310e-03 -6.57758e-01 -2.29418e+00 
 3.44943e-03 -7.49079e-01 -2.29132e+00 
 3.88863e-03 -8.39343e-01 -2.28806e+00 
 4.32999e-03 -9.28396e-01 -2.28440e+00 
 4.77484e-03 -1.01611e+00 -2.28035e+00 
 5.22225e-03 -1.10233e+00 -2.27589e+00 
 5.67371e-03 -1.18693e+00 -2.27102e+00 
 6.12803e-03 -1.26974e+00 -2.26574e+00 
 6.58686e-03 -1.35061e+00 -2.26004e+00 
 7.04873e-03 -1.42939e+00 -2.25391e+00 
 7.51541e-03 -1.50593e+00 -2.24734e+00 
 7.98511e-03 -1.58003e+00 -2.24034e+00 
 8.45971e-03 -1.65155e+00 -2.23287e+00 
 8.93703e-03 -1.72029e+00 -2.22495e+00 
 9.41902e-03 -1.78607e+00 -2.21654e+00 
 9.90303e-03 -1.84868e+00 -2.20765e+00 
 1.03910e-02 -1.90793e+00 -2.19825e+00 
 1.08799e-02 -1.96358e+00 -2.18833e+00 
 1.13715e-02 -2.01540e+00 -2.17786e+00 
 1.18621e-02 -2.06314e+00 -2.16683e+00 
 1.23536e-02 -2.10650e+00 -2.15519e+00 
 1.28418e-02 -2.14519e+00 -2.14293e+00 
 1.33288e-02 -2.17887e+00 -2.12999e+00 
 1.38104e-02 -2.20714e+00 -2.11632e+00 
 1.42903e-02 -2.22959e+00 -2.10185e+00 
 1.47662e-02 -2.24571e+00 -2.08650e+00 
 1.52477e-02 -2.25492e+00 -2.07012e+00 
 1.57417e-02 -2.25654e+00 -2.05258e+00 
 1.62779e-02 -2.24974e+00 -2.03362e+00 
 1.68984e-02 -2.23351e+00 -2.01294e+00 
 1.77017e-02 -2.20661e+00 -1.99003e+00 
 1.88571e-02 -2.16747e+00 -1.96420e+00 
 2.07102e-02 -2.11409e+00 -1.93436e+00 
 2.39002e-02 -2.04390e+00 -1.89883e+00 
 2.96985e-02 -1.95351e+00 -1.85493e+00 
 4.05592e-02 -1.83856e+00 -1.79843e+00 
 6.14067e-02 -1.69319e+00 -1.72238e+00 
 1.02090e-01 -1.51001e+00 -1.61557e+00 
 1.82868e-01 -1.27954e+00 -1.45987e+00 
 3.45974e-01 -9.90741e-01 -1.22680e+00 
 6.81718e-01 -6.34334e-01 -8.76518e-01 
 1.39306e+00 -1.94230e-01 -3.52993e-01 
 2.86871e+00  3.55697e-01  3.43043e-01 
-1.01339e+00  1.04230e+00 -1.07583e+00 
-1.82535e-01  1.97031e+00 -1.87969e+00 
-5.29139e-02  2.26751e+00 -2.00251e+00 
-1.98943e-02  2.47443e+00 -2.03664e+00 
-1.40814e-02  2.61527e+00 -2.03784e+00 
-1.50807e-02  2.71403e+00 -2.03060e+00 
-1.71018e-02  2.78412e+00 -2.02270e+00 
-1.86394e-02  2.83364e+00 -2.01644e+00 
-1.94703e-02  2.86761e+00 -2.01211e+00 
-1.97379e-02  2.88919e+00 -2.00948e+00 
-1.96079e-02  2.90049e+00 -2.00815e+00 
-1.92373e-02  2.90292e+00 -2.00779e+00 
-1.87167e-02  2.89753e+00 -2.00814e+00 
-1.81233e-02  2.88505e+00 -2.00898e+00 
-1.74885e-02  2.86609e+00 -2.01018e+00 
-1.68468e-02  2.84109e+00 -2.01162e+00 
-1.62035e-02  2.81047e+00 -2.01323e+00 
-1.55752e-02  2.77453e+00 -2.01494e+00 
-1.49575e-02  2.73359e+00 -2.01672e+00 
-1.43598e-02  2.68788e+00 -2.01853e+00 
-1.37747e-02  2.63768e+00 -2.02035e+00 
-1.32086e-02  2.58319e+00 -2.02216e+00 
-1.26536e-02  2.52462e+00 -2.02394e+00 
-1.21151e-02  2.46216e+00 -2.02568e+00 
-1.15855e-02  2.39603e+00 -2.02738e+00 
-1.10695e-02  2.32637e+00 -2.02903e+00 
-1.05602e-02  2.25338e+00 -2.03062e+00 
-1.00621e-02  2.17722e+00 -2.03215e+00 
-9.56889e-03  2.09806e+00 -2.03363e+00 
-9.08469e-03  2.01605e+00 -2.03503e+00 
-8.60400e-03  1.93136e+00 -2.03637e+00 
-8.13058e-03  1.84413e+00 -2.03764e+00 
-7.65960e-03  1.75452e+00 -2.03885e+00 
-7.19446e-03  1.66266e+00 -2.03998e+00 
-6.73097e-03  1.56871e+00 -2.04105e+00 
-6.27217e-03  1.47280e+00 -2.04204e+00 
-5.81444e-03  1.37508e+00 -2.04297e+00 
-5.36046e-03  1.27567e+00 -2.04383e+00 
-4.90714e-03  1.17474e+00 -2.04462e+00 
-4.45678e-03  1.07238e+00 -2.04533e+00 
-4.00680e-03  9.68756e-01 -2.04599e+00 
-3.55911e-03  8.63977e-01 -2.04657e+00 
-3.11162e-03  7.58195e-01 -2.04708e+00 
-2.66583e-03  6.51515e-01 -2.04752e+00 
-2.22014e-03  5.44089e-01 -2.04790e+00 
-1.77561e-03  4.36020e-01 -2.04820e+00 
-1.33113e-03  3.27460e-01 -2.04844e+00 
-8.87327e-04  2.18512e-01 -2.04861e+00 
-4.43551e-04  1.09323e-01 -2.04871e+00 
-4.92530e-13 -1.64816e-11 -2.04875e+00 
 4.43551e-04 -1.09323e-01 -2.04871e+00 
 8.87327e-04 -2.18512e-01 -2.04861e+00 
 1.33113e-03 -3.27460e-01 -2.04844e+00 
 1.77561e-03 -4.36020e-01 -2.04820e+00 
 2.22014e-03 -5.44089e-01 -2.04790e+00 
 2.66583e-03 -6.51515e-01 -2.04752e+00 
 3.11162e-03 -7.58195e-01 -2.04708e+00 
 3.55911e-03 -8.63977e-01 -2.04657e+00 
 4.00680e-03 -9.68756e-01 -2.04599e+00 
 4.45678e-03 -1.07238e+00 -2.04533e+00 
 4.90714e-03 -1.17474e+00 -2.04462e+00 
 5.36046e-03 -1.27567e+00 -2.04383e+00 
 5.81444e-03 -1.37508e+00 -2.04297e+00 
 6.27217e-03 -1.47280e+00 -2.04204e+00 
 6.73097e-03 -1.56871e+00 -2.04105e+00 
 7.19446e-03 -1.66266e+00 -2.03998e+00 
 7.65960e-03 -1.75452e+00 -2.03885e+00 
 8.13058e-03 -1.84413e+00 -2.03764e+00 
 8.60400e-03 -1.93136e+00 -2.03637e+00 
 9.08469e-03 -2.01605e+00 -2.03503e+00 
 9.56889e-03 -2.09806e+00 -2.03363e+00 
 1.00621e-02 -2.17722e+00 -2.03215e+00 
 1.05602e-02 -2.25338e+00 -2.03062e+00 
 1.10695e-02 -2.32637e+00 -2.02903e+00 
 1.15855e-02 -2.39603e+00 -2.02738e+00 
 1.21151e-02 -2.46216e+00 -2.02568e+00 
 1.26536e-02 -2.52462e+00 -2.02394e+00 
 1.32086e-02 -2.58319e+00 -2.02216e+00 
 1.37747e-02 -2.63768e+00 -2.02035e+00 
 1.43598e-02 -2.68788e+00 -2.01853e+00 
 1.49575e-02 -2.73359e+00 -2.01672e+00 
 1.55752e-02 -2.77453e+00 -2.01494e+00 
 1.62035e-02 -2.81047e+00 -2.01323e+00 
 1.68468e-02 -2.84109e+00 -2.01162e+00 
 1.74885e-02 -2.86609e+00 -2.01018e+00 
 1.81233e-02 -2.88505e+00 -2.00898e+00 
 1.87167e-02 -2.89753e+00 -2.00814e+00 
 1.92373e-02 -2.90292e+00 -2.00779e+00 
 1.96079e-02 -2.90049e+00 -2.00815e+00 
 1.97379e-02 -2.88919e+00 -2.00948e+00 
 1.94703e-02 -2.86761e+00 -2.01211e+00 
 1.86394e-02 -2.83364e+00 -2.01644e+00 
 1.71018e-02 -2.78412e+00 -2.02270e+00 
 1.50807e-02 -2.71403e+00 -2.03060e+00 
 1.40814e-02 -2.61527e+00 -2.03784e+00 
 1.98943e-02 -2.47443e+00 -2.03664e+00 
 5.29139e-02 -2.26751e+00 -2.00251e+00 
 1.82535e-01 -1.97031e+00 -1.87969e+00 
 1.01339e+00 -1.04230e+00 -1.07583e+00 </DataArray>
         </PointData>
         <CellData/>
      </Piece>
   </UnstructuredGrid>
</VTKFile>