<?xml version="1.0" encoding="utf-8"?>
<VTKFile byte_order="LittleEndian" type="UnstructuredGrid" version="0.1">
   <UnstructuredGrid>
      <Piece NumberOfCells="19008" NumberOfPoints="9652">
         <Points>
            <DataArray Name="Points" NumberOfComponents="3" format="ascii" type="Float32">
0.0000 0.0000 0.0000
0.0000 0.0051 0.0000
0.0000 0.0101 0.0000
0.0000 0.0152 0.0000
0.0000 0.0202 0.0000
0.0000 0.0253 0.0000
0.0000 0.0303 0.0000
0.0000 0.0354 0.0000
0.0000 0.0404 0.0000
0.0000 0.0455 0.0000
0.0000 0.0505 0.0000
0.0000 0.0556 0.0000
0.0000 0.0606 0.0000
0.0000 0.0657 0.0000
0.0000 0.0707 0.0000
0.0000 0.0758 0.0000
0.0000 0.0808 0.0000
0.0000 0.0859 0.0000
0.0000 0.0909 0.0000
0.0000 0.0960 0.0000
0.0000 0.1010 0.0000
0.0000 0.1061 0.0000
0.0000 0.1111 0.0000
0.0000 0.1162 0.0000
0.0000 0.1212 0.0000
0.0000 0.1263 0.0000
0.0000 0.1313 0.0000
0.0000 0.1364 0.0000
0.0000 0.1414 0.0000
0.0000 0.1465 0.0000
0.0000 0.1515 0.0000
0.0000 0.1566 0.0000
0.0000 0.1616 0.0000
0.0000 0.1667 0.0000
0.0000 0.1717 0.0000
0.0000 0.1768 0.0000
0.0000 0.1818 0.0000
0.0000 0.1869 0.0000
0.0000 0.1919 0.0000
0.0000 0.1970 0.0000
0.0000 0.2020 0.0000
0.0000 0.2071 0.0000
0.0000 0.2121 0.0000
0.0000 0.2172 0.0000
0.0000 0.2222 0.0000
0.0000 0.2273 0.0000
0.0000 0.2323 0.0000
0.0000 0.2374 0.0000
0.0000 0.2424 0.0000
0.0000 0.2475 0.0000
0.0000 0.2525 0.0000
0.0000 0.2576 0.0000
0.0000 0.2626 0.0000
0.0000 0.2677 0.0000
0.0000 0.2727 0.0000
0.0000 0.2778 0.0000
0.0000 0.2828 0.0000
0.0000 0.2879 0.0000
0.0000 0.2929 0.0000
0.0000 0.2980 0.0000
0.0000 0.3030 0.0000
0.0000 0.3081 0.0000
0.0000 0.3131 0.0000
0.0000 0.3182 0.0000
0.0000 0.3232 0.0000
0.0000 0.3283 0.0000
0.0000 0.3333 0.0000
0.0000 0.3384 0.0000
0.0000 0.3434 0.0000
0.0000 0.3485 0.0000
0.0000 0.3535 0.0000
0.0000 0.3586 0.0000
0.0000 0.3636 0.0000
0.0000 0.3687 0.0000
0.0000 0.3737 0.0000
0.0000 0.3788 0.0000
0.0000 0.3838 0.0000
0.0000 0.3889 0.0000
0.0000 0.3939 0.0000
0.0000 0.3990 0.0000
0.0000 0.4040 0.0000
0.0000 0.4091 0.0000
0.0000 0.4141 0.0000
0.0000 0.4192 0.0000
0.0000 0.4242 0.0000
0.0000 0.4293 0.0000
0.0000 0.4343 0.0000
0.0000 0.4394 0.0000
0.0000 0.4444 0.0000
0.0000 0.4495 0.0000
0.0000 0.4545 0.0000
0.0000 0.4596 0.0000
0.0000 0.4646 0.0000
0.0000 0.4697 0.0000
0.0000 0.4747 0.0000
0.0000 0.4798 0.0000
0.0000 0.4848 0.0000
0.0000 0.4899 0.0000
0.0000 0.4949 0.0000
0.0000 0.5000 0.0000
0.0208 0.0000 0.0000
0.0208 0.0051 0.0000
0.0208 0.0101 0.0000
0.0208 0.0152 0.0000
0.0208 0.0202 0.0000
0.0208 0.0253 0.0000
0.0208 0.0303 0.0000
0.0208 0.0354 0.0000
0.0208 0.0404 0.0000
0.0208 0.0455 0.0000
0.0208 0.0505 0.0000
0.0208 0.0556 0.0000
0.0208 0.0606 0.0000
0.0208 0.0657 0.0000
0.0208 0.0707 0.0000
0.0208 0.0758 0.0000
0.0208 0.0808 0.0000
0.0208 0.0859 0.0000
0.0208 0.0909 0.0000
0.0208 0.0960 0.0000
0.0208 0.1010 0.0000
0.0208 0.1061 0.0000
0.0208 0.1111 0.0000
0.0208 0.1162 0.0000
0.0208 0.1212 0.0000
0.0208 0.1263 0.0000
0.0208 0.1313 0.0000
0.0208 0.1364 0.0000
0.0208 0.1414 0.0000
0.0208 0.1465 0.0000
0.0208 0.1515 0.0000
0.0208 0.1566 0.0000
0.0208 0.1616 0.0000
0.0208 0.1667 0.0000
0.0208 0.1717 0.0000
0.0208 0.1768 0.0000
0.0208 0.1818 0.0000
0.0208 0.1869 0.0000
0.0208 0.1919 0.0000
0.0208 0.1970 0.0000
0.0208 0.2020 0.0000
0.0208 0.2071 0.0000
0.0208 0.2121 0.0000
0.0208 0.2172 0.0000
0.0208 0.2222 0.0000
0.0208 0.2273 0.0000
0.0208 0.2323 0.0000
0.0208 0.2374 0.0000
0.0208 0.2424 0.0000
0.0208 0.2475 0.0000
0.0208 0.2525 0.0000
0.0208 0.2576 0.0000
0.0208 0.2626 0.0000
0.0208 0.2677 0.0000
0.0208 0.2727 0.0000
0.0208 0.2778 0.0000
0.0208 0.2828 0.0000
0.0208 0.2879 0.0000
0.0208 0.2929 0.0000
0.0208 0.2980 0.0000
0.0208 0.3030 0.0000
0.0208 0.3081 0.0000
0.0208 0.3131 0.0000
0.0208 0.3182 0.0000
0.0208 0.3232 0.0000
0.0208 0.3283 0.0000
0.0208 0.3333 0.0000
0.0208 0.3384 0.0000
0.0208 0.3434 0.0000
0.0208 0.3485 0.0000
0.0208 0.3535 0.0000
0.0208 0.3586 0.0000
0.0208 0.3636 0.0000
0.0208 0.3687 0.0000
0.0208 0.3737 0.0000
0.0208 0.3788 0.0000
0.0208 0.3838 0.0000
0.0208 0.3889 0.0000
0.0208 0.3939 0.0000
0.0208 0.3990 0.0000
0.0208 0.4040 0.0000
0.0208 0.4091 0.0000
0.0208 0.4141 0.0000
0.0208 0.4192 0.0000
0.0208 0.4242 0.0000
0.0208 0.4293 0.0000
0.0208 0.4343 0.0000
0.0208 0.4394 0.0000
0.0208 0.4444 0.0000
0.0208 0.4495 0.0000
0.0208 0.4545 0.0000
0.0208 0.4596 0.0000
0.0208 0.4646 0.0000
0.0208 0.4697 0.0000
0.0208 0.4747 0.0000
0.0208 0.4798 0.0000
0.0208 0.4848 0.0000
0.0208 0.4899 0.0000
0.0208 0.4949 0.0000
0.0208 0.5000 0.0000
0.0417 0.0000 0.0000
0.0417 0.0051 0.0000
0.0417 0.0101 0.0000
0.0417 0.0152 0.0000
0.0417 0.0202 0.0000
0.0417 0.0253 0.0000
0.0417 0.0303 0.0000
0.0417 0.0354 0.0000
0.0417 0.0404 0.0000
0.0417 0.0455 0.0000
0.0417 0.0505 0.0000
0.0417 0.0556 0.0000
0.0417 0.0606 0.0000
0.0417 0.0657 0.0000
0.0417 0.0707 0.0000
0.0417 0.0758 0.0000
0.0417 0.0808 0.0000
0.0417 0.0859 0.0000
0.0417 0.0909 0.0000
0.0417 0.0960 0.0000
0.0417 0.1010 0.0000
0.0417 0.1061 0.0000
0.0417 0.1111 0.0000
0.0417 0.1162 0.0000
0.0417 0.1212 0.0000
0.0417 0.1263 0.0000
0.0417 0.1313 0.0000
0.0417 0.1364 0.0000
0.0417 0.1414 0.0000
0.0417 0.1465 0.0000
0.0417 0.1515 0.0000
0.0417 0.1566 0.0000
0.0417 0.1616 0.0000
0.0417 0.1667 0.0000
0.0417 0.1717 0.0000
0.0417 0.1768 0.0000
0.0417 0.1818 0.0000
0.0417 0.1869 0.0000
0.0417 0.1919 0.0000
0.0417 0.1970 0.0000
0.0417 0.2020 0.0000
0.0417 0.2071 0.0000
0.0417 0.2121 0.0000
0.0417 0.2172 0.0000
0.0417 0.2222 0.0000
0.0417 0.2273 0.0000
0.0417 0.2323 0.0000
0.0417 0.2374 0.0000
0.0417 0.2424 0.0000
0.0417 0.2475 0.0000
0.0417 0.2525 0.0000
0.0417 0.2576 0.0000
0.0417 0.2626 0.0000
0.0417 0.2677 0.0000
0.0417 0.2727 0.0000
0.0417 0.2778 0.0000
0.0417 0.2828 0.0000
0.0417 0.2879 0.0000
0.0417 0.2929 0.0000
0.0417 0.2980 0.0000
0.0417 0.3030 0.0000
0.0417 0.3081 0.0000
0.0417 0.3131 0.0000
0.0417 0.3182 0.0000
0.0417 0.3232 0.0000
0.0417 0.3283 0.0000
0.0417 0.3333 0.0000
0.0417 0.3384 0.0000
0.0417 0.3434 0.0000
0.0417 0.3485 0.0000
0.0417 0.3535 0.0000
0.0417 0.3586 0.0000
0.0417 0.3636 0.0000
0.0417 0.3687 0.0000
0.0417 0.3737 0.0000
0.0417 0.3788 0.0000
0.0417 0.3838 0.0000
0.0417 0.3889 0.0000
0.0417 0.3939 0.0000
0.0417 0.3990 0.0000
0.0417 0.4040 0.0000
0.0417 0.4091 0.0000
0.0417 0.4141 0.0000
0.0417 0.4192 0.0000
0.0417 0.4242 0.0000
0.0417 0.4293 0.0000
0.0417 0.4343 0.0000
0.0417 0.4394 0.0000
0.0417 0.4444 0.0000
0.0417 0.4495 0.0000
0.0417 0.4545 0.0000
0.0417 0.4596 0.0000
0.0417 0.4646 0.0000
0.0417 0.4697 0.0000
0.0417 0.4747 0.0000
0.0417 0.4798 0.0000
0.0417 0.4848 0.0000
0.0417 0.4899 0.0000
0.0417 0.4949 0.0000
0.0417 0.5000 0.0000
0.0625 0.0000 0.0000
0.0625 0.0051 0.0000
0.0625 0.0101 0.0000
0.0625 0.0152 0.0000
0.0625 0.0202 0.0000
0.0625 0.0253 0.0000
0.0625 0.0303 0.0000
0.0625 0.0354 0.0000
0.0625 0.0404 0.0000
0.0625 0.0455 0.0000
0.0625 0.0505 0.0000
0.0625 0.0556 0.0000
0.0625 0.0606 0.0000
0.0625 0.0657 0.0000
0.0625 0.0707 0.0000
0.0625 0.0758 0.0000
0.0625 0.0808 0.0000
0.0625 0.0859 0.0000
0.0625 0.0909 0.0000
0.0625 0.0960 0.0000
0.0625 0.1010 0.0000
0.0625 0.1061 0.0000
0.0625 0.1111 0.0000
0.0625 0.1162 0.0000
0.0625 0.1212 0.0000
0.0625 0.1263 0.0000
0.0625 0.1313 0.0000
0.0625 0.1364 0.0000
0.0625 0.1414 0.0000
0.0625 0.1465 0.0000
0.0625 0.1515 0.0000
0.0625 0.1566 0.0000
0.0625 0.1616 0.0000
0.0625 0.1667 0.0000
0.0625 0.1717 0.0000
0.0625 0.1768 0.0000
0.0625 0.1818 0.0000
0.0625 0.1869 0.0000
0.0625 0.1919 0.0000
0.0625 0.1970 0.0000
0.0625 0.2020 0.0000
0.0625 0.2071 0.0000
0.0625 0.2121 0.0000
0.0625 0.2172 0.0000
0.0625 0.2222 0.0000
0.0625 0.2273 0.0000
0.0625 0.2323 0.0000
0.0625 0.2374 0.0000
0.0625 0.2424 0.0000
0.0625 0.2475 0.0000
0.0625 0.2525 0.0000
0.0625 0.2576 0.0000
0.0625 0.2626 0.0000
0.0625 0.2677 0.0000
0.0625 0.2727 0.0000
0.0625 0.2778 0.0000
0.0625 0.2828 0.0000
0.0625 0.2879 0.0000
0.0625 0.2929 0.0000
0.0625 0.2980 0.0000
0.0625 0.3030 0.0000
0.0625 0.3081 0.0000
0.0625 0.3131 0.0000
0.0625 0.3182 0.0000
0.0625 0.3232 0.0000
0.0625 0.3283 0.0000
0.0625 0.3333 0.0000
0.0625 0.3384 0.0000
0.0625 0.3434 0.0000
0.0625 0.3485 0.0000
0.0625 0.3535 0.0000
0.0625 0.3586 0.0000
0.0625 0.3636 0.0000
0.0625 0.3687 0.0000
0.0625 0.3737 0.0000
0.0625 0.3788 0.0000
0.0625 0.3838 0.0000
0.0625 0.3889 0.0000
0.0625 0.3939 0.0000
0.0625 0.3990 0.0000
0.0625 0.4040 0.0000
0.0625 0.4091 0.0000
0.0625 0.4141 0.0000
0.0625 0.4192 0.0000
0.0625 0.4242 0.0000
0.0625 0.4293 0.0000
0.0625 0.4343 0.0000
0.0625 0.4394 0.0000
0.0625 0.4444 0.0000
0.0625 0.4495 0.0000
0.0625 0.4545 0.0000
0.0625 0.4596 0.0000
0.0625 0.4646 0.0000
0.0625 0.4697 0.0000
0.0625 0.4747 0.0000
0.0625 0.4798 0.0000
0.0625 0.4848 0.0000
0.0625 0.4899 0.0000
0.0625 0.4949 0.0000
0.0625 0.5000 0.0000
0.0833 0.0000 0.0000
0.0833 0.0051 0.0000
0.0833 0.0101 0.0000
0.0833 0.0152 0.0000
0.0833 0.0202 0.0000
0.0833 0.0253 0.0000
0.0833 0.0303 0.0000
0.0833 0.0354 0.0000
0.0833 0.0404 0.0000
0.0833 0.0455 0.0000
0.0833 0.0505 0.0000
0.0833 0.0556 0.0000
0.0833 0.0606 0.0000
0.0833 0.0657 0.0000
0.0833 0.0707 0.0000
0.0833 0.0758 0.0000
0.0833 0.0808 0.0000
0.0833 0.0859 0.0000
0.0833 0.0909 0.0000
0.0833 0.0960 0.0000
0.0833 0.1010 0.0000
0.0833 0.1061 0.0000
0.0833 0.1111 0.0000
0.0833 0.1162 0.0000
0.0833 0.1212 0.0000
0.0833 0.1263 0.0000
0.0833 0.1313 0.0000
0.0833 0.1364 0.0000
0.0833 0.1414 0.0000
0.0833 0.1465 0.0000
0.0833 0.1515 0.0000
0.0833 0.1566 0.0000
0.0833 0.1616 0.0000
0.0833 0.1667 0.0000
0.0833 0.1717 0.0000
0.0833 0.1768 0.0000
0.0833 0.1818 0.0000
0.0833 0.1869 0.0000
0.0833 0.1919 0.0000
0.0833 0.1970 0.0000
0.0833 0.2020 0.0000
0.0833 0.2071 0.0000
0.0833 0.2121 0.0000
0.0833 0.2172 0.0000
0.0833 0.2222 0.0000
0.0833 0.2273 0.0000
0.0833 0.2323 0.0000
0.0833 0.2374 0.0000
0.0833 0.2424 0.0000
0.0833 0.2475 0.0000
0.0833 0.2525 0.0000
0.0833 0.2576 0.0000
0.0833 0.2626 0.0000
0.0833 0.2677 0.0000
0.0833 0.2727 0.0000
0.0833 0.2778 0.0000
0.0833 0.2828 0.0000
0.0833 0.2879 0.0000
0.0833 0.2929 0.0000
0.0833 0.2980 0.0000
0.0833 0.3030 0.0000
0.0833 0.3081 0.0000
0.0833 0.3131 0.0000
0.0833 0.3182 0.0000
0.0833 0.3232 0.0000
0.0833 0.3283 0.0000
0.0833 0.3333 0.0000
0.0833 0.3384 0.0000
0.0833 0.3434 0.0000
0.0833 0.3485 0.0000
0.0833 0.3535 0.0000
0.0833 0.3586 0.0000
0.0833 0.3636 0.0000
0.0833 0.3687 0.0000
0.0833 0.3737 0.0000
0.0833 0.3788 0.0000
0.0833 0.3838 0.0000
0.0833 0.3889 0.0000
0.0833 0.3939 0.0000
0.0833 0.3990 0.0000
0.0833 0.4040 0.0000
0.0833 0.4091 0.0000
0.0833 0.4141 0.0000
0.0833 0.4192 0.0000
0.0833 0.4242 0.0000
0.0833 0.4293 0.0000
0.0833 0.4343 0.0000
0.0833 0.4394 0.0000
0.0833 0.4444 0.0000
0.0833 0.4495 0.0000
0.0833 0.4545 0.0000
0.0833 0.4596 0.0000
0.0833 0.4646 0.0000
0.0833 0.4697 0.0000
0.0833 0.4747 0.0000
0.0833 0.4798 0.0000
0.0833 0.4848 0.0000
0.0833 0.4899 0.0000
0.0833 0.4949 0.0000
0.0833 0.5000 0.0000
0.1042 0.0000 0.0000
0.1042 0.0051 0.0000
0.1042 0.0101 0.0000
0.1042 0.0152 0.0000
0.1042 0.0202 0.0000
0.1042 0.0253 0.0000
0.1042 0.0303 0.0000
0.1042 0.0354 0.0000
0.1042 0.0404 0.0000
0.1042 0.0455 0.0000
0.1042 0.0505 0.0000
0.1042 0.0556 0.0000
0.1042 0.0606 0.0000
0.1042 0.0657 0.0000
0.1042 0.0707 0.0000
0.1042 0.0758 0.0000
0.1042 0.0808 0.0000
0.1042 0.0859 0.0000
0.1042 0.0909 0.0000
0.1042 0.0960 0.0000
0.1042 0.1010 0.0000
0.1042 0.1061 0.0000
0.1042 0.1111 0.0000
0.1042 0.1162 0.0000
0.1042 0.1212 0.0000
0.1042 0.1263 0.0000
0.1042 0.1313 0.0000
0.1042 0.1364 0.0000
0.1042 0.1414 0.0000
0.1042 0.1465 0.0000
0.1042 0.1515 0.0000
0.1042 0.1566 0.0000
0.1042 0.1616 0.0000
0.1042 0.1667 0.0000
0.1042 0.1717 0.0000
0.1042 0.1768 0.0000
0.1042 0.1818 0.0000
0.1042 0.1869 0.0000
0.1042 0.1919 0.0000
0.1042 0.1970 0.0000
0.1042 0.2020 0.0000
0.1042 0.2071 0.0000
0.1042 0.2121 0.0000
0.1042 0.2172 0.0000
0.1042 0.2222 0.0000
0.1042 0.2273 0.0000
0.1042 0.2323 0.0000
0.1042 0.2374 0.0000
0.1042 0.2424 0.0000
0.1042 0.2475 0.0000
0.1042 0.2525 0.0000
0.1042 0.2576 0.0000
0.1042 0.2626 0.0000
0.1042 0.2677 0.0000
0.1042 0.2727 0.0000
0.1042 0.2778 0.0000
0.1042 0.2828 0.0000
0.1042 0.2879 0.0000
0.1042 0.2929 0.0000
0.1042 0.2980 0.0000
0.1042 0.3030 0.0000
0.1042 0.3081 0.0000
0.1042 0.3131 0.0000
0.1042 0.3182 0.0000
0.1042 0.3232 0.0000
0.1042 0.3283 0.0000
0.1042 0.3333 0.0000
0.1042 0.3384 0.0000
0.1042 0.3434 0.0000
0.1042 0.3485 0.0000
0.1042 0.3535 0.0000
0.1042 0.3586 0.0000
0.1042 0.3636 0.0000
0.1042 0.3687 0.0000
0.1042 0.3737 0.0000
0.1042 0.3788 0.0000
0.1042 0.3838 0.0000
0.1042 0.3889 0.0000
0.1042 0.3939 0.0000
0.1042 0.3990 0.0000
0.1042 0.4040 0.0000
0.1042 0.4091 0.0000
0.1042 0.4141 0.0000
0.1042 0.4192 0.0000
0.1042 0.4242 0.0000
0.1042 0.4293 0.0000
0.1042 0.4343 0.0000
0.1042 0.4394 0.0000
0.1042 0.4444 0.0000
0.1042 0.4495 0.0000
0.1042 0.4545 0.0000
0.1042 0.4596 0.0000
0.1042 0.4646 0.0000
0.1042 0.4697 0.0000
0.1042 0.4747 0.0000
0.1042 0.4798 0.0000
0.1042 0.4848 0.0000
0.1042 0.4899 0.0000
0.1042 0.4949 0.0000
0.1042 0.5000 0.0000
0.1250 0.0000 0.0000
0.1250 0.0051 0.0000
0.1250 0.0101 0.0000
0.1250 0.0152 0.0000
0.1250 0.0202 0.0000
0.1250 0.0253 0.0000
0.1250 0.0303 0.0000
0.1250 0.0354 0.0000
0.1250 0.0404 0.0000
0.1250 0.0455 0.0000
0.1250 0.0505 0.0000
0.1250 0.0556 0.0000
0.1250 0.0606 0.0000
0.1250 0.0657 0.0000
0.1250 0.0707 0.0000
0.1250 0.0758 0.0000
0.1250 0.0808 0.0000
0.1250 0.0859 0.0000
0.1250 0.0909 0.0000
0.1250 0.0960 0.0000
0.1250 0.1010 0.0000
0.1250 0.1061 0.0000
0.1250 0.1111 0.0000
0.1250 0.1162 0.0000
0.1250 0.1212 0.0000
0.1250 0.1263 0.0000
0.1250 0.1313 0.0000
0.1250 0.1364 0.0000
0.1250 0.1414 0.0000
0.1250 0.1465 0.0000
0.1250 0.1515 0.0000
0.1250 0.1566 0.0000
0.1250 0.1616 0.0000
0.1250 0.1667 0.0000
0.1250 0.1717 0.0000
0.1250 0.1768 0.0000
0.1250 0.1818 0.0000
0.1250 0.1869 0.0000
0.1250 0.1919 0.0000
0.1250 0.1970 0.0000
0.1250 0.2020 0.0000
0.1250 0.2071 0.0000
0.1250 0.2121 0.0000
0.1250 0.2172 0.0000
0.1250 0.2222 0.0000
0.1250 0.2273 0.0000
0.1250 0.2323 0.0000
0.1250 0.2374 0.0000
0.1250 0.2424 0.0000
0.1250 0.2475 0.0000
0.1250 0.2525 0.0000
0.1250 0.2576 0.0000
0.1250 0.2626 0.0000
0.1250 0.2677 0.0000
0.1250 0.2727 0.0000
0.1250 0.2778 0.0000
0.1250 0.2828 0.0000
0.1250 0.2879 0.0000
0.1250 0.2929 0.0000
0.1250 0.2980 0.0000
0.1250 0.3030 0.0000
0.1250 0.3081 0.0000
0.1250 0.3131 0.0000
0.1250 0.3182 0.0000
0.1250 0.3232 0.0000
0.1250 0.3283 0.0000
0.1250 0.3333 0.0000
0.1250 0.3384 0.0000
0.1250 0.3434 0.0000
0.1250 0.3485 0.0000
0.1250 0.3535 0.0000
0.1250 0.3586 0.0000
0.1250 0.3636 0.0000
0.1250 0.3687 0.0000
0.1250 0.3737 0.0000
0.1250 0.3788 0.0000
0.1250 0.3838 0.0000
0.1250 0.3889 0.0000
0.1250 0.3939 0.0000
0.1250 0.3990 0.0000
0.1250 0.4040 0.0000
0.1250 0.4091 0.0000
0.1250 0.4141 0.0000
0.1250 0.4192 0.0000
0.1250 0.4242 0.0000
0.1250 0.4293 0.0000
0.1250 0.4343 0.0000
0.1250 0.4394 0.0000
0.1250 0.4444 0.0000
0.1250 0.4495 0.0000
0.1250 0.4545 0.0000
0.1250 0.4596 0.0000
0.1250 0.4646 0.0000
0.1250 0.4697 0.0000
0.1250 0.4747 0.0000
0.1250 0.4798 0.0000
0.1250 0.4848 0.0000
0.1250 0.4899 0.0000
0.1250 0.4949 0.0000
0.1250 0.5000 0.0000
0.1458 0.0000 0.0000
0.1458 0.0051 0.0000
0.1458 0.0101 0.0000
0.1458 0.0152 0.0000
0.1458 0.0202 0.0000
0.1458 0.0253 0.0000
0.1458 0.0303 0.0000
0.1458 0.0354 0.0000
0.1458 0.0404 0.0000
0.1458 0.0455 0.0000
0.1458 0.0505 0.0000
0.1458 0.0556 0.0000
0.1458 0.0606 0.0000
0.1458 0.0657 0.0000
0.1458 0.0707 0.0000
0.1458 0.0758 0.0000
0.1458 0.0808 0.0000
0.1458 0.0859 0.0000
0.1458 0.0909 0.0000
0.1458 0.0960 0.0000
0.1458 0.1010 0.0000
0.1458 0.1061 0.0000
0.1458 0.1111 0.0000
0.1458 0.1162 0.0000
0.1458 0.1212 0.0000
0.1458 0.1263 0.0000
0.1458 0.1313 0.0000
0.1458 0.1364 0.0000
0.1458 0.1414 0.0000
0.1458 0.1465 0.0000
0.1458 0.1515 0.0000
0.1458 0.1566 0.0000
0.1458 0.1616 0.0000
0.1458 0.1667 0.0000
0.1458 0.1717 0.0000
0.1458 0.1768 0.0000
0.1458 0.1818 0.0000
0.1458 0.1869 0.0000
0.1458 0.1919 0.0000
0.1458 0.1970 0.0000
0.1458 0.2020 0.0000
0.1458 0.2071 0.0000
0.1458 0.2121 0.0000
0.1458 0.2172 0.0000
0.1458 0.2222 0.0000
0.1458 0.2273 0.0000
0.1458 0.2323 0.0000
0.1458 0.2374 0.0000
0.1458 0.2424 0.0000
0.1458 0.2475 0.0000
0.1458 0.2525 0.0000
0.1458 0.2576 0.0000
0.1458 0.2626 0.0000
0.1458 0.2677 0.0000
0.1458 0.2727 0.0000
0.1458 0.2778 0.0000
0.1458 0.2828 0.0000
0.1458 0.2879 0.0000
0.1458 0.2929 0.0000
0.1458 0.2980 0.0000
0.1458 0.3030 0.0000
0.1458 0.3081 0.0000
0.1458 0.3131 0.0000
0.1458 0.3182 0.0000
0.1458 0.3232 0.0000
0.1458 0.3283 0.0000
0.1458 0.3333 0.0000
0.1458 0.3384 0.0000
0.1458 0.3434 0.0000
0.1458 0.3485 0.0000
0.1458 0.3535 0.0000
0.1458 0.3586 0.0000
0.1458 0.3636 0.0000
0.1458 0.3687 0.0000
0.1458 0.3737 0.0000
0.1458 0.3788 0.0000
0.1458 0.3838 0.0000
0.1458 0.3889 0.0000
0.1458 0.3939 0.0000
0.1458 0.3990 0.0000
0.1458 0.4040 0.0000
0.1458 0.4091 0.0000
0.1458 0.4141 0.0000
0.1458 0.4192 0.0000
0.1458 0.4242 0.0000
0.1458 0.4293 0.0000
0.1458 0.4343 0.0000
0.1458 0.4394 0.0000
0.1458 0.4444 0.0000
0.1458 0.4495 0.0000
0.1458 0.4545 0.0000
0.1458 0.4596 0.0000
0.1458 0.4646 0.0000
0.1458 0.4697 0.0000
0.1458 0.4747 0.0000
0.1458 0.4798 0.0000
0.1458 0.4848 0.0000
0.1458 0.4899 0.0000
0.1458 0.4949 0.0000
0.1458 0.5000 0.0000
0.1667 0.0000 0.0000
0.1667 0.0051 0.0000
0.1667 0.0101 0.0000
0.1667 0.0152 0.0000
0.1667 0.0202 0.0000
0.1667 0.0253 0.0000
0.1667 0.0303 0.0000
0.1667 0.0354 0.0000
0.1667 0.0404 0.0000
0.1667 0.0455 0.0000
0.1667 0.0505 0.0000
0.1667 0.0556 0.0000
0.1667 0.0606 0.0000
0.1667 0.0657 0.0000
0.1667 0.0707 0.0000
0.1667 0.0758 0.0000
0.1667 0.0808 0.0000
0.1667 0.0859 0.0000
0.1667 0.0909 0.0000
0.1667 0.0960 0.0000
0.1667 0.1010 0.0000
0.1667 0.1061 0.0000
0.1667 0.1111 0.0000
0.1667 0.1162 0.0000
0.1667 0.1212 0.0000
0.1667 0.1263 0.0000
0.1667 0.1313 0.0000
0.1667 0.1364 0.0000
0.1667 0.1414 0.0000
0.1667 0.1465 0.0000
0.1667 0.1515 0.0000
0.1667 0.1566 0.0000
0.1667 0.1616 0.0000
0.1667 0.1667 0.0000
0.1667 0.1717 0.0000
0.1667 0.1768 0.0000
0.1667 0.1818 0.0000
0.1667 0.1869 0.0000
0.1667 0.1919 0.0000
0.1667 0.1970 0.0000
0.1667 0.2020 0.0000
0.1667 0.2071 0.0000
0.1667 0.2121 0.0000
0.1667 0.2172 0.0000
0.1667 0.2222 0.0000
0.1667 0.2273 0.0000
0.1667 0.2323 0.0000
0.1667 0.2374 0.0000
0.1667 0.2424 0.0000
0.1667 0.2475 0.0000
0.1667 0.2525 0.0000
0.1667 0.2576 0.0000
0.1667 0.2626 0.0000
0.1667 0.2677 0.0000
0.1667 0.2727 0.0000
0.1667 0.2778 0.0000
0.1667 0.2828 0.0000
0.1667 0.2879 0.0000
0.1667 0.2929 0.0000
0.1667 0.2980 0.0000
0.1667 0.3030 0.0000
0.1667 0.3081 0.0000
0.1667 0.3131 0.0000
0.1667 0.3182 0.0000
0.1667 0.3232 0.0000
0.1667 0.3283 0.0000
0.1667 0.3333 0.0000
0.1667 0.3384 0.0000
0.1667 0.3434 0.0000
0.1667 0.3485 0.0000
0.1667 0.3535 0.0000
0.1667 0.3586 0.0000
0.1667 0.3636 0.0000
0.1667 0.3687 0.0000
0.1667 0.3737 0.0000
0.1667 0.3788 0.0000
0.1667 0.3838 0.0000
0.1667 0.3889 0.0000
0.1667 0.3939 0.0000
0.1667 0.3990 0.0000
0.1667 0.4040 0.0000
0.1667 0.4091 0.0000
0.1667 0.4141 0.0000
0.1667 0.4192 0.0000
0.1667 0.4242 0.0000
0.1667 0.4293 0.0000
0.1667 0.4343 0.0000
0.1667 0.4394 0.0000
0.1667 0.4444 0.0000
0.1667 0.4495 0.0000
0.1667 0.4545 0.0000
0.1667 0.4596 0.0000
0.1667 0.4646 0.0000
0.1667 0.4697 0.0000
0.1667 0.4747 0.0000
0.1667 0.4798 0.0000
0.1667 0.4848 0.0000
0.1667 0.4899 0.0000
0.1667 0.4949 0.0000
0.1667 0.5000 0.0000
0.1875 0.0000 0.0000
0.1875 0.0051 0.0000
0.1875 0.0101 0.0000
0.1875 0.0152 0.0000
0.1875 0.0202 0.0000
0.1875 0.0253 0.0000
0.1875 0.0303 0.0000
0.1875 0.0354 0.0000
0.1875 0.0404 0.0000
0.1875 0.0455 0.0000
0.1875 0.0505 0.0000
0.1875 0.0556 0.0000
0.1875 0.0606 0.0000
0.1875 0.0657 0.0000
0.1875 0.0707 0.0000
0.1875 0.0758 0.0000
0.1875 0.0808 0.0000
0.1875 0.0859 0.0000
0.1875 0.0909 0.0000
0.1875 0.0960 0.0000
0.1875 0.1010 0.0000
0.1875 0.1061 0.0000
0.1875 0.1111 0.0000
0.1875 0.1162 0.0000
0.1875 0.1212 0.0000
0.1875 0.1263 0.0000
0.1875 0.1313 0.0000
0.1875 0.1364 0.0000
0.1875 0.1414 0.0000
0.1875 0.1465 0.0000
0.1875 0.1515 0.0000
0.1875 0.1566 0.0000
0.1875 0.1616 0.0000
0.1875 0.1667 0.0000
0.1875 0.1717 0.0000
0.1875 0.1768 0.0000
0.1875 0.1818 0.0000
0.1875 0.1869 0.0000
0.1875 0.1919 0.0000
0.1875 0.1970 0.0000
0.1875 0.2020 0.0000
0.1875 0.2071 0.0000
0.1875 0.2121 0.0000
0.1875 0.2172 0.0000
0.1875 0.2222 0.0000
0.1875 0.2273 0.0000
0.1875 0.2323 0.0000
0.1875 0.2374 0.0000
0.1875 0.2424 0.0000
0.1875 0.2475 0.0000
0.1875 0.2525 0.0000
0.1875 0.2576 0.0000
0.1875 0.2626 0.0000
0.1875 0.2677 0.0000
0.1875 0.2727 0.0000
0.1875 0.2778 0.0000
0.1875 0.2828 0.0000
0.1875 0.2879 0.0000
0.1875 0.2929 0.0000
0.1875 0.2980 0.0000
0.1875 0.3030 0.0000
0.1875 0.3081 0.0000
0.1875 0.3131 0.0000
0.1875 0.3182 0.0000
0.1875 0.3232 0.0000
0.1875 0.3283 0.0000
0.1875 0.3333 0.0000
0.1875 0.3384 0.0000
0.1875 0.3434 0.0000
0.1875 0.3485 0.0000
0.1875 0.3535 0.0000
0.1875 0.3586 0.0000
0.1875 0.3636 0.0000
0.1875 0.3687 0.0000
0.1875 0.3737 0.0000
0.1875 0.3788 0.0000
0.1875 0.3838 0.0000
0.1875 0.3889 0.0000
0.1875 0.3939 0.0000
0.1875 0.3990 0.0000
0.1875 0.4040 0.0000
0.1875 0.4091 0.0000
0.1875 0.4141 0.0000
0.1875 0.4192 0.0000
0.1875 0.4242 0.0000
0.1875 0.4293 0.0000
0.1875 0.4343 0.0000
0.1875 0.4394 0.0000
0.1875 0.4444 0.0000
0.1875 0.4495 0.0000
0.1875 0.4545 0.0000
0.1875 0.4596 0.0000
0.1875 0.4646 0.0000
0.1875 0.4697 0.0000
0.1875 0.4747 0.0000
0.1875 0.4798 0.0000
0.1875 0.4848 0.0000
0.1875 0.4899 0.0000
0.1875 0.4949 0.0000
0.1875 0.5000 0.0000
0.2083 0.0000 0.0000
0.2083 0.0051 0.0000
0.2083 0.0101 0.0000
0.2083 0.0152 0.0000
0.2083 0.0202 0.0000
0.2083 0.0253 0.0000
0.2083 0.0303 0.0000
0.2083 0.0354 0.0000
0.2083 0.0404 0.0000
0.2083 0.0455 0.0000
0.2083 0.0505 0.0000
0.2083 0.0556 0.0000
0.2083 0.0606 0.0000
0.2083 0.0657 0.0000
0.2083 0.0707 0.0000
0.2083 0.0758 0.0000
0.2083 0.0808 0.0000
0.2083 0.0859 0.0000
0.2083 0.0909 0.0000
0.2083 0.0960 0.0000
0.2083 0.1010 0.0000
0.2083 0.1061 0.0000
0.2083 0.1111 0.0000
0.2083 0.1162 0.0000
0.2083 0.1212 0.0000
0.2083 0.1263 0.0000
0.2083 0.1313 0.0000
0.2083 0.1364 0.0000
0.2083 0.1414 0.0000
0.2083 0.1465 0.0000
0.2083 0.1515 0.0000
0.2083 0.1566 0.0000
0.2083 0.1616 0.0000
0.2083 0.1667 0.0000
0.2083 0.1717 0.0000
0.2083 0.1768 0.0000
0.2083 0.1818 0.0000
0.2083 0.1869 0.0000
0.2083 0.1919 0.0000
0.2083 0.1970 0.0000
0.2083 0.2020 0.0000
0.2083 0.2071 0.0000
0.2083 0.2121 0.0000
0.2083 0.2172 0.0000
0.2083 0.2222 0.0000
0.2083 0.2273 0.0000
0.2083 0.2323 0.0000
0.2083 0.2374 0.0000
0.2083 0.2424 0.0000
0.2083 0.2475 0.0000
0.2083 0.2525 0.0000
0.2083 0.2576 0.0000
0.2083 0.2626 0.0000
0.2083 0.2677 0.0000
0.2083 0.2727 0.0000
0.2083 0.2778 0.0000
0.2083 0.2828 0.0000
0.2083 0.2879 0.0000
0.2083 0.2929 0.0000
0.2083 0.2980 0.0000
0.2083 0.3030 0.0000
0.2083 0.3081 0.0000
0.2083 0.3131 0.0000
0.2083 0.3182 0.0000
0.2083 0.3232 0.0000
0.2083 0.3283 0.0000
0.2083 0.3333 0.0000
0.2083 0.3384 0.0000
0.2083 0.3434 0.0000
0.2083 0.3485 0.0000
0.2083 0.3535 0.0000
0.2083 0.3586 0.0000
0.2083 0.3636 0.0000
0.2083 0.3687 0.0000
0.2083 0.3737 0.0000
0.2083 0.3788 0.0000
0.2083 0.3838 0.0000
0.2083 0.3889 0.0000
0.2083 0.3939 0.0000
0.2083 0.3990 0.0000
0.2083 0.4040 0.0000
0.2083 0.4091 0.0000
0.2083 0.4141 0.0000
0.2083 0.4192 0.0000
0.2083 0.4242 0.0000
0.2083 0.4293 0.0000
0.2083 0.4343 0.0000
0.2083 0.4394 0.0000
0.2083 0.4444 0.0000
0.2083 0.4495 0.0000
0.2083 0.4545 0.0000
0.2083 0.4596 0.0000
0.2083 0.4646 0.0000
0.2083 0.4697 0.0000
0.2083 0.4747 0.0000
0.2083 0.4798 0.0000
0.2083 0.4848 0.0000
0.2083 0.4899 0.0000
0.2083 0.4949 0.0000
0.2083 0.5000 0.0000
0.2292 0.0000 0.0000
0.2292 0.0051 0.0000
0.2292 0.0101 0.0000
0.2292 0.0152 0.0000
0.2292 0.0202 0.0000
0.2292 0.0253 0.0000
0.2292 0.0303 0.0000
0.2292 0.0354 0.0000
0.2292 0.0404 0.0000
0.2292 0.0455 0.0000
0.2292 0.0505 0.0000
0.2292 0.0556 0.0000
0.2292 0.0606 0.0000
0.2292 0.0657 0.0000
0.2292 0.0707 0.0000
0.2292 0.0758 0.0000
0.2292 0.0808 0.0000
0.2292 0.0859 0.0000
0.2292 0.0909 0.0000
0.2292 0.0960 0.0000
0.2292 0.1010 0.0000
0.2292 0.1061 0.0000
0.2292 0.1111 0.0000
0.2292 0.1162 0.0000
0.2292 0.1212 0.0000
0.2292 0.1263 0.0000
0.2292 0.1313 0.0000
0.2292 0.1364 0.0000
0.2292 0.1414 0.0000
0.2292 0.1465 0.0000
0.2292 0.1515 0.0000
0.2292 0.1566 0.0000
0.2292 0.1616 0.0000
0.2292 0.1667 0.0000
0.2292 0.1717 0.0000
0.2292 0.1768 0.0000
0.2292 0.1818 0.0000
0.2292 0.1869 0.0000
0.2292 0.1919 0.0000
0.2292 0.1970 0.0000
0.2292 0.2020 0.0000
0.2292 0.2071 0.0000
0.2292 0.2121 0.0000
0.2292 0.2172 0.0000
0.2292 0.2222 0.0000
0.2292 0.2273 0.0000
0.2292 0.2323 0.0000
0.2292 0.2374 0.0000
0.2292 0.2424 0.0000
0.2292 0.2475 0.0000
0.2292 0.2525 0.0000
0.2292 0.2576 0.0000
0.2292 0.2626 0.0000
0.2292 0.2677 0.0000
0.2292 0.2727 0.0000
0.2292 0.2778 0.0000
0.2292 0.2828 0.0000
0.2292 0.2879 0.0000
0.2292 0.2929 0.0000
0.2292 0.2980 0.0000
0.2292 0.3030 0.0000
0.2292 0.3081 0.0000
0.2292 0.3131 0.0000
0.2292 0.3182 0.0000
0.2292 0.3232 0.0000
0.2292 0.3283 0.0000
0.2292 0.3333 0.0000
0.2292 0.3384 0.0000
0.2292 0.3434 0.0000
0.2292 0.3485 0.0000
0.2292 0.3535 0.0000
0.2292 0.3586 0.0000
0.2292 0.3636 0.0000
0.2292 0.3687 0.0000
0.2292 0.3737 0.0000
0.2292 0.3788 0.0000
0.2292 0.3838 0.0000
0.2292 0.3889 0.0000
0.2292 0.3939 0.0000
0.2292 0.3990 0.0000
0.2292 0.4040 0.0000
0.2292 0.4091 0.0000
0.2292 0.4141 0.0000
0.2292 0.4192 0.0000
0.2292 0.4242 0.0000
0.2292 0.4293 0.0000
0.2292 0.4343 0.0000
0.2292 0.4394 0.0000
0.2292 0.4444 0.0000
0.2292 0.4495 0.0000
0.2292 0.4545 0.0000
0.2292 0.4596 0.0000
0.2292 0.4646 0.0000
0.2292 0.4697 0.0000
0.2292 0.4747 0.0000
0.2292 0.4798 0.0000
0.2292 0.4848 0.0000
0.2292 0.4899 0.0000
0.2292 0.4949 0.0000
0.2292 0.5000 0.0000
0.2500 0.0000 0.0000
0.2500 0.0051 0.0000
0.2500 0.0101 0.0000
0.2500 0.0152 0.0000
0.2500 0.0202 0.0000
0.2500 0.0253 0.0000
0.2500 0.0303 0.0000
0.2500 0.0354 0.0000
0.2500 0.0404 0.0000
0.2500 0.0455 0.0000
0.2500 0.0505 0.0000
0.2500 0.0556 0.0000
0.2500 0.0606 0.0000
0.2500 0.0657 0.0000
0.2500 0.0707 0.0000
0.2500 0.0758 0.0000
0.2500 0.0808 0.0000
0.2500 0.0859 0.0000
0.2500 0.0909 0.0000
0.2500 0.0960 0.0000
0.2500 0.1010 0.0000
0.2500 0.1061 0.0000
0.2500 0.1111 0.0000
0.2500 0.1162 0.0000
0.2500 0.1212 0.0000
0.2500 0.1263 0.0000
0.2500 0.1313 0.0000
0.2500 0.1364 0.0000
0.2500 0.1414 0.0000
0.2500 0.1465 0.0000
0.2500 0.1515 0.0000
0.2500 0.1566 0.0000
0.2500 0.1616 0.0000
0.2500 0.1667 0.0000
0.2500 0.1717 0.0000
0.2500 0.1768 0.0000
0.2500 0.1818 0.0000
0.2500 0.1869 0.0000
0.2500 0.1919 0.0000
0.2500 0.1970 0.0000
0.2500 0.2020 0.0000
0.2500 0.2071 0.0000
0.2500 0.2121 0.0000
0.2500 0.2172 0.0000
0.2500 0.2222 0.0000
0.2500 0.2273 0.0000
0.2500 0.2323 0.0000
0.2500 0.2374 0.0000
0.2500 0.2424 0.0000
0.2500 0.2475 0.0000
0.2500 0.2525 0.0000
0.2500 0.2576 0.0000
0.2500 0.2626 0.0000
0.2500 0.2677 0.0000
0.2500 0.2727 0.0000
0.2500 0.2778 0.0000
0.2500 0.2828 0.0000
0.2500 0.2879 0.0000
0.2500 0.2929 0.0000
0.2500 0.2980 0.0000
0.2500 0.3030 0.0000
0.2500 0.3081 0.0000
0.2500 0.3131 0.0000
0.2500 0.3182 0.0000
0.2500 0.3232 0.0000
0.2500 0.3283 0.0000
0.2500 0.3333 0.0000
0.2500 0.3384 0.0000
0.2500 0.3434 0.0000
0.2500 0.3485 0.0000
0.2500 0.3535 0.0000
0.2500 0.3586 0.0000
0.2500 0.3636 0.0000
0.2500 0.3687 0.0000
0.2500 0.3737 0.0000
0.2500 0.3788 0.0000
0.2500 0.3838 0.0000
0.2500 0.3889 0.0000
0.2500 0.3939 0.0000
0.2500 0.3990 0.0000
0.2500 0.4040 0.0000
0.2500 0.4091 0.0000
0.2500 0.4141 0.0000
0.2500 0.4192 0.0000
0.2500 0.4242 0.0000
0.2500 0.4293 0.0000
0.2500 0.4343 0.0000
0.2500 0.4394 0.0000
0.2500 0.4444 0.0000
0.2500 0.4495 0.0000
0.2500 0.4545 0.0000
0.2500 0.4596 0.0000
0.2500 0.4646 0.0000
0.2500 0.4697 0.0000
0.2500 0.4747 0.0000
0.2500 0.4798 0.0000
0.2500 0.4848 0.0000
0.2500 0.4899 0.0000
0.2500 0.4949 0.0000
0.2500 0.5000 0.0000
0.2708 0.0000 0.0000
0.2708 0.0051 0.0000
0.2708 0.0101 0.0000
0.2708 0.0152 0.0000
0.2708 0.0202 0.0000
0.2708 0.0253 0.0000
0.2708 0.0303 0.0000
0.2708 0.0354 0.0000
0.2708 0.0404 0.0000
0.2708 0.0455 0.0000
0.2708 0.0505 0.0000
0.2708 0.0556 0.0000
0.2708 0.0606 0.0000
0.2708 0.0657 0.0000
0.2708 0.0707 0.0000
0.2708 0.0758 0.0000
0.2708 0.0808 0.0000
0.2708 0.0859 0.0000
0.2708 0.0909 0.0000
0.2708 0.0960 0.0000
0.2708 0.1010 0.0000
0.2708 0.1061 0.0000
0.2708 0.1111 0.0000
0.2708 0.1162 0.0000
0.2708 0.1212 0.0000
0.2708 0.1263 0.0000
0.2708 0.1313 0.0000
0.2708 0.1364 0.0000
0.2708 0.1414 0.0000
0.2708 0.1465 0.0000
0.2708 0.1515 0.0000
0.2708 0.1566 0.0000
0.2708 0.1616 0.0000
0.2708 0.1667 0.0000
0.2708 0.1717 0.0000
0.2708 0.1768 0.0000
0.2708 0.1818 0.0000
0.2708 0.1869 0.0000
0.2708 0.1919 0.0000
0.2708 0.1970 0.0000
0.2708 0.2020 0.0000
0.2708 0.2071 0.0000
0.2708 0.2121 0.0000
0.2708 0.2172 0.0000
0.2708 0.2222 0.0000
0.2708 0.2273 0.0000
0.2708 0.2323 0.0000
0.2708 0.2374 0.0000
0.2708 0.2424 0.0000
0.2708 0.2475 0.0000
0.2708 0.2525 0.0000
0.2708 0.2576 0.0000
0.2708 0.2626 0.0000
0.2708 0.2677 0.0000
0.2708 0.2727 0.0000
0.2708 0.2778 0.0000
0.2708 0.2828 0.0000
0.2708 0.2879 0.0000
0.2708 0.2929 0.0000
0.2708 0.2980 0.0000
0.2708 0.3030 0.0000
0.2708 0.3081 0.0000
0.2708 0.3131 0.0000
0.2708 0.3182 0.0000
0.2708 0.3232 0.0000
0.2708 0.3283 0.0000
0.2708 0.3333 0.0000
0.2708 0.3384 0.0000
0.2708 0.3434 0.0000
0.2708 0.3485 0.0000
0.2708 0.3535 0.0000
0.2708 0.3586 0.0000
0.2708 0.3636 0.0000
0.2708 0.3687 0.0000
0.2708 0.3737 0.0000
0.2708 0.3788 0.0000
0.2708 0.3838 0.0000
0.2708 0.3889 0.0000
0.2708 0.3939 0.0000
0.2708 0.3990 0.0000
0.2708 0.4040 0.0000
0.2708 0.4091 0.0000
0.2708 0.4141 0.0000
0.2708 0.4192 0.0000
0.2708 0.4242 0.0000
0.2708 0.4293 0.0000
0.2708 0.4343 0.0000
0.2708 0.4394 0.0000
0.2708 0.4444 0.0000
0.2708 0.4495 0.0000
0.2708 0.4545 0.0000
0.2708 0.4596 0.0000
0.2708 0.4646 0.0000
0.2708 0.4697 0.0000
0.2708 0.4747 0.0000
0.2708 0.4798 0.0000
0.2708 0.4848 0.0000
0.2708 0.4899 0.0000
0.2708 0.4949 0.0000
0.2708 0.5000 0.0000
0.2917 0.0000 0.0000
0.2917 0.0051 0.0000
0.2917 0.0101 0.0000
0.2917 0.0152 0.0000
0.2917 0.0202 0.0000
0.2917 0.0253 0.0000
0.2917 0.0303 0.0000
0.2917 0.0354 0.0000
0.2917 0.0404 0.0000
0.2917 0.0455 0.0000
0.2917 0.0505 0.0000
0.2917 0.0556 0.0000
0.2917 0.0606 0.0000
0.2917 0.0657 0.0000
0.2917 0.0707 0.0000
0.2917 0.0758 0.0000
0.2917 0.0808 0.0000
0.2917 0.0859 0.0000
0.2917 0.0909 0.0000
0.2917 0.0960 0.0000
0.2917 0.1010 0.0000
0.2917 0.1061 0.0000
0.2917 0.1111 0.0000
0.2917 0.1162 0.0000
0.2917 0.1212 0.0000
0.2917 0.1263 0.0000
0.2917 0.1313 0.0000
0.2917 0.1364 0.0000
0.2917 0.1414 0.0000
0.2917 0.1465 0.0000
0.2917 0.1515 0.0000
0.2917 0.1566 0.0000
0.2917 0.1616 0.0000
0.2917 0.1667 0.0000
0.2917 0.1717 0.0000
0.2917 0.1768 0.0000
0.2917 0.1818 0.0000
0.2917 0.1869 0.0000
0.2917 0.1919 0.0000
0.2917 0.1970 0.0000
0.2917 0.2020 0.0000
0.2917 0.2071 0.0000
0.2917 0.2121 0.0000
0.2917 0.2172 0.0000
0.2917 0.2222 0.0000
0.2917 0.2273 0.0000
0.2917 0.2323 0.0000
0.2917 0.2374 0.0000
0.2917 0.2424 0.0000
0.2917 0.2475 0.0000
0.2917 0.2525 0.0000
0.2917 0.2576 0.0000
0.2917 0.2626 0.0000
0.2917 0.2677 0.0000
0.2917 0.2727 0.0000
0.2917 0.2778 0.0000
0.2917 0.2828 0.0000
0.2917 0.2879 0.0000
0.2917 0.2929 0.0000
0.2917 0.2980 0.0000
0.2917 0.3030 0.0000
0.2917 0.3081 0.0000
0.2917 0.3131 0.0000
0.2917 0.3182 0.0000
0.2917 0.3232 0.0000
0.2917 0.3283 0.0000
0.2917 0.3333 0.0000
0.2917 0.3384 0.0000
0.2917 0.3434 0.0000
0.2917 0.3485 0.0000
0.2917 0.3535 0.0000
0.2917 0.3586 0.0000
0.2917 0.3636 0.0000
0.2917 0.3687 0.0000
0.2917 0.3737 0.0000
0.2917 0.3788 0.0000
0.2917 0.3838 0.0000
0.2917 0.3889 0.0000
0.2917 0.3939 0.0000
0.2917 0.3990 0.0000
0.2917 0.4040 0.0000
0.2917 0.4091 0.0000
0.2917 0.4141 0.0000
0.2917 0.4192 0.0000
0.2917 0.4242 0.0000
0.2917 0.4293 0.0000
0.2917 0.4343 0.0000
0.2917 0.4394 0.0000
0.2917 0.4444 0.0000
0.2917 0.4495 0.0000
0.2917 0.4545 0.0000
0.2917 0.4596 0.0000
0.2917 0.4646 0.0000
0.2917 0.4697 0.0000
0.2917 0.4747 0.0000
0.2917 0.4798 0.0000
0.2917 0.4848 0.0000
0.2917 0.4899 0.0000
0.2917 0.4949 0.0000
0.2917 0.5000 0.0000
0.3125 0.0000 0.0000
0.3125 0.0051 0.0000
0.3125 0.0101 0.0000
0.3125 0.0152 0.0000
0.3125 0.0202 0.0000
0.3125 0.0253 0.0000
0.3125 0.0303 0.0000
0.3125 0.0354 0.0000
0.3125 0.0404 0.0000
0.3125 0.0455 0.0000
0.3125 0.0505 0.0000
0.3125 0.0556 0.0000
0.3125 0.0606 0.0000
0.3125 0.0657 0.0000
0.3125 0.0707 0.0000
0.3125 0.0758 0.0000
0.3125 0.0808 0.0000
0.3125 0.0859 0.0000
0.3125 0.0909 0.0000
0.3125 0.0960 0.0000
0.3125 0.1010 0.0000
0.3125 0.1061 0.0000
0.3125 0.1111 0.0000
0.3125 0.1162 0.0000
0.3125 0.1212 0.0000
0.3125 0.1263 0.0000
0.3125 0.1313 0.0000
0.3125 0.1364 0.0000
0.3125 0.1414 0.0000
0.3125 0.1465 0.0000
0.3125 0.1515 0.0000
0.3125 0.1566 0.0000
0.3125 0.1616 0.0000
0.3125 0.1667 0.0000
0.3125 0.1717 0.0000
0.3125 0.1768 0.0000
0.3125 0.1818 0.0000
0.3125 0.1869 0.0000
0.3125 0.1919 0.0000
0.3125 0.1970 0.0000
0.3125 0.2020 0.0000
0.3125 0.2071 0.0000
0.3125 0.2121 0.0000
0.3125 0.2172 0.0000
0.3125 0.2222 0.0000
0.3125 0.2273 0.0000
0.3125 0.2323 0.0000
0.3125 0.2374 0.0000
0.3125 0.2424 0.0000
0.3125 0.2475 0.0000
0.3125 0.2525 0.0000
0.3125 0.2576 0.0000
0.3125 0.2626 0.0000
0.3125 0.2677 0.0000
0.3125 0.2727 0.0000
0.3125 0.2778 0.0000
0.3125 0.2828 0.0000
0.3125 0.2879 0.0000
0.3125 0.2929 0.0000
0.3125 0.2980 0.0000
0.3125 0.3030 0.0000
0.3125 0.3081 0.0000
0.3125 0.3131 0.0000
0.3125 0.3182 0.0000
0.3125 0.3232 0.0000
0.3125 0.3283 0.0000
0.3125 0.3333 0.0000
0.3125 0.3384 0.0000
0.3125 0.3434 0.0000
0.3125 0.3485 0.0000
0.3125 0.3535 0.0000
0.3125 0.3586 0.0000
0.3125 0.3636 0.0000
0.3125 0.3687 0.0000
0.3125 0.3737 0.0000
0.3125 0.3788 0.0000
0.3125 0.3838 0.0000
0.3125 0.3889 0.0000
0.3125 0.3939 0.0000
0.3125 0.3990 0.0000
0.3125 0.4040 0.0000
0.3125 0.4091 0.0000
0.3125 0.4141 0.0000
0.3125 0.4192 0.0000
0.3125 0.4242 0.0000
0.3125 0.4293 0.0000
0.3125 0.4343 0.0000
0.3125 0.4394 0.0000
0.3125 0.4444 0.0000
0.3125 0.4495 0.0000
0.3125 0.4545 0.0000
0.3125 0.4596 0.0000
0.3125 0.4646 0.0000
0.3125 0.4697 0.0000
0.3125 0.4747 0.0000
0.3125 0.4798 0.0000
0.3125 0.4848 0.0000
0.3125 0.4899 0.0000
0.3125 0.4949 0.0000
0.3125 0.5000 0.0000
0.3333 0.0000 0.0000
0.3333 0.0051 0.0000
0.3333 0.0101 0.0000
0.3333 0.0152 0.0000
0.3333 0.0202 0.0000
0.3333 0.0253 0.0000
0.3333 0.0303 0.0000
0.3333 0.0354 0.0000
0.3333 0.0404 0.0000
0.3333 0.0455 0.0000
0.3333 0.0505 0.0000
0.3333 0.0556 0.0000
0.3333 0.0606 0.0000
0.3333 0.0657 0.0000
0.3333 0.0707 0.0000
0.3333 0.0758 0.0000
0.3333 0.0808 0.0000
0.3333 0.0859 0.0000
0.3333 0.0909 0.0000
0.3333 0.0960 0.0000
0.3333 0.1010 0.0000
0.3333 0.1061 0.0000
0.3333 0.1111 0.0000
0.3333 0.1162 0.0000
0.3333 0.1212 0.0000
0.3333 0.1263 0.0000
0.3333 0.1313 0.0000
0.3333 0.1364 0.0000
0.3333 0.1414 0.0000
0.3333 0.1465 0.0000
0.3333 0.1515 0.0000
0.3333 0.1566 0.0000
0.3333 0.1616 0.0000
0.3333 0.1667 0.0000
0.3333 0.1717 0.0000
0.3333 0.1768 0.0000
0.3333 0.1818 0.0000
0.3333 0.1869 0.0000
0.3333 0.1919 0.0000
0.3333 0.1970 0.0000
0.3333 0.2020 0.0000
0.3333 0.2071 0.0000
0.3333 0.2121 0.0000
0.3333 0.2172 0.0000
0.3333 0.2222 0.0000
0.3333 0.2273 0.0000
0.3333 0.2323 0.0000
0.3333 0.2374 0.0000
0.3333 0.2424 0.0000
0.3333 0.2475 0.0000
0.3333 0.2525 0.0000
0.3333 0.2576 0.0000
0.3333 0.2626 0.0000
0.3333 0.2677 0.0000
0.3333 0.2727 0.0000
0.3333 0.2778 0.0000
0.3333 0.2828 0.0000
0.3333 0.2879 0.0000
0.3333 0.2929 0.0000
0.3333 0.2980 0.0000
0.3333 0.3030 0.0000
0.3333 0.3081 0.0000
0.3333 0.3131 0.0000
0.3333 0.3182 0.0000
0.3333 0.3232 0.0000
0.3333 0.3283 0.0000
0.3333 0.3333 0.0000
0.3333 0.3384 0.0000
0.3333 0.3434 0.0000
0.3333 0.3485 0.0000
0.3333 0.3535 0.0000
0.3333 0.3586 0.0000
0.3333 0.3636 0.0000
0.3333 0.3687 0.0000
0.3333 0.3737 0.0000
0.3333 0.3788 0.0000
0.3333 0.3838 0.0000
0.3333 0.3889 0.0000
0.3333 0.3939 0.0000
0.3333 0.3990 0.0000
0.3333 0.4040 0.0000
0.3333 0.4091 0.0000
0.3333 0.4141 0.0000
0.3333 0.4192 0.0000
0.3333 0.4242 0.0000
0.3333 0.4293 0.0000
0.3333 0.4343 0.0000
0.3333 0.4394 0.0000
0.3333 0.4444 0.0000
0.3333 0.4495 0.0000
0.3333 0.4545 0.0000
0.3333 0.4596 0.0000
0.3333 0.4646 0.0000
0.3333 0.4697 0.0000
0.3333 0.4747 0.0000
0.3333 0.4798 0.0000
0.3333 0.4848 0.0000
0.3333 0.4899 0.0000
0.3333 0.4949 0.0000
0.3333 0.5000 0.0000
0.3542 0.0000 0.0000
0.3542 0.0051 0.0000
0.3542 0.0101 0.0000
0.3542 0.0152 0.0000
0.3542 0.0202 0.0000
0.3542 0.0253 0.0000
0.3542 0.0303 0.0000
0.3542 0.0354 0.0000
0.3542 0.0404 0.0000
0.3542 0.0455 0.0000
0.3542 0.0505 0.0000
0.3542 0.0556 0.0000
0.3542 0.0606 0.0000
0.3542 0.0657 0.0000
0.3542 0.0707 0.0000
0.3542 0.0758 0.0000
0.3542 0.0808 0.0000
0.3542 0.0859 0.0000
0.3542 0.0909 0.0000
0.3542 0.0960 0.0000
0.3542 0.1010 0.0000
0.3542 0.1061 0.0000
0.3542 0.1111 0.0000
0.3542 0.1162 0.0000
0.3542 0.1212 0.0000
0.3542 0.1263 0.0000
0.3542 0.1313 0.0000
0.3542 0.1364 0.0000
0.3542 0.1414 0.0000
0.3542 0.1465 0.0000
0.3542 0.1515 0.0000
0.3542 0.1566 0.0000
0.3542 0.1616 0.0000
0.3542 0.1667 0.0000
0.3542 0.1717 0.0000
0.3542 0.1768 0.0000
0.3542 0.1818 0.0000
0.3542 0.1869 0.0000
0.3542 0.1919 0.0000
0.3542 0.1970 0.0000
0.3542 0.2020 0.0000
0.3542 0.2071 0.0000
0.3542 0.2121 0.0000
0.3542 0.2172 0.0000
0.3542 0.2222 0.0000
0.3542 0.2273 0.0000
0.3542 0.2323 0.0000
0.3542 0.2374 0.0000
0.3542 0.2424 0.0000
0.3542 0.2475 0.0000
0.3542 0.2525 0.0000
0.3542 0.2576 0.0000
0.3542 0.2626 0.0000
0.3542 0.2677 0.0000
0.3542 0.2727 0.0000
0.3542 0.2778 0.0000
0.3542 0.2828 0.0000
0.3542 0.2879 0.0000
0.3542 0.2929 0.0000
0.3542 0.2980 0.0000
0.3542 0.3030 0.0000
0.3542 0.3081 0.0000
0.3542 0.3131 0.0000
0.3542 0.3182 0.0000
0.3542 0.3232 0.0000
0.3542 0.3283 0.0000
0.3542 0.3333 0.0000
0.3542 0.3384 0.0000
0.3542 0.3434 0.0000
0.3542 0.3485 0.0000
0.3542 0.3535 0.0000
0.3542 0.3586 0.0000
0.3542 0.3636 0.0000
0.3542 0.3687 0.0000
0.3542 0.3737 0.0000
0.3542 0.3788 0.0000
0.3542 0.3838 0.0000
0.3542 0.3889 0.0000
0.3542 0.3939 0.0000
0.3542 0.3990 0.0000
0.3542 0.4040 0.0000
0.3542 0.4091 0.0000
0.3542 0.4141 0.0000
0.3542 0.4192 0.0000
0.3542 0.4242 0.0000
0.3542 0.4293 0.0000
0.3542 0.4343 0.0000
0.3542 0.4394 0.0000
0.3542 0.4444 0.0000
0.3542 0.4495 0.0000
0.3542 0.4545 0.0000
0.3542 0.4596 0.0000
0.3542 0.4646 0.0000
0.3542 0.4697 0.0000
0.3542 0.4747 0.0000
0.3542 0.4798 0.0000
0.3542 0.4848 0.0000
0.3542 0.4899 0.0000
0.3542 0.4949 0.0000
0.3542 0.5000 0.0000
0.3750 0.0000 0.0000
0.3750 0.0051 0.0000
0.3750 0.0101 0.0000
0.3750 0.0152 0.0000
0.3750 0.0202 0.0000
0.3750 0.0253 0.0000
0.3750 0.0303 0.0000
0.3750 0.0354 0.0000
0.3750 0.0404 0.0000
0.3750 0.0455 0.0000
0.3750 0.0505 0.0000
0.3750 0.0556 0.0000
0.3750 0.0606 0.0000
0.3750 0.0657 0.0000
0.3750 0.0707 0.0000
0.3750 0.0758 0.0000
0.3750 0.0808 0.0000
0.3750 0.0859 0.0000
0.3750 0.0909 0.0000
0.3750 0.0960 0.0000
0.3750 0.1010 0.0000
0.3750 0.1061 0.0000
0.3750 0.1111 0.0000
0.3750 0.1162 0.0000
0.3750 0.1212 0.0000
0.3750 0.1263 0.0000
0.3750 0.1313 0.0000
0.3750 0.1364 0.0000
0.3750 0.1414 0.0000
0.3750 0.1465 0.0000
0.3750 0.1515 0.0000
0.3750 0.1566 0.0000
0.3750 0.1616 0.0000
0.3750 0.1667 0.0000
0.3750 0.1717 0.0000
0.3750 0.1768 0.0000
0.3750 0.1818 0.0000
0.3750 0.1869 0.0000
0.3750 0.1919 0.0000
0.3750 0.1970 0.0000
0.3750 0.2020 0.0000
0.3750 0.2071 0.0000
0.3750 0.2121 0.0000
0.3750 0.2172 0.0000
0.3750 0.2222 0.0000
0.3750 0.2273 0.0000
0.3750 0.2323 0.0000
0.3750 0.2374 0.0000
0.3750 0.2424 0.0000
0.3750 0.2475 0.0000
0.3750 0.2525 0.0000
0.3750 0.2576 0.0000
0.3750 0.2626 0.0000
0.3750 0.2677 0.0000
0.3750 0.2727 0.0000
0.3750 0.2778 0.0000
0.3750 0.2828 0.0000
0.3750 0.2879 0.0000
0.3750 0.2929 0.0000
0.3750 0.2980 0.0000
0.3750 0.3030 0.0000
0.3750 0.3081 0.0000
0.3750 0.3131 0.0000
0.3750 0.3182 0.0000
0.3750 0.3232 0.0000
0.3750 0.3283 0.0000
0.3750 0.3333 0.0000
0.3750 0.3384 0.0000
0.3750 0.3434 0.0000
0.3750 0.3485 0.0000
0.3750 0.3535 0.0000
0.3750 0.3586 0.0000
0.3750 0.3636 0.0000
0.3750 0.3687 0.0000
0.3750 0.3737 0.0000
0.3750 0.3788 0.0000
0.3750 0.3838 0.0000
0.3750 0.3889 0.0000
0.3750 0.3939 0.0000
0.3750 0.3990 0.0000
0.3750 0.4040 0.0000
0.3750 0.4091 0.0000
0.3750 0.4141 0.0000
0.3750 0.4192 0.0000
0.3750 0.4242 0.0000
0.3750 0.4293 0.0000
0.3750 0.4343 0.0000
0.3750 0.4394 0.0000
0.3750 0.4444 0.0000
0.3750 0.4495 0.0000
0.3750 0.4545 0.0000
0.3750 0.4596 0.0000
0.3750 0.4646 0.0000
0.3750 0.4697 0.0000
0.3750 0.4747 0.0000
0.3750 0.4798 0.0000
0.3750 0.4848 0.0000
0.3750 0.4899 0.0000
0.3750 0.4949 0.0000
0.3750 0.5000 0.0000
0.3958 0.0000 0.0000
0.3958 0.0051 0.0000
0.3958 0.0101 0.0000
0.3958 0.0152 0.0000
0.3958 0.0202 0.0000
0.3958 0.0253 0.0000
0.3958 0.0303 0.0000
0.3958 0.0354 0.0000
0.3958 0.0404 0.0000
0.3958 0.0455 0.0000
0.3958 0.0505 0.0000
0.3958 0.0556 0.0000
0.3958 0.0606 0.0000
0.3958 0.0657 0.0000
0.3958 0.0707 0.0000
0.3958 0.0758 0.0000
0.3958 0.0808 0.0000
0.3958 0.0859 0.0000
0.3958 0.0909 0.0000
0.3958 0.0960 0.0000
0.3958 0.1010 0.0000
0.3958 0.1061 0.0000
0.3958 0.1111 0.0000
0.3958 0.1162 0.0000
0.3958 0.1212 0.0000
0.3958 0.1263 0.0000
0.3958 0.1313 0.0000
0.3958 0.1364 0.0000
0.3958 0.1414 0.0000
0.3958 0.1465 0.0000
0.3958 0.1515 0.0000
0.3958 0.1566 0.0000
0.3958 0.1616 0.0000
0.3958 0.1667 0.0000
0.3958 0.1717 0.0000
0.3958 0.1768 0.0000
0.3958 0.1818 0.0000
0.3958 0.1869 0.0000
0.3958 0.1919 0.0000
0.3958 0.1970 0.0000
0.3958 0.2020 0.0000
0.3958 0.2071 0.0000
0.3958 0.2121 0.0000
0.3958 0.2172 0.0000
0.3958 0.2222 0.0000
0.3958 0.2273 0.0000
0.3958 0.2323 0.0000
0.3958 0.2374 0.0000
0.3958 0.2424 0.0000
0.3958 0.2475 0.0000
0.3958 0.2525 0.0000
0.3958 0.2576 0.0000
0.3958 0.2626 0.0000
0.3958 0.2677 0.0000
0.3958 0.2727 0.0000
0.3958 0.2778 0.0000
0.3958 0.2828 0.0000
0.3958 0.2879 0.0000
0.3958 0.2929 0.0000
0.3958 0.2980 0.0000
0.3958 0.3030 0.0000
0.3958 0.3081 0.0000
0.3958 0.3131 0.0000
0.3958 0.3182 0.0000
0.3958 0.3232 0.0000
0.3958 0.3283 0.0000
0.3958 0.3333 0.0000
0.3958 0.3384 0.0000
0.3958 0.3434 0.0000
0.3958 0.3485 0.0000
0.3958 0.3535 0.0000
0.3958 0.3586 0.0000
0.3958 0.3636 0.0000
0.3958 0.3687 0.0000
0.3958 0.3737 0.0000
0.3958 0.3788 0.0000
0.3958 0.3838 0.0000
0.3958 0.3889 0.0000
0.3958 0.3939 0.0000
0.3958 0.3990 0.0000
0.3958 0.4040 0.0000
0.3958 0.4091 0.0000
0.3958 0.4141 0.0000
0.3958 0.4192 0.0000
0.3958 0.4242 0.0000
0.3958 0.4293 0.0000
0.3958 0.4343 0.0000
0.3958 0.4394 0.0000
0.3958 0.4444 0.0000
0.3958 0.4495 0.0000
0.3958 0.4545 0.0000
0.3958 0.4596 0.0000
0.3958 0.4646 0.0000
0.3958 0.4697 0.0000
0.3958 0.4747 0.0000
0.3958 0.4798 0.0000
0.3958 0.4848 0.0000
0.3958 0.4899 0.0000
0.3958 0.4949 0.0000
0.3958 0.5000 0.0000
0.4167 0.0000 0.0000
0.4167 0.0051 0.0000
0.4167 0.0101 0.0000
0.4167 0.0152 0.0000
0.4167 0.0202 0.0000
0.4167 0.0253 0.0000
0.4167 0.0303 0.0000
0.4167 0.0354 0.0000
0.4167 0.0404 0.0000
0.4167 0.0455 0.0000
0.4167 0.0505 0.0000
0.4167 0.0556 0.0000
0.4167 0.0606 0.0000
0.4167 0.0657 0.0000
0.4167 0.0707 0.0000
0.4167 0.0758 0.0000
0.4167 0.0808 0.0000
0.4167 0.0859 0.0000
0.4167 0.0909 0.0000
0.4167 0.0960 0.0000
0.4167 0.1010 0.0000
0.4167 0.1061 0.0000
0.4167 0.1111 0.0000
0.4167 0.1162 0.0000
0.4167 0.1212 0.0000
0.4167 0.1263 0.0000
0.4167 0.1313 0.0000
0.4167 0.1364 0.0000
0.4167 0.1414 0.0000
0.4167 0.1465 0.0000
0.4167 0.1515 0.0000
0.4167 0.1566 0.0000
0.4167 0.1616 0.0000
0.4167 0.1667 0.0000
0.4167 0.1717 0.0000
0.4167 0.1768 0.0000
0.4167 0.1818 0.0000
0.4167 0.1869 0.0000
0.4167 0.1919 0.0000
0.4167 0.1970 0.0000
0.4167 0.2020 0.0000
0.4167 0.2071 0.0000
0.4167 0.2121 0.0000
0.4167 0.2172 0.0000
0.4167 0.2222 0.0000
0.4167 0.2273 0.0000
0.4167 0.2323 0.0000
0.4167 0.2374 0.0000
0.4167 0.2424 0.0000
0.4167 0.2475 0.0000
0.4167 0.2525 0.0000
0.4167 0.2576 0.0000
0.4167 0.2626 0.0000
0.4167 0.2677 0.0000
0.4167 0.2727 0.0000
0.4167 0.2778 0.0000
0.4167 0.2828 0.0000
0.4167 0.2879 0.0000
0.4167 0.2929 0.0000
0.4167 0.2980 0.0000
0.4167 0.3030 0.0000
0.4167 0.3081 0.0000
0.4167 0.3131 0.0000
0.4167 0.3182 0.0000
0.4167 0.3232 0.0000
0.4167 0.3283 0.0000
0.4167 0.3333 0.0000
0.4167 0.3384 0.0000
0.4167 0.3434 0.0000
0.4167 0.3485 0.0000
0.4167 0.3535 0.0000
0.4167 0.3586 0.0000
0.4167 0.3636 0.0000
0.4167 0.3687 0.0000
0.4167 0.3737 0.0000
0.4167 0.3788 0.0000
0.4167 0.3838 0.0000
0.4167 0.3889 0.0000
0.4167 0.3939 0.0000
0.4167 0.3990 0.0000
0.4167 0.4040 0.0000
0.4167 0.4091 0.0000
0.4167 0.4141 0.0000
0.4167 0.4192 0.0000
0.4167 0.4242 0.0000
0.4167 0.4293 0.0000
0.4167 0.4343 0.0000
0.4167 0.4394 0.0000
0.4167 0.4444 0.0000
0.4167 0.4495 0.0000
0.4167 0.4545 0.0000
0.4167 0.4596 0.0000
0.4167 0.4646 0.0000
0.4167 0.4697 0.0000
0.4167 0.4747 0.0000
0.4167 0.4798 0.0000
0.4167 0.4848 0.0000
0.4167 0.4899 0.0000
0.4167 0.4949 0.0000
0.4167 0.5000 0.0000
0.4375 0.0000 0.0000
0.4375 0.0051 0.0000
0.4375 0.0101 0.0000
0.4375 0.0152 0.0000
0.4375 0.0202 0.0000
0.4375 0.0253 0.0000
0.4375 0.0303 0.0000
0.4375 0.0354 0.0000
0.4375 0.0404 0.0000
0.4375 0.0455 0.0000
0.4375 0.0505 0.0000
0.4375 0.0556 0.0000
0.4375 0.0606 0.0000
0.4375 0.0657 0.0000
0.4375 0.0707 0.0000
0.4375 0.0758 0.0000
0.4375 0.0808 0.0000
0.4375 0.0859 0.0000
0.4375 0.0909 0.0000
0.4375 0.0960 0.0000
0.4375 0.1010 0.0000
0.4375 0.1061 0.0000
0.4375 0.1111 0.0000
0.4375 0.1162 0.0000
0.4375 0.1212 0.0000
0.4375 0.1263 0.0000
0.4375 0.1313 0.0000
0.4375 0.1364 0.0000
0.4375 0.1414 0.0000
0.4375 0.1465 0.0000
0.4375 0.1515 0.0000
0.4375 0.1566 0.0000
0.4375 0.1616 0.0000
0.4375 0.1667 0.0000
0.4375 0.1717 0.0000
0.4375 0.1768 0.0000
0.4375 0.1818 0.0000
0.4375 0.1869 0.0000
0.4375 0.1919 0.0000
0.4375 0.1970 0.0000
0.4375 0.2020 0.0000
0.4375 0.2071 0.0000
0.4375 0.2121 0.0000
0.4375 0.2172 0.0000
0.4375 0.2222 0.0000
0.4375 0.2273 0.0000
0.4375 0.2323 0.0000
0.4375 0.2374 0.0000
0.4375 0.2424 0.0000
0.4375 0.2475 0.0000
0.4375 0.2525 0.0000
0.4375 0.2576 0.0000
0.4375 0.2626 0.0000
0.4375 0.2677 0.0000
0.4375 0.2727 0.0000
0.4375 0.2778 0.0000
0.4375 0.2828 0.0000
0.4375 0.2879 0.0000
0.4375 0.2929 0.0000
0.4375 0.2980 0.0000
0.4375 0.3030 0.0000
0.4375 0.3081 0.0000
0.4375 0.3131 0.0000
0.4375 0.3182 0.0000
0.4375 0.3232 0.0000
0.4375 0.3283 0.0000
0.4375 0.3333 0.0000
0.4375 0.3384 0.0000
0.4375 0.3434 0.0000
0.4375 0.3485 0.0000
0.4375 0.3535 0.0000
0.4375 0.3586 0.0000
0.4375 0.3636 0.0000
0.4375 0.3687 0.0000
0.4375 0.3737 0.0000
0.4375 0.3788 0.0000
0.4375 0.3838 0.0000
0.4375 0.3889 0.0000
0.4375 0.3939 0.0000
0.4375 0.3990 0.0000
0.4375 0.4040 0.0000
0.4375 0.4091 0.0000
0.4375 0.4141 0.0000
0.4375 0.4192 0.0000
0.4375 0.4242 0.0000
0.4375 0.4293 0.0000
0.4375 0.4343 0.0000
0.4375 0.4394 0.0000
0.4375 0.4444 0.0000
0.4375 0.4495 0.0000
0.4375 0.4545 0.0000
0.4375 0.4596 0.0000
0.4375 0.4646 0.0000
0.4375 0.4697 0.0000
0.4375 0.4747 0.0000
0.4375 0.4798 0.0000
0.4375 0.4848 0.0000
0.4375 0.4899 0.0000
0.4375 0.4949 0.0000
0.4375 0.5000 0.0000
0.4583 0.0000 0.0000
0.4583 0.0051 0.0000
0.4583 0.0101 0.0000
0.4583 0.0152 0.0000
0.4583 0.0202 0.0000
0.4583 0.0253 0.0000
0.4583 0.0303 0.0000
0.4583 0.0354 0.0000
0.4583 0.0404 0.0000
0.4583 0.0455 0.0000
0.4583 0.0505 0.0000
0.4583 0.0556 0.0000
0.4583 0.0606 0.0000
0.4583 0.0657 0.0000
0.4583 0.0707 0.0000
0.4583 0.0758 0.0000
0.4583 0.0808 0.0000
0.4583 0.0859 0.0000
0.4583 0.0909 0.0000
0.4583 0.0960 0.0000
0.4583 0.1010 0.0000
0.4583 0.1061 0.0000
0.4583 0.1111 0.0000
0.4583 0.1162 0.0000
0.4583 0.1212 0.0000
0.4583 0.1263 0.0000
0.4583 0.1313 0.0000
0.4583 0.1364 0.0000
0.4583 0.1414 0.0000
0.4583 0.1465 0.0000
0.4583 0.1515 0.0000
0.4583 0.1566 0.0000
0.4583 0.1616 0.0000
0.4583 0.1667 0.0000
0.4583 0.1717 0.0000
0.4583 0.1768 0.0000
0.4583 0.1818 0.0000
0.4583 0.1869 0.0000
0.4583 0.1919 0.0000
0.4583 0.1970 0.0000
0.4583 0.2020 0.0000
0.4583 0.2071 0.0000
0.4583 0.2121 0.0000
0.4583 0.2172 0.0000
0.4583 0.2222 0.0000
0.4583 0.2273 0.0000
0.4583 0.2323 0.0000
0.4583 0.2374 0.0000
0.4583 0.2424 0.0000
0.4583 0.2475 0.0000
0.4583 0.2525 0.0000
0.4583 0.2576 0.0000
0.4583 0.2626 0.0000
0.4583 0.2677 0.0000
0.4583 0.2727 0.0000
0.4583 0.2778 0.0000
0.4583 0.2828 0.0000
0.4583 0.2879 0.0000
0.4583 0.2929 0.0000
0.4583 0.2980 0.0000
0.4583 0.3030 0.0000
0.4583 0.3081 0.0000
0.4583 0.3131 0.0000
0.4583 0.3182 0.0000
0.4583 0.3232 0.0000
0.4583 0.3283 0.0000
0.4583 0.3333 0.0000
0.4583 0.3384 0.0000
0.4583 0.3434 0.0000
0.4583 0.3485 0.0000
0.4583 0.3535 0.0000
0.4583 0.3586 0.0000
0.4583 0.3636 0.0000
0.4583 0.3687 0.0000
0.4583 0.3737 0.0000
0.4583 0.3788 0.0000
0.4583 0.3838 0.0000
0.4583 0.3889 0.0000
0.4583 0.3939 0.0000
0.4583 0.3990 0.0000
0.4583 0.4040 0.0000
0.4583 0.4091 0.0000
0.4583 0.4141 0.0000
0.4583 0.4192 0.0000
0.4583 0.4242 0.0000
0.4583 0.4293 0.0000
0.4583 0.4343 0.0000
0.4583 0.4394 0.0000
0.4583 0.4444 0.0000
0.4583 0.4495 0.0000
0.4583 0.4545 0.0000
0.4583 0.4596 0.0000
0.4583 0.4646 0.0000
0.4583 0.4697 0.0000
0.4583 0.4747 0.0000
0.4583 0.4798 0.0000
0.4583 0.4848 0.0000
0.4583 0.4899 0.0000
0.4583 0.4949 0.0000
0.4583 0.5000 0.0000
0.4792 0.0000 0.0000
0.4792 0.0051 0.0000
0.4792 0.0101 0.0000
0.4792 0.0152 0.0000
0.4792 0.0202 0.0000
0.4792 0.0253 0.0000
0.4792 0.0303 0.0000
0.4792 0.0354 0.0000
0.4792 0.0404 0.0000
0.4792 0.0455 0.0000
0.4792 0.0505 0.0000
0.4792 0.0556 0.0000
0.4792 0.0606 0.0000
0.4792 0.0657 0.0000
0.4792 0.0707 0.0000
0.4792 0.0758 0.0000
0.4792 0.0808 0.0000
0.4792 0.0859 0.0000
0.4792 0.0909 0.0000
0.4792 0.0960 0.0000
0.4792 0.1010 0.0000
0.4792 0.1061 0.0000
0.4792 0.1111 0.0000
0.4792 0.1162 0.0000
0.4792 0.1212 0.0000
0.4792 0.1263 0.0000
0.4792 0.1313 0.0000
0.4792 0.1364 0.0000
0.4792 0.1414 0.0000
0.4792 0.1465 0.0000
0.4792 0.1515 0.0000
0.4792 0.1566 0.0000
0.4792 0.1616 0.0000
0.4792 0.1667 0.0000
0.4792 0.1717 0.0000
0.4792 0.1768 0.0000
0.4792 0.1818 0.0000
0.4792 0.1869 0.0000
0.4792 0.1919 0.0000
0.4792 0.1970 0.0000
0.4792 0.2020 0.0000
0.4792 0.2071 0.0000
0.4792 0.2121 0.0000
0.4792 0.2172 0.0000
0.4792 0.2222 0.0000
0.4792 0.2273 0.0000
0.4792 0.2323 0.0000
0.4792 0.2374 0.0000
0.4792 0.2424 0.0000
0.4792 0.2475 0.0000
0.4792 0.2525 0.0000
0.4792 0.2576 0.0000
0.4792 0.2626 0.0000
0.4792 0.2677 0.0000
0.4792 0.2727 0.0000
0.4792 0.2778 0.0000
0.4792 0.2828 0.0000
0.4792 0.2879 0.0000
0.4792 0.2929 0.0000
0.4792 0.2980 0.0000
0.4792 0.3030 0.0000
0.4792 0.3081 0.0000
0.4792 0.3131 0.0000
0.4792 0.3182 0.0000
0.4792 0.3232 0.0000
0.4792 0.3283 0.0000
0.4792 0.3333 0.0000
0.4792 0.3384 0.0000
0.4792 0.3434 0.0000
0.4792 0.3485 0.0000
0.4792 0.3535 0.0000
0.4792 0.3586 0.0000
0.4792 0.3636 0.0000
0.4792 0.3687 0.0000
0.4792 0.3737 0.0000
0.4792 0.3788 0.0000
0.4792 0.3838 0.0000
0.4792 0.3889 0.0000
0.4792 0.3939 0.0000
0.4792 0.3990 0.0000
0.4792 0.4040 0.0000
0.4792 0.4091 0.0000
0.4792 0.4141 0.0000
0.4792 0.4192 0.0000
0.4792 0.4242 0.0000
0.4792 0.4293 0.0000
0.4792 0.4343 0.0000
0.4792 0.4394 0.0000
0.4792 0.4444 0.0000
0.4792 0.4495 0.0000
0.4792 0.4545 0.0000
0.4792 0.4596 0.0000
0.4792 0.4646 0.0000
0.4792 0.4697 0.0000
0.4792 0.4747 0.0000
0.4792 0.4798 0.0000
0.4792 0.4848 0.0000
0.4792 0.4899 0.0000
0.4792 0.4949 0.0000
0.4792 0.5000 0.0000
0.5000 0.0000 0.0000
0.5000 0.0051 0.0000
0.5000 0.0101 0.0000
0.5000 0.0152 0.0000
0.5000 0.0202 0.0000
0.5000 0.0253 0.0000
0.5000 0.0303 0.0000
0.5000 0.0354 0.0000
0.5000 0.0404 0.0000
0.5000 0.0455 0.0000
0.5000 0.0505 0.0000
0.5000 0.0556 0.0000
0.5000 0.0606 0.0000
0.5000 0.0657 0.0000
0.5000 0.0707 0.0000
0.5000 0.0758 0.0000
0.5000 0.0808 0.0000
0.5000 0.0859 0.0000
0.5000 0.0909 0.0000
0.5000 0.0960 0.0000
0.5000 0.1010 0.0000
0.5000 0.1061 0.0000
0.5000 0.1111 0.0000
0.5000 0.1162 0.0000
0.5000 0.1212 0.0000
0.5000 0.1263 0.0000
0.5000 0.1313 0.0000
0.5000 0.1364 0.0000
0.5000 0.1414 0.0000
0.5000 0.1465 0.0000
0.5000 0.1515 0.0000
0.5000 0.1566 0.0000
0.5000 0.1616 0.0000
0.5000 0.1667 0.0000
0.5000 0.1717 0.0000
0.5000 0.1768 0.0000
0.5000 0.1818 0.0000
0.5000 0.1869 0.0000
0.5000 0.1919 0.0000
0.5000 0.1970 0.0000
0.5000 0.2020 0.0000
0.5000 0.2071 0.0000
0.5000 0.2121 0.0000
0.5000 0.2172 0.0000
0.5000 0.2222 0.0000
0.5000 0.2273 0.0000
0.5000 0.2323 0.0000
0.5000 0.2374 0.0000
0.5000 0.2424 0.0000
0.5000 0.2475 0.0000
0.5000 0.2525 0.0000
0.5000 0.2576 0.0000
0.5000 0.2626 0.0000
0.5000 0.2677 0.0000
0.5000 0.2727 0.0000
0.5000 0.2778 0.0000
0.5000 0.2828 0.0000
0.5000 0.2879 0.0000
0.5000 0.2929 0.0000
0.5000 0.2980 0.0000
0.5000 0.3030 0.0000
0.5000 0.3081 0.0000
0.5000 0.3131 0.0000
0.5000 0.3182 0.0000
0.5000 0.3232 0.0000
0.5000 0.3283 0.0000
0.5000 0.3333 0.0000
0.5000 0.3384 0.0000
0.5000 0.3434 0.0000
0.5000 0.3485 0.0000
0.5000 0.3535 0.0000
0.5000 0.3586 0.0000
0.5000 0.3636 0.0000
0.5000 0.3687 0.0000
0.5000 0.3737 0.0000
0.5000 0.3788 0.0000
0.5000 0.3838 0.0000
0.5000 0.3889 0.0000
0.5000 0.3939 0.0000
0.5000 0.3990 0.0000
0.5000 0.4040 0.0000
0.5000 0.4091 0.0000
0.5000 0.4141 0.0000
0.5000 0.4192 0.0000
0.5000 0.4242 0.0000
0.5000 0.4293 0.0000
0.5000 0.4343 0.0000
0.5000 0.4394 0.0000
0.5000 0.4444 0.0000
0.5000 0.4495 0.0000
0.5000 0.4545 0.0000
0.5000 0.4596 0.0000
0.5000 0.4646 0.0000
0.5000 0.4697 0.0000
0.5000 0.4747 0.0000
0.5000 0.4798 0.0000
0.5000 0.4848 0.0000
0.5000 0.4899 0.0000
0.5000 0.4949 0.0000
0.5000 0.5000 0.0000
0.5208 0.0000 0.0000
0.5208 0.0051 0.0000
0.5208 0.0101 0.0000
0.5208 0.0152 0.0000
0.5208 0.0202 0.0000
0.5208 0.0253 0.0000
0.5208 0.0303 0.0000
0.5208 0.0354 0.0000
0.5208 0.0404 0.0000
0.5208 0.0455 0.0000
0.5208 0.0505 0.0000
0.5208 0.0556 0.0000
0.5208 0.0606 0.0000
0.5208 0.0657 0.0000
0.5208 0.0707 0.0000
0.5208 0.0758 0.0000
0.5208 0.0808 0.0000
0.5208 0.0859 0.0000
0.5208 0.0909 0.0000
0.5208 0.0960 0.0000
0.5208 0.1010 0.0000
0.5208 0.1061 0.0000
0.5208 0.1111 0.0000
0.5208 0.1162 0.0000
0.5208 0.1212 0.0000
0.5208 0.1263 0.0000
0.5208 0.1313 0.0000
0.5208 0.1364 0.0000
0.5208 0.1414 0.0000
0.5208 0.1465 0.0000
0.5208 0.1515 0.0000
0.5208 0.1566 0.0000
0.5208 0.1616 0.0000
0.5208 0.1667 0.0000
0.5208 0.1717 0.0000
0.5208 0.1768 0.0000
0.5208 0.1818 0.0000
0.5208 0.1869 0.0000
0.5208 0.1919 0.0000
0.5208 0.1970 0.0000
0.5208 0.2020 0.0000
0.5208 0.2071 0.0000
0.5208 0.2121 0.0000
0.5208 0.2172 0.0000
0.5208 0.2222 0.0000
0.5208 0.2273 0.0000
0.5208 0.2323 0.0000
0.5208 0.2374 0.0000
0.5208 0.2424 0.0000
0.5208 0.2475 0.0000
0.5208 0.2525 0.0000
0.5208 0.2576 0.0000
0.5208 0.2626 0.0000
0.5208 0.2677 0.0000
0.5208 0.2727 0.0000
0.5208 0.2778 0.0000
0.5208 0.2828 0.0000
0.5208 0.2879 0.0000
0.5208 0.2929 0.0000
0.5208 0.2980 0.0000
0.5208 0.3030 0.0000
0.5208 0.3081 0.0000
0.5208 0.3131 0.0000
0.5208 0.3182 0.0000
0.5208 0.3232 0.0000
0.5208 0.3283 0.0000
0.5208 0.3333 0.0000
0.5208 0.3384 0.0000
0.5208 0.3434 0.0000
0.5208 0.3485 0.0000
0.5208 0.3535 0.0000
0.5208 0.3586 0.0000
0.5208 0.3636 0.0000
0.5208 0.3687 0.0000
0.5208 0.3737 0.0000
0.5208 0.3788 0.0000
0.5208 0.3838 0.0000
0.5208 0.3889 0.0000
0.5208 0.3939 0.0000
0.5208 0.3990 0.0000
0.5208 0.4040 0.0000
0.5208 0.4091 0.0000
0.5208 0.4141 0.0000
0.5208 0.4192 0.0000
0.5208 0.4242 0.0000
0.5208 0.4293 0.0000
0.5208 0.4343 0.0000
0.5208 0.4394 0.0000
0.5208 0.4444 0.0000
0.5208 0.4495 0.0000
0.5208 0.4545 0.0000
0.5208 0.4596 0.0000
0.5208 0.4646 0.0000
0.5208 0.4697 0.0000
0.5208 0.4747 0.0000
0.5208 0.4798 0.0000
0.5208 0.4848 0.0000
0.5208 0.4899 0.0000
0.5208 0.4949 0.0000
0.5208 0.5000 0.0000
0.5417 0.0000 0.0000
0.5417 0.0051 0.0000
0.5417 0.0101 0.0000
0.5417 0.0152 0.0000
0.5417 0.0202 0.0000
0.5417 0.0253 0.0000
0.5417 0.0303 0.0000
0.5417 0.0354 0.0000
0.5417 0.0404 0.0000
0.5417 0.0455 0.0000
0.5417 0.0505 0.0000
0.5417 0.0556 0.0000
0.5417 0.0606 0.0000
0.5417 0.0657 0.0000
0.5417 0.0707 0.0000
0.5417 0.0758 0.0000
0.5417 0.0808 0.0000
0.5417 0.0859 0.0000
0.5417 0.0909 0.0000
0.5417 0.0960 0.0000
0.5417 0.1010 0.0000
0.5417 0.1061 0.0000
0.5417 0.1111 0.0000
0.5417 0.1162 0.0000
0.5417 0.1212 0.0000
0.5417 0.1263 0.0000
0.5417 0.1313 0.0000
0.5417 0.1364 0.0000
0.5417 0.1414 0.0000
0.5417 0.1465 0.0000
0.5417 0.1515 0.0000
0.5417 0.1566 0.0000
0.5417 0.1616 0.0000
0.5417 0.1667 0.0000
0.5417 0.1717 0.0000
0.5417 0.1768 0.0000
0.5417 0.1818 0.0000
0.5417 0.1869 0.0000
0.5417 0.1919 0.0000
0.5417 0.1970 0.0000
0.5417 0.2020 0.0000
0.5417 0.2071 0.0000
0.5417 0.2121 0.0000
0.5417 0.2172 0.0000
0.5417 0.2222 0.0000
0.5417 0.2273 0.0000
0.5417 0.2323 0.0000
0.5417 0.2374 0.0000
0.5417 0.2424 0.0000
0.5417 0.2475 0.0000
0.5417 0.2525 0.0000
0.5417 0.2576 0.0000
0.5417 0.2626 0.0000
0.5417 0.2677 0.0000
0.5417 0.2727 0.0000
0.5417 0.2778 0.0000
0.5417 0.2828 0.0000
0.5417 0.2879 0.0000
0.5417 0.2929 0.0000
0.5417 0.2980 0.0000
0.5417 0.3030 0.0000
0.5417 0.3081 0.0000
0.5417 0.3131 0.0000
0.5417 0.3182 0.0000
0.5417 0.3232 0.0000
0.5417 0.3283 0.0000
0.5417 0.3333 0.0000
0.5417 0.3384 0.0000
0.5417 0.3434 0.0000
0.5417 0.3485 0.0000
0.5417 0.3535 0.0000
0.5417 0.3586 0.0000
0.5417 0.3636 0.0000
0.5417 0.3687 0.0000
0.5417 0.3737 0.0000
0.5417 0.3788 0.0000
0.5417 0.3838 0.0000
0.5417 0.3889 0.0000
0.5417 0.3939 0.0000
0.5417 0.3990 0.0000
0.5417 0.4040 0.0000
0.5417 0.4091 0.0000
0.5417 0.4141 0.0000
0.5417 0.4192 0.0000
0.5417 0.4242 0.0000
0.5417 0.4293 0.0000
0.5417 0.4343 0.0000
0.5417 0.4394 0.0000
0.5417 0.4444 0.0000
0.5417 0.4495 0.0000
0.5417 0.4545 0.0000
0.5417 0.4596 0.0000
0.5417 0.4646 0.0000
0.5417 0.4697 0.0000
0.5417 0.4747 0.0000
0.5417 0.4798 0.0000
0.5417 0.4848 0.0000
0.5417 0.4899 0.0000
0.5417 0.4949 0.0000
0.5417 0.5000 0.0000
0.5625 0.0000 0.0000
0.5625 0.0051 0.0000
0.5625 0.0101 0.0000
0.5625 0.0152 0.0000
0.5625 0.0202 0.0000
0.5625 0.0253 0.0000
0.5625 0.0303 0.0000
0.5625 0.0354 0.0000
0.5625 0.0404 0.0000
0.5625 0.0455 0.0000
0.5625 0.0505 0.0000
0.5625 0.0556 0.0000
0.5625 0.0606 0.0000
0.5625 0.0657 0.0000
0.5625 0.0707 0.0000
0.5625 0.0758 0.0000
0.5625 0.0808 0.0000
0.5625 0.0859 0.0000
0.5625 0.0909 0.0000
0.5625 0.0960 0.0000
0.5625 0.1010 0.0000
0.5625 0.1061 0.0000
0.5625 0.1111 0.0000
0.5625 0.1162 0.0000
0.5625 0.1212 0.0000
0.5625 0.1263 0.0000
0.5625 0.1313 0.0000
0.5625 0.1364 0.0000
0.5625 0.1414 0.0000
0.5625 0.1465 0.0000
0.5625 0.1515 0.0000
0.5625 0.1566 0.0000
0.5625 0.1616 0.0000
0.5625 0.1667 0.0000
0.5625 0.1717 0.0000
0.5625 0.1768 0.0000
0.5625 0.1818 0.0000
0.5625 0.1869 0.0000
0.5625 0.1919 0.0000
0.5625 0.1970 0.0000
0.5625 0.2020 0.0000
0.5625 0.2071 0.0000
0.5625 0.2121 0.0000
0.5625 0.2172 0.0000
0.5625 0.2222 0.0000
0.5625 0.2273 0.0000
0.5625 0.2323 0.0000
0.5625 0.2374 0.0000
0.5625 0.2424 0.0000
0.5625 0.2475 0.0000
0.5625 0.2525 0.0000
0.5625 0.2576 0.0000
0.5625 0.2626 0.0000
0.5625 0.2677 0.0000
0.5625 0.2727 0.0000
0.5625 0.2778 0.0000
0.5625 0.2828 0.0000
0.5625 0.2879 0.0000
0.5625 0.2929 0.0000
0.5625 0.2980 0.0000
0.5625 0.3030 0.0000
0.5625 0.3081 0.0000
0.5625 0.3131 0.0000
0.5625 0.3182 0.0000
0.5625 0.3232 0.0000
0.5625 0.3283 0.0000
0.5625 0.3333 0.0000
0.5625 0.3384 0.0000
0.5625 0.3434 0.0000
0.5625 0.3485 0.0000
0.5625 0.3535 0.0000
0.5625 0.3586 0.0000
0.5625 0.3636 0.0000
0.5625 0.3687 0.0000
0.5625 0.3737 0.0000
0.5625 0.3788 0.0000
0.5625 0.3838 0.0000
0.5625 0.3889 0.0000
0.5625 0.3939 0.0000
0.5625 0.3990 0.0000
0.5625 0.4040 0.0000
0.5625 0.4091 0.0000
0.5625 0.4141 0.0000
0.5625 0.4192 0.0000
0.5625 0.4242 0.0000
0.5625 0.4293 0.0000
0.5625 0.4343 0.0000
0.5625 0.4394 0.0000
0.5625 0.4444 0.0000
0.5625 0.4495 0.0000
0.5625 0.4545 0.0000
0.5625 0.4596 0.0000
0.5625 0.4646 0.0000
0.5625 0.4697 0.0000
0.5625 0.4747 0.0000
0.5625 0.4798 0.0000
0.5625 0.4848 0.0000
0.5625 0.4899 0.0000
0.5625 0.4949 0.0000
0.5625 0.5000 0.0000
0.5833 0.0000 0.0000
0.5833 0.0051 0.0000
0.5833 0.0101 0.0000
0.5833 0.0152 0.0000
0.5833 0.0202 0.0000
0.5833 0.0253 0.0000
0.5833 0.0303 0.0000
0.5833 0.0354 0.0000
0.5833 0.0404 0.0000
0.5833 0.0455 0.0000
0.5833 0.0505 0.0000
0.5833 0.0556 0.0000
0.5833 0.0606 0.0000
0.5833 0.0657 0.0000
0.5833 0.0707 0.0000
0.5833 0.0758 0.0000
0.5833 0.0808 0.0000
0.5833 0.0859 0.0000
0.5833 0.0909 0.0000
0.5833 0.0960 0.0000
0.5833 0.1010 0.0000
0.5833 0.1061 0.0000
0.5833 0.1111 0.0000
0.5833 0.1162 0.0000
0.5833 0.1212 0.0000
0.5833 0.1263 0.0000
0.5833 0.1313 0.0000
0.5833 0.1364 0.0000
0.5833 0.1414 0.0000
0.5833 0.1465 0.0000
0.5833 0.1515 0.0000
0.5833 0.1566 0.0000
0.5833 0.1616 0.0000
0.5833 0.1667 0.0000
0.5833 0.1717 0.0000
0.5833 0.1768 0.0000
0.5833 0.1818 0.0000
0.5833 0.1869 0.0000
0.5833 0.1919 0.0000
0.5833 0.1970 0.0000
0.5833 0.2020 0.0000
0.5833 0.2071 0.0000
0.5833 0.2121 0.0000
0.5833 0.2172 0.0000
0.5833 0.2222 0.0000
0.5833 0.2273 0.0000
0.5833 0.2323 0.0000
0.5833 0.2374 0.0000
0.5833 0.2424 0.0000
0.5833 0.2475 0.0000
0.5833 0.2525 0.0000
0.5833 0.2576 0.0000
0.5833 0.2626 0.0000
0.5833 0.2677 0.0000
0.5833 0.2727 0.0000
0.5833 0.2778 0.0000
0.5833 0.2828 0.0000
0.5833 0.2879 0.0000
0.5833 0.2929 0.0000
0.5833 0.2980 0.0000
0.5833 0.3030 0.0000
0.5833 0.3081 0.0000
0.5833 0.3131 0.0000
0.5833 0.3182 0.0000
0.5833 0.3232 0.0000
0.5833 0.3283 0.0000
0.5833 0.3333 0.0000
0.5833 0.3384 0.0000
0.5833 0.3434 0.0000
0.5833 0.3485 0.0000
0.5833 0.3535 0.0000
0.5833 0.3586 0.0000
0.5833 0.3636 0.0000
0.5833 0.3687 0.0000
0.5833 0.3737 0.0000
0.5833 0.3788 0.0000
0.5833 0.3838 0.0000
0.5833 0.3889 0.0000
0.5833 0.3939 0.0000
0.5833 0.3990 0.0000
0.5833 0.4040 0.0000
0.5833 0.4091 0.0000
0.5833 0.4141 0.0000
0.5833 0.4192 0.0000
0.5833 0.4242 0.0000
0.5833 0.4293 0.0000
0.5833 0.4343 0.0000
0.5833 0.4394 0.0000
0.5833 0.4444 0.0000
0.5833 0.4495 0.0000
0.5833 0.4545 0.0000
0.5833 0.4596 0.0000
0.5833 0.4646 0.0000
0.5833 0.4697 0.0000
0.5833 0.4747 0.0000
0.5833 0.4798 0.0000
0.5833 0.4848 0.0000
0.5833 0.4899 0.0000
0.5833 0.4949 0.0000
0.5833 0.5000 0.0000
0.6042 0.0000 0.0000
0.6042 0.0051 0.0000
0.6042 0.0101 0.0000
0.6042 0.0152 0.0000
0.6042 0.0202 0.0000
0.6042 0.0253 0.0000
0.6042 0.0303 0.0000
0.6042 0.0354 0.0000
0.6042 0.0404 0.0000
0.6042 0.0455 0.0000
0.6042 0.0505 0.0000
0.6042 0.0556 0.0000
0.6042 0.0606 0.0000
0.6042 0.0657 0.0000
0.6042 0.0707 0.0000
0.6042 0.0758 0.0000
0.6042 0.0808 0.0000
0.6042 0.0859 0.0000
0.6042 0.0909 0.0000
0.6042 0.0960 0.0000
0.6042 0.1010 0.0000
0.6042 0.1061 0.0000
0.6042 0.1111 0.0000
0.6042 0.1162 0.0000
0.6042 0.1212 0.0000
0.6042 0.1263 0.0000
0.6042 0.1313 0.0000
0.6042 0.1364 0.0000
0.6042 0.1414 0.0000
0.6042 0.1465 0.0000
0.6042 0.1515 0.0000
0.6042 0.1566 0.0000
0.6042 0.1616 0.0000
0.6042 0.1667 0.0000
0.6042 0.1717 0.0000
0.6042 0.1768 0.0000
0.6042 0.1818 0.0000
0.6042 0.1869 0.0000
0.6042 0.1919 0.0000
0.6042 0.1970 0.0000
0.6042 0.2020 0.0000
0.6042 0.2071 0.0000
0.6042 0.2121 0.0000
0.6042 0.2172 0.0000
0.6042 0.2222 0.0000
0.6042 0.2273 0.0000
0.6042 0.2323 0.0000
0.6042 0.2374 0.0000
0.6042 0.2424 0.0000
0.6042 0.2475 0.0000
0.6042 0.2525 0.0000
0.6042 0.2576 0.0000
0.6042 0.2626 0.0000
0.6042 0.2677 0.0000
0.6042 0.2727 0.0000
0.6042 0.2778 0.0000
0.6042 0.2828 0.0000
0.6042 0.2879 0.0000
0.6042 0.2929 0.0000
0.6042 0.2980 0.0000
0.6042 0.3030 0.0000
0.6042 0.3081 0.0000
0.6042 0.3131 0.0000
0.6042 0.3182 0.0000
0.6042 0.3232 0.0000
0.6042 0.3283 0.0000
0.6042 0.3333 0.0000
0.6042 0.3384 0.0000
0.6042 0.3434 0.0000
0.6042 0.3485 0.0000
0.6042 0.3535 0.0000
0.6042 0.3586 0.0000
0.6042 0.3636 0.0000
0.6042 0.3687 0.0000
0.6042 0.3737 0.0000
0.6042 0.3788 0.0000
0.6042 0.3838 0.0000
0.6042 0.3889 0.0000
0.6042 0.3939 0.0000
0.6042 0.3990 0.0000
0.6042 0.4040 0.0000
0.6042 0.4091 0.0000
0.6042 0.4141 0.0000
0.6042 0.4192 0.0000
0.6042 0.4242 0.0000
0.6042 0.4293 0.0000
0.6042 0.4343 0.0000
0.6042 0.4394 0.0000
0.6042 0.4444 0.0000
0.6042 0.4495 0.0000
0.6042 0.4545 0.0000
0.6042 0.4596 0.0000
0.6042 0.4646 0.0000
0.6042 0.4697 0.0000
0.6042 0.4747 0.0000
0.6042 0.4798 0.0000
0.6042 0.4848 0.0000
0.6042 0.4899 0.0000
0.6042 0.4949 0.0000
0.6042 0.5000 0.0000
0.6250 0.0000 0.0000
0.6250 0.0051 0.0000
0.6250 0.0101 0.0000
0.6250 0.0152 0.0000
0.6250 0.0202 0.0000
0.6250 0.0253 0.0000
0.6250 0.0303 0.0000
0.6250 0.0354 0.0000
0.6250 0.0404 0.0000
0.6250 0.0455 0.0000
0.6250 0.0505 0.0000
0.6250 0.0556 0.0000
0.6250 0.0606 0.0000
0.6250 0.0657 0.0000
0.6250 0.0707 0.0000
0.6250 0.0758 0.0000
0.6250 0.0808 0.0000
0.6250 0.0859 0.0000
0.6250 0.0909 0.0000
0.6250 0.0960 0.0000
0.6250 0.1010 0.0000
0.6250 0.1061 0.0000
0.6250 0.1111 0.0000
0.6250 0.1162 0.0000
0.6250 0.1212 0.0000
0.6250 0.1263 0.0000
0.6250 0.1313 0.0000
0.6250 0.1364 0.0000
0.6250 0.1414 0.0000
0.6250 0.1465 0.0000
0.6250 0.1515 0.0000
0.6250 0.1566 0.0000
0.6250 0.1616 0.0000
0.6250 0.1667 0.0000
0.6250 0.1717 0.0000
0.6250 0.1768 0.0000
0.6250 0.1818 0.0000
0.6250 0.1869 0.0000
0.6250 0.1919 0.0000
0.6250 0.1970 0.0000
0.6250 0.2020 0.0000
0.6250 0.2071 0.0000
0.6250 0.2121 0.0000
0.6250 0.2172 0.0000
0.6250 0.2222 0.0000
0.6250 0.2273 0.0000
0.6250 0.2323 0.0000
0.6250 0.2374 0.0000
0.6250 0.2424 0.0000
0.6250 0.2475 0.0000
0.6250 0.2525 0.0000
0.6250 0.2576 0.0000
0.6250 0.2626 0.0000
0.6250 0.2677 0.0000
0.6250 0.2727 0.0000
0.6250 0.2778 0.0000
0.6250 0.2828 0.0000
0.6250 0.2879 0.0000
0.6250 0.2929 0.0000
0.6250 0.2980 0.0000
0.6250 0.3030 0.0000
0.6250 0.3081 0.0000
0.6250 0.3131 0.0000
0.6250 0.3182 0.0000
0.6250 0.3232 0.0000
0.6250 0.3283 0.0000
0.6250 0.3333 0.0000
0.6250 0.3384 0.0000
0.6250 0.3434 0.0000
0.6250 0.3485 0.0000
0.6250 0.3535 0.0000
0.6250 0.3586 0.0000
0.6250 0.3636 0.0000
0.6250 0.3687 0.0000
0.6250 0.3737 0.0000
0.6250 0.3788 0.0000
0.6250 0.3838 0.0000
0.6250 0.3889 0.0000
0.6250 0.3939 0.0000
0.6250 0.3990 0.0000
0.6250 0.4040 0.0000
0.6250 0.4091 0.0000
0.6250 0.4141 0.0000
0.6250 0.4192 0.0000
0.6250 0.4242 0.0000
0.6250 0.4293 0.0000
0.6250 0.4343 0.0000
0.6250 0.4394 0.0000
0.6250 0.4444 0.0000
0.6250 0.4495 0.0000
0.6250 0.4545 0.0000
0.6250 0.4596 0.0000
0.6250 0.4646 0.0000
0.6250 0.4697 0.0000
0.6250 0.4747 0.0000
0.6250 0.4798 0.0000
0.6250 0.4848 0.0000
0.6250 0.4899 0.0000
0.6250 0.4949 0.0000
0.6250 0.5000 0.0000
0.6458 0.0000 0.0000
0.6458 0.0051 0.0000
0.6458 0.0101 0.0000
0.6458 0.0152 0.0000
0.6458 0.0202 0.0000
0.6458 0.0253 0.0000
0.6458 0.0303 0.0000
0.6458 0.0354 0.0000
0.6458 0.0404 0.0000
0.6458 0.0455 0.0000
0.6458 0.0505 0.0000
0.6458 0.0556 0.0000
0.6458 0.0606 0.0000
0.6458 0.0657 0.0000
0.6458 0.0707 0.0000
0.6458 0.0758 0.0000
0.6458 0.0808 0.0000
0.6458 0.0859 0.0000
0.6458 0.0909 0.0000
0.6458 0.0960 0.0000
0.6458 0.1010 0.0000
0.6458 0.1061 0.0000
0.6458 0.1111 0.0000
0.6458 0.1162 0.0000
0.6458 0.1212 0.0000
0.6458 0.1263 0.0000
0.6458 0.1313 0.0000
0.6458 0.1364 0.0000
0.6458 0.1414 0.0000
0.6458 0.1465 0.0000
0.6458 0.1515 0.0000
0.6458 0.1566 0.0000
0.6458 0.1616 0.0000
0.6458 0.1667 0.0000
0.6458 0.1717 0.0000
0.6458 0.1768 0.0000
0.6458 0.1818 0.0000
0.6458 0.1869 0.0000
0.6458 0.1919 0.0000
0.6458 0.1970 0.0000
0.6458 0.2020 0.0000
0.6458 0.2071 0.0000
0.6458 0.2121 0.0000
0.6458 0.2172 0.0000
0.6458 0.2222 0.0000
0.6458 0.2273 0.0000
0.6458 0.2323 0.0000
0.6458 0.2374 0.0000
0.6458 0.2424 0.0000
0.6458 0.2475 0.0000
0.6458 0.2525 0.0000
0.6458 0.2576 0.0000
0.6458 0.2626 0.0000
0.6458 0.2677 0.0000
0.6458 0.2727 0.0000
0.6458 0.2778 0.0000
0.6458 0.2828 0.0000
0.6458 0.2879 0.0000
0.6458 0.2929 0.0000
0.6458 0.2980 0.0000
0.6458 0.3030 0.0000
0.6458 0.3081 0.0000
0.6458 0.3131 0.0000
0.6458 0.3182 0.0000
0.6458 0.3232 0.0000
0.6458 0.3283 0.0000
0.6458 0.3333 0.0000
0.6458 0.3384 0.0000
0.6458 0.3434 0.0000
0.6458 0.3485 0.0000
0.6458 0.3535 0.0000
0.6458 0.3586 0.0000
0.6458 0.3636 0.0000
0.6458 0.3687 0.0000
0.6458 0.3737 0.0000
0.6458 0.3788 0.0000
0.6458 0.3838 0.0000
0.6458 0.3889 0.0000
0.6458 0.3939 0.0000
0.6458 0.3990 0.0000
0.6458 0.4040 0.0000
0.6458 0.4091 0.0000
0.6458 0.4141 0.0000
0.6458 0.4192 0.0000
0.6458 0.4242 0.0000
0.6458 0.4293 0.0000
0.6458 0.4343 0.0000
0.6458 0.4394 0.0000
0.6458 0.4444 0.0000
0.6458 0.4495 0.0000
0.6458 0.4545 0.0000
0.6458 0.4596 0.0000
0.6458 0.4646 0.0000
0.6458 0.4697 0.0000
0.6458 0.4747 0.0000
0.6458 0.4798 0.0000
0.6458 0.4848 0.0000
0.6458 0.4899 0.0000
0.6458 0.4949 0.0000
0.6458 0.5000 0.0000
0.6667 0.0000 0.0000
0.6667 0.0051 0.0000
0.6667 0.0101 0.0000
0.6667 0.0152 0.0000
0.6667 0.0202 0.0000
0.6667 0.0253 0.0000
0.6667 0.0303 0.0000
0.6667 0.0354 0.0000
0.6667 0.0404 0.0000
0.6667 0.0455 0.0000
0.6667 0.0505 0.0000
0.6667 0.0556 0.0000
0.6667 0.0606 0.0000
0.6667 0.0657 0.0000
0.6667 0.0707 0.0000
0.6667 0.0758 0.0000
0.6667 0.0808 0.0000
0.6667 0.0859 0.0000
0.6667 0.0909 0.0000
0.6667 0.0960 0.0000
0.6667 0.1010 0.0000
0.6667 0.1061 0.0000
0.6667 0.1111 0.0000
0.6667 0.1162 0.0000
0.6667 0.1212 0.0000
0.6667 0.1263 0.0000
0.6667 0.1313 0.0000
0.6667 0.1364 0.0000
0.6667 0.1414 0.0000
0.6667 0.1465 0.0000
0.6667 0.1515 0.0000
0.6667 0.1566 0.0000
0.6667 0.1616 0.0000
0.6667 0.1667 0.0000
0.6667 0.1717 0.0000
0.6667 0.1768 0.0000
0.6667 0.1818 0.0000
0.6667 0.1869 0.0000
0.6667 0.1919 0.0000
0.6667 0.1970 0.0000
0.6667 0.2020 0.0000
0.6667 0.2071 0.0000
0.6667 0.2121 0.0000
0.6667 0.2172 0.0000
0.6667 0.2222 0.0000
0.6667 0.2273 0.0000
0.6667 0.2323 0.0000
0.6667 0.2374 0.0000
0.6667 0.2424 0.0000
0.6667 0.2475 0.0000
0.6667 0.2525 0.0000
0.6667 0.2576 0.0000
0.6667 0.2626 0.0000
0.6667 0.2677 0.0000
0.6667 0.2727 0.0000
0.6667 0.2778 0.0000
0.6667 0.2828 0.0000
0.6667 0.2879 0.0000
0.6667 0.2929 0.0000
0.6667 0.2980 0.0000
0.6667 0.3030 0.0000
0.6667 0.3081 0.0000
0.6667 0.3131 0.0000
0.6667 0.3182 0.0000
0.6667 0.3232 0.0000
0.6667 0.3283 0.0000
0.6667 0.3333 0.0000
0.6667 0.3384 0.0000
0.6667 0.3434 0.0000
0.6667 0.3485 0.0000
0.6667 0.3535 0.0000
0.6667 0.3586 0.0000
0.6667 0.3636 0.0000
0.6667 0.3687 0.0000
0.6667 0.3737 0.0000
0.6667 0.3788 0.0000
0.6667 0.3838 0.0000
0.6667 0.3889 0.0000
0.6667 0.3939 0.0000
0.6667 0.3990 0.0000
0.6667 0.4040 0.0000
0.6667 0.4091 0.0000
0.6667 0.4141 0.0000
0.6667 0.4192 0.0000
0.6667 0.4242 0.0000
0.6667 0.4293 0.0000
0.6667 0.4343 0.0000
0.6667 0.4394 0.0000
0.6667 0.4444 0.0000
0.6667 0.4495 0.0000
0.6667 0.4545 0.0000
0.6667 0.4596 0.0000
0.6667 0.4646 0.0000
0.6667 0.4697 0.0000
0.6667 0.4747 0.0000
0.6667 0.4798 0.0000
0.6667 0.4848 0.0000
0.6667 0.4899 0.0000
0.6667 0.4949 0.0000
0.6667 0.5000 0.0000
0.6875 0.0000 0.0000
0.6875 0.0051 0.0000
0.6875 0.0101 0.0000
0.6875 0.0152 0.0000
0.6875 0.0202 0.0000
0.6875 0.0253 0.0000
0.6875 0.0303 0.0000
0.6875 0.0354 0.0000
0.6875 0.0404 0.0000
0.6875 0.0455 0.0000
0.6875 0.0505 0.0000
0.6875 0.0556 0.0000
0.6875 0.0606 0.0000
0.6875 0.0657 0.0000
0.6875 0.0707 0.0000
0.6875 0.0758 0.0000
0.6875 0.0808 0.0000
0.6875 0.0859 0.0000
0.6875 0.0909 0.0000
0.6875 0.0960 0.0000
0.6875 0.1010 0.0000
0.6875 0.1061 0.0000
0.6875 0.1111 0.0000
0.6875 0.1162 0.0000
0.6875 0.1212 0.0000
0.6875 0.1263 0.0000
0.6875 0.1313 0.0000
0.6875 0.1364 0.0000
0.6875 0.1414 0.0000
0.6875 0.1465 0.0000
0.6875 0.1515 0.0000
0.6875 0.1566 0.0000
0.6875 0.1616 0.0000
0.6875 0.1667 0.0000
0.6875 0.1717 0.0000
0.6875 0.1768 0.0000
0.6875 0.1818 0.0000
0.6875 0.1869 0.0000
0.6875 0.1919 0.0000
0.6875 0.1970 0.0000
0.6875 0.2020 0.0000
0.6875 0.2071 0.0000
0.6875 0.2121 0.0000
0.6875 0.2172 0.0000
0.6875 0.2222 0.0000
0.6875 0.2273 0.0000
0.6875 0.2323 0.0000
0.6875 0.2374 0.0000
0.6875 0.2424 0.0000
0.6875 0.2475 0.0000
0.6875 0.2525 0.0000
0.6875 0.2576 0.0000
0.6875 0.2626 0.0000
0.6875 0.2677 0.0000
0.6875 0.2727 0.0000
0.6875 0.2778 0.0000
0.6875 0.2828 0.0000
0.6875 0.2879 0.0000
0.6875 0.2929 0.0000
0.6875 0.2980 0.0000
0.6875 0.3030 0.0000
0.6875 0.3081 0.0000
0.6875 0.3131 0.0000
0.6875 0.3182 0.0000
0.6875 0.3232 0.0000
0.6875 0.3283 0.0000
0.6875 0.3333 0.0000
0.6875 0.3384 0.0000
0.6875 0.3434 0.0000
0.6875 0.3485 0.0000
0.6875 0.3535 0.0000
0.6875 0.3586 0.0000
0.6875 0.3636 0.0000
0.6875 0.3687 0.0000
0.6875 0.3737 0.0000
0.6875 0.3788 0.0000
0.6875 0.3838 0.0000
0.6875 0.3889 0.0000
0.6875 0.3939 0.0000
0.6875 0.3990 0.0000
0.6875 0.4040 0.0000
0.6875 0.4091 0.0000
0.6875 0.4141 0.0000
0.6875 0.4192 0.0000
0.6875 0.4242 0.0000
0.6875 0.4293 0.0000
0.6875 0.4343 0.0000
0.6875 0.4394 0.0000
0.6875 0.4444 0.0000
0.6875 0.4495 0.0000
0.6875 0.4545 0.0000
0.6875 0.4596 0.0000
0.6875 0.4646 0.0000
0.6875 0.4697 0.0000
0.6875 0.4747 0.0000
0.6875 0.4798 0.0000
0.6875 0.4848 0.0000
0.6875 0.4899 0.0000
0.6875 0.4949 0.0000
0.6875 0.5000 0.0000
0.7083 0.0000 0.0000
0.7083 0.0051 0.0000
0.7083 0.0101 0.0000
0.7083 0.0152 0.0000
0.7083 0.0202 0.0000
0.7083 0.0253 0.0000
0.7083 0.0303 0.0000
0.7083 0.0354 0.0000
0.7083 0.0404 0.0000
0.7083 0.0455 0.0000
0.7083 0.0505 0.0000
0.7083 0.0556 0.0000
0.7083 0.0606 0.0000
0.7083 0.0657 0.0000
0.7083 0.0707 0.0000
0.7083 0.0758 0.0000
0.7083 0.0808 0.0000
0.7083 0.0859 0.0000
0.7083 0.0909 0.0000
0.7083 0.0960 0.0000
0.7083 0.1010 0.0000
0.7083 0.1061 0.0000
0.7083 0.1111 0.0000
0.7083 0.1162 0.0000
0.7083 0.1212 0.0000
0.7083 0.1263 0.0000
0.7083 0.1313 0.0000
0.7083 0.1364 0.0000
0.7083 0.1414 0.0000
0.7083 0.1465 0.0000
0.7083 0.1515 0.0000
0.7083 0.1566 0.0000
0.7083 0.1616 0.0000
0.7083 0.1667 0.0000
0.7083 0.1717 0.0000
0.7083 0.1768 0.0000
0.7083 0.1818 0.0000
0.7083 0.1869 0.0000
0.7083 0.1919 0.0000
0.7083 0.1970 0.0000
0.7083 0.2020 0.0000
0.7083 0.2071 0.0000
0.7083 0.2121 0.0000
0.7083 0.2172 0.0000
0.7083 0.2222 0.0000
0.7083 0.2273 0.0000
0.7083 0.2323 0.0000
0.7083 0.2374 0.0000
0.7083 0.2424 0.0000
0.7083 0.2475 0.0000
0.7083 0.2525 0.0000
0.7083 0.2576 0.0000
0.7083 0.2626 0.0000
0.7083 0.2677 0.0000
0.7083 0.2727 0.0000
0.7083 0.2778 0.0000
0.7083 0.2828 0.0000
0.7083 0.2879 0.0000
0.7083 0.2929 0.0000
0.7083 0.2980 0.0000
0.7083 0.3030 0.0000
0.7083 0.3081 0.0000
0.7083 0.3131 0.0000
0.7083 0.3182 0.0000
0.7083 0.3232 0.0000
0.7083 0.3283 0.0000
0.7083 0.3333 0.0000
0.7083 0.3384 0.0000
0.7083 0.3434 0.0000
0.7083 0.3485 0.0000
0.7083 0.3535 0.0000
0.7083 0.3586 0.0000
0.7083 0.3636 0.0000
0.7083 0.3687 0.0000
0.7083 0.3737 0.0000
0.7083 0.3788 0.0000
0.7083 0.3838 0.0000
0.7083 0.3889 0.0000
0.7083 0.3939 0.0000
0.7083 0.3990 0.0000
0.7083 0.4040 0.0000
0.7083 0.4091 0.0000
0.7083 0.4141 0.0000
0.7083 0.4192 0.0000
0.7083 0.4242 0.0000
0.7083 0.4293 0.0000
0.7083 0.4343 0.0000
0.7083 0.4394 0.0000
0.7083 0.4444 0.0000
0.7083 0.4495 0.0000
0.7083 0.4545 0.0000
0.7083 0.4596 0.0000
0.7083 0.4646 0.0000
0.7083 0.4697 0.0000
0.7083 0.4747 0.0000
0.7083 0.4798 0.0000
0.7083 0.4848 0.0000
0.7083 0.4899 0.0000
0.7083 0.4949 0.0000
0.7083 0.5000 0.0000
0.7292 0.0000 0.0000
0.7292 0.0051 0.0000
0.7292 0.0101 0.0000
0.7292 0.0152 0.0000
0.7292 0.0202 0.0000
0.7292 0.0253 0.0000
0.7292 0.0303 0.0000
0.7292 0.0354 0.0000
0.7292 0.0404 0.0000
0.7292 0.0455 0.0000
0.7292 0.0505 0.0000
0.7292 0.0556 0.0000
0.7292 0.0606 0.0000
0.7292 0.0657 0.0000
0.7292 0.0707 0.0000
0.7292 0.0758 0.0000
0.7292 0.0808 0.0000
0.7292 0.0859 0.0000
0.7292 0.0909 0.0000
0.7292 0.0960 0.0000
0.7292 0.1010 0.0000
0.7292 0.1061 0.0000
0.7292 0.1111 0.0000
0.7292 0.1162 0.0000
0.7292 0.1212 0.0000
0.7292 0.1263 0.0000
0.7292 0.1313 0.0000
0.7292 0.1364 0.0000
0.7292 0.1414 0.0000
0.7292 0.1465 0.0000
0.7292 0.1515 0.0000
0.7292 0.1566 0.0000
0.7292 0.1616 0.0000
0.7292 0.1667 0.0000
0.7292 0.1717 0.0000
0.7292 0.1768 0.0000
0.7292 0.1818 0.0000
0.7292 0.1869 0.0000
0.7292 0.1919 0.0000
0.7292 0.1970 0.0000
0.7292 0.2020 0.0000
0.7292 0.2071 0.0000
0.7292 0.2121 0.0000
0.7292 0.2172 0.0000
0.7292 0.2222 0.0000
0.7292 0.2273 0.0000
0.7292 0.2323 0.0000
0.7292 0.2374 0.0000
0.7292 0.2424 0.0000
0.7292 0.2475 0.0000
0.7292 0.2525 0.0000
0.7292 0.2576 0.0000
0.7292 0.2626 0.0000
0.7292 0.2677 0.0000
0.7292 0.2727 0.0000
0.7292 0.2778 0.0000
0.7292 0.2828 0.0000
0.7292 0.2879 0.0000
0.7292 0.2929 0.0000
0.7292 0.2980 0.0000
0.7292 0.3030 0.0000
0.7292 0.3081 0.0000
0.7292 0.3131 0.0000
0.7292 0.3182 0.0000
0.7292 0.3232 0.0000
0.7292 0.3283 0.0000
0.7292 0.3333 0.0000
0.7292 0.3384 0.0000
0.7292 0.3434 0.0000
0.7292 0.3485 0.0000
0.7292 0.3535 0.0000
0.7292 0.3586 0.0000
0.7292 0.3636 0.0000
0.7292 0.3687 0.0000
0.7292 0.3737 0.0000
0.7292 0.3788 0.0000
0.7292 0.3838 0.0000
0.7292 0.3889 0.0000
0.7292 0.3939 0.0000
0.7292 0.3990 0.0000
0.7292 0.4040 0.0000
0.7292 0.4091 0.0000
0.7292 0.4141 0.0000
0.7292 0.4192 0.0000
0.7292 0.4242 0.0000
0.7292 0.4293 0.0000
0.7292 0.4343 0.0000
0.7292 0.4394 0.0000
0.7292 0.4444 0.0000
0.7292 0.4495 0.0000
0.7292 0.4545 0.0000
0.7292 0.4596 0.0000
0.7292 0.4646 0.0000
0.7292 0.4697 0.0000
0.7292 0.4747 0.0000
0.7292 0.4798 0.0000
0.7292 0.4848 0.0000
0.7292 0.4899 0.0000
0.7292 0.4949 0.0000
0.7292 0.5000 0.0000
0.7500 0.0000 0.0000
0.7500 0.0051 0.0000
0.7500 0.0101 0.0000
0.7500 0.0152 0.0000
0.7500 0.0202 0.0000
0.7500 0.0253 0.0000
0.7500 0.0303 0.0000
0.7500 0.0354 0.0000
0.7500 0.0404 0.0000
0.7500 0.0455 0.0000
0.7500 0.0505 0.0000
0.7500 0.0556 0.0000
0.7500 0.0606 0.0000
0.7500 0.0657 0.0000
0.7500 0.0707 0.0000
0.7500 0.0758 0.0000
0.7500 0.0808 0.0000
0.7500 0.0859 0.0000
0.7500 0.0909 0.0000
0.7500 0.0960 0.0000
0.7500 0.1010 0.0000
0.7500 0.1061 0.0000
0.7500 0.1111 0.0000
0.7500 0.1162 0.0000
0.7500 0.1212 0.0000
0.7500 0.1263 0.0000
0.7500 0.1313 0.0000
0.7500 0.1364 0.0000
0.7500 0.1414 0.0000
0.7500 0.1465 0.0000
0.7500 0.1515 0.0000
0.7500 0.1566 0.0000
0.7500 0.1616 0.0000
0.7500 0.1667 0.0000
0.7500 0.1717 0.0000
0.7500 0.1768 0.0000
0.7500 0.1818 0.0000
0.7500 0.1869 0.0000
0.7500 0.1919 0.0000
0.7500 0.1970 0.0000
0.7500 0.2020 0.0000
0.7500 0.2071 0.0000
0.7500 0.2121 0.0000
0.7500 0.2172 0.0000
0.7500 0.2222 0.0000
0.7500 0.2273 0.0000
0.7500 0.2323 0.0000
0.7500 0.2374 0.0000
0.7500 0.2424 0.0000
0.7500 0.2475 0.0000
0.7500 0.2525 0.0000
0.7500 0.2576 0.0000
0.7500 0.2626 0.0000
0.7500 0.2677 0.0000
0.7500 0.2727 0.0000
0.7500 0.2778 0.0000
0.7500 0.2828 0.0000
0.7500 0.2879 0.0000
0.7500 0.2929 0.0000
0.7500 0.2980 0.0000
0.7500 0.3030 0.0000
0.7500 0.3081 0.0000
0.7500 0.3131 0.0000
0.7500 0.3182 0.0000
0.7500 0.3232 0.0000
0.7500 0.3283 0.0000
0.7500 0.3333 0.0000
0.7500 0.3384 0.0000
0.7500 0.3434 0.0000
0.7500 0.3485 0.0000
0.7500 0.3535 0.0000
0.7500 0.3586 0.0000
0.7500 0.3636 0.0000
0.7500 0.3687 0.0000
0.7500 0.3737 0.0000
0.7500 0.3788 0.0000
0.7500 0.3838 0.0000
0.7500 0.3889 0.0000
0.7500 0.3939 0.0000
0.7500 0.3990 0.0000
0.7500 0.4040 0.0000
0.7500 0.4091 0.0000
0.7500 0.4141 0.0000
0.7500 0.4192 0.0000
0.7500 0.4242 0.0000
0.7500 0.4293 0.0000
0.7500 0.4343 0.0000
0.7500 0.4394 0.0000
0.7500 0.4444 0.0000
0.7500 0.4495 0.0000
0.7500 0.4545 0.0000
0.7500 0.4596 0.0000
0.7500 0.4646 0.0000
0.7500 0.4697 0.0000
0.7500 0.4747 0.0000
0.7500 0.4798 0.0000
0.7500 0.4848 0.0000
0.7500 0.4899 0.0000
0.7500 0.4949 0.0000
0.7500 0.5000 0.0000
0.7708 0.0000 0.0000
0.7708 0.0051 0.0000
0.7708 0.0101 0.0000
0.7708 0.0152 0.0000
0.7708 0.0202 0.0000
0.7708 0.0253 0.0000
0.7708 0.0303 0.0000
0.7708 0.0354 0.0000
0.7708 0.0404 0.0000
0.7708 0.0455 0.0000
0.7708 0.0505 0.0000
0.7708 0.0556 0.0000
0.7708 0.0606 0.0000
0.7708 0.0657 0.0000
0.7708 0.0707 0.0000
0.7708 0.0758 0.0000
0.7708 0.0808 0.0000
0.7708 0.0859 0.0000
0.7708 0.0909 0.0000
0.7708 0.0960 0.0000
0.7708 0.1010 0.0000
0.7708 0.1061 0.0000
0.7708 0.1111 0.0000
0.7708 0.1162 0.0000
0.7708 0.1212 0.0000
0.7708 0.1263 0.0000
0.7708 0.1313 0.0000
0.7708 0.1364 0.0000
0.7708 0.1414 0.0000
0.7708 0.1465 0.0000
0.7708 0.1515 0.0000
0.7708 0.1566 0.0000
0.7708 0.1616 0.0000
0.7708 0.1667 0.0000
0.7708 0.1717 0.0000
0.7708 0.1768 0.0000
0.7708 0.1818 0.0000
0.7708 0.1869 0.0000
0.7708 0.1919 0.0000
0.7708 0.1970 0.0000
0.7708 0.2020 0.0000
0.7708 0.2071 0.0000
0.7708 0.2121 0.0000
0.7708 0.2172 0.0000
0.7708 0.2222 0.0000
0.7708 0.2273 0.0000
0.7708 0.2323 0.0000
0.7708 0.2374 0.0000
0.7708 0.2424 0.0000
0.7708 0.2475 0.0000
0.7708 0.2525 0.0000
0.7708 0.2576 0.0000
0.7708 0.2626 0.0000
0.7708 0.2677 0.0000
0.7708 0.2727 0.0000
0.7708 0.2778 0.0000
0.7708 0.2828 0.0000
0.7708 0.2879 0.0000
0.7708 0.2929 0.0000
0.7708 0.2980 0.0000
0.7708 0.3030 0.0000
0.7708 0.3081 0.0000
0.7708 0.3131 0.0000
0.7708 0.3182 0.0000
0.7708 0.3232 0.0000
0.7708 0.3283 0.0000
0.7708 0.3333 0.0000
0.7708 0.3384 0.0000
0.7708 0.3434 0.0000
0.7708 0.3485 0.0000
0.7708 0.3535 0.0000
0.7708 0.3586 0.0000
0.7708 0.3636 0.0000
0.7708 0.3687 0.0000
0.7708 0.3737 0.0000
0.7708 0.3788 0.0000
0.7708 0.3838 0.0000
0.7708 0.3889 0.0000
0.7708 0.3939 0.0000
0.7708 0.3990 0.0000
0.7708 0.4040 0.0000
0.7708 0.4091 0.0000
0.7708 0.4141 0.0000
0.7708 0.4192 0.0000
0.7708 0.4242 0.0000
0.7708 0.4293 0.0000
0.7708 0.4343 0.0000
0.7708 0.4394 0.0000
0.7708 0.4444 0.0000
0.7708 0.4495 0.0000
0.7708 0.4545 0.0000
0.7708 0.4596 0.0000
0.7708 0.4646 0.0000
0.7708 0.4697 0.0000
0.7708 0.4747 0.0000
0.7708 0.4798 0.0000
0.7708 0.4848 0.0000
0.7708 0.4899 0.0000
0.7708 0.4949 0.0000
0.7708 0.5000 0.0000
0.7917 0.0000 0.0000
0.7917 0.0051 0.0000
0.7917 0.0101 0.0000
0.7917 0.0152 0.0000
0.7917 0.0202 0.0000
0.7917 0.0253 0.0000
0.7917 0.0303 0.0000
0.7917 0.0354 0.0000
0.7917 0.0404 0.0000
0.7917 0.0455 0.0000
0.7917 0.0505 0.0000
0.7917 0.0556 0.0000
0.7917 0.0606 0.0000
0.7917 0.0657 0.0000
0.7917 0.0707 0.0000
0.7917 0.0758 0.0000
0.7917 0.0808 0.0000
0.7917 0.0859 0.0000
0.7917 0.0909 0.0000
0.7917 0.0960 0.0000
0.7917 0.1010 0.0000
0.7917 0.1061 0.0000
0.7917 0.1111 0.0000
0.7917 0.1162 0.0000
0.7917 0.1212 0.0000
0.7917 0.1263 0.0000
0.7917 0.1313 0.0000
0.7917 0.1364 0.0000
0.7917 0.1414 0.0000
0.7917 0.1465 0.0000
0.7917 0.1515 0.0000
0.7917 0.1566 0.0000
0.7917 0.1616 0.0000
0.7917 0.1667 0.0000
0.7917 0.1717 0.0000
0.7917 0.1768 0.0000
0.7917 0.1818 0.0000
0.7917 0.1869 0.0000
0.7917 0.1919 0.0000
0.7917 0.1970 0.0000
0.7917 0.2020 0.0000
0.7917 0.2071 0.0000
0.7917 0.2121 0.0000
0.7917 0.2172 0.0000
0.7917 0.2222 0.0000
0.7917 0.2273 0.0000
0.7917 0.2323 0.0000
0.7917 0.2374 0.0000
0.7917 0.2424 0.0000
0.7917 0.2475 0.0000
0.7917 0.2525 0.0000
0.7917 0.2576 0.0000
0.7917 0.2626 0.0000
0.7917 0.2677 0.0000
0.7917 0.2727 0.0000
0.7917 0.2778 0.0000
0.7917 0.2828 0.0000
0.7917 0.2879 0.0000
0.7917 0.2929 0.0000
0.7917 0.2980 0.0000
0.7917 0.3030 0.0000
0.7917 0.3081 0.0000
0.7917 0.3131 0.0000
0.7917 0.3182 0.0000
0.7917 0.3232 0.0000
0.7917 0.3283 0.0000
0.7917 0.3333 0.0000
0.7917 0.3384 0.0000
0.7917 0.3434 0.0000
0.7917 0.3485 0.0000
0.7917 0.3535 0.0000
0.7917 0.3586 0.0000
0.7917 0.3636 0.0000
0.7917 0.3687 0.0000
0.7917 0.3737 0.0000
0.7917 0.3788 0.0000
0.7917 0.3838 0.0000
0.7917 0.3889 0.0000
0.7917 0.3939 0.0000
0.7917 0.3990 0.0000
0.7917 0.4040 0.0000
0.7917 0.4091 0.0000
0.7917 0.4141 0.0000
0.7917 0.4192 0.0000
0.7917 0.4242 0.0000
0.7917 0.4293 0.0000
0.7917 0.4343 0.0000
0.7917 0.4394 0.0000
0.7917 0.4444 0.0000
0.7917 0.4495 0.0000
0.7917 0.4545 0.0000
0.7917 0.4596 0.0000
0.7917 0.4646 0.0000
0.7917 0.4697 0.0000
0.7917 0.4747 0.0000
0.7917 0.4798 0.0000
0.7917 0.4848 0.0000
0.7917 0.4899 0.0000
0.7917 0.4949 0.0000
0.7917 0.5000 0.0000
0.8125 0.0000 0.0000
0.8125 0.0051 0.0000
0.8125 0.0101 0.0000
0.8125 0.0152 0.0000
0.8125 0.0202 0.0000
0.8125 0.0253 0.0000
0.8125 0.0303 0.0000
0.8125 0.0354 0.0000
0.8125 0.0404 0.0000
0.8125 0.0455 0.0000
0.8125 0.0505 0.0000
0.8125 0.0556 0.0000
0.8125 0.0606 0.0000
0.8125 0.0657 0.0000
0.8125 0.0707 0.0000
0.8125 0.0758 0.0000
0.8125 0.0808 0.0000
0.8125 0.0859 0.0000
0.8125 0.0909 0.0000
0.8125 0.0960 0.0000
0.8125 0.1010 0.0000
0.8125 0.1061 0.0000
0.8125 0.1111 0.0000
0.8125 0.1162 0.0000
0.8125 0.1212 0.0000
0.8125 0.1263 0.0000
0.8125 0.1313 0.0000
0.8125 0.1364 0.0000
0.8125 0.1414 0.0000
0.8125 0.1465 0.0000
0.8125 0.1515 0.0000
0.8125 0.1566 0.0000
0.8125 0.1616 0.0000
0.8125 0.1667 0.0000
0.8125 0.1717 0.0000
0.8125 0.1768 0.0000
0.8125 0.1818 0.0000
0.8125 0.1869 0.0000
0.8125 0.1919 0.0000
0.8125 0.1970 0.0000
0.8125 0.2020 0.0000
0.8125 0.2071 0.0000
0.8125 0.2121 0.0000
0.8125 0.2172 0.0000
0.8125 0.2222 0.0000
0.8125 0.2273 0.0000
0.8125 0.2323 0.0000
0.8125 0.2374 0.0000
0.8125 0.2424 0.0000
0.8125 0.2475 0.0000
0.8125 0.2525 0.0000
0.8125 0.2576 0.0000
0.8125 0.2626 0.0000
0.8125 0.2677 0.0000
0.8125 0.2727 0.0000
0.8125 0.2778 0.0000
0.8125 0.2828 0.0000
0.8125 0.2879 0.0000
0.8125 0.2929 0.0000
0.8125 0.2980 0.0000
0.8125 0.3030 0.0000
0.8125 0.3081 0.0000
0.8125 0.3131 0.0000
0.8125 0.3182 0.0000
0.8125 0.3232 0.0000
0.8125 0.3283 0.0000
0.8125 0.3333 0.0000
0.8125 0.3384 0.0000
0.8125 0.3434 0.0000
0.8125 0.3485 0.0000
0.8125 0.3535 0.0000
0.8125 0.3586 0.0000
0.8125 0.3636 0.0000
0.8125 0.3687 0.0000
0.8125 0.3737 0.0000
0.8125 0.3788 0.0000
0.8125 0.3838 0.0000
0.8125 0.3889 0.0000
0.8125 0.3939 0.0000
0.8125 0.3990 0.0000
0.8125 0.4040 0.0000
0.8125 0.4091 0.0000
0.8125 0.4141 0.0000
0.8125 0.4192 0.0000
0.8125 0.4242 0.0000
0.8125 0.4293 0.0000
0.8125 0.4343 0.0000
0.8125 0.4394 0.0000
0.8125 0.4444 0.0000
0.8125 0.4495 0.0000
0.8125 0.4545 0.0000
0.8125 0.4596 0.0000
0.8125 0.4646 0.0000
0.8125 0.4697 0.0000
0.8125 0.4747 0.0000
0.8125 0.4798 0.0000
0.8125 0.4848 0.0000
0.8125 0.4899 0.0000
0.8125 0.4949 0.0000
0.8125 0.5000 0.0000
0.8333 0.0000 0.0000
0.8333 0.0051 0.0000
0.8333 0.0101 0.0000
0.8333 0.0152 0.0000
0.8333 0.0202 0.0000
0.8333 0.0253 0.0000
0.8333 0.0303 0.0000
0.8333 0.0354 0.0000
0.8333 0.0404 0.0000
0.8333 0.0455 0.0000
0.8333 0.0505 0.0000
0.8333 0.0556 0.0000
0.8333 0.0606 0.0000
0.8333 0.0657 0.0000
0.8333 0.0707 0.0000
0.8333 0.0758 0.0000
0.8333 0.0808 0.0000
0.8333 0.0859 0.0000
0.8333 0.0909 0.0000
0.8333 0.0960 0.0000
0.8333 0.1010 0.0000
0.8333 0.1061 0.0000
0.8333 0.1111 0.0000
0.8333 0.1162 0.0000
0.8333 0.1212 0.0000
0.8333 0.1263 0.0000
0.8333 0.1313 0.0000
0.8333 0.1364 0.0000
0.8333 0.1414 0.0000
0.8333 0.1465 0.0000
0.8333 0.1515 0.0000
0.8333 0.1566 0.0000
0.8333 0.1616 0.0000
0.8333 0.1667 0.0000
0.8333 0.1717 0.0000
0.8333 0.1768 0.0000
0.8333 0.1818 0.0000
0.8333 0.1869 0.0000
0.8333 0.1919 0.0000
0.8333 0.1970 0.0000
0.8333 0.2020 0.0000
0.8333 0.2071 0.0000
0.8333 0.2121 0.0000
0.8333 0.2172 0.0000
0.8333 0.2222 0.0000
0.8333 0.2273 0.0000
0.8333 0.2323 0.0000
0.8333 0.2374 0.0000
0.8333 0.2424 0.0000
0.8333 0.2475 0.0000
0.8333 0.2525 0.0000
0.8333 0.2576 0.0000
0.8333 0.2626 0.0000
0.8333 0.2677 0.0000
0.8333 0.2727 0.0000
0.8333 0.2778 0.0000
0.8333 0.2828 0.0000
0.8333 0.2879 0.0000
0.8333 0.2929 0.0000
0.8333 0.2980 0.0000
0.8333 0.3030 0.0000
0.8333 0.3081 0.0000
0.8333 0.3131 0.0000
0.8333 0.3182 0.0000
0.8333 0.3232 0.0000
0.8333 0.3283 0.0000
0.8333 0.3333 0.0000
0.8333 0.3384 0.0000
0.8333 0.3434 0.0000
0.8333 0.3485 0.0000
0.8333 0.3535 0.0000
0.8333 0.3586 0.0000
0.8333 0.3636 0.0000
0.8333 0.3687 0.0000
0.8333 0.3737 0.0000
0.8333 0.3788 0.0000
0.8333 0.3838 0.0000
0.8333 0.3889 0.0000
0.8333 0.3939 0.0000
0.8333 0.3990 0.0000
0.8333 0.4040 0.0000
0.8333 0.4091 0.0000
0.8333 0.4141 0.0000
0.8333 0.4192 0.0000
0.8333 0.4242 0.0000
0.8333 0.4293 0.0000
0.8333 0.4343 0.0000
0.8333 0.4394 0.0000
0.8333 0.4444 0.0000
0.8333 0.4495 0.0000
0.8333 0.4545 0.0000
0.8333 0.4596 0.0000
0.8333 0.4646 0.0000
0.8333 0.4697 0.0000
0.8333 0.4747 0.0000
0.8333 0.4798 0.0000
0.8333 0.4848 0.0000
0.8333 0.4899 0.0000
0.8333 0.4949 0.0000
0.8333 0.5000 0.0000
0.8542 0.0000 0.0000
0.8542 0.0051 0.0000
0.8542 0.0101 0.0000
0.8542 0.0152 0.0000
0.8542 0.0202 0.0000
0.8542 0.0253 0.0000
0.8542 0.0303 0.0000
0.8542 0.0354 0.0000
0.8542 0.0404 0.0000
0.8542 0.0455 0.0000
0.8542 0.0505 0.0000
0.8542 0.0556 0.0000
0.8542 0.0606 0.0000
0.8542 0.0657 0.0000
0.8542 0.0707 0.0000
0.8542 0.0758 0.0000
0.8542 0.0808 0.0000
0.8542 0.0859 0.0000
0.8542 0.0909 0.0000
0.8542 0.0960 0.0000
0.8542 0.1010 0.0000
0.8542 0.1061 0.0000
0.8542 0.1111 0.0000
0.8542 0.1162 0.0000
0.8542 0.1212 0.0000
0.8542 0.1263 0.0000
0.8542 0.1313 0.0000
0.8542 0.1364 0.0000
0.8542 0.1414 0.0000
0.8542 0.1465 0.0000
0.8542 0.1515 0.0000
0.8542 0.1566 0.0000
0.8542 0.1616 0.0000
0.8542 0.1667 0.0000
0.8542 0.1717 0.0000
0.8542 0.1768 0.0000
0.8542 0.1818 0.0000
0.8542 0.1869 0.0000
0.8542 0.1919 0.0000
0.8542 0.1970 0.0000
0.8542 0.2020 0.0000
0.8542 0.2071 0.0000
0.8542 0.2121 0.0000
0.8542 0.2172 0.0000
0.8542 0.2222 0.0000
0.8542 0.2273 0.0000
0.8542 0.2323 0.0000
0.8542 0.2374 0.0000
0.8542 0.2424 0.0000
0.8542 0.2475 0.0000
0.8542 0.2525 0.0000
0.8542 0.2576 0.0000
0.8542 0.2626 0.0000
0.8542 0.2677 0.0000
0.8542 0.2727 0.0000
0.8542 0.2778 0.0000
0.8542 0.2828 0.0000
0.8542 0.2879 0.0000
0.8542 0.2929 0.0000
0.8542 0.2980 0.0000
0.8542 0.3030 0.0000
0.8542 0.3081 0.0000
0.8542 0.3131 0.0000
0.8542 0.3182 0.0000
0.8542 0.3232 0.0000
0.8542 0.3283 0.0000
0.8542 0.3333 0.0000
0.8542 0.3384 0.0000
0.8542 0.3434 0.0000
0.8542 0.3485 0.0000
0.8542 0.3535 0.0000
0.8542 0.3586 0.0000
0.8542 0.3636 0.0000
0.8542 0.3687 0.0000
0.8542 0.3737 0.0000
0.8542 0.3788 0.0000
0.8542 0.3838 0.0000
0.8542 0.3889 0.0000
0.8542 0.3939 0.0000
0.8542 0.3990 0.0000
0.8542 0.4040 0.0000
0.8542 0.4091 0.0000
0.8542 0.4141 0.0000
0.8542 0.4192 0.0000
0.8542 0.4242 0.0000
0.8542 0.4293 0.0000
0.8542 0.4343 0.0000
0.8542 0.4394 0.0000
0.8542 0.4444 0.0000
0.8542 0.4495 0.0000
0.8542 0.4545 0.0000
0.8542 0.4596 0.0000
0.8542 0.4646 0.0000
0.8542 0.4697 0.0000
0.8542 0.4747 0.0000
0.8542 0.4798 0.0000
0.8542 0.4848 0.0000
0.8542 0.4899 0.0000
0.8542 0.4949 0.0000
0.8542 0.5000 0.0000
0.8750 0.0000 0.0000
0.8750 0.0051 0.0000
0.8750 0.0101 0.0000
0.8750 0.0152 0.0000
0.8750 0.0202 0.0000
0.8750 0.0253 0.0000
0.8750 0.0303 0.0000
0.8750 0.0354 0.0000
0.8750 0.0404 0.0000
0.8750 0.0455 0.0000
0.8750 0.0505 0.0000
0.8750 0.0556 0.0000
0.8750 0.0606 0.0000
0.8750 0.0657 0.0000
0.8750 0.0707 0.0000
0.8750 0.0758 0.0000
0.8750 0.0808 0.0000
0.8750 0.0859 0.0000
0.8750 0.0909 0.0000
0.8750 0.0960 0.0000
0.8750 0.1010 0.0000
0.8750 0.1061 0.0000
0.8750 0.1111 0.0000
0.8750 0.1162 0.0000
0.8750 0.1212 0.0000
0.8750 0.1263 0.0000
0.8750 0.1313 0.0000
0.8750 0.1364 0.0000
0.8750 0.1414 0.0000
0.8750 0.1465 0.0000
0.8750 0.1515 0.0000
0.8750 0.1566 0.0000
0.8750 0.1616 0.0000
0.8750 0.1667 0.0000
0.8750 0.1717 0.0000
0.8750 0.1768 0.0000
0.8750 0.1818 0.0000
0.8750 0.1869 0.0000
0.8750 0.1919 0.0000
0.8750 0.1970 0.0000
0.8750 0.2020 0.0000
0.8750 0.2071 0.0000
0.8750 0.2121 0.0000
0.8750 0.2172 0.0000
0.8750 0.2222 0.0000
0.8750 0.2273 0.0000
0.8750 0.2323 0.0000
0.8750 0.2374 0.0000
0.8750 0.2424 0.0000
0.8750 0.2475 0.0000
0.8750 0.2525 0.0000
0.8750 0.2576 0.0000
0.8750 0.2626 0.0000
0.8750 0.2677 0.0000
0.8750 0.2727 0.0000
0.8750 0.2778 0.0000
0.8750 0.2828 0.0000
0.8750 0.2879 0.0000
0.8750 0.2929 0.0000
0.8750 0.2980 0.0000
0.8750 0.3030 0.0000
0.8750 0.3081 0.0000
0.8750 0.3131 0.0000
0.8750 0.3182 0.0000
0.8750 0.3232 0.0000
0.8750 0.3283 0.0000
0.8750 0.3333 0.0000
0.8750 0.3384 0.0000
0.8750 0.3434 0.0000
0.8750 0.3485 0.0000
0.8750 0.3535 0.0000
0.8750 0.3586 0.0000
0.8750 0.3636 0.0000
0.8750 0.3687 0.0000
0.8750 0.3737 0.0000
0.8750 0.3788 0.0000
0.8750 0.3838 0.0000
0.8750 0.3889 0.0000
0.8750 0.3939 0.0000
0.8750 0.3990 0.0000
0.8750 0.4040 0.0000
0.8750 0.4091 0.0000
0.8750 0.4141 0.0000
0.8750 0.4192 0.0000
0.8750 0.4242 0.0000
0.8750 0.4293 0.0000
0.8750 0.4343 0.0000
0.8750 0.4394 0.0000
0.8750 0.4444 0.0000
0.8750 0.4495 0.0000
0.8750 0.4545 0.0000
0.8750 0.4596 0.0000
0.8750 0.4646 0.0000
0.8750 0.4697 0.0000
0.8750 0.4747 0.0000
0.8750 0.4798 0.0000
0.8750 0.4848 0.0000
0.8750 0.4899 0.0000
0.8750 0.4949 0.0000
0.8750 0.5000 0.0000
0.8958 0.0000 0.0000
0.8958 0.0051 0.0000
0.8958 0.0101 0.0000
0.8958 0.0152 0.0000
0.8958 0.0202 0.0000
0.8958 0.0253 0.0000
0.8958 0.0303 0.0000
0.8958 0.0354 0.0000
0.8958 0.0404 0.0000
0.8958 0.0455 0.0000
0.8958 0.0505 0.0000
0.8958 0.0556 0.0000
0.8958 0.0606 0.0000
0.8958 0.0657 0.0000
0.8958 0.0707 0.0000
0.8958 0.0758 0.0000
0.8958 0.0808 0.0000
0.8958 0.0859 0.0000
0.8958 0.0909 0.0000
0.8958 0.0960 0.0000
0.8958 0.1010 0.0000
0.8958 0.1061 0.0000
0.8958 0.1111 0.0000
0.8958 0.1162 0.0000
0.8958 0.1212 0.0000
0.8958 0.1263 0.0000
0.8958 0.1313 0.0000
0.8958 0.1364 0.0000
0.8958 0.1414 0.0000
0.8958 0.1465 0.0000
0.8958 0.1515 0.0000
0.8958 0.1566 0.0000
0.8958 0.1616 0.0000
0.8958 0.1667 0.0000
0.8958 0.1717 0.0000
0.8958 0.1768 0.0000
0.8958 0.1818 0.0000
0.8958 0.1869 0.0000
0.8958 0.1919 0.0000
0.8958 0.1970 0.0000
0.8958 0.2020 0.0000
0.8958 0.2071 0.0000
0.8958 0.2121 0.0000
0.8958 0.2172 0.0000
0.8958 0.2222 0.0000
0.8958 0.2273 0.0000
0.8958 0.2323 0.0000
0.8958 0.2374 0.0000
0.8958 0.2424 0.0000
0.8958 0.2475 0.0000
0.8958 0.2525 0.0000
0.8958 0.2576 0.0000
0.8958 0.2626 0.0000
0.8958 0.2677 0.0000
0.8958 0.2727 0.0000
0.8958 0.2778 0.0000
0.8958 0.2828 0.0000
0.8958 0.2879 0.0000
0.8958 0.2929 0.0000
0.8958 0.2980 0.0000
0.8958 0.3030 0.0000
0.8958 0.3081 0.0000
0.8958 0.3131 0.0000
0.8958 0.3182 0.0000
0.8958 0.3232 0.0000
0.8958 0.3283 0.0000
0.8958 0.3333 0.0000
0.8958 0.3384 0.0000
0.8958 0.3434 0.0000
0.8958 0.3485 0.0000
0.8958 0.3535 0.0000
0.8958 0.3586 0.0000
0.8958 0.3636 0.0000
0.8958 0.3687 0.0000
0.8958 0.3737 0.0000
0.8958 0.3788 0.0000
0.8958 0.3838 0.0000
0.8958 0.3889 0.0000
0.8958 0.3939 0.0000
0.8958 0.3990 0.0000
0.8958 0.4040 0.0000
0.8958 0.4091 0.0000
0.8958 0.4141 0.0000
0.8958 0.4192 0.0000
0.8958 0.4242 0.0000
0.8958 0.4293 0.0000
0.8958 0.4343 0.0000
0.8958 0.4394 0.0000
0.8958 0.4444 0.0000
0.8958 0.4495 0.0000
0.8958 0.4545 0.0000
0.8958 0.4596 0.0000
0.8958 0.4646 0.0000
0.8958 0.4697 0.0000
0.8958 0.4747 0.0000
0.8958 0.4798 0.0000
0.8958 0.4848 0.0000
0.8958 0.4899 0.0000
0.8958 0.4949 0.0000
0.8958 0.5000 0.0000
0.9167 0.0000 0.0000
0.9167 0.0051 0.0000
0.9167 0.0101 0.0000
0.9167 0.0152 0.0000
0.9167 0.0202 0.0000
0.9167 0.0253 0.0000
0.9167 0.0303 0.0000
0.9167 0.0354 0.0000
0.9167 0.0404 0.0000
0.9167 0.0455 0.0000
0.9167 0.0505 0.0000
0.9167 0.0556 0.0000
0.9167 0.0606 0.0000
0.9167 0.0657 0.0000
0.9167 0.0707 0.0000
0.9167 0.0758 0.0000
0.9167 0.0808 0.0000
0.9167 0.0859 0.0000
0.9167 0.0909 0.0000
0.9167 0.0960 0.0000
0.9167 0.1010 0.0000
0.9167 0.1061 0.0000
0.9167 0.1111 0.0000
0.9167 0.1162 0.0000
0.9167 0.1212 0.0000
0.9167 0.1263 0.0000
0.9167 0.1313 0.0000
0.9167 0.1364 0.0000
0.9167 0.1414 0.0000
0.9167 0.1465 0.0000
0.9167 0.1515 0.0000
0.9167 0.1566 0.0000
0.9167 0.1616 0.0000
0.9167 0.1667 0.0000
0.9167 0.1717 0.0000
0.9167 0.1768 0.0000
0.9167 0.1818 0.0000
0.9167 0.1869 0.0000
0.9167 0.1919 0.0000
0.9167 0.1970 0.0000
0.9167 0.2020 0.0000
0.9167 0.2071 0.0000
0.9167 0.2121 0.0000
0.9167 0.2172 0.0000
0.9167 0.2222 0.0000
0.9167 0.2273 0.0000
0.9167 0.2323 0.0000
0.9167 0.2374 0.0000
0.9167 0.2424 0.0000
0.9167 0.2475 0.0000
0.9167 0.2525 0.0000
0.9167 0.2576 0.0000
0.9167 0.2626 0.0000
0.9167 0.2677 0.0000
0.9167 0.2727 0.0000
0.9167 0.2778 0.0000
0.9167 0.2828 0.0000
0.9167 0.2879 0.0000
0.9167 0.2929 0.0000
0.9167 0.2980 0.0000
0.9167 0.3030 0.0000
0.9167 0.3081 0.0000
0.9167 0.3131 0.0000
0.9167 0.3182 0.0000
0.9167 0.3232 0.0000
0.9167 0.3283 0.0000
0.9167 0.3333 0.0000
0.9167 0.3384 0.0000
0.9167 0.3434 0.0000
0.9167 0.3485 0.0000
0.9167 0.3535 0.0000
0.9167 0.3586 0.0000
0.9167 0.3636 0.0000
0.9167 0.3687 0.0000
0.9167 0.3737 0.0000
0.9167 0.3788 0.0000
0.9167 0.3838 0.0000
0.9167 0.3889 0.0000
0.9167 0.3939 0.0000
0.9167 0.3990 0.0000
0.9167 0.4040 0.0000
0.9167 0.4091 0.0000
0.9167 0.4141 0.0000
0.9167 0.4192 0.0000
0.9167 0.4242 0.0000
0.9167 0.4293 0.0000
0.9167 0.4343 0.0000
0.9167 0.4394 0.0000
0.9167 0.4444 0.0000
0.9167 0.4495 0.0000
0.9167 0.4545 0.0000
0.9167 0.4596 0.0000
0.9167 0.4646 0.0000
0.9167 0.4697 0.0000
0.9167 0.4747 0.0000
0.9167 0.4798 0.0000
0.9167 0.4848 0.0000
0.9167 0.4899 0.0000
0.9167 0.4949 0.0000
0.9167 0.5000 0.0000
0.9375 0.0000 0.0000
0.9375 0.0051 0.0000
0.9375 0.0101 0.0000
0.9375 0.0152 0.0000
0.9375 0.0202 0.0000
0.9375 0.0253 0.0000
0.9375 0.0303 0.0000
0.9375 0.0354 0.0000
0.9375 0.0404 0.0000
0.9375 0.0455 0.0000
0.9375 0.0505 0.0000
0.9375 0.0556 0.0000
0.9375 0.0606 0.0000
0.9375 0.0657 0.0000
0.9375 0.0707 0.0000
0.9375 0.0758 0.0000
0.9375 0.0808 0.0000
0.9375 0.0859 0.0000
0.9375 0.0909 0.0000
0.9375 0.0960 0.0000
0.9375 0.1010 0.0000
0.9375 0.1061 0.0000
0.9375 0.1111 0.0000
0.9375 0.1162 0.0000
0.9375 0.1212 0.0000
0.9375 0.1263 0.0000
0.9375 0.1313 0.0000
0.9375 0.1364 0.0000
0.9375 0.1414 0.0000
0.9375 0.1465 0.0000
0.9375 0.1515 0.0000
0.9375 0.1566 0.0000
0.9375 0.1616 0.0000
0.9375 0.1667 0.0000
0.9375 0.1717 0.0000
0.9375 0.1768 0.0000
0.9375 0.1818 0.0000
0.9375 0.1869 0.0000
0.9375 0.1919 0.0000
0.9375 0.1970 0.0000
0.9375 0.2020 0.0000
0.9375 0.2071 0.0000
0.9375 0.2121 0.0000
0.9375 0.2172 0.0000
0.9375 0.2222 0.0000
0.9375 0.2273 0.0000
0.9375 0.2323 0.0000
0.9375 0.2374 0.0000
0.9375 0.2424 0.0000
0.9375 0.2475 0.0000
0.9375 0.2525 0.0000
0.9375 0.2576 0.0000
0.9375 0.2626 0.0000
0.9375 0.2677 0.0000
0.9375 0.2727 0.0000
0.9375 0.2778 0.0000
0.9375 0.2828 0.0000
0.9375 0.2879 0.0000
0.9375 0.2929 0.0000
0.9375 0.2980 0.0000
0.9375 0.3030 0.0000
0.9375 0.3081 0.0000
0.9375 0.3131 0.0000
0.9375 0.3182 0.0000
0.9375 0.3232 0.0000
0.9375 0.3283 0.0000
0.9375 0.3333 0.0000
0.9375 0.3384 0.0000
0.9375 0.3434 0.0000
0.9375 0.3485 0.0000
0.9375 0.3535 0.0000
0.9375 0.3586 0.0000
0.9375 0.3636 0.0000
0.9375 0.3687 0.0000
0.9375 0.3737 0.0000
0.9375 0.3788 0.0000
0.9375 0.3838 0.0000
0.9375 0.3889 0.0000
0.9375 0.3939 0.0000
0.9375 0.3990 0.0000
0.9375 0.4040 0.0000
0.9375 0.4091 0.0000
0.9375 0.4141 0.0000
0.9375 0.4192 0.0000
0.9375 0.4242 0.0000
0.9375 0.4293 0.0000
0.9375 0.4343 0.0000
0.9375 0.4394 0.0000
0.9375 0.4444 0.0000
0.9375 0.4495 0.0000
0.9375 0.4545 0.0000
0.9375 0.4596 0.0000
0.9375 0.4646 0.0000
0.9375 0.4697 0.0000
0.9375 0.4747 0.0000
0.9375 0.4798 0.0000
0.9375 0.4848 0.0000
0.9375 0.4899 0.0000
0.9375 0.4949 0.0000
0.9375 0.5000 0.0000
0.9583 0.0000 0.0000
0.9583 0.0051 0.0000
0.9583 0.0101 0.0000
0.9583 0.0152 0.0000
0.9583 0.0202 0.0000
0.9583 0.0253 0.0000
0.9583 0.0303 0.0000
0.9583 0.0354 0.0000
0.9583 0.0404 0.0000
0.9583 0.0455 0.0000
0.9583 0.0505 0.0000
0.9583 0.0556 0.0000
0.9583 0.0606 0.0000
0.9583 0.0657 0.0000
0.9583 0.0707 0.0000
0.9583 0.0758 0.0000
0.9583 0.0808 0.0000
0.9583 0.0859 0.0000
0.9583 0.0909 0.0000
0.9583 0.0960 0.0000
0.9583 0.1010 0.0000
0.9583 0.1061 0.0000
0.9583 0.1111 0.0000
0.9583 0.1162 0.0000
0.9583 0.1212 0.0000
0.9583 0.1263 0.0000
0.9583 0.1313 0.0000
0.9583 0.1364 0.0000
0.9583 0.1414 0.0000
0.9583 0.1465 0.0000
0.9583 0.1515 0.0000
0.9583 0.1566 0.0000
0.9583 0.1616 0.0000
0.9583 0.1667 0.0000
0.9583 0.1717 0.0000
0.9583 0.1768 0.0000
0.9583 0.1818 0.0000
0.9583 0.1869 0.0000
0.9583 0.1919 0.0000
0.9583 0.1970 0.0000
0.9583 0.2020 0.0000
0.9583 0.2071 0.0000
0.9583 0.2121 0.0000
0.9583 0.2172 0.0000
0.9583 0.2222 0.0000
0.9583 0.2273 0.0000
0.9583 0.2323 0.0000
0.9583 0.2374 0.0000
0.9583 0.2424 0.0000
0.9583 0.2475 0.0000
0.9583 0.2525 0.0000
0.9583 0.2576 0.0000
0.9583 0.2626 0.0000
0.9583 0.2677 0.0000
0.9583 0.2727 0.0000
0.9583 0.2778 0.0000
0.9583 0.2828 0.0000
0.9583 0.2879 0.0000
0.9583 0.2929 0.0000
0.9583 0.2980 0.0000
0.9583 0.3030 0.0000
0.9583 0.3081 0.0000
0.9583 0.3131 0.0000
0.9583 0.3182 0.0000
0.9583 0.3232 0.0000
0.9583 0.3283 0.0000
0.9583 0.3333 0.0000
0.9583 0.3384 0.0000
0.9583 0.3434 0.0000
0.9583 0.3485 0.0000
0.9583 0.3535 0.0000
0.9583 0.3586 0.0000
0.9583 0.3636 0.0000
0.9583 0.3687 0.0000
0.9583 0.3737 0.0000
0.9583 0.3788 0.0000
0.9583 0.3838 0.0000
0.9583 0.3889 0.0000
0.9583 0.3939 0.0000
0.9583 0.3990 0.0000
0.9583 0.4040 0.0000
0.9583 0.4091 0.0000
0.9583 0.4141 0.0000
0.9583 0.4192 0.0000
0.9583 0.4242 0.0000
0.9583 0.4293 0.0000
0.9583 0.4343 0.0000
0.9583 0.4394 0.0000
0.9583 0.4444 0.0000
0.9583 0.4495 0.0000
0.9583 0.4545 0.0000
0.9583 0.4596 0.0000
0.9583 0.4646 0.0000
0.9583 0.4697 0.0000
0.9583 0.4747 0.0000
0.9583 0.4798 0.0000
0.9583 0.4848 0.0000
0.9583 0.4899 0.0000
0.9583 0.4949 0.0000
0.9583 0.5000 0.0000
0.9792 0.0000 0.0000
0.9792 0.0051 0.0000
0.9792 0.0101 0.0000
0.9792 0.0152 0.0000
0.9792 0.0202 0.0000
0.9792 0.0253 0.0000
0.9792 0.0303 0.0000
0.9792 0.0354 0.0000
0.9792 0.0404 0.0000
0.9792 0.0455 0.0000
0.9792 0.0505 0.0000
0.9792 0.0556 0.0000
0.9792 0.0606 0.0000
0.9792 0.0657 0.0000
0.9792 0.0707 0.0000
0.9792 0.0758 0.0000
0.9792 0.0808 0.0000
0.9792 0.0859 0.0000
0.9792 0.0909 0.0000
0.9792 0.0960 0.0000
0.9792 0.1010 0.0000
0.9792 0.1061 0.0000
0.9792 0.1111 0.0000
0.9792 0.1162 0.0000
0.9792 0.1212 0.0000
0.9792 0.1263 0.0000
0.9792 0.1313 0.0000
0.9792 0.1364 0.0000
0.9792 0.1414 0.0000
0.9792 0.1465 0.0000
0.9792 0.1515 0.0000
0.9792 0.1566 0.0000
0.9792 0.1616 0.0000
0.9792 0.1667 0.0000
0.9792 0.1717 0.0000
0.9792 0.1768 0.0000
0.9792 0.1818 0.0000
0.9792 0.1869 0.0000
0.9792 0.1919 0.0000
0.9792 0.1970 0.0000
0.9792 0.2020 0.0000
0.9792 0.2071 0.0000
0.9792 0.2121 0.0000
0.9792 0.2172 0.0000
0.9792 0.2222 0.0000
0.9792 0.2273 0.0000
0.9792 0.2323 0.0000
0.9792 0.2374 0.0000
0.9792 0.2424 0.0000
0.9792 0.2475 0.0000
0.9792 0.2525 0.0000
0.9792 0.2576 0.0000
0.9792 0.2626 0.0000
0.9792 0.2677 0.0000
0.9792 0.2727 0.0000
0.9792 0.2778 0.0000
0.9792 0.2828 0.0000
0.9792 0.2879 0.0000
0.9792 0.2929 0.0000
0.9792 0.2980 0.0000
0.9792 0.3030 0.0000
0.9792 0.3081 0.0000
0.9792 0.3131 0.0000
0.9792 0.3182 0.0000
0.9792 0.3232 0.0000
0.9792 0.3283 0.0000
0.9792 0.3333 0.0000
0.9792 0.3384 0.0000
0.9792 0.3434 0.0000
0.9792 0.3485 0.0000
0.9792 0.3535 0.0000
0.9792 0.3586 0.0000
0.9792 0.3636 0.0000
0.9792 0.3687 0.0000
0.9792 0.3737 0.0000
0.9792 0.3788 0.0000
0.9792 0.3838 0.0000
0.9792 0.3889 0.0000
0.9792 0.3939 0.0000
0.9792 0.3990 0.0000
0.9792 0.4040 0.0000
0.9792 0.4091 0.0000
0.9792 0.4141 0.0000
0.9792 0.4192 0.0000
0.9792 0.4242 0.0000
0.9792 0.4293 0.0000
0.9792 0.4343 0.0000
0.9792 0.4394 0.0000
0.9792 0.4444 0.0000
0.9792 0.4495 0.0000
0.9792 0.4545 0.0000
0.9792 0.4596 0.0000
0.9792 0.4646 0.0000
0.9792 0.4697 0.0000
0.9792 0.4747 0.0000
0.9792 0.4798 0.0000
0.9792 0.4848 0.0000
0.9792 0.4899 0.0000
0.9792 0.4949 0.0000
0.9792 0.5000 0.0000
1.0000 0.0000 0.0000
1.0000 0.0051 0.0000
1.0000 0.0101 0.0000
1.0000 0.0152 0.0000
1.0000 0.0202 0.0000
1.0000 0.0253 0.0000
1.0000 0.0303 0.0000
1.0000 0.0354 0.0000
1.0000 0.0404 0.0000
1.0000 0.0455 0.0000
1.0000 0.0505 0.0000
1.0000 0.0556 0.0000
1.0000 0.0606 0.0000
1.0000 0.0657 0.0000
1.0000 0.0707 0.0000
1.0000 0.0758 0.0000
1.0000 0.0808 0.0000
1.0000 0.0859 0.0000
1.0000 0.0909 0.0000
1.0000 0.0960 0.0000
1.0000 0.1010 0.0000
1.0000 0.1061 0.0000
1.0000 0.1111 0.0000
1.0000 0.1162 0.0000
1.0000 0.1212 0.0000
1.0000 0.1263 0.0000
1.0000 0.1313 0.0000
1.0000 0.1364 0.0000
1.0000 0.1414 0.0000
1.0000 0.1465 0.0000
1.0000 0.1515 0.0000
1.0000 0.1566 0.0000
1.0000 0.1616 0.0000
1.0000 0.1667 0.0000
1.0000 0.1717 0.0000
1.0000 0.1768 0.0000
1.0000 0.1818 0.0000
1.0000 0.1869 0.0000
1.0000 0.1919 0.0000
1.0000 0.1970 0.0000
1.0000 0.2020 0.0000
1.0000 0.2071 0.0000
1.0000 0.2121 0.0000
1.0000 0.2172 0.0000
1.0000 0.2222 0.0000
1.0000 0.2273 0.0000
1.0000 0.2323 0.0000
1.0000 0.2374 0.0000
1.0000 0.2424 0.0000
1.0000 0.2475 0.0000
1.0000 0.2525 0.0000
1.0000 0.2576 0.0000
1.0000 0.2626 0.0000
1.0000 0.2677 0.0000
1.0000 0.2727 0.0000
1.0000 0.2778 0.0000
1.0000 0.2828 0.0000
1.0000 0.2879 0.0000
1.0000 0.2929 0.0000
1.0000 0.2980 0.0000
1.0000 0.3030 0.0000
1.0000 0.3081 0.0000
1.0000 0.3131 0.0000
1.0000 0.3182 0.0000
1.0000 0.3232 0.0000
1.0000 0.3283 0.0000
1.0000 0.3333 0.0000
1.0000 0.3384 0.0000
1.0000 0.3434 0.0000
1.0000 0.3485 0.0000
1.0000 0.3535 0.0000
1.0000 0.3586 0.0000
1.0000 0.3636 0.0000
1.0000 0.3687 0.0000
1.0000 0.3737 0.0000
1.0000 0.3788 0.0000
1.0000 0.3838 0.0000
1.0000 0.3889 0.0000
1.0000 0.3939 0.0000
1.0000 0.3990 0.0000
1.0000 0.4040 0.0000
1.0000 0.4091 0.0000
1.0000 0.4141 0.0000
1.0000 0.4192 0.0000
1.0000 0.4242 0.0000
1.0000 0.4293 0.0000
1.0000 0.4343 0.0000
1.0000 0.4394 0.0000
1.0000 0.4444 0.0000
1.0000 0.4495 0.0000
1.0000 0.4545 0.0000
1.0000 0.4596 0.0000
1.0000 0.4646 0.0000
1.0000 0.4697 0.0000
1.0000 0.4747 0.0000
1.0000 0.4798 0.0000
1.0000 0.4848 0.0000
1.0000 0.4899 0.0000
1.0000 0.4949 0.0000
1.0000 0.5000 0.0000
0.0104 0.0025 0.0000
0.0104 0.0076 0.0000
0.0104 0.0126 0.0000
0.0104 0.0177 0.0000
0.0104 0.0227 0.0000
0.0104 0.0278 0.0000
0.0104 0.0328 0.0000
0.0104 0.0379 0.0000
0.0104 0.0429 0.0000
0.0104 0.0480 0.0000
0.0104 0.0530 0.0000
0.0104 0.0581 0.0000
0.0104 0.0631 0.0000
0.0104 0.0682 0.0000
0.0104 0.0732 0.0000
0.0104 0.0783 0.0000
0.0104 0.0833 0.0000
0.0104 0.0884 0.0000
0.0104 0.0934 0.0000
0.0104 0.0985 0.0000
0.0104 0.1035 0.0000
0.0104 0.1086 0.0000
0.0104 0.1136 0.0000
0.0104 0.1187 0.0000
0.0104 0.1237 0.0000
0.0104 0.1288 0.0000
0.0104 0.1338 0.0000
0.0104 0.1389 0.0000
0.0104 0.1439 0.0000
0.0104 0.1490 0.0000
0.0104 0.1540 0.0000
0.0104 0.1591 0.0000
0.0104 0.1641 0.0000
0.0104 0.1692 0.0000
0.0104 0.1742 0.0000
0.0104 0.1793 0.0000
0.0104 0.1843 0.0000
0.0104 0.1894 0.0000
0.0104 0.1944 0.0000
0.0104 0.1995 0.0000
0.0104 0.2045 0.0000
0.0104 0.2096 0.0000
0.0104 0.2146 0.0000
0.0104 0.2197 0.0000
0.0104 0.2247 0.0000
0.0104 0.2298 0.0000
0.0104 0.2348 0.0000
0.0104 0.2399 0.0000
0.0104 0.2449 0.0000
0.0104 0.2500 0.0000
0.0104 0.2551 0.0000
0.0104 0.2601 0.0000
0.0104 0.2652 0.0000
0.0104 0.2702 0.0000
0.0104 0.2753 0.0000
0.0104 0.2803 0.0000
0.0104 0.2854 0.0000
0.0104 0.2904 0.0000
0.0104 0.2955 0.0000
0.0104 0.3005 0.0000
0.0104 0.3056 0.0000
0.0104 0.3106 0.0000
0.0104 0.3157 0.0000
0.0104 0.3207 0.0000
0.0104 0.3258 0.0000
0.0104 0.3308 0.0000
0.0104 0.3359 0.0000
0.0104 0.3409 0.0000
0.0104 0.3460 0.0000
0.0104 0.3510 0.0000
0.0104 0.3561 0.0000
0.0104 0.3611 0.0000
0.0104 0.3662 0.0000
0.0104 0.3712 0.0000
0.0104 0.3763 0.0000
0.0104 0.3813 0.0000
0.0104 0.3864 0.0000
0.0104 0.3914 0.0000
0.0104 0.3965 0.0000
0.0104 0.4015 0.0000
0.0104 0.4066 0.0000
0.0104 0.4116 0.0000
0.0104 0.4167 0.0000
0.0104 0.4217 0.0000
0.0104 0.4268 0.0000
0.0104 0.4318 0.0000
0.0104 0.4369 0.0000
0.0104 0.4419 0.0000
0.0104 0.4470 0.0000
0.0104 0.4520 0.0000
0.0104 0.4571 0.0000
0.0104 0.4621 0.0000
0.0104 0.4672 0.0000
0.0104 0.4722 0.0000
0.0104 0.4773 0.0000
0.0104 0.4823 0.0000
0.0104 0.4874 0.0000
0.0104 0.4924 0.0000
0.0104 0.4975 0.0000
0.0312 0.0025 0.0000
0.0312 0.0076 0.0000
0.0312 0.0126 0.0000
0.0312 0.0177 0.0000
0.0312 0.0227 0.0000
0.0312 0.0278 0.0000
0.0312 0.0328 0.0000
0.0312 0.0379 0.0000
0.0312 0.0429 0.0000
0.0312 0.0480 0.0000
0.0312 0.0530 0.0000
0.0312 0.0581 0.0000
0.0312 0.0631 0.0000
0.0312 0.0682 0.0000
0.0312 0.0732 0.0000
0.0312 0.0783 0.0000
0.0312 0.0833 0.0000
0.0312 0.0884 0.0000
0.0312 0.0934 0.0000
0.0312 0.0985 0.0000
0.0312 0.1035 0.0000
0.0312 0.1086 0.0000
0.0312 0.1136 0.0000
0.0312 0.1187 0.0000
0.0312 0.1237 0.0000
0.0312 0.1288 0.0000
0.0312 0.1338 0.0000
0.0312 0.1389 0.0000
0.0312 0.1439 0.0000
0.0312 0.1490 0.0000
0.0312 0.1540 0.0000
0.0312 0.1591 0.0000
0.0312 0.1641 0.0000
0.0312 0.1692 0.0000
0.0312 0.1742 0.0000
0.0312 0.1793 0.0000
0.0312 0.1843 0.0000
0.0312 0.1894 0.0000
0.0312 0.1944 0.0000
0.0312 0.1995 0.0000
0.0312 0.2045 0.0000
0.0312 0.2096 0.0000
0.0312 0.2146 0.0000
0.0312 0.2197 0.0000
0.0312 0.2247 0.0000
0.0312 0.2298 0.0000
0.0312 0.2348 0.0000
0.0312 0.2399 0.0000
0.0312 0.2449 0.0000
0.0312 0.2500 0.0000
0.0312 0.2551 0.0000
0.0312 0.2601 0.0000
0.0312 0.2652 0.0000
0.0312 0.2702 0.0000
0.0312 0.2753 0.0000
0.0312 0.2803 0.0000
0.0312 0.2854 0.0000
0.0312 0.2904 0.0000
0.0312 0.2955 0.0000
0.0312 0.3005 0.0000
0.0312 0.3056 0.0000
0.0312 0.3106 0.0000
0.0312 0.3157 0.0000
0.0312 0.3207 0.0000
0.0312 0.3258 0.0000
0.0312 0.3308 0.0000
0.0312 0.3359 0.0000
0.0312 0.3409 0.0000
0.0312 0.3460 0.0000
0.0312 0.3510 0.0000
0.0312 0.3561 0.0000
0.0312 0.3611 0.0000
0.0312 0.3662 0.0000
0.0312 0.3712 0.0000
0.0312 0.3763 0.0000
0.0312 0.3813 0.0000
0.0312 0.3864 0.0000
0.0312 0.3914 0.0000
0.0312 0.3965 0.0000
0.0312 0.4015 0.0000
0.0312 0.4066 0.0000
0.0312 0.4116 0.0000
0.0312 0.4167 0.0000
0.0312 0.4217 0.0000
0.0312 0.4268 0.0000
0.0312 0.4318 0.0000
0.0312 0.4369 0.0000
0.0312 0.4419 0.0000
0.0312 0.4470 0.0000
0.0312 0.4520 0.0000
0.0312 0.4571 0.0000
0.0312 0.4621 0.0000
0.0312 0.4672 0.0000
0.0312 0.4722 0.0000
0.0312 0.4773 0.0000
0.0312 0.4823 0.0000
0.0312 0.4874 0.0000
0.0312 0.4924 0.0000
0.0312 0.4975 0.0000
0.0521 0.0025 0.0000
0.0521 0.0076 0.0000
0.0521 0.0126 0.0000
0.0521 0.0177 0.0000
0.0521 0.0227 0.0000
0.0521 0.0278 0.0000
0.0521 0.0328 0.0000
0.0521 0.0379 0.0000
0.0521 0.0429 0.0000
0.0521 0.0480 0.0000
0.0521 0.0530 0.0000
0.0521 0.0581 0.0000
0.0521 0.0631 0.0000
0.0521 0.0682 0.0000
0.0521 0.0732 0.0000
0.0521 0.0783 0.0000
0.0521 0.0833 0.0000
0.0521 0.0884 0.0000
0.0521 0.0934 0.0000
0.0521 0.0985 0.0000
0.0521 0.1035 0.0000
0.0521 0.1086 0.0000
0.0521 0.1136 0.0000
0.0521 0.1187 0.0000
0.0521 0.1237 0.0000
0.0521 0.1288 0.0000
0.0521 0.1338 0.0000
0.0521 0.1389 0.0000
0.0521 0.1439 0.0000
0.0521 0.1490 0.0000
0.0521 0.1540 0.0000
0.0521 0.1591 0.0000
0.0521 0.1641 0.0000
0.0521 0.1692 0.0000
0.0521 0.1742 0.0000
0.0521 0.1793 0.0000
0.0521 0.1843 0.0000
0.0521 0.1894 0.0000
0.0521 0.1944 0.0000
0.0521 0.1995 0.0000
0.0521 0.2045 0.0000
0.0521 0.2096 0.0000
0.0521 0.2146 0.0000
0.0521 0.2197 0.0000
0.0521 0.2247 0.0000
0.0521 0.2298 0.0000
0.0521 0.2348 0.0000
0.0521 0.2399 0.0000
0.0521 0.2449 0.0000
0.0521 0.2500 0.0000
0.0521 0.2551 0.0000
0.0521 0.2601 0.0000
0.0521 0.2652 0.0000
0.0521 0.2702 0.0000
0.0521 0.2753 0.0000
0.0521 0.2803 0.0000
0.0521 0.2854 0.0000
0.0521 0.2904 0.0000
0.0521 0.2955 0.0000
0.0521 0.3005 0.0000
0.0521 0.3056 0.0000
0.0521 0.3106 0.0000
0.0521 0.3157 0.0000
0.0521 0.3207 0.0000
0.0521 0.3258 0.0000
0.0521 0.3308 0.0000
0.0521 0.3359 0.0000
0.0521 0.3409 0.0000
0.0521 0.3460 0.0000
0.0521 0.3510 0.0000
0.0521 0.3561 0.0000
0.0521 0.3611 0.0000
0.0521 0.3662 0.0000
0.0521 0.3712 0.0000
0.0521 0.3763 0.0000
0.0521 0.3813 0.0000
0.0521 0.3864 0.0000
0.0521 0.3914 0.0000
0.0521 0.3965 0.0000
0.0521 0.4015 0.0000
0.0521 0.4066 0.0000
0.0521 0.4116 0.0000
0.0521 0.4167 0.0000
0.0521 0.4217 0.0000
0.0521 0.4268 0.0000
0.0521 0.4318 0.0000
0.0521 0.4369 0.0000
0.0521 0.4419 0.0000
0.0521 0.4470 0.0000
0.0521 0.4520 0.0000
0.0521 0.4571 0.0000
0.0521 0.4621 0.0000
0.0521 0.4672 0.0000
0.0521 0.4722 0.0000
0.0521 0.4773 0.0000
0.0521 0.4823 0.0000
0.0521 0.4874 0.0000
0.0521 0.4924 0.0000
0.0521 0.4975 0.0000
0.0729 0.0025 0.0000
0.0729 0.0076 0.0000
0.0729 0.0126 0.0000
0.0729 0.0177 0.0000
0.0729 0.0227 0.0000
0.0729 0.0278 0.0000
0.0729 0.0328 0.0000
0.0729 0.0379 0.0000
0.0729 0.0429 0.0000
0.0729 0.0480 0.0000
0.0729 0.0530 0.0000
0.0729 0.0581 0.0000
0.0729 0.0631 0.0000
0.0729 0.0682 0.0000
0.0729 0.0732 0.0000
0.0729 0.0783 0.0000
0.0729 0.0833 0.0000
0.0729 0.0884 0.0000
0.0729 0.0934 0.0000
0.0729 0.0985 0.0000
0.0729 0.1035 0.0000
0.0729 0.1086 0.0000
0.0729 0.1136 0.0000
0.0729 0.1187 0.0000
0.0729 0.1237 0.0000
0.0729 0.1288 0.0000
0.0729 0.1338 0.0000
0.0729 0.1389 0.0000
0.0729 0.1439 0.0000
0.0729 0.1490 0.0000
0.0729 0.1540 0.0000
0.0729 0.1591 0.0000
0.0729 0.1641 0.0000
0.0729 0.1692 0.0000
0.0729 0.1742 0.0000
0.0729 0.1793 0.0000
0.0729 0.1843 0.0000
0.0729 0.1894 0.0000
0.0729 0.1944 0.0000
0.0729 0.1995 0.0000
0.0729 0.2045 0.0000
0.0729 0.2096 0.0000
0.0729 0.2146 0.0000
0.0729 0.2197 0.0000
0.0729 0.2247 0.0000
0.0729 0.2298 0.0000
0.0729 0.2348 0.0000
0.0729 0.2399 0.0000
0.0729 0.2449 0.0000
0.0729 0.2500 0.0000
0.0729 0.2551 0.0000
0.0729 0.2601 0.0000
0.0729 0.2652 0.0000
0.0729 0.2702 0.0000
0.0729 0.2753 0.0000
0.0729 0.2803 0.0000
0.0729 0.2854 0.0000
0.0729 0.2904 0.0000
0.0729 0.2955 0.0000
0.0729 0.3005 0.0000
0.0729 0.3056 0.0000
0.0729 0.3106 0.0000
0.0729 0.3157 0.0000
0.0729 0.3207 0.0000
0.0729 0.3258 0.0000
0.0729 0.3308 0.0000
0.0729 0.3359 0.0000
0.0729 0.3409 0.0000
0.0729 0.3460 0.0000
0.0729 0.3510 0.0000
0.0729 0.3561 0.0000
0.0729 0.3611 0.0000
0.0729 0.3662 0.0000
0.0729 0.3712 0.0000
0.0729 0.3763 0.0000
0.0729 0.3813 0.0000
0.0729 0.3864 0.0000
0.0729 0.3914 0.0000
0.0729 0.3965 0.0000
0.0729 0.4015 0.0000
0.0729 0.4066 0.0000
0.0729 0.4116 0.0000
0.0729 0.4167 0.0000
0.0729 0.4217 0.0000
0.0729 0.4268 0.0000
0.0729 0.4318 0.0000
0.0729 0.4369 0.0000
0.0729 0.4419 0.0000
0.0729 0.4470 0.0000
0.0729 0.4520 0.0000
0.0729 0.4571 0.0000
0.0729 0.4621 0.0000
0.0729 0.4672 0.0000
0.0729 0.4722 0.0000
0.0729 0.4773 0.0000
0.0729 0.4823 0.0000
0.0729 0.4874 0.0000
0.0729 0.4924 0.0000
0.0729 0.4975 0.0000
0.0938 0.0025 0.0000
0.0938 0.0076 0.0000
0.0938 0.0126 0.0000
0.0938 0.0177 0.0000
0.0938 0.0227 0.0000
0.0938 0.0278 0.0000
0.0938 0.0328 0.0000
0.0938 0.0379 0.0000
0.0938 0.0429 0.0000
0.0938 0.0480 0.0000
0.0938 0.0530 0.0000
0.0938 0.0581 0.0000
0.0938 0.0631 0.0000
0.0938 0.0682 0.0000
0.0938 0.0732 0.0000
0.0938 0.0783 0.0000
0.0938 0.0833 0.0000
0.0938 0.0884 0.0000
0.0938 0.0934 0.0000
0.0938 0.0985 0.0000
0.0938 0.1035 0.0000
0.0938 0.1086 0.0000
0.0938 0.1136 0.0000
0.0938 0.1187 0.0000
0.0938 0.1237 0.0000
0.0938 0.1288 0.0000
0.0938 0.1338 0.0000
0.0938 0.1389 0.0000
0.0938 0.1439 0.0000
0.0938 0.1490 0.0000
0.0938 0.1540 0.0000
0.0938 0.1591 0.0000
0.0938 0.1641 0.0000
0.0938 0.1692 0.0000
0.0938 0.1742 0.0000
0.0938 0.1793 0.0000
0.0938 0.1843 0.0000
0.0938 0.1894 0.0000
0.0938 0.1944 0.0000
0.0938 0.1995 0.0000
0.0938 0.2045 0.0000
0.0938 0.2096 0.0000
0.0938 0.2146 0.0000
0.0938 0.2197 0.0000
0.0938 0.2247 0.0000
0.0938 0.2298 0.0000
0.0938 0.2348 0.0000
0.0938 0.2399 0.0000
0.0938 0.2449 0.0000
0.0938 0.2500 0.0000
0.0938 0.2551 0.0000
0.0938 0.2601 0.0000
0.0938 0.2652 0.0000
0.0938 0.2702 0.0000
0.0938 0.2753 0.0000
0.0938 0.2803 0.0000
0.0938 0.2854 0.0000
0.0938 0.2904 0.0000
0.0938 0.2955 0.0000
0.0938 0.3005 0.0000
0.0938 0.3056 0.0000
0.0938 0.3106 0.0000
0.0938 0.3157 0.0000
0.0938 0.3207 0.0000
0.0938 0.3258 0.0000
0.0938 0.3308 0.0000
0.0938 0.3359 0.0000
0.0938 0.3409 0.0000
0.0938 0.3460 0.0000
0.0938 0.3510 0.0000
0.0938 0.3561 0.0000
0.0938 0.3611 0.0000
0.0938 0.3662 0.0000
0.0938 0.3712 0.0000
0.0938 0.3763 0.0000
0.0938 0.3813 0.0000
0.0938 0.3864 0.0000
0.0938 0.3914 0.0000
0.0938 0.3965 0.0000
0.0938 0.4015 0.0000
0.0938 0.4066 0.0000
0.0938 0.4116 0.0000
0.0938 0.4167 0.0000
0.0938 0.4217 0.0000
0.0938 0.4268 0.0000
0.0938 0.4318 0.0000
0.0938 0.4369 0.0000
0.0938 0.4419 0.0000
0.0938 0.4470 0.0000
0.0938 0.4520 0.0000
0.0938 0.4571 0.0000
0.0938 0.4621 0.0000
0.0938 0.4672 0.0000
0.0938 0.4722 0.0000
0.0938 0.4773 0.0000
0.0938 0.4823 0.0000
0.0938 0.4874 0.0000
0.0938 0.4924 0.0000
0.0938 0.4975 0.0000
0.1146 0.0025 0.0000
0.1146 0.0076 0.0000
0.1146 0.0126 0.0000
0.1146 0.0177 0.0000
0.1146 0.0227 0.0000
0.1146 0.0278 0.0000
0.1146 0.0328 0.0000
0.1146 0.0379 0.0000
0.1146 0.0429 0.0000
0.1146 0.0480 0.0000
0.1146 0.0530 0.0000
0.1146 0.0581 0.0000
0.1146 0.0631 0.0000
0.1146 0.0682 0.0000
0.1146 0.0732 0.0000
0.1146 0.0783 0.0000
0.1146 0.0833 0.0000
0.1146 0.0884 0.0000
0.1146 0.0934 0.0000
0.1146 0.0985 0.0000
0.1146 0.1035 0.0000
0.1146 0.1086 0.0000
0.1146 0.1136 0.0000
0.1146 0.1187 0.0000
0.1146 0.1237 0.0000
0.1146 0.1288 0.0000
0.1146 0.1338 0.0000
0.1146 0.1389 0.0000
0.1146 0.1439 0.0000
0.1146 0.1490 0.0000
0.1146 0.1540 0.0000
0.1146 0.1591 0.0000
0.1146 0.1641 0.0000
0.1146 0.1692 0.0000
0.1146 0.1742 0.0000
0.1146 0.1793 0.0000
0.1146 0.1843 0.0000
0.1146 0.1894 0.0000
0.1146 0.1944 0.0000
0.1146 0.1995 0.0000
0.1146 0.2045 0.0000
0.1146 0.2096 0.0000
0.1146 0.2146 0.0000
0.1146 0.2197 0.0000
0.1146 0.2247 0.0000
0.1146 0.2298 0.0000
0.1146 0.2348 0.0000
0.1146 0.2399 0.0000
0.1146 0.2449 0.0000
0.1146 0.2500 0.0000
0.1146 0.2551 0.0000
0.1146 0.2601 0.0000
0.1146 0.2652 0.0000
0.1146 0.2702 0.0000
0.1146 0.2753 0.0000
0.1146 0.2803 0.0000
0.1146 0.2854 0.0000
0.1146 0.2904 0.0000
0.1146 0.2955 0.0000
0.1146 0.3005 0.0000
0.1146 0.3056 0.0000
0.1146 0.3106 0.0000
0.1146 0.3157 0.0000
0.1146 0.3207 0.0000
0.1146 0.3258 0.0000
0.1146 0.3308 0.0000
0.1146 0.3359 0.0000
0.1146 0.3409 0.0000
0.1146 0.3460 0.0000
0.1146 0.3510 0.0000
0.1146 0.3561 0.0000
0.1146 0.3611 0.0000
0.1146 0.3662 0.0000
0.1146 0.3712 0.0000
0.1146 0.3763 0.0000
0.1146 0.3813 0.0000
0.1146 0.3864 0.0000
0.1146 0.3914 0.0000
0.1146 0.3965 0.0000
0.1146 0.4015 0.0000
0.1146 0.4066 0.0000
0.1146 0.4116 0.0000
0.1146 0.4167 0.0000
0.1146 0.4217 0.0000
0.1146 0.4268 0.0000
0.1146 0.4318 0.0000
0.1146 0.4369 0.0000
0.1146 0.4419 0.0000
0.1146 0.4470 0.0000
0.1146 0.4520 0.0000
0.1146 0.4571 0.0000
0.1146 0.4621 0.0000
0.1146 0.4672 0.0000
0.1146 0.4722 0.0000
0.1146 0.4773 0.0000
0.1146 0.4823 0.0000
0.1146 0.4874 0.0000
0.1146 0.4924 0.0000
0.1146 0.4975 0.0000
0.1354 0.0025 0.0000
0.1354 0.0076 0.0000
0.1354 0.0126 0.0000
0.1354 0.0177 0.0000
0.1354 0.0227 0.0000
0.1354 0.0278 0.0000
0.1354 0.0328 0.0000
0.1354 0.0379 0.0000
0.1354 0.0429 0.0000
0.1354 0.0480 0.0000
0.1354 0.0530 0.0000
0.1354 0.0581 0.0000
0.1354 0.0631 0.0000
0.1354 0.0682 0.0000
0.1354 0.0732 0.0000
0.1354 0.0783 0.0000
0.1354 0.0833 0.0000
0.1354 0.0884 0.0000
0.1354 0.0934 0.0000
0.1354 0.0985 0.0000
0.1354 0.1035 0.0000
0.1354 0.1086 0.0000
0.1354 0.1136 0.0000
0.1354 0.1187 0.0000
0.1354 0.1237 0.0000
0.1354 0.1288 0.0000
0.1354 0.1338 0.0000
0.1354 0.1389 0.0000
0.1354 0.1439 0.0000
0.1354 0.1490 0.0000
0.1354 0.1540 0.0000
0.1354 0.1591 0.0000
0.1354 0.1641 0.0000
0.1354 0.1692 0.0000
0.1354 0.1742 0.0000
0.1354 0.1793 0.0000
0.1354 0.1843 0.0000
0.1354 0.1894 0.0000
0.1354 0.1944 0.0000
0.1354 0.1995 0.0000
0.1354 0.2045 0.0000
0.1354 0.2096 0.0000
0.1354 0.2146 0.0000
0.1354 0.2197 0.0000
0.1354 0.2247 0.0000
0.1354 0.2298 0.0000
0.1354 0.2348 0.0000
0.1354 0.2399 0.0000
0.1354 0.2449 0.0000
0.1354 0.2500 0.0000
0.1354 0.2551 0.0000
0.1354 0.2601 0.0000
0.1354 0.2652 0.0000
0.1354 0.2702 0.0000
0.1354 0.2753 0.0000
0.1354 0.2803 0.0000
0.1354 0.2854 0.0000
0.1354 0.2904 0.0000
0.1354 0.2955 0.0000
0.1354 0.3005 0.0000
0.1354 0.3056 0.0000
0.1354 0.3106 0.0000
0.1354 0.3157 0.0000
0.1354 0.3207 0.0000
0.1354 0.3258 0.0000
0.1354 0.3308 0.0000
0.1354 0.3359 0.0000
0.1354 0.3409 0.0000
0.1354 0.3460 0.0000
0.1354 0.3510 0.0000
0.1354 0.3561 0.0000
0.1354 0.3611 0.0000
0.1354 0.3662 0.0000
0.1354 0.3712 0.0000
0.1354 0.3763 0.0000
0.1354 0.3813 0.0000
0.1354 0.3864 0.0000
0.1354 0.3914 0.0000
0.1354 0.3965 0.0000
0.1354 0.4015 0.0000
0.1354 0.4066 0.0000
0.1354 0.4116 0.0000
0.1354 0.4167 0.0000
0.1354 0.4217 0.0000
0.1354 0.4268 0.0000
0.1354 0.4318 0.0000
0.1354 0.4369 0.0000
0.1354 0.4419 0.0000
0.1354 0.4470 0.0000
0.1354 0.4520 0.0000
0.1354 0.4571 0.0000
0.1354 0.4621 0.0000
0.1354 0.4672 0.0000
0.1354 0.4722 0.0000
0.1354 0.4773 0.0000
0.1354 0.4823 0.0000
0.1354 0.4874 0.0000
0.1354 0.4924 0.0000
0.1354 0.4975 0.0000
0.1562 0.0025 0.0000
0.1562 0.0076 0.0000
0.1562 0.0126 0.0000
0.1562 0.0177 0.0000
0.1562 0.0227 0.0000
0.1562 0.0278 0.0000
0.1562 0.0328 0.0000
0.1562 0.0379 0.0000
0.1562 0.0429 0.0000
0.1562 0.0480 0.0000
0.1562 0.0530 0.0000
0.1562 0.0581 0.0000
0.1562 0.0631 0.0000
0.1562 0.0682 0.0000
0.1562 0.0732 0.0000
0.1562 0.0783 0.0000
0.1562 0.0833 0.0000
0.1562 0.0884 0.0000
0.1562 0.0934 0.0000
0.1562 0.0985 0.0000
0.1562 0.1035 0.0000
0.1562 0.1086 0.0000
0.1562 0.1136 0.0000
0.1562 0.1187 0.0000
0.1562 0.1237 0.0000
0.1562 0.1288 0.0000
0.1562 0.1338 0.0000
0.1562 0.1389 0.0000
0.1562 0.1439 0.0000
0.1562 0.1490 0.0000
0.1562 0.1540 0.0000
0.1562 0.1591 0.0000
0.1562 0.1641 0.0000
0.1562 0.1692 0.0000
0.1562 0.1742 0.0000
0.1562 0.1793 0.0000
0.1562 0.1843 0.0000
0.1562 0.1894 0.0000
0.1562 0.1944 0.0000
0.1562 0.1995 0.0000
0.1562 0.2045 0.0000
0.1562 0.2096 0.0000
0.1562 0.2146 0.0000
0.1562 0.2197 0.0000
0.1562 0.2247 0.0000
0.1562 0.2298 0.0000
0.1562 0.2348 0.0000
0.1562 0.2399 0.0000
0.1562 0.2449 0.0000
0.1562 0.2500 0.0000
0.1562 0.2551 0.0000
0.1562 0.2601 0.0000
0.1562 0.2652 0.0000
0.1562 0.2702 0.0000
0.1562 0.2753 0.0000
0.1562 0.2803 0.0000
0.1562 0.2854 0.0000
0.1562 0.2904 0.0000
0.1562 0.2955 0.0000
0.1562 0.3005 0.0000
0.1562 0.3056 0.0000
0.1562 0.3106 0.0000
0.1562 0.3157 0.0000
0.1562 0.3207 0.0000
0.1562 0.3258 0.0000
0.1562 0.3308 0.0000
0.1562 0.3359 0.0000
0.1562 0.3409 0.0000
0.1562 0.3460 0.0000
0.1562 0.3510 0.0000
0.1562 0.3561 0.0000
0.1562 0.3611 0.0000
0.1562 0.3662 0.0000
0.1562 0.3712 0.0000
0.1562 0.3763 0.0000
0.1562 0.3813 0.0000
0.1562 0.3864 0.0000
0.1562 0.3914 0.0000
0.1562 0.3965 0.0000
0.1562 0.4015 0.0000
0.1562 0.4066 0.0000
0.1562 0.4116 0.0000
0.1562 0.4167 0.0000
0.1562 0.4217 0.0000
0.1562 0.4268 0.0000
0.1562 0.4318 0.0000
0.1562 0.4369 0.0000
0.1562 0.4419 0.0000
0.1562 0.4470 0.0000
0.1562 0.4520 0.0000
0.1562 0.4571 0.0000
0.1562 0.4621 0.0000
0.1562 0.4672 0.0000
0.1562 0.4722 0.0000
0.1562 0.4773 0.0000
0.1562 0.4823 0.0000
0.1562 0.4874 0.0000
0.1562 0.4924 0.0000
0.1562 0.4975 0.0000
0.1771 0.0025 0.0000
0.1771 0.0076 0.0000
0.1771 0.0126 0.0000
0.1771 0.0177 0.0000
0.1771 0.0227 0.0000
0.1771 0.0278 0.0000
0.1771 0.0328 0.0000
0.1771 0.0379 0.0000
0.1771 0.0429 0.0000
0.1771 0.0480 0.0000
0.1771 0.0530 0.0000
0.1771 0.0581 0.0000
0.1771 0.0631 0.0000
0.1771 0.0682 0.0000
0.1771 0.0732 0.0000
0.1771 0.0783 0.0000
0.1771 0.0833 0.0000
0.1771 0.0884 0.0000
0.1771 0.0934 0.0000
0.1771 0.0985 0.0000
0.1771 0.1035 0.0000
0.1771 0.1086 0.0000
0.1771 0.1136 0.0000
0.1771 0.1187 0.0000
0.1771 0.1237 0.0000
0.1771 0.1288 0.0000
0.1771 0.1338 0.0000
0.1771 0.1389 0.0000
0.1771 0.1439 0.0000
0.1771 0.1490 0.0000
0.1771 0.1540 0.0000
0.1771 0.1591 0.0000
0.1771 0.1641 0.0000
0.1771 0.1692 0.0000
0.1771 0.1742 0.0000
0.1771 0.1793 0.0000
0.1771 0.1843 0.0000
0.1771 0.1894 0.0000
0.1771 0.1944 0.0000
0.1771 0.1995 0.0000
0.1771 0.2045 0.0000
0.1771 0.2096 0.0000
0.1771 0.2146 0.0000
0.1771 0.2197 0.0000
0.1771 0.2247 0.0000
0.1771 0.2298 0.0000
0.1771 0.2348 0.0000
0.1771 0.2399 0.0000
0.1771 0.2449 0.0000
0.1771 0.2500 0.0000
0.1771 0.2551 0.0000
0.1771 0.2601 0.0000
0.1771 0.2652 0.0000
0.1771 0.2702 0.0000
0.1771 0.2753 0.0000
0.1771 0.2803 0.0000
0.1771 0.2854 0.0000
0.1771 0.2904 0.0000
0.1771 0.2955 0.0000
0.1771 0.3005 0.0000
0.1771 0.3056 0.0000
0.1771 0.3106 0.0000
0.1771 0.3157 0.0000
0.1771 0.3207 0.0000
0.1771 0.3258 0.0000
0.1771 0.3308 0.0000
0.1771 0.3359 0.0000
0.1771 0.3409 0.0000
0.1771 0.3460 0.0000
0.1771 0.3510 0.0000
0.1771 0.3561 0.0000
0.1771 0.3611 0.0000
0.1771 0.3662 0.0000
0.1771 0.3712 0.0000
0.1771 0.3763 0.0000
0.1771 0.3813 0.0000
0.1771 0.3864 0.0000
0.1771 0.3914 0.0000
0.1771 0.3965 0.0000
0.1771 0.4015 0.0000
0.1771 0.4066 0.0000
0.1771 0.4116 0.0000
0.1771 0.4167 0.0000
0.1771 0.4217 0.0000
0.1771 0.4268 0.0000
0.1771 0.4318 0.0000
0.1771 0.4369 0.0000
0.1771 0.4419 0.0000
0.1771 0.4470 0.0000
0.1771 0.4520 0.0000
0.1771 0.4571 0.0000
0.1771 0.4621 0.0000
0.1771 0.4672 0.0000
0.1771 0.4722 0.0000
0.1771 0.4773 0.0000
0.1771 0.4823 0.0000
0.1771 0.4874 0.0000
0.1771 0.4924 0.0000
0.1771 0.4975 0.0000
0.1979 0.0025 0.0000
0.1979 0.0076 0.0000
0.1979 0.0126 0.0000
0.1979 0.0177 0.0000
0.1979 0.0227 0.0000
0.1979 0.0278 0.0000
0.1979 0.0328 0.0000
0.1979 0.0379 0.0000
0.1979 0.0429 0.0000
0.1979 0.0480 0.0000
0.1979 0.0530 0.0000
0.1979 0.0581 0.0000
0.1979 0.0631 0.0000
0.1979 0.0682 0.0000
0.1979 0.0732 0.0000
0.1979 0.0783 0.0000
0.1979 0.0833 0.0000
0.1979 0.0884 0.0000
0.1979 0.0934 0.0000
0.1979 0.0985 0.0000
0.1979 0.1035 0.0000
0.1979 0.1086 0.0000
0.1979 0.1136 0.0000
0.1979 0.1187 0.0000
0.1979 0.1237 0.0000
0.1979 0.1288 0.0000
0.1979 0.1338 0.0000
0.1979 0.1389 0.0000
0.1979 0.1439 0.0000
0.1979 0.1490 0.0000
0.1979 0.1540 0.0000
0.1979 0.1591 0.0000
0.1979 0.1641 0.0000
0.1979 0.1692 0.0000
0.1979 0.1742 0.0000
0.1979 0.1793 0.0000
0.1979 0.1843 0.0000
0.1979 0.1894 0.0000
0.1979 0.1944 0.0000
0.1979 0.1995 0.0000
0.1979 0.2045 0.0000
0.1979 0.2096 0.0000
0.1979 0.2146 0.0000
0.1979 0.2197 0.0000
0.1979 0.2247 0.0000
0.1979 0.2298 0.0000
0.1979 0.2348 0.0000
0.1979 0.2399 0.0000
0.1979 0.2449 0.0000
0.1979 0.2500 0.0000
0.1979 0.2551 0.0000
0.1979 0.2601 0.0000
0.1979 0.2652 0.0000
0.1979 0.2702 0.0000
0.1979 0.2753 0.0000
0.1979 0.2803 0.0000
0.1979 0.2854 0.0000
0.1979 0.2904 0.0000
0.1979 0.2955 0.0000
0.1979 0.3005 0.0000
0.1979 0.3056 0.0000
0.1979 0.3106 0.0000
0.1979 0.3157 0.0000
0.1979 0.3207 0.0000
0.1979 0.3258 0.0000
0.1979 0.3308 0.0000
0.1979 0.3359 0.0000
0.1979 0.3409 0.0000
0.1979 0.3460 0.0000
0.1979 0.3510 0.0000
0.1979 0.3561 0.0000
0.1979 0.3611 0.0000
0.1979 0.3662 0.0000
0.1979 0.3712 0.0000
0.1979 0.3763 0.0000
0.1979 0.3813 0.0000
0.1979 0.3864 0.0000
0.1979 0.3914 0.0000
0.1979 0.3965 0.0000
0.1979 0.4015 0.0000
0.1979 0.4066 0.0000
0.1979 0.4116 0.0000
0.1979 0.4167 0.0000
0.1979 0.4217 0.0000
0.1979 0.4268 0.0000
0.1979 0.4318 0.0000
0.1979 0.4369 0.0000
0.1979 0.4419 0.0000
0.1979 0.4470 0.0000
0.1979 0.4520 0.0000
0.1979 0.4571 0.0000
0.1979 0.4621 0.0000
0.1979 0.4672 0.0000
0.1979 0.4722 0.0000
0.1979 0.4773 0.0000
0.1979 0.4823 0.0000
0.1979 0.4874 0.0000
0.1979 0.4924 0.0000
0.1979 0.4975 0.0000
0.2188 0.0025 0.0000
0.2188 0.0076 0.0000
0.2188 0.0126 0.0000
0.2188 0.0177 0.0000
0.2188 0.0227 0.0000
0.2188 0.0278 0.0000
0.2188 0.0328 0.0000
0.2188 0.0379 0.0000
0.2188 0.0429 0.0000
0.2188 0.0480 0.0000
0.2188 0.0530 0.0000
0.2188 0.0581 0.0000
0.2188 0.0631 0.0000
0.2188 0.0682 0.0000
0.2188 0.0732 0.0000
0.2188 0.0783 0.0000
0.2188 0.0833 0.0000
0.2188 0.0884 0.0000
0.2188 0.0934 0.0000
0.2188 0.0985 0.0000
0.2188 0.1035 0.0000
0.2188 0.1086 0.0000
0.2188 0.1136 0.0000
0.2188 0.1187 0.0000
0.2188 0.1237 0.0000
0.2188 0.1288 0.0000
0.2188 0.1338 0.0000
0.2188 0.1389 0.0000
0.2188 0.1439 0.0000
0.2188 0.1490 0.0000
0.2188 0.1540 0.0000
0.2188 0.1591 0.0000
0.2188 0.1641 0.0000
0.2188 0.1692 0.0000
0.2188 0.1742 0.0000
0.2188 0.1793 0.0000
0.2188 0.1843 0.0000
0.2188 0.1894 0.0000
0.2188 0.1944 0.0000
0.2188 0.1995 0.0000
0.2188 0.2045 0.0000
0.2188 0.2096 0.0000
0.2188 0.2146 0.0000
0.2188 0.2197 0.0000
0.2188 0.2247 0.0000
0.2188 0.2298 0.0000
0.2188 0.2348 0.0000
0.2188 0.2399 0.0000
0.2188 0.2449 0.0000
0.2188 0.2500 0.0000
0.2188 0.2551 0.0000
0.2188 0.2601 0.0000
0.2188 0.2652 0.0000
0.2188 0.2702 0.0000
0.2188 0.2753 0.0000
0.2188 0.2803 0.0000
0.2188 0.2854 0.0000
0.2188 0.2904 0.0000
0.2188 0.2955 0.0000
0.2188 0.3005 0.0000
0.2188 0.3056 0.0000
0.2188 0.3106 0.0000
0.2188 0.3157 0.0000
0.2188 0.3207 0.0000
0.2188 0.3258 0.0000
0.2188 0.3308 0.0000
0.2188 0.3359 0.0000
0.2188 0.3409 0.0000
0.2188 0.3460 0.0000
0.2188 0.3510 0.0000
0.2188 0.3561 0.0000
0.2188 0.3611 0.0000
0.2188 0.3662 0.0000
0.2188 0.3712 0.0000
0.2188 0.3763 0.0000
0.2188 0.3813 0.0000
0.2188 0.3864 0.0000
0.2188 0.3914 0.0000
0.2188 0.3965 0.0000
0.2188 0.4015 0.0000
0.2188 0.4066 0.0000
0.2188 0.4116 0.0000
0.2188 0.4167 0.0000
0.2188 0.4217 0.0000
0.2188 0.4268 0.0000
0.2188 0.4318 0.0000
0.2188 0.4369 0.0000
0.2188 0.4419 0.0000
0.2188 0.4470 0.0000
0.2188 0.4520 0.0000
0.2188 0.4571 0.0000
0.2188 0.4621 0.0000
0.2188 0.4672 0.0000
0.2188 0.4722 0.0000
0.2188 0.4773 0.0000
0.2188 0.4823 0.0000
0.2188 0.4874 0.0000
0.2188 0.4924 0.0000
0.2188 0.4975 0.0000
0.2396 0.0025 0.0000
0.2396 0.0076 0.0000
0.2396 0.0126 0.0000
0.2396 0.0177 0.0000
0.2396 0.0227 0.0000
0.2396 0.0278 0.0000
0.2396 0.0328 0.0000
0.2396 0.0379 0.0000
0.2396 0.0429 0.0000
0.2396 0.0480 0.0000
0.2396 0.0530 0.0000
0.2396 0.0581 0.0000
0.2396 0.0631 0.0000
0.2396 0.0682 0.0000
0.2396 0.0732 0.0000
0.2396 0.0783 0.0000
0.2396 0.0833 0.0000
0.2396 0.0884 0.0000
0.2396 0.0934 0.0000
0.2396 0.0985 0.0000
0.2396 0.1035 0.0000
0.2396 0.1086 0.0000
0.2396 0.1136 0.0000
0.2396 0.1187 0.0000
0.2396 0.1237 0.0000
0.2396 0.1288 0.0000
0.2396 0.1338 0.0000
0.2396 0.1389 0.0000
0.2396 0.1439 0.0000
0.2396 0.1490 0.0000
0.2396 0.1540 0.0000
0.2396 0.1591 0.0000
0.2396 0.1641 0.0000
0.2396 0.1692 0.0000
0.2396 0.1742 0.0000
0.2396 0.1793 0.0000
0.2396 0.1843 0.0000
0.2396 0.1894 0.0000
0.2396 0.1944 0.0000
0.2396 0.1995 0.0000
0.2396 0.2045 0.0000
0.2396 0.2096 0.0000
0.2396 0.2146 0.0000
0.2396 0.2197 0.0000
0.2396 0.2247 0.0000
0.2396 0.2298 0.0000
0.2396 0.2348 0.0000
0.2396 0.2399 0.0000
0.2396 0.2449 0.0000
0.2396 0.2500 0.0000
0.2396 0.2551 0.0000
0.2396 0.2601 0.0000
0.2396 0.2652 0.0000
0.2396 0.2702 0.0000
0.2396 0.2753 0.0000
0.2396 0.2803 0.0000
0.2396 0.2854 0.0000
0.2396 0.2904 0.0000
0.2396 0.2955 0.0000
0.2396 0.3005 0.0000
0.2396 0.3056 0.0000
0.2396 0.3106 0.0000
0.2396 0.3157 0.0000
0.2396 0.3207 0.0000
0.2396 0.3258 0.0000
0.2396 0.3308 0.0000
0.2396 0.3359 0.0000
0.2396 0.3409 0.0000
0.2396 0.3460 0.0000
0.2396 0.3510 0.0000
0.2396 0.3561 0.0000
0.2396 0.3611 0.0000
0.2396 0.3662 0.0000
0.2396 0.3712 0.0000
0.2396 0.3763 0.0000
0.2396 0.3813 0.0000
0.2396 0.3864 0.0000
0.2396 0.3914 0.0000
0.2396 0.3965 0.0000
0.2396 0.4015 0.0000
0.2396 0.4066 0.0000
0.2396 0.4116 0.0000
0.2396 0.4167 0.0000
0.2396 0.4217 0.0000
0.2396 0.4268 0.0000
0.2396 0.4318 0.0000
0.2396 0.4369 0.0000
0.2396 0.4419 0.0000
0.2396 0.4470 0.0000
0.2396 0.4520 0.0000
0.2396 0.4571 0.0000
0.2396 0.4621 0.0000
0.2396 0.4672 0.0000
0.2396 0.4722 0.0000
0.2396 0.4773 0.0000
0.2396 0.4823 0.0000
0.2396 0.4874 0.0000
0.2396 0.4924 0.0000
0.2396 0.4975 0.0000
0.2604 0.0025 0.0000
0.2604 0.0076 0.0000
0.2604 0.0126 0.0000
0.2604 0.0177 0.0000
0.2604 0.0227 0.0000
0.2604 0.0278 0.0000
0.2604 0.0328 0.0000
0.2604 0.0379 0.0000
0.2604 0.0429 0.0000
0.2604 0.0480 0.0000
0.2604 0.0530 0.0000
0.2604 0.0581 0.0000
0.2604 0.0631 0.0000
0.2604 0.0682 0.0000
0.2604 0.0732 0.0000
0.2604 0.0783 0.0000
0.2604 0.0833 0.0000
0.2604 0.0884 0.0000
0.2604 0.0934 0.0000
0.2604 0.0985 0.0000
0.2604 0.1035 0.0000
0.2604 0.1086 0.0000
0.2604 0.1136 0.0000
0.2604 0.1187 0.0000
0.2604 0.1237 0.0000
0.2604 0.1288 0.0000
0.2604 0.1338 0.0000
0.2604 0.1389 0.0000
0.2604 0.1439 0.0000
0.2604 0.1490 0.0000
0.2604 0.1540 0.0000
0.2604 0.1591 0.0000
0.2604 0.1641 0.0000
0.2604 0.1692 0.0000
0.2604 0.1742 0.0000
0.2604 0.1793 0.0000
0.2604 0.1843 0.0000
0.2604 0.1894 0.0000
0.2604 0.1944 0.0000
0.2604 0.1995 0.0000
0.2604 0.2045 0.0000
0.2604 0.2096 0.0000
0.2604 0.2146 0.0000
0.2604 0.2197 0.0000
0.2604 0.2247 0.0000
0.2604 0.2298 0.0000
0.2604 0.2348 0.0000
0.2604 0.2399 0.0000
0.2604 0.2449 0.0000
0.2604 0.2500 0.0000
0.2604 0.2551 0.0000
0.2604 0.2601 0.0000
0.2604 0.2652 0.0000
0.2604 0.2702 0.0000
0.2604 0.2753 0.0000
0.2604 0.2803 0.0000
0.2604 0.2854 0.0000
0.2604 0.2904 0.0000
0.2604 0.2955 0.0000
0.2604 0.3005 0.0000
0.2604 0.3056 0.0000
0.2604 0.3106 0.0000
0.2604 0.3157 0.0000
0.2604 0.3207 0.0000
0.2604 0.3258 0.0000
0.2604 0.3308 0.0000
0.2604 0.3359 0.0000
0.2604 0.3409 0.0000
0.2604 0.3460 0.0000
0.2604 0.3510 0.0000
0.2604 0.3561 0.0000
0.2604 0.3611 0.0000
0.2604 0.3662 0.0000
0.2604 0.3712 0.0000
0.2604 0.3763 0.0000
0.2604 0.3813 0.0000
0.2604 0.3864 0.0000
0.2604 0.3914 0.0000
0.2604 0.3965 0.0000
0.2604 0.4015 0.0000
0.2604 0.4066 0.0000
0.2604 0.4116 0.0000
0.2604 0.4167 0.0000
0.2604 0.4217 0.0000
0.2604 0.4268 0.0000
0.2604 0.4318 0.0000
0.2604 0.4369 0.0000
0.2604 0.4419 0.0000
0.2604 0.4470 0.0000
0.2604 0.4520 0.0000
0.2604 0.4571 0.0000
0.2604 0.4621 0.0000
0.2604 0.4672 0.0000
0.2604 0.4722 0.0000
0.2604 0.4773 0.0000
0.2604 0.4823 0.0000
0.2604 0.4874 0.0000
0.2604 0.4924 0.0000
0.2604 0.4975 0.0000
0.2812 0.0025 0.0000
0.2812 0.0076 0.0000
0.2812 0.0126 0.0000
0.2812 0.0177 0.0000
0.2812 0.0227 0.0000
0.2812 0.0278 0.0000
0.2812 0.0328 0.0000
0.2812 0.0379 0.0000
0.2812 0.0429 0.0000
0.2812 0.0480 0.0000
0.2812 0.0530 0.0000
0.2812 0.0581 0.0000
0.2812 0.0631 0.0000
0.2812 0.0682 0.0000
0.2812 0.0732 0.0000
0.2812 0.0783 0.0000
0.2812 0.0833 0.0000
0.2812 0.0884 0.0000
0.2812 0.0934 0.0000
0.2812 0.0985 0.0000
0.2812 0.1035 0.0000
0.2812 0.1086 0.0000
0.2812 0.1136 0.0000
0.2812 0.1187 0.0000
0.2812 0.1237 0.0000
0.2812 0.1288 0.0000
0.2812 0.1338 0.0000
0.2812 0.1389 0.0000
0.2812 0.1439 0.0000
0.2812 0.1490 0.0000
0.2812 0.1540 0.0000
0.2812 0.1591 0.0000
0.2812 0.1641 0.0000
0.2812 0.1692 0.0000
0.2812 0.1742 0.0000
0.2812 0.1793 0.0000
0.2812 0.1843 0.0000
0.2812 0.1894 0.0000
0.2812 0.1944 0.0000
0.2812 0.1995 0.0000
0.2812 0.2045 0.0000
0.2812 0.2096 0.0000
0.2812 0.2146 0.0000
0.2812 0.2197 0.0000
0.2812 0.2247 0.0000
0.2812 0.2298 0.0000
0.2812 0.2348 0.0000
0.2812 0.2399 0.0000
0.2812 0.2449 0.0000
0.2812 0.2500 0.0000
0.2812 0.2551 0.0000
0.2812 0.2601 0.0000
0.2812 0.2652 0.0000
0.2812 0.2702 0.0000
0.2812 0.2753 0.0000
0.2812 0.2803 0.0000
0.2812 0.2854 0.0000
0.2812 0.2904 0.0000
0.2812 0.2955 0.0000
0.2812 0.3005 0.0000
0.2812 0.3056 0.0000
0.2812 0.3106 0.0000
0.2812 0.3157 0.0000
0.2812 0.3207 0.0000
0.2812 0.3258 0.0000
0.2812 0.3308 0.0000
0.2812 0.3359 0.0000
0.2812 0.3409 0.0000
0.2812 0.3460 0.0000
0.2812 0.3510 0.0000
0.2812 0.3561 0.0000
0.2812 0.3611 0.0000
0.2812 0.3662 0.0000
0.2812 0.3712 0.0000
0.2812 0.3763 0.0000
0.2812 0.3813 0.0000
0.2812 0.3864 0.0000
0.2812 0.3914 0.0000
0.2812 0.3965 0.0000
0.2812 0.4015 0.0000
0.2812 0.4066 0.0000
0.2812 0.4116 0.0000
0.2812 0.4167 0.0000
0.2812 0.4217 0.0000
0.2812 0.4268 0.0000
0.2812 0.4318 0.0000
0.2812 0.4369 0.0000
0.2812 0.4419 0.0000
0.2812 0.4470 0.0000
0.2812 0.4520 0.0000
0.2812 0.4571 0.0000
0.2812 0.4621 0.0000
0.2812 0.4672 0.0000
0.2812 0.4722 0.0000
0.2812 0.4773 0.0000
0.2812 0.4823 0.0000
0.2812 0.4874 0.0000
0.2812 0.4924 0.0000
0.2812 0.4975 0.0000
0.3021 0.0025 0.0000
0.3021 0.0076 0.0000
0.3021 0.0126 0.0000
0.3021 0.0177 0.0000
0.3021 0.0227 0.0000
0.3021 0.0278 0.0000
0.3021 0.0328 0.0000
0.3021 0.0379 0.0000
0.3021 0.0429 0.0000
0.3021 0.0480 0.0000
0.3021 0.0530 0.0000
0.3021 0.0581 0.0000
0.3021 0.0631 0.0000
0.3021 0.0682 0.0000
0.3021 0.0732 0.0000
0.3021 0.0783 0.0000
0.3021 0.0833 0.0000
0.3021 0.0884 0.0000
0.3021 0.0934 0.0000
0.3021 0.0985 0.0000
0.3021 0.1035 0.0000
0.3021 0.1086 0.0000
0.3021 0.1136 0.0000
0.3021 0.1187 0.0000
0.3021 0.1237 0.0000
0.3021 0.1288 0.0000
0.3021 0.1338 0.0000
0.3021 0.1389 0.0000
0.3021 0.1439 0.0000
0.3021 0.1490 0.0000
0.3021 0.1540 0.0000
0.3021 0.1591 0.0000
0.3021 0.1641 0.0000
0.3021 0.1692 0.0000
0.3021 0.1742 0.0000
0.3021 0.1793 0.0000
0.3021 0.1843 0.0000
0.3021 0.1894 0.0000
0.3021 0.1944 0.0000
0.3021 0.1995 0.0000
0.3021 0.2045 0.0000
0.3021 0.2096 0.0000
0.3021 0.2146 0.0000
0.3021 0.2197 0.0000
0.3021 0.2247 0.0000
0.3021 0.2298 0.0000
0.3021 0.2348 0.0000
0.3021 0.2399 0.0000
0.3021 0.2449 0.0000
0.3021 0.2500 0.0000
0.3021 0.2551 0.0000
0.3021 0.2601 0.0000
0.3021 0.2652 0.0000
0.3021 0.2702 0.0000
0.3021 0.2753 0.0000
0.3021 0.2803 0.0000
0.3021 0.2854 0.0000
0.3021 0.2904 0.0000
0.3021 0.2955 0.0000
0.3021 0.3005 0.0000
0.3021 0.3056 0.0000
0.3021 0.3106 0.0000
0.3021 0.3157 0.0000
0.3021 0.3207 0.0000
0.3021 0.3258 0.0000
0.3021 0.3308 0.0000
0.3021 0.3359 0.0000
0.3021 0.3409 0.0000
0.3021 0.3460 0.0000
0.3021 0.3510 0.0000
0.3021 0.3561 0.0000
0.3021 0.3611 0.0000
0.3021 0.3662 0.0000
0.3021 0.3712 0.0000
0.3021 0.3763 0.0000
0.3021 0.3813 0.0000
0.3021 0.3864 0.0000
0.3021 0.3914 0.0000
0.3021 0.3965 0.0000
0.3021 0.4015 0.0000
0.3021 0.4066 0.0000
0.3021 0.4116 0.0000
0.3021 0.4167 0.0000
0.3021 0.4217 0.0000
0.3021 0.4268 0.0000
0.3021 0.4318 0.0000
0.3021 0.4369 0.0000
0.3021 0.4419 0.0000
0.3021 0.4470 0.0000
0.3021 0.4520 0.0000
0.3021 0.4571 0.0000
0.3021 0.4621 0.0000
0.3021 0.4672 0.0000
0.3021 0.4722 0.0000
0.3021 0.4773 0.0000
0.3021 0.4823 0.0000
0.3021 0.4874 0.0000
0.3021 0.4924 0.0000
0.3021 0.4975 0.0000
0.3229 0.0025 0.0000
0.3229 0.0076 0.0000
0.3229 0.0126 0.0000
0.3229 0.0177 0.0000
0.3229 0.0227 0.0000
0.3229 0.0278 0.0000
0.3229 0.0328 0.0000
0.3229 0.0379 0.0000
0.3229 0.0429 0.0000
0.3229 0.0480 0.0000
0.3229 0.0530 0.0000
0.3229 0.0581 0.0000
0.3229 0.0631 0.0000
0.3229 0.0682 0.0000
0.3229 0.0732 0.0000
0.3229 0.0783 0.0000
0.3229 0.0833 0.0000
0.3229 0.0884 0.0000
0.3229 0.0934 0.0000
0.3229 0.0985 0.0000
0.3229 0.1035 0.0000
0.3229 0.1086 0.0000
0.3229 0.1136 0.0000
0.3229 0.1187 0.0000
0.3229 0.1237 0.0000
0.3229 0.1288 0.0000
0.3229 0.1338 0.0000
0.3229 0.1389 0.0000
0.3229 0.1439 0.0000
0.3229 0.1490 0.0000
0.3229 0.1540 0.0000
0.3229 0.1591 0.0000
0.3229 0.1641 0.0000
0.3229 0.1692 0.0000
0.3229 0.1742 0.0000
0.3229 0.1793 0.0000
0.3229 0.1843 0.0000
0.3229 0.1894 0.0000
0.3229 0.1944 0.0000
0.3229 0.1995 0.0000
0.3229 0.2045 0.0000
0.3229 0.2096 0.0000
0.3229 0.2146 0.0000
0.3229 0.2197 0.0000
0.3229 0.2247 0.0000
0.3229 0.2298 0.0000
0.3229 0.2348 0.0000
0.3229 0.2399 0.0000
0.3229 0.2449 0.0000
0.3229 0.2500 0.0000
0.3229 0.2551 0.0000
0.3229 0.2601 0.0000
0.3229 0.2652 0.0000
0.3229 0.2702 0.0000
0.3229 0.2753 0.0000
0.3229 0.2803 0.0000
0.3229 0.2854 0.0000
0.3229 0.2904 0.0000
0.3229 0.2955 0.0000
0.3229 0.3005 0.0000
0.3229 0.3056 0.0000
0.3229 0.3106 0.0000
0.3229 0.3157 0.0000
0.3229 0.3207 0.0000
0.3229 0.3258 0.0000
0.3229 0.3308 0.0000
0.3229 0.3359 0.0000
0.3229 0.3409 0.0000
0.3229 0.3460 0.0000
0.3229 0.3510 0.0000
0.3229 0.3561 0.0000
0.3229 0.3611 0.0000
0.3229 0.3662 0.0000
0.3229 0.3712 0.0000
0.3229 0.3763 0.0000
0.3229 0.3813 0.0000
0.3229 0.3864 0.0000
0.3229 0.3914 0.0000
0.3229 0.3965 0.0000
0.3229 0.4015 0.0000
0.3229 0.4066 0.0000
0.3229 0.4116 0.0000
0.3229 0.4167 0.0000
0.3229 0.4217 0.0000
0.3229 0.4268 0.0000
0.3229 0.4318 0.0000
0.3229 0.4369 0.0000
0.3229 0.4419 0.0000
0.3229 0.4470 0.0000
0.3229 0.4520 0.0000
0.3229 0.4571 0.0000
0.3229 0.4621 0.0000
0.3229 0.4672 0.0000
0.3229 0.4722 0.0000
0.3229 0.4773 0.0000
0.3229 0.4823 0.0000
0.3229 0.4874 0.0000
0.3229 0.4924 0.0000
0.3229 0.4975 0.0000
0.3438 0.0025 0.0000
0.3438 0.0076 0.0000
0.3438 0.0126 0.0000
0.3438 0.0177 0.0000
0.3438 0.0227 0.0000
0.3438 0.0278 0.0000
0.3438 0.0328 0.0000
0.3438 0.0379 0.0000
0.3438 0.0429 0.0000
0.3438 0.0480 0.0000
0.3438 0.0530 0.0000
0.3438 0.0581 0.0000
0.3438 0.0631 0.0000
0.3438 0.0682 0.0000
0.3438 0.0732 0.0000
0.3438 0.0783 0.0000
0.3438 0.0833 0.0000
0.3438 0.0884 0.0000
0.3438 0.0934 0.0000
0.3438 0.0985 0.0000
0.3438 0.1035 0.0000
0.3438 0.1086 0.0000
0.3438 0.1136 0.0000
0.3438 0.1187 0.0000
0.3438 0.1237 0.0000
0.3438 0.1288 0.0000
0.3438 0.1338 0.0000
0.3438 0.1389 0.0000
0.3438 0.1439 0.0000
0.3438 0.1490 0.0000
0.3438 0.1540 0.0000
0.3438 0.1591 0.0000
0.3438 0.1641 0.0000
0.3438 0.1692 0.0000
0.3438 0.1742 0.0000
0.3438 0.1793 0.0000
0.3438 0.1843 0.0000
0.3438 0.1894 0.0000
0.3438 0.1944 0.0000
0.3438 0.1995 0.0000
0.3438 0.2045 0.0000
0.3438 0.2096 0.0000
0.3438 0.2146 0.0000
0.3438 0.2197 0.0000
0.3438 0.2247 0.0000
0.3438 0.2298 0.0000
0.3438 0.2348 0.0000
0.3438 0.2399 0.0000
0.3438 0.2449 0.0000
0.3438 0.2500 0.0000
0.3438 0.2551 0.0000
0.3438 0.2601 0.0000
0.3438 0.2652 0.0000
0.3438 0.2702 0.0000
0.3438 0.2753 0.0000
0.3438 0.2803 0.0000
0.3438 0.2854 0.0000
0.3438 0.2904 0.0000
0.3438 0.2955 0.0000
0.3438 0.3005 0.0000
0.3438 0.3056 0.0000
0.3438 0.3106 0.0000
0.3438 0.3157 0.0000
0.3438 0.3207 0.0000
0.3438 0.3258 0.0000
0.3438 0.3308 0.0000
0.3438 0.3359 0.0000
0.3438 0.3409 0.0000
0.3438 0.3460 0.0000
0.3438 0.3510 0.0000
0.3438 0.3561 0.0000
0.3438 0.3611 0.0000
0.3438 0.3662 0.0000
0.3438 0.3712 0.0000
0.3438 0.3763 0.0000
0.3438 0.3813 0.0000
0.3438 0.3864 0.0000
0.3438 0.3914 0.0000
0.3438 0.3965 0.0000
0.3438 0.4015 0.0000
0.3438 0.4066 0.0000
0.3438 0.4116 0.0000
0.3438 0.4167 0.0000
0.3438 0.4217 0.0000
0.3438 0.4268 0.0000
0.3438 0.4318 0.0000
0.3438 0.4369 0.0000
0.3438 0.4419 0.0000
0.3438 0.4470 0.0000
0.3438 0.4520 0.0000
0.3438 0.4571 0.0000
0.3438 0.4621 0.0000
0.3438 0.4672 0.0000
0.3438 0.4722 0.0000
0.3438 0.4773 0.0000
0.3438 0.4823 0.0000
0.3438 0.4874 0.0000
0.3438 0.4924 0.0000
0.3438 0.4975 0.0000
0.3646 0.0025 0.0000
0.3646 0.0076 0.0000
0.3646 0.0126 0.0000
0.3646 0.0177 0.0000
0.3646 0.0227 0.0000
0.3646 0.0278 0.0000
0.3646 0.0328 0.0000
0.3646 0.0379 0.0000
0.3646 0.0429 0.0000
0.3646 0.0480 0.0000
0.3646 0.0530 0.0000
0.3646 0.0581 0.0000
0.3646 0.0631 0.0000
0.3646 0.0682 0.0000
0.3646 0.0732 0.0000
0.3646 0.0783 0.0000
0.3646 0.0833 0.0000
0.3646 0.0884 0.0000
0.3646 0.0934 0.0000
0.3646 0.0985 0.0000
0.3646 0.1035 0.0000
0.3646 0.1086 0.0000
0.3646 0.1136 0.0000
0.3646 0.1187 0.0000
0.3646 0.1237 0.0000
0.3646 0.1288 0.0000
0.3646 0.1338 0.0000
0.3646 0.1389 0.0000
0.3646 0.1439 0.0000
0.3646 0.1490 0.0000
0.3646 0.1540 0.0000
0.3646 0.1591 0.0000
0.3646 0.1641 0.0000
0.3646 0.1692 0.0000
0.3646 0.1742 0.0000
0.3646 0.1793 0.0000
0.3646 0.1843 0.0000
0.3646 0.1894 0.0000
0.3646 0.1944 0.0000
0.3646 0.1995 0.0000
0.3646 0.2045 0.0000
0.3646 0.2096 0.0000
0.3646 0.2146 0.0000
0.3646 0.2197 0.0000
0.3646 0.2247 0.0000
0.3646 0.2298 0.0000
0.3646 0.2348 0.0000
0.3646 0.2399 0.0000
0.3646 0.2449 0.0000
0.3646 0.2500 0.0000
0.3646 0.2551 0.0000
0.3646 0.2601 0.0000
0.3646 0.2652 0.0000
0.3646 0.2702 0.0000
0.3646 0.2753 0.0000
0.3646 0.2803 0.0000
0.3646 0.2854 0.0000
0.3646 0.2904 0.0000
0.3646 0.2955 0.0000
0.3646 0.3005 0.0000
0.3646 0.3056 0.0000
0.3646 0.3106 0.0000
0.3646 0.3157 0.0000
0.3646 0.3207 0.0000
0.3646 0.3258 0.0000
0.3646 0.3308 0.0000
0.3646 0.3359 0.0000
0.3646 0.3409 0.0000
0.3646 0.3460 0.0000
0.3646 0.3510 0.0000
0.3646 0.3561 0.0000
0.3646 0.3611 0.0000
0.3646 0.3662 0.0000
0.3646 0.3712 0.0000
0.3646 0.3763 0.0000
0.3646 0.3813 0.0000
0.3646 0.3864 0.0000
0.3646 0.3914 0.0000
0.3646 0.3965 0.0000
0.3646 0.4015 0.0000
0.3646 0.4066 0.0000
0.3646 0.4116 0.0000
0.3646 0.4167 0.0000
0.3646 0.4217 0.0000
0.3646 0.4268 0.0000
0.3646 0.4318 0.0000
0.3646 0.4369 0.0000
0.3646 0.4419 0.0000
0.3646 0.4470 0.0000
0.3646 0.4520 0.0000
0.3646 0.4571 0.0000
0.3646 0.4621 0.0000
0.3646 0.4672 0.0000
0.3646 0.4722 0.0000
0.3646 0.4773 0.0000
0.3646 0.4823 0.0000
0.3646 0.4874 0.0000
0.3646 0.4924 0.0000
0.3646 0.4975 0.0000
0.3854 0.0025 0.0000
0.3854 0.0076 0.0000
0.3854 0.0126 0.0000
0.3854 0.0177 0.0000
0.3854 0.0227 0.0000
0.3854 0.0278 0.0000
0.3854 0.0328 0.0000
0.3854 0.0379 0.0000
0.3854 0.0429 0.0000
0.3854 0.0480 0.0000
0.3854 0.0530 0.0000
0.3854 0.0581 0.0000
0.3854 0.0631 0.0000
0.3854 0.0682 0.0000
0.3854 0.0732 0.0000
0.3854 0.0783 0.0000
0.3854 0.0833 0.0000
0.3854 0.0884 0.0000
0.3854 0.0934 0.0000
0.3854 0.0985 0.0000
0.3854 0.1035 0.0000
0.3854 0.1086 0.0000
0.3854 0.1136 0.0000
0.3854 0.1187 0.0000
0.3854 0.1237 0.0000
0.3854 0.1288 0.0000
0.3854 0.1338 0.0000
0.3854 0.1389 0.0000
0.3854 0.1439 0.0000
0.3854 0.1490 0.0000
0.3854 0.1540 0.0000
0.3854 0.1591 0.0000
0.3854 0.1641 0.0000
0.3854 0.1692 0.0000
0.3854 0.1742 0.0000
0.3854 0.1793 0.0000
0.3854 0.1843 0.0000
0.3854 0.1894 0.0000
0.3854 0.1944 0.0000
0.3854 0.1995 0.0000
0.3854 0.2045 0.0000
0.3854 0.2096 0.0000
0.3854 0.2146 0.0000
0.3854 0.2197 0.0000
0.3854 0.2247 0.0000
0.3854 0.2298 0.0000
0.3854 0.2348 0.0000
0.3854 0.2399 0.0000
0.3854 0.2449 0.0000
0.3854 0.2500 0.0000
0.3854 0.2551 0.0000
0.3854 0.2601 0.0000
0.3854 0.2652 0.0000
0.3854 0.2702 0.0000
0.3854 0.2753 0.0000
0.3854 0.2803 0.0000
0.3854 0.2854 0.0000
0.3854 0.2904 0.0000
0.3854 0.2955 0.0000
0.3854 0.3005 0.0000
0.3854 0.3056 0.0000
0.3854 0.3106 0.0000
0.3854 0.3157 0.0000
0.3854 0.3207 0.0000
0.3854 0.3258 0.0000
0.3854 0.3308 0.0000
0.3854 0.3359 0.0000
0.3854 0.3409 0.0000
0.3854 0.3460 0.0000
0.3854 0.3510 0.0000
0.3854 0.3561 0.0000
0.3854 0.3611 0.0000
0.3854 0.3662 0.0000
0.3854 0.3712 0.0000
0.3854 0.3763 0.0000
0.3854 0.3813 0.0000
0.3854 0.3864 0.0000
0.3854 0.3914 0.0000
0.3854 0.3965 0.0000
0.3854 0.4015 0.0000
0.3854 0.4066 0.0000
0.3854 0.4116 0.0000
0.3854 0.4167 0.0000
0.3854 0.4217 0.0000
0.3854 0.4268 0.0000
0.3854 0.4318 0.0000
0.3854 0.4369 0.0000
0.3854 0.4419 0.0000
0.3854 0.4470 0.0000
0.3854 0.4520 0.0000
0.3854 0.4571 0.0000
0.3854 0.4621 0.0000
0.3854 0.4672 0.0000
0.3854 0.4722 0.0000
0.3854 0.4773 0.0000
0.3854 0.4823 0.0000
0.3854 0.4874 0.0000
0.3854 0.4924 0.0000
0.3854 0.4975 0.0000
0.4062 0.0025 0.0000
0.4062 0.0076 0.0000
0.4062 0.0126 0.0000
0.4062 0.0177 0.0000
0.4062 0.0227 0.0000
0.4062 0.0278 0.0000
0.4062 0.0328 0.0000
0.4062 0.0379 0.0000
0.4062 0.0429 0.0000
0.4062 0.0480 0.0000
0.4062 0.0530 0.0000
0.4062 0.0581 0.0000
0.4062 0.0631 0.0000
0.4062 0.0682 0.0000
0.4062 0.0732 0.0000
0.4062 0.0783 0.0000
0.4062 0.0833 0.0000
0.4062 0.0884 0.0000
0.4062 0.0934 0.0000
0.4062 0.0985 0.0000
0.4062 0.1035 0.0000
0.4062 0.1086 0.0000
0.4062 0.1136 0.0000
0.4062 0.1187 0.0000
0.4062 0.1237 0.0000
0.4062 0.1288 0.0000
0.4062 0.1338 0.0000
0.4062 0.1389 0.0000
0.4062 0.1439 0.0000
0.4062 0.1490 0.0000
0.4062 0.1540 0.0000
0.4062 0.1591 0.0000
0.4062 0.1641 0.0000
0.4062 0.1692 0.0000
0.4062 0.1742 0.0000
0.4062 0.1793 0.0000
0.4062 0.1843 0.0000
0.4062 0.1894 0.0000
0.4062 0.1944 0.0000
0.4062 0.1995 0.0000
0.4062 0.2045 0.0000
0.4062 0.2096 0.0000
0.4062 0.2146 0.0000
0.4062 0.2197 0.0000
0.4062 0.2247 0.0000
0.4062 0.2298 0.0000
0.4062 0.2348 0.0000
0.4062 0.2399 0.0000
0.4062 0.2449 0.0000
0.4062 0.2500 0.0000
0.4062 0.2551 0.0000
0.4062 0.2601 0.0000
0.4062 0.2652 0.0000
0.4062 0.2702 0.0000
0.4062 0.2753 0.0000
0.4062 0.2803 0.0000
0.4062 0.2854 0.0000
0.4062 0.2904 0.0000
0.4062 0.2955 0.0000
0.4062 0.3005 0.0000
0.4062 0.3056 0.0000
0.4062 0.3106 0.0000
0.4062 0.3157 0.0000
0.4062 0.3207 0.0000
0.4062 0.3258 0.0000
0.4062 0.3308 0.0000
0.4062 0.3359 0.0000
0.4062 0.3409 0.0000
0.4062 0.3460 0.0000
0.4062 0.3510 0.0000
0.4062 0.3561 0.0000
0.4062 0.3611 0.0000
0.4062 0.3662 0.0000
0.4062 0.3712 0.0000
0.4062 0.3763 0.0000
0.4062 0.3813 0.0000
0.4062 0.3864 0.0000
0.4062 0.3914 0.0000
0.4062 0.3965 0.0000
0.4062 0.4015 0.0000
0.4062 0.4066 0.0000
0.4062 0.4116 0.0000
0.4062 0.4167 0.0000
0.4062 0.4217 0.0000
0.4062 0.4268 0.0000
0.4062 0.4318 0.0000
0.4062 0.4369 0.0000
0.4062 0.4419 0.0000
0.4062 0.4470 0.0000
0.4062 0.4520 0.0000
0.4062 0.4571 0.0000
0.4062 0.4621 0.0000
0.4062 0.4672 0.0000
0.4062 0.4722 0.0000
0.4062 0.4773 0.0000
0.4062 0.4823 0.0000
0.4062 0.4874 0.0000
0.4062 0.4924 0.0000
0.4062 0.4975 0.0000
0.4271 0.0025 0.0000
0.4271 0.0076 0.0000
0.4271 0.0126 0.0000
0.4271 0.0177 0.0000
0.4271 0.0227 0.0000
0.4271 0.0278 0.0000
0.4271 0.0328 0.0000
0.4271 0.0379 0.0000
0.4271 0.0429 0.0000
0.4271 0.0480 0.0000
0.4271 0.0530 0.0000
0.4271 0.0581 0.0000
0.4271 0.0631 0.0000
0.4271 0.0682 0.0000
0.4271 0.0732 0.0000
0.4271 0.0783 0.0000
0.4271 0.0833 0.0000
0.4271 0.0884 0.0000
0.4271 0.0934 0.0000
0.4271 0.0985 0.0000
0.4271 0.1035 0.0000
0.4271 0.1086 0.0000
0.4271 0.1136 0.0000
0.4271 0.1187 0.0000
0.4271 0.1237 0.0000
0.4271 0.1288 0.0000
0.4271 0.1338 0.0000
0.4271 0.1389 0.0000
0.4271 0.1439 0.0000
0.4271 0.1490 0.0000
0.4271 0.1540 0.0000
0.4271 0.1591 0.0000
0.4271 0.1641 0.0000
0.4271 0.1692 0.0000
0.4271 0.1742 0.0000
0.4271 0.1793 0.0000
0.4271 0.1843 0.0000
0.4271 0.1894 0.0000
0.4271 0.1944 0.0000
0.4271 0.1995 0.0000
0.4271 0.2045 0.0000
0.4271 0.2096 0.0000
0.4271 0.2146 0.0000
0.4271 0.2197 0.0000
0.4271 0.2247 0.0000
0.4271 0.2298 0.0000
0.4271 0.2348 0.0000
0.4271 0.2399 0.0000
0.4271 0.2449 0.0000
0.4271 0.2500 0.0000
0.4271 0.2551 0.0000
0.4271 0.2601 0.0000
0.4271 0.2652 0.0000
0.4271 0.2702 0.0000
0.4271 0.2753 0.0000
0.4271 0.2803 0.0000
0.4271 0.2854 0.0000
0.4271 0.2904 0.0000
0.4271 0.2955 0.0000
0.4271 0.3005 0.0000
0.4271 0.3056 0.0000
0.4271 0.3106 0.0000
0.4271 0.3157 0.0000
0.4271 0.3207 0.0000
0.4271 0.3258 0.0000
0.4271 0.3308 0.0000
0.4271 0.3359 0.0000
0.4271 0.3409 0.0000
0.4271 0.3460 0.0000
0.4271 0.3510 0.0000
0.4271 0.3561 0.0000
0.4271 0.3611 0.0000
0.4271 0.3662 0.0000
0.4271 0.3712 0.0000
0.4271 0.3763 0.0000
0.4271 0.3813 0.0000
0.4271 0.3864 0.0000
0.4271 0.3914 0.0000
0.4271 0.3965 0.0000
0.4271 0.4015 0.0000
0.4271 0.4066 0.0000
0.4271 0.4116 0.0000
0.4271 0.4167 0.0000
0.4271 0.4217 0.0000
0.4271 0.4268 0.0000
0.4271 0.4318 0.0000
0.4271 0.4369 0.0000
0.4271 0.4419 0.0000
0.4271 0.4470 0.0000
0.4271 0.4520 0.0000
0.4271 0.4571 0.0000
0.4271 0.4621 0.0000
0.4271 0.4672 0.0000
0.4271 0.4722 0.0000
0.4271 0.4773 0.0000
0.4271 0.4823 0.0000
0.4271 0.4874 0.0000
0.4271 0.4924 0.0000
0.4271 0.4975 0.0000
0.4479 0.0025 0.0000
0.4479 0.0076 0.0000
0.4479 0.0126 0.0000
0.4479 0.0177 0.0000
0.4479 0.0227 0.0000
0.4479 0.0278 0.0000
0.4479 0.0328 0.0000
0.4479 0.0379 0.0000
0.4479 0.0429 0.0000
0.4479 0.0480 0.0000
0.4479 0.0530 0.0000
0.4479 0.0581 0.0000
0.4479 0.0631 0.0000
0.4479 0.0682 0.0000
0.4479 0.0732 0.0000
0.4479 0.0783 0.0000
0.4479 0.0833 0.0000
0.4479 0.0884 0.0000
0.4479 0.0934 0.0000
0.4479 0.0985 0.0000
0.4479 0.1035 0.0000
0.4479 0.1086 0.0000
0.4479 0.1136 0.0000
0.4479 0.1187 0.0000
0.4479 0.1237 0.0000
0.4479 0.1288 0.0000
0.4479 0.1338 0.0000
0.4479 0.1389 0.0000
0.4479 0.1439 0.0000
0.4479 0.1490 0.0000
0.4479 0.1540 0.0000
0.4479 0.1591 0.0000
0.4479 0.1641 0.0000
0.4479 0.1692 0.0000
0.4479 0.1742 0.0000
0.4479 0.1793 0.0000
0.4479 0.1843 0.0000
0.4479 0.1894 0.0000
0.4479 0.1944 0.0000
0.4479 0.1995 0.0000
0.4479 0.2045 0.0000
0.4479 0.2096 0.0000
0.4479 0.2146 0.0000
0.4479 0.2197 0.0000
0.4479 0.2247 0.0000
0.4479 0.2298 0.0000
0.4479 0.2348 0.0000
0.4479 0.2399 0.0000
0.4479 0.2449 0.0000
0.4479 0.2500 0.0000
0.4479 0.2551 0.0000
0.4479 0.2601 0.0000
0.4479 0.2652 0.0000
0.4479 0.2702 0.0000
0.4479 0.2753 0.0000
0.4479 0.2803 0.0000
0.4479 0.2854 0.0000
0.4479 0.2904 0.0000
0.4479 0.2955 0.0000
0.4479 0.3005 0.0000
0.4479 0.3056 0.0000
0.4479 0.3106 0.0000
0.4479 0.3157 0.0000
0.4479 0.3207 0.0000
0.4479 0.3258 0.0000
0.4479 0.3308 0.0000
0.4479 0.3359 0.0000
0.4479 0.3409 0.0000
0.4479 0.3460 0.0000
0.4479 0.3510 0.0000
0.4479 0.3561 0.0000
0.4479 0.3611 0.0000
0.4479 0.3662 0.0000
0.4479 0.3712 0.0000
0.4479 0.3763 0.0000
0.4479 0.3813 0.0000
0.4479 0.3864 0.0000
0.4479 0.3914 0.0000
0.4479 0.3965 0.0000
0.4479 0.4015 0.0000
0.4479 0.4066 0.0000
0.4479 0.4116 0.0000
0.4479 0.4167 0.0000
0.4479 0.4217 0.0000
0.4479 0.4268 0.0000
0.4479 0.4318 0.0000
0.4479 0.4369 0.0000
0.4479 0.4419 0.0000
0.4479 0.4470 0.0000
0.4479 0.4520 0.0000
0.4479 0.4571 0.0000
0.4479 0.4621 0.0000
0.4479 0.4672 0.0000
0.4479 0.4722 0.0000
0.4479 0.4773 0.0000
0.4479 0.4823 0.0000
0.4479 0.4874 0.0000
0.4479 0.4924 0.0000
0.4479 0.4975 0.0000
0.4688 0.0025 0.0000
0.4688 0.0076 0.0000
0.4688 0.0126 0.0000
0.4688 0.0177 0.0000
0.4688 0.0227 0.0000
0.4688 0.0278 0.0000
0.4688 0.0328 0.0000
0.4688 0.0379 0.0000
0.4688 0.0429 0.0000
0.4688 0.0480 0.0000
0.4688 0.0530 0.0000
0.4688 0.0581 0.0000
0.4688 0.0631 0.0000
0.4688 0.0682 0.0000
0.4688 0.0732 0.0000
0.4688 0.0783 0.0000
0.4688 0.0833 0.0000
0.4688 0.0884 0.0000
0.4688 0.0934 0.0000
0.4688 0.0985 0.0000
0.4688 0.1035 0.0000
0.4688 0.1086 0.0000
0.4688 0.1136 0.0000
0.4688 0.1187 0.0000
0.4688 0.1237 0.0000
0.4688 0.1288 0.0000
0.4688 0.1338 0.0000
0.4688 0.1389 0.0000
0.4688 0.1439 0.0000
0.4688 0.1490 0.0000
0.4688 0.1540 0.0000
0.4688 0.1591 0.0000
0.4688 0.1641 0.0000
0.4688 0.1692 0.0000
0.4688 0.1742 0.0000
0.4688 0.1793 0.0000
0.4688 0.1843 0.0000
0.4688 0.1894 0.0000
0.4688 0.1944 0.0000
0.4688 0.1995 0.0000
0.4688 0.2045 0.0000
0.4688 0.2096 0.0000
0.4688 0.2146 0.0000
0.4688 0.2197 0.0000
0.4688 0.2247 0.0000
0.4688 0.2298 0.0000
0.4688 0.2348 0.0000
0.4688 0.2399 0.0000
0.4688 0.2449 0.0000
0.4688 0.2500 0.0000
0.4688 0.2551 0.0000
0.4688 0.2601 0.0000
0.4688 0.2652 0.0000
0.4688 0.2702 0.0000
0.4688 0.2753 0.0000
0.4688 0.2803 0.0000
0.4688 0.2854 0.0000
0.4688 0.2904 0.0000
0.4688 0.2955 0.0000
0.4688 0.3005 0.0000
0.4688 0.3056 0.0000
0.4688 0.3106 0.0000
0.4688 0.3157 0.0000
0.4688 0.3207 0.0000
0.4688 0.3258 0.0000
0.4688 0.3308 0.0000
0.4688 0.3359 0.0000
0.4688 0.3409 0.0000
0.4688 0.3460 0.0000
0.4688 0.3510 0.0000
0.4688 0.3561 0.0000
0.4688 0.3611 0.0000
0.4688 0.3662 0.0000
0.4688 0.3712 0.0000
0.4688 0.3763 0.0000
0.4688 0.3813 0.0000
0.4688 0.3864 0.0000
0.4688 0.3914 0.0000
0.4688 0.3965 0.0000
0.4688 0.4015 0.0000
0.4688 0.4066 0.0000
0.4688 0.4116 0.0000
0.4688 0.4167 0.0000
0.4688 0.4217 0.0000
0.4688 0.4268 0.0000
0.4688 0.4318 0.0000
0.4688 0.4369 0.0000
0.4688 0.4419 0.0000
0.4688 0.4470 0.0000
0.4688 0.4520 0.0000
0.4688 0.4571 0.0000
0.4688 0.4621 0.0000
0.4688 0.4672 0.0000
0.4688 0.4722 0.0000
0.4688 0.4773 0.0000
0.4688 0.4823 0.0000
0.4688 0.4874 0.0000
0.4688 0.4924 0.0000
0.4688 0.4975 0.0000
0.4896 0.0025 0.0000
0.4896 0.0076 0.0000
0.4896 0.0126 0.0000
0.4896 0.0177 0.0000
0.4896 0.0227 0.0000
0.4896 0.0278 0.0000
0.4896 0.0328 0.0000
0.4896 0.0379 0.0000
0.4896 0.0429 0.0000
0.4896 0.0480 0.0000
0.4896 0.0530 0.0000
0.4896 0.0581 0.0000
0.4896 0.0631 0.0000
0.4896 0.0682 0.0000
0.4896 0.0732 0.0000
0.4896 0.0783 0.0000
0.4896 0.0833 0.0000
0.4896 0.0884 0.0000
0.4896 0.0934 0.0000
0.4896 0.0985 0.0000
0.4896 0.1035 0.0000
0.4896 0.1086 0.0000
0.4896 0.1136 0.0000
0.4896 0.1187 0.0000
0.4896 0.1237 0.0000
0.4896 0.1288 0.0000
0.4896 0.1338 0.0000
0.4896 0.1389 0.0000
0.4896 0.1439 0.0000
0.4896 0.1490 0.0000
0.4896 0.1540 0.0000
0.4896 0.1591 0.0000
0.4896 0.1641 0.0000
0.4896 0.1692 0.0000
0.4896 0.1742 0.0000
0.4896 0.1793 0.0000
0.4896 0.1843 0.0000
0.4896 0.1894 0.0000
0.4896 0.1944 0.0000
0.4896 0.1995 0.0000
0.4896 0.2045 0.0000
0.4896 0.2096 0.0000
0.4896 0.2146 0.0000
0.4896 0.2197 0.0000
0.4896 0.2247 0.0000
0.4896 0.2298 0.0000
0.4896 0.2348 0.0000
0.4896 0.2399 0.0000
0.4896 0.2449 0.0000
0.4896 0.2500 0.0000
0.4896 0.2551 0.0000
0.4896 0.2601 0.0000
0.4896 0.2652 0.0000
0.4896 0.2702 0.0000
0.4896 0.2753 0.0000
0.4896 0.2803 0.0000
0.4896 0.2854 0.0000
0.4896 0.2904 0.0000
0.4896 0.2955 0.0000
0.4896 0.3005 0.0000
0.4896 0.3056 0.0000
0.4896 0.3106 0.0000
0.4896 0.3157 0.0000
0.4896 0.3207 0.0000
0.4896 0.3258 0.0000
0.4896 0.3308 0.0000
0.4896 0.3359 0.0000
0.4896 0.3409 0.0000
0.4896 0.3460 0.0000
0.4896 0.3510 0.0000
0.4896 0.3561 0.0000
0.4896 0.3611 0.0000
0.4896 0.3662 0.0000
0.4896 0.3712 0.0000
0.4896 0.3763 0.0000
0.4896 0.3813 0.0000
0.4896 0.3864 0.0000
0.4896 0.3914 0.0000
0.4896 0.3965 0.0000
0.4896 0.4015 0.0000
0.4896 0.4066 0.0000
0.4896 0.4116 0.0000
0.4896 0.4167 0.0000
0.4896 0.4217 0.0000
0.4896 0.4268 0.0000
0.4896 0.4318 0.0000
0.4896 0.4369 0.0000
0.4896 0.4419 0.0000
0.4896 0.4470 0.0000
0.4896 0.4520 0.0000
0.4896 0.4571 0.0000
0.4896 0.4621 0.0000
0.4896 0.4672 0.0000
0.4896 0.4722 0.0000
0.4896 0.4773 0.0000
0.4896 0.4823 0.0000
0.4896 0.4874 0.0000
0.4896 0.4924 0.0000
0.4896 0.4975 0.0000
0.5104 0.0025 0.0000
0.5104 0.0076 0.0000
0.5104 0.0126 0.0000
0.5104 0.0177 0.0000
0.5104 0.0227 0.0000
0.5104 0.0278 0.0000
0.5104 0.0328 0.0000
0.5104 0.0379 0.0000
0.5104 0.0429 0.0000
0.5104 0.0480 0.0000
0.5104 0.0530 0.0000
0.5104 0.0581 0.0000
0.5104 0.0631 0.0000
0.5104 0.0682 0.0000
0.5104 0.0732 0.0000
0.5104 0.0783 0.0000
0.5104 0.0833 0.0000
0.5104 0.0884 0.0000
0.5104 0.0934 0.0000
0.5104 0.0985 0.0000
0.5104 0.1035 0.0000
0.5104 0.1086 0.0000
0.5104 0.1136 0.0000
0.5104 0.1187 0.0000
0.5104 0.1237 0.0000
0.5104 0.1288 0.0000
0.5104 0.1338 0.0000
0.5104 0.1389 0.0000
0.5104 0.1439 0.0000
0.5104 0.1490 0.0000
0.5104 0.1540 0.0000
0.5104 0.1591 0.0000
0.5104 0.1641 0.0000
0.5104 0.1692 0.0000
0.5104 0.1742 0.0000
0.5104 0.1793 0.0000
0.5104 0.1843 0.0000
0.5104 0.1894 0.0000
0.5104 0.1944 0.0000
0.5104 0.1995 0.0000
0.5104 0.2045 0.0000
0.5104 0.2096 0.0000
0.5104 0.2146 0.0000
0.5104 0.2197 0.0000
0.5104 0.2247 0.0000
0.5104 0.2298 0.0000
0.5104 0.2348 0.0000
0.5104 0.2399 0.0000
0.5104 0.2449 0.0000
0.5104 0.2500 0.0000
0.5104 0.2551 0.0000
0.5104 0.2601 0.0000
0.5104 0.2652 0.0000
0.5104 0.2702 0.0000
0.5104 0.2753 0.0000
0.5104 0.2803 0.0000
0.5104 0.2854 0.0000
0.5104 0.2904 0.0000
0.5104 0.2955 0.0000
0.5104 0.3005 0.0000
0.5104 0.3056 0.0000
0.5104 0.3106 0.0000
0.5104 0.3157 0.0000
0.5104 0.3207 0.0000
0.5104 0.3258 0.0000
0.5104 0.3308 0.0000
0.5104 0.3359 0.0000
0.5104 0.3409 0.0000
0.5104 0.3460 0.0000
0.5104 0.3510 0.0000
0.5104 0.3561 0.0000
0.5104 0.3611 0.0000
0.5104 0.3662 0.0000
0.5104 0.3712 0.0000
0.5104 0.3763 0.0000
0.5104 0.3813 0.0000
0.5104 0.3864 0.0000
0.5104 0.3914 0.0000
0.5104 0.3965 0.0000
0.5104 0.4015 0.0000
0.5104 0.4066 0.0000
0.5104 0.4116 0.0000
0.5104 0.4167 0.0000
0.5104 0.4217 0.0000
0.5104 0.4268 0.0000
0.5104 0.4318 0.0000
0.5104 0.4369 0.0000
0.5104 0.4419 0.0000
0.5104 0.4470 0.0000
0.5104 0.4520 0.0000
0.5104 0.4571 0.0000
0.5104 0.4621 0.0000
0.5104 0.4672 0.0000
0.5104 0.4722 0.0000
0.5104 0.4773 0.0000
0.5104 0.4823 0.0000
0.5104 0.4874 0.0000
0.5104 0.4924 0.0000
0.5104 0.4975 0.0000
0.5312 0.0025 0.0000
0.5312 0.0076 0.0000
0.5312 0.0126 0.0000
0.5312 0.0177 0.0000
0.5312 0.0227 0.0000
0.5312 0.0278 0.0000
0.5312 0.0328 0.0000
0.5312 0.0379 0.0000
0.5312 0.0429 0.0000
0.5312 0.0480 0.0000
0.5312 0.0530 0.0000
0.5312 0.0581 0.0000
0.5312 0.0631 0.0000
0.5312 0.0682 0.0000
0.5312 0.0732 0.0000
0.5312 0.0783 0.0000
0.5312 0.0833 0.0000
0.5312 0.0884 0.0000
0.5312 0.0934 0.0000
0.5312 0.0985 0.0000
0.5312 0.1035 0.0000
0.5312 0.1086 0.0000
0.5312 0.1136 0.0000
0.5312 0.1187 0.0000
0.5312 0.1237 0.0000
0.5312 0.1288 0.0000
0.5312 0.1338 0.0000
0.5312 0.1389 0.0000
0.5312 0.1439 0.0000
0.5312 0.1490 0.0000
0.5312 0.1540 0.0000
0.5312 0.1591 0.0000
0.5312 0.1641 0.0000
0.5312 0.1692 0.0000
0.5312 0.1742 0.0000
0.5312 0.1793 0.0000
0.5312 0.1843 0.0000
0.5312 0.1894 0.0000
0.5312 0.1944 0.0000
0.5312 0.1995 0.0000
0.5312 0.2045 0.0000
0.5312 0.2096 0.0000
0.5312 0.2146 0.0000
0.5312 0.2197 0.0000
0.5312 0.2247 0.0000
0.5312 0.2298 0.0000
0.5312 0.2348 0.0000
0.5312 0.2399 0.0000
0.5312 0.2449 0.0000
0.5312 0.2500 0.0000
0.5312 0.2551 0.0000
0.5312 0.2601 0.0000
0.5312 0.2652 0.0000
0.5312 0.2702 0.0000
0.5312 0.2753 0.0000
0.5312 0.2803 0.0000
0.5312 0.2854 0.0000
0.5312 0.2904 0.0000
0.5312 0.2955 0.0000
0.5312 0.3005 0.0000
0.5312 0.3056 0.0000
0.5312 0.3106 0.0000
0.5312 0.3157 0.0000
0.5312 0.3207 0.0000
0.5312 0.3258 0.0000
0.5312 0.3308 0.0000
0.5312 0.3359 0.0000
0.5312 0.3409 0.0000
0.5312 0.3460 0.0000
0.5312 0.3510 0.0000
0.5312 0.3561 0.0000
0.5312 0.3611 0.0000
0.5312 0.3662 0.0000
0.5312 0.3712 0.0000
0.5312 0.3763 0.0000
0.5312 0.3813 0.0000
0.5312 0.3864 0.0000
0.5312 0.3914 0.0000
0.5312 0.3965 0.0000
0.5312 0.4015 0.0000
0.5312 0.4066 0.0000
0.5312 0.4116 0.0000
0.5312 0.4167 0.0000
0.5312 0.4217 0.0000
0.5312 0.4268 0.0000
0.5312 0.4318 0.0000
0.5312 0.4369 0.0000
0.5312 0.4419 0.0000
0.5312 0.4470 0.0000
0.5312 0.4520 0.0000
0.5312 0.4571 0.0000
0.5312 0.4621 0.0000
0.5312 0.4672 0.0000
0.5312 0.4722 0.0000
0.5312 0.4773 0.0000
0.5312 0.4823 0.0000
0.5312 0.4874 0.0000
0.5312 0.4924 0.0000
0.5312 0.4975 0.0000
0.5521 0.0025 0.0000
0.5521 0.0076 0.0000
0.5521 0.0126 0.0000
0.5521 0.0177 0.0000
0.5521 0.0227 0.0000
0.5521 0.0278 0.0000
0.5521 0.0328 0.0000
0.5521 0.0379 0.0000
0.5521 0.0429 0.0000
0.5521 0.0480 0.0000
0.5521 0.0530 0.0000
0.5521 0.0581 0.0000
0.5521 0.0631 0.0000
0.5521 0.0682 0.0000
0.5521 0.0732 0.0000
0.5521 0.0783 0.0000
0.5521 0.0833 0.0000
0.5521 0.0884 0.0000
0.5521 0.0934 0.0000
0.5521 0.0985 0.0000
0.5521 0.1035 0.0000
0.5521 0.1086 0.0000
0.5521 0.1136 0.0000
0.5521 0.1187 0.0000
0.5521 0.1237 0.0000
0.5521 0.1288 0.0000
0.5521 0.1338 0.0000
0.5521 0.1389 0.0000
0.5521 0.1439 0.0000
0.5521 0.1490 0.0000
0.5521 0.1540 0.0000
0.5521 0.1591 0.0000
0.5521 0.1641 0.0000
0.5521 0.1692 0.0000
0.5521 0.1742 0.0000
0.5521 0.1793 0.0000
0.5521 0.1843 0.0000
0.5521 0.1894 0.0000
0.5521 0.1944 0.0000
0.5521 0.1995 0.0000
0.5521 0.2045 0.0000
0.5521 0.2096 0.0000
0.5521 0.2146 0.0000
0.5521 0.2197 0.0000
0.5521 0.2247 0.0000
0.5521 0.2298 0.0000
0.5521 0.2348 0.0000
0.5521 0.2399 0.0000
0.5521 0.2449 0.0000
0.5521 0.2500 0.0000
0.5521 0.2551 0.0000
0.5521 0.2601 0.0000
0.5521 0.2652 0.0000
0.5521 0.2702 0.0000
0.5521 0.2753 0.0000
0.5521 0.2803 0.0000
0.5521 0.2854 0.0000
0.5521 0.2904 0.0000
0.5521 0.2955 0.0000
0.5521 0.3005 0.0000
0.5521 0.3056 0.0000
0.5521 0.3106 0.0000
0.5521 0.3157 0.0000
0.5521 0.3207 0.0000
0.5521 0.3258 0.0000
0.5521 0.3308 0.0000
0.5521 0.3359 0.0000
0.5521 0.3409 0.0000
0.5521 0.3460 0.0000
0.5521 0.3510 0.0000
0.5521 0.3561 0.0000
0.5521 0.3611 0.0000
0.5521 0.3662 0.0000
0.5521 0.3712 0.0000
0.5521 0.3763 0.0000
0.5521 0.3813 0.0000
0.5521 0.3864 0.0000
0.5521 0.3914 0.0000
0.5521 0.3965 0.0000
0.5521 0.4015 0.0000
0.5521 0.4066 0.0000
0.5521 0.4116 0.0000
0.5521 0.4167 0.0000
0.5521 0.4217 0.0000
0.5521 0.4268 0.0000
0.5521 0.4318 0.0000
0.5521 0.4369 0.0000
0.5521 0.4419 0.0000
0.5521 0.4470 0.0000
0.5521 0.4520 0.0000
0.5521 0.4571 0.0000
0.5521 0.4621 0.0000
0.5521 0.4672 0.0000
0.5521 0.4722 0.0000
0.5521 0.4773 0.0000
0.5521 0.4823 0.0000
0.5521 0.4874 0.0000
0.5521 0.4924 0.0000
0.5521 0.4975 0.0000
0.5729 0.0025 0.0000
0.5729 0.0076 0.0000
0.5729 0.0126 0.0000
0.5729 0.0177 0.0000
0.5729 0.0227 0.0000
0.5729 0.0278 0.0000
0.5729 0.0328 0.0000
0.5729 0.0379 0.0000
0.5729 0.0429 0.0000
0.5729 0.0480 0.0000
0.5729 0.0530 0.0000
0.5729 0.0581 0.0000
0.5729 0.0631 0.0000
0.5729 0.0682 0.0000
0.5729 0.0732 0.0000
0.5729 0.0783 0.0000
0.5729 0.0833 0.0000
0.5729 0.0884 0.0000
0.5729 0.0934 0.0000
0.5729 0.0985 0.0000
0.5729 0.1035 0.0000
0.5729 0.1086 0.0000
0.5729 0.1136 0.0000
0.5729 0.1187 0.0000
0.5729 0.1237 0.0000
0.5729 0.1288 0.0000
0.5729 0.1338 0.0000
0.5729 0.1389 0.0000
0.5729 0.1439 0.0000
0.5729 0.1490 0.0000
0.5729 0.1540 0.0000
0.5729 0.1591 0.0000
0.5729 0.1641 0.0000
0.5729 0.1692 0.0000
0.5729 0.1742 0.0000
0.5729 0.1793 0.0000
0.5729 0.1843 0.0000
0.5729 0.1894 0.0000
0.5729 0.1944 0.0000
0.5729 0.1995 0.0000
0.5729 0.2045 0.0000
0.5729 0.2096 0.0000
0.5729 0.2146 0.0000
0.5729 0.2197 0.0000
0.5729 0.2247 0.0000
0.5729 0.2298 0.0000
0.5729 0.2348 0.0000
0.5729 0.2399 0.0000
0.5729 0.2449 0.0000
0.5729 0.2500 0.0000
0.5729 0.2551 0.0000
0.5729 0.2601 0.0000
0.5729 0.2652 0.0000
0.5729 0.2702 0.0000
0.5729 0.2753 0.0000
0.5729 0.2803 0.0000
0.5729 0.2854 0.0000
0.5729 0.2904 0.0000
0.5729 0.2955 0.0000
0.5729 0.3005 0.0000
0.5729 0.3056 0.0000
0.5729 0.3106 0.0000
0.5729 0.3157 0.0000
0.5729 0.3207 0.0000
0.5729 0.3258 0.0000
0.5729 0.3308 0.0000
0.5729 0.3359 0.0000
0.5729 0.3409 0.0000
0.5729 0.3460 0.0000
0.5729 0.3510 0.0000
0.5729 0.3561 0.0000
0.5729 0.3611 0.0000
0.5729 0.3662 0.0000
0.5729 0.3712 0.0000
0.5729 0.3763 0.0000
0.5729 0.3813 0.0000
0.5729 0.3864 0.0000
0.5729 0.3914 0.0000
0.5729 0.3965 0.0000
0.5729 0.4015 0.0000
0.5729 0.4066 0.0000
0.5729 0.4116 0.0000
0.5729 0.4167 0.0000
0.5729 0.4217 0.0000
0.5729 0.4268 0.0000
0.5729 0.4318 0.0000
0.5729 0.4369 0.0000
0.5729 0.4419 0.0000
0.5729 0.4470 0.0000
0.5729 0.4520 0.0000
0.5729 0.4571 0.0000
0.5729 0.4621 0.0000
0.5729 0.4672 0.0000
0.5729 0.4722 0.0000
0.5729 0.4773 0.0000
0.5729 0.4823 0.0000
0.5729 0.4874 0.0000
0.5729 0.4924 0.0000
0.5729 0.4975 0.0000
0.5938 0.0025 0.0000
0.5938 0.0076 0.0000
0.5938 0.0126 0.0000
0.5938 0.0177 0.0000
0.5938 0.0227 0.0000
0.5938 0.0278 0.0000
0.5938 0.0328 0.0000
0.5938 0.0379 0.0000
0.5938 0.0429 0.0000
0.5938 0.0480 0.0000
0.5938 0.0530 0.0000
0.5938 0.0581 0.0000
0.5938 0.0631 0.0000
0.5938 0.0682 0.0000
0.5938 0.0732 0.0000
0.5938 0.0783 0.0000
0.5938 0.0833 0.0000
0.5938 0.0884 0.0000
0.5938 0.0934 0.0000
0.5938 0.0985 0.0000
0.5938 0.1035 0.0000
0.5938 0.1086 0.0000
0.5938 0.1136 0.0000
0.5938 0.1187 0.0000
0.5938 0.1237 0.0000
0.5938 0.1288 0.0000
0.5938 0.1338 0.0000
0.5938 0.1389 0.0000
0.5938 0.1439 0.0000
0.5938 0.1490 0.0000
0.5938 0.1540 0.0000
0.5938 0.1591 0.0000
0.5938 0.1641 0.0000
0.5938 0.1692 0.0000
0.5938 0.1742 0.0000
0.5938 0.1793 0.0000
0.5938 0.1843 0.0000
0.5938 0.1894 0.0000
0.5938 0.1944 0.0000
0.5938 0.1995 0.0000
0.5938 0.2045 0.0000
0.5938 0.2096 0.0000
0.5938 0.2146 0.0000
0.5938 0.2197 0.0000
0.5938 0.2247 0.0000
0.5938 0.2298 0.0000
0.5938 0.2348 0.0000
0.5938 0.2399 0.0000
0.5938 0.2449 0.0000
0.5938 0.2500 0.0000
0.5938 0.2551 0.0000
0.5938 0.2601 0.0000
0.5938 0.2652 0.0000
0.5938 0.2702 0.0000
0.5938 0.2753 0.0000
0.5938 0.2803 0.0000
0.5938 0.2854 0.0000
0.5938 0.2904 0.0000
0.5938 0.2955 0.0000
0.5938 0.3005 0.0000
0.5938 0.3056 0.0000
0.5938 0.3106 0.0000
0.5938 0.3157 0.0000
0.5938 0.3207 0.0000
0.5938 0.3258 0.0000
0.5938 0.3308 0.0000
0.5938 0.3359 0.0000
0.5938 0.3409 0.0000
0.5938 0.3460 0.0000
0.5938 0.3510 0.0000
0.5938 0.3561 0.0000
0.5938 0.3611 0.0000
0.5938 0.3662 0.0000
0.5938 0.3712 0.0000
0.5938 0.3763 0.0000
0.5938 0.3813 0.0000
0.5938 0.3864 0.0000
0.5938 0.3914 0.0000
0.5938 0.3965 0.0000
0.5938 0.4015 0.0000
0.5938 0.4066 0.0000
0.5938 0.4116 0.0000
0.5938 0.4167 0.0000
0.5938 0.4217 0.0000
0.5938 0.4268 0.0000
0.5938 0.4318 0.0000
0.5938 0.4369 0.0000
0.5938 0.4419 0.0000
0.5938 0.4470 0.0000
0.5938 0.4520 0.0000
0.5938 0.4571 0.0000
0.5938 0.4621 0.0000
0.5938 0.4672 0.0000
0.5938 0.4722 0.0000
0.5938 0.4773 0.0000
0.5938 0.4823 0.0000
0.5938 0.4874 0.0000
0.5938 0.4924 0.0000
0.5938 0.4975 0.0000
0.6146 0.0025 0.0000
0.6146 0.0076 0.0000
0.6146 0.0126 0.0000
0.6146 0.0177 0.0000
0.6146 0.0227 0.0000
0.6146 0.0278 0.0000
0.6146 0.0328 0.0000
0.6146 0.0379 0.0000
0.6146 0.0429 0.0000
0.6146 0.0480 0.0000
0.6146 0.0530 0.0000
0.6146 0.0581 0.0000
0.6146 0.0631 0.0000
0.6146 0.0682 0.0000
0.6146 0.0732 0.0000
0.6146 0.0783 0.0000
0.6146 0.0833 0.0000
0.6146 0.0884 0.0000
0.6146 0.0934 0.0000
0.6146 0.0985 0.0000
0.6146 0.1035 0.0000
0.6146 0.1086 0.0000
0.6146 0.1136 0.0000
0.6146 0.1187 0.0000
0.6146 0.1237 0.0000
0.6146 0.1288 0.0000
0.6146 0.1338 0.0000
0.6146 0.1389 0.0000
0.6146 0.1439 0.0000
0.6146 0.1490 0.0000
0.6146 0.1540 0.0000
0.6146 0.1591 0.0000
0.6146 0.1641 0.0000
0.6146 0.1692 0.0000
0.6146 0.1742 0.0000
0.6146 0.1793 0.0000
0.6146 0.1843 0.0000
0.6146 0.1894 0.0000
0.6146 0.1944 0.0000
0.6146 0.1995 0.0000
0.6146 0.2045 0.0000
0.6146 0.2096 0.0000
0.6146 0.2146 0.0000
0.6146 0.2197 0.0000
0.6146 0.2247 0.0000
0.6146 0.2298 0.0000
0.6146 0.2348 0.0000
0.6146 0.2399 0.0000
0.6146 0.2449 0.0000
0.6146 0.2500 0.0000
0.6146 0.2551 0.0000
0.6146 0.2601 0.0000
0.6146 0.2652 0.0000
0.6146 0.2702 0.0000
0.6146 0.2753 0.0000
0.6146 0.2803 0.0000
0.6146 0.2854 0.0000
0.6146 0.2904 0.0000
0.6146 0.2955 0.0000
0.6146 0.3005 0.0000
0.6146 0.3056 0.0000
0.6146 0.3106 0.0000
0.6146 0.3157 0.0000
0.6146 0.3207 0.0000
0.6146 0.3258 0.0000
0.6146 0.3308 0.0000
0.6146 0.3359 0.0000
0.6146 0.3409 0.0000
0.6146 0.3460 0.0000
0.6146 0.3510 0.0000
0.6146 0.3561 0.0000
0.6146 0.3611 0.0000
0.6146 0.3662 0.0000
0.6146 0.3712 0.0000
0.6146 0.3763 0.0000
0.6146 0.3813 0.0000
0.6146 0.3864 0.0000
0.6146 0.3914 0.0000
0.6146 0.3965 0.0000
0.6146 0.4015 0.0000
0.6146 0.4066 0.0000
0.6146 0.4116 0.0000
0.6146 0.4167 0.0000
0.6146 0.4217 0.0000
0.6146 0.4268 0.0000
0.6146 0.4318 0.0000
0.6146 0.4369 0.0000
0.6146 0.4419 0.0000
0.6146 0.4470 0.0000
0.6146 0.4520 0.0000
0.6146 0.4571 0.0000
0.6146 0.4621 0.0000
0.6146 0.4672 0.0000
0.6146 0.4722 0.0000
0.6146 0.4773 0.0000
0.6146 0.4823 0.0000
0.6146 0.4874 0.0000
0.6146 0.4924 0.0000
0.6146 0.4975 0.0000
0.6354 0.0025 0.0000
0.6354 0.0076 0.0000
0.6354 0.0126 0.0000
0.6354 0.0177 0.0000
0.6354 0.0227 0.0000
0.6354 0.0278 0.0000
0.6354 0.0328 0.0000
0.6354 0.0379 0.0000
0.6354 0.0429 0.0000
0.6354 0.0480 0.0000
0.6354 0.0530 0.0000
0.6354 0.0581 0.0000
0.6354 0.0631 0.0000
0.6354 0.0682 0.0000
0.6354 0.0732 0.0000
0.6354 0.0783 0.0000
0.6354 0.0833 0.0000
0.6354 0.0884 0.0000
0.6354 0.0934 0.0000
0.6354 0.0985 0.0000
0.6354 0.1035 0.0000
0.6354 0.1086 0.0000
0.6354 0.1136 0.0000
0.6354 0.1187 0.0000
0.6354 0.1237 0.0000
0.6354 0.1288 0.0000
0.6354 0.1338 0.0000
0.6354 0.1389 0.0000
0.6354 0.1439 0.0000
0.6354 0.1490 0.0000
0.6354 0.1540 0.0000
0.6354 0.1591 0.0000
0.6354 0.1641 0.0000
0.6354 0.1692 0.0000
0.6354 0.1742 0.0000
0.6354 0.1793 0.0000
0.6354 0.1843 0.0000
0.6354 0.1894 0.0000
0.6354 0.1944 0.0000
0.6354 0.1995 0.0000
0.6354 0.2045 0.0000
0.6354 0.2096 0.0000
0.6354 0.2146 0.0000
0.6354 0.2197 0.0000
0.6354 0.2247 0.0000
0.6354 0.2298 0.0000
0.6354 0.2348 0.0000
0.6354 0.2399 0.0000
0.6354 0.2449 0.0000
0.6354 0.2500 0.0000
0.6354 0.2551 0.0000
0.6354 0.2601 0.0000
0.6354 0.2652 0.0000
0.6354 0.2702 0.0000
0.6354 0.2753 0.0000
0.6354 0.2803 0.0000
0.6354 0.2854 0.0000
0.6354 0.2904 0.0000
0.6354 0.2955 0.0000
0.6354 0.3005 0.0000
0.6354 0.3056 0.0000
0.6354 0.3106 0.0000
0.6354 0.3157 0.0000
0.6354 0.3207 0.0000
0.6354 0.3258 0.0000
0.6354 0.3308 0.0000
0.6354 0.3359 0.0000
0.6354 0.3409 0.0000
0.6354 0.3460 0.0000
0.6354 0.3510 0.0000
0.6354 0.3561 0.0000
0.6354 0.3611 0.0000
0.6354 0.3662 0.0000
0.6354 0.3712 0.0000
0.6354 0.3763 0.0000
0.6354 0.3813 0.0000
0.6354 0.3864 0.0000
0.6354 0.3914 0.0000
0.6354 0.3965 0.0000
0.6354 0.4015 0.0000
0.6354 0.4066 0.0000
0.6354 0.4116 0.0000
0.6354 0.4167 0.0000
0.6354 0.4217 0.0000
0.6354 0.4268 0.0000
0.6354 0.4318 0.0000
0.6354 0.4369 0.0000
0.6354 0.4419 0.0000
0.6354 0.4470 0.0000
0.6354 0.4520 0.0000
0.6354 0.4571 0.0000
0.6354 0.4621 0.0000
0.6354 0.4672 0.0000
0.6354 0.4722 0.0000
0.6354 0.4773 0.0000
0.6354 0.4823 0.0000
0.6354 0.4874 0.0000
0.6354 0.4924 0.0000
0.6354 0.4975 0.0000
0.6562 0.0025 0.0000
0.6562 0.0076 0.0000
0.6562 0.0126 0.0000
0.6562 0.0177 0.0000
0.6562 0.0227 0.0000
0.6562 0.0278 0.0000
0.6562 0.0328 0.0000
0.6562 0.0379 0.0000
0.6562 0.0429 0.0000
0.6562 0.0480 0.0000
0.6562 0.0530 0.0000
0.6562 0.0581 0.0000
0.6562 0.0631 0.0000
0.6562 0.0682 0.0000
0.6562 0.0732 0.0000
0.6562 0.0783 0.0000
0.6562 0.0833 0.0000
0.6562 0.0884 0.0000
0.6562 0.0934 0.0000
0.6562 0.0985 0.0000
0.6562 0.1035 0.0000
0.6562 0.1086 0.0000
0.6562 0.1136 0.0000
0.6562 0.1187 0.0000
0.6562 0.1237 0.0000
0.6562 0.1288 0.0000
0.6562 0.1338 0.0000
0.6562 0.1389 0.0000
0.6562 0.1439 0.0000
0.6562 0.1490 0.0000
0.6562 0.1540 0.0000
0.6562 0.1591 0.0000
0.6562 0.1641 0.0000
0.6562 0.1692 0.0000
0.6562 0.1742 0.0000
0.6562 0.1793 0.0000
0.6562 0.1843 0.0000
0.6562 0.1894 0.0000
0.6562 0.1944 0.0000
0.6562 0.1995 0.0000
0.6562 0.2045 0.0000
0.6562 0.2096 0.0000
0.6562 0.2146 0.0000
0.6562 0.2197 0.0000
0.6562 0.2247 0.0000
0.6562 0.2298 0.0000
0.6562 0.2348 0.0000
0.6562 0.2399 0.0000
0.6562 0.2449 0.0000
0.6562 0.2500 0.0000
0.6562 0.2551 0.0000
0.6562 0.2601 0.0000
0.6562 0.2652 0.0000
0.6562 0.2702 0.0000
0.6562 0.2753 0.0000
0.6562 0.2803 0.0000
0.6562 0.2854 0.0000
0.6562 0.2904 0.0000
0.6562 0.2955 0.0000
0.6562 0.3005 0.0000
0.6562 0.3056 0.0000
0.6562 0.3106 0.0000
0.6562 0.3157 0.0000
0.6562 0.3207 0.0000
0.6562 0.3258 0.0000
0.6562 0.3308 0.0000
0.6562 0.3359 0.0000
0.6562 0.3409 0.0000
0.6562 0.3460 0.0000
0.6562 0.3510 0.0000
0.6562 0.3561 0.0000
0.6562 0.3611 0.0000
0.6562 0.3662 0.0000
0.6562 0.3712 0.0000
0.6562 0.3763 0.0000
0.6562 0.3813 0.0000
0.6562 0.3864 0.0000
0.6562 0.3914 0.0000
0.6562 0.3965 0.0000
0.6562 0.4015 0.0000
0.6562 0.4066 0.0000
0.6562 0.4116 0.0000
0.6562 0.4167 0.0000
0.6562 0.4217 0.0000
0.6562 0.4268 0.0000
0.6562 0.4318 0.0000
0.6562 0.4369 0.0000
0.6562 0.4419 0.0000
0.6562 0.4470 0.0000
0.6562 0.4520 0.0000
0.6562 0.4571 0.0000
0.6562 0.4621 0.0000
0.6562 0.4672 0.0000
0.6562 0.4722 0.0000
0.6562 0.4773 0.0000
0.6562 0.4823 0.0000
0.6562 0.4874 0.0000
0.6562 0.4924 0.0000
0.6562 0.4975 0.0000
0.6771 0.0025 0.0000
0.6771 0.0076 0.0000
0.6771 0.0126 0.0000
0.6771 0.0177 0.0000
0.6771 0.0227 0.0000
0.6771 0.0278 0.0000
0.6771 0.0328 0.0000
0.6771 0.0379 0.0000
0.6771 0.0429 0.0000
0.6771 0.0480 0.0000
0.6771 0.0530 0.0000
0.6771 0.0581 0.0000
0.6771 0.0631 0.0000
0.6771 0.0682 0.0000
0.6771 0.0732 0.0000
0.6771 0.0783 0.0000
0.6771 0.0833 0.0000
0.6771 0.0884 0.0000
0.6771 0.0934 0.0000
0.6771 0.0985 0.0000
0.6771 0.1035 0.0000
0.6771 0.1086 0.0000
0.6771 0.1136 0.0000
0.6771 0.1187 0.0000
0.6771 0.1237 0.0000
0.6771 0.1288 0.0000
0.6771 0.1338 0.0000
0.6771 0.1389 0.0000
0.6771 0.1439 0.0000
0.6771 0.1490 0.0000
0.6771 0.1540 0.0000
0.6771 0.1591 0.0000
0.6771 0.1641 0.0000
0.6771 0.1692 0.0000
0.6771 0.1742 0.0000
0.6771 0.1793 0.0000
0.6771 0.1843 0.0000
0.6771 0.1894 0.0000
0.6771 0.1944 0.0000
0.6771 0.1995 0.0000
0.6771 0.2045 0.0000
0.6771 0.2096 0.0000
0.6771 0.2146 0.0000
0.6771 0.2197 0.0000
0.6771 0.2247 0.0000
0.6771 0.2298 0.0000
0.6771 0.2348 0.0000
0.6771 0.2399 0.0000
0.6771 0.2449 0.0000
0.6771 0.2500 0.0000
0.6771 0.2551 0.0000
0.6771 0.2601 0.0000
0.6771 0.2652 0.0000
0.6771 0.2702 0.0000
0.6771 0.2753 0.0000
0.6771 0.2803 0.0000
0.6771 0.2854 0.0000
0.6771 0.2904 0.0000
0.6771 0.2955 0.0000
0.6771 0.3005 0.0000
0.6771 0.3056 0.0000
0.6771 0.3106 0.0000
0.6771 0.3157 0.0000
0.6771 0.3207 0.0000
0.6771 0.3258 0.0000
0.6771 0.3308 0.0000
0.6771 0.3359 0.0000
0.6771 0.3409 0.0000
0.6771 0.3460 0.0000
0.6771 0.3510 0.0000
0.6771 0.3561 0.0000
0.6771 0.3611 0.0000
0.6771 0.3662 0.0000
0.6771 0.3712 0.0000
0.6771 0.3763 0.0000
0.6771 0.3813 0.0000
0.6771 0.3864 0.0000
0.6771 0.3914 0.0000
0.6771 0.3965 0.0000
0.6771 0.4015 0.0000
0.6771 0.4066 0.0000
0.6771 0.4116 0.0000
0.6771 0.4167 0.0000
0.6771 0.4217 0.0000
0.6771 0.4268 0.0000
0.6771 0.4318 0.0000
0.6771 0.4369 0.0000
0.6771 0.4419 0.0000
0.6771 0.4470 0.0000
0.6771 0.4520 0.0000
0.6771 0.4571 0.0000
0.6771 0.4621 0.0000
0.6771 0.4672 0.0000
0.6771 0.4722 0.0000
0.6771 0.4773 0.0000
0.6771 0.4823 0.0000
0.6771 0.4874 0.0000
0.6771 0.4924 0.0000
0.6771 0.4975 0.0000
0.6979 0.0025 0.0000
0.6979 0.0076 0.0000
0.6979 0.0126 0.0000
0.6979 0.0177 0.0000
0.6979 0.0227 0.0000
0.6979 0.0278 0.0000
0.6979 0.0328 0.0000
0.6979 0.0379 0.0000
0.6979 0.0429 0.0000
0.6979 0.0480 0.0000
0.6979 0.0530 0.0000
0.6979 0.0581 0.0000
0.6979 0.0631 0.0000
0.6979 0.0682 0.0000
0.6979 0.0732 0.0000
0.6979 0.0783 0.0000
0.6979 0.0833 0.0000
0.6979 0.0884 0.0000
0.6979 0.0934 0.0000
0.6979 0.0985 0.0000
0.6979 0.1035 0.0000
0.6979 0.1086 0.0000
0.6979 0.1136 0.0000
0.6979 0.1187 0.0000
0.6979 0.1237 0.0000
0.6979 0.1288 0.0000
0.6979 0.1338 0.0000
0.6979 0.1389 0.0000
0.6979 0.1439 0.0000
0.6979 0.1490 0.0000
0.6979 0.1540 0.0000
0.6979 0.1591 0.0000
0.6979 0.1641 0.0000
0.6979 0.1692 0.0000
0.6979 0.1742 0.0000
0.6979 0.1793 0.0000
0.6979 0.1843 0.0000
0.6979 0.1894 0.0000
0.6979 0.1944 0.0000
0.6979 0.1995 0.0000
0.6979 0.2045 0.0000
0.6979 0.2096 0.0000
0.6979 0.2146 0.0000
0.6979 0.2197 0.0000
0.6979 0.2247 0.0000
0.6979 0.2298 0.0000
0.6979 0.2348 0.0000
0.6979 0.2399 0.0000
0.6979 0.2449 0.0000
0.6979 0.2500 0.0000
0.6979 0.2551 0.0000
0.6979 0.2601 0.0000
0.6979 0.2652 0.0000
0.6979 0.2702 0.0000
0.6979 0.2753 0.0000
0.6979 0.2803 0.0000
0.6979 0.2854 0.0000
0.6979 0.2904 0.0000
0.6979 0.2955 0.0000
0.6979 0.3005 0.0000
0.6979 0.3056 0.0000
0.6979 0.3106 0.0000
0.6979 0.3157 0.0000
0.6979 0.3207 0.0000
0.6979 0.3258 0.0000
0.6979 0.3308 0.0000
0.6979 0.3359 0.0000
0.6979 0.3409 0.0000
0.6979 0.3460 0.0000
0.6979 0.3510 0.0000
0.6979 0.3561 0.0000
0.6979 0.3611 0.0000
0.6979 0.3662 0.0000
0.6979 0.3712 0.0000
0.6979 0.3763 0.0000
0.6979 0.3813 0.0000
0.6979 0.3864 0.0000
0.6979 0.3914 0.0000
0.6979 0.3965 0.0000
0.6979 0.4015 0.0000
0.6979 0.4066 0.0000
0.6979 0.4116 0.0000
0.6979 0.4167 0.0000
0.6979 0.4217 0.0000
0.6979 0.4268 0.0000
0.6979 0.4318 0.0000
0.6979 0.4369 0.0000
0.6979 0.4419 0.0000
0.6979 0.4470 0.0000
0.6979 0.4520 0.0000
0.6979 0.4571 0.0000
0.6979 0.4621 0.0000
0.6979 0.4672 0.0000
0.6979 0.4722 0.0000
0.6979 0.4773 0.0000
0.6979 0.4823 0.0000
0.6979 0.4874 0.0000
0.6979 0.4924 0.0000
0.6979 0.4975 0.0000
0.7188 0.0025 0.0000
0.7188 0.0076 0.0000
0.7188 0.0126 0.0000
0.7188 0.0177 0.0000
0.7188 0.0227 0.0000
0.7188 0.0278 0.0000
0.7188 0.0328 0.0000
0.7188 0.0379 0.0000
0.7188 0.0429 0.0000
0.7188 0.0480 0.0000
0.7188 0.0530 0.0000
0.7188 0.0581 0.0000
0.7188 0.0631 0.0000
0.7188 0.0682 0.0000
0.7188 0.0732 0.0000
0.7188 0.0783 0.0000
0.7188 0.0833 0.0000
0.7188 0.0884 0.0000
0.7188 0.0934 0.0000
0.7188 0.0985 0.0000
0.7188 0.1035 0.0000
0.7188 0.1086 0.0000
0.7188 0.1136 0.0000
0.7188 0.1187 0.0000
0.7188 0.1237 0.0000
0.7188 0.1288 0.0000
0.7188 0.1338 0.0000
0.7188 0.1389 0.0000
0.7188 0.1439 0.0000
0.7188 0.1490 0.0000
0.7188 0.1540 0.0000
0.7188 0.1591 0.0000
0.7188 0.1641 0.0000
0.7188 0.1692 0.0000
0.7188 0.1742 0.0000
0.7188 0.1793 0.0000
0.7188 0.1843 0.0000
0.7188 0.1894 0.0000
0.7188 0.1944 0.0000
0.7188 0.1995 0.0000
0.7188 0.2045 0.0000
0.7188 0.2096 0.0000
0.7188 0.2146 0.0000
0.7188 0.2197 0.0000
0.7188 0.2247 0.0000
0.7188 0.2298 0.0000
0.7188 0.2348 0.0000
0.7188 0.2399 0.0000
0.7188 0.2449 0.0000
0.7188 0.2500 0.0000
0.7188 0.2551 0.0000
0.7188 0.2601 0.0000
0.7188 0.2652 0.0000
0.7188 0.2702 0.0000
0.7188 0.2753 0.0000
0.7188 0.2803 0.0000
0.7188 0.2854 0.0000
0.7188 0.2904 0.0000
0.7188 0.2955 0.0000
0.7188 0.3005 0.0000
0.7188 0.3056 0.0000
0.7188 0.3106 0.0000
0.7188 0.3157 0.0000
0.7188 0.3207 0.0000
0.7188 0.3258 0.0000
0.7188 0.3308 0.0000
0.7188 0.3359 0.0000
0.7188 0.3409 0.0000
0.7188 0.3460 0.0000
0.7188 0.3510 0.0000
0.7188 0.3561 0.0000
0.7188 0.3611 0.0000
0.7188 0.3662 0.0000
0.7188 0.3712 0.0000
0.7188 0.3763 0.0000
0.7188 0.3813 0.0000
0.7188 0.3864 0.0000
0.7188 0.3914 0.0000
0.7188 0.3965 0.0000
0.7188 0.4015 0.0000
0.7188 0.4066 0.0000
0.7188 0.4116 0.0000
0.7188 0.4167 0.0000
0.7188 0.4217 0.0000
0.7188 0.4268 0.0000
0.7188 0.4318 0.0000
0.7188 0.4369 0.0000
0.7188 0.4419 0.0000
0.7188 0.4470 0.0000
0.7188 0.4520 0.0000
0.7188 0.4571 0.0000
0.7188 0.4621 0.0000
0.7188 0.4672 0.0000
0.7188 0.4722 0.0000
0.7188 0.4773 0.0000
0.7188 0.4823 0.0000
0.7188 0.4874 0.0000
0.7188 0.4924 0.0000
0.7188 0.4975 0.0000
0.7396 0.0025 0.0000
0.7396 0.0076 0.0000
0.7396 0.0126 0.0000
0.7396 0.0177 0.0000
0.7396 0.0227 0.0000
0.7396 0.0278 0.0000
0.7396 0.0328 0.0000
0.7396 0.0379 0.0000
0.7396 0.0429 0.0000
0.7396 0.0480 0.0000
0.7396 0.0530 0.0000
0.7396 0.0581 0.0000
0.7396 0.0631 0.0000
0.7396 0.0682 0.0000
0.7396 0.0732 0.0000
0.7396 0.0783 0.0000
0.7396 0.0833 0.0000
0.7396 0.0884 0.0000
0.7396 0.0934 0.0000
0.7396 0.0985 0.0000
0.7396 0.1035 0.0000
0.7396 0.1086 0.0000
0.7396 0.1136 0.0000
0.7396 0.1187 0.0000
0.7396 0.1237 0.0000
0.7396 0.1288 0.0000
0.7396 0.1338 0.0000
0.7396 0.1389 0.0000
0.7396 0.1439 0.0000
0.7396 0.1490 0.0000
0.7396 0.1540 0.0000
0.7396 0.1591 0.0000
0.7396 0.1641 0.0000
0.7396 0.1692 0.0000
0.7396 0.1742 0.0000
0.7396 0.1793 0.0000
0.7396 0.1843 0.0000
0.7396 0.1894 0.0000
0.7396 0.1944 0.0000
0.7396 0.1995 0.0000
0.7396 0.2045 0.0000
0.7396 0.2096 0.0000
0.7396 0.2146 0.0000
0.7396 0.2197 0.0000
0.7396 0.2247 0.0000
0.7396 0.2298 0.0000
0.7396 0.2348 0.0000
0.7396 0.2399 0.0000
0.7396 0.2449 0.0000
0.7396 0.2500 0.0000
0.7396 0.2551 0.0000
0.7396 0.2601 0.0000
0.7396 0.2652 0.0000
0.7396 0.2702 0.0000
0.7396 0.2753 0.0000
0.7396 0.2803 0.0000
0.7396 0.2854 0.0000
0.7396 0.2904 0.0000
0.7396 0.2955 0.0000
0.7396 0.3005 0.0000
0.7396 0.3056 0.0000
0.7396 0.3106 0.0000
0.7396 0.3157 0.0000
0.7396 0.3207 0.0000
0.7396 0.3258 0.0000
0.7396 0.3308 0.0000
0.7396 0.3359 0.0000
0.7396 0.3409 0.0000
0.7396 0.3460 0.0000
0.7396 0.3510 0.0000
0.7396 0.3561 0.0000
0.7396 0.3611 0.0000
0.7396 0.3662 0.0000
0.7396 0.3712 0.0000
0.7396 0.3763 0.0000
0.7396 0.3813 0.0000
0.7396 0.3864 0.0000
0.7396 0.3914 0.0000
0.7396 0.3965 0.0000
0.7396 0.4015 0.0000
0.7396 0.4066 0.0000
0.7396 0.4116 0.0000
0.7396 0.4167 0.0000
0.7396 0.4217 0.0000
0.7396 0.4268 0.0000
0.7396 0.4318 0.0000
0.7396 0.4369 0.0000
0.7396 0.4419 0.0000
0.7396 0.4470 0.0000
0.7396 0.4520 0.0000
0.7396 0.4571 0.0000
0.7396 0.4621 0.0000
0.7396 0.4672 0.0000
0.7396 0.4722 0.0000
0.7396 0.4773 0.0000
0.7396 0.4823 0.0000
0.7396 0.4874 0.0000
0.7396 0.4924 0.0000
0.7396 0.4975 0.0000
0.7604 0.0025 0.0000
0.7604 0.0076 0.0000
0.7604 0.0126 0.0000
0.7604 0.0177 0.0000
0.7604 0.0227 0.0000
0.7604 0.0278 0.0000
0.7604 0.0328 0.0000
0.7604 0.0379 0.0000
0.7604 0.0429 0.0000
0.7604 0.0480 0.0000
0.7604 0.0530 0.0000
0.7604 0.0581 0.0000
0.7604 0.0631 0.0000
0.7604 0.0682 0.0000
0.7604 0.0732 0.0000
0.7604 0.0783 0.0000
0.7604 0.0833 0.0000
0.7604 0.0884 0.0000
0.7604 0.0934 0.0000
0.7604 0.0985 0.0000
0.7604 0.1035 0.0000
0.7604 0.1086 0.0000
0.7604 0.1136 0.0000
0.7604 0.1187 0.0000
0.7604 0.1237 0.0000
0.7604 0.1288 0.0000
0.7604 0.1338 0.0000
0.7604 0.1389 0.0000
0.7604 0.1439 0.0000
0.7604 0.1490 0.0000
0.7604 0.1540 0.0000
0.7604 0.1591 0.0000
0.7604 0.1641 0.0000
0.7604 0.1692 0.0000
0.7604 0.1742 0.0000
0.7604 0.1793 0.0000
0.7604 0.1843 0.0000
0.7604 0.1894 0.0000
0.7604 0.1944 0.0000
0.7604 0.1995 0.0000
0.7604 0.2045 0.0000
0.7604 0.2096 0.0000
0.7604 0.2146 0.0000
0.7604 0.2197 0.0000
0.7604 0.2247 0.0000
0.7604 0.2298 0.0000
0.7604 0.2348 0.0000
0.7604 0.2399 0.0000
0.7604 0.2449 0.0000
0.7604 0.2500 0.0000
0.7604 0.2551 0.0000
0.7604 0.2601 0.0000
0.7604 0.2652 0.0000
0.7604 0.2702 0.0000
0.7604 0.2753 0.0000
0.7604 0.2803 0.0000
0.7604 0.2854 0.0000
0.7604 0.2904 0.0000
0.7604 0.2955 0.0000
0.7604 0.3005 0.0000
0.7604 0.3056 0.0000
0.7604 0.3106 0.0000
0.7604 0.3157 0.0000
0.7604 0.3207 0.0000
0.7604 0.3258 0.0000
0.7604 0.3308 0.0000
0.7604 0.3359 0.0000
0.7604 0.3409 0.0000
0.7604 0.3460 0.0000
0.7604 0.3510 0.0000
0.7604 0.3561 0.0000
0.7604 0.3611 0.0000
0.7604 0.3662 0.0000
0.7604 0.3712 0.0000
0.7604 0.3763 0.0000
0.7604 0.3813 0.0000
0.7604 0.3864 0.0000
0.7604 0.3914 0.0000
0.7604 0.3965 0.0000
0.7604 0.4015 0.0000
0.7604 0.4066 0.0000
0.7604 0.4116 0.0000
0.7604 0.4167 0.0000
0.7604 0.4217 0.0000
0.7604 0.4268 0.0000
0.7604 0.4318 0.0000
0.7604 0.4369 0.0000
0.7604 0.4419 0.0000
0.7604 0.4470 0.0000
0.7604 0.4520 0.0000
0.7604 0.4571 0.0000
0.7604 0.4621 0.0000
0.7604 0.4672 0.0000
0.7604 0.4722 0.0000
0.7604 0.4773 0.0000
0.7604 0.4823 0.0000
0.7604 0.4874 0.0000
0.7604 0.4924 0.0000
0.7604 0.4975 0.0000
0.7812 0.0025 0.0000
0.7812 0.0076 0.0000
0.7812 0.0126 0.0000
0.7812 0.0177 0.0000
0.7812 0.0227 0.0000
0.7812 0.0278 0.0000
0.7812 0.0328 0.0000
0.7812 0.0379 0.0000
0.7812 0.0429 0.0000
0.7812 0.0480 0.0000
0.7812 0.0530 0.0000
0.7812 0.0581 0.0000
0.7812 0.0631 0.0000
0.7812 0.0682 0.0000
0.7812 0.0732 0.0000
0.7812 0.0783 0.0000
0.7812 0.0833 0.0000
0.7812 0.0884 0.0000
0.7812 0.0934 0.0000
0.7812 0.0985 0.0000
0.7812 0.1035 0.0000
0.7812 0.1086 0.0000
0.7812 0.1136 0.0000
0.7812 0.1187 0.0000
0.7812 0.1237 0.0000
0.7812 0.1288 0.0000
0.7812 0.1338 0.0000
0.7812 0.1389 0.0000
0.7812 0.1439 0.0000
0.7812 0.1490 0.0000
0.7812 0.1540 0.0000
0.7812 0.1591 0.0000
0.7812 0.1641 0.0000
0.7812 0.1692 0.0000
0.7812 0.1742 0.0000
0.7812 0.1793 0.0000
0.7812 0.1843 0.0000
0.7812 0.1894 0.0000
0.7812 0.1944 0.0000
0.7812 0.1995 0.0000
0.7812 0.2045 0.0000
0.7812 0.2096 0.0000
0.7812 0.2146 0.0000
0.7812 0.2197 0.0000
0.7812 0.2247 0.0000
0.7812 0.2298 0.0000
0.7812 0.2348 0.0000
0.7812 0.2399 0.0000
0.7812 0.2449 0.0000
0.7812 0.2500 0.0000
0.7812 0.2551 0.0000
0.7812 0.2601 0.0000
0.7812 0.2652 0.0000
0.7812 0.2702 0.0000
0.7812 0.2753 0.0000
0.7812 0.2803 0.0000
0.7812 0.2854 0.0000
0.7812 0.2904 0.0000
0.7812 0.2955 0.0000
0.7812 0.3005 0.0000
0.7812 0.3056 0.0000
0.7812 0.3106 0.0000
0.7812 0.3157 0.0000
0.7812 0.3207 0.0000
0.7812 0.3258 0.0000
0.7812 0.3308 0.0000
0.7812 0.3359 0.0000
0.7812 0.3409 0.0000
0.7812 0.3460 0.0000
0.7812 0.3510 0.0000
0.7812 0.3561 0.0000
0.7812 0.3611 0.0000
0.7812 0.3662 0.0000
0.7812 0.3712 0.0000
0.7812 0.3763 0.0000
0.7812 0.3813 0.0000
0.7812 0.3864 0.0000
0.7812 0.3914 0.0000
0.7812 0.3965 0.0000
0.7812 0.4015 0.0000
0.7812 0.4066 0.0000
0.7812 0.4116 0.0000
0.7812 0.4167 0.0000
0.7812 0.4217 0.0000
0.7812 0.4268 0.0000
0.7812 0.4318 0.0000
0.7812 0.4369 0.0000
0.7812 0.4419 0.0000
0.7812 0.4470 0.0000
0.7812 0.4520 0.0000
0.7812 0.4571 0.0000
0.7812 0.4621 0.0000
0.7812 0.4672 0.0000
0.7812 0.4722 0.0000
0.7812 0.4773 0.0000
0.7812 0.4823 0.0000
0.7812 0.4874 0.0000
0.7812 0.4924 0.0000
0.7812 0.4975 0.0000
0.8021 0.0025 0.0000
0.8021 0.0076 0.0000
0.8021 0.0126 0.0000
0.8021 0.0177 0.0000
0.8021 0.0227 0.0000
0.8021 0.0278 0.0000
0.8021 0.0328 0.0000
0.8021 0.0379 0.0000
0.8021 0.0429 0.0000
0.8021 0.0480 0.0000
0.8021 0.0530 0.0000
0.8021 0.0581 0.0000
0.8021 0.0631 0.0000
0.8021 0.0682 0.0000
0.8021 0.0732 0.0000
0.8021 0.0783 0.0000
0.8021 0.0833 0.0000
0.8021 0.0884 0.0000
0.8021 0.0934 0.0000
0.8021 0.0985 0.0000
0.8021 0.1035 0.0000
0.8021 0.1086 0.0000
0.8021 0.1136 0.0000
0.8021 0.1187 0.0000
0.8021 0.1237 0.0000
0.8021 0.1288 0.0000
0.8021 0.1338 0.0000
0.8021 0.1389 0.0000
0.8021 0.1439 0.0000
0.8021 0.1490 0.0000
0.8021 0.1540 0.0000
0.8021 0.1591 0.0000
0.8021 0.1641 0.0000
0.8021 0.1692 0.0000
0.8021 0.1742 0.0000
0.8021 0.1793 0.0000
0.8021 0.1843 0.0000
0.8021 0.1894 0.0000
0.8021 0.1944 0.0000
0.8021 0.1995 0.0000
0.8021 0.2045 0.0000
0.8021 0.2096 0.0000
0.8021 0.2146 0.0000
0.8021 0.2197 0.0000
0.8021 0.2247 0.0000
0.8021 0.2298 0.0000
0.8021 0.2348 0.0000
0.8021 0.2399 0.0000
0.8021 0.2449 0.0000
0.8021 0.2500 0.0000
0.8021 0.2551 0.0000
0.8021 0.2601 0.0000
0.8021 0.2652 0.0000
0.8021 0.2702 0.0000
0.8021 0.2753 0.0000
0.8021 0.2803 0.0000
0.8021 0.2854 0.0000
0.8021 0.2904 0.0000
0.8021 0.2955 0.0000
0.8021 0.3005 0.0000
0.8021 0.3056 0.0000
0.8021 0.3106 0.0000
0.8021 0.3157 0.0000
0.8021 0.3207 0.0000
0.8021 0.3258 0.0000
0.8021 0.3308 0.0000
0.8021 0.3359 0.0000
0.8021 0.3409 0.0000
0.8021 0.3460 0.0000
0.8021 0.3510 0.0000
0.8021 0.3561 0.0000
0.8021 0.3611 0.0000
0.8021 0.3662 0.0000
0.8021 0.3712 0.0000
0.8021 0.3763 0.0000
0.8021 0.3813 0.0000
0.8021 0.3864 0.0000
0.8021 0.3914 0.0000
0.8021 0.3965 0.0000
0.8021 0.4015 0.0000
0.8021 0.4066 0.0000
0.8021 0.4116 0.0000
0.8021 0.4167 0.0000
0.8021 0.4217 0.0000
0.8021 0.4268 0.0000
0.8021 0.4318 0.0000
0.8021 0.4369 0.0000
0.8021 0.4419 0.0000
0.8021 0.4470 0.0000
0.8021 0.4520 0.0000
0.8021 0.4571 0.0000
0.8021 0.4621 0.0000
0.8021 0.4672 0.0000
0.8021 0.4722 0.0000
0.8021 0.4773 0.0000
0.8021 0.4823 0.0000
0.8021 0.4874 0.0000
0.8021 0.4924 0.0000
0.8021 0.4975 0.0000
0.8229 0.0025 0.0000
0.8229 0.0076 0.0000
0.8229 0.0126 0.0000
0.8229 0.0177 0.0000
0.8229 0.0227 0.0000
0.8229 0.0278 0.0000
0.8229 0.0328 0.0000
0.8229 0.0379 0.0000
0.8229 0.0429 0.0000
0.8229 0.0480 0.0000
0.8229 0.0530 0.0000
0.8229 0.0581 0.0000
0.8229 0.0631 0.0000
0.8229 0.0682 0.0000
0.8229 0.0732 0.0000
0.8229 0.0783 0.0000
0.8229 0.0833 0.0000
0.8229 0.0884 0.0000
0.8229 0.0934 0.0000
0.8229 0.0985 0.0000
0.8229 0.1035 0.0000
0.8229 0.1086 0.0000
0.8229 0.1136 0.0000
0.8229 0.1187 0.0000
0.8229 0.1237 0.0000
0.8229 0.1288 0.0000
0.8229 0.1338 0.0000
0.8229 0.1389 0.0000
0.8229 0.1439 0.0000
0.8229 0.1490 0.0000
0.8229 0.1540 0.0000
0.8229 0.1591 0.0000
0.8229 0.1641 0.0000
0.8229 0.1692 0.0000
0.8229 0.1742 0.0000
0.8229 0.1793 0.0000
0.8229 0.1843 0.0000
0.8229 0.1894 0.0000
0.8229 0.1944 0.0000
0.8229 0.1995 0.0000
0.8229 0.2045 0.0000
0.8229 0.2096 0.0000
0.8229 0.2146 0.0000
0.8229 0.2197 0.0000
0.8229 0.2247 0.0000
0.8229 0.2298 0.0000
0.8229 0.2348 0.0000
0.8229 0.2399 0.0000
0.8229 0.2449 0.0000
0.8229 0.2500 0.0000
0.8229 0.2551 0.0000
0.8229 0.2601 0.0000
0.8229 0.2652 0.0000
0.8229 0.2702 0.0000
0.8229 0.2753 0.0000
0.8229 0.2803 0.0000
0.8229 0.2854 0.0000
0.8229 0.2904 0.0000
0.8229 0.2955 0.0000
0.8229 0.3005 0.0000
0.8229 0.3056 0.0000
0.8229 0.3106 0.0000
0.8229 0.3157 0.0000
0.8229 0.3207 0.0000
0.8229 0.3258 0.0000
0.8229 0.3308 0.0000
0.8229 0.3359 0.0000
0.8229 0.3409 0.0000
0.8229 0.3460 0.0000
0.8229 0.3510 0.0000
0.8229 0.3561 0.0000
0.8229 0.3611 0.0000
0.8229 0.3662 0.0000
0.8229 0.3712 0.0000
0.8229 0.3763 0.0000
0.8229 0.3813 0.0000
0.8229 0.3864 0.0000
0.8229 0.3914 0.0000
0.8229 0.3965 0.0000
0.8229 0.4015 0.0000
0.8229 0.4066 0.0000
0.8229 0.4116 0.0000
0.8229 0.4167 0.0000
0.8229 0.4217 0.0000
0.8229 0.4268 0.0000
0.8229 0.4318 0.0000
0.8229 0.4369 0.0000
0.8229 0.4419 0.0000
0.8229 0.4470 0.0000
0.8229 0.4520 0.0000
0.8229 0.4571 0.0000
0.8229 0.4621 0.0000
0.8229 0.4672 0.0000
0.8229 0.4722 0.0000
0.8229 0.4773 0.0000
0.8229 0.4823 0.0000
0.8229 0.4874 0.0000
0.8229 0.4924 0.0000
0.8229 0.4975 0.0000
0.8438 0.0025 0.0000
0.8438 0.0076 0.0000
0.8438 0.0126 0.0000
0.8438 0.0177 0.0000
0.8438 0.0227 0.0000
0.8438 0.0278 0.0000
0.8438 0.0328 0.0000
0.8438 0.0379 0.0000
0.8438 0.0429 0.0000
0.8438 0.0480 0.0000
0.8438 0.0530 0.0000
0.8438 0.0581 0.0000
0.8438 0.0631 0.0000
0.8438 0.0682 0.0000
0.8438 0.0732 0.0000
0.8438 0.0783 0.0000
0.8438 0.0833 0.0000
0.8438 0.0884 0.0000
0.8438 0.0934 0.0000
0.8438 0.0985 0.0000
0.8438 0.1035 0.0000
0.8438 0.1086 0.0000
0.8438 0.1136 0.0000
0.8438 0.1187 0.0000
0.8438 0.1237 0.0000
0.8438 0.1288 0.0000
0.8438 0.1338 0.0000
0.8438 0.1389 0.0000
0.8438 0.1439 0.0000
0.8438 0.1490 0.0000
0.8438 0.1540 0.0000
0.8438 0.1591 0.0000
0.8438 0.1641 0.0000
0.8438 0.1692 0.0000
0.8438 0.1742 0.0000
0.8438 0.1793 0.0000
0.8438 0.1843 0.0000
0.8438 0.1894 0.0000
0.8438 0.1944 0.0000
0.8438 0.1995 0.0000
0.8438 0.2045 0.0000
0.8438 0.2096 0.0000
0.8438 0.2146 0.0000
0.8438 0.2197 0.0000
0.8438 0.2247 0.0000
0.8438 0.2298 0.0000
0.8438 0.2348 0.0000
0.8438 0.2399 0.0000
0.8438 0.2449 0.0000
0.8438 0.2500 0.0000
0.8438 0.2551 0.0000
0.8438 0.2601 0.0000
0.8438 0.2652 0.0000
0.8438 0.2702 0.0000
0.8438 0.2753 0.0000
0.8438 0.2803 0.0000
0.8438 0.2854 0.0000
0.8438 0.2904 0.0000
0.8438 0.2955 0.0000
0.8438 0.3005 0.0000
0.8438 0.3056 0.0000
0.8438 0.3106 0.0000
0.8438 0.3157 0.0000
0.8438 0.3207 0.0000
0.8438 0.3258 0.0000
0.8438 0.3308 0.0000
0.8438 0.3359 0.0000
0.8438 0.3409 0.0000
0.8438 0.3460 0.0000
0.8438 0.3510 0.0000
0.8438 0.3561 0.0000
0.8438 0.3611 0.0000
0.8438 0.3662 0.0000
0.8438 0.3712 0.0000
0.8438 0.3763 0.0000
0.8438 0.3813 0.0000
0.8438 0.3864 0.0000
0.8438 0.3914 0.0000
0.8438 0.3965 0.0000
0.8438 0.4015 0.0000
0.8438 0.4066 0.0000
0.8438 0.4116 0.0000
0.8438 0.4167 0.0000
0.8438 0.4217 0.0000
0.8438 0.4268 0.0000
0.8438 0.4318 0.0000
0.8438 0.4369 0.0000
0.8438 0.4419 0.0000
0.8438 0.4470 0.0000
0.8438 0.4520 0.0000
0.8438 0.4571 0.0000
0.8438 0.4621 0.0000
0.8438 0.4672 0.0000
0.8438 0.4722 0.0000
0.8438 0.4773 0.0000
0.8438 0.4823 0.0000
0.8438 0.4874 0.0000
0.8438 0.4924 0.0000
0.8438 0.4975 0.0000
0.8646 0.0025 0.0000
0.8646 0.0076 0.0000
0.8646 0.0126 0.0000
0.8646 0.0177 0.0000
0.8646 0.0227 0.0000
0.8646 0.0278 0.0000
0.8646 0.0328 0.0000
0.8646 0.0379 0.0000
0.8646 0.0429 0.0000
0.8646 0.0480 0.0000
0.8646 0.0530 0.0000
0.8646 0.0581 0.0000
0.8646 0.0631 0.0000
0.8646 0.0682 0.0000
0.8646 0.0732 0.0000
0.8646 0.0783 0.0000
0.8646 0.0833 0.0000
0.8646 0.0884 0.0000
0.8646 0.0934 0.0000
0.8646 0.0985 0.0000
0.8646 0.1035 0.0000
0.8646 0.1086 0.0000
0.8646 0.1136 0.0000
0.8646 0.1187 0.0000
0.8646 0.1237 0.0000
0.8646 0.1288 0.0000
0.8646 0.1338 0.0000
0.8646 0.1389 0.0000
0.8646 0.1439 0.0000
0.8646 0.1490 0.0000
0.8646 0.1540 0.0000
0.8646 0.1591 0.0000
0.8646 0.1641 0.0000
0.8646 0.1692 0.0000
0.8646 0.1742 0.0000
0.8646 0.1793 0.0000
0.8646 0.1843 0.0000
0.8646 0.1894 0.0000
0.8646 0.1944 0.0000
0.8646 0.1995 0.0000
0.8646 0.2045 0.0000
0.8646 0.2096 0.0000
0.8646 0.2146 0.0000
0.8646 0.2197 0.0000
0.8646 0.2247 0.0000
0.8646 0.2298 0.0000
0.8646 0.2348 0.0000
0.8646 0.2399 0.0000
0.8646 0.2449 0.0000
0.8646 0.2500 0.0000
0.8646 0.2551 0.0000
0.8646 0.2601 0.0000
0.8646 0.2652 0.0000
0.8646 0.2702 0.0000
0.8646 0.2753 0.0000
0.8646 0.2803 0.0000
0.8646 0.2854 0.0000
0.8646 0.2904 0.0000
0.8646 0.2955 0.0000
0.8646 0.3005 0.0000
0.8646 0.3056 0.0000
0.8646 0.3106 0.0000
0.8646 0.3157 0.0000
0.8646 0.3207 0.0000
0.8646 0.3258 0.0000
0.8646 0.3308 0.0000
0.8646 0.3359 0.0000
0.8646 0.3409 0.0000
0.8646 0.3460 0.0000
0.8646 0.3510 0.0000
0.8646 0.3561 0.0000
0.8646 0.3611 0.0000
0.8646 0.3662 0.0000
0.8646 0.3712 0.0000
0.8646 0.3763 0.0000
0.8646 0.3813 0.0000
0.8646 0.3864 0.0000
0.8646 0.3914 0.0000
0.8646 0.3965 0.0000
0.8646 0.4015 0.0000
0.8646 0.4066 0.0000
0.8646 0.4116 0.0000
0.8646 0.4167 0.0000
0.8646 0.4217 0.0000
0.8646 0.4268 0.0000
0.8646 0.4318 0.0000
0.8646 0.4369 0.0000
0.8646 0.4419 0.0000
0.8646 0.4470 0.0000
0.8646 0.4520 0.0000
0.8646 0.4571 0.0000
0.8646 0.4621 0.0000
0.8646 0.4672 0.0000
0.8646 0.4722 0.0000
0.8646 0.4773 0.0000
0.8646 0.4823 0.0000
0.8646 0.4874 0.0000
0.8646 0.4924 0.0000
0.8646 0.4975 0.0000
0.8854 0.0025 0.0000
0.8854 0.0076 0.0000
0.8854 0.0126 0.0000
0.8854 0.0177 0.0000
0.8854 0.0227 0.0000
0.8854 0.0278 0.0000
0.8854 0.0328 0.0000
0.8854 0.0379 0.0000
0.8854 0.0429 0.0000
0.8854 0.0480 0.0000
0.8854 0.0530 0.0000
0.8854 0.0581 0.0000
0.8854 0.0631 0.0000
0.8854 0.0682 0.0000
0.8854 0.0732 0.0000
0.8854 0.0783 0.0000
0.8854 0.0833 0.0000
0.8854 0.0884 0.0000
0.8854 0.0934 0.0000
0.8854 0.0985 0.0000
0.8854 0.1035 0.0000
0.8854 0.1086 0.0000
0.8854 0.1136 0.0000
0.8854 0.1187 0.0000
0.8854 0.1237 0.0000
0.8854 0.1288 0.0000
0.8854 0.1338 0.0000
0.8854 0.1389 0.0000
0.8854 0.1439 0.0000
0.8854 0.1490 0.0000
0.8854 0.1540 0.0000
0.8854 0.1591 0.0000
0.8854 0.1641 0.0000
0.8854 0.1692 0.0000
0.8854 0.1742 0.0000
0.8854 0.1793 0.0000
0.8854 0.1843 0.0000
0.8854 0.1894 0.0000
0.8854 0.1944 0.0000
0.8854 0.1995 0.0000
0.8854 0.2045 0.0000
0.8854 0.2096 0.0000
0.8854 0.2146 0.0000
0.8854 0.2197 0.0000
0.8854 0.2247 0.0000
0.8854 0.2298 0.0000
0.8854 0.2348 0.0000
0.8854 0.2399 0.0000
0.8854 0.2449 0.0000
0.8854 0.2500 0.0000
0.8854 0.2551 0.0000
0.8854 0.2601 0.0000
0.8854 0.2652 0.0000
0.8854 0.2702 0.0000
0.8854 0.2753 0.0000
0.8854 0.2803 0.0000
0.8854 0.2854 0.0000
0.8854 0.2904 0.0000
0.8854 0.2955 0.0000
0.8854 0.3005 0.0000
0.8854 0.3056 0.0000
0.8854 0.3106 0.0000
0.8854 0.3157 0.0000
0.8854 0.3207 0.0000
0.8854 0.3258 0.0000
0.8854 0.3308 0.0000
0.8854 0.3359 0.0000
0.8854 0.3409 0.0000
0.8854 0.3460 0.0000
0.8854 0.3510 0.0000
0.8854 0.3561 0.0000
0.8854 0.3611 0.0000
0.8854 0.3662 0.0000
0.8854 0.3712 0.0000
0.8854 0.3763 0.0000
0.8854 0.3813 0.0000
0.8854 0.3864 0.0000
0.8854 0.3914 0.0000
0.8854 0.3965 0.0000
0.8854 0.4015 0.0000
0.8854 0.4066 0.0000
0.8854 0.4116 0.0000
0.8854 0.4167 0.0000
0.8854 0.4217 0.0000
0.8854 0.4268 0.0000
0.8854 0.4318 0.0000
0.8854 0.4369 0.0000
0.8854 0.4419 0.0000
0.8854 0.4470 0.0000
0.8854 0.4520 0.0000
0.8854 0.4571 0.0000
0.8854 0.4621 0.0000
0.8854 0.4672 0.0000
0.8854 0.4722 0.0000
0.8854 0.4773 0.0000
0.8854 0.4823 0.0000
0.8854 0.4874 0.0000
0.8854 0.4924 0.0000
0.8854 0.4975 0.0000
0.9062 0.0025 0.0000
0.9062 0.0076 0.0000
0.9062 0.0126 0.0000
0.9062 0.0177 0.0000
0.9062 0.0227 0.0000
0.9062 0.0278 0.0000
0.9062 0.0328 0.0000
0.9062 0.0379 0.0000
0.9062 0.0429 0.0000
0.9062 0.0480 0.0000
0.9062 0.0530 0.0000
0.9062 0.0581 0.0000
0.9062 0.0631 0.0000
0.9062 0.0682 0.0000
0.9062 0.0732 0.0000
0.9062 0.0783 0.0000
0.9062 0.0833 0.0000
0.9062 0.0884 0.0000
0.9062 0.0934 0.0000
0.9062 0.0985 0.0000
0.9062 0.1035 0.0000
0.9062 0.1086 0.0000
0.9062 0.1136 0.0000
0.9062 0.1187 0.0000
0.9062 0.1237 0.0000
0.9062 0.1288 0.0000
0.9062 0.1338 0.0000
0.9062 0.1389 0.0000
0.9062 0.1439 0.0000
0.9062 0.1490 0.0000
0.9062 0.1540 0.0000
0.9062 0.1591 0.0000
0.9062 0.1641 0.0000
0.9062 0.1692 0.0000
0.9062 0.1742 0.0000
0.9062 0.1793 0.0000
0.9062 0.1843 0.0000
0.9062 0.1894 0.0000
0.9062 0.1944 0.0000
0.9062 0.1995 0.0000
0.9062 0.2045 0.0000
0.9062 0.2096 0.0000
0.9062 0.2146 0.0000
0.9062 0.2197 0.0000
0.9062 0.2247 0.0000
0.9062 0.2298 0.0000
0.9062 0.2348 0.0000
0.9062 0.2399 0.0000
0.9062 0.2449 0.0000
0.9062 0.2500 0.0000
0.9062 0.2551 0.0000
0.9062 0.2601 0.0000
0.9062 0.2652 0.0000
0.9062 0.2702 0.0000
0.9062 0.2753 0.0000
0.9062 0.2803 0.0000
0.9062 0.2854 0.0000
0.9062 0.2904 0.0000
0.9062 0.2955 0.0000
0.9062 0.3005 0.0000
0.9062 0.3056 0.0000
0.9062 0.3106 0.0000
0.9062 0.3157 0.0000
0.9062 0.3207 0.0000
0.9062 0.3258 0.0000
0.9062 0.3308 0.0000
0.9062 0.3359 0.0000
0.9062 0.3409 0.0000
0.9062 0.3460 0.0000
0.9062 0.3510 0.0000
0.9062 0.3561 0.0000
0.9062 0.3611 0.0000
0.9062 0.3662 0.0000
0.9062 0.3712 0.0000
0.9062 0.3763 0.0000
0.9062 0.3813 0.0000
0.9062 0.3864 0.0000
0.9062 0.3914 0.0000
0.9062 0.3965 0.0000
0.9062 0.4015 0.0000
0.9062 0.4066 0.0000
0.9062 0.4116 0.0000
0.9062 0.4167 0.0000
0.9062 0.4217 0.0000
0.9062 0.4268 0.0000
0.9062 0.4318 0.0000
0.9062 0.4369 0.0000
0.9062 0.4419 0.0000
0.9062 0.4470 0.0000
0.9062 0.4520 0.0000
0.9062 0.4571 0.0000
0.9062 0.4621 0.0000
0.9062 0.4672 0.0000
0.9062 0.4722 0.0000
0.9062 0.4773 0.0000
0.9062 0.4823 0.0000
0.9062 0.4874 0.0000
0.9062 0.4924 0.0000
0.9062 0.4975 0.0000
0.9271 0.0025 0.0000
0.9271 0.0076 0.0000
0.9271 0.0126 0.0000
0.9271 0.0177 0.0000
0.9271 0.0227 0.0000
0.9271 0.0278 0.0000
0.9271 0.0328 0.0000
0.9271 0.0379 0.0000
0.9271 0.0429 0.0000
0.9271 0.0480 0.0000
0.9271 0.0530 0.0000
0.9271 0.0581 0.0000
0.9271 0.0631 0.0000
0.9271 0.0682 0.0000
0.9271 0.0732 0.0000
0.9271 0.0783 0.0000
0.9271 0.0833 0.0000
0.9271 0.0884 0.0000
0.9271 0.0934 0.0000
0.9271 0.0985 0.0000
0.9271 0.1035 0.0000
0.9271 0.1086 0.0000
0.9271 0.1136 0.0000
0.9271 0.1187 0.0000
0.9271 0.1237 0.0000
0.9271 0.1288 0.0000
0.9271 0.1338 0.0000
0.9271 0.1389 0.0000
0.9271 0.1439 0.0000
0.9271 0.1490 0.0000
0.9271 0.1540 0.0000
0.9271 0.1591 0.0000
0.9271 0.1641 0.0000
0.9271 0.1692 0.0000
0.9271 0.1742 0.0000
0.9271 0.1793 0.0000
0.9271 0.1843 0.0000
0.9271 0.1894 0.0000
0.9271 0.1944 0.0000
0.9271 0.1995 0.0000
0.9271 0.2045 0.0000
0.9271 0.2096 0.0000
0.9271 0.2146 0.0000
0.9271 0.2197 0.0000
0.9271 0.2247 0.0000
0.9271 0.2298 0.0000
0.9271 0.2348 0.0000
0.9271 0.2399 0.0000
0.9271 0.2449 0.0000
0.9271 0.2500 0.0000
0.9271 0.2551 0.0000
0.9271 0.2601 0.0000
0.9271 0.2652 0.0000
0.9271 0.2702 0.0000
0.9271 0.2753 0.0000
0.9271 0.2803 0.0000
0.9271 0.2854 0.0000
0.9271 0.2904 0.0000
0.9271 0.2955 0.0000
0.9271 0.3005 0.0000
0.9271 0.3056 0.0000
0.9271 0.3106 0.0000
0.9271 0.3157 0.0000
0.9271 0.3207 0.0000
0.9271 0.3258 0.0000
0.9271 0.3308 0.0000
0.9271 0.3359 0.0000
0.9271 0.3409 0.0000
0.9271 0.3460 0.0000
0.9271 0.3510 0.0000
0.9271 0.3561 0.0000
0.9271 0.3611 0.0000
0.9271 0.3662 0.0000
0.9271 0.3712 0.0000
0.9271 0.3763 0.0000
0.9271 0.3813 0.0000
0.9271 0.3864 0.0000
0.9271 0.3914 0.0000
0.9271 0.3965 0.0000
0.9271 0.4015 0.0000
0.9271 0.4066 0.0000
0.9271 0.4116 0.0000
0.9271 0.4167 0.0000
0.9271 0.4217 0.0000
0.9271 0.4268 0.0000
0.9271 0.4318 0.0000
0.9271 0.4369 0.0000
0.9271 0.4419 0.0000
0.9271 0.4470 0.0000
0.9271 0.4520 0.0000
0.9271 0.4571 0.0000
0.9271 0.4621 0.0000
0.9271 0.4672 0.0000
0.9271 0.4722 0.0000
0.9271 0.4773 0.0000
0.9271 0.4823 0.0000
0.9271 0.4874 0.0000
0.9271 0.4924 0.0000
0.9271 0.4975 0.0000
0.9479 0.0025 0.0000
0.9479 0.0076 0.0000
0.9479 0.0126 0.0000
0.9479 0.0177 0.0000
0.9479 0.0227 0.0000
0.9479 0.0278 0.0000
0.9479 0.0328 0.0000
0.9479 0.0379 0.0000
0.9479 0.0429 0.0000
0.9479 0.0480 0.0000
0.9479 0.0530 0.0000
0.9479 0.0581 0.0000
0.9479 0.0631 0.0000
0.9479 0.0682 0.0000
0.9479 0.0732 0.0000
0.9479 0.0783 0.0000
0.9479 0.0833 0.0000
0.9479 0.0884 0.0000
0.9479 0.0934 0.0000
0.9479 0.0985 0.0000
0.9479 0.1035 0.0000
0.9479 0.1086 0.0000
0.9479 0.1136 0.0000
0.9479 0.1187 0.0000
0.9479 0.1237 0.0000
0.9479 0.1288 0.0000
0.9479 0.1338 0.0000
0.9479 0.1389 0.0000
0.9479 0.1439 0.0000
0.9479 0.1490 0.0000
0.9479 0.1540 0.0000
0.9479 0.1591 0.0000
0.9479 0.1641 0.0000
0.9479 0.1692 0.0000
0.9479 0.1742 0.0000
0.9479 0.1793 0.0000
0.9479 0.1843 0.0000
0.9479 0.1894 0.0000
0.9479 0.1944 0.0000
0.9479 0.1995 0.0000
0.9479 0.2045 0.0000
0.9479 0.2096 0.0000
0.9479 0.2146 0.0000
0.9479 0.2197 0.0000
0.9479 0.2247 0.0000
0.9479 0.2298 0.0000
0.9479 0.2348 0.0000
0.9479 0.2399 0.0000
0.9479 0.2449 0.0000
0.9479 0.2500 0.0000
0.9479 0.2551 0.0000
0.9479 0.2601 0.0000
0.9479 0.2652 0.0000
0.9479 0.2702 0.0000
0.9479 0.2753 0.0000
0.9479 0.2803 0.0000
0.9479 0.2854 0.0000
0.9479 0.2904 0.0000
0.9479 0.2955 0.0000
0.9479 0.3005 0.0000
0.9479 0.3056 0.0000
0.9479 0.3106 0.0000
0.9479 0.3157 0.0000
0.9479 0.3207 0.0000
0.9479 0.3258 0.0000
0.9479 0.3308 0.0000
0.9479 0.3359 0.0000
0.9479 0.3409 0.0000
0.9479 0.3460 0.0000
0.9479 0.3510 0.0000
0.9479 0.3561 0.0000
0.9479 0.3611 0.0000
0.9479 0.3662 0.0000
0.9479 0.3712 0.0000
0.9479 0.3763 0.0000
0.9479 0.3813 0.0000
0.9479 0.3864 0.0000
0.9479 0.3914 0.0000
0.9479 0.3965 0.0000
0.9479 0.4015 0.0000
0.9479 0.4066 0.0000
0.9479 0.4116 0.0000
0.9479 0.4167 0.0000
0.9479 0.4217 0.0000
0.9479 0.4268 0.0000
0.9479 0.4318 0.0000
0.9479 0.4369 0.0000
0.9479 0.4419 0.0000
0.9479 0.4470 0.0000
0.9479 0.4520 0.0000
0.9479 0.4571 0.0000
0.9479 0.4621 0.0000
0.9479 0.4672 0.0000
0.9479 0.4722 0.0000
0.9479 0.4773 0.0000
0.9479 0.4823 0.0000
0.9479 0.4874 0.0000
0.9479 0.4924 0.0000
0.9479 0.4975 0.0000
0.9688 0.0025 0.0000
0.9688 0.0076 0.0000
0.9688 0.0126 0.0000
0.9688 0.0177 0.0000
0.9688 0.0227 0.0000
0.9688 0.0278 0.0000
0.9688 0.0328 0.0000
0.9688 0.0379 0.0000
0.9688 0.0429 0.0000
0.9688 0.0480 0.0000
0.9688 0.0530 0.0000
0.9688 0.0581 0.0000
0.9688 0.0631 0.0000
0.9688 0.0682 0.0000
0.9688 0.0732 0.0000
0.9688 0.0783 0.0000
0.9688 0.0833 0.0000
0.9688 0.0884 0.0000
0.9688 0.0934 0.0000
0.9688 0.0985 0.0000
0.9688 0.1035 0.0000
0.9688 0.1086 0.0000
0.9688 0.1136 0.0000
0.9688 0.1187 0.0000
0.9688 0.1237 0.0000
0.9688 0.1288 0.0000
0.9688 0.1338 0.0000
0.9688 0.1389 0.0000
0.9688 0.1439 0.0000
0.9688 0.1490 0.0000
0.9688 0.1540 0.0000
0.9688 0.1591 0.0000
0.9688 0.1641 0.0000
0.9688 0.1692 0.0000
0.9688 0.1742 0.0000
0.9688 0.1793 0.0000
0.9688 0.1843 0.0000
0.9688 0.1894 0.0000
0.9688 0.1944 0.0000
0.9688 0.1995 0.0000
0.9688 0.2045 0.0000
0.9688 0.2096 0.0000
0.9688 0.2146 0.0000
0.9688 0.2197 0.0000
0.9688 0.2247 0.0000
0.9688 0.2298 0.0000
0.9688 0.2348 0.0000
0.9688 0.2399 0.0000
0.9688 0.2449 0.0000
0.9688 0.2500 0.0000
0.9688 0.2551 0.0000
0.9688 0.2601 0.0000
0.9688 0.2652 0.0000
0.9688 0.2702 0.0000
0.9688 0.2753 0.0000
0.9688 0.2803 0.0000
0.9688 0.2854 0.0000
0.9688 0.2904 0.0000
0.9688 0.2955 0.0000
0.9688 0.3005 0.0000
0.9688 0.3056 0.0000
0.9688 0.3106 0.0000
0.9688 0.3157 0.0000
0.9688 0.3207 0.0000
0.9688 0.3258 0.0000
0.9688 0.3308 0.0000
0.9688 0.3359 0.0000
0.9688 0.3409 0.0000
0.9688 0.3460 0.0000
0.9688 0.3510 0.0000
0.9688 0.3561 0.0000
0.9688 0.3611 0.0000
0.9688 0.3662 0.0000
0.9688 0.3712 0.0000
0.9688 0.3763 0.0000
0.9688 0.3813 0.0000
0.9688 0.3864 0.0000
0.9688 0.3914 0.0000
0.9688 0.3965 0.0000
0.9688 0.4015 0.0000
0.9688 0.4066 0.0000
0.9688 0.4116 0.0000
0.9688 0.4167 0.0000
0.9688 0.4217 0.0000
0.9688 0.4268 0.0000
0.9688 0.4318 0.0000
0.9688 0.4369 0.0000
0.9688 0.4419 0.0000
0.9688 0.4470 0.0000
0.9688 0.4520 0.0000
0.9688 0.4571 0.0000
0.9688 0.4621 0.0000
0.9688 0.4672 0.0000
0.9688 0.4722 0.0000
0.9688 0.4773 0.0000
0.9688 0.4823 0.0000
0.9688 0.4874 0.0000
0.9688 0.4924 0.0000
0.9688 0.4975 0.0000
0.9896 0.0025 0.0000
0.9896 0.0076 0.0000
0.9896 0.0126 0.0000
0.9896 0.0177 0.0000
0.9896 0.0227 0.0000
0.9896 0.0278 0.0000
0.9896 0.0328 0.0000
0.9896 0.0379 0.0000
0.9896 0.0429 0.0000
0.9896 0.0480 0.0000
0.9896 0.0530 0.0000
0.9896 0.0581 0.0000
0.9896 0.0631 0.0000
0.9896 0.0682 0.0000
0.9896 0.0732 0.0000
0.9896 0.0783 0.0000
0.9896 0.0833 0.0000
0.9896 0.0884 0.0000
0.9896 0.0934 0.0000
0.9896 0.0985 0.0000
0.9896 0.1035 0.0000
0.9896 0.1086 0.0000
0.9896 0.1136 0.0000
0.9896 0.1187 0.0000
0.9896 0.1237 0.0000
0.9896 0.1288 0.0000
0.9896 0.1338 0.0000
0.9896 0.1389 0.0000
0.9896 0.1439 0.0000
0.9896 0.1490 0.0000
0.9896 0.1540 0.0000
0.9896 0.1591 0.0000
0.9896 0.1641 0.0000
0.9896 0.1692 0.0000
0.9896 0.1742 0.0000
0.9896 0.1793 0.0000
0.9896 0.1843 0.0000
0.9896 0.1894 0.0000
0.9896 0.1944 0.0000
0.9896 0.1995 0.0000
0.9896 0.2045 0.0000
0.9896 0.2096 0.0000
0.9896 0.2146 0.0000
0.9896 0.2197 0.0000
0.9896 0.2247 0.0000
0.9896 0.2298 0.0000
0.9896 0.2348 0.0000
0.9896 0.2399 0.0000
0.9896 0.2449 0.0000
0.9896 0.2500 0.0000
0.9896 0.2551 0.0000
0.9896 0.2601 0.0000
0.9896 0.2652 0.0000
0.9896 0.2702 0.0000
0.9896 0.2753 0.0000
0.9896 0.2803 0.0000
0.9896 0.2854 0.0000
0.9896 0.2904 0.0000
0.9896 0.2955 0.0000
0.9896 0.3005 0.0000
0.9896 0.3056 0.0000
0.9896 0.3106 0.0000
0.9896 0.3157 0.0000
0.9896 0.3207 0.0000
0.9896 0.3258 0.0000
0.9896 0.3308 0.0000
0.9896 0.3359 0.0000
0.9896 0.3409 0.0000
0.9896 0.3460 0.0000
0.9896 0.3510 0.0000
0.9896 0.3561 0.0000
0.9896 0.3611 0.0000
0.9896 0.3662 0.0000
0.9896 0.3712 0.0000
0.9896 0.3763 0.0000
0.9896 0.3813 0.0000
0.9896 0.3864 0.0000
0.9896 0.3914 0.0000
0.9896 0.3965 0.0000
0.9896 0.4015 0.0000
0.9896 0.4066 0.0000
0.9896 0.4116 0.0000
0.9896 0.4167 0.0000
0.9896 0.4217 0.0000
0.9896 0.4268 0.0000
0.9896 0.4318 0.0000
0.9896 0.4369 0.0000
0.9896 0.4419 0.0000
0.9896 0.4470 0.0000
0.9896 0.4520 0.0000
0.9896 0.4571 0.0000
0.9896 0.4621 0.0000
0.9896 0.4672 0.0000
0.9896 0.4722 0.0000
0.9896 0.4773 0.0000
0.9896 0.4823 0.0000
0.9896 0.4874 0.0000
0.9896 0.4924 0.0000
0.9896 0.4975 0.0000</DataArray>
         </Points>
         <Cells>
            <DataArray Name="connectivity" format="ascii" type="Int32">
 1 0 4900
 2 1 4901
 3 2 4902
 4 3 4903
 5 4 4904
 6 5 4905
 7 6 4906
 8 7 4907
 9 8 4908
 10 9 4909
 11 10 4910
 12 11 4911
 13 12 4912
 14 13 4913
 15 14 4914
 16 15 4915
 17 16 4916
 18 17 4917
 19 18 4918
 20 19 4919
 21 20 4920
 22 21 4921
 23 22 4922
 24 23 4923
 25 24 4924
 26 25 4925
 27 26 4926
 28 27 4927
 29 28 4928
 30 29 4929
 31 30 4930
 32 31 4931
 33 32 4932
 34 33 4933
 35 34 4934
 36 35 4935
 37 36 4936
 38 37 4937
 39 38 4938
 40 39 4939
 41 40 4940
 42 41 4941
 43 42 4942
 44 43 4943
 45 44 4944
 46 45 4945
 47 46 4946
 48 47 4947
 49 48 4948
 50 49 4949
 51 50 4950
 52 51 4951
 53 52 4952
 54 53 4953
 55 54 4954
 56 55 4955
 57 56 4956
 58 57 4957
 59 58 4958
 60 59 4959
 61 60 4960
 62 61 4961
 63 62 4962
 64 63 4963
 65 64 4964
 66 65 4965
 67 66 4966
 68 67 4967
 69 68 4968
 70 69 4969
 71 70 4970
 72 71 4971
 73 72 4972
 74 73 4973
 75 74 4974
 76 75 4975
 77 76 4976
 78 77 4977
 79 78 4978
 80 79 4979
 81 80 4980
 82 81 4981
 83 82 4982
 84 83 4983
 85 84 4984
 86 85 4985
 87 86 4986
 88 87 4987
 89 88 4988
 90 89 4989
 91 90 4990
 92 91 4991
 93 92 4992
 94 93 4993
 95 94 4994
 96 95 4995
 97 96 4996
 98 97 4997
 99 98 4998
 101 100 4999
 102 101 5000
 103 102 5001
 104 103 5002
 105 104 5003
 106 105 5004
 107 106 5005
 108 107 5006
 109 108 5007
 110 109 5008
 111 110 5009
 112 111 5010
 113 112 5011
 114 113 5012
 115 114 5013
 116 115 5014
 117 116 5015
 118 117 5016
 119 118 5017
 120 119 5018
 121 120 5019
 122 121 5020
 123 122 5021
 124 123 5022
 125 124 5023
 126 125 5024
 127 126 5025
 128 127 5026
 129 128 5027
 130 129 5028
 131 130 5029
 132 131 5030
 133 132 5031
 134 133 5032
 135 134 5033
 136 135 5034
 137 136 5035
 138 137 5036
 139 138 5037
 140 139 5038
 141 140 5039
 142 141 5040
 143 142 5041
 144 143 5042
 145 144 5043
 146 145 5044
 147 146 5045
 148 147 5046
 149 148 5047
 150 149 5048
 151 150 5049
 152 151 5050
 153 152 5051
 154 153 5052
 155 154 5053
 156 155 5054
 157 156 5055
 158 157 5056
 159 158 5057
 160 159 5058
 161 160 5059
 162 161 5060
 163 162 5061
 164 163 5062
 165 164 5063
 166 165 5064
 167 166 5065
 168 167 5066
 169 168 5067
 170 169 5068
 171 170 5069
 172 171 5070
 173 172 5071
 174 173 5072
 175 174 5073
 176 175 5074
 177 176 5075
 178 177 5076
 179 178 5077
 180 179 5078
 181 180 5079
 182 181 5080
 183 182 5081
 184 183 5082
 185 184 5083
 186 185 5084
 187 186 5085
 188 187 5086
 189 188 5087
 190 189 5088
 191 190 5089
 192 191 5090
 193 192 5091
 194 193 5092
 195 194 5093
 196 195 5094
 197 196 5095
 198 197 5096
 199 198 5097
 201 200 5098
 202 201 5099
 203 202 5100
 204 203 5101
 205 204 5102
 206 205 5103
 207 206 5104
 208 207 5105
 209 208 5106
 210 209 5107
 211 210 5108
 212 211 5109
 213 212 5110
 214 213 5111
 215 214 5112
 216 215 5113
 217 216 5114
 218 217 5115
 219 218 5116
 220 219 5117
 221 220 5118
 222 221 5119
 223 222 5120
 224 223 5121
 225 224 5122
 226 225 5123
 227 226 5124
 228 227 5125
 229 228 5126
 230 229 5127
 231 230 5128
 232 231 5129
 233 232 5130
 234 233 5131
 235 234 5132
 236 235 5133
 237 236 5134
 238 237 5135
 239 238 5136
 240 239 5137
 241 240 5138
 242 241 5139
 243 242 5140
 244 243 5141
 245 244 5142
 246 245 5143
 247 246 5144
 248 247 5145
 249 248 5146
 250 249 5147
 251 250 5148
 252 251 5149
 253 252 5150
 254 253 5151
 255 254 5152
 256 255 5153
 257 256 5154
 258 257 5155
 259 258 5156
 260 259 5157
 261 260 5158
 262 261 5159
 263 262 5160
 264 263 5161
 265 264 5162
 266 265 5163
 267 266 5164
 268 267 5165
 269 268 5166
 270 269 5167
 271 270 5168
 272 271 5169
 273 272 5170
 274 273 5171
 275 274 5172
 276 275 5173
 277 276 5174
 278 277 5175
 279 278 5176
 280 279 5177
 281 280 5178
 282 281 5179
 283 282 5180
 284 283 5181
 285 284 5182
 286 285 5183
 287 286 5184
 288 287 5185
 289 288 5186
 290 289 5187
 291 290 5188
 292 291 5189
 293 292 5190
 294 293 5191
 295 294 5192
 296 295 5193
 297 296 5194
 298 297 5195
 299 298 5196
 301 300 5197
 302 301 5198
 303 302 5199
 304 303 5200
 305 304 5201
 306 305 5202
 307 306 5203
 308 307 5204
 309 308 5205
 310 309 5206
 311 310 5207
 312 311 5208
 313 312 5209
 314 313 5210
 315 314 5211
 316 315 5212
 317 316 5213
 318 317 5214
 319 318 5215
 320 319 5216
 321 320 5217
 322 321 5218
 323 322 5219
 324 323 5220
 325 324 5221
 326 325 5222
 327 326 5223
 328 327 5224
 329 328 5225
 330 329 5226
 331 330 5227
 332 331 5228
 333 332 5229
 334 333 5230
 335 334 5231
 336 335 5232
 337 336 5233
 338 337 5234
 339 338 5235
 340 339 5236
 341 340 5237
 342 341 5238
 343 342 5239
 344 343 5240
 345 344 5241
 346 345 5242
 347 346 5243
 348 347 5244
 349 348 5245
 350 349 5246
 351 350 5247
 352 351 5248
 353 352 5249
 354 353 5250
 355 354 5251
 356 355 5252
 357 356 5253
 358 357 5254
 359 358 5255
 360 359 5256
 361 360 5257
 362 361 5258
 363 362 5259
 364 363 5260
 365 364 5261
 366 365 5262
 367 366 5263
 368 367 5264
 369 368 5265
 370 369 5266
 371 370 5267
 372 371 5268
 373 372 5269
 374 373 5270
 375 374 5271
 376 375 5272
 377 376 5273
 378 377 5274
 379 378 5275
 380 379 5276
 381 380 5277
 382 381 5278
 383 382 5279
 384 383 5280
 385 384 5281
 386 385 5282
 387 386 5283
 388 387 5284
 389 388 5285
 390 389 5286
 391 390 5287
 392 391 5288
 393 392 5289
 394 393 5290
 395 394 5291
 396 395 5292
 397 396 5293
 398 397 5294
 399 398 5295
 401 400 5296
 402 401 5297
 403 402 5298
 404 403 5299
 405 404 5300
 406 405 5301
 407 406 5302
 408 407 5303
 409 408 5304
 410 409 5305
 411 410 5306
 412 411 5307
 413 412 5308
 414 413 5309
 415 414 5310
 416 415 5311
 417 416 5312
 418 417 5313
 419 418 5314
 420 419 5315
 421 420 5316
 422 421 5317
 423 422 5318
 424 423 5319
 425 424 5320
 426 425 5321
 427 426 5322
 428 427 5323
 429 428 5324
 430 429 5325
 431 430 5326
 432 431 5327
 433 432 5328
 434 433 5329
 435 434 5330
 436 435 5331
 437 436 5332
 438 437 5333
 439 438 5334
 440 439 5335
 441 440 5336
 442 441 5337
 443 442 5338
 444 443 5339
 445 444 5340
 446 445 5341
 447 446 5342
 448 447 5343
 449 448 5344
 450 449 5345
 451 450 5346
 452 451 5347
 453 452 5348
 454 453 5349
 455 454 5350
 456 455 5351
 457 456 5352
 458 457 5353
 459 458 5354
 460 459 5355
 461 460 5356
 462 461 5357
 463 462 5358
 464 463 5359
 465 464 5360
 466 465 5361
 467 466 5362
 468 467 5363
 469 468 5364
 470 469 5365
 471 470 5366
 472 471 5367
 473 472 5368
 474 473 5369
 475 474 5370
 476 475 5371
 477 476 5372
 478 477 5373
 479 478 5374
 480 479 5375
 481 480 5376
 482 481 5377
 483 482 5378
 484 483 5379
 485 484 5380
 486 485 5381
 487 486 5382
 488 487 5383
 489 488 5384
 490 489 5385
 491 490 5386
 492 491 5387
 493 492 5388
 494 493 5389
 495 494 5390
 496 495 5391
 497 496 5392
 498 497 5393
 499 498 5394
 501 500 5395
 502 501 5396
 503 502 5397
 504 503 5398
 505 504 5399
 506 505 5400
 507 506 5401
 508 507 5402
 509 508 5403
 510 509 5404
 511 510 5405
 512 511 5406
 513 512 5407
 514 513 5408
 515 514 5409
 516 515 5410
 517 516 5411
 518 517 5412
 519 518 5413
 520 519 5414
 521 520 5415
 522 521 5416
 523 522 5417
 524 523 5418
 525 524 5419
 526 525 5420
 527 526 5421
 528 527 5422
 529 528 5423
 530 529 5424
 531 530 5425
 532 531 5426
 533 532 5427
 534 533 5428
 535 534 5429
 536 535 5430
 537 536 5431
 538 537 5432
 539 538 5433
 540 539 5434
 541 540 5435
 542 541 5436
 543 542 5437
 544 543 5438
 545 544 5439
 546 545 5440
 547 546 5441
 548 547 5442
 549 548 5443
 550 549 5444
 551 550 5445
 552 551 5446
 553 552 5447
 554 553 5448
 555 554 5449
 556 555 5450
 557 556 5451
 558 557 5452
 559 558 5453
 560 559 5454
 561 560 5455
 562 561 5456
 563 562 5457
 564 563 5458
 565 564 5459
 566 565 5460
 567 566 5461
 568 567 5462
 569 568 5463
 570 569 5464
 571 570 5465
 572 571 5466
 573 572 5467
 574 573 5468
 575 574 5469
 576 575 5470
 577 576 5471
 578 577 5472
 579 578 5473
 580 579 5474
 581 580 5475
 582 581 5476
 583 582 5477
 584 583 5478
 585 584 5479
 586 585 5480
 587 586 5481
 588 587 5482
 589 588 5483
 590 589 5484
 591 590 5485
 592 591 5486
 593 592 5487
 594 593 5488
 595 594 5489
 596 595 5490
 597 596 5491
 598 597 5492
 599 598 5493
 601 600 5494
 602 601 5495
 603 602 5496
 604 603 5497
 605 604 5498
 606 605 5499
 607 606 5500
 608 607 5501
 609 608 5502
 610 609 5503
 611 610 5504
 612 611 5505
 613 612 5506
 614 613 5507
 615 614 5508
 616 615 5509
 617 616 5510
 618 617 5511
 619 618 5512
 620 619 5513
 621 620 5514
 622 621 5515
 623 622 5516
 624 623 5517
 625 624 5518
 626 625 5519
 627 626 5520
 628 627 5521
 629 628 5522
 630 629 5523
 631 630 5524
 632 631 5525
 633 632 5526
 634 633 5527
 635 634 5528
 636 635 5529
 637 636 5530
 638 637 5531
 639 638 5532
 640 639 5533
 641 640 5534
 642 641 5535
 643 642 5536
 644 643 5537
 645 644 5538
 646 645 5539
 647 646 5540
 648 647 5541
 649 648 5542
 650 649 5543
 651 650 5544
 652 651 5545
 653 652 5546
 654 653 5547
 655 654 5548
 656 655 5549
 657 656 5550
 658 657 5551
 659 658 5552
 660 659 5553
 661 660 5554
 662 661 5555
 663 662 5556
 664 663 5557
 665 664 5558
 666 665 5559
 667 666 5560
 668 667 5561
 669 668 5562
 670 669 5563
 671 670 5564
 672 671 5565
 673 672 5566
 674 673 5567
 675 674 5568
 676 675 5569
 677 676 5570
 678 677 5571
 679 678 5572
 680 679 5573
 681 680 5574
 682 681 5575
 683 682 5576
 684 683 5577
 685 684 5578
 686 685 5579
 687 686 5580
 688 687 5581
 689 688 5582
 690 689 5583
 691 690 5584
 692 691 5585
 693 692 5586
 694 693 5587
 695 694 5588
 696 695 5589
 697 696 5590
 698 697 5591
 699 698 5592
 701 700 5593
 702 701 5594
 703 702 5595
 704 703 5596
 705 704 5597
 706 705 5598
 707 706 5599
 708 707 5600
 709 708 5601
 710 709 5602
 711 710 5603
 712 711 5604
 713 712 5605
 714 713 5606
 715 714 5607
 716 715 5608
 717 716 5609
 718 717 5610
 719 718 5611
 720 719 5612
 721 720 5613
 722 721 5614
 723 722 5615
 724 723 5616
 725 724 5617
 726 725 5618
 727 726 5619
 728 727 5620
 729 728 5621
 730 729 5622
 731 730 5623
 732 731 5624
 733 732 5625
 734 733 5626
 735 734 5627
 736 735 5628
 737 736 5629
 738 737 5630
 739 738 5631
 740 739 5632
 741 740 5633
 742 741 5634
 743 742 5635
 744 743 5636
 745 744 5637
 746 745 5638
 747 746 5639
 748 747 5640
 749 748 5641
 750 749 5642
 751 750 5643
 752 751 5644
 753 752 5645
 754 753 5646
 755 754 5647
 756 755 5648
 757 756 5649
 758 757 5650
 759 758 5651
 760 759 5652
 761 760 5653
 762 761 5654
 763 762 5655
 764 763 5656
 765 764 5657
 766 765 5658
 767 766 5659
 768 767 5660
 769 768 5661
 770 769 5662
 771 770 5663
 772 771 5664
 773 772 5665
 774 773 5666
 775 774 5667
 776 775 5668
 777 776 5669
 778 777 5670
 779 778 5671
 780 779 5672
 781 780 5673
 782 781 5674
 783 782 5675
 784 783 5676
 785 784 5677
 786 785 5678
 787 786 5679
 788 787 5680
 789 788 5681
 790 789 5682
 791 790 5683
 792 791 5684
 793 792 5685
 794 793 5686
 795 794 5687
 796 795 5688
 797 796 5689
 798 797 5690
 799 798 5691
 801 800 5692
 802 801 5693
 803 802 5694
 804 803 5695
 805 804 5696
 806 805 5697
 807 806 5698
 808 807 5699
 809 808 5700
 810 809 5701
 811 810 5702
 812 811 5703
 813 812 5704
 814 813 5705
 815 814 5706
 816 815 5707
 817 816 5708
 818 817 5709
 819 818 5710
 820 819 5711
 821 820 5712
 822 821 5713
 823 822 5714
 824 823 5715
 825 824 5716
 826 825 5717
 827 826 5718
 828 827 5719
 829 828 5720
 830 829 5721
 831 830 5722
 832 831 5723
 833 832 5724
 834 833 5725
 835 834 5726
 836 835 5727
 837 836 5728
 838 837 5729
 839 838 5730
 840 839 5731
 841 840 5732
 842 841 5733
 843 842 5734
 844 843 5735
 845 844 5736
 846 845 5737
 847 846 5738
 848 847 5739
 849 848 5740
 850 849 5741
 851 850 5742
 852 851 5743
 853 852 5744
 854 853 5745
 855 854 5746
 856 855 5747
 857 856 5748
 858 857 5749
 859 858 5750
 860 859 5751
 861 860 5752
 862 861 5753
 863 862 5754
 864 863 5755
 865 864 5756
 866 865 5757
 867 866 5758
 868 867 5759
 869 868 5760
 870 869 5761
 871 870 5762
 872 871 5763
 873 872 5764
 874 873 5765
 875 874 5766
 876 875 5767
 877 876 5768
 878 877 5769
 879 878 5770
 880 879 5771
 881 880 5772
 882 881 5773
 883 882 5774
 884 883 5775
 885 884 5776
 886 885 5777
 887 886 5778
 888 887 5779
 889 888 5780
 890 889 5781
 891 890 5782
 892 891 5783
 893 892 5784
 894 893 5785
 895 894 5786
 896 895 5787
 897 896 5788
 898 897 5789
 899 898 5790
 901 900 5791
 902 901 5792
 903 902 5793
 904 903 5794
 905 904 5795
 906 905 5796
 907 906 5797
 908 907 5798
 909 908 5799
 910 909 5800
 911 910 5801
 912 911 5802
 913 912 5803
 914 913 5804
 915 914 5805
 916 915 5806
 917 916 5807
 918 917 5808
 919 918 5809
 920 919 5810
 921 920 5811
 922 921 5812
 923 922 5813
 924 923 5814
 925 924 5815
 926 925 5816
 927 926 5817
 928 927 5818
 929 928 5819
 930 929 5820
 931 930 5821
 932 931 5822
 933 932 5823
 934 933 5824
 935 934 5825
 936 935 5826
 937 936 5827
 938 937 5828
 939 938 5829
 940 939 5830
 941 940 5831
 942 941 5832
 943 942 5833
 944 943 5834
 945 944 5835
 946 945 5836
 947 946 5837
 948 947 5838
 949 948 5839
 950 949 5840
 951 950 5841
 952 951 5842
 953 952 5843
 954 953 5844
 955 954 5845
 956 955 5846
 957 956 5847
 958 957 5848
 959 958 5849
 960 959 5850
 961 960 5851
 962 961 5852
 963 962 5853
 964 963 5854
 965 964 5855
 966 965 5856
 967 966 5857
 968 967 5858
 969 968 5859
 970 969 5860
 971 970 5861
 972 971 5862
 973 972 5863
 974 973 5864
 975 974 5865
 976 975 5866
 977 976 5867
 978 977 5868
 979 978 5869
 980 979 5870
 981 980 5871
 982 981 5872
 983 982 5873
 984 983 5874
 985 984 5875
 986 985 5876
 987 986 5877
 988 987 5878
 989 988 5879
 990 989 5880
 991 990 5881
 992 991 5882
 993 992 5883
 994 993 5884
 995 994 5885
 996 995 5886
 997 996 5887
 998 997 5888
 999 998 5889
 1001 1000 5890
 1002 1001 5891
 1003 1002 5892
 1004 1003 5893
 1005 1004 5894
 1006 1005 5895
 1007 1006 5896
 1008 1007 5897
 1009 1008 5898
 1010 1009 5899
 1011 1010 5900
 1012 1011 5901
 1013 1012 5902
 1014 1013 5903
 1015 1014 5904
 1016 1015 5905
 1017 1016 5906
 1018 1017 5907
 1019 1018 5908
 1020 1019 5909
 1021 1020 5910
 1022 1021 5911
 1023 1022 5912
 1024 1023 5913
 1025 1024 5914
 1026 1025 5915
 1027 1026 5916
 1028 1027 5917
 1029 1028 5918
 1030 1029 5919
 1031 1030 5920
 1032 1031 5921
 1033 1032 5922
 1034 1033 5923
 1035 1034 5924
 1036 1035 5925
 1037 1036 5926
 1038 1037 5927
 1039 1038 5928
 1040 1039 5929
 1041 1040 5930
 1042 1041 5931
 1043 1042 5932
 1044 1043 5933
 1045 1044 5934
 1046 1045 5935
 1047 1046 5936
 1048 1047 5937
 1049 1048 5938
 1050 1049 5939
 1051 1050 5940
 1052 1051 5941
 1053 1052 5942
 1054 1053 5943
 1055 1054 5944
 1056 1055 5945
 1057 1056 5946
 1058 1057 5947
 1059 1058 5948
 1060 1059 5949
 1061 1060 5950
 1062 1061 5951
 1063 1062 5952
 1064 1063 5953
 1065 1064 5954
 1066 1065 5955
 1067 1066 5956
 1068 1067 5957
 1069 1068 5958
 1070 1069 5959
 1071 1070 5960
 1072 1071 5961
 1073 1072 5962
 1074 1073 5963
 1075 1074 5964
 1076 1075 5965
 1077 1076 5966
 1078 1077 5967
 1079 1078 5968
 1080 1079 5969
 1081 1080 5970
 1082 1081 5971
 1083 1082 5972
 1084 1083 5973
 1085 1084 5974
 1086 1085 5975
 1087 1086 5976
 1088 1087 5977
 1089 1088 5978
 1090 1089 5979
 1091 1090 5980
 1092 1091 5981
 1093 1092 5982
 1094 1093 5983
 1095 1094 5984
 1096 1095 5985
 1097 1096 5986
 1098 1097 5987
 1099 1098 5988
 1101 1100 5989
 1102 1101 5990
 1103 1102 5991
 1104 1103 5992
 1105 1104 5993
 1106 1105 5994
 1107 1106 5995
 1108 1107 5996
 1109 1108 5997
 1110 1109 5998
 1111 1110 5999
 1112 1111 6000
 1113 1112 6001
 1114 1113 6002
 1115 1114 6003
 1116 1115 6004
 1117 1116 6005
 1118 1117 6006
 1119 1118 6007
 1120 1119 6008
 1121 1120 6009
 1122 1121 6010
 1123 1122 6011
 1124 1123 6012
 1125 1124 6013
 1126 1125 6014
 1127 1126 6015
 1128 1127 6016
 1129 1128 6017
 1130 1129 6018
 1131 1130 6019
 1132 1131 6020
 1133 1132 6021
 1134 1133 6022
 1135 1134 6023
 1136 1135 6024
 1137 1136 6025
 1138 1137 6026
 1139 1138 6027
 1140 1139 6028
 1141 1140 6029
 1142 1141 6030
 1143 1142 6031
 1144 1143 6032
 1145 1144 6033
 1146 1145 6034
 1147 1146 6035
 1148 1147 6036
 1149 1148 6037
 1150 1149 6038
 1151 1150 6039
 1152 1151 6040
 1153 1152 6041
 1154 1153 6042
 1155 1154 6043
 1156 1155 6044
 1157 1156 6045
 1158 1157 6046
 1159 1158 6047
 1160 1159 6048
 1161 1160 6049
 1162 1161 6050
 1163 1162 6051
 1164 1163 6052
 1165 1164 6053
 1166 1165 6054
 1167 1166 6055
 1168 1167 6056
 1169 1168 6057
 1170 1169 6058
 1171 1170 6059
 1172 1171 6060
 1173 1172 6061
 1174 1173 6062
 1175 1174 6063
 1176 1175 6064
 1177 1176 6065
 1178 1177 6066
 1179 1178 6067
 1180 1179 6068
 1181 1180 6069
 1182 1181 6070
 1183 1182 6071
 1184 1183 6072
 1185 1184 6073
 1186 1185 6074
 1187 1186 6075
 1188 1187 6076
 1189 1188 6077
 1190 1189 6078
 1191 1190 6079
 1192 1191 6080
 1193 1192 6081
 1194 1193 6082
 1195 1194 6083
 1196 1195 6084
 1197 1196 6085
 1198 1197 6086
 1199 1198 6087
 1201 1200 6088
 1202 1201 6089
 1203 1202 6090
 1204 1203 6091
 1205 1204 6092
 1206 1205 6093
 1207 1206 6094
 1208 1207 6095
 1209 1208 6096
 1210 1209 6097
 1211 1210 6098
 1212 1211 6099
 1213 1212 6100
 1214 1213 6101
 1215 1214 6102
 1216 1215 6103
 1217 1216 6104
 1218 1217 6105
 1219 1218 6106
 1220 1219 6107
 1221 1220 6108
 1222 1221 6109
 1223 1222 6110
 1224 1223 6111
 1225 1224 6112
 1226 1225 6113
 1227 1226 6114
 1228 1227 6115
 1229 1228 6116
 1230 1229 6117
 1231 1230 6118
 1232 1231 6119
 1233 1232 6120
 1234 1233 6121
 1235 1234 6122
 1236 1235 6123
 1237 1236 6124
 1238 1237 6125
 1239 1238 6126
 1240 1239 6127
 1241 1240 6128
 1242 1241 6129
 1243 1242 6130
 1244 1243 6131
 1245 1244 6132
 1246 1245 6133
 1247 1246 6134
 1248 1247 6135
 1249 1248 6136
 1250 1249 6137
 1251 1250 6138
 1252 1251 6139
 1253 1252 6140
 1254 1253 6141
 1255 1254 6142
 1256 1255 6143
 1257 1256 6144
 1258 1257 6145
 1259 1258 6146
 1260 1259 6147
 1261 1260 6148
 1262 1261 6149
 1263 1262 6150
 1264 1263 6151
 1265 1264 6152
 1266 1265 6153
 1267 1266 6154
 1268 1267 6155
 1269 1268 6156
 1270 1269 6157
 1271 1270 6158
 1272 1271 6159
 1273 1272 6160
 1274 1273 6161
 1275 1274 6162
 1276 1275 6163
 1277 1276 6164
 1278 1277 6165
 1279 1278 6166
 1280 1279 6167
 1281 1280 6168
 1282 1281 6169
 1283 1282 6170
 1284 1283 6171
 1285 1284 6172
 1286 1285 6173
 1287 1286 6174
 1288 1287 6175
 1289 1288 6176
 1290 1289 6177
 1291 1290 6178
 1292 1291 6179
 1293 1292 6180
 1294 1293 6181
 1295 1294 6182
 1296 1295 6183
 1297 1296 6184
 1298 1297 6185
 1299 1298 6186
 1301 1300 6187
 1302 1301 6188
 1303 1302 6189
 1304 1303 6190
 1305 1304 6191
 1306 1305 6192
 1307 1306 6193
 1308 1307 6194
 1309 1308 6195
 1310 1309 6196
 1311 1310 6197
 1312 1311 6198
 1313 1312 6199
 1314 1313 6200
 1315 1314 6201
 1316 1315 6202
 1317 1316 6203
 1318 1317 6204
 1319 1318 6205
 1320 1319 6206
 1321 1320 6207
 1322 1321 6208
 1323 1322 6209
 1324 1323 6210
 1325 1324 6211
 1326 1325 6212
 1327 1326 6213
 1328 1327 6214
 1329 1328 6215
 1330 1329 6216
 1331 1330 6217
 1332 1331 6218
 1333 1332 6219
 1334 1333 6220
 1335 1334 6221
 1336 1335 6222
 1337 1336 6223
 1338 1337 6224
 1339 1338 6225
 1340 1339 6226
 1341 1340 6227
 1342 1341 6228
 1343 1342 6229
 1344 1343 6230
 1345 1344 6231
 1346 1345 6232
 1347 1346 6233
 1348 1347 6234
 1349 1348 6235
 1350 1349 6236
 1351 1350 6237
 1352 1351 6238
 1353 1352 6239
 1354 1353 6240
 1355 1354 6241
 1356 1355 6242
 1357 1356 6243
 1358 1357 6244
 1359 1358 6245
 1360 1359 6246
 1361 1360 6247
 1362 1361 6248
 1363 1362 6249
 1364 1363 6250
 1365 1364 6251
 1366 1365 6252
 1367 1366 6253
 1368 1367 6254
 1369 1368 6255
 1370 1369 6256
 1371 1370 6257
 1372 1371 6258
 1373 1372 6259
 1374 1373 6260
 1375 1374 6261
 1376 1375 6262
 1377 1376 6263
 1378 1377 6264
 1379 1378 6265
 1380 1379 6266
 1381 1380 6267
 1382 1381 6268
 1383 1382 6269
 1384 1383 6270
 1385 1384 6271
 1386 1385 6272
 1387 1386 6273
 1388 1387 6274
 1389 1388 6275
 1390 1389 6276
 1391 1390 6277
 1392 1391 6278
 1393 1392 6279
 1394 1393 6280
 1395 1394 6281
 1396 1395 6282
 1397 1396 6283
 1398 1397 6284
 1399 1398 6285
 1401 1400 6286
 1402 1401 6287
 1403 1402 6288
 1404 1403 6289
 1405 1404 6290
 1406 1405 6291
 1407 1406 6292
 1408 1407 6293
 1409 1408 6294
 1410 1409 6295
 1411 1410 6296
 1412 1411 6297
 1413 1412 6298
 1414 1413 6299
 1415 1414 6300
 1416 1415 6301
 1417 1416 6302
 1418 1417 6303
 1419 1418 6304
 1420 1419 6305
 1421 1420 6306
 1422 1421 6307
 1423 1422 6308
 1424 1423 6309
 1425 1424 6310
 1426 1425 6311
 1427 1426 6312
 1428 1427 6313
 1429 1428 6314
 1430 1429 6315
 1431 1430 6316
 1432 1431 6317
 1433 1432 6318
 1434 1433 6319
 1435 1434 6320
 1436 1435 6321
 1437 1436 6322
 1438 1437 6323
 1439 1438 6324
 1440 1439 6325
 1441 1440 6326
 1442 1441 6327
 1443 1442 6328
 1444 1443 6329
 1445 1444 6330
 1446 1445 6331
 1447 1446 6332
 1448 1447 6333
 1449 1448 6334
 1450 1449 6335
 1451 1450 6336
 1452 1451 6337
 1453 1452 6338
 1454 1453 6339
 1455 1454 6340
 1456 1455 6341
 1457 1456 6342
 1458 1457 6343
 1459 1458 6344
 1460 1459 6345
 1461 1460 6346
 1462 1461 6347
 1463 1462 6348
 1464 1463 6349
 1465 1464 6350
 1466 1465 6351
 1467 1466 6352
 1468 1467 6353
 1469 1468 6354
 1470 1469 6355
 1471 1470 6356
 1472 1471 6357
 1473 1472 6358
 1474 1473 6359
 1475 1474 6360
 1476 1475 6361
 1477 1476 6362
 1478 1477 6363
 1479 1478 6364
 1480 1479 6365
 1481 1480 6366
 1482 1481 6367
 1483 1482 6368
 1484 1483 6369
 1485 1484 6370
 1486 1485 6371
 1487 1486 6372
 1488 1487 6373
 1489 1488 6374
 1490 1489 6375
 1491 1490 6376
 1492 1491 6377
 1493 1492 6378
 1494 1493 6379
 1495 1494 6380
 1496 1495 6381
 1497 1496 6382
 1498 1497 6383
 1499 1498 6384
 1501 1500 6385
 1502 1501 6386
 1503 1502 6387
 1504 1503 6388
 1505 1504 6389
 1506 1505 6390
 1507 1506 6391
 1508 1507 6392
 1509 1508 6393
 1510 1509 6394
 1511 1510 6395
 1512 1511 6396
 1513 1512 6397
 1514 1513 6398
 1515 1514 6399
 1516 1515 6400
 1517 1516 6401
 1518 1517 6402
 1519 1518 6403
 1520 1519 6404
 1521 1520 6405
 1522 1521 6406
 1523 1522 6407
 1524 1523 6408
 1525 1524 6409
 1526 1525 6410
 1527 1526 6411
 1528 1527 6412
 1529 1528 6413
 1530 1529 6414
 1531 1530 6415
 1532 1531 6416
 1533 1532 6417
 1534 1533 6418
 1535 1534 6419
 1536 1535 6420
 1537 1536 6421
 1538 1537 6422
 1539 1538 6423
 1540 1539 6424
 1541 1540 6425
 1542 1541 6426
 1543 1542 6427
 1544 1543 6428
 1545 1544 6429
 1546 1545 6430
 1547 1546 6431
 1548 1547 6432
 1549 1548 6433
 1550 1549 6434
 1551 1550 6435
 1552 1551 6436
 1553 1552 6437
 1554 1553 6438
 1555 1554 6439
 1556 1555 6440
 1557 1556 6441
 1558 1557 6442
 1559 1558 6443
 1560 1559 6444
 1561 1560 6445
 1562 1561 6446
 1563 1562 6447
 1564 1563 6448
 1565 1564 6449
 1566 1565 6450
 1567 1566 6451
 1568 1567 6452
 1569 1568 6453
 1570 1569 6454
 1571 1570 6455
 1572 1571 6456
 1573 1572 6457
 1574 1573 6458
 1575 1574 6459
 1576 1575 6460
 1577 1576 6461
 1578 1577 6462
 1579 1578 6463
 1580 1579 6464
 1581 1580 6465
 1582 1581 6466
 1583 1582 6467
 1584 1583 6468
 1585 1584 6469
 1586 1585 6470
 1587 1586 6471
 1588 1587 6472
 1589 1588 6473
 1590 1589 6474
 1591 1590 6475
 1592 1591 6476
 1593 1592 6477
 1594 1593 6478
 1595 1594 6479
 1596 1595 6480
 1597 1596 6481
 1598 1597 6482
 1599 1598 6483
 1601 1600 6484
 1602 1601 6485
 1603 1602 6486
 1604 1603 6487
 1605 1604 6488
 1606 1605 6489
 1607 1606 6490
 1608 1607 6491
 1609 1608 6492
 1610 1609 6493
 1611 1610 6494
 1612 1611 6495
 1613 1612 6496
 1614 1613 6497
 1615 1614 6498
 1616 1615 6499
 1617 1616 6500
 1618 1617 6501
 1619 1618 6502
 1620 1619 6503
 1621 1620 6504
 1622 1621 6505
 1623 1622 6506
 1624 1623 6507
 1625 1624 6508
 1626 1625 6509
 1627 1626 6510
 1628 1627 6511
 1629 1628 6512
 1630 1629 6513
 1631 1630 6514
 1632 1631 6515
 1633 1632 6516
 1634 1633 6517
 1635 1634 6518
 1636 1635 6519
 1637 1636 6520
 1638 1637 6521
 1639 1638 6522
 1640 1639 6523
 1641 1640 6524
 1642 1641 6525
 1643 1642 6526
 1644 1643 6527
 1645 1644 6528
 1646 1645 6529
 1647 1646 6530
 1648 1647 6531
 1649 1648 6532
 1650 1649 6533
 1651 1650 6534
 1652 1651 6535
 1653 1652 6536
 1654 1653 6537
 1655 1654 6538
 1656 1655 6539
 1657 1656 6540
 1658 1657 6541
 1659 1658 6542
 1660 1659 6543
 1661 1660 6544
 1662 1661 6545
 1663 1662 6546
 1664 1663 6547
 1665 1664 6548
 1666 1665 6549
 1667 1666 6550
 1668 1667 6551
 1669 1668 6552
 1670 1669 6553
 1671 1670 6554
 1672 1671 6555
 1673 1672 6556
 1674 1673 6557
 1675 1674 6558
 1676 1675 6559
 1677 1676 6560
 1678 1677 6561
 1679 1678 6562
 1680 1679 6563
 1681 1680 6564
 1682 1681 6565
 1683 1682 6566
 1684 1683 6567
 1685 1684 6568
 1686 1685 6569
 1687 1686 6570
 1688 1687 6571
 1689 1688 6572
 1690 1689 6573
 1691 1690 6574
 1692 1691 6575
 1693 1692 6576
 1694 1693 6577
 1695 1694 6578
 1696 1695 6579
 1697 1696 6580
 1698 1697 6581
 1699 1698 6582
 1701 1700 6583
 1702 1701 6584
 1703 1702 6585
 1704 1703 6586
 1705 1704 6587
 1706 1705 6588
 1707 1706 6589
 1708 1707 6590
 1709 1708 6591
 1710 1709 6592
 1711 1710 6593
 1712 1711 6594
 1713 1712 6595
 1714 1713 6596
 1715 1714 6597
 1716 1715 6598
 1717 1716 6599
 1718 1717 6600
 1719 1718 6601
 1720 1719 6602
 1721 1720 6603
 1722 1721 6604
 1723 1722 6605
 1724 1723 6606
 1725 1724 6607
 1726 1725 6608
 1727 1726 6609
 1728 1727 6610
 1729 1728 6611
 1730 1729 6612
 1731 1730 6613
 1732 1731 6614
 1733 1732 6615
 1734 1733 6616
 1735 1734 6617
 1736 1735 6618
 1737 1736 6619
 1738 1737 6620
 1739 1738 6621
 1740 1739 6622
 1741 1740 6623
 1742 1741 6624
 1743 1742 6625
 1744 1743 6626
 1745 1744 6627
 1746 1745 6628
 1747 1746 6629
 1748 1747 6630
 1749 1748 6631
 1750 1749 6632
 1751 1750 6633
 1752 1751 6634
 1753 1752 6635
 1754 1753 6636
 1755 1754 6637
 1756 1755 6638
 1757 1756 6639
 1758 1757 6640
 1759 1758 6641
 1760 1759 6642
 1761 1760 6643
 1762 1761 6644
 1763 1762 6645
 1764 1763 6646
 1765 1764 6647
 1766 1765 6648
 1767 1766 6649
 1768 1767 6650
 1769 1768 6651
 1770 1769 6652
 1771 1770 6653
 1772 1771 6654
 1773 1772 6655
 1774 1773 6656
 1775 1774 6657
 1776 1775 6658
 1777 1776 6659
 1778 1777 6660
 1779 1778 6661
 1780 1779 6662
 1781 1780 6663
 1782 1781 6664
 1783 1782 6665
 1784 1783 6666
 1785 1784 6667
 1786 1785 6668
 1787 1786 6669
 1788 1787 6670
 1789 1788 6671
 1790 1789 6672
 1791 1790 6673
 1792 1791 6674
 1793 1792 6675
 1794 1793 6676
 1795 1794 6677
 1796 1795 6678
 1797 1796 6679
 1798 1797 6680
 1799 1798 6681
 1801 1800 6682
 1802 1801 6683
 1803 1802 6684
 1804 1803 6685
 1805 1804 6686
 1806 1805 6687
 1807 1806 6688
 1808 1807 6689
 1809 1808 6690
 1810 1809 6691
 1811 1810 6692
 1812 1811 6693
 1813 1812 6694
 1814 1813 6695
 1815 1814 6696
 1816 1815 6697
 1817 1816 6698
 1818 1817 6699
 1819 1818 6700
 1820 1819 6701
 1821 1820 6702
 1822 1821 6703
 1823 1822 6704
 1824 1823 6705
 1825 1824 6706
 1826 1825 6707
 1827 1826 6708
 1828 1827 6709
 1829 1828 6710
 1830 1829 6711
 1831 1830 6712
 1832 1831 6713
 1833 1832 6714
 1834 1833 6715
 1835 1834 6716
 1836 1835 6717
 1837 1836 6718
 1838 1837 6719
 1839 1838 6720
 1840 1839 6721
 1841 1840 6722
 1842 1841 6723
 1843 1842 6724
 1844 1843 6725
 1845 1844 6726
 1846 1845 6727
 1847 1846 6728
 1848 1847 6729
 1849 1848 6730
 1850 1849 6731
 1851 1850 6732
 1852 1851 6733
 1853 1852 6734
 1854 1853 6735
 1855 1854 6736
 1856 1855 6737
 1857 1856 6738
 1858 1857 6739
 1859 1858 6740
 1860 1859 6741
 1861 1860 6742
 1862 1861 6743
 1863 1862 6744
 1864 1863 6745
 1865 1864 6746
 1866 1865 6747
 1867 1866 6748
 1868 1867 6749
 1869 1868 6750
 1870 1869 6751
 1871 1870 6752
 1872 1871 6753
 1873 1872 6754
 1874 1873 6755
 1875 1874 6756
 1876 1875 6757
 1877 1876 6758
 1878 1877 6759
 1879 1878 6760
 1880 1879 6761
 1881 1880 6762
 1882 1881 6763
 1883 1882 6764
 1884 1883 6765
 1885 1884 6766
 1886 1885 6767
 1887 1886 6768
 1888 1887 6769
 1889 1888 6770
 1890 1889 6771
 1891 1890 6772
 1892 1891 6773
 1893 1892 6774
 1894 1893 6775
 1895 1894 6776
 1896 1895 6777
 1897 1896 6778
 1898 1897 6779
 1899 1898 6780
 1901 1900 6781
 1902 1901 6782
 1903 1902 6783
 1904 1903 6784
 1905 1904 6785
 1906 1905 6786
 1907 1906 6787
 1908 1907 6788
 1909 1908 6789
 1910 1909 6790
 1911 1910 6791
 1912 1911 6792
 1913 1912 6793
 1914 1913 6794
 1915 1914 6795
 1916 1915 6796
 1917 1916 6797
 1918 1917 6798
 1919 1918 6799
 1920 1919 6800
 1921 1920 6801
 1922 1921 6802
 1923 1922 6803
 1924 1923 6804
 1925 1924 6805
 1926 1925 6806
 1927 1926 6807
 1928 1927 6808
 1929 1928 6809
 1930 1929 6810
 1931 1930 6811
 1932 1931 6812
 1933 1932 6813
 1934 1933 6814
 1935 1934 6815
 1936 1935 6816
 1937 1936 6817
 1938 1937 6818
 1939 1938 6819
 1940 1939 6820
 1941 1940 6821
 1942 1941 6822
 1943 1942 6823
 1944 1943 6824
 1945 1944 6825
 1946 1945 6826
 1947 1946 6827
 1948 1947 6828
 1949 1948 6829
 1950 1949 6830
 1951 1950 6831
 1952 1951 6832
 1953 1952 6833
 1954 1953 6834
 1955 1954 6835
 1956 1955 6836
 1957 1956 6837
 1958 1957 6838
 1959 1958 6839
 1960 1959 6840
 1961 1960 6841
 1962 1961 6842
 1963 1962 6843
 1964 1963 6844
 1965 1964 6845
 1966 1965 6846
 1967 1966 6847
 1968 1967 6848
 1969 1968 6849
 1970 1969 6850
 1971 1970 6851
 1972 1971 6852
 1973 1972 6853
 1974 1973 6854
 1975 1974 6855
 1976 1975 6856
 1977 1976 6857
 1978 1977 6858
 1979 1978 6859
 1980 1979 6860
 1981 1980 6861
 1982 1981 6862
 1983 1982 6863
 1984 1983 6864
 1985 1984 6865
 1986 1985 6866
 1987 1986 6867
 1988 1987 6868
 1989 1988 6869
 1990 1989 6870
 1991 1990 6871
 1992 1991 6872
 1993 1992 6873
 1994 1993 6874
 1995 1994 6875
 1996 1995 6876
 1997 1996 6877
 1998 1997 6878
 1999 1998 6879
 2001 2000 6880
 2002 2001 6881
 2003 2002 6882
 2004 2003 6883
 2005 2004 6884
 2006 2005 6885
 2007 2006 6886
 2008 2007 6887
 2009 2008 6888
 2010 2009 6889
 2011 2010 6890
 2012 2011 6891
 2013 2012 6892
 2014 2013 6893
 2015 2014 6894
 2016 2015 6895
 2017 2016 6896
 2018 2017 6897
 2019 2018 6898
 2020 2019 6899
 2021 2020 6900
 2022 2021 6901
 2023 2022 6902
 2024 2023 6903
 2025 2024 6904
 2026 2025 6905
 2027 2026 6906
 2028 2027 6907
 2029 2028 6908
 2030 2029 6909
 2031 2030 6910
 2032 2031 6911
 2033 2032 6912
 2034 2033 6913
 2035 2034 6914
 2036 2035 6915
 2037 2036 6916
 2038 2037 6917
 2039 2038 6918
 2040 2039 6919
 2041 2040 6920
 2042 2041 6921
 2043 2042 6922
 2044 2043 6923
 2045 2044 6924
 2046 2045 6925
 2047 2046 6926
 2048 2047 6927
 2049 2048 6928
 2050 2049 6929
 2051 2050 6930
 2052 2051 6931
 2053 2052 6932
 2054 2053 6933
 2055 2054 6934
 2056 2055 6935
 2057 2056 6936
 2058 2057 6937
 2059 2058 6938
 2060 2059 6939
 2061 2060 6940
 2062 2061 6941
 2063 2062 6942
 2064 2063 6943
 2065 2064 6944
 2066 2065 6945
 2067 2066 6946
 2068 2067 6947
 2069 2068 6948
 2070 2069 6949
 2071 2070 6950
 2072 2071 6951
 2073 2072 6952
 2074 2073 6953
 2075 2074 6954
 2076 2075 6955
 2077 2076 6956
 2078 2077 6957
 2079 2078 6958
 2080 2079 6959
 2081 2080 6960
 2082 2081 6961
 2083 2082 6962
 2084 2083 6963
 2085 2084 6964
 2086 2085 6965
 2087 2086 6966
 2088 2087 6967
 2089 2088 6968
 2090 2089 6969
 2091 2090 6970
 2092 2091 6971
 2093 2092 6972
 2094 2093 6973
 2095 2094 6974
 2096 2095 6975
 2097 2096 6976
 2098 2097 6977
 2099 2098 6978
 2101 2100 6979
 2102 2101 6980
 2103 2102 6981
 2104 2103 6982
 2105 2104 6983
 2106 2105 6984
 2107 2106 6985
 2108 2107 6986
 2109 2108 6987
 2110 2109 6988
 2111 2110 6989
 2112 2111 6990
 2113 2112 6991
 2114 2113 6992
 2115 2114 6993
 2116 2115 6994
 2117 2116 6995
 2118 2117 6996
 2119 2118 6997
 2120 2119 6998
 2121 2120 6999
 2122 2121 7000
 2123 2122 7001
 2124 2123 7002
 2125 2124 7003
 2126 2125 7004
 2127 2126 7005
 2128 2127 7006
 2129 2128 7007
 2130 2129 7008
 2131 2130 7009
 2132 2131 7010
 2133 2132 7011
 2134 2133 7012
 2135 2134 7013
 2136 2135 7014
 2137 2136 7015
 2138 2137 7016
 2139 2138 7017
 2140 2139 7018
 2141 2140 7019
 2142 2141 7020
 2143 2142 7021
 2144 2143 7022
 2145 2144 7023
 2146 2145 7024
 2147 2146 7025
 2148 2147 7026
 2149 2148 7027
 2150 2149 7028
 2151 2150 7029
 2152 2151 7030
 2153 2152 7031
 2154 2153 7032
 2155 2154 7033
 2156 2155 7034
 2157 2156 7035
 2158 2157 7036
 2159 2158 7037
 2160 2159 7038
 2161 2160 7039
 2162 2161 7040
 2163 2162 7041
 2164 2163 7042
 2165 2164 7043
 2166 2165 7044
 2167 2166 7045
 2168 2167 7046
 2169 2168 7047
 2170 2169 7048
 2171 2170 7049
 2172 2171 7050
 2173 2172 7051
 2174 2173 7052
 2175 2174 7053
 2176 2175 7054
 2177 2176 7055
 2178 2177 7056
 2179 2178 7057
 2180 2179 7058
 2181 2180 7059
 2182 2181 7060
 2183 2182 7061
 2184 2183 7062
 2185 2184 7063
 2186 2185 7064
 2187 2186 7065
 2188 2187 7066
 2189 2188 7067
 2190 2189 7068
 2191 2190 7069
 2192 2191 7070
 2193 2192 7071
 2194 2193 7072
 2195 2194 7073
 2196 2195 7074
 2197 2196 7075
 2198 2197 7076
 2199 2198 7077
 2201 2200 7078
 2202 2201 7079
 2203 2202 7080
 2204 2203 7081
 2205 2204 7082
 2206 2205 7083
 2207 2206 7084
 2208 2207 7085
 2209 2208 7086
 2210 2209 7087
 2211 2210 7088
 2212 2211 7089
 2213 2212 7090
 2214 2213 7091
 2215 2214 7092
 2216 2215 7093
 2217 2216 7094
 2218 2217 7095
 2219 2218 7096
 2220 2219 7097
 2221 2220 7098
 2222 2221 7099
 2223 2222 7100
 2224 2223 7101
 2225 2224 7102
 2226 2225 7103
 2227 2226 7104
 2228 2227 7105
 2229 2228 7106
 2230 2229 7107
 2231 2230 7108
 2232 2231 7109
 2233 2232 7110
 2234 2233 7111
 2235 2234 7112
 2236 2235 7113
 2237 2236 7114
 2238 2237 7115
 2239 2238 7116
 2240 2239 7117
 2241 2240 7118
 2242 2241 7119
 2243 2242 7120
 2244 2243 7121
 2245 2244 7122
 2246 2245 7123
 2247 2246 7124
 2248 2247 7125
 2249 2248 7126
 2250 2249 7127
 2251 2250 7128
 2252 2251 7129
 2253 2252 7130
 2254 2253 7131
 2255 2254 7132
 2256 2255 7133
 2257 2256 7134
 2258 2257 7135
 2259 2258 7136
 2260 2259 7137
 2261 2260 7138
 2262 2261 7139
 2263 2262 7140
 2264 2263 7141
 2265 2264 7142
 2266 2265 7143
 2267 2266 7144
 2268 2267 7145
 2269 2268 7146
 2270 2269 7147
 2271 2270 7148
 2272 2271 7149
 2273 2272 7150
 2274 2273 7151
 2275 2274 7152
 2276 2275 7153
 2277 2276 7154
 2278 2277 7155
 2279 2278 7156
 2280 2279 7157
 2281 2280 7158
 2282 2281 7159
 2283 2282 7160
 2284 2283 7161
 2285 2284 7162
 2286 2285 7163
 2287 2286 7164
 2288 2287 7165
 2289 2288 7166
 2290 2289 7167
 2291 2290 7168
 2292 2291 7169
 2293 2292 7170
 2294 2293 7171
 2295 2294 7172
 2296 2295 7173
 2297 2296 7174
 2298 2297 7175
 2299 2298 7176
 2301 2300 7177
 2302 2301 7178
 2303 2302 7179
 2304 2303 7180
 2305 2304 7181
 2306 2305 7182
 2307 2306 7183
 2308 2307 7184
 2309 2308 7185
 2310 2309 7186
 2311 2310 7187
 2312 2311 7188
 2313 2312 7189
 2314 2313 7190
 2315 2314 7191
 2316 2315 7192
 2317 2316 7193
 2318 2317 7194
 2319 2318 7195
 2320 2319 7196
 2321 2320 7197
 2322 2321 7198
 2323 2322 7199
 2324 2323 7200
 2325 2324 7201
 2326 2325 7202
 2327 2326 7203
 2328 2327 7204
 2329 2328 7205
 2330 2329 7206
 2331 2330 7207
 2332 2331 7208
 2333 2332 7209
 2334 2333 7210
 2335 2334 7211
 2336 2335 7212
 2337 2336 7213
 2338 2337 7214
 2339 2338 7215
 2340 2339 7216
 2341 2340 7217
 2342 2341 7218
 2343 2342 7219
 2344 2343 7220
 2345 2344 7221
 2346 2345 7222
 2347 2346 7223
 2348 2347 7224
 2349 2348 7225
 2350 2349 7226
 2351 2350 7227
 2352 2351 7228
 2353 2352 7229
 2354 2353 7230
 2355 2354 7231
 2356 2355 7232
 2357 2356 7233
 2358 2357 7234
 2359 2358 7235
 2360 2359 7236
 2361 2360 7237
 2362 2361 7238
 2363 2362 7239
 2364 2363 7240
 2365 2364 7241
 2366 2365 7242
 2367 2366 7243
 2368 2367 7244
 2369 2368 7245
 2370 2369 7246
 2371 2370 7247
 2372 2371 7248
 2373 2372 7249
 2374 2373 7250
 2375 2374 7251
 2376 2375 7252
 2377 2376 7253
 2378 2377 7254
 2379 2378 7255
 2380 2379 7256
 2381 2380 7257
 2382 2381 7258
 2383 2382 7259
 2384 2383 7260
 2385 2384 7261
 2386 2385 7262
 2387 2386 7263
 2388 2387 7264
 2389 2388 7265
 2390 2389 7266
 2391 2390 7267
 2392 2391 7268
 2393 2392 7269
 2394 2393 7270
 2395 2394 7271
 2396 2395 7272
 2397 2396 7273
 2398 2397 7274
 2399 2398 7275
 2401 2400 7276
 2402 2401 7277
 2403 2402 7278
 2404 2403 7279
 2405 2404 7280
 2406 2405 7281
 2407 2406 7282
 2408 2407 7283
 2409 2408 7284
 2410 2409 7285
 2411 2410 7286
 2412 2411 7287
 2413 2412 7288
 2414 2413 7289
 2415 2414 7290
 2416 2415 7291
 2417 2416 7292
 2418 2417 7293
 2419 2418 7294
 2420 2419 7295
 2421 2420 7296
 2422 2421 7297
 2423 2422 7298
 2424 2423 7299
 2425 2424 7300
 2426 2425 7301
 2427 2426 7302
 2428 2427 7303
 2429 2428 7304
 2430 2429 7305
 2431 2430 7306
 2432 2431 7307
 2433 2432 7308
 2434 2433 7309
 2435 2434 7310
 2436 2435 7311
 2437 2436 7312
 2438 2437 7313
 2439 2438 7314
 2440 2439 7315
 2441 2440 7316
 2442 2441 7317
 2443 2442 7318
 2444 2443 7319
 2445 2444 7320
 2446 2445 7321
 2447 2446 7322
 2448 2447 7323
 2449 2448 7324
 2450 2449 7325
 2451 2450 7326
 2452 2451 7327
 2453 2452 7328
 2454 2453 7329
 2455 2454 7330
 2456 2455 7331
 2457 2456 7332
 2458 2457 7333
 2459 2458 7334
 2460 2459 7335
 2461 2460 7336
 2462 2461 7337
 2463 2462 7338
 2464 2463 7339
 2465 2464 7340
 2466 2465 7341
 2467 2466 7342
 2468 2467 7343
 2469 2468 7344
 2470 2469 7345
 2471 2470 7346
 2472 2471 7347
 2473 2472 7348
 2474 2473 7349
 2475 2474 7350
 2476 2475 7351
 2477 2476 7352
 2478 2477 7353
 2479 2478 7354
 2480 2479 7355
 2481 2480 7356
 2482 2481 7357
 2483 2482 7358
 2484 2483 7359
 2485 2484 7360
 2486 2485 7361
 2487 2486 7362
 2488 2487 7363
 2489 2488 7364
 2490 2489 7365
 2491 2490 7366
 2492 2491 7367
 2493 2492 7368
 2494 2493 7369
 2495 2494 7370
 2496 2495 7371
 2497 2496 7372
 2498 2497 7373
 2499 2498 7374
 2501 2500 7375
 2502 2501 7376
 2503 2502 7377
 2504 2503 7378
 2505 2504 7379
 2506 2505 7380
 2507 2506 7381
 2508 2507 7382
 2509 2508 7383
 2510 2509 7384
 2511 2510 7385
 2512 2511 7386
 2513 2512 7387
 2514 2513 7388
 2515 2514 7389
 2516 2515 7390
 2517 2516 7391
 2518 2517 7392
 2519 2518 7393
 2520 2519 7394
 2521 2520 7395
 2522 2521 7396
 2523 2522 7397
 2524 2523 7398
 2525 2524 7399
 2526 2525 7400
 2527 2526 7401
 2528 2527 7402
 2529 2528 7403
 2530 2529 7404
 2531 2530 7405
 2532 2531 7406
 2533 2532 7407
 2534 2533 7408
 2535 2534 7409
 2536 2535 7410
 2537 2536 7411
 2538 2537 7412
 2539 2538 7413
 2540 2539 7414
 2541 2540 7415
 2542 2541 7416
 2543 2542 7417
 2544 2543 7418
 2545 2544 7419
 2546 2545 7420
 2547 2546 7421
 2548 2547 7422
 2549 2548 7423
 2550 2549 7424
 2551 2550 7425
 2552 2551 7426
 2553 2552 7427
 2554 2553 7428
 2555 2554 7429
 2556 2555 7430
 2557 2556 7431
 2558 2557 7432
 2559 2558 7433
 2560 2559 7434
 2561 2560 7435
 2562 2561 7436
 2563 2562 7437
 2564 2563 7438
 2565 2564 7439
 2566 2565 7440
 2567 2566 7441
 2568 2567 7442
 2569 2568 7443
 2570 2569 7444
 2571 2570 7445
 2572 2571 7446
 2573 2572 7447
 2574 2573 7448
 2575 2574 7449
 2576 2575 7450
 2577 2576 7451
 2578 2577 7452
 2579 2578 7453
 2580 2579 7454
 2581 2580 7455
 2582 2581 7456
 2583 2582 7457
 2584 2583 7458
 2585 2584 7459
 2586 2585 7460
 2587 2586 7461
 2588 2587 7462
 2589 2588 7463
 2590 2589 7464
 2591 2590 7465
 2592 2591 7466
 2593 2592 7467
 2594 2593 7468
 2595 2594 7469
 2596 2595 7470
 2597 2596 7471
 2598 2597 7472
 2599 2598 7473
 2601 2600 7474
 2602 2601 7475
 2603 2602 7476
 2604 2603 7477
 2605 2604 7478
 2606 2605 7479
 2607 2606 7480
 2608 2607 7481
 2609 2608 7482
 2610 2609 7483
 2611 2610 7484
 2612 2611 7485
 2613 2612 7486
 2614 2613 7487
 2615 2614 7488
 2616 2615 7489
 2617 2616 7490
 2618 2617 7491
 2619 2618 7492
 2620 2619 7493
 2621 2620 7494
 2622 2621 7495
 2623 2622 7496
 2624 2623 7497
 2625 2624 7498
 2626 2625 7499
 2627 2626 7500
 2628 2627 7501
 2629 2628 7502
 2630 2629 7503
 2631 2630 7504
 2632 2631 7505
 2633 2632 7506
 2634 2633 7507
 2635 2634 7508
 2636 2635 7509
 2637 2636 7510
 2638 2637 7511
 2639 2638 7512
 2640 2639 7513
 2641 2640 7514
 2642 2641 7515
 2643 2642 7516
 2644 2643 7517
 2645 2644 7518
 2646 2645 7519
 2647 2646 7520
 2648 2647 7521
 2649 2648 7522
 2650 2649 7523
 2651 2650 7524
 2652 2651 7525
 2653 2652 7526
 2654 2653 7527
 2655 2654 7528
 2656 2655 7529
 2657 2656 7530
 2658 2657 7531
 2659 2658 7532
 2660 2659 7533
 2661 2660 7534
 2662 2661 7535
 2663 2662 7536
 2664 2663 7537
 2665 2664 7538
 2666 2665 7539
 2667 2666 7540
 2668 2667 7541
 2669 2668 7542
 2670 2669 7543
 2671 2670 7544
 2672 2671 7545
 2673 2672 7546
 2674 2673 7547
 2675 2674 7548
 2676 2675 7549
 2677 2676 7550
 2678 2677 7551
 2679 2678 7552
 2680 2679 7553
 2681 2680 7554
 2682 2681 7555
 2683 2682 7556
 2684 2683 7557
 2685 2684 7558
 2686 2685 7559
 2687 2686 7560
 2688 2687 7561
 2689 2688 7562
 2690 2689 7563
 2691 2690 7564
 2692 2691 7565
 2693 2692 7566
 2694 2693 7567
 2695 2694 7568
 2696 2695 7569
 2697 2696 7570
 2698 2697 7571
 2699 2698 7572
 2701 2700 7573
 2702 2701 7574
 2703 2702 7575
 2704 2703 7576
 2705 2704 7577
 2706 2705 7578
 2707 2706 7579
 2708 2707 7580
 2709 2708 7581
 2710 2709 7582
 2711 2710 7583
 2712 2711 7584
 2713 2712 7585
 2714 2713 7586
 2715 2714 7587
 2716 2715 7588
 2717 2716 7589
 2718 2717 7590
 2719 2718 7591
 2720 2719 7592
 2721 2720 7593
 2722 2721 7594
 2723 2722 7595
 2724 2723 7596
 2725 2724 7597
 2726 2725 7598
 2727 2726 7599
 2728 2727 7600
 2729 2728 7601
 2730 2729 7602
 2731 2730 7603
 2732 2731 7604
 2733 2732 7605
 2734 2733 7606
 2735 2734 7607
 2736 2735 7608
 2737 2736 7609
 2738 2737 7610
 2739 2738 7611
 2740 2739 7612
 2741 2740 7613
 2742 2741 7614
 2743 2742 7615
 2744 2743 7616
 2745 2744 7617
 2746 2745 7618
 2747 2746 7619
 2748 2747 7620
 2749 2748 7621
 2750 2749 7622
 2751 2750 7623
 2752 2751 7624
 2753 2752 7625
 2754 2753 7626
 2755 2754 7627
 2756 2755 7628
 2757 2756 7629
 2758 2757 7630
 2759 2758 7631
 2760 2759 7632
 2761 2760 7633
 2762 2761 7634
 2763 2762 7635
 2764 2763 7636
 2765 2764 7637
 2766 2765 7638
 2767 2766 7639
 2768 2767 7640
 2769 2768 7641
 2770 2769 7642
 2771 2770 7643
 2772 2771 7644
 2773 2772 7645
 2774 2773 7646
 2775 2774 7647
 2776 2775 7648
 2777 2776 7649
 2778 2777 7650
 2779 2778 7651
 2780 2779 7652
 2781 2780 7653
 2782 2781 7654
 2783 2782 7655
 2784 2783 7656
 2785 2784 7657
 2786 2785 7658
 2787 2786 7659
 2788 2787 7660
 2789 2788 7661
 2790 2789 7662
 2791 2790 7663
 2792 2791 7664
 2793 2792 7665
 2794 2793 7666
 2795 2794 7667
 2796 2795 7668
 2797 2796 7669
 2798 2797 7670
 2799 2798 7671
 2801 2800 7672
 2802 2801 7673
 2803 2802 7674
 2804 2803 7675
 2805 2804 7676
 2806 2805 7677
 2807 2806 7678
 2808 2807 7679
 2809 2808 7680
 2810 2809 7681
 2811 2810 7682
 2812 2811 7683
 2813 2812 7684
 2814 2813 7685
 2815 2814 7686
 2816 2815 7687
 2817 2816 7688
 2818 2817 7689
 2819 2818 7690
 2820 2819 7691
 2821 2820 7692
 2822 2821 7693
 2823 2822 7694
 2824 2823 7695
 2825 2824 7696
 2826 2825 7697
 2827 2826 7698
 2828 2827 7699
 2829 2828 7700
 2830 2829 7701
 2831 2830 7702
 2832 2831 7703
 2833 2832 7704
 2834 2833 7705
 2835 2834 7706
 2836 2835 7707
 2837 2836 7708
 2838 2837 7709
 2839 2838 7710
 2840 2839 7711
 2841 2840 7712
 2842 2841 7713
 2843 2842 7714
 2844 2843 7715
 2845 2844 7716
 2846 2845 7717
 2847 2846 7718
 2848 2847 7719
 2849 2848 7720
 2850 2849 7721
 2851 2850 7722
 2852 2851 7723
 2853 2852 7724
 2854 2853 7725
 2855 2854 7726
 2856 2855 7727
 2857 2856 7728
 2858 2857 7729
 2859 2858 7730
 2860 2859 7731
 2861 2860 7732
 2862 2861 7733
 2863 2862 7734
 2864 2863 7735
 2865 2864 7736
 2866 2865 7737
 2867 2866 7738
 2868 2867 7739
 2869 2868 7740
 2870 2869 7741
 2871 2870 7742
 2872 2871 7743
 2873 2872 7744
 2874 2873 7745
 2875 2874 7746
 2876 2875 7747
 2877 2876 7748
 2878 2877 7749
 2879 2878 7750
 2880 2879 7751
 2881 2880 7752
 2882 2881 7753
 2883 2882 7754
 2884 2883 7755
 2885 2884 7756
 2886 2885 7757
 2887 2886 7758
 2888 2887 7759
 2889 2888 7760
 2890 2889 7761
 2891 2890 7762
 2892 2891 7763
 2893 2892 7764
 2894 2893 7765
 2895 2894 7766
 2896 2895 7767
 2897 2896 7768
 2898 2897 7769
 2899 2898 7770
 2901 2900 7771
 2902 2901 7772
 2903 2902 7773
 2904 2903 7774
 2905 2904 7775
 2906 2905 7776
 2907 2906 7777
 2908 2907 7778
 2909 2908 7779
 2910 2909 7780
 2911 2910 7781
 2912 2911 7782
 2913 2912 7783
 2914 2913 7784
 2915 2914 7785
 2916 2915 7786
 2917 2916 7787
 2918 2917 7788
 2919 2918 7789
 2920 2919 7790
 2921 2920 7791
 2922 2921 7792
 2923 2922 7793
 2924 2923 7794
 2925 2924 7795
 2926 2925 7796
 2927 2926 7797
 2928 2927 7798
 2929 2928 7799
 2930 2929 7800
 2931 2930 7801
 2932 2931 7802
 2933 2932 7803
 2934 2933 7804
 2935 2934 7805
 2936 2935 7806
 2937 2936 7807
 2938 2937 7808
 2939 2938 7809
 2940 2939 7810
 2941 2940 7811
 2942 2941 7812
 2943 2942 7813
 2944 2943 7814
 2945 2944 7815
 2946 2945 7816
 2947 2946 7817
 2948 2947 7818
 2949 2948 7819
 2950 2949 7820
 2951 2950 7821
 2952 2951 7822
 2953 2952 7823
 2954 2953 7824
 2955 2954 7825
 2956 2955 7826
 2957 2956 7827
 2958 2957 7828
 2959 2958 7829
 2960 2959 7830
 2961 2960 7831
 2962 2961 7832
 2963 2962 7833
 2964 2963 7834
 2965 2964 7835
 2966 2965 7836
 2967 2966 7837
 2968 2967 7838
 2969 2968 7839
 2970 2969 7840
 2971 2970 7841
 2972 2971 7842
 2973 2972 7843
 2974 2973 7844
 2975 2974 7845
 2976 2975 7846
 2977 2976 7847
 2978 2977 7848
 2979 2978 7849
 2980 2979 7850
 2981 2980 7851
 2982 2981 7852
 2983 2982 7853
 2984 2983 7854
 2985 2984 7855
 2986 2985 7856
 2987 2986 7857
 2988 2987 7858
 2989 2988 7859
 2990 2989 7860
 2991 2990 7861
 2992 2991 7862
 2993 2992 7863
 2994 2993 7864
 2995 2994 7865
 2996 2995 7866
 2997 2996 7867
 2998 2997 7868
 2999 2998 7869
 3001 3000 7870
 3002 3001 7871
 3003 3002 7872
 3004 3003 7873
 3005 3004 7874
 3006 3005 7875
 3007 3006 7876
 3008 3007 7877
 3009 3008 7878
 3010 3009 7879
 3011 3010 7880
 3012 3011 7881
 3013 3012 7882
 3014 3013 7883
 3015 3014 7884
 3016 3015 7885
 3017 3016 7886
 3018 3017 7887
 3019 3018 7888
 3020 3019 7889
 3021 3020 7890
 3022 3021 7891
 3023 3022 7892
 3024 3023 7893
 3025 3024 7894
 3026 3025 7895
 3027 3026 7896
 3028 3027 7897
 3029 3028 7898
 3030 3029 7899
 3031 3030 7900
 3032 3031 7901
 3033 3032 7902
 3034 3033 7903
 3035 3034 7904
 3036 3035 7905
 3037 3036 7906
 3038 3037 7907
 3039 3038 7908
 3040 3039 7909
 3041 3040 7910
 3042 3041 7911
 3043 3042 7912
 3044 3043 7913
 3045 3044 7914
 3046 3045 7915
 3047 3046 7916
 3048 3047 7917
 3049 3048 7918
 3050 3049 7919
 3051 3050 7920
 3052 3051 7921
 3053 3052 7922
 3054 3053 7923
 3055 3054 7924
 3056 3055 7925
 3057 3056 7926
 3058 3057 7927
 3059 3058 7928
 3060 3059 7929
 3061 3060 7930
 3062 3061 7931
 3063 3062 7932
 3064 3063 7933
 3065 3064 7934
 3066 3065 7935
 3067 3066 7936
 3068 3067 7937
 3069 3068 7938
 3070 3069 7939
 3071 3070 7940
 3072 3071 7941
 3073 3072 7942
 3074 3073 7943
 3075 3074 7944
 3076 3075 7945
 3077 3076 7946
 3078 3077 7947
 3079 3078 7948
 3080 3079 7949
 3081 3080 7950
 3082 3081 7951
 3083 3082 7952
 3084 3083 7953
 3085 3084 7954
 3086 3085 7955
 3087 3086 7956
 3088 3087 7957
 3089 3088 7958
 3090 3089 7959
 3091 3090 7960
 3092 3091 7961
 3093 3092 7962
 3094 3093 7963
 3095 3094 7964
 3096 3095 7965
 3097 3096 7966
 3098 3097 7967
 3099 3098 7968
 3101 3100 7969
 3102 3101 7970
 3103 3102 7971
 3104 3103 7972
 3105 3104 7973
 3106 3105 7974
 3107 3106 7975
 3108 3107 7976
 3109 3108 7977
 3110 3109 7978
 3111 3110 7979
 3112 3111 7980
 3113 3112 7981
 3114 3113 7982
 3115 3114 7983
 3116 3115 7984
 3117 3116 7985
 3118 3117 7986
 3119 3118 7987
 3120 3119 7988
 3121 3120 7989
 3122 3121 7990
 3123 3122 7991
 3124 3123 7992
 3125 3124 7993
 3126 3125 7994
 3127 3126 7995
 3128 3127 7996
 3129 3128 7997
 3130 3129 7998
 3131 3130 7999
 3132 3131 8000
 3133 3132 8001
 3134 3133 8002
 3135 3134 8003
 3136 3135 8004
 3137 3136 8005
 3138 3137 8006
 3139 3138 8007
 3140 3139 8008
 3141 3140 8009
 3142 3141 8010
 3143 3142 8011
 3144 3143 8012
 3145 3144 8013
 3146 3145 8014
 3147 3146 8015
 3148 3147 8016
 3149 3148 8017
 3150 3149 8018
 3151 3150 8019
 3152 3151 8020
 3153 3152 8021
 3154 3153 8022
 3155 3154 8023
 3156 3155 8024
 3157 3156 8025
 3158 3157 8026
 3159 3158 8027
 3160 3159 8028
 3161 3160 8029
 3162 3161 8030
 3163 3162 8031
 3164 3163 8032
 3165 3164 8033
 3166 3165 8034
 3167 3166 8035
 3168 3167 8036
 3169 3168 8037
 3170 3169 8038
 3171 3170 8039
 3172 3171 8040
 3173 3172 8041
 3174 3173 8042
 3175 3174 8043
 3176 3175 8044
 3177 3176 8045
 3178 3177 8046
 3179 3178 8047
 3180 3179 8048
 3181 3180 8049
 3182 3181 8050
 3183 3182 8051
 3184 3183 8052
 3185 3184 8053
 3186 3185 8054
 3187 3186 8055
 3188 3187 8056
 3189 3188 8057
 3190 3189 8058
 3191 3190 8059
 3192 3191 8060
 3193 3192 8061
 3194 3193 8062
 3195 3194 8063
 3196 3195 8064
 3197 3196 8065
 3198 3197 8066
 3199 3198 8067
 3201 3200 8068
 3202 3201 8069
 3203 3202 8070
 3204 3203 8071
 3205 3204 8072
 3206 3205 8073
 3207 3206 8074
 3208 3207 8075
 3209 3208 8076
 3210 3209 8077
 3211 3210 8078
 3212 3211 8079
 3213 3212 8080
 3214 3213 8081
 3215 3214 8082
 3216 3215 8083
 3217 3216 8084
 3218 3217 8085
 3219 3218 8086
 3220 3219 8087
 3221 3220 8088
 3222 3221 8089
 3223 3222 8090
 3224 3223 8091
 3225 3224 8092
 3226 3225 8093
 3227 3226 8094
 3228 3227 8095
 3229 3228 8096
 3230 3229 8097
 3231 3230 8098
 3232 3231 8099
 3233 3232 8100
 3234 3233 8101
 3235 3234 8102
 3236 3235 8103
 3237 3236 8104
 3238 3237 8105
 3239 3238 8106
 3240 3239 8107
 3241 3240 8108
 3242 3241 8109
 3243 3242 8110
 3244 3243 8111
 3245 3244 8112
 3246 3245 8113
 3247 3246 8114
 3248 3247 8115
 3249 3248 8116
 3250 3249 8117
 3251 3250 8118
 3252 3251 8119
 3253 3252 8120
 3254 3253 8121
 3255 3254 8122
 3256 3255 8123
 3257 3256 8124
 3258 3257 8125
 3259 3258 8126
 3260 3259 8127
 3261 3260 8128
 3262 3261 8129
 3263 3262 8130
 3264 3263 8131
 3265 3264 8132
 3266 3265 8133
 3267 3266 8134
 3268 3267 8135
 3269 3268 8136
 3270 3269 8137
 3271 3270 8138
 3272 3271 8139
 3273 3272 8140
 3274 3273 8141
 3275 3274 8142
 3276 3275 8143
 3277 3276 8144
 3278 3277 8145
 3279 3278 8146
 3280 3279 8147
 3281 3280 8148
 3282 3281 8149
 3283 3282 8150
 3284 3283 8151
 3285 3284 8152
 3286 3285 8153
 3287 3286 8154
 3288 3287 8155
 3289 3288 8156
 3290 3289 8157
 3291 3290 8158
 3292 3291 8159
 3293 3292 8160
 3294 3293 8161
 3295 3294 8162
 3296 3295 8163
 3297 3296 8164
 3298 3297 8165
 3299 3298 8166
 3301 3300 8167
 3302 3301 8168
 3303 3302 8169
 3304 3303 8170
 3305 3304 8171
 3306 3305 8172
 3307 3306 8173
 3308 3307 8174
 3309 3308 8175
 3310 3309 8176
 3311 3310 8177
 3312 3311 8178
 3313 3312 8179
 3314 3313 8180
 3315 3314 8181
 3316 3315 8182
 3317 3316 8183
 3318 3317 8184
 3319 3318 8185
 3320 3319 8186
 3321 3320 8187
 3322 3321 8188
 3323 3322 8189
 3324 3323 8190
 3325 3324 8191
 3326 3325 8192
 3327 3326 8193
 3328 3327 8194
 3329 3328 8195
 3330 3329 8196
 3331 3330 8197
 3332 3331 8198
 3333 3332 8199
 3334 3333 8200
 3335 3334 8201
 3336 3335 8202
 3337 3336 8203
 3338 3337 8204
 3339 3338 8205
 3340 3339 8206
 3341 3340 8207
 3342 3341 8208
 3343 3342 8209
 3344 3343 8210
 3345 3344 8211
 3346 3345 8212
 3347 3346 8213
 3348 3347 8214
 3349 3348 8215
 3350 3349 8216
 3351 3350 8217
 3352 3351 8218
 3353 3352 8219
 3354 3353 8220
 3355 3354 8221
 3356 3355 8222
 3357 3356 8223
 3358 3357 8224
 3359 3358 8225
 3360 3359 8226
 3361 3360 8227
 3362 3361 8228
 3363 3362 8229
 3364 3363 8230
 3365 3364 8231
 3366 3365 8232
 3367 3366 8233
 3368 3367 8234
 3369 3368 8235
 3370 3369 8236
 3371 3370 8237
 3372 3371 8238
 3373 3372 8239
 3374 3373 8240
 3375 3374 8241
 3376 3375 8242
 3377 3376 8243
 3378 3377 8244
 3379 3378 8245
 3380 3379 8246
 3381 3380 8247
 3382 3381 8248
 3383 3382 8249
 3384 3383 8250
 3385 3384 8251
 3386 3385 8252
 3387 3386 8253
 3388 3387 8254
 3389 3388 8255
 3390 3389 8256
 3391 3390 8257
 3392 3391 8258
 3393 3392 8259
 3394 3393 8260
 3395 3394 8261
 3396 3395 8262
 3397 3396 8263
 3398 3397 8264
 3399 3398 8265
 3401 3400 8266
 3402 3401 8267
 3403 3402 8268
 3404 3403 8269
 3405 3404 8270
 3406 3405 8271
 3407 3406 8272
 3408 3407 8273
 3409 3408 8274
 3410 3409 8275
 3411 3410 8276
 3412 3411 8277
 3413 3412 8278
 3414 3413 8279
 3415 3414 8280
 3416 3415 8281
 3417 3416 8282
 3418 3417 8283
 3419 3418 8284
 3420 3419 8285
 3421 3420 8286
 3422 3421 8287
 3423 3422 8288
 3424 3423 8289
 3425 3424 8290
 3426 3425 8291
 3427 3426 8292
 3428 3427 8293
 3429 3428 8294
 3430 3429 8295
 3431 3430 8296
 3432 3431 8297
 3433 3432 8298
 3434 3433 8299
 3435 3434 8300
 3436 3435 8301
 3437 3436 8302
 3438 3437 8303
 3439 3438 8304
 3440 3439 8305
 3441 3440 8306
 3442 3441 8307
 3443 3442 8308
 3444 3443 8309
 3445 3444 8310
 3446 3445 8311
 3447 3446 8312
 3448 3447 8313
 3449 3448 8314
 3450 3449 8315
 3451 3450 8316
 3452 3451 8317
 3453 3452 8318
 3454 3453 8319
 3455 3454 8320
 3456 3455 8321
 3457 3456 8322
 3458 3457 8323
 3459 3458 8324
 3460 3459 8325
 3461 3460 8326
 3462 3461 8327
 3463 3462 8328
 3464 3463 8329
 3465 3464 8330
 3466 3465 8331
 3467 3466 8332
 3468 3467 8333
 3469 3468 8334
 3470 3469 8335
 3471 3470 8336
 3472 3471 8337
 3473 3472 8338
 3474 3473 8339
 3475 3474 8340
 3476 3475 8341
 3477 3476 8342
 3478 3477 8343
 3479 3478 8344
 3480 3479 8345
 3481 3480 8346
 3482 3481 8347
 3483 3482 8348
 3484 3483 8349
 3485 3484 8350
 3486 3485 8351
 3487 3486 8352
 3488 3487 8353
 3489 3488 8354
 3490 3489 8355
 3491 3490 8356
 3492 3491 8357
 3493 3492 8358
 3494 3493 8359
 3495 3494 8360
 3496 3495 8361
 3497 3496 8362
 3498 3497 8363
 3499 3498 8364
 3501 3500 8365
 3502 3501 8366
 3503 3502 8367
 3504 3503 8368
 3505 3504 8369
 3506 3505 8370
 3507 3506 8371
 3508 3507 8372
 3509 3508 8373
 3510 3509 8374
 3511 3510 8375
 3512 3511 8376
 3513 3512 8377
 3514 3513 8378
 3515 3514 8379
 3516 3515 8380
 3517 3516 8381
 3518 3517 8382
 3519 3518 8383
 3520 3519 8384
 3521 3520 8385
 3522 3521 8386
 3523 3522 8387
 3524 3523 8388
 3525 3524 8389
 3526 3525 8390
 3527 3526 8391
 3528 3527 8392
 3529 3528 8393
 3530 3529 8394
 3531 3530 8395
 3532 3531 8396
 3533 3532 8397
 3534 3533 8398
 3535 3534 8399
 3536 3535 8400
 3537 3536 8401
 3538 3537 8402
 3539 3538 8403
 3540 3539 8404
 3541 3540 8405
 3542 3541 8406
 3543 3542 8407
 3544 3543 8408
 3545 3544 8409
 3546 3545 8410
 3547 3546 8411
 3548 3547 8412
 3549 3548 8413
 3550 3549 8414
 3551 3550 8415
 3552 3551 8416
 3553 3552 8417
 3554 3553 8418
 3555 3554 8419
 3556 3555 8420
 3557 3556 8421
 3558 3557 8422
 3559 3558 8423
 3560 3559 8424
 3561 3560 8425
 3562 3561 8426
 3563 3562 8427
 3564 3563 8428
 3565 3564 8429
 3566 3565 8430
 3567 3566 8431
 3568 3567 8432
 3569 3568 8433
 3570 3569 8434
 3571 3570 8435
 3572 3571 8436
 3573 3572 8437
 3574 3573 8438
 3575 3574 8439
 3576 3575 8440
 3577 3576 8441
 3578 3577 8442
 3579 3578 8443
 3580 3579 8444
 3581 3580 8445
 3582 3581 8446
 3583 3582 8447
 3584 3583 8448
 3585 3584 8449
 3586 3585 8450
 3587 3586 8451
 3588 3587 8452
 3589 3588 8453
 3590 3589 8454
 3591 3590 8455
 3592 3591 8456
 3593 3592 8457
 3594 3593 8458
 3595 3594 8459
 3596 3595 8460
 3597 3596 8461
 3598 3597 8462
 3599 3598 8463
 3601 3600 8464
 3602 3601 8465
 3603 3602 8466
 3604 3603 8467
 3605 3604 8468
 3606 3605 8469
 3607 3606 8470
 3608 3607 8471
 3609 3608 8472
 3610 3609 8473
 3611 3610 8474
 3612 3611 8475
 3613 3612 8476
 3614 3613 8477
 3615 3614 8478
 3616 3615 8479
 3617 3616 8480
 3618 3617 8481
 3619 3618 8482
 3620 3619 8483
 3621 3620 8484
 3622 3621 8485
 3623 3622 8486
 3624 3623 8487
 3625 3624 8488
 3626 3625 8489
 3627 3626 8490
 3628 3627 8491
 3629 3628 8492
 3630 3629 8493
 3631 3630 8494
 3632 3631 8495
 3633 3632 8496
 3634 3633 8497
 3635 3634 8498
 3636 3635 8499
 3637 3636 8500
 3638 3637 8501
 3639 3638 8502
 3640 3639 8503
 3641 3640 8504
 3642 3641 8505
 3643 3642 8506
 3644 3643 8507
 3645 3644 8508
 3646 3645 8509
 3647 3646 8510
 3648 3647 8511
 3649 3648 8512
 3650 3649 8513
 3651 3650 8514
 3652 3651 8515
 3653 3652 8516
 3654 3653 8517
 3655 3654 8518
 3656 3655 8519
 3657 3656 8520
 3658 3657 8521
 3659 3658 8522
 3660 3659 8523
 3661 3660 8524
 3662 3661 8525
 3663 3662 8526
 3664 3663 8527
 3665 3664 8528
 3666 3665 8529
 3667 3666 8530
 3668 3667 8531
 3669 3668 8532
 3670 3669 8533
 3671 3670 8534
 3672 3671 8535
 3673 3672 8536
 3674 3673 8537
 3675 3674 8538
 3676 3675 8539
 3677 3676 8540
 3678 3677 8541
 3679 3678 8542
 3680 3679 8543
 3681 3680 8544
 3682 3681 8545
 3683 3682 8546
 3684 3683 8547
 3685 3684 8548
 3686 3685 8549
 3687 3686 8550
 3688 3687 8551
 3689 3688 8552
 3690 3689 8553
 3691 3690 8554
 3692 3691 8555
 3693 3692 8556
 3694 3693 8557
 3695 3694 8558
 3696 3695 8559
 3697 3696 8560
 3698 3697 8561
 3699 3698 8562
 3701 3700 8563
 3702 3701 8564
 3703 3702 8565
 3704 3703 8566
 3705 3704 8567
 3706 3705 8568
 3707 3706 8569
 3708 3707 8570
 3709 3708 8571
 3710 3709 8572
 3711 3710 8573
 3712 3711 8574
 3713 3712 8575
 3714 3713 8576
 3715 3714 8577
 3716 3715 8578
 3717 3716 8579
 3718 3717 8580
 3719 3718 8581
 3720 3719 8582
 3721 3720 8583
 3722 3721 8584
 3723 3722 8585
 3724 3723 8586
 3725 3724 8587
 3726 3725 8588
 3727 3726 8589
 3728 3727 8590
 3729 3728 8591
 3730 3729 8592
 3731 3730 8593
 3732 3731 8594
 3733 3732 8595
 3734 3733 8596
 3735 3734 8597
 3736 3735 8598
 3737 3736 8599
 3738 3737 8600
 3739 3738 8601
 3740 3739 8602
 3741 3740 8603
 3742 3741 8604
 3743 3742 8605
 3744 3743 8606
 3745 3744 8607
 3746 3745 8608
 3747 3746 8609
 3748 3747 8610
 3749 3748 8611
 3750 3749 8612
 3751 3750 8613
 3752 3751 8614
 3753 3752 8615
 3754 3753 8616
 3755 3754 8617
 3756 3755 8618
 3757 3756 8619
 3758 3757 8620
 3759 3758 8621
 3760 3759 8622
 3761 3760 8623
 3762 3761 8624
 3763 3762 8625
 3764 3763 8626
 3765 3764 8627
 3766 3765 8628
 3767 3766 8629
 3768 3767 8630
 3769 3768 8631
 3770 3769 8632
 3771 3770 8633
 3772 3771 8634
 3773 3772 8635
 3774 3773 8636
 3775 3774 8637
 3776 3775 8638
 3777 3776 8639
 3778 3777 8640
 3779 3778 8641
 3780 3779 8642
 3781 3780 8643
 3782 3781 8644
 3783 3782 8645
 3784 3783 8646
 3785 3784 8647
 3786 3785 8648
 3787 3786 8649
 3788 3787 8650
 3789 3788 8651
 3790 3789 8652
 3791 3790 8653
 3792 3791 8654
 3793 3792 8655
 3794 3793 8656
 3795 3794 8657
 3796 3795 8658
 3797 3796 8659
 3798 3797 8660
 3799 3798 8661
 3801 3800 8662
 3802 3801 8663
 3803 3802 8664
 3804 3803 8665
 3805 3804 8666
 3806 3805 8667
 3807 3806 8668
 3808 3807 8669
 3809 3808 8670
 3810 3809 8671
 3811 3810 8672
 3812 3811 8673
 3813 3812 8674
 3814 3813 8675
 3815 3814 8676
 3816 3815 8677
 3817 3816 8678
 3818 3817 8679
 3819 3818 8680
 3820 3819 8681
 3821 3820 8682
 3822 3821 8683
 3823 3822 8684
 3824 3823 8685
 3825 3824 8686
 3826 3825 8687
 3827 3826 8688
 3828 3827 8689
 3829 3828 8690
 3830 3829 8691
 3831 3830 8692
 3832 3831 8693
 3833 3832 8694
 3834 3833 8695
 3835 3834 8696
 3836 3835 8697
 3837 3836 8698
 3838 3837 8699
 3839 3838 8700
 3840 3839 8701
 3841 3840 8702
 3842 3841 8703
 3843 3842 8704
 3844 3843 8705
 3845 3844 8706
 3846 3845 8707
 3847 3846 8708
 3848 3847 8709
 3849 3848 8710
 3850 3849 8711
 3851 3850 8712
 3852 3851 8713
 3853 3852 8714
 3854 3853 8715
 3855 3854 8716
 3856 3855 8717
 3857 3856 8718
 3858 3857 8719
 3859 3858 8720
 3860 3859 8721
 3861 3860 8722
 3862 3861 8723
 3863 3862 8724
 3864 3863 8725
 3865 3864 8726
 3866 3865 8727
 3867 3866 8728
 3868 3867 8729
 3869 3868 8730
 3870 3869 8731
 3871 3870 8732
 3872 3871 8733
 3873 3872 8734
 3874 3873 8735
 3875 3874 8736
 3876 3875 8737
 3877 3876 8738
 3878 3877 8739
 3879 3878 8740
 3880 3879 8741
 3881 3880 8742
 3882 3881 8743
 3883 3882 8744
 3884 3883 8745
 3885 3884 8746
 3886 3885 8747
 3887 3886 8748
 3888 3887 8749
 3889 3888 8750
 3890 3889 8751
 3891 3890 8752
 3892 3891 8753
 3893 3892 8754
 3894 3893 8755
 3895 3894 8756
 3896 3895 8757
 3897 3896 8758
 3898 3897 8759
 3899 3898 8760
 3901 3900 8761
 3902 3901 8762
 3903 3902 8763
 3904 3903 8764
 3905 3904 8765
 3906 3905 8766
 3907 3906 8767
 3908 3907 8768
 3909 3908 8769
 3910 3909 8770
 3911 3910 8771
 3912 3911 8772
 3913 3912 8773
 3914 3913 8774
 3915 3914 8775
 3916 3915 8776
 3917 3916 8777
 3918 3917 8778
 3919 3918 8779
 3920 3919 8780
 3921 3920 8781
 3922 3921 8782
 3923 3922 8783
 3924 3923 8784
 3925 3924 8785
 3926 3925 8786
 3927 3926 8787
 3928 3927 8788
 3929 3928 8789
 3930 3929 8790
 3931 3930 8791
 3932 3931 8792
 3933 3932 8793
 3934 3933 8794
 3935 3934 8795
 3936 3935 8796
 3937 3936 8797
 3938 3937 8798
 3939 3938 8799
 3940 3939 8800
 3941 3940 8801
 3942 3941 8802
 3943 3942 8803
 3944 3943 8804
 3945 3944 8805
 3946 3945 8806
 3947 3946 8807
 3948 3947 8808
 3949 3948 8809
 3950 3949 8810
 3951 3950 8811
 3952 3951 8812
 3953 3952 8813
 3954 3953 8814
 3955 3954 8815
 3956 3955 8816
 3957 3956 8817
 3958 3957 8818
 3959 3958 8819
 3960 3959 8820
 3961 3960 8821
 3962 3961 8822
 3963 3962 8823
 3964 3963 8824
 3965 3964 8825
 3966 3965 8826
 3967 3966 8827
 3968 3967 8828
 3969 3968 8829
 3970 3969 8830
 3971 3970 8831
 3972 3971 8832
 3973 3972 8833
 3974 3973 8834
 3975 3974 8835
 3976 3975 8836
 3977 3976 8837
 3978 3977 8838
 3979 3978 8839
 3980 3979 8840
 3981 3980 8841
 3982 3981 8842
 3983 3982 8843
 3984 3983 8844
 3985 3984 8845
 3986 3985 8846
 3987 3986 8847
 3988 3987 8848
 3989 3988 8849
 3990 3989 8850
 3991 3990 8851
 3992 3991 8852
 3993 3992 8853
 3994 3993 8854
 3995 3994 8855
 3996 3995 8856
 3997 3996 8857
 3998 3997 8858
 3999 3998 8859
 4001 4000 8860
 4002 4001 8861
 4003 4002 8862
 4004 4003 8863
 4005 4004 8864
 4006 4005 8865
 4007 4006 8866
 4008 4007 8867
 4009 4008 8868
 4010 4009 8869
 4011 4010 8870
 4012 4011 8871
 4013 4012 8872
 4014 4013 8873
 4015 4014 8874
 4016 4015 8875
 4017 4016 8876
 4018 4017 8877
 4019 4018 8878
 4020 4019 8879
 4021 4020 8880
 4022 4021 8881
 4023 4022 8882
 4024 4023 8883
 4025 4024 8884
 4026 4025 8885
 4027 4026 8886
 4028 4027 8887
 4029 4028 8888
 4030 4029 8889
 4031 4030 8890
 4032 4031 8891
 4033 4032 8892
 4034 4033 8893
 4035 4034 8894
 4036 4035 8895
 4037 4036 8896
 4038 4037 8897
 4039 4038 8898
 4040 4039 8899
 4041 4040 8900
 4042 4041 8901
 4043 4042 8902
 4044 4043 8903
 4045 4044 8904
 4046 4045 8905
 4047 4046 8906
 4048 4047 8907
 4049 4048 8908
 4050 4049 8909
 4051 4050 8910
 4052 4051 8911
 4053 4052 8912
 4054 4053 8913
 4055 4054 8914
 4056 4055 8915
 4057 4056 8916
 4058 4057 8917
 4059 4058 8918
 4060 4059 8919
 4061 4060 8920
 4062 4061 8921
 4063 4062 8922
 4064 4063 8923
 4065 4064 8924
 4066 4065 8925
 4067 4066 8926
 4068 4067 8927
 4069 4068 8928
 4070 4069 8929
 4071 4070 8930
 4072 4071 8931
 4073 4072 8932
 4074 4073 8933
 4075 4074 8934
 4076 4075 8935
 4077 4076 8936
 4078 4077 8937
 4079 4078 8938
 4080 4079 8939
 4081 4080 8940
 4082 4081 8941
 4083 4082 8942
 4084 4083 8943
 4085 4084 8944
 4086 4085 8945
 4087 4086 8946
 4088 4087 8947
 4089 4088 8948
 4090 4089 8949
 4091 4090 8950
 4092 4091 8951
 4093 4092 8952
 4094 4093 8953
 4095 4094 8954
 4096 4095 8955
 4097 4096 8956
 4098 4097 8957
 4099 4098 8958
 4101 4100 8959
 4102 4101 8960
 4103 4102 8961
 4104 4103 8962
 4105 4104 8963
 4106 4105 8964
 4107 4106 8965
 4108 4107 8966
 4109 4108 8967
 4110 4109 8968
 4111 4110 8969
 4112 4111 8970
 4113 4112 8971
 4114 4113 8972
 4115 4114 8973
 4116 4115 8974
 4117 4116 8975
 4118 4117 8976
 4119 4118 8977
 4120 4119 8978
 4121 4120 8979
 4122 4121 8980
 4123 4122 8981
 4124 4123 8982
 4125 4124 8983
 4126 4125 8984
 4127 4126 8985
 4128 4127 8986
 4129 4128 8987
 4130 4129 8988
 4131 4130 8989
 4132 4131 8990
 4133 4132 8991
 4134 4133 8992
 4135 4134 8993
 4136 4135 8994
 4137 4136 8995
 4138 4137 8996
 4139 4138 8997
 4140 4139 8998
 4141 4140 8999
 4142 4141 9000
 4143 4142 9001
 4144 4143 9002
 4145 4144 9003
 4146 4145 9004
 4147 4146 9005
 4148 4147 9006
 4149 4148 9007
 4150 4149 9008
 4151 4150 9009
 4152 4151 9010
 4153 4152 9011
 4154 4153 9012
 4155 4154 9013
 4156 4155 9014
 4157 4156 9015
 4158 4157 9016
 4159 4158 9017
 4160 4159 9018
 4161 4160 9019
 4162 4161 9020
 4163 4162 9021
 4164 4163 9022
 4165 4164 9023
 4166 4165 9024
 4167 4166 9025
 4168 4167 9026
 4169 4168 9027
 4170 4169 9028
 4171 4170 9029
 4172 4171 9030
 4173 4172 9031
 4174 4173 9032
 4175 4174 9033
 4176 4175 9034
 4177 4176 9035
 4178 4177 9036
 4179 4178 9037
 4180 4179 9038
 4181 4180 9039
 4182 4181 9040
 4183 4182 9041
 4184 4183 9042
 4185 4184 9043
 4186 4185 9044
 4187 4186 9045
 4188 4187 9046
 4189 4188 9047
 4190 4189 9048
 4191 4190 9049
 4192 4191 9050
 4193 4192 9051
 4194 4193 9052
 4195 4194 9053
 4196 4195 9054
 4197 4196 9055
 4198 4197 9056
 4199 4198 9057
 4201 4200 9058
 4202 4201 9059
 4203 4202 9060
 4204 4203 9061
 4205 4204 9062
 4206 4205 9063
 4207 4206 9064
 4208 4207 9065
 4209 4208 9066
 4210 4209 9067
 4211 4210 9068
 4212 4211 9069
 4213 4212 9070
 4214 4213 9071
 4215 4214 9072
 4216 4215 9073
 4217 4216 9074
 4218 4217 9075
 4219 4218 9076
 4220 4219 9077
 4221 4220 9078
 4222 4221 9079
 4223 4222 9080
 4224 4223 9081
 4225 4224 9082
 4226 4225 9083
 4227 4226 9084
 4228 4227 9085
 4229 4228 9086
 4230 4229 9087
 4231 4230 9088
 4232 4231 9089
 4233 4232 9090
 4234 4233 9091
 4235 4234 9092
 4236 4235 9093
 4237 4236 9094
 4238 4237 9095
 4239 4238 9096
 4240 4239 9097
 4241 4240 9098
 4242 4241 9099
 4243 4242 9100
 4244 4243 9101
 4245 4244 9102
 4246 4245 9103
 4247 4246 9104
 4248 4247 9105
 4249 4248 9106
 4250 4249 9107
 4251 4250 9108
 4252 4251 9109
 4253 4252 9110
 4254 4253 9111
 4255 4254 9112
 4256 4255 9113
 4257 4256 9114
 4258 4257 9115
 4259 4258 9116
 4260 4259 9117
 4261 4260 9118
 4262 4261 9119
 4263 4262 9120
 4264 4263 9121
 4265 4264 9122
 4266 4265 9123
 4267 4266 9124
 4268 4267 9125
 4269 4268 9126
 4270 4269 9127
 4271 4270 9128
 4272 4271 9129
 4273 4272 9130
 4274 4273 9131
 4275 4274 9132
 4276 4275 9133
 4277 4276 9134
 4278 4277 9135
 4279 4278 9136
 4280 4279 9137
 4281 4280 9138
 4282 4281 9139
 4283 4282 9140
 4284 4283 9141
 4285 4284 9142
 4286 4285 9143
 4287 4286 9144
 4288 4287 9145
 4289 4288 9146
 4290 4289 9147
 4291 4290 9148
 4292 4291 9149
 4293 4292 9150
 4294 4293 9151
 4295 4294 9152
 4296 4295 9153
 4297 4296 9154
 4298 4297 9155
 4299 4298 9156
 4301 4300 9157
 4302 4301 9158
 4303 4302 9159
 4304 4303 9160
 4305 4304 9161
 4306 4305 9162
 4307 4306 9163
 4308 4307 9164
 4309 4308 9165
 4310 4309 9166
 4311 4310 9167
 4312 4311 9168
 4313 4312 9169
 4314 4313 9170
 4315 4314 9171
 4316 4315 9172
 4317 4316 9173
 4318 4317 9174
 4319 4318 9175
 4320 4319 9176
 4321 4320 9177
 4322 4321 9178
 4323 4322 9179
 4324 4323 9180
 4325 4324 9181
 4326 4325 9182
 4327 4326 9183
 4328 4327 9184
 4329 4328 9185
 4330 4329 9186
 4331 4330 9187
 4332 4331 9188
 4333 4332 9189
 4334 4333 9190
 4335 4334 9191
 4336 4335 9192
 4337 4336 9193
 4338 4337 9194
 4339 4338 9195
 4340 4339 9196
 4341 4340 9197
 4342 4341 9198
 4343 4342 9199
 4344 4343 9200
 4345 4344 9201
 4346 4345 9202
 4347 4346 9203
 4348 4347 9204
 4349 4348 9205
 4350 4349 9206
 4351 4350 9207
 4352 4351 9208
 4353 4352 9209
 4354 4353 9210
 4355 4354 9211
 4356 4355 9212
 4357 4356 9213
 4358 4357 9214
 4359 4358 9215
 4360 4359 9216
 4361 4360 9217
 4362 4361 9218
 4363 4362 9219
 4364 4363 9220
 4365 4364 9221
 4366 4365 9222
 4367 4366 9223
 4368 4367 9224
 4369 4368 9225
 4370 4369 9226
 4371 4370 9227
 4372 4371 9228
 4373 4372 9229
 4374 4373 9230
 4375 4374 9231
 4376 4375 9232
 4377 4376 9233
 4378 4377 9234
 4379 4378 9235
 4380 4379 9236
 4381 4380 9237
 4382 4381 9238
 4383 4382 9239
 4384 4383 9240
 4385 4384 9241
 4386 4385 9242
 4387 4386 9243
 4388 4387 9244
 4389 4388 9245
 4390 4389 9246
 4391 4390 9247
 4392 4391 9248
 4393 4392 9249
 4394 4393 9250
 4395 4394 9251
 4396 4395 9252
 4397 4396 9253
 4398 4397 9254
 4399 4398 9255
 4401 4400 9256
 4402 4401 9257
 4403 4402 9258
 4404 4403 9259
 4405 4404 9260
 4406 4405 9261
 4407 4406 9262
 4408 4407 9263
 4409 4408 9264
 4410 4409 9265
 4411 4410 9266
 4412 4411 9267
 4413 4412 9268
 4414 4413 9269
 4415 4414 9270
 4416 4415 9271
 4417 4416 9272
 4418 4417 9273
 4419 4418 9274
 4420 4419 9275
 4421 4420 9276
 4422 4421 9277
 4423 4422 9278
 4424 4423 9279
 4425 4424 9280
 4426 4425 9281
 4427 4426 9282
 4428 4427 9283
 4429 4428 9284
 4430 4429 9285
 4431 4430 9286
 4432 4431 9287
 4433 4432 9288
 4434 4433 9289
 4435 4434 9290
 4436 4435 9291
 4437 4436 9292
 4438 4437 9293
 4439 4438 9294
 4440 4439 9295
 4441 4440 9296
 4442 4441 9297
 4443 4442 9298
 4444 4443 9299
 4445 4444 9300
 4446 4445 9301
 4447 4446 9302
 4448 4447 9303
 4449 4448 9304
 4450 4449 9305
 4451 4450 9306
 4452 4451 9307
 4453 4452 9308
 4454 4453 9309
 4455 4454 9310
 4456 4455 9311
 4457 4456 9312
 4458 4457 9313
 4459 4458 9314
 4460 4459 9315
 4461 4460 9316
 4462 4461 9317
 4463 4462 9318
 4464 4463 9319
 4465 4464 9320
 4466 4465 9321
 4467 4466 9322
 4468 4467 9323
 4469 4468 9324
 4470 4469 9325
 4471 4470 9326
 4472 4471 9327
 4473 4472 9328
 4474 4473 9329
 4475 4474 9330
 4476 4475 9331
 4477 4476 9332
 4478 4477 9333
 4479 4478 9334
 4480 4479 9335
 4481 4480 9336
 4482 4481 9337
 4483 4482 9338
 4484 4483 9339
 4485 4484 9340
 4486 4485 9341
 4487 4486 9342
 4488 4487 9343
 4489 4488 9344
 4490 4489 9345
 4491 4490 9346
 4492 4491 9347
 4493 4492 9348
 4494 4493 9349
 4495 4494 9350
 4496 4495 9351
 4497 4496 9352
 4498 4497 9353
 4499 4498 9354
 4501 4500 9355
 4502 4501 9356
 4503 4502 9357
 4504 4503 9358
 4505 4504 9359
 4506 4505 9360
 4507 4506 9361
 4508 4507 9362
 4509 4508 9363
 4510 4509 9364
 4511 4510 9365
 4512 4511 9366
 4513 4512 9367
 4514 4513 9368
 4515 4514 9369
 4516 4515 9370
 4517 4516 9371
 4518 4517 9372
 4519 4518 9373
 4520 4519 9374
 4521 4520 9375
 4522 4521 9376
 4523 4522 9377
 4524 4523 9378
 4525 4524 9379
 4526 4525 9380
 4527 4526 9381
 4528 4527 9382
 4529 4528 9383
 4530 4529 9384
 4531 4530 9385
 4532 4531 9386
 4533 4532 9387
 4534 4533 9388
 4535 4534 9389
 4536 4535 9390
 4537 4536 9391
 4538 4537 9392
 4539 4538 9393
 4540 4539 9394
 4541 4540 9395
 4542 4541 9396
 4543 4542 9397
 4544 4543 9398
 4545 4544 9399
 4546 4545 9400
 4547 4546 9401
 4548 4547 9402
 4549 4548 9403
 4550 4549 9404
 4551 4550 9405
 4552 4551 9406
 4553 4552 9407
 4554 4553 9408
 4555 4554 9409
 4556 4555 9410
 4557 4556 9411
 4558 4557 9412
 4559 4558 9413
 4560 4559 9414
 4561 4560 9415
 4562 4561 9416
 4563 4562 9417
 4564 4563 9418
 4565 4564 9419
 4566 4565 9420
 4567 4566 9421
 4568 4567 9422
 4569 4568 9423
 4570 4569 9424
 4571 4570 9425
 4572 4571 9426
 4573 4572 9427
 4574 4573 9428
 4575 4574 9429
 4576 4575 9430
 4577 4576 9431
 4578 4577 9432
 4579 4578 9433
 4580 4579 9434
 4581 4580 9435
 4582 4581 9436
 4583 4582 9437
 4584 4583 9438
 4585 4584 9439
 4586 4585 9440
 4587 4586 9441
 4588 4587 9442
 4589 4588 9443
 4590 4589 9444
 4591 4590 9445
 4592 4591 9446
 4593 4592 9447
 4594 4593 9448
 4595 4594 9449
 4596 4595 9450
 4597 4596 9451
 4598 4597 9452
 4599 4598 9453
 4601 4600 9454
 4602 4601 9455
 4603 4602 9456
 4604 4603 9457
 4605 4604 9458
 4606 4605 9459
 4607 4606 9460
 4608 4607 9461
 4609 4608 9462
 4610 4609 9463
 4611 4610 9464
 4612 4611 9465
 4613 4612 9466
 4614 4613 9467
 4615 4614 9468
 4616 4615 9469
 4617 4616 9470
 4618 4617 9471
 4619 4618 9472
 4620 4619 9473
 4621 4620 9474
 4622 4621 9475
 4623 4622 9476
 4624 4623 9477
 4625 4624 9478
 4626 4625 9479
 4627 4626 9480
 4628 4627 9481
 4629 4628 9482
 4630 4629 9483
 4631 4630 9484
 4632 4631 9485
 4633 4632 9486
 4634 4633 9487
 4635 4634 9488
 4636 4635 9489
 4637 4636 9490
 4638 4637 9491
 4639 4638 9492
 4640 4639 9493
 4641 4640 9494
 4642 4641 9495
 4643 4642 9496
 4644 4643 9497
 4645 4644 9498
 4646 4645 9499
 4647 4646 9500
 4648 4647 9501
 4649 4648 9502
 4650 4649 9503
 4651 4650 9504
 4652 4651 9505
 4653 4652 9506
 4654 4653 9507
 4655 4654 9508
 4656 4655 9509
 4657 4656 9510
 4658 4657 9511
 4659 4658 9512
 4660 4659 9513
 4661 4660 9514
 4662 4661 9515
 4663 4662 9516
 4664 4663 9517
 4665 4664 9518
 4666 4665 9519
 4667 4666 9520
 4668 4667 9521
 4669 4668 9522
 4670 4669 9523
 4671 4670 9524
 4672 4671 9525
 4673 4672 9526
 4674 4673 9527
 4675 4674 9528
 4676 4675 9529
 4677 4676 9530
 4678 4677 9531
 4679 4678 9532
 4680 4679 9533
 4681 4680 9534
 4682 4681 9535
 4683 4682 9536
 4684 4683 9537
 4685 4684 9538
 4686 4685 9539
 4687 4686 9540
 4688 4687 9541
 4689 4688 9542
 4690 4689 9543
 4691 4690 9544
 4692 4691 9545
 4693 4692 9546
 4694 4693 9547
 4695 4694 9548
 4696 4695 9549
 4697 4696 9550
 4698 4697 9551
 4699 4698 9552
 4701 4700 9553
 4702 4701 9554
 4703 4702 9555
 4704 4703 9556
 4705 4704 9557
 4706 4705 9558
 4707 4706 9559
 4708 4707 9560
 4709 4708 9561
 4710 4709 9562
 4711 4710 9563
 4712 4711 9564
 4713 4712 9565
 4714 4713 9566
 4715 4714 9567
 4716 4715 9568
 4717 4716 9569
 4718 4717 9570
 4719 4718 9571
 4720 4719 9572
 4721 4720 9573
 4722 4721 9574
 4723 4722 9575
 4724 4723 9576
 4725 4724 9577
 4726 4725 9578
 4727 4726 9579
 4728 4727 9580
 4729 4728 9581
 4730 4729 9582
 4731 4730 9583
 4732 4731 9584
 4733 4732 9585
 4734 4733 9586
 4735 4734 9587
 4736 4735 9588
 4737 4736 9589
 4738 4737 9590
 4739 4738 9591
 4740 4739 9592
 4741 4740 9593
 4742 4741 9594
 4743 4742 9595
 4744 4743 9596
 4745 4744 9597
 4746 4745 9598
 4747 4746 9599
 4748 4747 9600
 4749 4748 9601
 4750 4749 9602
 4751 4750 9603
 4752 4751 9604
 4753 4752 9605
 4754 4753 9606
 4755 4754 9607
 4756 4755 9608
 4757 4756 9609
 4758 4757 9610
 4759 4758 9611
 4760 4759 9612
 4761 4760 9613
 4762 4761 9614
 4763 4762 9615
 4764 4763 9616
 4765 4764 9617
 4766 4765 9618
 4767 4766 9619
 4768 4767 9620
 4769 4768 9621
 4770 4769 9622
 4771 4770 9623
 4772 4771 9624
 4773 4772 9625
 4774 4773 9626
 4775 4774 9627
 4776 4775 9628
 4777 4776 9629
 4778 4777 9630
 4779 4778 9631
 4780 4779 9632
 4781 4780 9633
 4782 4781 9634
 4783 4782 9635
 4784 4783 9636
 4785 4784 9637
 4786 4785 9638
 4787 4786 9639
 4788 4787 9640
 4789 4788 9641
 4790 4789 9642
 4791 4790 9643
 4792 4791 9644
 4793 4792 9645
 4794 4793 9646
 4795 4794 9647
 4796 4795 9648
 4797 4796 9649
 4798 4797 9650
 4799 4798 9651
 101 1 4900
 102 2 4901
 103 3 4902
 104 4 4903
 105 5 4904
 106 6 4905
 107 7 4906
 108 8 4907
 109 9 4908
 110 10 4909
 111 11 4910
 112 12 4911
 113 13 4912
 114 14 4913
 115 15 4914
 116 16 4915
 117 17 4916
 118 18 4917
 119 19 4918
 120 20 4919
 121 21 4920
 122 22 4921
 123 23 4922
 124 24 4923
 125 25 4924
 126 26 4925
 127 27 4926
 128 28 4927
 129 29 4928
 130 30 4929
 131 31 4930
 132 32 4931
 133 33 4932
 134 34 4933
 135 35 4934
 136 36 4935
 137 37 4936
 138 38 4937
 139 39 4938
 140 40 4939
 141 41 4940
 142 42 4941
 143 43 4942
 144 44 4943
 145 45 4944
 146 46 4945
 147 47 4946
 148 48 4947
 149 49 4948
 150 50 4949
 151 51 4950
 152 52 4951
 153 53 4952
 154 54 4953
 155 55 4954
 156 56 4955
 157 57 4956
 158 58 4957
 159 59 4958
 160 60 4959
 161 61 4960
 162 62 4961
 163 63 4962
 164 64 4963
 165 65 4964
 166 66 4965
 167 67 4966
 168 68 4967
 169 69 4968
 170 70 4969
 171 71 4970
 172 72 4971
 173 73 4972
 174 74 4973
 175 75 4974
 176 76 4975
 177 77 4976
 178 78 4977
 179 79 4978
 180 80 4979
 181 81 4980
 182 82 4981
 183 83 4982
 184 84 4983
 185 85 4984
 186 86 4985
 187 87 4986
 188 88 4987
 189 89 4988
 190 90 4989
 191 91 4990
 192 92 4991
 193 93 4992
 194 94 4993
 195 95 4994
 196 96 4995
 197 97 4996
 198 98 4997
 199 99 4998
 201 101 4999
 202 102 5000
 203 103 5001
 204 104 5002
 205 105 5003
 206 106 5004
 207 107 5005
 208 108 5006
 209 109 5007
 210 110 5008
 211 111 5009
 212 112 5010
 213 113 5011
 214 114 5012
 215 115 5013
 216 116 5014
 217 117 5015
 218 118 5016
 219 119 5017
 220 120 5018
 221 121 5019
 222 122 5020
 223 123 5021
 224 124 5022
 225 125 5023
 226 126 5024
 227 127 5025
 228 128 5026
 229 129 5027
 230 130 5028
 231 131 5029
 232 132 5030
 233 133 5031
 234 134 5032
 235 135 5033
 236 136 5034
 237 137 5035
 238 138 5036
 239 139 5037
 240 140 5038
 241 141 5039
 242 142 5040
 243 143 5041
 244 144 5042
 245 145 5043
 246 146 5044
 247 147 5045
 248 148 5046
 249 149 5047
 250 150 5048
 251 151 5049
 252 152 5050
 253 153 5051
 254 154 5052
 255 155 5053
 256 156 5054
 257 157 5055
 258 158 5056
 259 159 5057
 260 160 5058
 261 161 5059
 262 162 5060
 263 163 5061
 264 164 5062
 265 165 5063
 266 166 5064
 267 167 5065
 268 168 5066
 269 169 5067
 270 170 5068
 271 171 5069
 272 172 5070
 273 173 5071
 274 174 5072
 275 175 5073
 276 176 5074
 277 177 5075
 278 178 5076
 279 179 5077
 280 180 5078
 281 181 5079
 282 182 5080
 283 183 5081
 284 184 5082
 285 185 5083
 286 186 5084
 287 187 5085
 288 188 5086
 289 189 5087
 290 190 5088
 291 191 5089
 292 192 5090
 293 193 5091
 294 194 5092
 295 195 5093
 296 196 5094
 297 197 5095
 298 198 5096
 299 199 5097
 301 201 5098
 302 202 5099
 303 203 5100
 304 204 5101
 305 205 5102
 306 206 5103
 307 207 5104
 308 208 5105
 309 209 5106
 310 210 5107
 311 211 5108
 312 212 5109
 313 213 5110
 314 214 5111
 315 215 5112
 316 216 5113
 317 217 5114
 318 218 5115
 319 219 5116
 320 220 5117
 321 221 5118
 322 222 5119
 323 223 5120
 324 224 5121
 325 225 5122
 326 226 5123
 327 227 5124
 328 228 5125
 329 229 5126
 330 230 5127
 331 231 5128
 332 232 5129
 333 233 5130
 334 234 5131
 335 235 5132
 336 236 5133
 337 237 5134
 338 238 5135
 339 239 5136
 340 240 5137
 341 241 5138
 342 242 5139
 343 243 5140
 344 244 5141
 345 245 5142
 346 246 5143
 347 247 5144
 348 248 5145
 349 249 5146
 350 250 5147
 351 251 5148
 352 252 5149
 353 253 5150
 354 254 5151
 355 255 5152
 356 256 5153
 357 257 5154
 358 258 5155
 359 259 5156
 360 260 5157
 361 261 5158
 362 262 5159
 363 263 5160
 364 264 5161
 365 265 5162
 366 266 5163
 367 267 5164
 368 268 5165
 369 269 5166
 370 270 5167
 371 271 5168
 372 272 5169
 373 273 5170
 374 274 5171
 375 275 5172
 376 276 5173
 377 277 5174
 378 278 5175
 379 279 5176
 380 280 5177
 381 281 5178
 382 282 5179
 383 283 5180
 384 284 5181
 385 285 5182
 386 286 5183
 387 287 5184
 388 288 5185
 389 289 5186
 390 290 5187
 391 291 5188
 392 292 5189
 393 293 5190
 394 294 5191
 395 295 5192
 396 296 5193
 397 297 5194
 398 298 5195
 399 299 5196
 401 301 5197
 402 302 5198
 403 303 5199
 404 304 5200
 405 305 5201
 406 306 5202
 407 307 5203
 408 308 5204
 409 309 5205
 410 310 5206
 411 311 5207
 412 312 5208
 413 313 5209
 414 314 5210
 415 315 5211
 416 316 5212
 417 317 5213
 418 318 5214
 419 319 5215
 420 320 5216
 421 321 5217
 422 322 5218
 423 323 5219
 424 324 5220
 425 325 5221
 426 326 5222
 427 327 5223
 428 328 5224
 429 329 5225
 430 330 5226
 431 331 5227
 432 332 5228
 433 333 5229
 434 334 5230
 435 335 5231
 436 336 5232
 437 337 5233
 438 338 5234
 439 339 5235
 440 340 5236
 441 341 5237
 442 342 5238
 443 343 5239
 444 344 5240
 445 345 5241
 446 346 5242
 447 347 5243
 448 348 5244
 449 349 5245
 450 350 5246
 451 351 5247
 452 352 5248
 453 353 5249
 454 354 5250
 455 355 5251
 456 356 5252
 457 357 5253
 458 358 5254
 459 359 5255
 460 360 5256
 461 361 5257
 462 362 5258
 463 363 5259
 464 364 5260
 465 365 5261
 466 366 5262
 467 367 5263
 468 368 5264
 469 369 5265
 470 370 5266
 471 371 5267
 472 372 5268
 473 373 5269
 474 374 5270
 475 375 5271
 476 376 5272
 477 377 5273
 478 378 5274
 479 379 5275
 480 380 5276
 481 381 5277
 482 382 5278
 483 383 5279
 484 384 5280
 485 385 5281
 486 386 5282
 487 387 5283
 488 388 5284
 489 389 5285
 490 390 5286
 491 391 5287
 492 392 5288
 493 393 5289
 494 394 5290
 495 395 5291
 496 396 5292
 497 397 5293
 498 398 5294
 499 399 5295
 501 401 5296
 502 402 5297
 503 403 5298
 504 404 5299
 505 405 5300
 506 406 5301
 507 407 5302
 508 408 5303
 509 409 5304
 510 410 5305
 511 411 5306
 512 412 5307
 513 413 5308
 514 414 5309
 515 415 5310
 516 416 5311
 517 417 5312
 518 418 5313
 519 419 5314
 520 420 5315
 521 421 5316
 522 422 5317
 523 423 5318
 524 424 5319
 525 425 5320
 526 426 5321
 527 427 5322
 528 428 5323
 529 429 5324
 530 430 5325
 531 431 5326
 532 432 5327
 533 433 5328
 534 434 5329
 535 435 5330
 536 436 5331
 537 437 5332
 538 438 5333
 539 439 5334
 540 440 5335
 541 441 5336
 542 442 5337
 543 443 5338
 544 444 5339
 545 445 5340
 546 446 5341
 547 447 5342
 548 448 5343
 549 449 5344
 550 450 5345
 551 451 5346
 552 452 5347
 553 453 5348
 554 454 5349
 555 455 5350
 556 456 5351
 557 457 5352
 558 458 5353
 559 459 5354
 560 460 5355
 561 461 5356
 562 462 5357
 563 463 5358
 564 464 5359
 565 465 5360
 566 466 5361
 567 467 5362
 568 468 5363
 569 469 5364
 570 470 5365
 571 471 5366
 572 472 5367
 573 473 5368
 574 474 5369
 575 475 5370
 576 476 5371
 577 477 5372
 578 478 5373
 579 479 5374
 580 480 5375
 581 481 5376
 582 482 5377
 583 483 5378
 584 484 5379
 585 485 5380
 586 486 5381
 587 487 5382
 588 488 5383
 589 489 5384
 590 490 5385
 591 491 5386
 592 492 5387
 593 493 5388
 594 494 5389
 595 495 5390
 596 496 5391
 597 497 5392
 598 498 5393
 599 499 5394
 601 501 5395
 602 502 5396
 603 503 5397
 604 504 5398
 605 505 5399
 606 506 5400
 607 507 5401
 608 508 5402
 609 509 5403
 610 510 5404
 611 511 5405
 612 512 5406
 613 513 5407
 614 514 5408
 615 515 5409
 616 516 5410
 617 517 5411
 618 518 5412
 619 519 5413
 620 520 5414
 621 521 5415
 622 522 5416
 623 523 5417
 624 524 5418
 625 525 5419
 626 526 5420
 627 527 5421
 628 528 5422
 629 529 5423
 630 530 5424
 631 531 5425
 632 532 5426
 633 533 5427
 634 534 5428
 635 535 5429
 636 536 5430
 637 537 5431
 638 538 5432
 639 539 5433
 640 540 5434
 641 541 5435
 642 542 5436
 643 543 5437
 644 544 5438
 645 545 5439
 646 546 5440
 647 547 5441
 648 548 5442
 649 549 5443
 650 550 5444
 651 551 5445
 652 552 5446
 653 553 5447
 654 554 5448
 655 555 5449
 656 556 5450
 657 557 5451
 658 558 5452
 659 559 5453
 660 560 5454
 661 561 5455
 662 562 5456
 663 563 5457
 664 564 5458
 665 565 5459
 666 566 5460
 667 567 5461
 668 568 5462
 669 569 5463
 670 570 5464
 671 571 5465
 672 572 5466
 673 573 5467
 674 574 5468
 675 575 5469
 676 576 5470
 677 577 5471
 678 578 5472
 679 579 5473
 680 580 5474
 681 581 5475
 682 582 5476
 683 583 5477
 684 584 5478
 685 585 5479
 686 586 5480
 687 587 5481
 688 588 5482
 689 589 5483
 690 590 5484
 691 591 5485
 692 592 5486
 693 593 5487
 694 594 5488
 695 595 5489
 696 596 5490
 697 597 5491
 698 598 5492
 699 599 5493
 701 601 5494
 702 602 5495
 703 603 5496
 704 604 5497
 705 605 5498
 706 606 5499
 707 607 5500
 708 608 5501
 709 609 5502
 710 610 5503
 711 611 5504
 712 612 5505
 713 613 5506
 714 614 5507
 715 615 5508
 716 616 5509
 717 617 5510
 718 618 5511
 719 619 5512
 720 620 5513
 721 621 5514
 722 622 5515
 723 623 5516
 724 624 5517
 725 625 5518
 726 626 5519
 727 627 5520
 728 628 5521
 729 629 5522
 730 630 5523
 731 631 5524
 732 632 5525
 733 633 5526
 734 634 5527
 735 635 5528
 736 636 5529
 737 637 5530
 738 638 5531
 739 639 5532
 740 640 5533
 741 641 5534
 742 642 5535
 743 643 5536
 744 644 5537
 745 645 5538
 746 646 5539
 747 647 5540
 748 648 5541
 749 649 5542
 750 650 5543
 751 651 5544
 752 652 5545
 753 653 5546
 754 654 5547
 755 655 5548
 756 656 5549
 757 657 5550
 758 658 5551
 759 659 5552
 760 660 5553
 761 661 5554
 762 662 5555
 763 663 5556
 764 664 5557
 765 665 5558
 766 666 5559
 767 667 5560
 768 668 5561
 769 669 5562
 770 670 5563
 771 671 5564
 772 672 5565
 773 673 5566
 774 674 5567
 775 675 5568
 776 676 5569
 777 677 5570
 778 678 5571
 779 679 5572
 780 680 5573
 781 681 5574
 782 682 5575
 783 683 5576
 784 684 5577
 785 685 5578
 786 686 5579
 787 687 5580
 788 688 5581
 789 689 5582
 790 690 5583
 791 691 5584
 792 692 5585
 793 693 5586
 794 694 5587
 795 695 5588
 796 696 5589
 797 697 5590
 798 698 5591
 799 699 5592
 801 701 5593
 802 702 5594
 803 703 5595
 804 704 5596
 805 705 5597
 806 706 5598
 807 707 5599
 808 708 5600
 809 709 5601
 810 710 5602
 811 711 5603
 812 712 5604
 813 713 5605
 814 714 5606
 815 715 5607
 816 716 5608
 817 717 5609
 818 718 5610
 819 719 5611
 820 720 5612
 821 721 5613
 822 722 5614
 823 723 5615
 824 724 5616
 825 725 5617
 826 726 5618
 827 727 5619
 828 728 5620
 829 729 5621
 830 730 5622
 831 731 5623
 832 732 5624
 833 733 5625
 834 734 5626
 835 735 5627
 836 736 5628
 837 737 5629
 838 738 5630
 839 739 5631
 840 740 5632
 841 741 5633
 842 742 5634
 843 743 5635
 844 744 5636
 845 745 5637
 846 746 5638
 847 747 5639
 848 748 5640
 849 749 5641
 850 750 5642
 851 751 5643
 852 752 5644
 853 753 5645
 854 754 5646
 855 755 5647
 856 756 5648
 857 757 5649
 858 758 5650
 859 759 5651
 860 760 5652
 861 761 5653
 862 762 5654
 863 763 5655
 864 764 5656
 865 765 5657
 866 766 5658
 867 767 5659
 868 768 5660
 869 769 5661
 870 770 5662
 871 771 5663
 872 772 5664
 873 773 5665
 874 774 5666
 875 775 5667
 876 776 5668
 877 777 5669
 878 778 5670
 879 779 5671
 880 780 5672
 881 781 5673
 882 782 5674
 883 783 5675
 884 784 5676
 885 785 5677
 886 786 5678
 887 787 5679
 888 788 5680
 889 789 5681
 890 790 5682
 891 791 5683
 892 792 5684
 893 793 5685
 894 794 5686
 895 795 5687
 896 796 5688
 897 797 5689
 898 798 5690
 899 799 5691
 901 801 5692
 902 802 5693
 903 803 5694
 904 804 5695
 905 805 5696
 906 806 5697
 907 807 5698
 908 808 5699
 909 809 5700
 910 810 5701
 911 811 5702
 912 812 5703
 913 813 5704
 914 814 5705
 915 815 5706
 916 816 5707
 917 817 5708
 918 818 5709
 919 819 5710
 920 820 5711
 921 821 5712
 922 822 5713
 923 823 5714
 924 824 5715
 925 825 5716
 926 826 5717
 927 827 5718
 928 828 5719
 929 829 5720
 930 830 5721
 931 831 5722
 932 832 5723
 933 833 5724
 934 834 5725
 935 835 5726
 936 836 5727
 937 837 5728
 938 838 5729
 939 839 5730
 940 840 5731
 941 841 5732
 942 842 5733
 943 843 5734
 944 844 5735
 945 845 5736
 946 846 5737
 947 847 5738
 948 848 5739
 949 849 5740
 950 850 5741
 951 851 5742
 952 852 5743
 953 853 5744
 954 854 5745
 955 855 5746
 956 856 5747
 957 857 5748
 958 858 5749
 959 859 5750
 960 860 5751
 961 861 5752
 962 862 5753
 963 863 5754
 964 864 5755
 965 865 5756
 966 866 5757
 967 867 5758
 968 868 5759
 969 869 5760
 970 870 5761
 971 871 5762
 972 872 5763
 973 873 5764
 974 874 5765
 975 875 5766
 976 876 5767
 977 877 5768
 978 878 5769
 979 879 5770
 980 880 5771
 981 881 5772
 982 882 5773
 983 883 5774
 984 884 5775
 985 885 5776
 986 886 5777
 987 887 5778
 988 888 5779
 989 889 5780
 990 890 5781
 991 891 5782
 992 892 5783
 993 893 5784
 994 894 5785
 995 895 5786
 996 896 5787
 997 897 5788
 998 898 5789
 999 899 5790
 1001 901 5791
 1002 902 5792
 1003 903 5793
 1004 904 5794
 1005 905 5795
 1006 906 5796
 1007 907 5797
 1008 908 5798
 1009 909 5799
 1010 910 5800
 1011 911 5801
 1012 912 5802
 1013 913 5803
 1014 914 5804
 1015 915 5805
 1016 916 5806
 1017 917 5807
 1018 918 5808
 1019 919 5809
 1020 920 5810
 1021 921 5811
 1022 922 5812
 1023 923 5813
 1024 924 5814
 1025 925 5815
 1026 926 5816
 1027 927 5817
 1028 928 5818
 1029 929 5819
 1030 930 5820
 1031 931 5821
 1032 932 5822
 1033 933 5823
 1034 934 5824
 1035 935 5825
 1036 936 5826
 1037 937 5827
 1038 938 5828
 1039 939 5829
 1040 940 5830
 1041 941 5831
 1042 942 5832
 1043 943 5833
 1044 944 5834
 1045 945 5835
 1046 946 5836
 1047 947 5837
 1048 948 5838
 1049 949 5839
 1050 950 5840
 1051 951 5841
 1052 952 5842
 1053 953 5843
 1054 954 5844
 1055 955 5845
 1056 956 5846
 1057 957 5847
 1058 958 5848
 1059 959 5849
 1060 960 5850
 1061 961 5851
 1062 962 5852
 1063 963 5853
 1064 964 5854
 1065 965 5855
 1066 966 5856
 1067 967 5857
 1068 968 5858
 1069 969 5859
 1070 970 5860
 1071 971 5861
 1072 972 5862
 1073 973 5863
 1074 974 5864
 1075 975 5865
 1076 976 5866
 1077 977 5867
 1078 978 5868
 1079 979 5869
 1080 980 5870
 1081 981 5871
 1082 982 5872
 1083 983 5873
 1084 984 5874
 1085 985 5875
 1086 986 5876
 1087 987 5877
 1088 988 5878
 1089 989 5879
 1090 990 5880
 1091 991 5881
 1092 992 5882
 1093 993 5883
 1094 994 5884
 1095 995 5885
 1096 996 5886
 1097 997 5887
 1098 998 5888
 1099 999 5889
 1101 1001 5890
 1102 1002 5891
 1103 1003 5892
 1104 1004 5893
 1105 1005 5894
 1106 1006 5895
 1107 1007 5896
 1108 1008 5897
 1109 1009 5898
 1110 1010 5899
 1111 1011 5900
 1112 1012 5901
 1113 1013 5902
 1114 1014 5903
 1115 1015 5904
 1116 1016 5905
 1117 1017 5906
 1118 1018 5907
 1119 1019 5908
 1120 1020 5909
 1121 1021 5910
 1122 1022 5911
 1123 1023 5912
 1124 1024 5913
 1125 1025 5914
 1126 1026 5915
 1127 1027 5916
 1128 1028 5917
 1129 1029 5918
 1130 1030 5919
 1131 1031 5920
 1132 1032 5921
 1133 1033 5922
 1134 1034 5923
 1135 1035 5924
 1136 1036 5925
 1137 1037 5926
 1138 1038 5927
 1139 1039 5928
 1140 1040 5929
 1141 1041 5930
 1142 1042 5931
 1143 1043 5932
 1144 1044 5933
 1145 1045 5934
 1146 1046 5935
 1147 1047 5936
 1148 1048 5937
 1149 1049 5938
 1150 1050 5939
 1151 1051 5940
 1152 1052 5941
 1153 1053 5942
 1154 1054 5943
 1155 1055 5944
 1156 1056 5945
 1157 1057 5946
 1158 1058 5947
 1159 1059 5948
 1160 1060 5949
 1161 1061 5950
 1162 1062 5951
 1163 1063 5952
 1164 1064 5953
 1165 1065 5954
 1166 1066 5955
 1167 1067 5956
 1168 1068 5957
 1169 1069 5958
 1170 1070 5959
 1171 1071 5960
 1172 1072 5961
 1173 1073 5962
 1174 1074 5963
 1175 1075 5964
 1176 1076 5965
 1177 1077 5966
 1178 1078 5967
 1179 1079 5968
 1180 1080 5969
 1181 1081 5970
 1182 1082 5971
 1183 1083 5972
 1184 1084 5973
 1185 1085 5974
 1186 1086 5975
 1187 1087 5976
 1188 1088 5977
 1189 1089 5978
 1190 1090 5979
 1191 1091 5980
 1192 1092 5981
 1193 1093 5982
 1194 1094 5983
 1195 1095 5984
 1196 1096 5985
 1197 1097 5986
 1198 1098 5987
 1199 1099 5988
 1201 1101 5989
 1202 1102 5990
 1203 1103 5991
 1204 1104 5992
 1205 1105 5993
 1206 1106 5994
 1207 1107 5995
 1208 1108 5996
 1209 1109 5997
 1210 1110 5998
 1211 1111 5999
 1212 1112 6000
 1213 1113 6001
 1214 1114 6002
 1215 1115 6003
 1216 1116 6004
 1217 1117 6005
 1218 1118 6006
 1219 1119 6007
 1220 1120 6008
 1221 1121 6009
 1222 1122 6010
 1223 1123 6011
 1224 1124 6012
 1225 1125 6013
 1226 1126 6014
 1227 1127 6015
 1228 1128 6016
 1229 1129 6017
 1230 1130 6018
 1231 1131 6019
 1232 1132 6020
 1233 1133 6021
 1234 1134 6022
 1235 1135 6023
 1236 1136 6024
 1237 1137 6025
 1238 1138 6026
 1239 1139 6027
 1240 1140 6028
 1241 1141 6029
 1242 1142 6030
 1243 1143 6031
 1244 1144 6032
 1245 1145 6033
 1246 1146 6034
 1247 1147 6035
 1248 1148 6036
 1249 1149 6037
 1250 1150 6038
 1251 1151 6039
 1252 1152 6040
 1253 1153 6041
 1254 1154 6042
 1255 1155 6043
 1256 1156 6044
 1257 1157 6045
 1258 1158 6046
 1259 1159 6047
 1260 1160 6048
 1261 1161 6049
 1262 1162 6050
 1263 1163 6051
 1264 1164 6052
 1265 1165 6053
 1266 1166 6054
 1267 1167 6055
 1268 1168 6056
 1269 1169 6057
 1270 1170 6058
 1271 1171 6059
 1272 1172 6060
 1273 1173 6061
 1274 1174 6062
 1275 1175 6063
 1276 1176 6064
 1277 1177 6065
 1278 1178 6066
 1279 1179 6067
 1280 1180 6068
 1281 1181 6069
 1282 1182 6070
 1283 1183 6071
 1284 1184 6072
 1285 1185 6073
 1286 1186 6074
 1287 1187 6075
 1288 1188 6076
 1289 1189 6077
 1290 1190 6078
 1291 1191 6079
 1292 1192 6080
 1293 1193 6081
 1294 1194 6082
 1295 1195 6083
 1296 1196 6084
 1297 1197 6085
 1298 1198 6086
 1299 1199 6087
 1301 1201 6088
 1302 1202 6089
 1303 1203 6090
 1304 1204 6091
 1305 1205 6092
 1306 1206 6093
 1307 1207 6094
 1308 1208 6095
 1309 1209 6096
 1310 1210 6097
 1311 1211 6098
 1312 1212 6099
 1313 1213 6100
 1314 1214 6101
 1315 1215 6102
 1316 1216 6103
 1317 1217 6104
 1318 1218 6105
 1319 1219 6106
 1320 1220 6107
 1321 1221 6108
 1322 1222 6109
 1323 1223 6110
 1324 1224 6111
 1325 1225 6112
 1326 1226 6113
 1327 1227 6114
 1328 1228 6115
 1329 1229 6116
 1330 1230 6117
 1331 1231 6118
 1332 1232 6119
 1333 1233 6120
 1334 1234 6121
 1335 1235 6122
 1336 1236 6123
 1337 1237 6124
 1338 1238 6125
 1339 1239 6126
 1340 1240 6127
 1341 1241 6128
 1342 1242 6129
 1343 1243 6130
 1344 1244 6131
 1345 1245 6132
 1346 1246 6133
 1347 1247 6134
 1348 1248 6135
 1349 1249 6136
 1350 1250 6137
 1351 1251 6138
 1352 1252 6139
 1353 1253 6140
 1354 1254 6141
 1355 1255 6142
 1356 1256 6143
 1357 1257 6144
 1358 1258 6145
 1359 1259 6146
 1360 1260 6147
 1361 1261 6148
 1362 1262 6149
 1363 1263 6150
 1364 1264 6151
 1365 1265 6152
 1366 1266 6153
 1367 1267 6154
 1368 1268 6155
 1369 1269 6156
 1370 1270 6157
 1371 1271 6158
 1372 1272 6159
 1373 1273 6160
 1374 1274 6161
 1375 1275 6162
 1376 1276 6163
 1377 1277 6164
 1378 1278 6165
 1379 1279 6166
 1380 1280 6167
 1381 1281 6168
 1382 1282 6169
 1383 1283 6170
 1384 1284 6171
 1385 1285 6172
 1386 1286 6173
 1387 1287 6174
 1388 1288 6175
 1389 1289 6176
 1390 1290 6177
 1391 1291 6178
 1392 1292 6179
 1393 1293 6180
 1394 1294 6181
 1395 1295 6182
 1396 1296 6183
 1397 1297 6184
 1398 1298 6185
 1399 1299 6186
 1401 1301 6187
 1402 1302 6188
 1403 1303 6189
 1404 1304 6190
 1405 1305 6191
 1406 1306 6192
 1407 1307 6193
 1408 1308 6194
 1409 1309 6195
 1410 1310 6196
 1411 1311 6197
 1412 1312 6198
 1413 1313 6199
 1414 1314 6200
 1415 1315 6201
 1416 1316 6202
 1417 1317 6203
 1418 1318 6204
 1419 1319 6205
 1420 1320 6206
 1421 1321 6207
 1422 1322 6208
 1423 1323 6209
 1424 1324 6210
 1425 1325 6211
 1426 1326 6212
 1427 1327 6213
 1428 1328 6214
 1429 1329 6215
 1430 1330 6216
 1431 1331 6217
 1432 1332 6218
 1433 1333 6219
 1434 1334 6220
 1435 1335 6221
 1436 1336 6222
 1437 1337 6223
 1438 1338 6224
 1439 1339 6225
 1440 1340 6226
 1441 1341 6227
 1442 1342 6228
 1443 1343 6229
 1444 1344 6230
 1445 1345 6231
 1446 1346 6232
 1447 1347 6233
 1448 1348 6234
 1449 1349 6235
 1450 1350 6236
 1451 1351 6237
 1452 1352 6238
 1453 1353 6239
 1454 1354 6240
 1455 1355 6241
 1456 1356 6242
 1457 1357 6243
 1458 1358 6244
 1459 1359 6245
 1460 1360 6246
 1461 1361 6247
 1462 1362 6248
 1463 1363 6249
 1464 1364 6250
 1465 1365 6251
 1466 1366 6252
 1467 1367 6253
 1468 1368 6254
 1469 1369 6255
 1470 1370 6256
 1471 1371 6257
 1472 1372 6258
 1473 1373 6259
 1474 1374 6260
 1475 1375 6261
 1476 1376 6262
 1477 1377 6263
 1478 1378 6264
 1479 1379 6265
 1480 1380 6266
 1481 1381 6267
 1482 1382 6268
 1483 1383 6269
 1484 1384 6270
 1485 1385 6271
 1486 1386 6272
 1487 1387 6273
 1488 1388 6274
 1489 1389 6275
 1490 1390 6276
 1491 1391 6277
 1492 1392 6278
 1493 1393 6279
 1494 1394 6280
 1495 1395 6281
 1496 1396 6282
 1497 1397 6283
 1498 1398 6284
 1499 1399 6285
 1501 1401 6286
 1502 1402 6287
 1503 1403 6288
 1504 1404 6289
 1505 1405 6290
 1506 1406 6291
 1507 1407 6292
 1508 1408 6293
 1509 1409 6294
 1510 1410 6295
 1511 1411 6296
 1512 1412 6297
 1513 1413 6298
 1514 1414 6299
 1515 1415 6300
 1516 1416 6301
 1517 1417 6302
 1518 1418 6303
 1519 1419 6304
 1520 1420 6305
 1521 1421 6306
 1522 1422 6307
 1523 1423 6308
 1524 1424 6309
 1525 1425 6310
 1526 1426 6311
 1527 1427 6312
 1528 1428 6313
 1529 1429 6314
 1530 1430 6315
 1531 1431 6316
 1532 1432 6317
 1533 1433 6318
 1534 1434 6319
 1535 1435 6320
 1536 1436 6321
 1537 1437 6322
 1538 1438 6323
 1539 1439 6324
 1540 1440 6325
 1541 1441 6326
 1542 1442 6327
 1543 1443 6328
 1544 1444 6329
 1545 1445 6330
 1546 1446 6331
 1547 1447 6332
 1548 1448 6333
 1549 1449 6334
 1550 1450 6335
 1551 1451 6336
 1552 1452 6337
 1553 1453 6338
 1554 1454 6339
 1555 1455 6340
 1556 1456 6341
 1557 1457 6342
 1558 1458 6343
 1559 1459 6344
 1560 1460 6345
 1561 1461 6346
 1562 1462 6347
 1563 1463 6348
 1564 1464 6349
 1565 1465 6350
 1566 1466 6351
 1567 1467 6352
 1568 1468 6353
 1569 1469 6354
 1570 1470 6355
 1571 1471 6356
 1572 1472 6357
 1573 1473 6358
 1574 1474 6359
 1575 1475 6360
 1576 1476 6361
 1577 1477 6362
 1578 1478 6363
 1579 1479 6364
 1580 1480 6365
 1581 1481 6366
 1582 1482 6367
 1583 1483 6368
 1584 1484 6369
 1585 1485 6370
 1586 1486 6371
 1587 1487 6372
 1588 1488 6373
 1589 1489 6374
 1590 1490 6375
 1591 1491 6376
 1592 1492 6377
 1593 1493 6378
 1594 1494 6379
 1595 1495 6380
 1596 1496 6381
 1597 1497 6382
 1598 1498 6383
 1599 1499 6384
 1601 1501 6385
 1602 1502 6386
 1603 1503 6387
 1604 1504 6388
 1605 1505 6389
 1606 1506 6390
 1607 1507 6391
 1608 1508 6392
 1609 1509 6393
 1610 1510 6394
 1611 1511 6395
 1612 1512 6396
 1613 1513 6397
 1614 1514 6398
 1615 1515 6399
 1616 1516 6400
 1617 1517 6401
 1618 1518 6402
 1619 1519 6403
 1620 1520 6404
 1621 1521 6405
 1622 1522 6406
 1623 1523 6407
 1624 1524 6408
 1625 1525 6409
 1626 1526 6410
 1627 1527 6411
 1628 1528 6412
 1629 1529 6413
 1630 1530 6414
 1631 1531 6415
 1632 1532 6416
 1633 1533 6417
 1634 1534 6418
 1635 1535 6419
 1636 1536 6420
 1637 1537 6421
 1638 1538 6422
 1639 1539 6423
 1640 1540 6424
 1641 1541 6425
 1642 1542 6426
 1643 1543 6427
 1644 1544 6428
 1645 1545 6429
 1646 1546 6430
 1647 1547 6431
 1648 1548 6432
 1649 1549 6433
 1650 1550 6434
 1651 1551 6435
 1652 1552 6436
 1653 1553 6437
 1654 1554 6438
 1655 1555 6439
 1656 1556 6440
 1657 1557 6441
 1658 1558 6442
 1659 1559 6443
 1660 1560 6444
 1661 1561 6445
 1662 1562 6446
 1663 1563 6447
 1664 1564 6448
 1665 1565 6449
 1666 1566 6450
 1667 1567 6451
 1668 1568 6452
 1669 1569 6453
 1670 1570 6454
 1671 1571 6455
 1672 1572 6456
 1673 1573 6457
 1674 1574 6458
 1675 1575 6459
 1676 1576 6460
 1677 1577 6461
 1678 1578 6462
 1679 1579 6463
 1680 1580 6464
 1681 1581 6465
 1682 1582 6466
 1683 1583 6467
 1684 1584 6468
 1685 1585 6469
 1686 1586 6470
 1687 1587 6471
 1688 1588 6472
 1689 1589 6473
 1690 1590 6474
 1691 1591 6475
 1692 1592 6476
 1693 1593 6477
 1694 1594 6478
 1695 1595 6479
 1696 1596 6480
 1697 1597 6481
 1698 1598 6482
 1699 1599 6483
 1701 1601 6484
 1702 1602 6485
 1703 1603 6486
 1704 1604 6487
 1705 1605 6488
 1706 1606 6489
 1707 1607 6490
 1708 1608 6491
 1709 1609 6492
 1710 1610 6493
 1711 1611 6494
 1712 1612 6495
 1713 1613 6496
 1714 1614 6497
 1715 1615 6498
 1716 1616 6499
 1717 1617 6500
 1718 1618 6501
 1719 1619 6502
 1720 1620 6503
 1721 1621 6504
 1722 1622 6505
 1723 1623 6506
 1724 1624 6507
 1725 1625 6508
 1726 1626 6509
 1727 1627 6510
 1728 1628 6511
 1729 1629 6512
 1730 1630 6513
 1731 1631 6514
 1732 1632 6515
 1733 1633 6516
 1734 1634 6517
 1735 1635 6518
 1736 1636 6519
 1737 1637 6520
 1738 1638 6521
 1739 1639 6522
 1740 1640 6523
 1741 1641 6524
 1742 1642 6525
 1743 1643 6526
 1744 1644 6527
 1745 1645 6528
 1746 1646 6529
 1747 1647 6530
 1748 1648 6531
 1749 1649 6532
 1750 1650 6533
 1751 1651 6534
 1752 1652 6535
 1753 1653 6536
 1754 1654 6537
 1755 1655 6538
 1756 1656 6539
 1757 1657 6540
 1758 1658 6541
 1759 1659 6542
 1760 1660 6543
 1761 1661 6544
 1762 1662 6545
 1763 1663 6546
 1764 1664 6547
 1765 1665 6548
 1766 1666 6549
 1767 1667 6550
 1768 1668 6551
 1769 1669 6552
 1770 1670 6553
 1771 1671 6554
 1772 1672 6555
 1773 1673 6556
 1774 1674 6557
 1775 1675 6558
 1776 1676 6559
 1777 1677 6560
 1778 1678 6561
 1779 1679 6562
 1780 1680 6563
 1781 1681 6564
 1782 1682 6565
 1783 1683 6566
 1784 1684 6567
 1785 1685 6568
 1786 1686 6569
 1787 1687 6570
 1788 1688 6571
 1789 1689 6572
 1790 1690 6573
 1791 1691 6574
 1792 1692 6575
 1793 1693 6576
 1794 1694 6577
 1795 1695 6578
 1796 1696 6579
 1797 1697 6580
 1798 1698 6581
 1799 1699 6582
 1801 1701 6583
 1802 1702 6584
 1803 1703 6585
 1804 1704 6586
 1805 1705 6587
 1806 1706 6588
 1807 1707 6589
 1808 1708 6590
 1809 1709 6591
 1810 1710 6592
 1811 1711 6593
 1812 1712 6594
 1813 1713 6595
 1814 1714 6596
 1815 1715 6597
 1816 1716 6598
 1817 1717 6599
 1818 1718 6600
 1819 1719 6601
 1820 1720 6602
 1821 1721 6603
 1822 1722 6604
 1823 1723 6605
 1824 1724 6606
 1825 1725 6607
 1826 1726 6608
 1827 1727 6609
 1828 1728 6610
 1829 1729 6611
 1830 1730 6612
 1831 1731 6613
 1832 1732 6614
 1833 1733 6615
 1834 1734 6616
 1835 1735 6617
 1836 1736 6618
 1837 1737 6619
 1838 1738 6620
 1839 1739 6621
 1840 1740 6622
 1841 1741 6623
 1842 1742 6624
 1843 1743 6625
 1844 1744 6626
 1845 1745 6627
 1846 1746 6628
 1847 1747 6629
 1848 1748 6630
 1849 1749 6631
 1850 1750 6632
 1851 1751 6633
 1852 1752 6634
 1853 1753 6635
 1854 1754 6636
 1855 1755 6637
 1856 1756 6638
 1857 1757 6639
 1858 1758 6640
 1859 1759 6641
 1860 1760 6642
 1861 1761 6643
 1862 1762 6644
 1863 1763 6645
 1864 1764 6646
 1865 1765 6647
 1866 1766 6648
 1867 1767 6649
 1868 1768 6650
 1869 1769 6651
 1870 1770 6652
 1871 1771 6653
 1872 1772 6654
 1873 1773 6655
 1874 1774 6656
 1875 1775 6657
 1876 1776 6658
 1877 1777 6659
 1878 1778 6660
 1879 1779 6661
 1880 1780 6662
 1881 1781 6663
 1882 1782 6664
 1883 1783 6665
 1884 1784 6666
 1885 1785 6667
 1886 1786 6668
 1887 1787 6669
 1888 1788 6670
 1889 1789 6671
 1890 1790 6672
 1891 1791 6673
 1892 1792 6674
 1893 1793 6675
 1894 1794 6676
 1895 1795 6677
 1896 1796 6678
 1897 1797 6679
 1898 1798 6680
 1899 1799 6681
 1901 1801 6682
 1902 1802 6683
 1903 1803 6684
 1904 1804 6685
 1905 1805 6686
 1906 1806 6687
 1907 1807 6688
 1908 1808 6689
 1909 1809 6690
 1910 1810 6691
 1911 1811 6692
 1912 1812 6693
 1913 1813 6694
 1914 1814 6695
 1915 1815 6696
 1916 1816 6697
 1917 1817 6698
 1918 1818 6699
 1919 1819 6700
 1920 1820 6701
 1921 1821 6702
 1922 1822 6703
 1923 1823 6704
 1924 1824 6705
 1925 1825 6706
 1926 1826 6707
 1927 1827 6708
 1928 1828 6709
 1929 1829 6710
 1930 1830 6711
 1931 1831 6712
 1932 1832 6713
 1933 1833 6714
 1934 1834 6715
 1935 1835 6716
 1936 1836 6717
 1937 1837 6718
 1938 1838 6719
 1939 1839 6720
 1940 1840 6721
 1941 1841 6722
 1942 1842 6723
 1943 1843 6724
 1944 1844 6725
 1945 1845 6726
 1946 1846 6727
 1947 1847 6728
 1948 1848 6729
 1949 1849 6730
 1950 1850 6731
 1951 1851 6732
 1952 1852 6733
 1953 1853 6734
 1954 1854 6735
 1955 1855 6736
 1956 1856 6737
 1957 1857 6738
 1958 1858 6739
 1959 1859 6740
 1960 1860 6741
 1961 1861 6742
 1962 1862 6743
 1963 1863 6744
 1964 1864 6745
 1965 1865 6746
 1966 1866 6747
 1967 1867 6748
 1968 1868 6749
 1969 1869 6750
 1970 1870 6751
 1971 1871 6752
 1972 1872 6753
 1973 1873 6754
 1974 1874 6755
 1975 1875 6756
 1976 1876 6757
 1977 1877 6758
 1978 1878 6759
 1979 1879 6760
 1980 1880 6761
 1981 1881 6762
 1982 1882 6763
 1983 1883 6764
 1984 1884 6765
 1985 1885 6766
 1986 1886 6767
 1987 1887 6768
 1988 1888 6769
 1989 1889 6770
 1990 1890 6771
 1991 1891 6772
 1992 1892 6773
 1993 1893 6774
 1994 1894 6775
 1995 1895 6776
 1996 1896 6777
 1997 1897 6778
 1998 1898 6779
 1999 1899 6780
 2001 1901 6781
 2002 1902 6782
 2003 1903 6783
 2004 1904 6784
 2005 1905 6785
 2006 1906 6786
 2007 1907 6787
 2008 1908 6788
 2009 1909 6789
 2010 1910 6790
 2011 1911 6791
 2012 1912 6792
 2013 1913 6793
 2014 1914 6794
 2015 1915 6795
 2016 1916 6796
 2017 1917 6797
 2018 1918 6798
 2019 1919 6799
 2020 1920 6800
 2021 1921 6801
 2022 1922 6802
 2023 1923 6803
 2024 1924 6804
 2025 1925 6805
 2026 1926 6806
 2027 1927 6807
 2028 1928 6808
 2029 1929 6809
 2030 1930 6810
 2031 1931 6811
 2032 1932 6812
 2033 1933 6813
 2034 1934 6814
 2035 1935 6815
 2036 1936 6816
 2037 1937 6817
 2038 1938 6818
 2039 1939 6819
 2040 1940 6820
 2041 1941 6821
 2042 1942 6822
 2043 1943 6823
 2044 1944 6824
 2045 1945 6825
 2046 1946 6826
 2047 1947 6827
 2048 1948 6828
 2049 1949 6829
 2050 1950 6830
 2051 1951 6831
 2052 1952 6832
 2053 1953 6833
 2054 1954 6834
 2055 1955 6835
 2056 1956 6836
 2057 1957 6837
 2058 1958 6838
 2059 1959 6839
 2060 1960 6840
 2061 1961 6841
 2062 1962 6842
 2063 1963 6843
 2064 1964 6844
 2065 1965 6845
 2066 1966 6846
 2067 1967 6847
 2068 1968 6848
 2069 1969 6849
 2070 1970 6850
 2071 1971 6851
 2072 1972 6852
 2073 1973 6853
 2074 1974 6854
 2075 1975 6855
 2076 1976 6856
 2077 1977 6857
 2078 1978 6858
 2079 1979 6859
 2080 1980 6860
 2081 1981 6861
 2082 1982 6862
 2083 1983 6863
 2084 1984 6864
 2085 1985 6865
 2086 1986 6866
 2087 1987 6867
 2088 1988 6868
 2089 1989 6869
 2090 1990 6870
 2091 1991 6871
 2092 1992 6872
 2093 1993 6873
 2094 1994 6874
 2095 1995 6875
 2096 1996 6876
 2097 1997 6877
 2098 1998 6878
 2099 1999 6879
 2101 2001 6880
 2102 2002 6881
 2103 2003 6882
 2104 2004 6883
 2105 2005 6884
 2106 2006 6885
 2107 2007 6886
 2108 2008 6887
 2109 2009 6888
 2110 2010 6889
 2111 2011 6890
 2112 2012 6891
 2113 2013 6892
 2114 2014 6893
 2115 2015 6894
 2116 2016 6895
 2117 2017 6896
 2118 2018 6897
 2119 2019 6898
 2120 2020 6899
 2121 2021 6900
 2122 2022 6901
 2123 2023 6902
 2124 2024 6903
 2125 2025 6904
 2126 2026 6905
 2127 2027 6906
 2128 2028 6907
 2129 2029 6908
 2130 2030 6909
 2131 2031 6910
 2132 2032 6911
 2133 2033 6912
 2134 2034 6913
 2135 2035 6914
 2136 2036 6915
 2137 2037 6916
 2138 2038 6917
 2139 2039 6918
 2140 2040 6919
 2141 2041 6920
 2142 2042 6921
 2143 2043 6922
 2144 2044 6923
 2145 2045 6924
 2146 2046 6925
 2147 2047 6926
 2148 2048 6927
 2149 2049 6928
 2150 2050 6929
 2151 2051 6930
 2152 2052 6931
 2153 2053 6932
 2154 2054 6933
 2155 2055 6934
 2156 2056 6935
 2157 2057 6936
 2158 2058 6937
 2159 2059 6938
 2160 2060 6939
 2161 2061 6940
 2162 2062 6941
 2163 2063 6942
 2164 2064 6943
 2165 2065 6944
 2166 2066 6945
 2167 2067 6946
 2168 2068 6947
 2169 2069 6948
 2170 2070 6949
 2171 2071 6950
 2172 2072 6951
 2173 2073 6952
 2174 2074 6953
 2175 2075 6954
 2176 2076 6955
 2177 2077 6956
 2178 2078 6957
 2179 2079 6958
 2180 2080 6959
 2181 2081 6960
 2182 2082 6961
 2183 2083 6962
 2184 2084 6963
 2185 2085 6964
 2186 2086 6965
 2187 2087 6966
 2188 2088 6967
 2189 2089 6968
 2190 2090 6969
 2191 2091 6970
 2192 2092 6971
 2193 2093 6972
 2194 2094 6973
 2195 2095 6974
 2196 2096 6975
 2197 2097 6976
 2198 2098 6977
 2199 2099 6978
 2201 2101 6979
 2202 2102 6980
 2203 2103 6981
 2204 2104 6982
 2205 2105 6983
 2206 2106 6984
 2207 2107 6985
 2208 2108 6986
 2209 2109 6987
 2210 2110 6988
 2211 2111 6989
 2212 2112 6990
 2213 2113 6991
 2214 2114 6992
 2215 2115 6993
 2216 2116 6994
 2217 2117 6995
 2218 2118 6996
 2219 2119 6997
 2220 2120 6998
 2221 2121 6999
 2222 2122 7000
 2223 2123 7001
 2224 2124 7002
 2225 2125 7003
 2226 2126 7004
 2227 2127 7005
 2228 2128 7006
 2229 2129 7007
 2230 2130 7008
 2231 2131 7009
 2232 2132 7010
 2233 2133 7011
 2234 2134 7012
 2235 2135 7013
 2236 2136 7014
 2237 2137 7015
 2238 2138 7016
 2239 2139 7017
 2240 2140 7018
 2241 2141 7019
 2242 2142 7020
 2243 2143 7021
 2244 2144 7022
 2245 2145 7023
 2246 2146 7024
 2247 2147 7025
 2248 2148 7026
 2249 2149 7027
 2250 2150 7028
 2251 2151 7029
 2252 2152 7030
 2253 2153 7031
 2254 2154 7032
 2255 2155 7033
 2256 2156 7034
 2257 2157 7035
 2258 2158 7036
 2259 2159 7037
 2260 2160 7038
 2261 2161 7039
 2262 2162 7040
 2263 2163 7041
 2264 2164 7042
 2265 2165 7043
 2266 2166 7044
 2267 2167 7045
 2268 2168 7046
 2269 2169 7047
 2270 2170 7048
 2271 2171 7049
 2272 2172 7050
 2273 2173 7051
 2274 2174 7052
 2275 2175 7053
 2276 2176 7054
 2277 2177 7055
 2278 2178 7056
 2279 2179 7057
 2280 2180 7058
 2281 2181 7059
 2282 2182 7060
 2283 2183 7061
 2284 2184 7062
 2285 2185 7063
 2286 2186 7064
 2287 2187 7065
 2288 2188 7066
 2289 2189 7067
 2290 2190 7068
 2291 2191 7069
 2292 2192 7070
 2293 2193 7071
 2294 2194 7072
 2295 2195 7073
 2296 2196 7074
 2297 2197 7075
 2298 2198 7076
 2299 2199 7077
 2301 2201 7078
 2302 2202 7079
 2303 2203 7080
 2304 2204 7081
 2305 2205 7082
 2306 2206 7083
 2307 2207 7084
 2308 2208 7085
 2309 2209 7086
 2310 2210 7087
 2311 2211 7088
 2312 2212 7089
 2313 2213 7090
 2314 2214 7091
 2315 2215 7092
 2316 2216 7093
 2317 2217 7094
 2318 2218 7095
 2319 2219 7096
 2320 2220 7097
 2321 2221 7098
 2322 2222 7099
 2323 2223 7100
 2324 2224 7101
 2325 2225 7102
 2326 2226 7103
 2327 2227 7104
 2328 2228 7105
 2329 2229 7106
 2330 2230 7107
 2331 2231 7108
 2332 2232 7109
 2333 2233 7110
 2334 2234 7111
 2335 2235 7112
 2336 2236 7113
 2337 2237 7114
 2338 2238 7115
 2339 2239 7116
 2340 2240 7117
 2341 2241 7118
 2342 2242 7119
 2343 2243 7120
 2344 2244 7121
 2345 2245 7122
 2346 2246 7123
 2347 2247 7124
 2348 2248 7125
 2349 2249 7126
 2350 2250 7127
 2351 2251 7128
 2352 2252 7129
 2353 2253 7130
 2354 2254 7131
 2355 2255 7132
 2356 2256 7133
 2357 2257 7134
 2358 2258 7135
 2359 2259 7136
 2360 2260 7137
 2361 2261 7138
 2362 2262 7139
 2363 2263 7140
 2364 2264 7141
 2365 2265 7142
 2366 2266 7143
 2367 2267 7144
 2368 2268 7145
 2369 2269 7146
 2370 2270 7147
 2371 2271 7148
 2372 2272 7149
 2373 2273 7150
 2374 2274 7151
 2375 2275 7152
 2376 2276 7153
 2377 2277 7154
 2378 2278 7155
 2379 2279 7156
 2380 2280 7157
 2381 2281 7158
 2382 2282 7159
 2383 2283 7160
 2384 2284 7161
 2385 2285 7162
 2386 2286 7163
 2387 2287 7164
 2388 2288 7165
 2389 2289 7166
 2390 2290 7167
 2391 2291 7168
 2392 2292 7169
 2393 2293 7170
 2394 2294 7171
 2395 2295 7172
 2396 2296 7173
 2397 2297 7174
 2398 2298 7175
 2399 2299 7176
 2401 2301 7177
 2402 2302 7178
 2403 2303 7179
 2404 2304 7180
 2405 2305 7181
 2406 2306 7182
 2407 2307 7183
 2408 2308 7184
 2409 2309 7185
 2410 2310 7186
 2411 2311 7187
 2412 2312 7188
 2413 2313 7189
 2414 2314 7190
 2415 2315 7191
 2416 2316 7192
 2417 2317 7193
 2418 2318 7194
 2419 2319 7195
 2420 2320 7196
 2421 2321 7197
 2422 2322 7198
 2423 2323 7199
 2424 2324 7200
 2425 2325 7201
 2426 2326 7202
 2427 2327 7203
 2428 2328 7204
 2429 2329 7205
 2430 2330 7206
 2431 2331 7207
 2432 2332 7208
 2433 2333 7209
 2434 2334 7210
 2435 2335 7211
 2436 2336 7212
 2437 2337 7213
 2438 2338 7214
 2439 2339 7215
 2440 2340 7216
 2441 2341 7217
 2442 2342 7218
 2443 2343 7219
 2444 2344 7220
 2445 2345 7221
 2446 2346 7222
 2447 2347 7223
 2448 2348 7224
 2449 2349 7225
 2450 2350 7226
 2451 2351 7227
 2452 2352 7228
 2453 2353 7229
 2454 2354 7230
 2455 2355 7231
 2456 2356 7232
 2457 2357 7233
 2458 2358 7234
 2459 2359 7235
 2460 2360 7236
 2461 2361 7237
 2462 2362 7238
 2463 2363 7239
 2464 2364 7240
 2465 2365 7241
 2466 2366 7242
 2467 2367 7243
 2468 2368 7244
 2469 2369 7245
 2470 2370 7246
 2471 2371 7247
 2472 2372 7248
 2473 2373 7249
 2474 2374 7250
 2475 2375 7251
 2476 2376 7252
 2477 2377 7253
 2478 2378 7254
 2479 2379 7255
 2480 2380 7256
 2481 2381 7257
 2482 2382 7258
 2483 2383 7259
 2484 2384 7260
 2485 2385 7261
 2486 2386 7262
 2487 2387 7263
 2488 2388 7264
 2489 2389 7265
 2490 2390 7266
 2491 2391 7267
 2492 2392 7268
 2493 2393 7269
 2494 2394 7270
 2495 2395 7271
 2496 2396 7272
 2497 2397 7273
 2498 2398 7274
 2499 2399 7275
 2501 2401 7276
 2502 2402 7277
 2503 2403 7278
 2504 2404 7279
 2505 2405 7280
 2506 2406 7281
 2507 2407 7282
 2508 2408 7283
 2509 2409 7284
 2510 2410 7285
 2511 2411 7286
 2512 2412 7287
 2513 2413 7288
 2514 2414 7289
 2515 2415 7290
 2516 2416 7291
 2517 2417 7292
 2518 2418 7293
 2519 2419 7294
 2520 2420 7295
 2521 2421 7296
 2522 2422 7297
 2523 2423 7298
 2524 2424 7299
 2525 2425 7300
 2526 2426 7301
 2527 2427 7302
 2528 2428 7303
 2529 2429 7304
 2530 2430 7305
 2531 2431 7306
 2532 2432 7307
 2533 2433 7308
 2534 2434 7309
 2535 2435 7310
 2536 2436 7311
 2537 2437 7312
 2538 2438 7313
 2539 2439 7314
 2540 2440 7315
 2541 2441 7316
 2542 2442 7317
 2543 2443 7318
 2544 2444 7319
 2545 2445 7320
 2546 2446 7321
 2547 2447 7322
 2548 2448 7323
 2549 2449 7324
 2550 2450 7325
 2551 2451 7326
 2552 2452 7327
 2553 2453 7328
 2554 2454 7329
 2555 2455 7330
 2556 2456 7331
 2557 2457 7332
 2558 2458 7333
 2559 2459 7334
 2560 2460 7335
 2561 2461 7336
 2562 2462 7337
 2563 2463 7338
 2564 2464 7339
 2565 2465 7340
 2566 2466 7341
 2567 2467 7342
 2568 2468 7343
 2569 2469 7344
 2570 2470 7345
 2571 2471 7346
 2572 2472 7347
 2573 2473 7348
 2574 2474 7349
 2575 2475 7350
 2576 2476 7351
 2577 2477 7352
 2578 2478 7353
 2579 2479 7354
 2580 2480 7355
 2581 2481 7356
 2582 2482 7357
 2583 2483 7358
 2584 2484 7359
 2585 2485 7360
 2586 2486 7361
 2587 2487 7362
 2588 2488 7363
 2589 2489 7364
 2590 2490 7365
 2591 2491 7366
 2592 2492 7367
 2593 2493 7368
 2594 2494 7369
 2595 2495 7370
 2596 2496 7371
 2597 2497 7372
 2598 2498 7373
 2599 2499 7374
 2601 2501 7375
 2602 2502 7376
 2603 2503 7377
 2604 2504 7378
 2605 2505 7379
 2606 2506 7380
 2607 2507 7381
 2608 2508 7382
 2609 2509 7383
 2610 2510 7384
 2611 2511 7385
 2612 2512 7386
 2613 2513 7387
 2614 2514 7388
 2615 2515 7389
 2616 2516 7390
 2617 2517 7391
 2618 2518 7392
 2619 2519 7393
 2620 2520 7394
 2621 2521 7395
 2622 2522 7396
 2623 2523 7397
 2624 2524 7398
 2625 2525 7399
 2626 2526 7400
 2627 2527 7401
 2628 2528 7402
 2629 2529 7403
 2630 2530 7404
 2631 2531 7405
 2632 2532 7406
 2633 2533 7407
 2634 2534 7408
 2635 2535 7409
 2636 2536 7410
 2637 2537 7411
 2638 2538 7412
 2639 2539 7413
 2640 2540 7414
 2641 2541 7415
 2642 2542 7416
 2643 2543 7417
 2644 2544 7418
 2645 2545 7419
 2646 2546 7420
 2647 2547 7421
 2648 2548 7422
 2649 2549 7423
 2650 2550 7424
 2651 2551 7425
 2652 2552 7426
 2653 2553 7427
 2654 2554 7428
 2655 2555 7429
 2656 2556 7430
 2657 2557 7431
 2658 2558 7432
 2659 2559 7433
 2660 2560 7434
 2661 2561 7435
 2662 2562 7436
 2663 2563 7437
 2664 2564 7438
 2665 2565 7439
 2666 2566 7440
 2667 2567 7441
 2668 2568 7442
 2669 2569 7443
 2670 2570 7444
 2671 2571 7445
 2672 2572 7446
 2673 2573 7447
 2674 2574 7448
 2675 2575 7449
 2676 2576 7450
 2677 2577 7451
 2678 2578 7452
 2679 2579 7453
 2680 2580 7454
 2681 2581 7455
 2682 2582 7456
 2683 2583 7457
 2684 2584 7458
 2685 2585 7459
 2686 2586 7460
 2687 2587 7461
 2688 2588 7462
 2689 2589 7463
 2690 2590 7464
 2691 2591 7465
 2692 2592 7466
 2693 2593 7467
 2694 2594 7468
 2695 2595 7469
 2696 2596 7470
 2697 2597 7471
 2698 2598 7472
 2699 2599 7473
 2701 2601 7474
 2702 2602 7475
 2703 2603 7476
 2704 2604 7477
 2705 2605 7478
 2706 2606 7479
 2707 2607 7480
 2708 2608 7481
 2709 2609 7482
 2710 2610 7483
 2711 2611 7484
 2712 2612 7485
 2713 2613 7486
 2714 2614 7487
 2715 2615 7488
 2716 2616 7489
 2717 2617 7490
 2718 2618 7491
 2719 2619 7492
 2720 2620 7493
 2721 2621 7494
 2722 2622 7495
 2723 2623 7496
 2724 2624 7497
 2725 2625 7498
 2726 2626 7499
 2727 2627 7500
 2728 2628 7501
 2729 2629 7502
 2730 2630 7503
 2731 2631 7504
 2732 2632 7505
 2733 2633 7506
 2734 2634 7507
 2735 2635 7508
 2736 2636 7509
 2737 2637 7510
 2738 2638 7511
 2739 2639 7512
 2740 2640 7513
 2741 2641 7514
 2742 2642 7515
 2743 2643 7516
 2744 2644 7517
 2745 2645 7518
 2746 2646 7519
 2747 2647 7520
 2748 2648 7521
 2749 2649 7522
 2750 2650 7523
 2751 2651 7524
 2752 2652 7525
 2753 2653 7526
 2754 2654 7527
 2755 2655 7528
 2756 2656 7529
 2757 2657 7530
 2758 2658 7531
 2759 2659 7532
 2760 2660 7533
 2761 2661 7534
 2762 2662 7535
 2763 2663 7536
 2764 2664 7537
 2765 2665 7538
 2766 2666 7539
 2767 2667 7540
 2768 2668 7541
 2769 2669 7542
 2770 2670 7543
 2771 2671 7544
 2772 2672 7545
 2773 2673 7546
 2774 2674 7547
 2775 2675 7548
 2776 2676 7549
 2777 2677 7550
 2778 2678 7551
 2779 2679 7552
 2780 2680 7553
 2781 2681 7554
 2782 2682 7555
 2783 2683 7556
 2784 2684 7557
 2785 2685 7558
 2786 2686 7559
 2787 2687 7560
 2788 2688 7561
 2789 2689 7562
 2790 2690 7563
 2791 2691 7564
 2792 2692 7565
 2793 2693 7566
 2794 2694 7567
 2795 2695 7568
 2796 2696 7569
 2797 2697 7570
 2798 2698 7571
 2799 2699 7572
 2801 2701 7573
 2802 2702 7574
 2803 2703 7575
 2804 2704 7576
 2805 2705 7577
 2806 2706 7578
 2807 2707 7579
 2808 2708 7580
 2809 2709 7581
 2810 2710 7582
 2811 2711 7583
 2812 2712 7584
 2813 2713 7585
 2814 2714 7586
 2815 2715 7587
 2816 2716 7588
 2817 2717 7589
 2818 2718 7590
 2819 2719 7591
 2820 2720 7592
 2821 2721 7593
 2822 2722 7594
 2823 2723 7595
 2824 2724 7596
 2825 2725 7597
 2826 2726 7598
 2827 2727 7599
 2828 2728 7600
 2829 2729 7601
 2830 2730 7602
 2831 2731 7603
 2832 2732 7604
 2833 2733 7605
 2834 2734 7606
 2835 2735 7607
 2836 2736 7608
 2837 2737 7609
 2838 2738 7610
 2839 2739 7611
 2840 2740 7612
 2841 2741 7613
 2842 2742 7614
 2843 2743 7615
 2844 2744 7616
 2845 2745 7617
 2846 2746 7618
 2847 2747 7619
 2848 2748 7620
 2849 2749 7621
 2850 2750 7622
 2851 2751 7623
 2852 2752 7624
 2853 2753 7625
 2854 2754 7626
 2855 2755 7627
 2856 2756 7628
 2857 2757 7629
 2858 2758 7630
 2859 2759 7631
 2860 2760 7632
 2861 2761 7633
 2862 2762 7634
 2863 2763 7635
 2864 2764 7636
 2865 2765 7637
 2866 2766 7638
 2867 2767 7639
 2868 2768 7640
 2869 2769 7641
 2870 2770 7642
 2871 2771 7643
 2872 2772 7644
 2873 2773 7645
 2874 2774 7646
 2875 2775 7647
 2876 2776 7648
 2877 2777 7649
 2878 2778 7650
 2879 2779 7651
 2880 2780 7652
 2881 2781 7653
 2882 2782 7654
 2883 2783 7655
 2884 2784 7656
 2885 2785 7657
 2886 2786 7658
 2887 2787 7659
 2888 2788 7660
 2889 2789 7661
 2890 2790 7662
 2891 2791 7663
 2892 2792 7664
 2893 2793 7665
 2894 2794 7666
 2895 2795 7667
 2896 2796 7668
 2897 2797 7669
 2898 2798 7670
 2899 2799 7671
 2901 2801 7672
 2902 2802 7673
 2903 2803 7674
 2904 2804 7675
 2905 2805 7676
 2906 2806 7677
 2907 2807 7678
 2908 2808 7679
 2909 2809 7680
 2910 2810 7681
 2911 2811 7682
 2912 2812 7683
 2913 2813 7684
 2914 2814 7685
 2915 2815 7686
 2916 2816 7687
 2917 2817 7688
 2918 2818 7689
 2919 2819 7690
 2920 2820 7691
 2921 2821 7692
 2922 2822 7693
 2923 2823 7694
 2924 2824 7695
 2925 2825 7696
 2926 2826 7697
 2927 2827 7698
 2928 2828 7699
 2929 2829 7700
 2930 2830 7701
 2931 2831 7702
 2932 2832 7703
 2933 2833 7704
 2934 2834 7705
 2935 2835 7706
 2936 2836 7707
 2937 2837 7708
 2938 2838 7709
 2939 2839 7710
 2940 2840 7711
 2941 2841 7712
 2942 2842 7713
 2943 2843 7714
 2944 2844 7715
 2945 2845 7716
 2946 2846 7717
 2947 2847 7718
 2948 2848 7719
 2949 2849 7720
 2950 2850 7721
 2951 2851 7722
 2952 2852 7723
 2953 2853 7724
 2954 2854 7725
 2955 2855 7726
 2956 2856 7727
 2957 2857 7728
 2958 2858 7729
 2959 2859 7730
 2960 2860 7731
 2961 2861 7732
 2962 2862 7733
 2963 2863 7734
 2964 2864 7735
 2965 2865 7736
 2966 2866 7737
 2967 2867 7738
 2968 2868 7739
 2969 2869 7740
 2970 2870 7741
 2971 2871 7742
 2972 2872 7743
 2973 2873 7744
 2974 2874 7745
 2975 2875 7746
 2976 2876 7747
 2977 2877 7748
 2978 2878 7749
 2979 2879 7750
 2980 2880 7751
 2981 2881 7752
 2982 2882 7753
 2983 2883 7754
 2984 2884 7755
 2985 2885 7756
 2986 2886 7757
 2987 2887 7758
 2988 2888 7759
 2989 2889 7760
 2990 2890 7761
 2991 2891 7762
 2992 2892 7763
 2993 2893 7764
 2994 2894 7765
 2995 2895 7766
 2996 2896 7767
 2997 2897 7768
 2998 2898 7769
 2999 2899 7770
 3001 2901 7771
 3002 2902 7772
 3003 2903 7773
 3004 2904 7774
 3005 2905 7775
 3006 2906 7776
 3007 2907 7777
 3008 2908 7778
 3009 2909 7779
 3010 2910 7780
 3011 2911 7781
 3012 2912 7782
 3013 2913 7783
 3014 2914 7784
 3015 2915 7785
 3016 2916 7786
 3017 2917 7787
 3018 2918 7788
 3019 2919 7789
 3020 2920 7790
 3021 2921 7791
 3022 2922 7792
 3023 2923 7793
 3024 2924 7794
 3025 2925 7795
 3026 2926 7796
 3027 2927 7797
 3028 2928 7798
 3029 2929 7799
 3030 2930 7800
 3031 2931 7801
 3032 2932 7802
 3033 2933 7803
 3034 2934 7804
 3035 2935 7805
 3036 2936 7806
 3037 2937 7807
 3038 2938 7808
 3039 2939 7809
 3040 2940 7810
 3041 2941 7811
 3042 2942 7812
 3043 2943 7813
 3044 2944 7814
 3045 2945 7815
 3046 2946 7816
 3047 2947 7817
 3048 2948 7818
 3049 2949 7819
 3050 2950 7820
 3051 2951 7821
 3052 2952 7822
 3053 2953 7823
 3054 2954 7824
 3055 2955 7825
 3056 2956 7826
 3057 2957 7827
 3058 2958 7828
 3059 2959 7829
 3060 2960 7830
 3061 2961 7831
 3062 2962 7832
 3063 2963 7833
 3064 2964 7834
 3065 2965 7835
 3066 2966 7836
 3067 2967 7837
 3068 2968 7838
 3069 2969 7839
 3070 2970 7840
 3071 2971 7841
 3072 2972 7842
 3073 2973 7843
 3074 2974 7844
 3075 2975 7845
 3076 2976 7846
 3077 2977 7847
 3078 2978 7848
 3079 2979 7849
 3080 2980 7850
 3081 2981 7851
 3082 2982 7852
 3083 2983 7853
 3084 2984 7854
 3085 2985 7855
 3086 2986 7856
 3087 2987 7857
 3088 2988 7858
 3089 2989 7859
 3090 2990 7860
 3091 2991 7861
 3092 2992 7862
 3093 2993 7863
 3094 2994 7864
 3095 2995 7865
 3096 2996 7866
 3097 2997 7867
 3098 2998 7868
 3099 2999 7869
 3101 3001 7870
 3102 3002 7871
 3103 3003 7872
 3104 3004 7873
 3105 3005 7874
 3106 3006 7875
 3107 3007 7876
 3108 3008 7877
 3109 3009 7878
 3110 3010 7879
 3111 3011 7880
 3112 3012 7881
 3113 3013 7882
 3114 3014 7883
 3115 3015 7884
 3116 3016 7885
 3117 3017 7886
 3118 3018 7887
 3119 3019 7888
 3120 3020 7889
 3121 3021 7890
 3122 3022 7891
 3123 3023 7892
 3124 3024 7893
 3125 3025 7894
 3126 3026 7895
 3127 3027 7896
 3128 3028 7897
 3129 3029 7898
 3130 3030 7899
 3131 3031 7900
 3132 3032 7901
 3133 3033 7902
 3134 3034 7903
 3135 3035 7904
 3136 3036 7905
 3137 3037 7906
 3138 3038 7907
 3139 3039 7908
 3140 3040 7909
 3141 3041 7910
 3142 3042 7911
 3143 3043 7912
 3144 3044 7913
 3145 3045 7914
 3146 3046 7915
 3147 3047 7916
 3148 3048 7917
 3149 3049 7918
 3150 3050 7919
 3151 3051 7920
 3152 3052 7921
 3153 3053 7922
 3154 3054 7923
 3155 3055 7924
 3156 3056 7925
 3157 3057 7926
 3158 3058 7927
 3159 3059 7928
 3160 3060 7929
 3161 3061 7930
 3162 3062 7931
 3163 3063 7932
 3164 3064 7933
 3165 3065 7934
 3166 3066 7935
 3167 3067 7936
 3168 3068 7937
 3169 3069 7938
 3170 3070 7939
 3171 3071 7940
 3172 3072 7941
 3173 3073 7942
 3174 3074 7943
 3175 3075 7944
 3176 3076 7945
 3177 3077 7946
 3178 3078 7947
 3179 3079 7948
 3180 3080 7949
 3181 3081 7950
 3182 3082 7951
 3183 3083 7952
 3184 3084 7953
 3185 3085 7954
 3186 3086 7955
 3187 3087 7956
 3188 3088 7957
 3189 3089 7958
 3190 3090 7959
 3191 3091 7960
 3192 3092 7961
 3193 3093 7962
 3194 3094 7963
 3195 3095 7964
 3196 3096 7965
 3197 3097 7966
 3198 3098 7967
 3199 3099 7968
 3201 3101 7969
 3202 3102 7970
 3203 3103 7971
 3204 3104 7972
 3205 3105 7973
 3206 3106 7974
 3207 3107 7975
 3208 3108 7976
 3209 3109 7977
 3210 3110 7978
 3211 3111 7979
 3212 3112 7980
 3213 3113 7981
 3214 3114 7982
 3215 3115 7983
 3216 3116 7984
 3217 3117 7985
 3218 3118 7986
 3219 3119 7987
 3220 3120 7988
 3221 3121 7989
 3222 3122 7990
 3223 3123 7991
 3224 3124 7992
 3225 3125 7993
 3226 3126 7994
 3227 3127 7995
 3228 3128 7996
 3229 3129 7997
 3230 3130 7998
 3231 3131 7999
 3232 3132 8000
 3233 3133 8001
 3234 3134 8002
 3235 3135 8003
 3236 3136 8004
 3237 3137 8005
 3238 3138 8006
 3239 3139 8007
 3240 3140 8008
 3241 3141 8009
 3242 3142 8010
 3243 3143 8011
 3244 3144 8012
 3245 3145 8013
 3246 3146 8014
 3247 3147 8015
 3248 3148 8016
 3249 3149 8017
 3250 3150 8018
 3251 3151 8019
 3252 3152 8020
 3253 3153 8021
 3254 3154 8022
 3255 3155 8023
 3256 3156 8024
 3257 3157 8025
 3258 3158 8026
 3259 3159 8027
 3260 3160 8028
 3261 3161 8029
 3262 3162 8030
 3263 3163 8031
 3264 3164 8032
 3265 3165 8033
 3266 3166 8034
 3267 3167 8035
 3268 3168 8036
 3269 3169 8037
 3270 3170 8038
 3271 3171 8039
 3272 3172 8040
 3273 3173 8041
 3274 3174 8042
 3275 3175 8043
 3276 3176 8044
 3277 3177 8045
 3278 3178 8046
 3279 3179 8047
 3280 3180 8048
 3281 3181 8049
 3282 3182 8050
 3283 3183 8051
 3284 3184 8052
 3285 3185 8053
 3286 3186 8054
 3287 3187 8055
 3288 3188 8056
 3289 3189 8057
 3290 3190 8058
 3291 3191 8059
 3292 3192 8060
 3293 3193 8061
 3294 3194 8062
 3295 3195 8063
 3296 3196 8064
 3297 3197 8065
 3298 3198 8066
 3299 3199 8067
 3301 3201 8068
 3302 3202 8069
 3303 3203 8070
 3304 3204 8071
 3305 3205 8072
 3306 3206 8073
 3307 3207 8074
 3308 3208 8075
 3309 3209 8076
 3310 3210 8077
 3311 3211 8078
 3312 3212 8079
 3313 3213 8080
 3314 3214 8081
 3315 3215 8082
 3316 3216 8083
 3317 3217 8084
 3318 3218 8085
 3319 3219 8086
 3320 3220 8087
 3321 3221 8088
 3322 3222 8089
 3323 3223 8090
 3324 3224 8091
 3325 3225 8092
 3326 3226 8093
 3327 3227 8094
 3328 3228 8095
 3329 3229 8096
 3330 3230 8097
 3331 3231 8098
 3332 3232 8099
 3333 3233 8100
 3334 3234 8101
 3335 3235 8102
 3336 3236 8103
 3337 3237 8104
 3338 3238 8105
 3339 3239 8106
 3340 3240 8107
 3341 3241 8108
 3342 3242 8109
 3343 3243 8110
 3344 3244 8111
 3345 3245 8112
 3346 3246 8113
 3347 3247 8114
 3348 3248 8115
 3349 3249 8116
 3350 3250 8117
 3351 3251 8118
 3352 3252 8119
 3353 3253 8120
 3354 3254 8121
 3355 3255 8122
 3356 3256 8123
 3357 3257 8124
 3358 3258 8125
 3359 3259 8126
 3360 3260 8127
 3361 3261 8128
 3362 3262 8129
 3363 3263 8130
 3364 3264 8131
 3365 3265 8132
 3366 3266 8133
 3367 3267 8134
 3368 3268 8135
 3369 3269 8136
 3370 3270 8137
 3371 3271 8138
 3372 3272 8139
 3373 3273 8140
 3374 3274 8141
 3375 3275 8142
 3376 3276 8143
 3377 3277 8144
 3378 3278 8145
 3379 3279 8146
 3380 3280 8147
 3381 3281 8148
 3382 3282 8149
 3383 3283 8150
 3384 3284 8151
 3385 3285 8152
 3386 3286 8153
 3387 3287 8154
 3388 3288 8155
 3389 3289 8156
 3390 3290 8157
 3391 3291 8158
 3392 3292 8159
 3393 3293 8160
 3394 3294 8161
 3395 3295 8162
 3396 3296 8163
 3397 3297 8164
 3398 3298 8165
 3399 3299 8166
 3401 3301 8167
 3402 3302 8168
 3403 3303 8169
 3404 3304 8170
 3405 3305 8171
 3406 3306 8172
 3407 3307 8173
 3408 3308 8174
 3409 3309 8175
 3410 3310 8176
 3411 3311 8177
 3412 3312 8178
 3413 3313 8179
 3414 3314 8180
 3415 3315 8181
 3416 3316 8182
 3417 3317 8183
 3418 3318 8184
 3419 3319 8185
 3420 3320 8186
 3421 3321 8187
 3422 3322 8188
 3423 3323 8189
 3424 3324 8190
 3425 3325 8191
 3426 3326 8192
 3427 3327 8193
 3428 3328 8194
 3429 3329 8195
 3430 3330 8196
 3431 3331 8197
 3432 3332 8198
 3433 3333 8199
 3434 3334 8200
 3435 3335 8201
 3436 3336 8202
 3437 3337 8203
 3438 3338 8204
 3439 3339 8205
 3440 3340 8206
 3441 3341 8207
 3442 3342 8208
 3443 3343 8209
 3444 3344 8210
 3445 3345 8211
 3446 3346 8212
 3447 3347 8213
 3448 3348 8214
 3449 3349 8215
 3450 3350 8216
 3451 3351 8217
 3452 3352 8218
 3453 3353 8219
 3454 3354 8220
 3455 3355 8221
 3456 3356 8222
 3457 3357 8223
 3458 3358 8224
 3459 3359 8225
 3460 3360 8226
 3461 3361 8227
 3462 3362 8228
 3463 3363 8229
 3464 3364 8230
 3465 3365 8231
 3466 3366 8232
 3467 3367 8233
 3468 3368 8234
 3469 3369 8235
 3470 3370 8236
 3471 3371 8237
 3472 3372 8238
 3473 3373 8239
 3474 3374 8240
 3475 3375 8241
 3476 3376 8242
 3477 3377 8243
 3478 3378 8244
 3479 3379 8245
 3480 3380 8246
 3481 3381 8247
 3482 3382 8248
 3483 3383 8249
 3484 3384 8250
 3485 3385 8251
 3486 3386 8252
 3487 3387 8253
 3488 3388 8254
 3489 3389 8255
 3490 3390 8256
 3491 3391 8257
 3492 3392 8258
 3493 3393 8259
 3494 3394 8260
 3495 3395 8261
 3496 3396 8262
 3497 3397 8263
 3498 3398 8264
 3499 3399 8265
 3501 3401 8266
 3502 3402 8267
 3503 3403 8268
 3504 3404 8269
 3505 3405 8270
 3506 3406 8271
 3507 3407 8272
 3508 3408 8273
 3509 3409 8274
 3510 3410 8275
 3511 3411 8276
 3512 3412 8277
 3513 3413 8278
 3514 3414 8279
 3515 3415 8280
 3516 3416 8281
 3517 3417 8282
 3518 3418 8283
 3519 3419 8284
 3520 3420 8285
 3521 3421 8286
 3522 3422 8287
 3523 3423 8288
 3524 3424 8289
 3525 3425 8290
 3526 3426 8291
 3527 3427 8292
 3528 3428 8293
 3529 3429 8294
 3530 3430 8295
 3531 3431 8296
 3532 3432 8297
 3533 3433 8298
 3534 3434 8299
 3535 3435 8300
 3536 3436 8301
 3537 3437 8302
 3538 3438 8303
 3539 3439 8304
 3540 3440 8305
 3541 3441 8306
 3542 3442 8307
 3543 3443 8308
 3544 3444 8309
 3545 3445 8310
 3546 3446 8311
 3547 3447 8312
 3548 3448 8313
 3549 3449 8314
 3550 3450 8315
 3551 3451 8316
 3552 3452 8317
 3553 3453 8318
 3554 3454 8319
 3555 3455 8320
 3556 3456 8321
 3557 3457 8322
 3558 3458 8323
 3559 3459 8324
 3560 3460 8325
 3561 3461 8326
 3562 3462 8327
 3563 3463 8328
 3564 3464 8329
 3565 3465 8330
 3566 3466 8331
 3567 3467 8332
 3568 3468 8333
 3569 3469 8334
 3570 3470 8335
 3571 3471 8336
 3572 3472 8337
 3573 3473 8338
 3574 3474 8339
 3575 3475 8340
 3576 3476 8341
 3577 3477 8342
 3578 3478 8343
 3579 3479 8344
 3580 3480 8345
 3581 3481 8346
 3582 3482 8347
 3583 3483 8348
 3584 3484 8349
 3585 3485 8350
 3586 3486 8351
 3587 3487 8352
 3588 3488 8353
 3589 3489 8354
 3590 3490 8355
 3591 3491 8356
 3592 3492 8357
 3593 3493 8358
 3594 3494 8359
 3595 3495 8360
 3596 3496 8361
 3597 3497 8362
 3598 3498 8363
 3599 3499 8364
 3601 3501 8365
 3602 3502 8366
 3603 3503 8367
 3604 3504 8368
 3605 3505 8369
 3606 3506 8370
 3607 3507 8371
 3608 3508 8372
 3609 3509 8373
 3610 3510 8374
 3611 3511 8375
 3612 3512 8376
 3613 3513 8377
 3614 3514 8378
 3615 3515 8379
 3616 3516 8380
 3617 3517 8381
 3618 3518 8382
 3619 3519 8383
 3620 3520 8384
 3621 3521 8385
 3622 3522 8386
 3623 3523 8387
 3624 3524 8388
 3625 3525 8389
 3626 3526 8390
 3627 3527 8391
 3628 3528 8392
 3629 3529 8393
 3630 3530 8394
 3631 3531 8395
 3632 3532 8396
 3633 3533 8397
 3634 3534 8398
 3635 3535 8399
 3636 3536 8400
 3637 3537 8401
 3638 3538 8402
 3639 3539 8403
 3640 3540 8404
 3641 3541 8405
 3642 3542 8406
 3643 3543 8407
 3644 3544 8408
 3645 3545 8409
 3646 3546 8410
 3647 3547 8411
 3648 3548 8412
 3649 3549 8413
 3650 3550 8414
 3651 3551 8415
 3652 3552 8416
 3653 3553 8417
 3654 3554 8418
 3655 3555 8419
 3656 3556 8420
 3657 3557 8421
 3658 3558 8422
 3659 3559 8423
 3660 3560 8424
 3661 3561 8425
 3662 3562 8426
 3663 3563 8427
 3664 3564 8428
 3665 3565 8429
 3666 3566 8430
 3667 3567 8431
 3668 3568 8432
 3669 3569 8433
 3670 3570 8434
 3671 3571 8435
 3672 3572 8436
 3673 3573 8437
 3674 3574 8438
 3675 3575 8439
 3676 3576 8440
 3677 3577 8441
 3678 3578 8442
 3679 3579 8443
 3680 3580 8444
 3681 3581 8445
 3682 3582 8446
 3683 3583 8447
 3684 3584 8448
 3685 3585 8449
 3686 3586 8450
 3687 3587 8451
 3688 3588 8452
 3689 3589 8453
 3690 3590 8454
 3691 3591 8455
 3692 3592 8456
 3693 3593 8457
 3694 3594 8458
 3695 3595 8459
 3696 3596 8460
 3697 3597 8461
 3698 3598 8462
 3699 3599 8463
 3701 3601 8464
 3702 3602 8465
 3703 3603 8466
 3704 3604 8467
 3705 3605 8468
 3706 3606 8469
 3707 3607 8470
 3708 3608 8471
 3709 3609 8472
 3710 3610 8473
 3711 3611 8474
 3712 3612 8475
 3713 3613 8476
 3714 3614 8477
 3715 3615 8478
 3716 3616 8479
 3717 3617 8480
 3718 3618 8481
 3719 3619 8482
 3720 3620 8483
 3721 3621 8484
 3722 3622 8485
 3723 3623 8486
 3724 3624 8487
 3725 3625 8488
 3726 3626 8489
 3727 3627 8490
 3728 3628 8491
 3729 3629 8492
 3730 3630 8493
 3731 3631 8494
 3732 3632 8495
 3733 3633 8496
 3734 3634 8497
 3735 3635 8498
 3736 3636 8499
 3737 3637 8500
 3738 3638 8501
 3739 3639 8502
 3740 3640 8503
 3741 3641 8504
 3742 3642 8505
 3743 3643 8506
 3744 3644 8507
 3745 3645 8508
 3746 3646 8509
 3747 3647 8510
 3748 3648 8511
 3749 3649 8512
 3750 3650 8513
 3751 3651 8514
 3752 3652 8515
 3753 3653 8516
 3754 3654 8517
 3755 3655 8518
 3756 3656 8519
 3757 3657 8520
 3758 3658 8521
 3759 3659 8522
 3760 3660 8523
 3761 3661 8524
 3762 3662 8525
 3763 3663 8526
 3764 3664 8527
 3765 3665 8528
 3766 3666 8529
 3767 3667 8530
 3768 3668 8531
 3769 3669 8532
 3770 3670 8533
 3771 3671 8534
 3772 3672 8535
 3773 3673 8536
 3774 3674 8537
 3775 3675 8538
 3776 3676 8539
 3777 3677 8540
 3778 3678 8541
 3779 3679 8542
 3780 3680 8543
 3781 3681 8544
 3782 3682 8545
 3783 3683 8546
 3784 3684 8547
 3785 3685 8548
 3786 3686 8549
 3787 3687 8550
 3788 3688 8551
 3789 3689 8552
 3790 3690 8553
 3791 3691 8554
 3792 3692 8555
 3793 3693 8556
 3794 3694 8557
 3795 3695 8558
 3796 3696 8559
 3797 3697 8560
 3798 3698 8561
 3799 3699 8562
 3801 3701 8563
 3802 3702 8564
 3803 3703 8565
 3804 3704 8566
 3805 3705 8567
 3806 3706 8568
 3807 3707 8569
 3808 3708 8570
 3809 3709 8571
 3810 3710 8572
 3811 3711 8573
 3812 3712 8574
 3813 3713 8575
 3814 3714 8576
 3815 3715 8577
 3816 3716 8578
 3817 3717 8579
 3818 3718 8580
 3819 3719 8581
 3820 3720 8582
 3821 3721 8583
 3822 3722 8584
 3823 3723 8585
 3824 3724 8586
 3825 3725 8587
 3826 3726 8588
 3827 3727 8589
 3828 3728 8590
 3829 3729 8591
 3830 3730 8592
 3831 3731 8593
 3832 3732 8594
 3833 3733 8595
 3834 3734 8596
 3835 3735 8597
 3836 3736 8598
 3837 3737 8599
 3838 3738 8600
 3839 3739 8601
 3840 3740 8602
 3841 3741 8603
 3842 3742 8604
 3843 3743 8605
 3844 3744 8606
 3845 3745 8607
 3846 3746 8608
 3847 3747 8609
 3848 3748 8610
 3849 3749 8611
 3850 3750 8612
 3851 3751 8613
 3852 3752 8614
 3853 3753 8615
 3854 3754 8616
 3855 3755 8617
 3856 3756 8618
 3857 3757 8619
 3858 3758 8620
 3859 3759 8621
 3860 3760 8622
 3861 3761 8623
 3862 3762 8624
 3863 3763 8625
 3864 3764 8626
 3865 3765 8627
 3866 3766 8628
 3867 3767 8629
 3868 3768 8630
 3869 3769 8631
 3870 3770 8632
 3871 3771 8633
 3872 3772 8634
 3873 3773 8635
 3874 3774 8636
 3875 3775 8637
 3876 3776 8638
 3877 3777 8639
 3878 3778 8640
 3879 3779 8641
 3880 3780 8642
 3881 3781 8643
 3882 3782 8644
 3883 3783 8645
 3884 3784 8646
 3885 3785 8647
 3886 3786 8648
 3887 3787 8649
 3888 3788 8650
 3889 3789 8651
 3890 3790 8652
 3891 3791 8653
 3892 3792 8654
 3893 3793 8655
 3894 3794 8656
 3895 3795 8657
 3896 3796 8658
 3897 3797 8659
 3898 3798 8660
 3899 3799 8661
 3901 3801 8662
 3902 3802 8663
 3903 3803 8664
 3904 3804 8665
 3905 3805 8666
 3906 3806 8667
 3907 3807 8668
 3908 3808 8669
 3909 3809 8670
 3910 3810 8671
 3911 3811 8672
 3912 3812 8673
 3913 3813 8674
 3914 3814 8675
 3915 3815 8676
 3916 3816 8677
 3917 3817 8678
 3918 3818 8679
 3919 3819 8680
 3920 3820 8681
 3921 3821 8682
 3922 3822 8683
 3923 3823 8684
 3924 3824 8685
 3925 3825 8686
 3926 3826 8687
 3927 3827 8688
 3928 3828 8689
 3929 3829 8690
 3930 3830 8691
 3931 3831 8692
 3932 3832 8693
 3933 3833 8694
 3934 3834 8695
 3935 3835 8696
 3936 3836 8697
 3937 3837 8698
 3938 3838 8699
 3939 3839 8700
 3940 3840 8701
 3941 3841 8702
 3942 3842 8703
 3943 3843 8704
 3944 3844 8705
 3945 3845 8706
 3946 3846 8707
 3947 3847 8708
 3948 3848 8709
 3949 3849 8710
 3950 3850 8711
 3951 3851 8712
 3952 3852 8713
 3953 3853 8714
 3954 3854 8715
 3955 3855 8716
 3956 3856 8717
 3957 3857 8718
 3958 3858 8719
 3959 3859 8720
 3960 3860 8721
 3961 3861 8722
 3962 3862 8723
 3963 3863 8724
 3964 3864 8725
 3965 3865 8726
 3966 3866 8727
 3967 3867 8728
 3968 3868 8729
 3969 3869 8730
 3970 3870 8731
 3971 3871 8732
 3972 3872 8733
 3973 3873 8734
 3974 3874 8735
 3975 3875 8736
 3976 3876 8737
 3977 3877 8738
 3978 3878 8739
 3979 3879 8740
 3980 3880 8741
 3981 3881 8742
 3982 3882 8743
 3983 3883 8744
 3984 3884 8745
 3985 3885 8746
 3986 3886 8747
 3987 3887 8748
 3988 3888 8749
 3989 3889 8750
 3990 3890 8751
 3991 3891 8752
 3992 3892 8753
 3993 3893 8754
 3994 3894 8755
 3995 3895 8756
 3996 3896 8757
 3997 3897 8758
 3998 3898 8759
 3999 3899 8760
 4001 3901 8761
 4002 3902 8762
 4003 3903 8763
 4004 3904 8764
 4005 3905 8765
 4006 3906 8766
 4007 3907 8767
 4008 3908 8768
 4009 3909 8769
 4010 3910 8770
 4011 3911 8771
 4012 3912 8772
 4013 3913 8773
 4014 3914 8774
 4015 3915 8775
 4016 3916 8776
 4017 3917 8777
 4018 3918 8778
 4019 3919 8779
 4020 3920 8780
 4021 3921 8781
 4022 3922 8782
 4023 3923 8783
 4024 3924 8784
 4025 3925 8785
 4026 3926 8786
 4027 3927 8787
 4028 3928 8788
 4029 3929 8789
 4030 3930 8790
 4031 3931 8791
 4032 3932 8792
 4033 3933 8793
 4034 3934 8794
 4035 3935 8795
 4036 3936 8796
 4037 3937 8797
 4038 3938 8798
 4039 3939 8799
 4040 3940 8800
 4041 3941 8801
 4042 3942 8802
 4043 3943 8803
 4044 3944 8804
 4045 3945 8805
 4046 3946 8806
 4047 3947 8807
 4048 3948 8808
 4049 3949 8809
 4050 3950 8810
 4051 3951 8811
 4052 3952 8812
 4053 3953 8813
 4054 3954 8814
 4055 3955 8815
 4056 3956 8816
 4057 3957 8817
 4058 3958 8818
 4059 3959 8819
 4060 3960 8820
 4061 3961 8821
 4062 3962 8822
 4063 3963 8823
 4064 3964 8824
 4065 3965 8825
 4066 3966 8826
 4067 3967 8827
 4068 3968 8828
 4069 3969 8829
 4070 3970 8830
 4071 3971 8831
 4072 3972 8832
 4073 3973 8833
 4074 3974 8834
 4075 3975 8835
 4076 3976 8836
 4077 3977 8837
 4078 3978 8838
 4079 3979 8839
 4080 3980 8840
 4081 3981 8841
 4082 3982 8842
 4083 3983 8843
 4084 3984 8844
 4085 3985 8845
 4086 3986 8846
 4087 3987 8847
 4088 3988 8848
 4089 3989 8849
 4090 3990 8850
 4091 3991 8851
 4092 3992 8852
 4093 3993 8853
 4094 3994 8854
 4095 3995 8855
 4096 3996 8856
 4097 3997 8857
 4098 3998 8858
 4099 3999 8859
 4101 4001 8860
 4102 4002 8861
 4103 4003 8862
 4104 4004 8863
 4105 4005 8864
 4106 4006 8865
 4107 4007 8866
 4108 4008 8867
 4109 4009 8868
 4110 4010 8869
 4111 4011 8870
 4112 4012 8871
 4113 4013 8872
 4114 4014 8873
 4115 4015 8874
 4116 4016 8875
 4117 4017 8876
 4118 4018 8877
 4119 4019 8878
 4120 4020 8879
 4121 4021 8880
 4122 4022 8881
 4123 4023 8882
 4124 4024 8883
 4125 4025 8884
 4126 4026 8885
 4127 4027 8886
 4128 4028 8887
 4129 4029 8888
 4130 4030 8889
 4131 4031 8890
 4132 4032 8891
 4133 4033 8892
 4134 4034 8893
 4135 4035 8894
 4136 4036 8895
 4137 4037 8896
 4138 4038 8897
 4139 4039 8898
 4140 4040 8899
 4141 4041 8900
 4142 4042 8901
 4143 4043 8902
 4144 4044 8903
 4145 4045 8904
 4146 4046 8905
 4147 4047 8906
 4148 4048 8907
 4149 4049 8908
 4150 4050 8909
 4151 4051 8910
 4152 4052 8911
 4153 4053 8912
 4154 4054 8913
 4155 4055 8914
 4156 4056 8915
 4157 4057 8916
 4158 4058 8917
 4159 4059 8918
 4160 4060 8919
 4161 4061 8920
 4162 4062 8921
 4163 4063 8922
 4164 4064 8923
 4165 4065 8924
 4166 4066 8925
 4167 4067 8926
 4168 4068 8927
 4169 4069 8928
 4170 4070 8929
 4171 4071 8930
 4172 4072 8931
 4173 4073 8932
 4174 4074 8933
 4175 4075 8934
 4176 4076 8935
 4177 4077 8936
 4178 4078 8937
 4179 4079 8938
 4180 4080 8939
 4181 4081 8940
 4182 4082 8941
 4183 4083 8942
 4184 4084 8943
 4185 4085 8944
 4186 4086 8945
 4187 4087 8946
 4188 4088 8947
 4189 4089 8948
 4190 4090 8949
 4191 4091 8950
 4192 4092 8951
 4193 4093 8952
 4194 4094 8953
 4195 4095 8954
 4196 4096 8955
 4197 4097 8956
 4198 4098 8957
 4199 4099 8958
 4201 4101 8959
 4202 4102 8960
 4203 4103 8961
 4204 4104 8962
 4205 4105 8963
 4206 4106 8964
 4207 4107 8965
 4208 4108 8966
 4209 4109 8967
 4210 4110 8968
 4211 4111 8969
 4212 4112 8970
 4213 4113 8971
 4214 4114 8972
 4215 4115 8973
 4216 4116 8974
 4217 4117 8975
 4218 4118 8976
 4219 4119 8977
 4220 4120 8978
 4221 4121 8979
 4222 4122 8980
 4223 4123 8981
 4224 4124 8982
 4225 4125 8983
 4226 4126 8984
 4227 4127 8985
 4228 4128 8986
 4229 4129 8987
 4230 4130 8988
 4231 4131 8989
 4232 4132 8990
 4233 4133 8991
 4234 4134 8992
 4235 4135 8993
 4236 4136 8994
 4237 4137 8995
 4238 4138 8996
 4239 4139 8997
 4240 4140 8998
 4241 4141 8999
 4242 4142 9000
 4243 4143 9001
 4244 4144 9002
 4245 4145 9003
 4246 4146 9004
 4247 4147 9005
 4248 4148 9006
 4249 4149 9007
 4250 4150 9008
 4251 4151 9009
 4252 4152 9010
 4253 4153 9011
 4254 4154 9012
 4255 4155 9013
 4256 4156 9014
 4257 4157 9015
 4258 4158 9016
 4259 4159 9017
 4260 4160 9018
 4261 4161 9019
 4262 4162 9020
 4263 4163 9021
 4264 4164 9022
 4265 4165 9023
 4266 4166 9024
 4267 4167 9025
 4268 4168 9026
 4269 4169 9027
 4270 4170 9028
 4271 4171 9029
 4272 4172 9030
 4273 4173 9031
 4274 4174 9032
 4275 4175 9033
 4276 4176 9034
 4277 4177 9035
 4278 4178 9036
 4279 4179 9037
 4280 4180 9038
 4281 4181 9039
 4282 4182 9040
 4283 4183 9041
 4284 4184 9042
 4285 4185 9043
 4286 4186 9044
 4287 4187 9045
 4288 4188 9046
 4289 4189 9047
 4290 4190 9048
 4291 4191 9049
 4292 4192 9050
 4293 4193 9051
 4294 4194 9052
 4295 4195 9053
 4296 4196 9054
 4297 4197 9055
 4298 4198 9056
 4299 4199 9057
 4301 4201 9058
 4302 4202 9059
 4303 4203 9060
 4304 4204 9061
 4305 4205 9062
 4306 4206 9063
 4307 4207 9064
 4308 4208 9065
 4309 4209 9066
 4310 4210 9067
 4311 4211 9068
 4312 4212 9069
 4313 4213 9070
 4314 4214 9071
 4315 4215 9072
 4316 4216 9073
 4317 4217 9074
 4318 4218 9075
 4319 4219 9076
 4320 4220 9077
 4321 4221 9078
 4322 4222 9079
 4323 4223 9080
 4324 4224 9081
 4325 4225 9082
 4326 4226 9083
 4327 4227 9084
 4328 4228 9085
 4329 4229 9086
 4330 4230 9087
 4331 4231 9088
 4332 4232 9089
 4333 4233 9090
 4334 4234 9091
 4335 4235 9092
 4336 4236 9093
 4337 4237 9094
 4338 4238 9095
 4339 4239 9096
 4340 4240 9097
 4341 4241 9098
 4342 4242 9099
 4343 4243 9100
 4344 4244 9101
 4345 4245 9102
 4346 4246 9103
 4347 4247 9104
 4348 4248 9105
 4349 4249 9106
 4350 4250 9107
 4351 4251 9108
 4352 4252 9109
 4353 4253 9110
 4354 4254 9111
 4355 4255 9112
 4356 4256 9113
 4357 4257 9114
 4358 4258 9115
 4359 4259 9116
 4360 4260 9117
 4361 4261 9118
 4362 4262 9119
 4363 4263 9120
 4364 4264 9121
 4365 4265 9122
 4366 4266 9123
 4367 4267 9124
 4368 4268 9125
 4369 4269 9126
 4370 4270 9127
 4371 4271 9128
 4372 4272 9129
 4373 4273 9130
 4374 4274 9131
 4375 4275 9132
 4376 4276 9133
 4377 4277 9134
 4378 4278 9135
 4379 4279 9136
 4380 4280 9137
 4381 4281 9138
 4382 4282 9139
 4383 4283 9140
 4384 4284 9141
 4385 4285 9142
 4386 4286 9143
 4387 4287 9144
 4388 4288 9145
 4389 4289 9146
 4390 4290 9147
 4391 4291 9148
 4392 4292 9149
 4393 4293 9150
 4394 4294 9151
 4395 4295 9152
 4396 4296 9153
 4397 4297 9154
 4398 4298 9155
 4399 4299 9156
 4401 4301 9157
 4402 4302 9158
 4403 4303 9159
 4404 4304 9160
 4405 4305 9161
 4406 4306 9162
 4407 4307 9163
 4408 4308 9164
 4409 4309 9165
 4410 4310 9166
 4411 4311 9167
 4412 4312 9168
 4413 4313 9169
 4414 4314 9170
 4415 4315 9171
 4416 4316 9172
 4417 4317 9173
 4418 4318 9174
 4419 4319 9175
 4420 4320 9176
 4421 4321 9177
 4422 4322 9178
 4423 4323 9179
 4424 4324 9180
 4425 4325 9181
 4426 4326 9182
 4427 4327 9183
 4428 4328 9184
 4429 4329 9185
 4430 4330 9186
 4431 4331 9187
 4432 4332 9188
 4433 4333 9189
 4434 4334 9190
 4435 4335 9191
 4436 4336 9192
 4437 4337 9193
 4438 4338 9194
 4439 4339 9195
 4440 4340 9196
 4441 4341 9197
 4442 4342 9198
 4443 4343 9199
 4444 4344 9200
 4445 4345 9201
 4446 4346 9202
 4447 4347 9203
 4448 4348 9204
 4449 4349 9205
 4450 4350 9206
 4451 4351 9207
 4452 4352 9208
 4453 4353 9209
 4454 4354 9210
 4455 4355 9211
 4456 4356 9212
 4457 4357 9213
 4458 4358 9214
 4459 4359 9215
 4460 4360 9216
 4461 4361 9217
 4462 4362 9218
 4463 4363 9219
 4464 4364 9220
 4465 4365 9221
 4466 4366 9222
 4467 4367 9223
 4468 4368 9224
 4469 4369 9225
 4470 4370 9226
 4471 4371 9227
 4472 4372 9228
 4473 4373 9229
 4474 4374 9230
 4475 4375 9231
 4476 4376 9232
 4477 4377 9233
 4478 4378 9234
 4479 4379 9235
 4480 4380 9236
 4481 4381 9237
 4482 4382 9238
 4483 4383 9239
 4484 4384 9240
 4485 4385 9241
 4486 4386 9242
 4487 4387 9243
 4488 4388 9244
 4489 4389 9245
 4490 4390 9246
 4491 4391 9247
 4492 4392 9248
 4493 4393 9249
 4494 4394 9250
 4495 4395 9251
 4496 4396 9252
 4497 4397 9253
 4498 4398 9254
 4499 4399 9255
 4501 4401 9256
 4502 4402 9257
 4503 4403 9258
 4504 4404 9259
 4505 4405 9260
 4506 4406 9261
 4507 4407 9262
 4508 4408 9263
 4509 4409 9264
 4510 4410 9265
 4511 4411 9266
 4512 4412 9267
 4513 4413 9268
 4514 4414 9269
 4515 4415 9270
 4516 4416 9271
 4517 4417 9272
 4518 4418 9273
 4519 4419 9274
 4520 4420 9275
 4521 4421 9276
 4522 4422 9277
 4523 4423 9278
 4524 4424 9279
 4525 4425 9280
 4526 4426 9281
 4527 4427 9282
 4528 4428 9283
 4529 4429 9284
 4530 4430 9285
 4531 4431 9286
 4532 4432 9287
 4533 4433 9288
 4534 4434 9289
 4535 4435 9290
 4536 4436 9291
 4537 4437 9292
 4538 4438 9293
 4539 4439 9294
 4540 4440 9295
 4541 4441 9296
 4542 4442 9297
 4543 4443 9298
 4544 4444 9299
 4545 4445 9300
 4546 4446 9301
 4547 4447 9302
 4548 4448 9303
 4549 4449 9304
 4550 4450 9305
 4551 4451 9306
 4552 4452 9307
 4553 4453 9308
 4554 4454 9309
 4555 4455 9310
 4556 4456 9311
 4557 4457 9312
 4558 4458 9313
 4559 4459 9314
 4560 4460 9315
 4561 4461 9316
 4562 4462 9317
 4563 4463 9318
 4564 4464 9319
 4565 4465 9320
 4566 4466 9321
 4567 4467 9322
 4568 4468 9323
 4569 4469 9324
 4570 4470 9325
 4571 4471 9326
 4572 4472 9327
 4573 4473 9328
 4574 4474 9329
 4575 4475 9330
 4576 4476 9331
 4577 4477 9332
 4578 4478 9333
 4579 4479 9334
 4580 4480 9335
 4581 4481 9336
 4582 4482 9337
 4583 4483 9338
 4584 4484 9339
 4585 4485 9340
 4586 4486 9341
 4587 4487 9342
 4588 4488 9343
 4589 4489 9344
 4590 4490 9345
 4591 4491 9346
 4592 4492 9347
 4593 4493 9348
 4594 4494 9349
 4595 4495 9350
 4596 4496 9351
 4597 4497 9352
 4598 4498 9353
 4599 4499 9354
 4601 4501 9355
 4602 4502 9356
 4603 4503 9357
 4604 4504 9358
 4605 4505 9359
 4606 4506 9360
 4607 4507 9361
 4608 4508 9362
 4609 4509 9363
 4610 4510 9364
 4611 4511 9365
 4612 4512 9366
 4613 4513 9367
 4614 4514 9368
 4615 4515 9369
 4616 4516 9370
 4617 4517 9371
 4618 4518 9372
 4619 4519 9373
 4620 4520 9374
 4621 4521 9375
 4622 4522 9376
 4623 4523 9377
 4624 4524 9378
 4625 4525 9379
 4626 4526 9380
 4627 4527 9381
 4628 4528 9382
 4629 4529 9383
 4630 4530 9384
 4631 4531 9385
 4632 4532 9386
 4633 4533 9387
 4634 4534 9388
 4635 4535 9389
 4636 4536 9390
 4637 4537 9391
 4638 4538 9392
 4639 4539 9393
 4640 4540 9394
 4641 4541 9395
 4642 4542 9396
 4643 4543 9397
 4644 4544 9398
 4645 4545 9399
 4646 4546 9400
 4647 4547 9401
 4648 4548 9402
 4649 4549 9403
 4650 4550 9404
 4651 4551 9405
 4652 4552 9406
 4653 4553 9407
 4654 4554 9408
 4655 4555 9409
 4656 4556 9410
 4657 4557 9411
 4658 4558 9412
 4659 4559 9413
 4660 4560 9414
 4661 4561 9415
 4662 4562 9416
 4663 4563 9417
 4664 4564 9418
 4665 4565 9419
 4666 4566 9420
 4667 4567 9421
 4668 4568 9422
 4669 4569 9423
 4670 4570 9424
 4671 4571 9425
 4672 4572 9426
 4673 4573 9427
 4674 4574 9428
 4675 4575 9429
 4676 4576 9430
 4677 4577 9431
 4678 4578 9432
 4679 4579 9433
 4680 4580 9434
 4681 4581 9435
 4682 4582 9436
 4683 4583 9437
 4684 4584 9438
 4685 4585 9439
 4686 4586 9440
 4687 4587 9441
 4688 4588 9442
 4689 4589 9443
 4690 4590 9444
 4691 4591 9445
 4692 4592 9446
 4693 4593 9447
 4694 4594 9448
 4695 4595 9449
 4696 4596 9450
 4697 4597 9451
 4698 4598 9452
 4699 4599 9453
 4701 4601 9454
 4702 4602 9455
 4703 4603 9456
 4704 4604 9457
 4705 4605 9458
 4706 4606 9459
 4707 4607 9460
 4708 4608 9461
 4709 4609 9462
 4710 4610 9463
 4711 4611 9464
 4712 4612 9465
 4713 4613 9466
 4714 4614 9467
 4715 4615 9468
 4716 4616 9469
 4717 4617 9470
 4718 4618 9471
 4719 4619 9472
 4720 4620 9473
 4721 4621 9474
 4722 4622 9475
 4723 4623 9476
 4724 4624 9477
 4725 4625 9478
 4726 4626 9479
 4727 4627 9480
 4728 4628 9481
 4729 4629 9482
 4730 4630 9483
 4731 4631 9484
 4732 4632 9485
 4733 4633 9486
 4734 4634 9487
 4735 4635 9488
 4736 4636 9489
 4737 4637 9490
 4738 4638 9491
 4739 4639 9492
 4740 4640 9493
 4741 4641 9494
 4742 4642 9495
 4743 4643 9496
 4744 4644 9497
 4745 4645 9498
 4746 4646 9499
 4747 4647 9500
 4748 4648 9501
 4749 4649 9502
 4750 4650 9503
 4751 4651 9504
 4752 4652 9505
 4753 4653 9506
 4754 4654 9507
 4755 4655 9508
 4756 4656 9509
 4757 4657 9510
 4758 4658 9511
 4759 4659 9512
 4760 4660 9513
 4761 4661 9514
 4762 4662 9515
 4763 4663 9516
 4764 4664 9517
 4765 4665 9518
 4766 4666 9519
 4767 4667 9520
 4768 4668 9521
 4769 4669 9522
 4770 4670 9523
 4771 4671 9524
 4772 4672 9525
 4773 4673 9526
 4774 4674 9527
 4775 4675 9528
 4776 4676 9529
 4777 4677 9530
 4778 4678 9531
 4779 4679 9532
 4780 4680 9533
 4781 4681 9534
 4782 4682 9535
 4783 4683 9536
 4784 4684 9537
 4785 4685 9538
 4786 4686 9539
 4787 4687 9540
 4788 4688 9541
 4789 4689 9542
 4790 4690 9543
 4791 4691 9544
 4792 4692 9545
 4793 4693 9546
 4794 4694 9547
 4795 4695 9548
 4796 4696 9549
 4797 4697 9550
 4798 4698 9551
 4799 4699 9552
 4801 4701 9553
 4802 4702 9554
 4803 4703 9555
 4804 4704 9556
 4805 4705 9557
 4806 4706 9558
 4807 4707 9559
 4808 4708 9560
 4809 4709 9561
 4810 4710 9562
 4811 4711 9563
 4812 4712 9564
 4813 4713 9565
 4814 4714 9566
 4815 4715 9567
 4816 4716 9568
 4817 4717 9569
 4818 4718 9570
 4819 4719 9571
 4820 4720 9572
 4821 4721 9573
 4822 4722 9574
 4823 4723 9575
 4824 4724 9576
 4825 4725 9577
 4826 4726 9578
 4827 4727 9579
 4828 4728 9580
 4829 4729 9581
 4830 4730 9582
 4831 4731 9583
 4832 4732 9584
 4833 4733 9585
 4834 4734 9586
 4835 4735 9587
 4836 4736 9588
 4837 4737 9589
 4838 4738 9590
 4839 4739 9591
 4840 4740 9592
 4841 4741 9593
 4842 4742 9594
 4843 4743 9595
 4844 4744 9596
 4845 4745 9597
 4846 4746 9598
 4847 4747 9599
 4848 4748 9600
 4849 4749 9601
 4850 4750 9602
 4851 4751 9603
 4852 4752 9604
 4853 4753 9605
 4854 4754 9606
 4855 4755 9607
 4856 4756 9608
 4857 4757 9609
 4858 4758 9610
 4859 4759 9611
 4860 4760 9612
 4861 4761 9613
 4862 4762 9614
 4863 4763 9615
 4864 4764 9616
 4865 4765 9617
 4866 4766 9618
 4867 4767 9619
 4868 4768 9620
 4869 4769 9621
 4870 4770 9622
 4871 4771 9623
 4872 4772 9624
 4873 4773 9625
 4874 4774 9626
 4875 4775 9627
 4876 4776 9628
 4877 4777 9629
 4878 4778 9630
 4879 4779 9631
 4880 4780 9632
 4881 4781 9633
 4882 4782 9634
 4883 4783 9635
 4884 4784 9636
 4885 4785 9637
 4886 4786 9638
 4887 4787 9639
 4888 4788 9640
 4889 4789 9641
 4890 4790 9642
 4891 4791 9643
 4892 4792 9644
 4893 4793 9645
 4894 4794 9646
 4895 4795 9647
 4896 4796 9648
 4897 4797 9649
 4898 4798 9650
 4899 4799 9651
 100 101 4900
 101 102 4901
 102 103 4902
 103 104 4903
 104 105 4904
 105 106 4905
 106 107 4906
 107 108 4907
 108 109 4908
 109 110 4909
 110 111 4910
 111 112 4911
 112 113 4912
 113 114 4913
 114 115 4914
 115 116 4915
 116 117 4916
 117 118 4917
 118 119 4918
 119 120 4919
 120 121 4920
 121 122 4921
 122 123 4922
 123 124 4923
 124 125 4924
 125 126 4925
 126 127 4926
 127 128 4927
 128 129 4928
 129 130 4929
 130 131 4930
 131 132 4931
 132 133 4932
 133 134 4933
 134 135 4934
 135 136 4935
 136 137 4936
 137 138 4937
 138 139 4938
 139 140 4939
 140 141 4940
 141 142 4941
 142 143 4942
 143 144 4943
 144 145 4944
 145 146 4945
 146 147 4946
 147 148 4947
 148 149 4948
 149 150 4949
 150 151 4950
 151 152 4951
 152 153 4952
 153 154 4953
 154 155 4954
 155 156 4955
 156 157 4956
 157 158 4957
 158 159 4958
 159 160 4959
 160 161 4960
 161 162 4961
 162 163 4962
 163 164 4963
 164 165 4964
 165 166 4965
 166 167 4966
 167 168 4967
 168 169 4968
 169 170 4969
 170 171 4970
 171 172 4971
 172 173 4972
 173 174 4973
 174 175 4974
 175 176 4975
 176 177 4976
 177 178 4977
 178 179 4978
 179 180 4979
 180 181 4980
 181 182 4981
 182 183 4982
 183 184 4983
 184 185 4984
 185 186 4985
 186 187 4986
 187 188 4987
 188 189 4988
 189 190 4989
 190 191 4990
 191 192 4991
 192 193 4992
 193 194 4993
 194 195 4994
 195 196 4995
 196 197 4996
 197 198 4997
 198 199 4998
 200 201 4999
 201 202 5000
 202 203 5001
 203 204 5002
 204 205 5003
 205 206 5004
 206 207 5005
 207 208 5006
 208 209 5007
 209 210 5008
 210 211 5009
 211 212 5010
 212 213 5011
 213 214 5012
 214 215 5013
 215 216 5014
 216 217 5015
 217 218 5016
 218 219 5017
 219 220 5018
 220 221 5019
 221 222 5020
 222 223 5021
 223 224 5022
 224 225 5023
 225 226 5024
 226 227 5025
 227 228 5026
 228 229 5027
 229 230 5028
 230 231 5029
 231 232 5030
 232 233 5031
 233 234 5032
 234 235 5033
 235 236 5034
 236 237 5035
 237 238 5036
 238 239 5037
 239 240 5038
 240 241 5039
 241 242 5040
 242 243 5041
 243 244 5042
 244 245 5043
 245 246 5044
 246 247 5045
 247 248 5046
 248 249 5047
 249 250 5048
 250 251 5049
 251 252 5050
 252 253 5051
 253 254 5052
 254 255 5053
 255 256 5054
 256 257 5055
 257 258 5056
 258 259 5057
 259 260 5058
 260 261 5059
 261 262 5060
 262 263 5061
 263 264 5062
 264 265 5063
 265 266 5064
 266 267 5065
 267 268 5066
 268 269 5067
 269 270 5068
 270 271 5069
 271 272 5070
 272 273 5071
 273 274 5072
 274 275 5073
 275 276 5074
 276 277 5075
 277 278 5076
 278 279 5077
 279 280 5078
 280 281 5079
 281 282 5080
 282 283 5081
 283 284 5082
 284 285 5083
 285 286 5084
 286 287 5085
 287 288 5086
 288 289 5087
 289 290 5088
 290 291 5089
 291 292 5090
 292 293 5091
 293 294 5092
 294 295 5093
 295 296 5094
 296 297 5095
 297 298 5096
 298 299 5097
 300 301 5098
 301 302 5099
 302 303 5100
 303 304 5101
 304 305 5102
 305 306 5103
 306 307 5104
 307 308 5105
 308 309 5106
 309 310 5107
 310 311 5108
 311 312 5109
 312 313 5110
 313 314 5111
 314 315 5112
 315 316 5113
 316 317 5114
 317 318 5115
 318 319 5116
 319 320 5117
 320 321 5118
 321 322 5119
 322 323 5120
 323 324 5121
 324 325 5122
 325 326 5123
 326 327 5124
 327 328 5125
 328 329 5126
 329 330 5127
 330 331 5128
 331 332 5129
 332 333 5130
 333 334 5131
 334 335 5132
 335 336 5133
 336 337 5134
 337 338 5135
 338 339 5136
 339 340 5137
 340 341 5138
 341 342 5139
 342 343 5140
 343 344 5141
 344 345 5142
 345 346 5143
 346 347 5144
 347 348 5145
 348 349 5146
 349 350 5147
 350 351 5148
 351 352 5149
 352 353 5150
 353 354 5151
 354 355 5152
 355 356 5153
 356 357 5154
 357 358 5155
 358 359 5156
 359 360 5157
 360 361 5158
 361 362 5159
 362 363 5160
 363 364 5161
 364 365 5162
 365 366 5163
 366 367 5164
 367 368 5165
 368 369 5166
 369 370 5167
 370 371 5168
 371 372 5169
 372 373 5170
 373 374 5171
 374 375 5172
 375 376 5173
 376 377 5174
 377 378 5175
 378 379 5176
 379 380 5177
 380 381 5178
 381 382 5179
 382 383 5180
 383 384 5181
 384 385 5182
 385 386 5183
 386 387 5184
 387 388 5185
 388 389 5186
 389 390 5187
 390 391 5188
 391 392 5189
 392 393 5190
 393 394 5191
 394 395 5192
 395 396 5193
 396 397 5194
 397 398 5195
 398 399 5196
 400 401 5197
 401 402 5198
 402 403 5199
 403 404 5200
 404 405 5201
 405 406 5202
 406 407 5203
 407 408 5204
 408 409 5205
 409 410 5206
 410 411 5207
 411 412 5208
 412 413 5209
 413 414 5210
 414 415 5211
 415 416 5212
 416 417 5213
 417 418 5214
 418 419 5215
 419 420 5216
 420 421 5217
 421 422 5218
 422 423 5219
 423 424 5220
 424 425 5221
 425 426 5222
 426 427 5223
 427 428 5224
 428 429 5225
 429 430 5226
 430 431 5227
 431 432 5228
 432 433 5229
 433 434 5230
 434 435 5231
 435 436 5232
 436 437 5233
 437 438 5234
 438 439 5235
 439 440 5236
 440 441 5237
 441 442 5238
 442 443 5239
 443 444 5240
 444 445 5241
 445 446 5242
 446 447 5243
 447 448 5244
 448 449 5245
 449 450 5246
 450 451 5247
 451 452 5248
 452 453 5249
 453 454 5250
 454 455 5251
 455 456 5252
 456 457 5253
 457 458 5254
 458 459 5255
 459 460 5256
 460 461 5257
 461 462 5258
 462 463 5259
 463 464 5260
 464 465 5261
 465 466 5262
 466 467 5263
 467 468 5264
 468 469 5265
 469 470 5266
 470 471 5267
 471 472 5268
 472 473 5269
 473 474 5270
 474 475 5271
 475 476 5272
 476 477 5273
 477 478 5274
 478 479 5275
 479 480 5276
 480 481 5277
 481 482 5278
 482 483 5279
 483 484 5280
 484 485 5281
 485 486 5282
 486 487 5283
 487 488 5284
 488 489 5285
 489 490 5286
 490 491 5287
 491 492 5288
 492 493 5289
 493 494 5290
 494 495 5291
 495 496 5292
 496 497 5293
 497 498 5294
 498 499 5295
 500 501 5296
 501 502 5297
 502 503 5298
 503 504 5299
 504 505 5300
 505 506 5301
 506 507 5302
 507 508 5303
 508 509 5304
 509 510 5305
 510 511 5306
 511 512 5307
 512 513 5308
 513 514 5309
 514 515 5310
 515 516 5311
 516 517 5312
 517 518 5313
 518 519 5314
 519 520 5315
 520 521 5316
 521 522 5317
 522 523 5318
 523 524 5319
 524 525 5320
 525 526 5321
 526 527 5322
 527 528 5323
 528 529 5324
 529 530 5325
 530 531 5326
 531 532 5327
 532 533 5328
 533 534 5329
 534 535 5330
 535 536 5331
 536 537 5332
 537 538 5333
 538 539 5334
 539 540 5335
 540 541 5336
 541 542 5337
 542 543 5338
 543 544 5339
 544 545 5340
 545 546 5341
 546 547 5342
 547 548 5343
 548 549 5344
 549 550 5345
 550 551 5346
 551 552 5347
 552 553 5348
 553 554 5349
 554 555 5350
 555 556 5351
 556 557 5352
 557 558 5353
 558 559 5354
 559 560 5355
 560 561 5356
 561 562 5357
 562 563 5358
 563 564 5359
 564 565 5360
 565 566 5361
 566 567 5362
 567 568 5363
 568 569 5364
 569 570 5365
 570 571 5366
 571 572 5367
 572 573 5368
 573 574 5369
 574 575 5370
 575 576 5371
 576 577 5372
 577 578 5373
 578 579 5374
 579 580 5375
 580 581 5376
 581 582 5377
 582 583 5378
 583 584 5379
 584 585 5380
 585 586 5381
 586 587 5382
 587 588 5383
 588 589 5384
 589 590 5385
 590 591 5386
 591 592 5387
 592 593 5388
 593 594 5389
 594 595 5390
 595 596 5391
 596 597 5392
 597 598 5393
 598 599 5394
 600 601 5395
 601 602 5396
 602 603 5397
 603 604 5398
 604 605 5399
 605 606 5400
 606 607 5401
 607 608 5402
 608 609 5403
 609 610 5404
 610 611 5405
 611 612 5406
 612 613 5407
 613 614 5408
 614 615 5409
 615 616 5410
 616 617 5411
 617 618 5412
 618 619 5413
 619 620 5414
 620 621 5415
 621 622 5416
 622 623 5417
 623 624 5418
 624 625 5419
 625 626 5420
 626 627 5421
 627 628 5422
 628 629 5423
 629 630 5424
 630 631 5425
 631 632 5426
 632 633 5427
 633 634 5428
 634 635 5429
 635 636 5430
 636 637 5431
 637 638 5432
 638 639 5433
 639 640 5434
 640 641 5435
 641 642 5436
 642 643 5437
 643 644 5438
 644 645 5439
 645 646 5440
 646 647 5441
 647 648 5442
 648 649 5443
 649 650 5444
 650 651 5445
 651 652 5446
 652 653 5447
 653 654 5448
 654 655 5449
 655 656 5450
 656 657 5451
 657 658 5452
 658 659 5453
 659 660 5454
 660 661 5455
 661 662 5456
 662 663 5457
 663 664 5458
 664 665 5459
 665 666 5460
 666 667 5461
 667 668 5462
 668 669 5463
 669 670 5464
 670 671 5465
 671 672 5466
 672 673 5467
 673 674 5468
 674 675 5469
 675 676 5470
 676 677 5471
 677 678 5472
 678 679 5473
 679 680 5474
 680 681 5475
 681 682 5476
 682 683 5477
 683 684 5478
 684 685 5479
 685 686 5480
 686 687 5481
 687 688 5482
 688 689 5483
 689 690 5484
 690 691 5485
 691 692 5486
 692 693 5487
 693 694 5488
 694 695 5489
 695 696 5490
 696 697 5491
 697 698 5492
 698 699 5493
 700 701 5494
 701 702 5495
 702 703 5496
 703 704 5497
 704 705 5498
 705 706 5499
 706 707 5500
 707 708 5501
 708 709 5502
 709 710 5503
 710 711 5504
 711 712 5505
 712 713 5506
 713 714 5507
 714 715 5508
 715 716 5509
 716 717 5510
 717 718 5511
 718 719 5512
 719 720 5513
 720 721 5514
 721 722 5515
 722 723 5516
 723 724 5517
 724 725 5518
 725 726 5519
 726 727 5520
 727 728 5521
 728 729 5522
 729 730 5523
 730 731 5524
 731 732 5525
 732 733 5526
 733 734 5527
 734 735 5528
 735 736 5529
 736 737 5530
 737 738 5531
 738 739 5532
 739 740 5533
 740 741 5534
 741 742 5535
 742 743 5536
 743 744 5537
 744 745 5538
 745 746 5539
 746 747 5540
 747 748 5541
 748 749 5542
 749 750 5543
 750 751 5544
 751 752 5545
 752 753 5546
 753 754 5547
 754 755 5548
 755 756 5549
 756 757 5550
 757 758 5551
 758 759 5552
 759 760 5553
 760 761 5554
 761 762 5555
 762 763 5556
 763 764 5557
 764 765 5558
 765 766 5559
 766 767 5560
 767 768 5561
 768 769 5562
 769 770 5563
 770 771 5564
 771 772 5565
 772 773 5566
 773 774 5567
 774 775 5568
 775 776 5569
 776 777 5570
 777 778 5571
 778 779 5572
 779 780 5573
 780 781 5574
 781 782 5575
 782 783 5576
 783 784 5577
 784 785 5578
 785 786 5579
 786 787 5580
 787 788 5581
 788 789 5582
 789 790 5583
 790 791 5584
 791 792 5585
 792 793 5586
 793 794 5587
 794 795 5588
 795 796 5589
 796 797 5590
 797 798 5591
 798 799 5592
 800 801 5593
 801 802 5594
 802 803 5595
 803 804 5596
 804 805 5597
 805 806 5598
 806 807 5599
 807 808 5600
 808 809 5601
 809 810 5602
 810 811 5603
 811 812 5604
 812 813 5605
 813 814 5606
 814 815 5607
 815 816 5608
 816 817 5609
 817 818 5610
 818 819 5611
 819 820 5612
 820 821 5613
 821 822 5614
 822 823 5615
 823 824 5616
 824 825 5617
 825 826 5618
 826 827 5619
 827 828 5620
 828 829 5621
 829 830 5622
 830 831 5623
 831 832 5624
 832 833 5625
 833 834 5626
 834 835 5627
 835 836 5628
 836 837 5629
 837 838 5630
 838 839 5631
 839 840 5632
 840 841 5633
 841 842 5634
 842 843 5635
 843 844 5636
 844 845 5637
 845 846 5638
 846 847 5639
 847 848 5640
 848 849 5641
 849 850 5642
 850 851 5643
 851 852 5644
 852 853 5645
 853 854 5646
 854 855 5647
 855 856 5648
 856 857 5649
 857 858 5650
 858 859 5651
 859 860 5652
 860 861 5653
 861 862 5654
 862 863 5655
 863 864 5656
 864 865 5657
 865 866 5658
 866 867 5659
 867 868 5660
 868 869 5661
 869 870 5662
 870 871 5663
 871 872 5664
 872 873 5665
 873 874 5666
 874 875 5667
 875 876 5668
 876 877 5669
 877 878 5670
 878 879 5671
 879 880 5672
 880 881 5673
 881 882 5674
 882 883 5675
 883 884 5676
 884 885 5677
 885 886 5678
 886 887 5679
 887 888 5680
 888 889 5681
 889 890 5682
 890 891 5683
 891 892 5684
 892 893 5685
 893 894 5686
 894 895 5687
 895 896 5688
 896 897 5689
 897 898 5690
 898 899 5691
 900 901 5692
 901 902 5693
 902 903 5694
 903 904 5695
 904 905 5696
 905 906 5697
 906 907 5698
 907 908 5699
 908 909 5700
 909 910 5701
 910 911 5702
 911 912 5703
 912 913 5704
 913 914 5705
 914 915 5706
 915 916 5707
 916 917 5708
 917 918 5709
 918 919 5710
 919 920 5711
 920 921 5712
 921 922 5713
 922 923 5714
 923 924 5715
 924 925 5716
 925 926 5717
 926 927 5718
 927 928 5719
 928 929 5720
 929 930 5721
 930 931 5722
 931 932 5723
 932 933 5724
 933 934 5725
 934 935 5726
 935 936 5727
 936 937 5728
 937 938 5729
 938 939 5730
 939 940 5731
 940 941 5732
 941 942 5733
 942 943 5734
 943 944 5735
 944 945 5736
 945 946 5737
 946 947 5738
 947 948 5739
 948 949 5740
 949 950 5741
 950 951 5742
 951 952 5743
 952 953 5744
 953 954 5745
 954 955 5746
 955 956 5747
 956 957 5748
 957 958 5749
 958 959 5750
 959 960 5751
 960 961 5752
 961 962 5753
 962 963 5754
 963 964 5755
 964 965 5756
 965 966 5757
 966 967 5758
 967 968 5759
 968 969 5760
 969 970 5761
 970 971 5762
 971 972 5763
 972 973 5764
 973 974 5765
 974 975 5766
 975 976 5767
 976 977 5768
 977 978 5769
 978 979 5770
 979 980 5771
 980 981 5772
 981 982 5773
 982 983 5774
 983 984 5775
 984 985 5776
 985 986 5777
 986 987 5778
 987 988 5779
 988 989 5780
 989 990 5781
 990 991 5782
 991 992 5783
 992 993 5784
 993 994 5785
 994 995 5786
 995 996 5787
 996 997 5788
 997 998 5789
 998 999 5790
 1000 1001 5791
 1001 1002 5792
 1002 1003 5793
 1003 1004 5794
 1004 1005 5795
 1005 1006 5796
 1006 1007 5797
 1007 1008 5798
 1008 1009 5799
 1009 1010 5800
 1010 1011 5801
 1011 1012 5802
 1012 1013 5803
 1013 1014 5804
 1014 1015 5805
 1015 1016 5806
 1016 1017 5807
 1017 1018 5808
 1018 1019 5809
 1019 1020 5810
 1020 1021 5811
 1021 1022 5812
 1022 1023 5813
 1023 1024 5814
 1024 1025 5815
 1025 1026 5816
 1026 1027 5817
 1027 1028 5818
 1028 1029 5819
 1029 1030 5820
 1030 1031 5821
 1031 1032 5822
 1032 1033 5823
 1033 1034 5824
 1034 1035 5825
 1035 1036 5826
 1036 1037 5827
 1037 1038 5828
 1038 1039 5829
 1039 1040 5830
 1040 1041 5831
 1041 1042 5832
 1042 1043 5833
 1043 1044 5834
 1044 1045 5835
 1045 1046 5836
 1046 1047 5837
 1047 1048 5838
 1048 1049 5839
 1049 1050 5840
 1050 1051 5841
 1051 1052 5842
 1052 1053 5843
 1053 1054 5844
 1054 1055 5845
 1055 1056 5846
 1056 1057 5847
 1057 1058 5848
 1058 1059 5849
 1059 1060 5850
 1060 1061 5851
 1061 1062 5852
 1062 1063 5853
 1063 1064 5854
 1064 1065 5855
 1065 1066 5856
 1066 1067 5857
 1067 1068 5858
 1068 1069 5859
 1069 1070 5860
 1070 1071 5861
 1071 1072 5862
 1072 1073 5863
 1073 1074 5864
 1074 1075 5865
 1075 1076 5866
 1076 1077 5867
 1077 1078 5868
 1078 1079 5869
 1079 1080 5870
 1080 1081 5871
 1081 1082 5872
 1082 1083 5873
 1083 1084 5874
 1084 1085 5875
 1085 1086 5876
 1086 1087 5877
 1087 1088 5878
 1088 1089 5879
 1089 1090 5880
 1090 1091 5881
 1091 1092 5882
 1092 1093 5883
 1093 1094 5884
 1094 1095 5885
 1095 1096 5886
 1096 1097 5887
 1097 1098 5888
 1098 1099 5889
 1100 1101 5890
 1101 1102 5891
 1102 1103 5892
 1103 1104 5893
 1104 1105 5894
 1105 1106 5895
 1106 1107 5896
 1107 1108 5897
 1108 1109 5898
 1109 1110 5899
 1110 1111 5900
 1111 1112 5901
 1112 1113 5902
 1113 1114 5903
 1114 1115 5904
 1115 1116 5905
 1116 1117 5906
 1117 1118 5907
 1118 1119 5908
 1119 1120 5909
 1120 1121 5910
 1121 1122 5911
 1122 1123 5912
 1123 1124 5913
 1124 1125 5914
 1125 1126 5915
 1126 1127 5916
 1127 1128 5917
 1128 1129 5918
 1129 1130 5919
 1130 1131 5920
 1131 1132 5921
 1132 1133 5922
 1133 1134 5923
 1134 1135 5924
 1135 1136 5925
 1136 1137 5926
 1137 1138 5927
 1138 1139 5928
 1139 1140 5929
 1140 1141 5930
 1141 1142 5931
 1142 1143 5932
 1143 1144 5933
 1144 1145 5934
 1145 1146 5935
 1146 1147 5936
 1147 1148 5937
 1148 1149 5938
 1149 1150 5939
 1150 1151 5940
 1151 1152 5941
 1152 1153 5942
 1153 1154 5943
 1154 1155 5944
 1155 1156 5945
 1156 1157 5946
 1157 1158 5947
 1158 1159 5948
 1159 1160 5949
 1160 1161 5950
 1161 1162 5951
 1162 1163 5952
 1163 1164 5953
 1164 1165 5954
 1165 1166 5955
 1166 1167 5956
 1167 1168 5957
 1168 1169 5958
 1169 1170 5959
 1170 1171 5960
 1171 1172 5961
 1172 1173 5962
 1173 1174 5963
 1174 1175 5964
 1175 1176 5965
 1176 1177 5966
 1177 1178 5967
 1178 1179 5968
 1179 1180 5969
 1180 1181 5970
 1181 1182 5971
 1182 1183 5972
 1183 1184 5973
 1184 1185 5974
 1185 1186 5975
 1186 1187 5976
 1187 1188 5977
 1188 1189 5978
 1189 1190 5979
 1190 1191 5980
 1191 1192 5981
 1192 1193 5982
 1193 1194 5983
 1194 1195 5984
 1195 1196 5985
 1196 1197 5986
 1197 1198 5987
 1198 1199 5988
 1200 1201 5989
 1201 1202 5990
 1202 1203 5991
 1203 1204 5992
 1204 1205 5993
 1205 1206 5994
 1206 1207 5995
 1207 1208 5996
 1208 1209 5997
 1209 1210 5998
 1210 1211 5999
 1211 1212 6000
 1212 1213 6001
 1213 1214 6002
 1214 1215 6003
 1215 1216 6004
 1216 1217 6005
 1217 1218 6006
 1218 1219 6007
 1219 1220 6008
 1220 1221 6009
 1221 1222 6010
 1222 1223 6011
 1223 1224 6012
 1224 1225 6013
 1225 1226 6014
 1226 1227 6015
 1227 1228 6016
 1228 1229 6017
 1229 1230 6018
 1230 1231 6019
 1231 1232 6020
 1232 1233 6021
 1233 1234 6022
 1234 1235 6023
 1235 1236 6024
 1236 1237 6025
 1237 1238 6026
 1238 1239 6027
 1239 1240 6028
 1240 1241 6029
 1241 1242 6030
 1242 1243 6031
 1243 1244 6032
 1244 1245 6033
 1245 1246 6034
 1246 1247 6035
 1247 1248 6036
 1248 1249 6037
 1249 1250 6038
 1250 1251 6039
 1251 1252 6040
 1252 1253 6041
 1253 1254 6042
 1254 1255 6043
 1255 1256 6044
 1256 1257 6045
 1257 1258 6046
 1258 1259 6047
 1259 1260 6048
 1260 1261 6049
 1261 1262 6050
 1262 1263 6051
 1263 1264 6052
 1264 1265 6053
 1265 1266 6054
 1266 1267 6055
 1267 1268 6056
 1268 1269 6057
 1269 1270 6058
 1270 1271 6059
 1271 1272 6060
 1272 1273 6061
 1273 1274 6062
 1274 1275 6063
 1275 1276 6064
 1276 1277 6065
 1277 1278 6066
 1278 1279 6067
 1279 1280 6068
 1280 1281 6069
 1281 1282 6070
 1282 1283 6071
 1283 1284 6072
 1284 1285 6073
 1285 1286 6074
 1286 1287 6075
 1287 1288 6076
 1288 1289 6077
 1289 1290 6078
 1290 1291 6079
 1291 1292 6080
 1292 1293 6081
 1293 1294 6082
 1294 1295 6083
 1295 1296 6084
 1296 1297 6085
 1297 1298 6086
 1298 1299 6087
 1300 1301 6088
 1301 1302 6089
 1302 1303 6090
 1303 1304 6091
 1304 1305 6092
 1305 1306 6093
 1306 1307 6094
 1307 1308 6095
 1308 1309 6096
 1309 1310 6097
 1310 1311 6098
 1311 1312 6099
 1312 1313 6100
 1313 1314 6101
 1314 1315 6102
 1315 1316 6103
 1316 1317 6104
 1317 1318 6105
 1318 1319 6106
 1319 1320 6107
 1320 1321 6108
 1321 1322 6109
 1322 1323 6110
 1323 1324 6111
 1324 1325 6112
 1325 1326 6113
 1326 1327 6114
 1327 1328 6115
 1328 1329 6116
 1329 1330 6117
 1330 1331 6118
 1331 1332 6119
 1332 1333 6120
 1333 1334 6121
 1334 1335 6122
 1335 1336 6123
 1336 1337 6124
 1337 1338 6125
 1338 1339 6126
 1339 1340 6127
 1340 1341 6128
 1341 1342 6129
 1342 1343 6130
 1343 1344 6131
 1344 1345 6132
 1345 1346 6133
 1346 1347 6134
 1347 1348 6135
 1348 1349 6136
 1349 1350 6137
 1350 1351 6138
 1351 1352 6139
 1352 1353 6140
 1353 1354 6141
 1354 1355 6142
 1355 1356 6143
 1356 1357 6144
 1357 1358 6145
 1358 1359 6146
 1359 1360 6147
 1360 1361 6148
 1361 1362 6149
 1362 1363 6150
 1363 1364 6151
 1364 1365 6152
 1365 1366 6153
 1366 1367 6154
 1367 1368 6155
 1368 1369 6156
 1369 1370 6157
 1370 1371 6158
 1371 1372 6159
 1372 1373 6160
 1373 1374 6161
 1374 1375 6162
 1375 1376 6163
 1376 1377 6164
 1377 1378 6165
 1378 1379 6166
 1379 1380 6167
 1380 1381 6168
 1381 1382 6169
 1382 1383 6170
 1383 1384 6171
 1384 1385 6172
 1385 1386 6173
 1386 1387 6174
 1387 1388 6175
 1388 1389 6176
 1389 1390 6177
 1390 1391 6178
 1391 1392 6179
 1392 1393 6180
 1393 1394 6181
 1394 1395 6182
 1395 1396 6183
 1396 1397 6184
 1397 1398 6185
 1398 1399 6186
 1400 1401 6187
 1401 1402 6188
 1402 1403 6189
 1403 1404 6190
 1404 1405 6191
 1405 1406 6192
 1406 1407 6193
 1407 1408 6194
 1408 1409 6195
 1409 1410 6196
 1410 1411 6197
 1411 1412 6198
 1412 1413 6199
 1413 1414 6200
 1414 1415 6201
 1415 1416 6202
 1416 1417 6203
 1417 1418 6204
 1418 1419 6205
 1419 1420 6206
 1420 1421 6207
 1421 1422 6208
 1422 1423 6209
 1423 1424 6210
 1424 1425 6211
 1425 1426 6212
 1426 1427 6213
 1427 1428 6214
 1428 1429 6215
 1429 1430 6216
 1430 1431 6217
 1431 1432 6218
 1432 1433 6219
 1433 1434 6220
 1434 1435 6221
 1435 1436 6222
 1436 1437 6223
 1437 1438 6224
 1438 1439 6225
 1439 1440 6226
 1440 1441 6227
 1441 1442 6228
 1442 1443 6229
 1443 1444 6230
 1444 1445 6231
 1445 1446 6232
 1446 1447 6233
 1447 1448 6234
 1448 1449 6235
 1449 1450 6236
 1450 1451 6237
 1451 1452 6238
 1452 1453 6239
 1453 1454 6240
 1454 1455 6241
 1455 1456 6242
 1456 1457 6243
 1457 1458 6244
 1458 1459 6245
 1459 1460 6246
 1460 1461 6247
 1461 1462 6248
 1462 1463 6249
 1463 1464 6250
 1464 1465 6251
 1465 1466 6252
 1466 1467 6253
 1467 1468 6254
 1468 1469 6255
 1469 1470 6256
 1470 1471 6257
 1471 1472 6258
 1472 1473 6259
 1473 1474 6260
 1474 1475 6261
 1475 1476 6262
 1476 1477 6263
 1477 1478 6264
 1478 1479 6265
 1479 1480 6266
 1480 1481 6267
 1481 1482 6268
 1482 1483 6269
 1483 1484 6270
 1484 1485 6271
 1485 1486 6272
 1486 1487 6273
 1487 1488 6274
 1488 1489 6275
 1489 1490 6276
 1490 1491 6277
 1491 1492 6278
 1492 1493 6279
 1493 1494 6280
 1494 1495 6281
 1495 1496 6282
 1496 1497 6283
 1497 1498 6284
 1498 1499 6285
 1500 1501 6286
 1501 1502 6287
 1502 1503 6288
 1503 1504 6289
 1504 1505 6290
 1505 1506 6291
 1506 1507 6292
 1507 1508 6293
 1508 1509 6294
 1509 1510 6295
 1510 1511 6296
 1511 1512 6297
 1512 1513 6298
 1513 1514 6299
 1514 1515 6300
 1515 1516 6301
 1516 1517 6302
 1517 1518 6303
 1518 1519 6304
 1519 1520 6305
 1520 1521 6306
 1521 1522 6307
 1522 1523 6308
 1523 1524 6309
 1524 1525 6310
 1525 1526 6311
 1526 1527 6312
 1527 1528 6313
 1528 1529 6314
 1529 1530 6315
 1530 1531 6316
 1531 1532 6317
 1532 1533 6318
 1533 1534 6319
 1534 1535 6320
 1535 1536 6321
 1536 1537 6322
 1537 1538 6323
 1538 1539 6324
 1539 1540 6325
 1540 1541 6326
 1541 1542 6327
 1542 1543 6328
 1543 1544 6329
 1544 1545 6330
 1545 1546 6331
 1546 1547 6332
 1547 1548 6333
 1548 1549 6334
 1549 1550 6335
 1550 1551 6336
 1551 1552 6337
 1552 1553 6338
 1553 1554 6339
 1554 1555 6340
 1555 1556 6341
 1556 1557 6342
 1557 1558 6343
 1558 1559 6344
 1559 1560 6345
 1560 1561 6346
 1561 1562 6347
 1562 1563 6348
 1563 1564 6349
 1564 1565 6350
 1565 1566 6351
 1566 1567 6352
 1567 1568 6353
 1568 1569 6354
 1569 1570 6355
 1570 1571 6356
 1571 1572 6357
 1572 1573 6358
 1573 1574 6359
 1574 1575 6360
 1575 1576 6361
 1576 1577 6362
 1577 1578 6363
 1578 1579 6364
 1579 1580 6365
 1580 1581 6366
 1581 1582 6367
 1582 1583 6368
 1583 1584 6369
 1584 1585 6370
 1585 1586 6371
 1586 1587 6372
 1587 1588 6373
 1588 1589 6374
 1589 1590 6375
 1590 1591 6376
 1591 1592 6377
 1592 1593 6378
 1593 1594 6379
 1594 1595 6380
 1595 1596 6381
 1596 1597 6382
 1597 1598 6383
 1598 1599 6384
 1600 1601 6385
 1601 1602 6386
 1602 1603 6387
 1603 1604 6388
 1604 1605 6389
 1605 1606 6390
 1606 1607 6391
 1607 1608 6392
 1608 1609 6393
 1609 1610 6394
 1610 1611 6395
 1611 1612 6396
 1612 1613 6397
 1613 1614 6398
 1614 1615 6399
 1615 1616 6400
 1616 1617 6401
 1617 1618 6402
 1618 1619 6403
 1619 1620 6404
 1620 1621 6405
 1621 1622 6406
 1622 1623 6407
 1623 1624 6408
 1624 1625 6409
 1625 1626 6410
 1626 1627 6411
 1627 1628 6412
 1628 1629 6413
 1629 1630 6414
 1630 1631 6415
 1631 1632 6416
 1632 1633 6417
 1633 1634 6418
 1634 1635 6419
 1635 1636 6420
 1636 1637 6421
 1637 1638 6422
 1638 1639 6423
 1639 1640 6424
 1640 1641 6425
 1641 1642 6426
 1642 1643 6427
 1643 1644 6428
 1644 1645 6429
 1645 1646 6430
 1646 1647 6431
 1647 1648 6432
 1648 1649 6433
 1649 1650 6434
 1650 1651 6435
 1651 1652 6436
 1652 1653 6437
 1653 1654 6438
 1654 1655 6439
 1655 1656 6440
 1656 1657 6441
 1657 1658 6442
 1658 1659 6443
 1659 1660 6444
 1660 1661 6445
 1661 1662 6446
 1662 1663 6447
 1663 1664 6448
 1664 1665 6449
 1665 1666 6450
 1666 1667 6451
 1667 1668 6452
 1668 1669 6453
 1669 1670 6454
 1670 1671 6455
 1671 1672 6456
 1672 1673 6457
 1673 1674 6458
 1674 1675 6459
 1675 1676 6460
 1676 1677 6461
 1677 1678 6462
 1678 1679 6463
 1679 1680 6464
 1680 1681 6465
 1681 1682 6466
 1682 1683 6467
 1683 1684 6468
 1684 1685 6469
 1685 1686 6470
 1686 1687 6471
 1687 1688 6472
 1688 1689 6473
 1689 1690 6474
 1690 1691 6475
 1691 1692 6476
 1692 1693 6477
 1693 1694 6478
 1694 1695 6479
 1695 1696 6480
 1696 1697 6481
 1697 1698 6482
 1698 1699 6483
 1700 1701 6484
 1701 1702 6485
 1702 1703 6486
 1703 1704 6487
 1704 1705 6488
 1705 1706 6489
 1706 1707 6490
 1707 1708 6491
 1708 1709 6492
 1709 1710 6493
 1710 1711 6494
 1711 1712 6495
 1712 1713 6496
 1713 1714 6497
 1714 1715 6498
 1715 1716 6499
 1716 1717 6500
 1717 1718 6501
 1718 1719 6502
 1719 1720 6503
 1720 1721 6504
 1721 1722 6505
 1722 1723 6506
 1723 1724 6507
 1724 1725 6508
 1725 1726 6509
 1726 1727 6510
 1727 1728 6511
 1728 1729 6512
 1729 1730 6513
 1730 1731 6514
 1731 1732 6515
 1732 1733 6516
 1733 1734 6517
 1734 1735 6518
 1735 1736 6519
 1736 1737 6520
 1737 1738 6521
 1738 1739 6522
 1739 1740 6523
 1740 1741 6524
 1741 1742 6525
 1742 1743 6526
 1743 1744 6527
 1744 1745 6528
 1745 1746 6529
 1746 1747 6530
 1747 1748 6531
 1748 1749 6532
 1749 1750 6533
 1750 1751 6534
 1751 1752 6535
 1752 1753 6536
 1753 1754 6537
 1754 1755 6538
 1755 1756 6539
 1756 1757 6540
 1757 1758 6541
 1758 1759 6542
 1759 1760 6543
 1760 1761 6544
 1761 1762 6545
 1762 1763 6546
 1763 1764 6547
 1764 1765 6548
 1765 1766 6549
 1766 1767 6550
 1767 1768 6551
 1768 1769 6552
 1769 1770 6553
 1770 1771 6554
 1771 1772 6555
 1772 1773 6556
 1773 1774 6557
 1774 1775 6558
 1775 1776 6559
 1776 1777 6560
 1777 1778 6561
 1778 1779 6562
 1779 1780 6563
 1780 1781 6564
 1781 1782 6565
 1782 1783 6566
 1783 1784 6567
 1784 1785 6568
 1785 1786 6569
 1786 1787 6570
 1787 1788 6571
 1788 1789 6572
 1789 1790 6573
 1790 1791 6574
 1791 1792 6575
 1792 1793 6576
 1793 1794 6577
 1794 1795 6578
 1795 1796 6579
 1796 1797 6580
 1797 1798 6581
 1798 1799 6582
 1800 1801 6583
 1801 1802 6584
 1802 1803 6585
 1803 1804 6586
 1804 1805 6587
 1805 1806 6588
 1806 1807 6589
 1807 1808 6590
 1808 1809 6591
 1809 1810 6592
 1810 1811 6593
 1811 1812 6594
 1812 1813 6595
 1813 1814 6596
 1814 1815 6597
 1815 1816 6598
 1816 1817 6599
 1817 1818 6600
 1818 1819 6601
 1819 1820 6602
 1820 1821 6603
 1821 1822 6604
 1822 1823 6605
 1823 1824 6606
 1824 1825 6607
 1825 1826 6608
 1826 1827 6609
 1827 1828 6610
 1828 1829 6611
 1829 1830 6612
 1830 1831 6613
 1831 1832 6614
 1832 1833 6615
 1833 1834 6616
 1834 1835 6617
 1835 1836 6618
 1836 1837 6619
 1837 1838 6620
 1838 1839 6621
 1839 1840 6622
 1840 1841 6623
 1841 1842 6624
 1842 1843 6625
 1843 1844 6626
 1844 1845 6627
 1845 1846 6628
 1846 1847 6629
 1847 1848 6630
 1848 1849 6631
 1849 1850 6632
 1850 1851 6633
 1851 1852 6634
 1852 1853 6635
 1853 1854 6636
 1854 1855 6637
 1855 1856 6638
 1856 1857 6639
 1857 1858 6640
 1858 1859 6641
 1859 1860 6642
 1860 1861 6643
 1861 1862 6644
 1862 1863 6645
 1863 1864 6646
 1864 1865 6647
 1865 1866 6648
 1866 1867 6649
 1867 1868 6650
 1868 1869 6651
 1869 1870 6652
 1870 1871 6653
 1871 1872 6654
 1872 1873 6655
 1873 1874 6656
 1874 1875 6657
 1875 1876 6658
 1876 1877 6659
 1877 1878 6660
 1878 1879 6661
 1879 1880 6662
 1880 1881 6663
 1881 1882 6664
 1882 1883 6665
 1883 1884 6666
 1884 1885 6667
 1885 1886 6668
 1886 1887 6669
 1887 1888 6670
 1888 1889 6671
 1889 1890 6672
 1890 1891 6673
 1891 1892 6674
 1892 1893 6675
 1893 1894 6676
 1894 1895 6677
 1895 1896 6678
 1896 1897 6679
 1897 1898 6680
 1898 1899 6681
 1900 1901 6682
 1901 1902 6683
 1902 1903 6684
 1903 1904 6685
 1904 1905 6686
 1905 1906 6687
 1906 1907 6688
 1907 1908 6689
 1908 1909 6690
 1909 1910 6691
 1910 1911 6692
 1911 1912 6693
 1912 1913 6694
 1913 1914 6695
 1914 1915 6696
 1915 1916 6697
 1916 1917 6698
 1917 1918 6699
 1918 1919 6700
 1919 1920 6701
 1920 1921 6702
 1921 1922 6703
 1922 1923 6704
 1923 1924 6705
 1924 1925 6706
 1925 1926 6707
 1926 1927 6708
 1927 1928 6709
 1928 1929 6710
 1929 1930 6711
 1930 1931 6712
 1931 1932 6713
 1932 1933 6714
 1933 1934 6715
 1934 1935 6716
 1935 1936 6717
 1936 1937 6718
 1937 1938 6719
 1938 1939 6720
 1939 1940 6721
 1940 1941 6722
 1941 1942 6723
 1942 1943 6724
 1943 1944 6725
 1944 1945 6726
 1945 1946 6727
 1946 1947 6728
 1947 1948 6729
 1948 1949 6730
 1949 1950 6731
 1950 1951 6732
 1951 1952 6733
 1952 1953 6734
 1953 1954 6735
 1954 1955 6736
 1955 1956 6737
 1956 1957 6738
 1957 1958 6739
 1958 1959 6740
 1959 1960 6741
 1960 1961 6742
 1961 1962 6743
 1962 1963 6744
 1963 1964 6745
 1964 1965 6746
 1965 1966 6747
 1966 1967 6748
 1967 1968 6749
 1968 1969 6750
 1969 1970 6751
 1970 1971 6752
 1971 1972 6753
 1972 1973 6754
 1973 1974 6755
 1974 1975 6756
 1975 1976 6757
 1976 1977 6758
 1977 1978 6759
 1978 1979 6760
 1979 1980 6761
 1980 1981 6762
 1981 1982 6763
 1982 1983 6764
 1983 1984 6765
 1984 1985 6766
 1985 1986 6767
 1986 1987 6768
 1987 1988 6769
 1988 1989 6770
 1989 1990 6771
 1990 1991 6772
 1991 1992 6773
 1992 1993 6774
 1993 1994 6775
 1994 1995 6776
 1995 1996 6777
 1996 1997 6778
 1997 1998 6779
 1998 1999 6780
 2000 2001 6781
 2001 2002 6782
 2002 2003 6783
 2003 2004 6784
 2004 2005 6785
 2005 2006 6786
 2006 2007 6787
 2007 2008 6788
 2008 2009 6789
 2009 2010 6790
 2010 2011 6791
 2011 2012 6792
 2012 2013 6793
 2013 2014 6794
 2014 2015 6795
 2015 2016 6796
 2016 2017 6797
 2017 2018 6798
 2018 2019 6799
 2019 2020 6800
 2020 2021 6801
 2021 2022 6802
 2022 2023 6803
 2023 2024 6804
 2024 2025 6805
 2025 2026 6806
 2026 2027 6807
 2027 2028 6808
 2028 2029 6809
 2029 2030 6810
 2030 2031 6811
 2031 2032 6812
 2032 2033 6813
 2033 2034 6814
 2034 2035 6815
 2035 2036 6816
 2036 2037 6817
 2037 2038 6818
 2038 2039 6819
 2039 2040 6820
 2040 2041 6821
 2041 2042 6822
 2042 2043 6823
 2043 2044 6824
 2044 2045 6825
 2045 2046 6826
 2046 2047 6827
 2047 2048 6828
 2048 2049 6829
 2049 2050 6830
 2050 2051 6831
 2051 2052 6832
 2052 2053 6833
 2053 2054 6834
 2054 2055 6835
 2055 2056 6836
 2056 2057 6837
 2057 2058 6838
 2058 2059 6839
 2059 2060 6840
 2060 2061 6841
 2061 2062 6842
 2062 2063 6843
 2063 2064 6844
 2064 2065 6845
 2065 2066 6846
 2066 2067 6847
 2067 2068 6848
 2068 2069 6849
 2069 2070 6850
 2070 2071 6851
 2071 2072 6852
 2072 2073 6853
 2073 2074 6854
 2074 2075 6855
 2075 2076 6856
 2076 2077 6857
 2077 2078 6858
 2078 2079 6859
 2079 2080 6860
 2080 2081 6861
 2081 2082 6862
 2082 2083 6863
 2083 2084 6864
 2084 2085 6865
 2085 2086 6866
 2086 2087 6867
 2087 2088 6868
 2088 2089 6869
 2089 2090 6870
 2090 2091 6871
 2091 2092 6872
 2092 2093 6873
 2093 2094 6874
 2094 2095 6875
 2095 2096 6876
 2096 2097 6877
 2097 2098 6878
 2098 2099 6879
 2100 2101 6880
 2101 2102 6881
 2102 2103 6882
 2103 2104 6883
 2104 2105 6884
 2105 2106 6885
 2106 2107 6886
 2107 2108 6887
 2108 2109 6888
 2109 2110 6889
 2110 2111 6890
 2111 2112 6891
 2112 2113 6892
 2113 2114 6893
 2114 2115 6894
 2115 2116 6895
 2116 2117 6896
 2117 2118 6897
 2118 2119 6898
 2119 2120 6899
 2120 2121 6900
 2121 2122 6901
 2122 2123 6902
 2123 2124 6903
 2124 2125 6904
 2125 2126 6905
 2126 2127 6906
 2127 2128 6907
 2128 2129 6908
 2129 2130 6909
 2130 2131 6910
 2131 2132 6911
 2132 2133 6912
 2133 2134 6913
 2134 2135 6914
 2135 2136 6915
 2136 2137 6916
 2137 2138 6917
 2138 2139 6918
 2139 2140 6919
 2140 2141 6920
 2141 2142 6921
 2142 2143 6922
 2143 2144 6923
 2144 2145 6924
 2145 2146 6925
 2146 2147 6926
 2147 2148 6927
 2148 2149 6928
 2149 2150 6929
 2150 2151 6930
 2151 2152 6931
 2152 2153 6932
 2153 2154 6933
 2154 2155 6934
 2155 2156 6935
 2156 2157 6936
 2157 2158 6937
 2158 2159 6938
 2159 2160 6939
 2160 2161 6940
 2161 2162 6941
 2162 2163 6942
 2163 2164 6943
 2164 2165 6944
 2165 2166 6945
 2166 2167 6946
 2167 2168 6947
 2168 2169 6948
 2169 2170 6949
 2170 2171 6950
 2171 2172 6951
 2172 2173 6952
 2173 2174 6953
 2174 2175 6954
 2175 2176 6955
 2176 2177 6956
 2177 2178 6957
 2178 2179 6958
 2179 2180 6959
 2180 2181 6960
 2181 2182 6961
 2182 2183 6962
 2183 2184 6963
 2184 2185 6964
 2185 2186 6965
 2186 2187 6966
 2187 2188 6967
 2188 2189 6968
 2189 2190 6969
 2190 2191 6970
 2191 2192 6971
 2192 2193 6972
 2193 2194 6973
 2194 2195 6974
 2195 2196 6975
 2196 2197 6976
 2197 2198 6977
 2198 2199 6978
 2200 2201 6979
 2201 2202 6980
 2202 2203 6981
 2203 2204 6982
 2204 2205 6983
 2205 2206 6984
 2206 2207 6985
 2207 2208 6986
 2208 2209 6987
 2209 2210 6988
 2210 2211 6989
 2211 2212 6990
 2212 2213 6991
 2213 2214 6992
 2214 2215 6993
 2215 2216 6994
 2216 2217 6995
 2217 2218 6996
 2218 2219 6997
 2219 2220 6998
 2220 2221 6999
 2221 2222 7000
 2222 2223 7001
 2223 2224 7002
 2224 2225 7003
 2225 2226 7004
 2226 2227 7005
 2227 2228 7006
 2228 2229 7007
 2229 2230 7008
 2230 2231 7009
 2231 2232 7010
 2232 2233 7011
 2233 2234 7012
 2234 2235 7013
 2235 2236 7014
 2236 2237 7015
 2237 2238 7016
 2238 2239 7017
 2239 2240 7018
 2240 2241 7019
 2241 2242 7020
 2242 2243 7021
 2243 2244 7022
 2244 2245 7023
 2245 2246 7024
 2246 2247 7025
 2247 2248 7026
 2248 2249 7027
 2249 2250 7028
 2250 2251 7029
 2251 2252 7030
 2252 2253 7031
 2253 2254 7032
 2254 2255 7033
 2255 2256 7034
 2256 2257 7035
 2257 2258 7036
 2258 2259 7037
 2259 2260 7038
 2260 2261 7039
 2261 2262 7040
 2262 2263 7041
 2263 2264 7042
 2264 2265 7043
 2265 2266 7044
 2266 2267 7045
 2267 2268 7046
 2268 2269 7047
 2269 2270 7048
 2270 2271 7049
 2271 2272 7050
 2272 2273 7051
 2273 2274 7052
 2274 2275 7053
 2275 2276 7054
 2276 2277 7055
 2277 2278 7056
 2278 2279 7057
 2279 2280 7058
 2280 2281 7059
 2281 2282 7060
 2282 2283 7061
 2283 2284 7062
 2284 2285 7063
 2285 2286 7064
 2286 2287 7065
 2287 2288 7066
 2288 2289 7067
 2289 2290 7068
 2290 2291 7069
 2291 2292 7070
 2292 2293 7071
 2293 2294 7072
 2294 2295 7073
 2295 2296 7074
 2296 2297 7075
 2297 2298 7076
 2298 2299 7077
 2300 2301 7078
 2301 2302 7079
 2302 2303 7080
 2303 2304 7081
 2304 2305 7082
 2305 2306 7083
 2306 2307 7084
 2307 2308 7085
 2308 2309 7086
 2309 2310 7087
 2310 2311 7088
 2311 2312 7089
 2312 2313 7090
 2313 2314 7091
 2314 2315 7092
 2315 2316 7093
 2316 2317 7094
 2317 2318 7095
 2318 2319 7096
 2319 2320 7097
 2320 2321 7098
 2321 2322 7099
 2322 2323 7100
 2323 2324 7101
 2324 2325 7102
 2325 2326 7103
 2326 2327 7104
 2327 2328 7105
 2328 2329 7106
 2329 2330 7107
 2330 2331 7108
 2331 2332 7109
 2332 2333 7110
 2333 2334 7111
 2334 2335 7112
 2335 2336 7113
 2336 2337 7114
 2337 2338 7115
 2338 2339 7116
 2339 2340 7117
 2340 2341 7118
 2341 2342 7119
 2342 2343 7120
 2343 2344 7121
 2344 2345 7122
 2345 2346 7123
 2346 2347 7124
 2347 2348 7125
 2348 2349 7126
 2349 2350 7127
 2350 2351 7128
 2351 2352 7129
 2352 2353 7130
 2353 2354 7131
 2354 2355 7132
 2355 2356 7133
 2356 2357 7134
 2357 2358 7135
 2358 2359 7136
 2359 2360 7137
 2360 2361 7138
 2361 2362 7139
 2362 2363 7140
 2363 2364 7141
 2364 2365 7142
 2365 2366 7143
 2366 2367 7144
 2367 2368 7145
 2368 2369 7146
 2369 2370 7147
 2370 2371 7148
 2371 2372 7149
 2372 2373 7150
 2373 2374 7151
 2374 2375 7152
 2375 2376 7153
 2376 2377 7154
 2377 2378 7155
 2378 2379 7156
 2379 2380 7157
 2380 2381 7158
 2381 2382 7159
 2382 2383 7160
 2383 2384 7161
 2384 2385 7162
 2385 2386 7163
 2386 2387 7164
 2387 2388 7165
 2388 2389 7166
 2389 2390 7167
 2390 2391 7168
 2391 2392 7169
 2392 2393 7170
 2393 2394 7171
 2394 2395 7172
 2395 2396 7173
 2396 2397 7174
 2397 2398 7175
 2398 2399 7176
 2400 2401 7177
 2401 2402 7178
 2402 2403 7179
 2403 2404 7180
 2404 2405 7181
 2405 2406 7182
 2406 2407 7183
 2407 2408 7184
 2408 2409 7185
 2409 2410 7186
 2410 2411 7187
 2411 2412 7188
 2412 2413 7189
 2413 2414 7190
 2414 2415 7191
 2415 2416 7192
 2416 2417 7193
 2417 2418 7194
 2418 2419 7195
 2419 2420 7196
 2420 2421 7197
 2421 2422 7198
 2422 2423 7199
 2423 2424 7200
 2424 2425 7201
 2425 2426 7202
 2426 2427 7203
 2427 2428 7204
 2428 2429 7205
 2429 2430 7206
 2430 2431 7207
 2431 2432 7208
 2432 2433 7209
 2433 2434 7210
 2434 2435 7211
 2435 2436 7212
 2436 2437 7213
 2437 2438 7214
 2438 2439 7215
 2439 2440 7216
 2440 2441 7217
 2441 2442 7218
 2442 2443 7219
 2443 2444 7220
 2444 2445 7221
 2445 2446 7222
 2446 2447 7223
 2447 2448 7224
 2448 2449 7225
 2449 2450 7226
 2450 2451 7227
 2451 2452 7228
 2452 2453 7229
 2453 2454 7230
 2454 2455 7231
 2455 2456 7232
 2456 2457 7233
 2457 2458 7234
 2458 2459 7235
 2459 2460 7236
 2460 2461 7237
 2461 2462 7238
 2462 2463 7239
 2463 2464 7240
 2464 2465 7241
 2465 2466 7242
 2466 2467 7243
 2467 2468 7244
 2468 2469 7245
 2469 2470 7246
 2470 2471 7247
 2471 2472 7248
 2472 2473 7249
 2473 2474 7250
 2474 2475 7251
 2475 2476 7252
 2476 2477 7253
 2477 2478 7254
 2478 2479 7255
 2479 2480 7256
 2480 2481 7257
 2481 2482 7258
 2482 2483 7259
 2483 2484 7260
 2484 2485 7261
 2485 2486 7262
 2486 2487 7263
 2487 2488 7264
 2488 2489 7265
 2489 2490 7266
 2490 2491 7267
 2491 2492 7268
 2492 2493 7269
 2493 2494 7270
 2494 2495 7271
 2495 2496 7272
 2496 2497 7273
 2497 2498 7274
 2498 2499 7275
 2500 2501 7276
 2501 2502 7277
 2502 2503 7278
 2503 2504 7279
 2504 2505 7280
 2505 2506 7281
 2506 2507 7282
 2507 2508 7283
 2508 2509 7284
 2509 2510 7285
 2510 2511 7286
 2511 2512 7287
 2512 2513 7288
 2513 2514 7289
 2514 2515 7290
 2515 2516 7291
 2516 2517 7292
 2517 2518 7293
 2518 2519 7294
 2519 2520 7295
 2520 2521 7296
 2521 2522 7297
 2522 2523 7298
 2523 2524 7299
 2524 2525 7300
 2525 2526 7301
 2526 2527 7302
 2527 2528 7303
 2528 2529 7304
 2529 2530 7305
 2530 2531 7306
 2531 2532 7307
 2532 2533 7308
 2533 2534 7309
 2534 2535 7310
 2535 2536 7311
 2536 2537 7312
 2537 2538 7313
 2538 2539 7314
 2539 2540 7315
 2540 2541 7316
 2541 2542 7317
 2542 2543 7318
 2543 2544 7319
 2544 2545 7320
 2545 2546 7321
 2546 2547 7322
 2547 2548 7323
 2548 2549 7324
 2549 2550 7325
 2550 2551 7326
 2551 2552 7327
 2552 2553 7328
 2553 2554 7329
 2554 2555 7330
 2555 2556 7331
 2556 2557 7332
 2557 2558 7333
 2558 2559 7334
 2559 2560 7335
 2560 2561 7336
 2561 2562 7337
 2562 2563 7338
 2563 2564 7339
 2564 2565 7340
 2565 2566 7341
 2566 2567 7342
 2567 2568 7343
 2568 2569 7344
 2569 2570 7345
 2570 2571 7346
 2571 2572 7347
 2572 2573 7348
 2573 2574 7349
 2574 2575 7350
 2575 2576 7351
 2576 2577 7352
 2577 2578 7353
 2578 2579 7354
 2579 2580 7355
 2580 2581 7356
 2581 2582 7357
 2582 2583 7358
 2583 2584 7359
 2584 2585 7360
 2585 2586 7361
 2586 2587 7362
 2587 2588 7363
 2588 2589 7364
 2589 2590 7365
 2590 2591 7366
 2591 2592 7367
 2592 2593 7368
 2593 2594 7369
 2594 2595 7370
 2595 2596 7371
 2596 2597 7372
 2597 2598 7373
 2598 2599 7374
 2600 2601 7375
 2601 2602 7376
 2602 2603 7377
 2603 2604 7378
 2604 2605 7379
 2605 2606 7380
 2606 2607 7381
 2607 2608 7382
 2608 2609 7383
 2609 2610 7384
 2610 2611 7385
 2611 2612 7386
 2612 2613 7387
 2613 2614 7388
 2614 2615 7389
 2615 2616 7390
 2616 2617 7391
 2617 2618 7392
 2618 2619 7393
 2619 2620 7394
 2620 2621 7395
 2621 2622 7396
 2622 2623 7397
 2623 2624 7398
 2624 2625 7399
 2625 2626 7400
 2626 2627 7401
 2627 2628 7402
 2628 2629 7403
 2629 2630 7404
 2630 2631 7405
 2631 2632 7406
 2632 2633 7407
 2633 2634 7408
 2634 2635 7409
 2635 2636 7410
 2636 2637 7411
 2637 2638 7412
 2638 2639 7413
 2639 2640 7414
 2640 2641 7415
 2641 2642 7416
 2642 2643 7417
 2643 2644 7418
 2644 2645 7419
 2645 2646 7420
 2646 2647 7421
 2647 2648 7422
 2648 2649 7423
 2649 2650 7424
 2650 2651 7425
 2651 2652 7426
 2652 2653 7427
 2653 2654 7428
 2654 2655 7429
 2655 2656 7430
 2656 2657 7431
 2657 2658 7432
 2658 2659 7433
 2659 2660 7434
 2660 2661 7435
 2661 2662 7436
 2662 2663 7437
 2663 2664 7438
 2664 2665 7439
 2665 2666 7440
 2666 2667 7441
 2667 2668 7442
 2668 2669 7443
 2669 2670 7444
 2670 2671 7445
 2671 2672 7446
 2672 2673 7447
 2673 2674 7448
 2674 2675 7449
 2675 2676 7450
 2676 2677 7451
 2677 2678 7452
 2678 2679 7453
 2679 2680 7454
 2680 2681 7455
 2681 2682 7456
 2682 2683 7457
 2683 2684 7458
 2684 2685 7459
 2685 2686 7460
 2686 2687 7461
 2687 2688 7462
 2688 2689 7463
 2689 2690 7464
 2690 2691 7465
 2691 2692 7466
 2692 2693 7467
 2693 2694 7468
 2694 2695 7469
 2695 2696 7470
 2696 2697 7471
 2697 2698 7472
 2698 2699 7473
 2700 2701 7474
 2701 2702 7475
 2702 2703 7476
 2703 2704 7477
 2704 2705 7478
 2705 2706 7479
 2706 2707 7480
 2707 2708 7481
 2708 2709 7482
 2709 2710 7483
 2710 2711 7484
 2711 2712 7485
 2712 2713 7486
 2713 2714 7487
 2714 2715 7488
 2715 2716 7489
 2716 2717 7490
 2717 2718 7491
 2718 2719 7492
 2719 2720 7493
 2720 2721 7494
 2721 2722 7495
 2722 2723 7496
 2723 2724 7497
 2724 2725 7498
 2725 2726 7499
 2726 2727 7500
 2727 2728 7501
 2728 2729 7502
 2729 2730 7503
 2730 2731 7504
 2731 2732 7505
 2732 2733 7506
 2733 2734 7507
 2734 2735 7508
 2735 2736 7509
 2736 2737 7510
 2737 2738 7511
 2738 2739 7512
 2739 2740 7513
 2740 2741 7514
 2741 2742 7515
 2742 2743 7516
 2743 2744 7517
 2744 2745 7518
 2745 2746 7519
 2746 2747 7520
 2747 2748 7521
 2748 2749 7522
 2749 2750 7523
 2750 2751 7524
 2751 2752 7525
 2752 2753 7526
 2753 2754 7527
 2754 2755 7528
 2755 2756 7529
 2756 2757 7530
 2757 2758 7531
 2758 2759 7532
 2759 2760 7533
 2760 2761 7534
 2761 2762 7535
 2762 2763 7536
 2763 2764 7537
 2764 2765 7538
 2765 2766 7539
 2766 2767 7540
 2767 2768 7541
 2768 2769 7542
 2769 2770 7543
 2770 2771 7544
 2771 2772 7545
 2772 2773 7546
 2773 2774 7547
 2774 2775 7548
 2775 2776 7549
 2776 2777 7550
 2777 2778 7551
 2778 2779 7552
 2779 2780 7553
 2780 2781 7554
 2781 2782 7555
 2782 2783 7556
 2783 2784 7557
 2784 2785 7558
 2785 2786 7559
 2786 2787 7560
 2787 2788 7561
 2788 2789 7562
 2789 2790 7563
 2790 2791 7564
 2791 2792 7565
 2792 2793 7566
 2793 2794 7567
 2794 2795 7568
 2795 2796 7569
 2796 2797 7570
 2797 2798 7571
 2798 2799 7572
 2800 2801 7573
 2801 2802 7574
 2802 2803 7575
 2803 2804 7576
 2804 2805 7577
 2805 2806 7578
 2806 2807 7579
 2807 2808 7580
 2808 2809 7581
 2809 2810 7582
 2810 2811 7583
 2811 2812 7584
 2812 2813 7585
 2813 2814 7586
 2814 2815 7587
 2815 2816 7588
 2816 2817 7589
 2817 2818 7590
 2818 2819 7591
 2819 2820 7592
 2820 2821 7593
 2821 2822 7594
 2822 2823 7595
 2823 2824 7596
 2824 2825 7597
 2825 2826 7598
 2826 2827 7599
 2827 2828 7600
 2828 2829 7601
 2829 2830 7602
 2830 2831 7603
 2831 2832 7604
 2832 2833 7605
 2833 2834 7606
 2834 2835 7607
 2835 2836 7608
 2836 2837 7609
 2837 2838 7610
 2838 2839 7611
 2839 2840 7612
 2840 2841 7613
 2841 2842 7614
 2842 2843 7615
 2843 2844 7616
 2844 2845 7617
 2845 2846 7618
 2846 2847 7619
 2847 2848 7620
 2848 2849 7621
 2849 2850 7622
 2850 2851 7623
 2851 2852 7624
 2852 2853 7625
 2853 2854 7626
 2854 2855 7627
 2855 2856 7628
 2856 2857 7629
 2857 2858 7630
 2858 2859 7631
 2859 2860 7632
 2860 2861 7633
 2861 2862 7634
 2862 2863 7635
 2863 2864 7636
 2864 2865 7637
 2865 2866 7638
 2866 2867 7639
 2867 2868 7640
 2868 2869 7641
 2869 2870 7642
 2870 2871 7643
 2871 2872 7644
 2872 2873 7645
 2873 2874 7646
 2874 2875 7647
 2875 2876 7648
 2876 2877 7649
 2877 2878 7650
 2878 2879 7651
 2879 2880 7652
 2880 2881 7653
 2881 2882 7654
 2882 2883 7655
 2883 2884 7656
 2884 2885 7657
 2885 2886 7658
 2886 2887 7659
 2887 2888 7660
 2888 2889 7661
 2889 2890 7662
 2890 2891 7663
 2891 2892 7664
 2892 2893 7665
 2893 2894 7666
 2894 2895 7667
 2895 2896 7668
 2896 2897 7669
 2897 2898 7670
 2898 2899 7671
 2900 2901 7672
 2901 2902 7673
 2902 2903 7674
 2903 2904 7675
 2904 2905 7676
 2905 2906 7677
 2906 2907 7678
 2907 2908 7679
 2908 2909 7680
 2909 2910 7681
 2910 2911 7682
 2911 2912 7683
 2912 2913 7684
 2913 2914 7685
 2914 2915 7686
 2915 2916 7687
 2916 2917 7688
 2917 2918 7689
 2918 2919 7690
 2919 2920 7691
 2920 2921 7692
 2921 2922 7693
 2922 2923 7694
 2923 2924 7695
 2924 2925 7696
 2925 2926 7697
 2926 2927 7698
 2927 2928 7699
 2928 2929 7700
 2929 2930 7701
 2930 2931 7702
 2931 2932 7703
 2932 2933 7704
 2933 2934 7705
 2934 2935 7706
 2935 2936 7707
 2936 2937 7708
 2937 2938 7709
 2938 2939 7710
 2939 2940 7711
 2940 2941 7712
 2941 2942 7713
 2942 2943 7714
 2943 2944 7715
 2944 2945 7716
 2945 2946 7717
 2946 2947 7718
 2947 2948 7719
 2948 2949 7720
 2949 2950 7721
 2950 2951 7722
 2951 2952 7723
 2952 2953 7724
 2953 2954 7725
 2954 2955 7726
 2955 2956 7727
 2956 2957 7728
 2957 2958 7729
 2958 2959 7730
 2959 2960 7731
 2960 2961 7732
 2961 2962 7733
 2962 2963 7734
 2963 2964 7735
 2964 2965 7736
 2965 2966 7737
 2966 2967 7738
 2967 2968 7739
 2968 2969 7740
 2969 2970 7741
 2970 2971 7742
 2971 2972 7743
 2972 2973 7744
 2973 2974 7745
 2974 2975 7746
 2975 2976 7747
 2976 2977 7748
 2977 2978 7749
 2978 2979 7750
 2979 2980 7751
 2980 2981 7752
 2981 2982 7753
 2982 2983 7754
 2983 2984 7755
 2984 2985 7756
 2985 2986 7757
 2986 2987 7758
 2987 2988 7759
 2988 2989 7760
 2989 2990 7761
 2990 2991 7762
 2991 2992 7763
 2992 2993 7764
 2993 2994 7765
 2994 2995 7766
 2995 2996 7767
 2996 2997 7768
 2997 2998 7769
 2998 2999 7770
 3000 3001 7771
 3001 3002 7772
 3002 3003 7773
 3003 3004 7774
 3004 3005 7775
 3005 3006 7776
 3006 3007 7777
 3007 3008 7778
 3008 3009 7779
 3009 3010 7780
 3010 3011 7781
 3011 3012 7782
 3012 3013 7783
 3013 3014 7784
 3014 3015 7785
 3015 3016 7786
 3016 3017 7787
 3017 3018 7788
 3018 3019 7789
 3019 3020 7790
 3020 3021 7791
 3021 3022 7792
 3022 3023 7793
 3023 3024 7794
 3024 3025 7795
 3025 3026 7796
 3026 3027 7797
 3027 3028 7798
 3028 3029 7799
 3029 3030 7800
 3030 3031 7801
 3031 3032 7802
 3032 3033 7803
 3033 3034 7804
 3034 3035 7805
 3035 3036 7806
 3036 3037 7807
 3037 3038 7808
 3038 3039 7809
 3039 3040 7810
 3040 3041 7811
 3041 3042 7812
 3042 3043 7813
 3043 3044 7814
 3044 3045 7815
 3045 3046 7816
 3046 3047 7817
 3047 3048 7818
 3048 3049 7819
 3049 3050 7820
 3050 3051 7821
 3051 3052 7822
 3052 3053 7823
 3053 3054 7824
 3054 3055 7825
 3055 3056 7826
 3056 3057 7827
 3057 3058 7828
 3058 3059 7829
 3059 3060 7830
 3060 3061 7831
 3061 3062 7832
 3062 3063 7833
 3063 3064 7834
 3064 3065 7835
 3065 3066 7836
 3066 3067 7837
 3067 3068 7838
 3068 3069 7839
 3069 3070 7840
 3070 3071 7841
 3071 3072 7842
 3072 3073 7843
 3073 3074 7844
 3074 3075 7845
 3075 3076 7846
 3076 3077 7847
 3077 3078 7848
 3078 3079 7849
 3079 3080 7850
 3080 3081 7851
 3081 3082 7852
 3082 3083 7853
 3083 3084 7854
 3084 3085 7855
 3085 3086 7856
 3086 3087 7857
 3087 3088 7858
 3088 3089 7859
 3089 3090 7860
 3090 3091 7861
 3091 3092 7862
 3092 3093 7863
 3093 3094 7864
 3094 3095 7865
 3095 3096 7866
 3096 3097 7867
 3097 3098 7868
 3098 3099 7869
 3100 3101 7870
 3101 3102 7871
 3102 3103 7872
 3103 3104 7873
 3104 3105 7874
 3105 3106 7875
 3106 3107 7876
 3107 3108 7877
 3108 3109 7878
 3109 3110 7879
 3110 3111 7880
 3111 3112 7881
 3112 3113 7882
 3113 3114 7883
 3114 3115 7884
 3115 3116 7885
 3116 3117 7886
 3117 3118 7887
 3118 3119 7888
 3119 3120 7889
 3120 3121 7890
 3121 3122 7891
 3122 3123 7892
 3123 3124 7893
 3124 3125 7894
 3125 3126 7895
 3126 3127 7896
 3127 3128 7897
 3128 3129 7898
 3129 3130 7899
 3130 3131 7900
 3131 3132 7901
 3132 3133 7902
 3133 3134 7903
 3134 3135 7904
 3135 3136 7905
 3136 3137 7906
 3137 3138 7907
 3138 3139 7908
 3139 3140 7909
 3140 3141 7910
 3141 3142 7911
 3142 3143 7912
 3143 3144 7913
 3144 3145 7914
 3145 3146 7915
 3146 3147 7916
 3147 3148 7917
 3148 3149 7918
 3149 3150 7919
 3150 3151 7920
 3151 3152 7921
 3152 3153 7922
 3153 3154 7923
 3154 3155 7924
 3155 3156 7925
 3156 3157 7926
 3157 3158 7927
 3158 3159 7928
 3159 3160 7929
 3160 3161 7930
 3161 3162 7931
 3162 3163 7932
 3163 3164 7933
 3164 3165 7934
 3165 3166 7935
 3166 3167 7936
 3167 3168 7937
 3168 3169 7938
 3169 3170 7939
 3170 3171 7940
 3171 3172 7941
 3172 3173 7942
 3173 3174 7943
 3174 3175 7944
 3175 3176 7945
 3176 3177 7946
 3177 3178 7947
 3178 3179 7948
 3179 3180 7949
 3180 3181 7950
 3181 3182 7951
 3182 3183 7952
 3183 3184 7953
 3184 3185 7954
 3185 3186 7955
 3186 3187 7956
 3187 3188 7957
 3188 3189 7958
 3189 3190 7959
 3190 3191 7960
 3191 3192 7961
 3192 3193 7962
 3193 3194 7963
 3194 3195 7964
 3195 3196 7965
 3196 3197 7966
 3197 3198 7967
 3198 3199 7968
 3200 3201 7969
 3201 3202 7970
 3202 3203 7971
 3203 3204 7972
 3204 3205 7973
 3205 3206 7974
 3206 3207 7975
 3207 3208 7976
 3208 3209 7977
 3209 3210 7978
 3210 3211 7979
 3211 3212 7980
 3212 3213 7981
 3213 3214 7982
 3214 3215 7983
 3215 3216 7984
 3216 3217 7985
 3217 3218 7986
 3218 3219 7987
 3219 3220 7988
 3220 3221 7989
 3221 3222 7990
 3222 3223 7991
 3223 3224 7992
 3224 3225 7993
 3225 3226 7994
 3226 3227 7995
 3227 3228 7996
 3228 3229 7997
 3229 3230 7998
 3230 3231 7999
 3231 3232 8000
 3232 3233 8001
 3233 3234 8002
 3234 3235 8003
 3235 3236 8004
 3236 3237 8005
 3237 3238 8006
 3238 3239 8007
 3239 3240 8008
 3240 3241 8009
 3241 3242 8010
 3242 3243 8011
 3243 3244 8012
 3244 3245 8013
 3245 3246 8014
 3246 3247 8015
 3247 3248 8016
 3248 3249 8017
 3249 3250 8018
 3250 3251 8019
 3251 3252 8020
 3252 3253 8021
 3253 3254 8022
 3254 3255 8023
 3255 3256 8024
 3256 3257 8025
 3257 3258 8026
 3258 3259 8027
 3259 3260 8028
 3260 3261 8029
 3261 3262 8030
 3262 3263 8031
 3263 3264 8032
 3264 3265 8033
 3265 3266 8034
 3266 3267 8035
 3267 3268 8036
 3268 3269 8037
 3269 3270 8038
 3270 3271 8039
 3271 3272 8040
 3272 3273 8041
 3273 3274 8042
 3274 3275 8043
 3275 3276 8044
 3276 3277 8045
 3277 3278 8046
 3278 3279 8047
 3279 3280 8048
 3280 3281 8049
 3281 3282 8050
 3282 3283 8051
 3283 3284 8052
 3284 3285 8053
 3285 3286 8054
 3286 3287 8055
 3287 3288 8056
 3288 3289 8057
 3289 3290 8058
 3290 3291 8059
 3291 3292 8060
 3292 3293 8061
 3293 3294 8062
 3294 3295 8063
 3295 3296 8064
 3296 3297 8065
 3297 3298 8066
 3298 3299 8067
 3300 3301 8068
 3301 3302 8069
 3302 3303 8070
 3303 3304 8071
 3304 3305 8072
 3305 3306 8073
 3306 3307 8074
 3307 3308 8075
 3308 3309 8076
 3309 3310 8077
 3310 3311 8078
 3311 3312 8079
 3312 3313 8080
 3313 3314 8081
 3314 3315 8082
 3315 3316 8083
 3316 3317 8084
 3317 3318 8085
 3318 3319 8086
 3319 3320 8087
 3320 3321 8088
 3321 3322 8089
 3322 3323 8090
 3323 3324 8091
 3324 3325 8092
 3325 3326 8093
 3326 3327 8094
 3327 3328 8095
 3328 3329 8096
 3329 3330 8097
 3330 3331 8098
 3331 3332 8099
 3332 3333 8100
 3333 3334 8101
 3334 3335 8102
 3335 3336 8103
 3336 3337 8104
 3337 3338 8105
 3338 3339 8106
 3339 3340 8107
 3340 3341 8108
 3341 3342 8109
 3342 3343 8110
 3343 3344 8111
 3344 3345 8112
 3345 3346 8113
 3346 3347 8114
 3347 3348 8115
 3348 3349 8116
 3349 3350 8117
 3350 3351 8118
 3351 3352 8119
 3352 3353 8120
 3353 3354 8121
 3354 3355 8122
 3355 3356 8123
 3356 3357 8124
 3357 3358 8125
 3358 3359 8126
 3359 3360 8127
 3360 3361 8128
 3361 3362 8129
 3362 3363 8130
 3363 3364 8131
 3364 3365 8132
 3365 3366 8133
 3366 3367 8134
 3367 3368 8135
 3368 3369 8136
 3369 3370 8137
 3370 3371 8138
 3371 3372 8139
 3372 3373 8140
 3373 3374 8141
 3374 3375 8142
 3375 3376 8143
 3376 3377 8144
 3377 3378 8145
 3378 3379 8146
 3379 3380 8147
 3380 3381 8148
 3381 3382 8149
 3382 3383 8150
 3383 3384 8151
 3384 3385 8152
 3385 3386 8153
 3386 3387 8154
 3387 3388 8155
 3388 3389 8156
 3389 3390 8157
 3390 3391 8158
 3391 3392 8159
 3392 3393 8160
 3393 3394 8161
 3394 3395 8162
 3395 3396 8163
 3396 3397 8164
 3397 3398 8165
 3398 3399 8166
 3400 3401 8167
 3401 3402 8168
 3402 3403 8169
 3403 3404 8170
 3404 3405 8171
 3405 3406 8172
 3406 3407 8173
 3407 3408 8174
 3408 3409 8175
 3409 3410 8176
 3410 3411 8177
 3411 3412 8178
 3412 3413 8179
 3413 3414 8180
 3414 3415 8181
 3415 3416 8182
 3416 3417 8183
 3417 3418 8184
 3418 3419 8185
 3419 3420 8186
 3420 3421 8187
 3421 3422 8188
 3422 3423 8189
 3423 3424 8190
 3424 3425 8191
 3425 3426 8192
 3426 3427 8193
 3427 3428 8194
 3428 3429 8195
 3429 3430 8196
 3430 3431 8197
 3431 3432 8198
 3432 3433 8199
 3433 3434 8200
 3434 3435 8201
 3435 3436 8202
 3436 3437 8203
 3437 3438 8204
 3438 3439 8205
 3439 3440 8206
 3440 3441 8207
 3441 3442 8208
 3442 3443 8209
 3443 3444 8210
 3444 3445 8211
 3445 3446 8212
 3446 3447 8213
 3447 3448 8214
 3448 3449 8215
 3449 3450 8216
 3450 3451 8217
 3451 3452 8218
 3452 3453 8219
 3453 3454 8220
 3454 3455 8221
 3455 3456 8222
 3456 3457 8223
 3457 3458 8224
 3458 3459 8225
 3459 3460 8226
 3460 3461 8227
 3461 3462 8228
 3462 3463 8229
 3463 3464 8230
 3464 3465 8231
 3465 3466 8232
 3466 3467 8233
 3467 3468 8234
 3468 3469 8235
 3469 3470 8236
 3470 3471 8237
 3471 3472 8238
 3472 3473 8239
 3473 3474 8240
 3474 3475 8241
 3475 3476 8242
 3476 3477 8243
 3477 3478 8244
 3478 3479 8245
 3479 3480 8246
 3480 3481 8247
 3481 3482 8248
 3482 3483 8249
 3483 3484 8250
 3484 3485 8251
 3485 3486 8252
 3486 3487 8253
 3487 3488 8254
 3488 3489 8255
 3489 3490 8256
 3490 3491 8257
 3491 3492 8258
 3492 3493 8259
 3493 3494 8260
 3494 3495 8261
 3495 3496 8262
 3496 3497 8263
 3497 3498 8264
 3498 3499 8265
 3500 3501 8266
 3501 3502 8267
 3502 3503 8268
 3503 3504 8269
 3504 3505 8270
 3505 3506 8271
 3506 3507 8272
 3507 3508 8273
 3508 3509 8274
 3509 3510 8275
 3510 3511 8276
 3511 3512 8277
 3512 3513 8278
 3513 3514 8279
 3514 3515 8280
 3515 3516 8281
 3516 3517 8282
 3517 3518 8283
 3518 3519 8284
 3519 3520 8285
 3520 3521 8286
 3521 3522 8287
 3522 3523 8288
 3523 3524 8289
 3524 3525 8290
 3525 3526 8291
 3526 3527 8292
 3527 3528 8293
 3528 3529 8294
 3529 3530 8295
 3530 3531 8296
 3531 3532 8297
 3532 3533 8298
 3533 3534 8299
 3534 3535 8300
 3535 3536 8301
 3536 3537 8302
 3537 3538 8303
 3538 3539 8304
 3539 3540 8305
 3540 3541 8306
 3541 3542 8307
 3542 3543 8308
 3543 3544 8309
 3544 3545 8310
 3545 3546 8311
 3546 3547 8312
 3547 3548 8313
 3548 3549 8314
 3549 3550 8315
 3550 3551 8316
 3551 3552 8317
 3552 3553 8318
 3553 3554 8319
 3554 3555 8320
 3555 3556 8321
 3556 3557 8322
 3557 3558 8323
 3558 3559 8324
 3559 3560 8325
 3560 3561 8326
 3561 3562 8327
 3562 3563 8328
 3563 3564 8329
 3564 3565 8330
 3565 3566 8331
 3566 3567 8332
 3567 3568 8333
 3568 3569 8334
 3569 3570 8335
 3570 3571 8336
 3571 3572 8337
 3572 3573 8338
 3573 3574 8339
 3574 3575 8340
 3575 3576 8341
 3576 3577 8342
 3577 3578 8343
 3578 3579 8344
 3579 3580 8345
 3580 3581 8346
 3581 3582 8347
 3582 3583 8348
 3583 3584 8349
 3584 3585 8350
 3585 3586 8351
 3586 3587 8352
 3587 3588 8353
 3588 3589 8354
 3589 3590 8355
 3590 3591 8356
 3591 3592 8357
 3592 3593 8358
 3593 3594 8359
 3594 3595 8360
 3595 3596 8361
 3596 3597 8362
 3597 3598 8363
 3598 3599 8364
 3600 3601 8365
 3601 3602 8366
 3602 3603 8367
 3603 3604 8368
 3604 3605 8369
 3605 3606 8370
 3606 3607 8371
 3607 3608 8372
 3608 3609 8373
 3609 3610 8374
 3610 3611 8375
 3611 3612 8376
 3612 3613 8377
 3613 3614 8378
 3614 3615 8379
 3615 3616 8380
 3616 3617 8381
 3617 3618 8382
 3618 3619 8383
 3619 3620 8384
 3620 3621 8385
 3621 3622 8386
 3622 3623 8387
 3623 3624 8388
 3624 3625 8389
 3625 3626 8390
 3626 3627 8391
 3627 3628 8392
 3628 3629 8393
 3629 3630 8394
 3630 3631 8395
 3631 3632 8396
 3632 3633 8397
 3633 3634 8398
 3634 3635 8399
 3635 3636 8400
 3636 3637 8401
 3637 3638 8402
 3638 3639 8403
 3639 3640 8404
 3640 3641 8405
 3641 3642 8406
 3642 3643 8407
 3643 3644 8408
 3644 3645 8409
 3645 3646 8410
 3646 3647 8411
 3647 3648 8412
 3648 3649 8413
 3649 3650 8414
 3650 3651 8415
 3651 3652 8416
 3652 3653 8417
 3653 3654 8418
 3654 3655 8419
 3655 3656 8420
 3656 3657 8421
 3657 3658 8422
 3658 3659 8423
 3659 3660 8424
 3660 3661 8425
 3661 3662 8426
 3662 3663 8427
 3663 3664 8428
 3664 3665 8429
 3665 3666 8430
 3666 3667 8431
 3667 3668 8432
 3668 3669 8433
 3669 3670 8434
 3670 3671 8435
 3671 3672 8436
 3672 3673 8437
 3673 3674 8438
 3674 3675 8439
 3675 3676 8440
 3676 3677 8441
 3677 3678 8442
 3678 3679 8443
 3679 3680 8444
 3680 3681 8445
 3681 3682 8446
 3682 3683 8447
 3683 3684 8448
 3684 3685 8449
 3685 3686 8450
 3686 3687 8451
 3687 3688 8452
 3688 3689 8453
 3689 3690 8454
 3690 3691 8455
 3691 3692 8456
 3692 3693 8457
 3693 3694 8458
 3694 3695 8459
 3695 3696 8460
 3696 3697 8461
 3697 3698 8462
 3698 3699 8463
 3700 3701 8464
 3701 3702 8465
 3702 3703 8466
 3703 3704 8467
 3704 3705 8468
 3705 3706 8469
 3706 3707 8470
 3707 3708 8471
 3708 3709 8472
 3709 3710 8473
 3710 3711 8474
 3711 3712 8475
 3712 3713 8476
 3713 3714 8477
 3714 3715 8478
 3715 3716 8479
 3716 3717 8480
 3717 3718 8481
 3718 3719 8482
 3719 3720 8483
 3720 3721 8484
 3721 3722 8485
 3722 3723 8486
 3723 3724 8487
 3724 3725 8488
 3725 3726 8489
 3726 3727 8490
 3727 3728 8491
 3728 3729 8492
 3729 3730 8493
 3730 3731 8494
 3731 3732 8495
 3732 3733 8496
 3733 3734 8497
 3734 3735 8498
 3735 3736 8499
 3736 3737 8500
 3737 3738 8501
 3738 3739 8502
 3739 3740 8503
 3740 3741 8504
 3741 3742 8505
 3742 3743 8506
 3743 3744 8507
 3744 3745 8508
 3745 3746 8509
 3746 3747 8510
 3747 3748 8511
 3748 3749 8512
 3749 3750 8513
 3750 3751 8514
 3751 3752 8515
 3752 3753 8516
 3753 3754 8517
 3754 3755 8518
 3755 3756 8519
 3756 3757 8520
 3757 3758 8521
 3758 3759 8522
 3759 3760 8523
 3760 3761 8524
 3761 3762 8525
 3762 3763 8526
 3763 3764 8527
 3764 3765 8528
 3765 3766 8529
 3766 3767 8530
 3767 3768 8531
 3768 3769 8532
 3769 3770 8533
 3770 3771 8534
 3771 3772 8535
 3772 3773 8536
 3773 3774 8537
 3774 3775 8538
 3775 3776 8539
 3776 3777 8540
 3777 3778 8541
 3778 3779 8542
 3779 3780 8543
 3780 3781 8544
 3781 3782 8545
 3782 3783 8546
 3783 3784 8547
 3784 3785 8548
 3785 3786 8549
 3786 3787 8550
 3787 3788 8551
 3788 3789 8552
 3789 3790 8553
 3790 3791 8554
 3791 3792 8555
 3792 3793 8556
 3793 3794 8557
 3794 3795 8558
 3795 3796 8559
 3796 3797 8560
 3797 3798 8561
 3798 3799 8562
 3800 3801 8563
 3801 3802 8564
 3802 3803 8565
 3803 3804 8566
 3804 3805 8567
 3805 3806 8568
 3806 3807 8569
 3807 3808 8570
 3808 3809 8571
 3809 3810 8572
 3810 3811 8573
 3811 3812 8574
 3812 3813 8575
 3813 3814 8576
 3814 3815 8577
 3815 3816 8578
 3816 3817 8579
 3817 3818 8580
 3818 3819 8581
 3819 3820 8582
 3820 3821 8583
 3821 3822 8584
 3822 3823 8585
 3823 3824 8586
 3824 3825 8587
 3825 3826 8588
 3826 3827 8589
 3827 3828 8590
 3828 3829 8591
 3829 3830 8592
 3830 3831 8593
 3831 3832 8594
 3832 3833 8595
 3833 3834 8596
 3834 3835 8597
 3835 3836 8598
 3836 3837 8599
 3837 3838 8600
 3838 3839 8601
 3839 3840 8602
 3840 3841 8603
 3841 3842 8604
 3842 3843 8605
 3843 3844 8606
 3844 3845 8607
 3845 3846 8608
 3846 3847 8609
 3847 3848 8610
 3848 3849 8611
 3849 3850 8612
 3850 3851 8613
 3851 3852 8614
 3852 3853 8615
 3853 3854 8616
 3854 3855 8617
 3855 3856 8618
 3856 3857 8619
 3857 3858 8620
 3858 3859 8621
 3859 3860 8622
 3860 3861 8623
 3861 3862 8624
 3862 3863 8625
 3863 3864 8626
 3864 3865 8627
 3865 3866 8628
 3866 3867 8629
 3867 3868 8630
 3868 3869 8631
 3869 3870 8632
 3870 3871 8633
 3871 3872 8634
 3872 3873 8635
 3873 3874 8636
 3874 3875 8637
 3875 3876 8638
 3876 3877 8639
 3877 3878 8640
 3878 3879 8641
 3879 3880 8642
 3880 3881 8643
 3881 3882 8644
 3882 3883 8645
 3883 3884 8646
 3884 3885 8647
 3885 3886 8648
 3886 3887 8649
 3887 3888 8650
 3888 3889 8651
 3889 3890 8652
 3890 3891 8653
 3891 3892 8654
 3892 3893 8655
 3893 3894 8656
 3894 3895 8657
 3895 3896 8658
 3896 3897 8659
 3897 3898 8660
 3898 3899 8661
 3900 3901 8662
 3901 3902 8663
 3902 3903 8664
 3903 3904 8665
 3904 3905 8666
 3905 3906 8667
 3906 3907 8668
 3907 3908 8669
 3908 3909 8670
 3909 3910 8671
 3910 3911 8672
 3911 3912 8673
 3912 3913 8674
 3913 3914 8675
 3914 3915 8676
 3915 3916 8677
 3916 3917 8678
 3917 3918 8679
 3918 3919 8680
 3919 3920 8681
 3920 3921 8682
 3921 3922 8683
 3922 3923 8684
 3923 3924 8685
 3924 3925 8686
 3925 3926 8687
 3926 3927 8688
 3927 3928 8689
 3928 3929 8690
 3929 3930 8691
 3930 3931 8692
 3931 3932 8693
 3932 3933 8694
 3933 3934 8695
 3934 3935 8696
 3935 3936 8697
 3936 3937 8698
 3937 3938 8699
 3938 3939 8700
 3939 3940 8701
 3940 3941 8702
 3941 3942 8703
 3942 3943 8704
 3943 3944 8705
 3944 3945 8706
 3945 3946 8707
 3946 3947 8708
 3947 3948 8709
 3948 3949 8710
 3949 3950 8711
 3950 3951 8712
 3951 3952 8713
 3952 3953 8714
 3953 3954 8715
 3954 3955 8716
 3955 3956 8717
 3956 3957 8718
 3957 3958 8719
 3958 3959 8720
 3959 3960 8721
 3960 3961 8722
 3961 3962 8723
 3962 3963 8724
 3963 3964 8725
 3964 3965 8726
 3965 3966 8727
 3966 3967 8728
 3967 3968 8729
 3968 3969 8730
 3969 3970 8731
 3970 3971 8732
 3971 3972 8733
 3972 3973 8734
 3973 3974 8735
 3974 3975 8736
 3975 3976 8737
 3976 3977 8738
 3977 3978 8739
 3978 3979 8740
 3979 3980 8741
 3980 3981 8742
 3981 3982 8743
 3982 3983 8744
 3983 3984 8745
 3984 3985 8746
 3985 3986 8747
 3986 3987 8748
 3987 3988 8749
 3988 3989 8750
 3989 3990 8751
 3990 3991 8752
 3991 3992 8753
 3992 3993 8754
 3993 3994 8755
 3994 3995 8756
 3995 3996 8757
 3996 3997 8758
 3997 3998 8759
 3998 3999 8760
 4000 4001 8761
 4001 4002 8762
 4002 4003 8763
 4003 4004 8764
 4004 4005 8765
 4005 4006 8766
 4006 4007 8767
 4007 4008 8768
 4008 4009 8769
 4009 4010 8770
 4010 4011 8771
 4011 4012 8772
 4012 4013 8773
 4013 4014 8774
 4014 4015 8775
 4015 4016 8776
 4016 4017 8777
 4017 4018 8778
 4018 4019 8779
 4019 4020 8780
 4020 4021 8781
 4021 4022 8782
 4022 4023 8783
 4023 4024 8784
 4024 4025 8785
 4025 4026 8786
 4026 4027 8787
 4027 4028 8788
 4028 4029 8789
 4029 4030 8790
 4030 4031 8791
 4031 4032 8792
 4032 4033 8793
 4033 4034 8794
 4034 4035 8795
 4035 4036 8796
 4036 4037 8797
 4037 4038 8798
 4038 4039 8799
 4039 4040 8800
 4040 4041 8801
 4041 4042 8802
 4042 4043 8803
 4043 4044 8804
 4044 4045 8805
 4045 4046 8806
 4046 4047 8807
 4047 4048 8808
 4048 4049 8809
 4049 4050 8810
 4050 4051 8811
 4051 4052 8812
 4052 4053 8813
 4053 4054 8814
 4054 4055 8815
 4055 4056 8816
 4056 4057 8817
 4057 4058 8818
 4058 4059 8819
 4059 4060 8820
 4060 4061 8821
 4061 4062 8822
 4062 4063 8823
 4063 4064 8824
 4064 4065 8825
 4065 4066 8826
 4066 4067 8827
 4067 4068 8828
 4068 4069 8829
 4069 4070 8830
 4070 4071 8831
 4071 4072 8832
 4072 4073 8833
 4073 4074 8834
 4074 4075 8835
 4075 4076 8836
 4076 4077 8837
 4077 4078 8838
 4078 4079 8839
 4079 4080 8840
 4080 4081 8841
 4081 4082 8842
 4082 4083 8843
 4083 4084 8844
 4084 4085 8845
 4085 4086 8846
 4086 4087 8847
 4087 4088 8848
 4088 4089 8849
 4089 4090 8850
 4090 4091 8851
 4091 4092 8852
 4092 4093 8853
 4093 4094 8854
 4094 4095 8855
 4095 4096 8856
 4096 4097 8857
 4097 4098 8858
 4098 4099 8859
 4100 4101 8860
 4101 4102 8861
 4102 4103 8862
 4103 4104 8863
 4104 4105 8864
 4105 4106 8865
 4106 4107 8866
 4107 4108 8867
 4108 4109 8868
 4109 4110 8869
 4110 4111 8870
 4111 4112 8871
 4112 4113 8872
 4113 4114 8873
 4114 4115 8874
 4115 4116 8875
 4116 4117 8876
 4117 4118 8877
 4118 4119 8878
 4119 4120 8879
 4120 4121 8880
 4121 4122 8881
 4122 4123 8882
 4123 4124 8883
 4124 4125 8884
 4125 4126 8885
 4126 4127 8886
 4127 4128 8887
 4128 4129 8888
 4129 4130 8889
 4130 4131 8890
 4131 4132 8891
 4132 4133 8892
 4133 4134 8893
 4134 4135 8894
 4135 4136 8895
 4136 4137 8896
 4137 4138 8897
 4138 4139 8898
 4139 4140 8899
 4140 4141 8900
 4141 4142 8901
 4142 4143 8902
 4143 4144 8903
 4144 4145 8904
 4145 4146 8905
 4146 4147 8906
 4147 4148 8907
 4148 4149 8908
 4149 4150 8909
 4150 4151 8910
 4151 4152 8911
 4152 4153 8912
 4153 4154 8913
 4154 4155 8914
 4155 4156 8915
 4156 4157 8916
 4157 4158 8917
 4158 4159 8918
 4159 4160 8919
 4160 4161 8920
 4161 4162 8921
 4162 4163 8922
 4163 4164 8923
 4164 4165 8924
 4165 4166 8925
 4166 4167 8926
 4167 4168 8927
 4168 4169 8928
 4169 4170 8929
 4170 4171 8930
 4171 4172 8931
 4172 4173 8932
 4173 4174 8933
 4174 4175 8934
 4175 4176 8935
 4176 4177 8936
 4177 4178 8937
 4178 4179 8938
 4179 4180 8939
 4180 4181 8940
 4181 4182 8941
 4182 4183 8942
 4183 4184 8943
 4184 4185 8944
 4185 4186 8945
 4186 4187 8946
 4187 4188 8947
 4188 4189 8948
 4189 4190 8949
 4190 4191 8950
 4191 4192 8951
 4192 4193 8952
 4193 4194 8953
 4194 4195 8954
 4195 4196 8955
 4196 4197 8956
 4197 4198 8957
 4198 4199 8958
 4200 4201 8959
 4201 4202 8960
 4202 4203 8961
 4203 4204 8962
 4204 4205 8963
 4205 4206 8964
 4206 4207 8965
 4207 4208 8966
 4208 4209 8967
 4209 4210 8968
 4210 4211 8969
 4211 4212 8970
 4212 4213 8971
 4213 4214 8972
 4214 4215 8973
 4215 4216 8974
 4216 4217 8975
 4217 4218 8976
 4218 4219 8977
 4219 4220 8978
 4220 4221 8979
 4221 4222 8980
 4222 4223 8981
 4223 4224 8982
 4224 4225 8983
 4225 4226 8984
 4226 4227 8985
 4227 4228 8986
 4228 4229 8987
 4229 4230 8988
 4230 4231 8989
 4231 4232 8990
 4232 4233 8991
 4233 4234 8992
 4234 4235 8993
 4235 4236 8994
 4236 4237 8995
 4237 4238 8996
 4238 4239 8997
 4239 4240 8998
 4240 4241 8999
 4241 4242 9000
 4242 4243 9001
 4243 4244 9002
 4244 4245 9003
 4245 4246 9004
 4246 4247 9005
 4247 4248 9006
 4248 4249 9007
 4249 4250 9008
 4250 4251 9009
 4251 4252 9010
 4252 4253 9011
 4253 4254 9012
 4254 4255 9013
 4255 4256 9014
 4256 4257 9015
 4257 4258 9016
 4258 4259 9017
 4259 4260 9018
 4260 4261 9019
 4261 4262 9020
 4262 4263 9021
 4263 4264 9022
 4264 4265 9023
 4265 4266 9024
 4266 4267 9025
 4267 4268 9026
 4268 4269 9027
 4269 4270 9028
 4270 4271 9029
 4271 4272 9030
 4272 4273 9031
 4273 4274 9032
 4274 4275 9033
 4275 4276 9034
 4276 4277 9035
 4277 4278 9036
 4278 4279 9037
 4279 4280 9038
 4280 4281 9039
 4281 4282 9040
 4282 4283 9041
 4283 4284 9042
 4284 4285 9043
 4285 4286 9044
 4286 4287 9045
 4287 4288 9046
 4288 4289 9047
 4289 4290 9048
 4290 4291 9049
 4291 4292 9050
 4292 4293 9051
 4293 4294 9052
 4294 4295 9053
 4295 4296 9054
 4296 4297 9055
 4297 4298 9056
 4298 4299 9057
 4300 4301 9058
 4301 4302 9059
 4302 4303 9060
 4303 4304 9061
 4304 4305 9062
 4305 4306 9063
 4306 4307 9064
 4307 4308 9065
 4308 4309 9066
 4309 4310 9067
 4310 4311 9068
 4311 4312 9069
 4312 4313 9070
 4313 4314 9071
 4314 4315 9072
 4315 4316 9073
 4316 4317 9074
 4317 4318 9075
 4318 4319 9076
 4319 4320 9077
 4320 4321 9078
 4321 4322 9079
 4322 4323 9080
 4323 4324 9081
 4324 4325 9082
 4325 4326 9083
 4326 4327 9084
 4327 4328 9085
 4328 4329 9086
 4329 4330 9087
 4330 4331 9088
 4331 4332 9089
 4332 4333 9090
 4333 4334 9091
 4334 4335 9092
 4335 4336 9093
 4336 4337 9094
 4337 4338 9095
 4338 4339 9096
 4339 4340 9097
 4340 4341 9098
 4341 4342 9099
 4342 4343 9100
 4343 4344 9101
 4344 4345 9102
 4345 4346 9103
 4346 4347 9104
 4347 4348 9105
 4348 4349 9106
 4349 4350 9107
 4350 4351 9108
 4351 4352 9109
 4352 4353 9110
 4353 4354 9111
 4354 4355 9112
 4355 4356 9113
 4356 4357 9114
 4357 4358 9115
 4358 4359 9116
 4359 4360 9117
 4360 4361 9118
 4361 4362 9119
 4362 4363 9120
 4363 4364 9121
 4364 4365 9122
 4365 4366 9123
 4366 4367 9124
 4367 4368 9125
 4368 4369 9126
 4369 4370 9127
 4370 4371 9128
 4371 4372 9129
 4372 4373 9130
 4373 4374 9131
 4374 4375 9132
 4375 4376 9133
 4376 4377 9134
 4377 4378 9135
 4378 4379 9136
 4379 4380 9137
 4380 4381 9138
 4381 4382 9139
 4382 4383 9140
 4383 4384 9141
 4384 4385 9142
 4385 4386 9143
 4386 4387 9144
 4387 4388 9145
 4388 4389 9146
 4389 4390 9147
 4390 4391 9148
 4391 4392 9149
 4392 4393 9150
 4393 4394 9151
 4394 4395 9152
 4395 4396 9153
 4396 4397 9154
 4397 4398 9155
 4398 4399 9156
 4400 4401 9157
 4401 4402 9158
 4402 4403 9159
 4403 4404 9160
 4404 4405 9161
 4405 4406 9162
 4406 4407 9163
 4407 4408 9164
 4408 4409 9165
 4409 4410 9166
 4410 4411 9167
 4411 4412 9168
 4412 4413 9169
 4413 4414 9170
 4414 4415 9171
 4415 4416 9172
 4416 4417 9173
 4417 4418 9174
 4418 4419 9175
 4419 4420 9176
 4420 4421 9177
 4421 4422 9178
 4422 4423 9179
 4423 4424 9180
 4424 4425 9181
 4425 4426 9182
 4426 4427 9183
 4427 4428 9184
 4428 4429 9185
 4429 4430 9186
 4430 4431 9187
 4431 4432 9188
 4432 4433 9189
 4433 4434 9190
 4434 4435 9191
 4435 4436 9192
 4436 4437 9193
 4437 4438 9194
 4438 4439 9195
 4439 4440 9196
 4440 4441 9197
 4441 4442 9198
 4442 4443 9199
 4443 4444 9200
 4444 4445 9201
 4445 4446 9202
 4446 4447 9203
 4447 4448 9204
 4448 4449 9205
 4449 4450 9206
 4450 4451 9207
 4451 4452 9208
 4452 4453 9209
 4453 4454 9210
 4454 4455 9211
 4455 4456 9212
 4456 4457 9213
 4457 4458 9214
 4458 4459 9215
 4459 4460 9216
 4460 4461 9217
 4461 4462 9218
 4462 4463 9219
 4463 4464 9220
 4464 4465 9221
 4465 4466 9222
 4466 4467 9223
 4467 4468 9224
 4468 4469 9225
 4469 4470 9226
 4470 4471 9227
 4471 4472 9228
 4472 4473 9229
 4473 4474 9230
 4474 4475 9231
 4475 4476 9232
 4476 4477 9233
 4477 4478 9234
 4478 4479 9235
 4479 4480 9236
 4480 4481 9237
 4481 4482 9238
 4482 4483 9239
 4483 4484 9240
 4484 4485 9241
 4485 4486 9242
 4486 4487 9243
 4487 4488 9244
 4488 4489 9245
 4489 4490 9246
 4490 4491 9247
 4491 4492 9248
 4492 4493 9249
 4493 4494 9250
 4494 4495 9251
 4495 4496 9252
 4496 4497 9253
 4497 4498 9254
 4498 4499 9255
 4500 4501 9256
 4501 4502 9257
 4502 4503 9258
 4503 4504 9259
 4504 4505 9260
 4505 4506 9261
 4506 4507 9262
 4507 4508 9263
 4508 4509 9264
 4509 4510 9265
 4510 4511 9266
 4511 4512 9267
 4512 4513 9268
 4513 4514 9269
 4514 4515 9270
 4515 4516 9271
 4516 4517 9272
 4517 4518 9273
 4518 4519 9274
 4519 4520 9275
 4520 4521 9276
 4521 4522 9277
 4522 4523 9278
 4523 4524 9279
 4524 4525 9280
 4525 4526 9281
 4526 4527 9282
 4527 4528 9283
 4528 4529 9284
 4529 4530 9285
 4530 4531 9286
 4531 4532 9287
 4532 4533 9288
 4533 4534 9289
 4534 4535 9290
 4535 4536 9291
 4536 4537 9292
 4537 4538 9293
 4538 4539 9294
 4539 4540 9295
 4540 4541 9296
 4541 4542 9297
 4542 4543 9298
 4543 4544 9299
 4544 4545 9300
 4545 4546 9301
 4546 4547 9302
 4547 4548 9303
 4548 4549 9304
 4549 4550 9305
 4550 4551 9306
 4551 4552 9307
 4552 4553 9308
 4553 4554 9309
 4554 4555 9310
 4555 4556 9311
 4556 4557 9312
 4557 4558 9313
 4558 4559 9314
 4559 4560 9315
 4560 4561 9316
 4561 4562 9317
 4562 4563 9318
 4563 4564 9319
 4564 4565 9320
 4565 4566 9321
 4566 4567 9322
 4567 4568 9323
 4568 4569 9324
 4569 4570 9325
 4570 4571 9326
 4571 4572 9327
 4572 4573 9328
 4573 4574 9329
 4574 4575 9330
 4575 4576 9331
 4576 4577 9332
 4577 4578 9333
 4578 4579 9334
 4579 4580 9335
 4580 4581 9336
 4581 4582 9337
 4582 4583 9338
 4583 4584 9339
 4584 4585 9340
 4585 4586 9341
 4586 4587 9342
 4587 4588 9343
 4588 4589 9344
 4589 4590 9345
 4590 4591 9346
 4591 4592 9347
 4592 4593 9348
 4593 4594 9349
 4594 4595 9350
 4595 4596 9351
 4596 4597 9352
 4597 4598 9353
 4598 4599 9354
 4600 4601 9355
 4601 4602 9356
 4602 4603 9357
 4603 4604 9358
 4604 4605 9359
 4605 4606 9360
 4606 4607 9361
 4607 4608 9362
 4608 4609 9363
 4609 4610 9364
 4610 4611 9365
 4611 4612 9366
 4612 4613 9367
 4613 4614 9368
 4614 4615 9369
 4615 4616 9370
 4616 4617 9371
 4617 4618 9372
 4618 4619 9373
 4619 4620 9374
 4620 4621 9375
 4621 4622 9376
 4622 4623 9377
 4623 4624 9378
 4624 4625 9379
 4625 4626 9380
 4626 4627 9381
 4627 4628 9382
 4628 4629 9383
 4629 4630 9384
 4630 4631 9385
 4631 4632 9386
 4632 4633 9387
 4633 4634 9388
 4634 4635 9389
 4635 4636 9390
 4636 4637 9391
 4637 4638 9392
 4638 4639 9393
 4639 4640 9394
 4640 4641 9395
 4641 4642 9396
 4642 4643 9397
 4643 4644 9398
 4644 4645 9399
 4645 4646 9400
 4646 4647 9401
 4647 4648 9402
 4648 4649 9403
 4649 4650 9404
 4650 4651 9405
 4651 4652 9406
 4652 4653 9407
 4653 4654 9408
 4654 4655 9409
 4655 4656 9410
 4656 4657 9411
 4657 4658 9412
 4658 4659 9413
 4659 4660 9414
 4660 4661 9415
 4661 4662 9416
 4662 4663 9417
 4663 4664 9418
 4664 4665 9419
 4665 4666 9420
 4666 4667 9421
 4667 4668 9422
 4668 4669 9423
 4669 4670 9424
 4670 4671 9425
 4671 4672 9426
 4672 4673 9427
 4673 4674 9428
 4674 4675 9429
 4675 4676 9430
 4676 4677 9431
 4677 4678 9432
 4678 4679 9433
 4679 4680 9434
 4680 4681 9435
 4681 4682 9436
 4682 4683 9437
 4683 4684 9438
 4684 4685 9439
 4685 4686 9440
 4686 4687 9441
 4687 4688 9442
 4688 4689 9443
 4689 4690 9444
 4690 4691 9445
 4691 4692 9446
 4692 4693 9447
 4693 4694 9448
 4694 4695 9449
 4695 4696 9450
 4696 4697 9451
 4697 4698 9452
 4698 4699 9453
 4700 4701 9454
 4701 4702 9455
 4702 4703 9456
 4703 4704 9457
 4704 4705 9458
 4705 4706 9459
 4706 4707 9460
 4707 4708 9461
 4708 4709 9462
 4709 4710 9463
 4710 4711 9464
 4711 4712 9465
 4712 4713 9466
 4713 4714 9467
 4714 4715 9468
 4715 4716 9469
 4716 4717 9470
 4717 4718 9471
 4718 4719 9472
 4719 4720 9473
 4720 4721 9474
 4721 4722 9475
 4722 4723 9476
 4723 4724 9477
 4724 4725 9478
 4725 4726 9479
 4726 4727 9480
 4727 4728 9481
 4728 4729 9482
 4729 4730 9483
 4730 4731 9484
 4731 4732 9485
 4732 4733 9486
 4733 4734 9487
 4734 4735 9488
 4735 4736 9489
 4736 4737 9490
 4737 4738 9491
 4738 4739 9492
 4739 4740 9493
 4740 4741 9494
 4741 4742 9495
 4742 4743 9496
 4743 4744 9497
 4744 4745 9498
 4745 4746 9499
 4746 4747 9500
 4747 4748 9501
 4748 4749 9502
 4749 4750 9503
 4750 4751 9504
 4751 4752 9505
 4752 4753 9506
 4753 4754 9507
 4754 4755 9508
 4755 4756 9509
 4756 4757 9510
 4757 4758 9511
 4758 4759 9512
 4759 4760 9513
 4760 4761 9514
 4761 4762 9515
 4762 4763 9516
 4763 4764 9517
 4764 4765 9518
 4765 4766 9519
 4766 4767 9520
 4767 4768 9521
 4768 4769 9522
 4769 4770 9523
 4770 4771 9524
 4771 4772 9525
 4772 4773 9526
 4773 4774 9527
 4774 4775 9528
 4775 4776 9529
 4776 4777 9530
 4777 4778 9531
 4778 4779 9532
 4779 4780 9533
 4780 4781 9534
 4781 4782 9535
 4782 4783 9536
 4783 4784 9537
 4784 4785 9538
 4785 4786 9539
 4786 4787 9540
 4787 4788 9541
 4788 4789 9542
 4789 4790 9543
 4790 4791 9544
 4791 4792 9545
 4792 4793 9546
 4793 4794 9547
 4794 4795 9548
 4795 4796 9549
 4796 4797 9550
 4797 4798 9551
 4798 4799 9552
 4800 4801 9553
 4801 4802 9554
 4802 4803 9555
 4803 4804 9556
 4804 4805 9557
 4805 4806 9558
 4806 4807 9559
 4807 4808 9560
 4808 4809 9561
 4809 4810 9562
 4810 4811 9563
 4811 4812 9564
 4812 4813 9565
 4813 4814 9566
 4814 4815 9567
 4815 4816 9568
 4816 4817 9569
 4817 4818 9570
 4818 4819 9571
 4819 4820 9572
 4820 4821 9573
 4821 4822 9574
 4822 4823 9575
 4823 4824 9576
 4824 4825 9577
 4825 4826 9578
 4826 4827 9579
 4827 4828 9580
 4828 4829 9581
 4829 4830 9582
 4830 4831 9583
 4831 4832 9584
 4832 4833 9585
 4833 4834 9586
 4834 4835 9587
 4835 4836 9588
 4836 4837 9589
 4837 4838 9590
 4838 4839 9591
 4839 4840 9592
 4840 4841 9593
 4841 4842 9594
 4842 4843 9595
 4843 4844 9596
 4844 4845 9597
 4845 4846 9598
 4846 4847 9599
 4847 4848 9600
 4848 4849 9601
 4849 4850 9602
 4850 4851 9603
 4851 4852 9604
 4852 4853 9605
 4853 4854 9606
 4854 4855 9607
 4855 4856 9608
 4856 4857 9609
 4857 4858 9610
 4858 4859 9611
 4859 4860 9612
 4860 4861 9613
 4861 4862 9614
 4862 4863 9615
 4863 4864 9616
 4864 4865 9617
 4865 4866 9618
 4866 4867 9619
 4867 4868 9620
 4868 4869 9621
 4869 4870 9622
 4870 4871 9623
 4871 4872 9624
 4872 4873 9625
 4873 4874 9626
 4874 4875 9627
 4875 4876 9628
 4876 4877 9629
 4877 4878 9630
 4878 4879 9631
 4879 4880 9632
 4880 4881 9633
 4881 4882 9634
 4882 4883 9635
 4883 4884 9636
 4884 4885 9637
 4885 4886 9638
 4886 4887 9639
 4887 4888 9640
 4888 4889 9641
 4889 4890 9642
 4890 4891 9643
 4891 4892 9644
 4892 4893 9645
 4893 4894 9646
 4894 4895 9647
 4895 4896 9648
 4896 4897 9649
 4897 4898 9650
 4898 4899 9651
 0 100 4900
 1 101 4901
 2 102 4902
 3 103 4903
 4 104 4904
 5 105 4905
 6 106 4906
 7 107 4907
 8 108 4908
 9 109 4909
 10 110 4910
 11 111 4911
 12 112 4912
 13 113 4913
 14 114 4914
 15 115 4915
 16 116 4916
 17 117 4917
 18 118 4918
 19 119 4919
 20 120 4920
 21 121 4921
 22 122 4922
 23 123 4923
 24 124 4924
 25 125 4925
 26 126 4926
 27 127 4927
 28 128 4928
 29 129 4929
 30 130 4930
 31 131 4931
 32 132 4932
 33 133 4933
 34 134 4934
 35 135 4935
 36 136 4936
 37 137 4937
 38 138 4938
 39 139 4939
 40 140 4940
 41 141 4941
 42 142 4942
 43 143 4943
 44 144 4944
 45 145 4945
 46 146 4946
 47 147 4947
 48 148 4948
 49 149 4949
 50 150 4950
 51 151 4951
 52 152 4952
 53 153 4953
 54 154 4954
 55 155 4955
 56 156 4956
 57 157 4957
 58 158 4958
 59 159 4959
 60 160 4960
 61 161 4961
 62 162 4962
 63 163 4963
 64 164 4964
 65 165 4965
 66 166 4966
 67 167 4967
 68 168 4968
 69 169 4969
 70 170 4970
 71 171 4971
 72 172 4972
 73 173 4973
 74 174 4974
 75 175 4975
 76 176 4976
 77 177 4977
 78 178 4978
 79 179 4979
 80 180 4980
 81 181 4981
 82 182 4982
 83 183 4983
 84 184 4984
 85 185 4985
 86 186 4986
 87 187 4987
 88 188 4988
 89 189 4989
 90 190 4990
 91 191 4991
 92 192 4992
 93 193 4993
 94 194 4994
 95 195 4995
 96 196 4996
 97 197 4997
 98 198 4998
 100 200 4999
 101 201 5000
 102 202 5001
 103 203 5002
 104 204 5003
 105 205 5004
 106 206 5005
 107 207 5006
 108 208 5007
 109 209 5008
 110 210 5009
 111 211 5010
 112 212 5011
 113 213 5012
 114 214 5013
 115 215 5014
 116 216 5015
 117 217 5016
 118 218 5017
 119 219 5018
 120 220 5019
 121 221 5020
 122 222 5021
 123 223 5022
 124 224 5023
 125 225 5024
 126 226 5025
 127 227 5026
 128 228 5027
 129 229 5028
 130 230 5029
 131 231 5030
 132 232 5031
 133 233 5032
 134 234 5033
 135 235 5034
 136 236 5035
 137 237 5036
 138 238 5037
 139 239 5038
 140 240 5039
 141 241 5040
 142 242 5041
 143 243 5042
 144 244 5043
 145 245 5044
 146 246 5045
 147 247 5046
 148 248 5047
 149 249 5048
 150 250 5049
 151 251 5050
 152 252 5051
 153 253 5052
 154 254 5053
 155 255 5054
 156 256 5055
 157 257 5056
 158 258 5057
 159 259 5058
 160 260 5059
 161 261 5060
 162 262 5061
 163 263 5062
 164 264 5063
 165 265 5064
 166 266 5065
 167 267 5066
 168 268 5067
 169 269 5068
 170 270 5069
 171 271 5070
 172 272 5071
 173 273 5072
 174 274 5073
 175 275 5074
 176 276 5075
 177 277 5076
 178 278 5077
 179 279 5078
 180 280 5079
 181 281 5080
 182 282 5081
 183 283 5082
 184 284 5083
 185 285 5084
 186 286 5085
 187 287 5086
 188 288 5087
 189 289 5088
 190 290 5089
 191 291 5090
 192 292 5091
 193 293 5092
 194 294 5093
 195 295 5094
 196 296 5095
 197 297 5096
 198 298 5097
 200 300 5098
 201 301 5099
 202 302 5100
 203 303 5101
 204 304 5102
 205 305 5103
 206 306 5104
 207 307 5105
 208 308 5106
 209 309 5107
 210 310 5108
 211 311 5109
 212 312 5110
 213 313 5111
 214 314 5112
 215 315 5113
 216 316 5114
 217 317 5115
 218 318 5116
 219 319 5117
 220 320 5118
 221 321 5119
 222 322 5120
 223 323 5121
 224 324 5122
 225 325 5123
 226 326 5124
 227 327 5125
 228 328 5126
 229 329 5127
 230 330 5128
 231 331 5129
 232 332 5130
 233 333 5131
 234 334 5132
 235 335 5133
 236 336 5134
 237 337 5135
 238 338 5136
 239 339 5137
 240 340 5138
 241 341 5139
 242 342 5140
 243 343 5141
 244 344 5142
 245 345 5143
 246 346 5144
 247 347 5145
 248 348 5146
 249 349 5147
 250 350 5148
 251 351 5149
 252 352 5150
 253 353 5151
 254 354 5152
 255 355 5153
 256 356 5154
 257 357 5155
 258 358 5156
 259 359 5157
 260 360 5158
 261 361 5159
 262 362 5160
 263 363 5161
 264 364 5162
 265 365 5163
 266 366 5164
 267 367 5165
 268 368 5166
 269 369 5167
 270 370 5168
 271 371 5169
 272 372 5170
 273 373 5171
 274 374 5172
 275 375 5173
 276 376 5174
 277 377 5175
 278 378 5176
 279 379 5177
 280 380 5178
 281 381 5179
 282 382 5180
 283 383 5181
 284 384 5182
 285 385 5183
 286 386 5184
 287 387 5185
 288 388 5186
 289 389 5187
 290 390 5188
 291 391 5189
 292 392 5190
 293 393 5191
 294 394 5192
 295 395 5193
 296 396 5194
 297 397 5195
 298 398 5196
 300 400 5197
 301 401 5198
 302 402 5199
 303 403 5200
 304 404 5201
 305 405 5202
 306 406 5203
 307 407 5204
 308 408 5205
 309 409 5206
 310 410 5207
 311 411 5208
 312 412 5209
 313 413 5210
 314 414 5211
 315 415 5212
 316 416 5213
 317 417 5214
 318 418 5215
 319 419 5216
 320 420 5217
 321 421 5218
 322 422 5219
 323 423 5220
 324 424 5221
 325 425 5222
 326 426 5223
 327 427 5224
 328 428 5225
 329 429 5226
 330 430 5227
 331 431 5228
 332 432 5229
 333 433 5230
 334 434 5231
 335 435 5232
 336 436 5233
 337 437 5234
 338 438 5235
 339 439 5236
 340 440 5237
 341 441 5238
 342 442 5239
 343 443 5240
 344 444 5241
 345 445 5242
 346 446 5243
 347 447 5244
 348 448 5245
 349 449 5246
 350 450 5247
 351 451 5248
 352 452 5249
 353 453 5250
 354 454 5251
 355 455 5252
 356 456 5253
 357 457 5254
 358 458 5255
 359 459 5256
 360 460 5257
 361 461 5258
 362 462 5259
 363 463 5260
 364 464 5261
 365 465 5262
 366 466 5263
 367 467 5264
 368 468 5265
 369 469 5266
 370 470 5267
 371 471 5268
 372 472 5269
 373 473 5270
 374 474 5271
 375 475 5272
 376 476 5273
 377 477 5274
 378 478 5275
 379 479 5276
 380 480 5277
 381 481 5278
 382 482 5279
 383 483 5280
 384 484 5281
 385 485 5282
 386 486 5283
 387 487 5284
 388 488 5285
 389 489 5286
 390 490 5287
 391 491 5288
 392 492 5289
 393 493 5290
 394 494 5291
 395 495 5292
 396 496 5293
 397 497 5294
 398 498 5295
 400 500 5296
 401 501 5297
 402 502 5298
 403 503 5299
 404 504 5300
 405 505 5301
 406 506 5302
 407 507 5303
 408 508 5304
 409 509 5305
 410 510 5306
 411 511 5307
 412 512 5308
 413 513 5309
 414 514 5310
 415 515 5311
 416 516 5312
 417 517 5313
 418 518 5314
 419 519 5315
 420 520 5316
 421 521 5317
 422 522 5318
 423 523 5319
 424 524 5320
 425 525 5321
 426 526 5322
 427 527 5323
 428 528 5324
 429 529 5325
 430 530 5326
 431 531 5327
 432 532 5328
 433 533 5329
 434 534 5330
 435 535 5331
 436 536 5332
 437 537 5333
 438 538 5334
 439 539 5335
 440 540 5336
 441 541 5337
 442 542 5338
 443 543 5339
 444 544 5340
 445 545 5341
 446 546 5342
 447 547 5343
 448 548 5344
 449 549 5345
 450 550 5346
 451 551 5347
 452 552 5348
 453 553 5349
 454 554 5350
 455 555 5351
 456 556 5352
 457 557 5353
 458 558 5354
 459 559 5355
 460 560 5356
 461 561 5357
 462 562 5358
 463 563 5359
 464 564 5360
 465 565 5361
 466 566 5362
 467 567 5363
 468 568 5364
 469 569 5365
 470 570 5366
 471 571 5367
 472 572 5368
 473 573 5369
 474 574 5370
 475 575 5371
 476 576 5372
 477 577 5373
 478 578 5374
 479 579 5375
 480 580 5376
 481 581 5377
 482 582 5378
 483 583 5379
 484 584 5380
 485 585 5381
 486 586 5382
 487 587 5383
 488 588 5384
 489 589 5385
 490 590 5386
 491 591 5387
 492 592 5388
 493 593 5389
 494 594 5390
 495 595 5391
 496 596 5392
 497 597 5393
 498 598 5394
 500 600 5395
 501 601 5396
 502 602 5397
 503 603 5398
 504 604 5399
 505 605 5400
 506 606 5401
 507 607 5402
 508 608 5403
 509 609 5404
 510 610 5405
 511 611 5406
 512 612 5407
 513 613 5408
 514 614 5409
 515 615 5410
 516 616 5411
 517 617 5412
 518 618 5413
 519 619 5414
 520 620 5415
 521 621 5416
 522 622 5417
 523 623 5418
 524 624 5419
 525 625 5420
 526 626 5421
 527 627 5422
 528 628 5423
 529 629 5424
 530 630 5425
 531 631 5426
 532 632 5427
 533 633 5428
 534 634 5429
 535 635 5430
 536 636 5431
 537 637 5432
 538 638 5433
 539 639 5434
 540 640 5435
 541 641 5436
 542 642 5437
 543 643 5438
 544 644 5439
 545 645 5440
 546 646 5441
 547 647 5442
 548 648 5443
 549 649 5444
 550 650 5445
 551 651 5446
 552 652 5447
 553 653 5448
 554 654 5449
 555 655 5450
 556 656 5451
 557 657 5452
 558 658 5453
 559 659 5454
 560 660 5455
 561 661 5456
 562 662 5457
 563 663 5458
 564 664 5459
 565 665 5460
 566 666 5461
 567 667 5462
 568 668 5463
 569 669 5464
 570 670 5465
 571 671 5466
 572 672 5467
 573 673 5468
 574 674 5469
 575 675 5470
 576 676 5471
 577 677 5472
 578 678 5473
 579 679 5474
 580 680 5475
 581 681 5476
 582 682 5477
 583 683 5478
 584 684 5479
 585 685 5480
 586 686 5481
 587 687 5482
 588 688 5483
 589 689 5484
 590 690 5485
 591 691 5486
 592 692 5487
 593 693 5488
 594 694 5489
 595 695 5490
 596 696 5491
 597 697 5492
 598 698 5493
 600 700 5494
 601 701 5495
 602 702 5496
 603 703 5497
 604 704 5498
 605 705 5499
 606 706 5500
 607 707 5501
 608 708 5502
 609 709 5503
 610 710 5504
 611 711 5505
 612 712 5506
 613 713 5507
 614 714 5508
 615 715 5509
 616 716 5510
 617 717 5511
 618 718 5512
 619 719 5513
 620 720 5514
 621 721 5515
 622 722 5516
 623 723 5517
 624 724 5518
 625 725 5519
 626 726 5520
 627 727 5521
 628 728 5522
 629 729 5523
 630 730 5524
 631 731 5525
 632 732 5526
 633 733 5527
 634 734 5528
 635 735 5529
 636 736 5530
 637 737 5531
 638 738 5532
 639 739 5533
 640 740 5534
 641 741 5535
 642 742 5536
 643 743 5537
 644 744 5538
 645 745 5539
 646 746 5540
 647 747 5541
 648 748 5542
 649 749 5543
 650 750 5544
 651 751 5545
 652 752 5546
 653 753 5547
 654 754 5548
 655 755 5549
 656 756 5550
 657 757 5551
 658 758 5552
 659 759 5553
 660 760 5554
 661 761 5555
 662 762 5556
 663 763 5557
 664 764 5558
 665 765 5559
 666 766 5560
 667 767 5561
 668 768 5562
 669 769 5563
 670 770 5564
 671 771 5565
 672 772 5566
 673 773 5567
 674 774 5568
 675 775 5569
 676 776 5570
 677 777 5571
 678 778 5572
 679 779 5573
 680 780 5574
 681 781 5575
 682 782 5576
 683 783 5577
 684 784 5578
 685 785 5579
 686 786 5580
 687 787 5581
 688 788 5582
 689 789 5583
 690 790 5584
 691 791 5585
 692 792 5586
 693 793 5587
 694 794 5588
 695 795 5589
 696 796 5590
 697 797 5591
 698 798 5592
 700 800 5593
 701 801 5594
 702 802 5595
 703 803 5596
 704 804 5597
 705 805 5598
 706 806 5599
 707 807 5600
 708 808 5601
 709 809 5602
 710 810 5603
 711 811 5604
 712 812 5605
 713 813 5606
 714 814 5607
 715 815 5608
 716 816 5609
 717 817 5610
 718 818 5611
 719 819 5612
 720 820 5613
 721 821 5614
 722 822 5615
 723 823 5616
 724 824 5617
 725 825 5618
 726 826 5619
 727 827 5620
 728 828 5621
 729 829 5622
 730 830 5623
 731 831 5624
 732 832 5625
 733 833 5626
 734 834 5627
 735 835 5628
 736 836 5629
 737 837 5630
 738 838 5631
 739 839 5632
 740 840 5633
 741 841 5634
 742 842 5635
 743 843 5636
 744 844 5637
 745 845 5638
 746 846 5639
 747 847 5640
 748 848 5641
 749 849 5642
 750 850 5643
 751 851 5644
 752 852 5645
 753 853 5646
 754 854 5647
 755 855 5648
 756 856 5649
 757 857 5650
 758 858 5651
 759 859 5652
 760 860 5653
 761 861 5654
 762 862 5655
 763 863 5656
 764 864 5657
 765 865 5658
 766 866 5659
 767 867 5660
 768 868 5661
 769 869 5662
 770 870 5663
 771 871 5664
 772 872 5665
 773 873 5666
 774 874 5667
 775 875 5668
 776 876 5669
 777 877 5670
 778 878 5671
 779 879 5672
 780 880 5673
 781 881 5674
 782 882 5675
 783 883 5676
 784 884 5677
 785 885 5678
 786 886 5679
 787 887 5680
 788 888 5681
 789 889 5682
 790 890 5683
 791 891 5684
 792 892 5685
 793 893 5686
 794 894 5687
 795 895 5688
 796 896 5689
 797 897 5690
 798 898 5691
 800 900 5692
 801 901 5693
 802 902 5694
 803 903 5695
 804 904 5696
 805 905 5697
 806 906 5698
 807 907 5699
 808 908 5700
 809 909 5701
 810 910 5702
 811 911 5703
 812 912 5704
 813 913 5705
 814 914 5706
 815 915 5707
 816 916 5708
 817 917 5709
 818 918 5710
 819 919 5711
 820 920 5712
 821 921 5713
 822 922 5714
 823 923 5715
 824 924 5716
 825 925 5717
 826 926 5718
 827 927 5719
 828 928 5720
 829 929 5721
 830 930 5722
 831 931 5723
 832 932 5724
 833 933 5725
 834 934 5726
 835 935 5727
 836 936 5728
 837 937 5729
 838 938 5730
 839 939 5731
 840 940 5732
 841 941 5733
 842 942 5734
 843 943 5735
 844 944 5736
 845 945 5737
 846 946 5738
 847 947 5739
 848 948 5740
 849 949 5741
 850 950 5742
 851 951 5743
 852 952 5744
 853 953 5745
 854 954 5746
 855 955 5747
 856 956 5748
 857 957 5749
 858 958 5750
 859 959 5751
 860 960 5752
 861 961 5753
 862 962 5754
 863 963 5755
 864 964 5756
 865 965 5757
 866 966 5758
 867 967 5759
 868 968 5760
 869 969 5761
 870 970 5762
 871 971 5763
 872 972 5764
 873 973 5765
 874 974 5766
 875 975 5767
 876 976 5768
 877 977 5769
 878 978 5770
 879 979 5771
 880 980 5772
 881 981 5773
 882 982 5774
 883 983 5775
 884 984 5776
 885 985 5777
 886 986 5778
 887 987 5779
 888 988 5780
 889 989 5781
 890 990 5782
 891 991 5783
 892 992 5784
 893 993 5785
 894 994 5786
 895 995 5787
 896 996 5788
 897 997 5789
 898 998 5790
 900 1000 5791
 901 1001 5792
 902 1002 5793
 903 1003 5794
 904 1004 5795
 905 1005 5796
 906 1006 5797
 907 1007 5798
 908 1008 5799
 909 1009 5800
 910 1010 5801
 911 1011 5802
 912 1012 5803
 913 1013 5804
 914 1014 5805
 915 1015 5806
 916 1016 5807
 917 1017 5808
 918 1018 5809
 919 1019 5810
 920 1020 5811
 921 1021 5812
 922 1022 5813
 923 1023 5814
 924 1024 5815
 925 1025 5816
 926 1026 5817
 927 1027 5818
 928 1028 5819
 929 1029 5820
 930 1030 5821
 931 1031 5822
 932 1032 5823
 933 1033 5824
 934 1034 5825
 935 1035 5826
 936 1036 5827
 937 1037 5828
 938 1038 5829
 939 1039 5830
 940 1040 5831
 941 1041 5832
 942 1042 5833
 943 1043 5834
 944 1044 5835
 945 1045 5836
 946 1046 5837
 947 1047 5838
 948 1048 5839
 949 1049 5840
 950 1050 5841
 951 1051 5842
 952 1052 5843
 953 1053 5844
 954 1054 5845
 955 1055 5846
 956 1056 5847
 957 1057 5848
 958 1058 5849
 959 1059 5850
 960 1060 5851
 961 1061 5852
 962 1062 5853
 963 1063 5854
 964 1064 5855
 965 1065 5856
 966 1066 5857
 967 1067 5858
 968 1068 5859
 969 1069 5860
 970 1070 5861
 971 1071 5862
 972 1072 5863
 973 1073 5864
 974 1074 5865
 975 1075 5866
 976 1076 5867
 977 1077 5868
 978 1078 5869
 979 1079 5870
 980 1080 5871
 981 1081 5872
 982 1082 5873
 983 1083 5874
 984 1084 5875
 985 1085 5876
 986 1086 5877
 987 1087 5878
 988 1088 5879
 989 1089 5880
 990 1090 5881
 991 1091 5882
 992 1092 5883
 993 1093 5884
 994 1094 5885
 995 1095 5886
 996 1096 5887
 997 1097 5888
 998 1098 5889
 1000 1100 5890
 1001 1101 5891
 1002 1102 5892
 1003 1103 5893
 1004 1104 5894
 1005 1105 5895
 1006 1106 5896
 1007 1107 5897
 1008 1108 5898
 1009 1109 5899
 1010 1110 5900
 1011 1111 5901
 1012 1112 5902
 1013 1113 5903
 1014 1114 5904
 1015 1115 5905
 1016 1116 5906
 1017 1117 5907
 1018 1118 5908
 1019 1119 5909
 1020 1120 5910
 1021 1121 5911
 1022 1122 5912
 1023 1123 5913
 1024 1124 5914
 1025 1125 5915
 1026 1126 5916
 1027 1127 5917
 1028 1128 5918
 1029 1129 5919
 1030 1130 5920
 1031 1131 5921
 1032 1132 5922
 1033 1133 5923
 1034 1134 5924
 1035 1135 5925
 1036 1136 5926
 1037 1137 5927
 1038 1138 5928
 1039 1139 5929
 1040 1140 5930
 1041 1141 5931
 1042 1142 5932
 1043 1143 5933
 1044 1144 5934
 1045 1145 5935
 1046 1146 5936
 1047 1147 5937
 1048 1148 5938
 1049 1149 5939
 1050 1150 5940
 1051 1151 5941
 1052 1152 5942
 1053 1153 5943
 1054 1154 5944
 1055 1155 5945
 1056 1156 5946
 1057 1157 5947
 1058 1158 5948
 1059 1159 5949
 1060 1160 5950
 1061 1161 5951
 1062 1162 5952
 1063 1163 5953
 1064 1164 5954
 1065 1165 5955
 1066 1166 5956
 1067 1167 5957
 1068 1168 5958
 1069 1169 5959
 1070 1170 5960
 1071 1171 5961
 1072 1172 5962
 1073 1173 5963
 1074 1174 5964
 1075 1175 5965
 1076 1176 5966
 1077 1177 5967
 1078 1178 5968
 1079 1179 5969
 1080 1180 5970
 1081 1181 5971
 1082 1182 5972
 1083 1183 5973
 1084 1184 5974
 1085 1185 5975
 1086 1186 5976
 1087 1187 5977
 1088 1188 5978
 1089 1189 5979
 1090 1190 5980
 1091 1191 5981
 1092 1192 5982
 1093 1193 5983
 1094 1194 5984
 1095 1195 5985
 1096 1196 5986
 1097 1197 5987
 1098 1198 5988
 1100 1200 5989
 1101 1201 5990
 1102 1202 5991
 1103 1203 5992
 1104 1204 5993
 1105 1205 5994
 1106 1206 5995
 1107 1207 5996
 1108 1208 5997
 1109 1209 5998
 1110 1210 5999
 1111 1211 6000
 1112 1212 6001
 1113 1213 6002
 1114 1214 6003
 1115 1215 6004
 1116 1216 6005
 1117 1217 6006
 1118 1218 6007
 1119 1219 6008
 1120 1220 6009
 1121 1221 6010
 1122 1222 6011
 1123 1223 6012
 1124 1224 6013
 1125 1225 6014
 1126 1226 6015
 1127 1227 6016
 1128 1228 6017
 1129 1229 6018
 1130 1230 6019
 1131 1231 6020
 1132 1232 6021
 1133 1233 6022
 1134 1234 6023
 1135 1235 6024
 1136 1236 6025
 1137 1237 6026
 1138 1238 6027
 1139 1239 6028
 1140 1240 6029
 1141 1241 6030
 1142 1242 6031
 1143 1243 6032
 1144 1244 6033
 1145 1245 6034
 1146 1246 6035
 1147 1247 6036
 1148 1248 6037
 1149 1249 6038
 1150 1250 6039
 1151 1251 6040
 1152 1252 6041
 1153 1253 6042
 1154 1254 6043
 1155 1255 6044
 1156 1256 6045
 1157 1257 6046
 1158 1258 6047
 1159 1259 6048
 1160 1260 6049
 1161 1261 6050
 1162 1262 6051
 1163 1263 6052
 1164 1264 6053
 1165 1265 6054
 1166 1266 6055
 1167 1267 6056
 1168 1268 6057
 1169 1269 6058
 1170 1270 6059
 1171 1271 6060
 1172 1272 6061
 1173 1273 6062
 1174 1274 6063
 1175 1275 6064
 1176 1276 6065
 1177 1277 6066
 1178 1278 6067
 1179 1279 6068
 1180 1280 6069
 1181 1281 6070
 1182 1282 6071
 1183 1283 6072
 1184 1284 6073
 1185 1285 6074
 1186 1286 6075
 1187 1287 6076
 1188 1288 6077
 1189 1289 6078
 1190 1290 6079
 1191 1291 6080
 1192 1292 6081
 1193 1293 6082
 1194 1294 6083
 1195 1295 6084
 1196 1296 6085
 1197 1297 6086
 1198 1298 6087
 1200 1300 6088
 1201 1301 6089
 1202 1302 6090
 1203 1303 6091
 1204 1304 6092
 1205 1305 6093
 1206 1306 6094
 1207 1307 6095
 1208 1308 6096
 1209 1309 6097
 1210 1310 6098
 1211 1311 6099
 1212 1312 6100
 1213 1313 6101
 1214 1314 6102
 1215 1315 6103
 1216 1316 6104
 1217 1317 6105
 1218 1318 6106
 1219 1319 6107
 1220 1320 6108
 1221 1321 6109
 1222 1322 6110
 1223 1323 6111
 1224 1324 6112
 1225 1325 6113
 1226 1326 6114
 1227 1327 6115
 1228 1328 6116
 1229 1329 6117
 1230 1330 6118
 1231 1331 6119
 1232 1332 6120
 1233 1333 6121
 1234 1334 6122
 1235 1335 6123
 1236 1336 6124
 1237 1337 6125
 1238 1338 6126
 1239 1339 6127
 1240 1340 6128
 1241 1341 6129
 1242 1342 6130
 1243 1343 6131
 1244 1344 6132
 1245 1345 6133
 1246 1346 6134
 1247 1347 6135
 1248 1348 6136
 1249 1349 6137
 1250 1350 6138
 1251 1351 6139
 1252 1352 6140
 1253 1353 6141
 1254 1354 6142
 1255 1355 6143
 1256 1356 6144
 1257 1357 6145
 1258 1358 6146
 1259 1359 6147
 1260 1360 6148
 1261 1361 6149
 1262 1362 6150
 1263 1363 6151
 1264 1364 6152
 1265 1365 6153
 1266 1366 6154
 1267 1367 6155
 1268 1368 6156
 1269 1369 6157
 1270 1370 6158
 1271 1371 6159
 1272 1372 6160
 1273 1373 6161
 1274 1374 6162
 1275 1375 6163
 1276 1376 6164
 1277 1377 6165
 1278 1378 6166
 1279 1379 6167
 1280 1380 6168
 1281 1381 6169
 1282 1382 6170
 1283 1383 6171
 1284 1384 6172
 1285 1385 6173
 1286 1386 6174
 1287 1387 6175
 1288 1388 6176
 1289 1389 6177
 1290 1390 6178
 1291 1391 6179
 1292 1392 6180
 1293 1393 6181
 1294 1394 6182
 1295 1395 6183
 1296 1396 6184
 1297 1397 6185
 1298 1398 6186
 1300 1400 6187
 1301 1401 6188
 1302 1402 6189
 1303 1403 6190
 1304 1404 6191
 1305 1405 6192
 1306 1406 6193
 1307 1407 6194
 1308 1408 6195
 1309 1409 6196
 1310 1410 6197
 1311 1411 6198
 1312 1412 6199
 1313 1413 6200
 1314 1414 6201
 1315 1415 6202
 1316 1416 6203
 1317 1417 6204
 1318 1418 6205
 1319 1419 6206
 1320 1420 6207
 1321 1421 6208
 1322 1422 6209
 1323 1423 6210
 1324 1424 6211
 1325 1425 6212
 1326 1426 6213
 1327 1427 6214
 1328 1428 6215
 1329 1429 6216
 1330 1430 6217
 1331 1431 6218
 1332 1432 6219
 1333 1433 6220
 1334 1434 6221
 1335 1435 6222
 1336 1436 6223
 1337 1437 6224
 1338 1438 6225
 1339 1439 6226
 1340 1440 6227
 1341 1441 6228
 1342 1442 6229
 1343 1443 6230
 1344 1444 6231
 1345 1445 6232
 1346 1446 6233
 1347 1447 6234
 1348 1448 6235
 1349 1449 6236
 1350 1450 6237
 1351 1451 6238
 1352 1452 6239
 1353 1453 6240
 1354 1454 6241
 1355 1455 6242
 1356 1456 6243
 1357 1457 6244
 1358 1458 6245
 1359 1459 6246
 1360 1460 6247
 1361 1461 6248
 1362 1462 6249
 1363 1463 6250
 1364 1464 6251
 1365 1465 6252
 1366 1466 6253
 1367 1467 6254
 1368 1468 6255
 1369 1469 6256
 1370 1470 6257
 1371 1471 6258
 1372 1472 6259
 1373 1473 6260
 1374 1474 6261
 1375 1475 6262
 1376 1476 6263
 1377 1477 6264
 1378 1478 6265
 1379 1479 6266
 1380 1480 6267
 1381 1481 6268
 1382 1482 6269
 1383 1483 6270
 1384 1484 6271
 1385 1485 6272
 1386 1486 6273
 1387 1487 6274
 1388 1488 6275
 1389 1489 6276
 1390 1490 6277
 1391 1491 6278
 1392 1492 6279
 1393 1493 6280
 1394 1494 6281
 1395 1495 6282
 1396 1496 6283
 1397 1497 6284
 1398 1498 6285
 1400 1500 6286
 1401 1501 6287
 1402 1502 6288
 1403 1503 6289
 1404 1504 6290
 1405 1505 6291
 1406 1506 6292
 1407 1507 6293
 1408 1508 6294
 1409 1509 6295
 1410 1510 6296
 1411 1511 6297
 1412 1512 6298
 1413 1513 6299
 1414 1514 6300
 1415 1515 6301
 1416 1516 6302
 1417 1517 6303
 1418 1518 6304
 1419 1519 6305
 1420 1520 6306
 1421 1521 6307
 1422 1522 6308
 1423 1523 6309
 1424 1524 6310
 1425 1525 6311
 1426 1526 6312
 1427 1527 6313
 1428 1528 6314
 1429 1529 6315
 1430 1530 6316
 1431 1531 6317
 1432 1532 6318
 1433 1533 6319
 1434 1534 6320
 1435 1535 6321
 1436 1536 6322
 1437 1537 6323
 1438 1538 6324
 1439 1539 6325
 1440 1540 6326
 1441 1541 6327
 1442 1542 6328
 1443 1543 6329
 1444 1544 6330
 1445 1545 6331
 1446 1546 6332
 1447 1547 6333
 1448 1548 6334
 1449 1549 6335
 1450 1550 6336
 1451 1551 6337
 1452 1552 6338
 1453 1553 6339
 1454 1554 6340
 1455 1555 6341
 1456 1556 6342
 1457 1557 6343
 1458 1558 6344
 1459 1559 6345
 1460 1560 6346
 1461 1561 6347
 1462 1562 6348
 1463 1563 6349
 1464 1564 6350
 1465 1565 6351
 1466 1566 6352
 1467 1567 6353
 1468 1568 6354
 1469 1569 6355
 1470 1570 6356
 1471 1571 6357
 1472 1572 6358
 1473 1573 6359
 1474 1574 6360
 1475 1575 6361
 1476 1576 6362
 1477 1577 6363
 1478 1578 6364
 1479 1579 6365
 1480 1580 6366
 1481 1581 6367
 1482 1582 6368
 1483 1583 6369
 1484 1584 6370
 1485 1585 6371
 1486 1586 6372
 1487 1587 6373
 1488 1588 6374
 1489 1589 6375
 1490 1590 6376
 1491 1591 6377
 1492 1592 6378
 1493 1593 6379
 1494 1594 6380
 1495 1595 6381
 1496 1596 6382
 1497 1597 6383
 1498 1598 6384
 1500 1600 6385
 1501 1601 6386
 1502 1602 6387
 1503 1603 6388
 1504 1604 6389
 1505 1605 6390
 1506 1606 6391
 1507 1607 6392
 1508 1608 6393
 1509 1609 6394
 1510 1610 6395
 1511 1611 6396
 1512 1612 6397
 1513 1613 6398
 1514 1614 6399
 1515 1615 6400
 1516 1616 6401
 1517 1617 6402
 1518 1618 6403
 1519 1619 6404
 1520 1620 6405
 1521 1621 6406
 1522 1622 6407
 1523 1623 6408
 1524 1624 6409
 1525 1625 6410
 1526 1626 6411
 1527 1627 6412
 1528 1628 6413
 1529 1629 6414
 1530 1630 6415
 1531 1631 6416
 1532 1632 6417
 1533 1633 6418
 1534 1634 6419
 1535 1635 6420
 1536 1636 6421
 1537 1637 6422
 1538 1638 6423
 1539 1639 6424
 1540 1640 6425
 1541 1641 6426
 1542 1642 6427
 1543 1643 6428
 1544 1644 6429
 1545 1645 6430
 1546 1646 6431
 1547 1647 6432
 1548 1648 6433
 1549 1649 6434
 1550 1650 6435
 1551 1651 6436
 1552 1652 6437
 1553 1653 6438
 1554 1654 6439
 1555 1655 6440
 1556 1656 6441
 1557 1657 6442
 1558 1658 6443
 1559 1659 6444
 1560 1660 6445
 1561 1661 6446
 1562 1662 6447
 1563 1663 6448
 1564 1664 6449
 1565 1665 6450
 1566 1666 6451
 1567 1667 6452
 1568 1668 6453
 1569 1669 6454
 1570 1670 6455
 1571 1671 6456
 1572 1672 6457
 1573 1673 6458
 1574 1674 6459
 1575 1675 6460
 1576 1676 6461
 1577 1677 6462
 1578 1678 6463
 1579 1679 6464
 1580 1680 6465
 1581 1681 6466
 1582 1682 6467
 1583 1683 6468
 1584 1684 6469
 1585 1685 6470
 1586 1686 6471
 1587 1687 6472
 1588 1688 6473
 1589 1689 6474
 1590 1690 6475
 1591 1691 6476
 1592 1692 6477
 1593 1693 6478
 1594 1694 6479
 1595 1695 6480
 1596 1696 6481
 1597 1697 6482
 1598 1698 6483
 1600 1700 6484
 1601 1701 6485
 1602 1702 6486
 1603 1703 6487
 1604 1704 6488
 1605 1705 6489
 1606 1706 6490
 1607 1707 6491
 1608 1708 6492
 1609 1709 6493
 1610 1710 6494
 1611 1711 6495
 1612 1712 6496
 1613 1713 6497
 1614 1714 6498
 1615 1715 6499
 1616 1716 6500
 1617 1717 6501
 1618 1718 6502
 1619 1719 6503
 1620 1720 6504
 1621 1721 6505
 1622 1722 6506
 1623 1723 6507
 1624 1724 6508
 1625 1725 6509
 1626 1726 6510
 1627 1727 6511
 1628 1728 6512
 1629 1729 6513
 1630 1730 6514
 1631 1731 6515
 1632 1732 6516
 1633 1733 6517
 1634 1734 6518
 1635 1735 6519
 1636 1736 6520
 1637 1737 6521
 1638 1738 6522
 1639 1739 6523
 1640 1740 6524
 1641 1741 6525
 1642 1742 6526
 1643 1743 6527
 1644 1744 6528
 1645 1745 6529
 1646 1746 6530
 1647 1747 6531
 1648 1748 6532
 1649 1749 6533
 1650 1750 6534
 1651 1751 6535
 1652 1752 6536
 1653 1753 6537
 1654 1754 6538
 1655 1755 6539
 1656 1756 6540
 1657 1757 6541
 1658 1758 6542
 1659 1759 6543
 1660 1760 6544
 1661 1761 6545
 1662 1762 6546
 1663 1763 6547
 1664 1764 6548
 1665 1765 6549
 1666 1766 6550
 1667 1767 6551
 1668 1768 6552
 1669 1769 6553
 1670 1770 6554
 1671 1771 6555
 1672 1772 6556
 1673 1773 6557
 1674 1774 6558
 1675 1775 6559
 1676 1776 6560
 1677 1777 6561
 1678 1778 6562
 1679 1779 6563
 1680 1780 6564
 1681 1781 6565
 1682 1782 6566
 1683 1783 6567
 1684 1784 6568
 1685 1785 6569
 1686 1786 6570
 1687 1787 6571
 1688 1788 6572
 1689 1789 6573
 1690 1790 6574
 1691 1791 6575
 1692 1792 6576
 1693 1793 6577
 1694 1794 6578
 1695 1795 6579
 1696 1796 6580
 1697 1797 6581
 1698 1798 6582
 1700 1800 6583
 1701 1801 6584
 1702 1802 6585
 1703 1803 6586
 1704 1804 6587
 1705 1805 6588
 1706 1806 6589
 1707 1807 6590
 1708 1808 6591
 1709 1809 6592
 1710 1810 6593
 1711 1811 6594
 1712 1812 6595
 1713 1813 6596
 1714 1814 6597
 1715 1815 6598
 1716 1816 6599
 1717 1817 6600
 1718 1818 6601
 1719 1819 6602
 1720 1820 6603
 1721 1821 6604
 1722 1822 6605
 1723 1823 6606
 1724 1824 6607
 1725 1825 6608
 1726 1826 6609
 1727 1827 6610
 1728 1828 6611
 1729 1829 6612
 1730 1830 6613
 1731 1831 6614
 1732 1832 6615
 1733 1833 6616
 1734 1834 6617
 1735 1835 6618
 1736 1836 6619
 1737 1837 6620
 1738 1838 6621
 1739 1839 6622
 1740 1840 6623
 1741 1841 6624
 1742 1842 6625
 1743 1843 6626
 1744 1844 6627
 1745 1845 6628
 1746 1846 6629
 1747 1847 6630
 1748 1848 6631
 1749 1849 6632
 1750 1850 6633
 1751 1851 6634
 1752 1852 6635
 1753 1853 6636
 1754 1854 6637
 1755 1855 6638
 1756 1856 6639
 1757 1857 6640
 1758 1858 6641
 1759 1859 6642
 1760 1860 6643
 1761 1861 6644
 1762 1862 6645
 1763 1863 6646
 1764 1864 6647
 1765 1865 6648
 1766 1866 6649
 1767 1867 6650
 1768 1868 6651
 1769 1869 6652
 1770 1870 6653
 1771 1871 6654
 1772 1872 6655
 1773 1873 6656
 1774 1874 6657
 1775 1875 6658
 1776 1876 6659
 1777 1877 6660
 1778 1878 6661
 1779 1879 6662
 1780 1880 6663
 1781 1881 6664
 1782 1882 6665
 1783 1883 6666
 1784 1884 6667
 1785 1885 6668
 1786 1886 6669
 1787 1887 6670
 1788 1888 6671
 1789 1889 6672
 1790 1890 6673
 1791 1891 6674
 1792 1892 6675
 1793 1893 6676
 1794 1894 6677
 1795 1895 6678
 1796 1896 6679
 1797 1897 6680
 1798 1898 6681
 1800 1900 6682
 1801 1901 6683
 1802 1902 6684
 1803 1903 6685
 1804 1904 6686
 1805 1905 6687
 1806 1906 6688
 1807 1907 6689
 1808 1908 6690
 1809 1909 6691
 1810 1910 6692
 1811 1911 6693
 1812 1912 6694
 1813 1913 6695
 1814 1914 6696
 1815 1915 6697
 1816 1916 6698
 1817 1917 6699
 1818 1918 6700
 1819 1919 6701
 1820 1920 6702
 1821 1921 6703
 1822 1922 6704
 1823 1923 6705
 1824 1924 6706
 1825 1925 6707
 1826 1926 6708
 1827 1927 6709
 1828 1928 6710
 1829 1929 6711
 1830 1930 6712
 1831 1931 6713
 1832 1932 6714
 1833 1933 6715
 1834 1934 6716
 1835 1935 6717
 1836 1936 6718
 1837 1937 6719
 1838 1938 6720
 1839 1939 6721
 1840 1940 6722
 1841 1941 6723
 1842 1942 6724
 1843 1943 6725
 1844 1944 6726
 1845 1945 6727
 1846 1946 6728
 1847 1947 6729
 1848 1948 6730
 1849 1949 6731
 1850 1950 6732
 1851 1951 6733
 1852 1952 6734
 1853 1953 6735
 1854 1954 6736
 1855 1955 6737
 1856 1956 6738
 1857 1957 6739
 1858 1958 6740
 1859 1959 6741
 1860 1960 6742
 1861 1961 6743
 1862 1962 6744
 1863 1963 6745
 1864 1964 6746
 1865 1965 6747
 1866 1966 6748
 1867 1967 6749
 1868 1968 6750
 1869 1969 6751
 1870 1970 6752
 1871 1971 6753
 1872 1972 6754
 1873 1973 6755
 1874 1974 6756
 1875 1975 6757
 1876 1976 6758
 1877 1977 6759
 1878 1978 6760
 1879 1979 6761
 1880 1980 6762
 1881 1981 6763
 1882 1982 6764
 1883 1983 6765
 1884 1984 6766
 1885 1985 6767
 1886 1986 6768
 1887 1987 6769
 1888 1988 6770
 1889 1989 6771
 1890 1990 6772
 1891 1991 6773
 1892 1992 6774
 1893 1993 6775
 1894 1994 6776
 1895 1995 6777
 1896 1996 6778
 1897 1997 6779
 1898 1998 6780
 1900 2000 6781
 1901 2001 6782
 1902 2002 6783
 1903 2003 6784
 1904 2004 6785
 1905 2005 6786
 1906 2006 6787
 1907 2007 6788
 1908 2008 6789
 1909 2009 6790
 1910 2010 6791
 1911 2011 6792
 1912 2012 6793
 1913 2013 6794
 1914 2014 6795
 1915 2015 6796
 1916 2016 6797
 1917 2017 6798
 1918 2018 6799
 1919 2019 6800
 1920 2020 6801
 1921 2021 6802
 1922 2022 6803
 1923 2023 6804
 1924 2024 6805
 1925 2025 6806
 1926 2026 6807
 1927 2027 6808
 1928 2028 6809
 1929 2029 6810
 1930 2030 6811
 1931 2031 6812
 1932 2032 6813
 1933 2033 6814
 1934 2034 6815
 1935 2035 6816
 1936 2036 6817
 1937 2037 6818
 1938 2038 6819
 1939 2039 6820
 1940 2040 6821
 1941 2041 6822
 1942 2042 6823
 1943 2043 6824
 1944 2044 6825
 1945 2045 6826
 1946 2046 6827
 1947 2047 6828
 1948 2048 6829
 1949 2049 6830
 1950 2050 6831
 1951 2051 6832
 1952 2052 6833
 1953 2053 6834
 1954 2054 6835
 1955 2055 6836
 1956 2056 6837
 1957 2057 6838
 1958 2058 6839
 1959 2059 6840
 1960 2060 6841
 1961 2061 6842
 1962 2062 6843
 1963 2063 6844
 1964 2064 6845
 1965 2065 6846
 1966 2066 6847
 1967 2067 6848
 1968 2068 6849
 1969 2069 6850
 1970 2070 6851
 1971 2071 6852
 1972 2072 6853
 1973 2073 6854
 1974 2074 6855
 1975 2075 6856
 1976 2076 6857
 1977 2077 6858
 1978 2078 6859
 1979 2079 6860
 1980 2080 6861
 1981 2081 6862
 1982 2082 6863
 1983 2083 6864
 1984 2084 6865
 1985 2085 6866
 1986 2086 6867
 1987 2087 6868
 1988 2088 6869
 1989 2089 6870
 1990 2090 6871
 1991 2091 6872
 1992 2092 6873
 1993 2093 6874
 1994 2094 6875
 1995 2095 6876
 1996 2096 6877
 1997 2097 6878
 1998 2098 6879
 2000 2100 6880
 2001 2101 6881
 2002 2102 6882
 2003 2103 6883
 2004 2104 6884
 2005 2105 6885
 2006 2106 6886
 2007 2107 6887
 2008 2108 6888
 2009 2109 6889
 2010 2110 6890
 2011 2111 6891
 2012 2112 6892
 2013 2113 6893
 2014 2114 6894
 2015 2115 6895
 2016 2116 6896
 2017 2117 6897
 2018 2118 6898
 2019 2119 6899
 2020 2120 6900
 2021 2121 6901
 2022 2122 6902
 2023 2123 6903
 2024 2124 6904
 2025 2125 6905
 2026 2126 6906
 2027 2127 6907
 2028 2128 6908
 2029 2129 6909
 2030 2130 6910
 2031 2131 6911
 2032 2132 6912
 2033 2133 6913
 2034 2134 6914
 2035 2135 6915
 2036 2136 6916
 2037 2137 6917
 2038 2138 6918
 2039 2139 6919
 2040 2140 6920
 2041 2141 6921
 2042 2142 6922
 2043 2143 6923
 2044 2144 6924
 2045 2145 6925
 2046 2146 6926
 2047 2147 6927
 2048 2148 6928
 2049 2149 6929
 2050 2150 6930
 2051 2151 6931
 2052 2152 6932
 2053 2153 6933
 2054 2154 6934
 2055 2155 6935
 2056 2156 6936
 2057 2157 6937
 2058 2158 6938
 2059 2159 6939
 2060 2160 6940
 2061 2161 6941
 2062 2162 6942
 2063 2163 6943
 2064 2164 6944
 2065 2165 6945
 2066 2166 6946
 2067 2167 6947
 2068 2168 6948
 2069 2169 6949
 2070 2170 6950
 2071 2171 6951
 2072 2172 6952
 2073 2173 6953
 2074 2174 6954
 2075 2175 6955
 2076 2176 6956
 2077 2177 6957
 2078 2178 6958
 2079 2179 6959
 2080 2180 6960
 2081 2181 6961
 2082 2182 6962
 2083 2183 6963
 2084 2184 6964
 2085 2185 6965
 2086 2186 6966
 2087 2187 6967
 2088 2188 6968
 2089 2189 6969
 2090 2190 6970
 2091 2191 6971
 2092 2192 6972
 2093 2193 6973
 2094 2194 6974
 2095 2195 6975
 2096 2196 6976
 2097 2197 6977
 2098 2198 6978
 2100 2200 6979
 2101 2201 6980
 2102 2202 6981
 2103 2203 6982
 2104 2204 6983
 2105 2205 6984
 2106 2206 6985
 2107 2207 6986
 2108 2208 6987
 2109 2209 6988
 2110 2210 6989
 2111 2211 6990
 2112 2212 6991
 2113 2213 6992
 2114 2214 6993
 2115 2215 6994
 2116 2216 6995
 2117 2217 6996
 2118 2218 6997
 2119 2219 6998
 2120 2220 6999
 2121 2221 7000
 2122 2222 7001
 2123 2223 7002
 2124 2224 7003
 2125 2225 7004
 2126 2226 7005
 2127 2227 7006
 2128 2228 7007
 2129 2229 7008
 2130 2230 7009
 2131 2231 7010
 2132 2232 7011
 2133 2233 7012
 2134 2234 7013
 2135 2235 7014
 2136 2236 7015
 2137 2237 7016
 2138 2238 7017
 2139 2239 7018
 2140 2240 7019
 2141 2241 7020
 2142 2242 7021
 2143 2243 7022
 2144 2244 7023
 2145 2245 7024
 2146 2246 7025
 2147 2247 7026
 2148 2248 7027
 2149 2249 7028
 2150 2250 7029
 2151 2251 7030
 2152 2252 7031
 2153 2253 7032
 2154 2254 7033
 2155 2255 7034
 2156 2256 7035
 2157 2257 7036
 2158 2258 7037
 2159 2259 7038
 2160 2260 7039
 2161 2261 7040
 2162 2262 7041
 2163 2263 7042
 2164 2264 7043
 2165 2265 7044
 2166 2266 7045
 2167 2267 7046
 2168 2268 7047
 2169 2269 7048
 2170 2270 7049
 2171 2271 7050
 2172 2272 7051
 2173 2273 7052
 2174 2274 7053
 2175 2275 7054
 2176 2276 7055
 2177 2277 7056
 2178 2278 7057
 2179 2279 7058
 2180 2280 7059
 2181 2281 7060
 2182 2282 7061
 2183 2283 7062
 2184 2284 7063
 2185 2285 7064
 2186 2286 7065
 2187 2287 7066
 2188 2288 7067
 2189 2289 7068
 2190 2290 7069
 2191 2291 7070
 2192 2292 7071
 2193 2293 7072
 2194 2294 7073
 2195 2295 7074
 2196 2296 7075
 2197 2297 7076
 2198 2298 7077
 2200 2300 7078
 2201 2301 7079
 2202 2302 7080
 2203 2303 7081
 2204 2304 7082
 2205 2305 7083
 2206 2306 7084
 2207 2307 7085
 2208 2308 7086
 2209 2309 7087
 2210 2310 7088
 2211 2311 7089
 2212 2312 7090
 2213 2313 7091
 2214 2314 7092
 2215 2315 7093
 2216 2316 7094
 2217 2317 7095
 2218 2318 7096
 2219 2319 7097
 2220 2320 7098
 2221 2321 7099
 2222 2322 7100
 2223 2323 7101
 2224 2324 7102
 2225 2325 7103
 2226 2326 7104
 2227 2327 7105
 2228 2328 7106
 2229 2329 7107
 2230 2330 7108
 2231 2331 7109
 2232 2332 7110
 2233 2333 7111
 2234 2334 7112
 2235 2335 7113
 2236 2336 7114
 2237 2337 7115
 2238 2338 7116
 2239 2339 7117
 2240 2340 7118
 2241 2341 7119
 2242 2342 7120
 2243 2343 7121
 2244 2344 7122
 2245 2345 7123
 2246 2346 7124
 2247 2347 7125
 2248 2348 7126
 2249 2349 7127
 2250 2350 7128
 2251 2351 7129
 2252 2352 7130
 2253 2353 7131
 2254 2354 7132
 2255 2355 7133
 2256 2356 7134
 2257 2357 7135
 2258 2358 7136
 2259 2359 7137
 2260 2360 7138
 2261 2361 7139
 2262 2362 7140
 2263 2363 7141
 2264 2364 7142
 2265 2365 7143
 2266 2366 7144
 2267 2367 7145
 2268 2368 7146
 2269 2369 7147
 2270 2370 7148
 2271 2371 7149
 2272 2372 7150
 2273 2373 7151
 2274 2374 7152
 2275 2375 7153
 2276 2376 7154
 2277 2377 7155
 2278 2378 7156
 2279 2379 7157
 2280 2380 7158
 2281 2381 7159
 2282 2382 7160
 2283 2383 7161
 2284 2384 7162
 2285 2385 7163
 2286 2386 7164
 2287 2387 7165
 2288 2388 7166
 2289 2389 7167
 2290 2390 7168
 2291 2391 7169
 2292 2392 7170
 2293 2393 7171
 2294 2394 7172
 2295 2395 7173
 2296 2396 7174
 2297 2397 7175
 2298 2398 7176
 2300 2400 7177
 2301 2401 7178
 2302 2402 7179
 2303 2403 7180
 2304 2404 7181
 2305 2405 7182
 2306 2406 7183
 2307 2407 7184
 2308 2408 7185
 2309 2409 7186
 2310 2410 7187
 2311 2411 7188
 2312 2412 7189
 2313 2413 7190
 2314 2414 7191
 2315 2415 7192
 2316 2416 7193
 2317 2417 7194
 2318 2418 7195
 2319 2419 7196
 2320 2420 7197
 2321 2421 7198
 2322 2422 7199
 2323 2423 7200
 2324 2424 7201
 2325 2425 7202
 2326 2426 7203
 2327 2427 7204
 2328 2428 7205
 2329 2429 7206
 2330 2430 7207
 2331 2431 7208
 2332 2432 7209
 2333 2433 7210
 2334 2434 7211
 2335 2435 7212
 2336 2436 7213
 2337 2437 7214
 2338 2438 7215
 2339 2439 7216
 2340 2440 7217
 2341 2441 7218
 2342 2442 7219
 2343 2443 7220
 2344 2444 7221
 2345 2445 7222
 2346 2446 7223
 2347 2447 7224
 2348 2448 7225
 2349 2449 7226
 2350 2450 7227
 2351 2451 7228
 2352 2452 7229
 2353 2453 7230
 2354 2454 7231
 2355 2455 7232
 2356 2456 7233
 2357 2457 7234
 2358 2458 7235
 2359 2459 7236
 2360 2460 7237
 2361 2461 7238
 2362 2462 7239
 2363 2463 7240
 2364 2464 7241
 2365 2465 7242
 2366 2466 7243
 2367 2467 7244
 2368 2468 7245
 2369 2469 7246
 2370 2470 7247
 2371 2471 7248
 2372 2472 7249
 2373 2473 7250
 2374 2474 7251
 2375 2475 7252
 2376 2476 7253
 2377 2477 7254
 2378 2478 7255
 2379 2479 7256
 2380 2480 7257
 2381 2481 7258
 2382 2482 7259
 2383 2483 7260
 2384 2484 7261
 2385 2485 7262
 2386 2486 7263
 2387 2487 7264
 2388 2488 7265
 2389 2489 7266
 2390 2490 7267
 2391 2491 7268
 2392 2492 7269
 2393 2493 7270
 2394 2494 7271
 2395 2495 7272
 2396 2496 7273
 2397 2497 7274
 2398 2498 7275
 2400 2500 7276
 2401 2501 7277
 2402 2502 7278
 2403 2503 7279
 2404 2504 7280
 2405 2505 7281
 2406 2506 7282
 2407 2507 7283
 2408 2508 7284
 2409 2509 7285
 2410 2510 7286
 2411 2511 7287
 2412 2512 7288
 2413 2513 7289
 2414 2514 7290
 2415 2515 7291
 2416 2516 7292
 2417 2517 7293
 2418 2518 7294
 2419 2519 7295
 2420 2520 7296
 2421 2521 7297
 2422 2522 7298
 2423 2523 7299
 2424 2524 7300
 2425 2525 7301
 2426 2526 7302
 2427 2527 7303
 2428 2528 7304
 2429 2529 7305
 2430 2530 7306
 2431 2531 7307
 2432 2532 7308
 2433 2533 7309
 2434 2534 7310
 2435 2535 7311
 2436 2536 7312
 2437 2537 7313
 2438 2538 7314
 2439 2539 7315
 2440 2540 7316
 2441 2541 7317
 2442 2542 7318
 2443 2543 7319
 2444 2544 7320
 2445 2545 7321
 2446 2546 7322
 2447 2547 7323
 2448 2548 7324
 2449 2549 7325
 2450 2550 7326
 2451 2551 7327
 2452 2552 7328
 2453 2553 7329
 2454 2554 7330
 2455 2555 7331
 2456 2556 7332
 2457 2557 7333
 2458 2558 7334
 2459 2559 7335
 2460 2560 7336
 2461 2561 7337
 2462 2562 7338
 2463 2563 7339
 2464 2564 7340
 2465 2565 7341
 2466 2566 7342
 2467 2567 7343
 2468 2568 7344
 2469 2569 7345
 2470 2570 7346
 2471 2571 7347
 2472 2572 7348
 2473 2573 7349
 2474 2574 7350
 2475 2575 7351
 2476 2576 7352
 2477 2577 7353
 2478 2578 7354
 2479 2579 7355
 2480 2580 7356
 2481 2581 7357
 2482 2582 7358
 2483 2583 7359
 2484 2584 7360
 2485 2585 7361
 2486 2586 7362
 2487 2587 7363
 2488 2588 7364
 2489 2589 7365
 2490 2590 7366
 2491 2591 7367
 2492 2592 7368
 2493 2593 7369
 2494 2594 7370
 2495 2595 7371
 2496 2596 7372
 2497 2597 7373
 2498 2598 7374
 2500 2600 7375
 2501 2601 7376
 2502 2602 7377
 2503 2603 7378
 2504 2604 7379
 2505 2605 7380
 2506 2606 7381
 2507 2607 7382
 2508 2608 7383
 2509 2609 7384
 2510 2610 7385
 2511 2611 7386
 2512 2612 7387
 2513 2613 7388
 2514 2614 7389
 2515 2615 7390
 2516 2616 7391
 2517 2617 7392
 2518 2618 7393
 2519 2619 7394
 2520 2620 7395
 2521 2621 7396
 2522 2622 7397
 2523 2623 7398
 2524 2624 7399
 2525 2625 7400
 2526 2626 7401
 2527 2627 7402
 2528 2628 7403
 2529 2629 7404
 2530 2630 7405
 2531 2631 7406
 2532 2632 7407
 2533 2633 7408
 2534 2634 7409
 2535 2635 7410
 2536 2636 7411
 2537 2637 7412
 2538 2638 7413
 2539 2639 7414
 2540 2640 7415
 2541 2641 7416
 2542 2642 7417
 2543 2643 7418
 2544 2644 7419
 2545 2645 7420
 2546 2646 7421
 2547 2647 7422
 2548 2648 7423
 2549 2649 7424
 2550 2650 7425
 2551 2651 7426
 2552 2652 7427
 2553 2653 7428
 2554 2654 7429
 2555 2655 7430
 2556 2656 7431
 2557 2657 7432
 2558 2658 7433
 2559 2659 7434
 2560 2660 7435
 2561 2661 7436
 2562 2662 7437
 2563 2663 7438
 2564 2664 7439
 2565 2665 7440
 2566 2666 7441
 2567 2667 7442
 2568 2668 7443
 2569 2669 7444
 2570 2670 7445
 2571 2671 7446
 2572 2672 7447
 2573 2673 7448
 2574 2674 7449
 2575 2675 7450
 2576 2676 7451
 2577 2677 7452
 2578 2678 7453
 2579 2679 7454
 2580 2680 7455
 2581 2681 7456
 2582 2682 7457
 2583 2683 7458
 2584 2684 7459
 2585 2685 7460
 2586 2686 7461
 2587 2687 7462
 2588 2688 7463
 2589 2689 7464
 2590 2690 7465
 2591 2691 7466
 2592 2692 7467
 2593 2693 7468
 2594 2694 7469
 2595 2695 7470
 2596 2696 7471
 2597 2697 7472
 2598 2698 7473
 2600 2700 7474
 2601 2701 7475
 2602 2702 7476
 2603 2703 7477
 2604 2704 7478
 2605 2705 7479
 2606 2706 7480
 2607 2707 7481
 2608 2708 7482
 2609 2709 7483
 2610 2710 7484
 2611 2711 7485
 2612 2712 7486
 2613 2713 7487
 2614 2714 7488
 2615 2715 7489
 2616 2716 7490
 2617 2717 7491
 2618 2718 7492
 2619 2719 7493
 2620 2720 7494
 2621 2721 7495
 2622 2722 7496
 2623 2723 7497
 2624 2724 7498
 2625 2725 7499
 2626 2726 7500
 2627 2727 7501
 2628 2728 7502
 2629 2729 7503
 2630 2730 7504
 2631 2731 7505
 2632 2732 7506
 2633 2733 7507
 2634 2734 7508
 2635 2735 7509
 2636 2736 7510
 2637 2737 7511
 2638 2738 7512
 2639 2739 7513
 2640 2740 7514
 2641 2741 7515
 2642 2742 7516
 2643 2743 7517
 2644 2744 7518
 2645 2745 7519
 2646 2746 7520
 2647 2747 7521
 2648 2748 7522
 2649 2749 7523
 2650 2750 7524
 2651 2751 7525
 2652 2752 7526
 2653 2753 7527
 2654 2754 7528
 2655 2755 7529
 2656 2756 7530
 2657 2757 7531
 2658 2758 7532
 2659 2759 7533
 2660 2760 7534
 2661 2761 7535
 2662 2762 7536
 2663 2763 7537
 2664 2764 7538
 2665 2765 7539
 2666 2766 7540
 2667 2767 7541
 2668 2768 7542
 2669 2769 7543
 2670 2770 7544
 2671 2771 7545
 2672 2772 7546
 2673 2773 7547
 2674 2774 7548
 2675 2775 7549
 2676 2776 7550
 2677 2777 7551
 2678 2778 7552
 2679 2779 7553
 2680 2780 7554
 2681 2781 7555
 2682 2782 7556
 2683 2783 7557
 2684 2784 7558
 2685 2785 7559
 2686 2786 7560
 2687 2787 7561
 2688 2788 7562
 2689 2789 7563
 2690 2790 7564
 2691 2791 7565
 2692 2792 7566
 2693 2793 7567
 2694 2794 7568
 2695 2795 7569
 2696 2796 7570
 2697 2797 7571
 2698 2798 7572
 2700 2800 7573
 2701 2801 7574
 2702 2802 7575
 2703 2803 7576
 2704 2804 7577
 2705 2805 7578
 2706 2806 7579
 2707 2807 7580
 2708 2808 7581
 2709 2809 7582
 2710 2810 7583
 2711 2811 7584
 2712 2812 7585
 2713 2813 7586
 2714 2814 7587
 2715 2815 7588
 2716 2816 7589
 2717 2817 7590
 2718 2818 7591
 2719 2819 7592
 2720 2820 7593
 2721 2821 7594
 2722 2822 7595
 2723 2823 7596
 2724 2824 7597
 2725 2825 7598
 2726 2826 7599
 2727 2827 7600
 2728 2828 7601
 2729 2829 7602
 2730 2830 7603
 2731 2831 7604
 2732 2832 7605
 2733 2833 7606
 2734 2834 7607
 2735 2835 7608
 2736 2836 7609
 2737 2837 7610
 2738 2838 7611
 2739 2839 7612
 2740 2840 7613
 2741 2841 7614
 2742 2842 7615
 2743 2843 7616
 2744 2844 7617
 2745 2845 7618
 2746 2846 7619
 2747 2847 7620
 2748 2848 7621
 2749 2849 7622
 2750 2850 7623
 2751 2851 7624
 2752 2852 7625
 2753 2853 7626
 2754 2854 7627
 2755 2855 7628
 2756 2856 7629
 2757 2857 7630
 2758 2858 7631
 2759 2859 7632
 2760 2860 7633
 2761 2861 7634
 2762 2862 7635
 2763 2863 7636
 2764 2864 7637
 2765 2865 7638
 2766 2866 7639
 2767 2867 7640
 2768 2868 7641
 2769 2869 7642
 2770 2870 7643
 2771 2871 7644
 2772 2872 7645
 2773 2873 7646
 2774 2874 7647
 2775 2875 7648
 2776 2876 7649
 2777 2877 7650
 2778 2878 7651
 2779 2879 7652
 2780 2880 7653
 2781 2881 7654
 2782 2882 7655
 2783 2883 7656
 2784 2884 7657
 2785 2885 7658
 2786 2886 7659
 2787 2887 7660
 2788 2888 7661
 2789 2889 7662
 2790 2890 7663
 2791 2891 7664
 2792 2892 7665
 2793 2893 7666
 2794 2894 7667
 2795 2895 7668
 2796 2896 7669
 2797 2897 7670
 2798 2898 7671
 2800 2900 7672
 2801 2901 7673
 2802 2902 7674
 2803 2903 7675
 2804 2904 7676
 2805 2905 7677
 2806 2906 7678
 2807 2907 7679
 2808 2908 7680
 2809 2909 7681
 2810 2910 7682
 2811 2911 7683
 2812 2912 7684
 2813 2913 7685
 2814 2914 7686
 2815 2915 7687
 2816 2916 7688
 2817 2917 7689
 2818 2918 7690
 2819 2919 7691
 2820 2920 7692
 2821 2921 7693
 2822 2922 7694
 2823 2923 7695
 2824 2924 7696
 2825 2925 7697
 2826 2926 7698
 2827 2927 7699
 2828 2928 7700
 2829 2929 7701
 2830 2930 7702
 2831 2931 7703
 2832 2932 7704
 2833 2933 7705
 2834 2934 7706
 2835 2935 7707
 2836 2936 7708
 2837 2937 7709
 2838 2938 7710
 2839 2939 7711
 2840 2940 7712
 2841 2941 7713
 2842 2942 7714
 2843 2943 7715
 2844 2944 7716
 2845 2945 7717
 2846 2946 7718
 2847 2947 7719
 2848 2948 7720
 2849 2949 7721
 2850 2950 7722
 2851 2951 7723
 2852 2952 7724
 2853 2953 7725
 2854 2954 7726
 2855 2955 7727
 2856 2956 7728
 2857 2957 7729
 2858 2958 7730
 2859 2959 7731
 2860 2960 7732
 2861 2961 7733
 2862 2962 7734
 2863 2963 7735
 2864 2964 7736
 2865 2965 7737
 2866 2966 7738
 2867 2967 7739
 2868 2968 7740
 2869 2969 7741
 2870 2970 7742
 2871 2971 7743
 2872 2972 7744
 2873 2973 7745
 2874 2974 7746
 2875 2975 7747
 2876 2976 7748
 2877 2977 7749
 2878 2978 7750
 2879 2979 7751
 2880 2980 7752
 2881 2981 7753
 2882 2982 7754
 2883 2983 7755
 2884 2984 7756
 2885 2985 7757
 2886 2986 7758
 2887 2987 7759
 2888 2988 7760
 2889 2989 7761
 2890 2990 7762
 2891 2991 7763
 2892 2992 7764
 2893 2993 7765
 2894 2994 7766
 2895 2995 7767
 2896 2996 7768
 2897 2997 7769
 2898 2998 7770
 2900 3000 7771
 2901 3001 7772
 2902 3002 7773
 2903 3003 7774
 2904 3004 7775
 2905 3005 7776
 2906 3006 7777
 2907 3007 7778
 2908 3008 7779
 2909 3009 7780
 2910 3010 7781
 2911 3011 7782
 2912 3012 7783
 2913 3013 7784
 2914 3014 7785
 2915 3015 7786
 2916 3016 7787
 2917 3017 7788
 2918 3018 7789
 2919 3019 7790
 2920 3020 7791
 2921 3021 7792
 2922 3022 7793
 2923 3023 7794
 2924 3024 7795
 2925 3025 7796
 2926 3026 7797
 2927 3027 7798
 2928 3028 7799
 2929 3029 7800
 2930 3030 7801
 2931 3031 7802
 2932 3032 7803
 2933 3033 7804
 2934 3034 7805
 2935 3035 7806
 2936 3036 7807
 2937 3037 7808
 2938 3038 7809
 2939 3039 7810
 2940 3040 7811
 2941 3041 7812
 2942 3042 7813
 2943 3043 7814
 2944 3044 7815
 2945 3045 7816
 2946 3046 7817
 2947 3047 7818
 2948 3048 7819
 2949 3049 7820
 2950 3050 7821
 2951 3051 7822
 2952 3052 7823
 2953 3053 7824
 2954 3054 7825
 2955 3055 7826
 2956 3056 7827
 2957 3057 7828
 2958 3058 7829
 2959 3059 7830
 2960 3060 7831
 2961 3061 7832
 2962 3062 7833
 2963 3063 7834
 2964 3064 7835
 2965 3065 7836
 2966 3066 7837
 2967 3067 7838
 2968 3068 7839
 2969 3069 7840
 2970 3070 7841
 2971 3071 7842
 2972 3072 7843
 2973 3073 7844
 2974 3074 7845
 2975 3075 7846
 2976 3076 7847
 2977 3077 7848
 2978 3078 7849
 2979 3079 7850
 2980 3080 7851
 2981 3081 7852
 2982 3082 7853
 2983 3083 7854
 2984 3084 7855
 2985 3085 7856
 2986 3086 7857
 2987 3087 7858
 2988 3088 7859
 2989 3089 7860
 2990 3090 7861
 2991 3091 7862
 2992 3092 7863
 2993 3093 7864
 2994 3094 7865
 2995 3095 7866
 2996 3096 7867
 2997 3097 7868
 2998 3098 7869
 3000 3100 7870
 3001 3101 7871
 3002 3102 7872
 3003 3103 7873
 3004 3104 7874
 3005 3105 7875
 3006 3106 7876
 3007 3107 7877
 3008 3108 7878
 3009 3109 7879
 3010 3110 7880
 3011 3111 7881
 3012 3112 7882
 3013 3113 7883
 3014 3114 7884
 3015 3115 7885
 3016 3116 7886
 3017 3117 7887
 3018 3118 7888
 3019 3119 7889
 3020 3120 7890
 3021 3121 7891
 3022 3122 7892
 3023 3123 7893
 3024 3124 7894
 3025 3125 7895
 3026 3126 7896
 3027 3127 7897
 3028 3128 7898
 3029 3129 7899
 3030 3130 7900
 3031 3131 7901
 3032 3132 7902
 3033 3133 7903
 3034 3134 7904
 3035 3135 7905
 3036 3136 7906
 3037 3137 7907
 3038 3138 7908
 3039 3139 7909
 3040 3140 7910
 3041 3141 7911
 3042 3142 7912
 3043 3143 7913
 3044 3144 7914
 3045 3145 7915
 3046 3146 7916
 3047 3147 7917
 3048 3148 7918
 3049 3149 7919
 3050 3150 7920
 3051 3151 7921
 3052 3152 7922
 3053 3153 7923
 3054 3154 7924
 3055 3155 7925
 3056 3156 7926
 3057 3157 7927
 3058 3158 7928
 3059 3159 7929
 3060 3160 7930
 3061 3161 7931
 3062 3162 7932
 3063 3163 7933
 3064 3164 7934
 3065 3165 7935
 3066 3166 7936
 3067 3167 7937
 3068 3168 7938
 3069 3169 7939
 3070 3170 7940
 3071 3171 7941
 3072 3172 7942
 3073 3173 7943
 3074 3174 7944
 3075 3175 7945
 3076 3176 7946
 3077 3177 7947
 3078 3178 7948
 3079 3179 7949
 3080 3180 7950
 3081 3181 7951
 3082 3182 7952
 3083 3183 7953
 3084 3184 7954
 3085 3185 7955
 3086 3186 7956
 3087 3187 7957
 3088 3188 7958
 3089 3189 7959
 3090 3190 7960
 3091 3191 7961
 3092 3192 7962
 3093 3193 7963
 3094 3194 7964
 3095 3195 7965
 3096 3196 7966
 3097 3197 7967
 3098 3198 7968
 3100 3200 7969
 3101 3201 7970
 3102 3202 7971
 3103 3203 7972
 3104 3204 7973
 3105 3205 7974
 3106 3206 7975
 3107 3207 7976
 3108 3208 7977
 3109 3209 7978
 3110 3210 7979
 3111 3211 7980
 3112 3212 7981
 3113 3213 7982
 3114 3214 7983
 3115 3215 7984
 3116 3216 7985
 3117 3217 7986
 3118 3218 7987
 3119 3219 7988
 3120 3220 7989
 3121 3221 7990
 3122 3222 7991
 3123 3223 7992
 3124 3224 7993
 3125 3225 7994
 3126 3226 7995
 3127 3227 7996
 3128 3228 7997
 3129 3229 7998
 3130 3230 7999
 3131 3231 8000
 3132 3232 8001
 3133 3233 8002
 3134 3234 8003
 3135 3235 8004
 3136 3236 8005
 3137 3237 8006
 3138 3238 8007
 3139 3239 8008
 3140 3240 8009
 3141 3241 8010
 3142 3242 8011
 3143 3243 8012
 3144 3244 8013
 3145 3245 8014
 3146 3246 8015
 3147 3247 8016
 3148 3248 8017
 3149 3249 8018
 3150 3250 8019
 3151 3251 8020
 3152 3252 8021
 3153 3253 8022
 3154 3254 8023
 3155 3255 8024
 3156 3256 8025
 3157 3257 8026
 3158 3258 8027
 3159 3259 8028
 3160 3260 8029
 3161 3261 8030
 3162 3262 8031
 3163 3263 8032
 3164 3264 8033
 3165 3265 8034
 3166 3266 8035
 3167 3267 8036
 3168 3268 8037
 3169 3269 8038
 3170 3270 8039
 3171 3271 8040
 3172 3272 8041
 3173 3273 8042
 3174 3274 8043
 3175 3275 8044
 3176 3276 8045
 3177 3277 8046
 3178 3278 8047
 3179 3279 8048
 3180 3280 8049
 3181 3281 8050
 3182 3282 8051
 3183 3283 8052
 3184 3284 8053
 3185 3285 8054
 3186 3286 8055
 3187 3287 8056
 3188 3288 8057
 3189 3289 8058
 3190 3290 8059
 3191 3291 8060
 3192 3292 8061
 3193 3293 8062
 3194 3294 8063
 3195 3295 8064
 3196 3296 8065
 3197 3297 8066
 3198 3298 8067
 3200 3300 8068
 3201 3301 8069
 3202 3302 8070
 3203 3303 8071
 3204 3304 8072
 3205 3305 8073
 3206 3306 8074
 3207 3307 8075
 3208 3308 8076
 3209 3309 8077
 3210 3310 8078
 3211 3311 8079
 3212 3312 8080
 3213 3313 8081
 3214 3314 8082
 3215 3315 8083
 3216 3316 8084
 3217 3317 8085
 3218 3318 8086
 3219 3319 8087
 3220 3320 8088
 3221 3321 8089
 3222 3322 8090
 3223 3323 8091
 3224 3324 8092
 3225 3325 8093
 3226 3326 8094
 3227 3327 8095
 3228 3328 8096
 3229 3329 8097
 3230 3330 8098
 3231 3331 8099
 3232 3332 8100
 3233 3333 8101
 3234 3334 8102
 3235 3335 8103
 3236 3336 8104
 3237 3337 8105
 3238 3338 8106
 3239 3339 8107
 3240 3340 8108
 3241 3341 8109
 3242 3342 8110
 3243 3343 8111
 3244 3344 8112
 3245 3345 8113
 3246 3346 8114
 3247 3347 8115
 3248 3348 8116
 3249 3349 8117
 3250 3350 8118
 3251 3351 8119
 3252 3352 8120
 3253 3353 8121
 3254 3354 8122
 3255 3355 8123
 3256 3356 8124
 3257 3357 8125
 3258 3358 8126
 3259 3359 8127
 3260 3360 8128
 3261 3361 8129
 3262 3362 8130
 3263 3363 8131
 3264 3364 8132
 3265 3365 8133
 3266 3366 8134
 3267 3367 8135
 3268 3368 8136
 3269 3369 8137
 3270 3370 8138
 3271 3371 8139
 3272 3372 8140
 3273 3373 8141
 3274 3374 8142
 3275 3375 8143
 3276 3376 8144
 3277 3377 8145
 3278 3378 8146
 3279 3379 8147
 3280 3380 8148
 3281 3381 8149
 3282 3382 8150
 3283 3383 8151
 3284 3384 8152
 3285 3385 8153
 3286 3386 8154
 3287 3387 8155
 3288 3388 8156
 3289 3389 8157
 3290 3390 8158
 3291 3391 8159
 3292 3392 8160
 3293 3393 8161
 3294 3394 8162
 3295 3395 8163
 3296 3396 8164
 3297 3397 8165
 3298 3398 8166
 3300 3400 8167
 3301 3401 8168
 3302 3402 8169
 3303 3403 8170
 3304 3404 8171
 3305 3405 8172
 3306 3406 8173
 3307 3407 8174
 3308 3408 8175
 3309 3409 8176
 3310 3410 8177
 3311 3411 8178
 3312 3412 8179
 3313 3413 8180
 3314 3414 8181
 3315 3415 8182
 3316 3416 8183
 3317 3417 8184
 3318 3418 8185
 3319 3419 8186
 3320 3420 8187
 3321 3421 8188
 3322 3422 8189
 3323 3423 8190
 3324 3424 8191
 3325 3425 8192
 3326 3426 8193
 3327 3427 8194
 3328 3428 8195
 3329 3429 8196
 3330 3430 8197
 3331 3431 8198
 3332 3432 8199
 3333 3433 8200
 3334 3434 8201
 3335 3435 8202
 3336 3436 8203
 3337 3437 8204
 3338 3438 8205
 3339 3439 8206
 3340 3440 8207
 3341 3441 8208
 3342 3442 8209
 3343 3443 8210
 3344 3444 8211
 3345 3445 8212
 3346 3446 8213
 3347 3447 8214
 3348 3448 8215
 3349 3449 8216
 3350 3450 8217
 3351 3451 8218
 3352 3452 8219
 3353 3453 8220
 3354 3454 8221
 3355 3455 8222
 3356 3456 8223
 3357 3457 8224
 3358 3458 8225
 3359 3459 8226
 3360 3460 8227
 3361 3461 8228
 3362 3462 8229
 3363 3463 8230
 3364 3464 8231
 3365 3465 8232
 3366 3466 8233
 3367 3467 8234
 3368 3468 8235
 3369 3469 8236
 3370 3470 8237
 3371 3471 8238
 3372 3472 8239
 3373 3473 8240
 3374 3474 8241
 3375 3475 8242
 3376 3476 8243
 3377 3477 8244
 3378 3478 8245
 3379 3479 8246
 3380 3480 8247
 3381 3481 8248
 3382 3482 8249
 3383 3483 8250
 3384 3484 8251
 3385 3485 8252
 3386 3486 8253
 3387 3487 8254
 3388 3488 8255
 3389 3489 8256
 3390 3490 8257
 3391 3491 8258
 3392 3492 8259
 3393 3493 8260
 3394 3494 8261
 3395 3495 8262
 3396 3496 8263
 3397 3497 8264
 3398 3498 8265
 3400 3500 8266
 3401 3501 8267
 3402 3502 8268
 3403 3503 8269
 3404 3504 8270
 3405 3505 8271
 3406 3506 8272
 3407 3507 8273
 3408 3508 8274
 3409 3509 8275
 3410 3510 8276
 3411 3511 8277
 3412 3512 8278
 3413 3513 8279
 3414 3514 8280
 3415 3515 8281
 3416 3516 8282
 3417 3517 8283
 3418 3518 8284
 3419 3519 8285
 3420 3520 8286
 3421 3521 8287
 3422 3522 8288
 3423 3523 8289
 3424 3524 8290
 3425 3525 8291
 3426 3526 8292
 3427 3527 8293
 3428 3528 8294
 3429 3529 8295
 3430 3530 8296
 3431 3531 8297
 3432 3532 8298
 3433 3533 8299
 3434 3534 8300
 3435 3535 8301
 3436 3536 8302
 3437 3537 8303
 3438 3538 8304
 3439 3539 8305
 3440 3540 8306
 3441 3541 8307
 3442 3542 8308
 3443 3543 8309
 3444 3544 8310
 3445 3545 8311
 3446 3546 8312
 3447 3547 8313
 3448 3548 8314
 3449 3549 8315
 3450 3550 8316
 3451 3551 8317
 3452 3552 8318
 3453 3553 8319
 3454 3554 8320
 3455 3555 8321
 3456 3556 8322
 3457 3557 8323
 3458 3558 8324
 3459 3559 8325
 3460 3560 8326
 3461 3561 8327
 3462 3562 8328
 3463 3563 8329
 3464 3564 8330
 3465 3565 8331
 3466 3566 8332
 3467 3567 8333
 3468 3568 8334
 3469 3569 8335
 3470 3570 8336
 3471 3571 8337
 3472 3572 8338
 3473 3573 8339
 3474 3574 8340
 3475 3575 8341
 3476 3576 8342
 3477 3577 8343
 3478 3578 8344
 3479 3579 8345
 3480 3580 8346
 3481 3581 8347
 3482 3582 8348
 3483 3583 8349
 3484 3584 8350
 3485 3585 8351
 3486 3586 8352
 3487 3587 8353
 3488 3588 8354
 3489 3589 8355
 3490 3590 8356
 3491 3591 8357
 3492 3592 8358
 3493 3593 8359
 3494 3594 8360
 3495 3595 8361
 3496 3596 8362
 3497 3597 8363
 3498 3598 8364
 3500 3600 8365
 3501 3601 8366
 3502 3602 8367
 3503 3603 8368
 3504 3604 8369
 3505 3605 8370
 3506 3606 8371
 3507 3607 8372
 3508 3608 8373
 3509 3609 8374
 3510 3610 8375
 3511 3611 8376
 3512 3612 8377
 3513 3613 8378
 3514 3614 8379
 3515 3615 8380
 3516 3616 8381
 3517 3617 8382
 3518 3618 8383
 3519 3619 8384
 3520 3620 8385
 3521 3621 8386
 3522 3622 8387
 3523 3623 8388
 3524 3624 8389
 3525 3625 8390
 3526 3626 8391
 3527 3627 8392
 3528 3628 8393
 3529 3629 8394
 3530 3630 8395
 3531 3631 8396
 3532 3632 8397
 3533 3633 8398
 3534 3634 8399
 3535 3635 8400
 3536 3636 8401
 3537 3637 8402
 3538 3638 8403
 3539 3639 8404
 3540 3640 8405
 3541 3641 8406
 3542 3642 8407
 3543 3643 8408
 3544 3644 8409
 3545 3645 8410
 3546 3646 8411
 3547 3647 8412
 3548 3648 8413
 3549 3649 8414
 3550 3650 8415
 3551 3651 8416
 3552 3652 8417
 3553 3653 8418
 3554 3654 8419
 3555 3655 8420
 3556 3656 8421
 3557 3657 8422
 3558 3658 8423
 3559 3659 8424
 3560 3660 8425
 3561 3661 8426
 3562 3662 8427
 3563 3663 8428
 3564 3664 8429
 3565 3665 8430
 3566 3666 8431
 3567 3667 8432
 3568 3668 8433
 3569 3669 8434
 3570 3670 8435
 3571 3671 8436
 3572 3672 8437
 3573 3673 8438
 3574 3674 8439
 3575 3675 8440
 3576 3676 8441
 3577 3677 8442
 3578 3678 8443
 3579 3679 8444
 3580 3680 8445
 3581 3681 8446
 3582 3682 8447
 3583 3683 8448
 3584 3684 8449
 3585 3685 8450
 3586 3686 8451
 3587 3687 8452
 3588 3688 8453
 3589 3689 8454
 3590 3690 8455
 3591 3691 8456
 3592 3692 8457
 3593 3693 8458
 3594 3694 8459
 3595 3695 8460
 3596 3696 8461
 3597 3697 8462
 3598 3698 8463
 3600 3700 8464
 3601 3701 8465
 3602 3702 8466
 3603 3703 8467
 3604 3704 8468
 3605 3705 8469
 3606 3706 8470
 3607 3707 8471
 3608 3708 8472
 3609 3709 8473
 3610 3710 8474
 3611 3711 8475
 3612 3712 8476
 3613 3713 8477
 3614 3714 8478
 3615 3715 8479
 3616 3716 8480
 3617 3717 8481
 3618 3718 8482
 3619 3719 8483
 3620 3720 8484
 3621 3721 8485
 3622 3722 8486
 3623 3723 8487
 3624 3724 8488
 3625 3725 8489
 3626 3726 8490
 3627 3727 8491
 3628 3728 8492
 3629 3729 8493
 3630 3730 8494
 3631 3731 8495
 3632 3732 8496
 3633 3733 8497
 3634 3734 8498
 3635 3735 8499
 3636 3736 8500
 3637 3737 8501
 3638 3738 8502
 3639 3739 8503
 3640 3740 8504
 3641 3741 8505
 3642 3742 8506
 3643 3743 8507
 3644 3744 8508
 3645 3745 8509
 3646 3746 8510
 3647 3747 8511
 3648 3748 8512
 3649 3749 8513
 3650 3750 8514
 3651 3751 8515
 3652 3752 8516
 3653 3753 8517
 3654 3754 8518
 3655 3755 8519
 3656 3756 8520
 3657 3757 8521
 3658 3758 8522
 3659 3759 8523
 3660 3760 8524
 3661 3761 8525
 3662 3762 8526
 3663 3763 8527
 3664 3764 8528
 3665 3765 8529
 3666 3766 8530
 3667 3767 8531
 3668 3768 8532
 3669 3769 8533
 3670 3770 8534
 3671 3771 8535
 3672 3772 8536
 3673 3773 8537
 3674 3774 8538
 3675 3775 8539
 3676 3776 8540
 3677 3777 8541
 3678 3778 8542
 3679 3779 8543
 3680 3780 8544
 3681 3781 8545
 3682 3782 8546
 3683 3783 8547
 3684 3784 8548
 3685 3785 8549
 3686 3786 8550
 3687 3787 8551
 3688 3788 8552
 3689 3789 8553
 3690 3790 8554
 3691 3791 8555
 3692 3792 8556
 3693 3793 8557
 3694 3794 8558
 3695 3795 8559
 3696 3796 8560
 3697 3797 8561
 3698 3798 8562
 3700 3800 8563
 3701 3801 8564
 3702 3802 8565
 3703 3803 8566
 3704 3804 8567
 3705 3805 8568
 3706 3806 8569
 3707 3807 8570
 3708 3808 8571
 3709 3809 8572
 3710 3810 8573
 3711 3811 8574
 3712 3812 8575
 3713 3813 8576
 3714 3814 8577
 3715 3815 8578
 3716 3816 8579
 3717 3817 8580
 3718 3818 8581
 3719 3819 8582
 3720 3820 8583
 3721 3821 8584
 3722 3822 8585
 3723 3823 8586
 3724 3824 8587
 3725 3825 8588
 3726 3826 8589
 3727 3827 8590
 3728 3828 8591
 3729 3829 8592
 3730 3830 8593
 3731 3831 8594
 3732 3832 8595
 3733 3833 8596
 3734 3834 8597
 3735 3835 8598
 3736 3836 8599
 3737 3837 8600
 3738 3838 8601
 3739 3839 8602
 3740 3840 8603
 3741 3841 8604
 3742 3842 8605
 3743 3843 8606
 3744 3844 8607
 3745 3845 8608
 3746 3846 8609
 3747 3847 8610
 3748 3848 8611
 3749 3849 8612
 3750 3850 8613
 3751 3851 8614
 3752 3852 8615
 3753 3853 8616
 3754 3854 8617
 3755 3855 8618
 3756 3856 8619
 3757 3857 8620
 3758 3858 8621
 3759 3859 8622
 3760 3860 8623
 3761 3861 8624
 3762 3862 8625
 3763 3863 8626
 3764 3864 8627
 3765 3865 8628
 3766 3866 8629
 3767 3867 8630
 3768 3868 8631
 3769 3869 8632
 3770 3870 8633
 3771 3871 8634
 3772 3872 8635
 3773 3873 8636
 3774 3874 8637
 3775 3875 8638
 3776 3876 8639
 3777 3877 8640
 3778 3878 8641
 3779 3879 8642
 3780 3880 8643
 3781 3881 8644
 3782 3882 8645
 3783 3883 8646
 3784 3884 8647
 3785 3885 8648
 3786 3886 8649
 3787 3887 8650
 3788 3888 8651
 3789 3889 8652
 3790 3890 8653
 3791 3891 8654
 3792 3892 8655
 3793 3893 8656
 3794 3894 8657
 3795 3895 8658
 3796 3896 8659
 3797 3897 8660
 3798 3898 8661
 3800 3900 8662
 3801 3901 8663
 3802 3902 8664
 3803 3903 8665
 3804 3904 8666
 3805 3905 8667
 3806 3906 8668
 3807 3907 8669
 3808 3908 8670
 3809 3909 8671
 3810 3910 8672
 3811 3911 8673
 3812 3912 8674
 3813 3913 8675
 3814 3914 8676
 3815 3915 8677
 3816 3916 8678
 3817 3917 8679
 3818 3918 8680
 3819 3919 8681
 3820 3920 8682
 3821 3921 8683
 3822 3922 8684
 3823 3923 8685
 3824 3924 8686
 3825 3925 8687
 3826 3926 8688
 3827 3927 8689
 3828 3928 8690
 3829 3929 8691
 3830 3930 8692
 3831 3931 8693
 3832 3932 8694
 3833 3933 8695
 3834 3934 8696
 3835 3935 8697
 3836 3936 8698
 3837 3937 8699
 3838 3938 8700
 3839 3939 8701
 3840 3940 8702
 3841 3941 8703
 3842 3942 8704
 3843 3943 8705
 3844 3944 8706
 3845 3945 8707
 3846 3946 8708
 3847 3947 8709
 3848 3948 8710
 3849 3949 8711
 3850 3950 8712
 3851 3951 8713
 3852 3952 8714
 3853 3953 8715
 3854 3954 8716
 3855 3955 8717
 3856 3956 8718
 3857 3957 8719
 3858 3958 8720
 3859 3959 8721
 3860 3960 8722
 3861 3961 8723
 3862 3962 8724
 3863 3963 8725
 3864 3964 8726
 3865 3965 8727
 3866 3966 8728
 3867 3967 8729
 3868 3968 8730
 3869 3969 8731
 3870 3970 8732
 3871 3971 8733
 3872 3972 8734
 3873 3973 8735
 3874 3974 8736
 3875 3975 8737
 3876 3976 8738
 3877 3977 8739
 3878 3978 8740
 3879 3979 8741
 3880 3980 8742
 3881 3981 8743
 3882 3982 8744
 3883 3983 8745
 3884 3984 8746
 3885 3985 8747
 3886 3986 8748
 3887 3987 8749
 3888 3988 8750
 3889 3989 8751
 3890 3990 8752
 3891 3991 8753
 3892 3992 8754
 3893 3993 8755
 3894 3994 8756
 3895 3995 8757
 3896 3996 8758
 3897 3997 8759
 3898 3998 8760
 3900 4000 8761
 3901 4001 8762
 3902 4002 8763
 3903 4003 8764
 3904 4004 8765
 3905 4005 8766
 3906 4006 8767
 3907 4007 8768
 3908 4008 8769
 3909 4009 8770
 3910 4010 8771
 3911 4011 8772
 3912 4012 8773
 3913 4013 8774
 3914 4014 8775
 3915 4015 8776
 3916 4016 8777
 3917 4017 8778
 3918 4018 8779
 3919 4019 8780
 3920 4020 8781
 3921 4021 8782
 3922 4022 8783
 3923 4023 8784
 3924 4024 8785
 3925 4025 8786
 3926 4026 8787
 3927 4027 8788
 3928 4028 8789
 3929 4029 8790
 3930 4030 8791
 3931 4031 8792
 3932 4032 8793
 3933 4033 8794
 3934 4034 8795
 3935 4035 8796
 3936 4036 8797
 3937 4037 8798
 3938 4038 8799
 3939 4039 8800
 3940 4040 8801
 3941 4041 8802
 3942 4042 8803
 3943 4043 8804
 3944 4044 8805
 3945 4045 8806
 3946 4046 8807
 3947 4047 8808
 3948 4048 8809
 3949 4049 8810
 3950 4050 8811
 3951 4051 8812
 3952 4052 8813
 3953 4053 8814
 3954 4054 8815
 3955 4055 8816
 3956 4056 8817
 3957 4057 8818
 3958 4058 8819
 3959 4059 8820
 3960 4060 8821
 3961 4061 8822
 3962 4062 8823
 3963 4063 8824
 3964 4064 8825
 3965 4065 8826
 3966 4066 8827
 3967 4067 8828
 3968 4068 8829
 3969 4069 8830
 3970 4070 8831
 3971 4071 8832
 3972 4072 8833
 3973 4073 8834
 3974 4074 8835
 3975 4075 8836
 3976 4076 8837
 3977 4077 8838
 3978 4078 8839
 3979 4079 8840
 3980 4080 8841
 3981 4081 8842
 3982 4082 8843
 3983 4083 8844
 3984 4084 8845
 3985 4085 8846
 3986 4086 8847
 3987 4087 8848
 3988 4088 8849
 3989 4089 8850
 3990 4090 8851
 3991 4091 8852
 3992 4092 8853
 3993 4093 8854
 3994 4094 8855
 3995 4095 8856
 3996 4096 8857
 3997 4097 8858
 3998 4098 8859
 4000 4100 8860
 4001 4101 8861
 4002 4102 8862
 4003 4103 8863
 4004 4104 8864
 4005 4105 8865
 4006 4106 8866
 4007 4107 8867
 4008 4108 8868
 4009 4109 8869
 4010 4110 8870
 4011 4111 8871
 4012 4112 8872
 4013 4113 8873
 4014 4114 8874
 4015 4115 8875
 4016 4116 8876
 4017 4117 8877
 4018 4118 8878
 4019 4119 8879
 4020 4120 8880
 4021 4121 8881
 4022 4122 8882
 4023 4123 8883
 4024 4124 8884
 4025 4125 8885
 4026 4126 8886
 4027 4127 8887
 4028 4128 8888
 4029 4129 8889
 4030 4130 8890
 4031 4131 8891
 4032 4132 8892
 4033 4133 8893
 4034 4134 8894
 4035 4135 8895
 4036 4136 8896
 4037 4137 8897
 4038 4138 8898
 4039 4139 8899
 4040 4140 8900
 4041 4141 8901
 4042 4142 8902
 4043 4143 8903
 4044 4144 8904
 4045 4145 8905
 4046 4146 8906
 4047 4147 8907
 4048 4148 8908
 4049 4149 8909
 4050 4150 8910
 4051 4151 8911
 4052 4152 8912
 4053 4153 8913
 4054 4154 8914
 4055 4155 8915
 4056 4156 8916
 4057 4157 8917
 4058 4158 8918
 4059 4159 8919
 4060 4160 8920
 4061 4161 8921
 4062 4162 8922
 4063 4163 8923
 4064 4164 8924
 4065 4165 8925
 4066 4166 8926
 4067 4167 8927
 4068 4168 8928
 4069 4169 8929
 4070 4170 8930
 4071 4171 8931
 4072 4172 8932
 4073 4173 8933
 4074 4174 8934
 4075 4175 8935
 4076 4176 8936
 4077 4177 8937
 4078 4178 8938
 4079 4179 8939
 4080 4180 8940
 4081 4181 8941
 4082 4182 8942
 4083 4183 8943
 4084 4184 8944
 4085 4185 8945
 4086 4186 8946
 4087 4187 8947
 4088 4188 8948
 4089 4189 8949
 4090 4190 8950
 4091 4191 8951
 4092 4192 8952
 4093 4193 8953
 4094 4194 8954
 4095 4195 8955
 4096 4196 8956
 4097 4197 8957
 4098 4198 8958
 4100 4200 8959
 4101 4201 8960
 4102 4202 8961
 4103 4203 8962
 4104 4204 8963
 4105 4205 8964
 4106 4206 8965
 4107 4207 8966
 4108 4208 8967
 4109 4209 8968
 4110 4210 8969
 4111 4211 8970
 4112 4212 8971
 4113 4213 8972
 4114 4214 8973
 4115 4215 8974
 4116 4216 8975
 4117 4217 8976
 4118 4218 8977
 4119 4219 8978
 4120 4220 8979
 4121 4221 8980
 4122 4222 8981
 4123 4223 8982
 4124 4224 8983
 4125 4225 8984
 4126 4226 8985
 4127 4227 8986
 4128 4228 8987
 4129 4229 8988
 4130 4230 8989
 4131 4231 8990
 4132 4232 8991
 4133 4233 8992
 4134 4234 8993
 4135 4235 8994
 4136 4236 8995
 4137 4237 8996
 4138 4238 8997
 4139 4239 8998
 4140 4240 8999
 4141 4241 9000
 4142 4242 9001
 4143 4243 9002
 4144 4244 9003
 4145 4245 9004
 4146 4246 9005
 4147 4247 9006
 4148 4248 9007
 4149 4249 9008
 4150 4250 9009
 4151 4251 9010
 4152 4252 9011
 4153 4253 9012
 4154 4254 9013
 4155 4255 9014
 4156 4256 9015
 4157 4257 9016
 4158 4258 9017
 4159 4259 9018
 4160 4260 9019
 4161 4261 9020
 4162 4262 9021
 4163 4263 9022
 4164 4264 9023
 4165 4265 9024
 4166 4266 9025
 4167 4267 9026
 4168 4268 9027
 4169 4269 9028
 4170 4270 9029
 4171 4271 9030
 4172 4272 9031
 4173 4273 9032
 4174 4274 9033
 4175 4275 9034
 4176 4276 9035
 4177 4277 9036
 4178 4278 9037
 4179 4279 9038
 4180 4280 9039
 4181 4281 9040
 4182 4282 9041
 4183 4283 9042
 4184 4284 9043
 4185 4285 9044
 4186 4286 9045
 4187 4287 9046
 4188 4288 9047
 4189 4289 9048
 4190 4290 9049
 4191 4291 9050
 4192 4292 9051
 4193 4293 9052
 4194 4294 9053
 4195 4295 9054
 4196 4296 9055
 4197 4297 9056
 4198 4298 9057
 4200 4300 9058
 4201 4301 9059
 4202 4302 9060
 4203 4303 9061
 4204 4304 9062
 4205 4305 9063
 4206 4306 9064
 4207 4307 9065
 4208 4308 9066
 4209 4309 9067
 4210 4310 9068
 4211 4311 9069
 4212 4312 9070
 4213 4313 9071
 4214 4314 9072
 4215 4315 9073
 4216 4316 9074
 4217 4317 9075
 4218 4318 9076
 4219 4319 9077
 4220 4320 9078
 4221 4321 9079
 4222 4322 9080
 4223 4323 9081
 4224 4324 9082
 4225 4325 9083
 4226 4326 9084
 4227 4327 9085
 4228 4328 9086
 4229 4329 9087
 4230 4330 9088
 4231 4331 9089
 4232 4332 9090
 4233 4333 9091
 4234 4334 9092
 4235 4335 9093
 4236 4336 9094
 4237 4337 9095
 4238 4338 9096
 4239 4339 9097
 4240 4340 9098
 4241 4341 9099
 4242 4342 9100
 4243 4343 9101
 4244 4344 9102
 4245 4345 9103
 4246 4346 9104
 4247 4347 9105
 4248 4348 9106
 4249 4349 9107
 4250 4350 9108
 4251 4351 9109
 4252 4352 9110
 4253 4353 9111
 4254 4354 9112
 4255 4355 9113
 4256 4356 9114
 4257 4357 9115
 4258 4358 9116
 4259 4359 9117
 4260 4360 9118
 4261 4361 9119
 4262 4362 9120
 4263 4363 9121
 4264 4364 9122
 4265 4365 9123
 4266 4366 9124
 4267 4367 9125
 4268 4368 9126
 4269 4369 9127
 4270 4370 9128
 4271 4371 9129
 4272 4372 9130
 4273 4373 9131
 4274 4374 9132
 4275 4375 9133
 4276 4376 9134
 4277 4377 9135
 4278 4378 9136
 4279 4379 9137
 4280 4380 9138
 4281 4381 9139
 4282 4382 9140
 4283 4383 9141
 4284 4384 9142
 4285 4385 9143
 4286 4386 9144
 4287 4387 9145
 4288 4388 9146
 4289 4389 9147
 4290 4390 9148
 4291 4391 9149
 4292 4392 9150
 4293 4393 9151
 4294 4394 9152
 4295 4395 9153
 4296 4396 9154
 4297 4397 9155
 4298 4398 9156
 4300 4400 9157
 4301 4401 9158
 4302 4402 9159
 4303 4403 9160
 4304 4404 9161
 4305 4405 9162
 4306 4406 9163
 4307 4407 9164
 4308 4408 9165
 4309 4409 9166
 4310 4410 9167
 4311 4411 9168
 4312 4412 9169
 4313 4413 9170
 4314 4414 9171
 4315 4415 9172
 4316 4416 9173
 4317 4417 9174
 4318 4418 9175
 4319 4419 9176
 4320 4420 9177
 4321 4421 9178
 4322 4422 9179
 4323 4423 9180
 4324 4424 9181
 4325 4425 9182
 4326 4426 9183
 4327 4427 9184
 4328 4428 9185
 4329 4429 9186
 4330 4430 9187
 4331 4431 9188
 4332 4432 9189
 4333 4433 9190
 4334 4434 9191
 4335 4435 9192
 4336 4436 9193
 4337 4437 9194
 4338 4438 9195
 4339 4439 9196
 4340 4440 9197
 4341 4441 9198
 4342 4442 9199
 4343 4443 9200
 4344 4444 9201
 4345 4445 9202
 4346 4446 9203
 4347 4447 9204
 4348 4448 9205
 4349 4449 9206
 4350 4450 9207
 4351 4451 9208
 4352 4452 9209
 4353 4453 9210
 4354 4454 9211
 4355 4455 9212
 4356 4456 9213
 4357 4457 9214
 4358 4458 9215
 4359 4459 9216
 4360 4460 9217
 4361 4461 9218
 4362 4462 9219
 4363 4463 9220
 4364 4464 9221
 4365 4465 9222
 4366 4466 9223
 4367 4467 9224
 4368 4468 9225
 4369 4469 9226
 4370 4470 9227
 4371 4471 9228
 4372 4472 9229
 4373 4473 9230
 4374 4474 9231
 4375 4475 9232
 4376 4476 9233
 4377 4477 9234
 4378 4478 9235
 4379 4479 9236
 4380 4480 9237
 4381 4481 9238
 4382 4482 9239
 4383 4483 9240
 4384 4484 9241
 4385 4485 9242
 4386 4486 9243
 4387 4487 9244
 4388 4488 9245
 4389 4489 9246
 4390 4490 9247
 4391 4491 9248
 4392 4492 9249
 4393 4493 9250
 4394 4494 9251
 4395 4495 9252
 4396 4496 9253
 4397 4497 9254
 4398 4498 9255
 4400 4500 9256
 4401 4501 9257
 4402 4502 9258
 4403 4503 9259
 4404 4504 9260
 4405 4505 9261
 4406 4506 9262
 4407 4507 9263
 4408 4508 9264
 4409 4509 9265
 4410 4510 9266
 4411 4511 9267
 4412 4512 9268
 4413 4513 9269
 4414 4514 9270
 4415 4515 9271
 4416 4516 9272
 4417 4517 9273
 4418 4518 9274
 4419 4519 9275
 4420 4520 9276
 4421 4521 9277
 4422 4522 9278
 4423 4523 9279
 4424 4524 9280
 4425 4525 9281
 4426 4526 9282
 4427 4527 9283
 4428 4528 9284
 4429 4529 9285
 4430 4530 9286
 4431 4531 9287
 4432 4532 9288
 4433 4533 9289
 4434 4534 9290
 4435 4535 9291
 4436 4536 9292
 4437 4537 9293
 4438 4538 9294
 4439 4539 9295
 4440 4540 9296
 4441 4541 9297
 4442 4542 9298
 4443 4543 9299
 4444 4544 9300
 4445 4545 9301
 4446 4546 9302
 4447 4547 9303
 4448 4548 9304
 4449 4549 9305
 4450 4550 9306
 4451 4551 9307
 4452 4552 9308
 4453 4553 9309
 4454 4554 9310
 4455 4555 9311
 4456 4556 9312
 4457 4557 9313
 4458 4558 9314
 4459 4559 9315
 4460 4560 9316
 4461 4561 9317
 4462 4562 9318
 4463 4563 9319
 4464 4564 9320
 4465 4565 9321
 4466 4566 9322
 4467 4567 9323
 4468 4568 9324
 4469 4569 9325
 4470 4570 9326
 4471 4571 9327
 4472 4572 9328
 4473 4573 9329
 4474 4574 9330
 4475 4575 9331
 4476 4576 9332
 4477 4577 9333
 4478 4578 9334
 4479 4579 9335
 4480 4580 9336
 4481 4581 9337
 4482 4582 9338
 4483 4583 9339
 4484 4584 9340
 4485 4585 9341
 4486 4586 9342
 4487 4587 9343
 4488 4588 9344
 4489 4589 9345
 4490 4590 9346
 4491 4591 9347
 4492 4592 9348
 4493 4593 9349
 4494 4594 9350
 4495 4595 9351
 4496 4596 9352
 4497 4597 9353
 4498 4598 9354
 4500 4600 9355
 4501 4601 9356
 4502 4602 9357
 4503 4603 9358
 4504 4604 9359
 4505 4605 9360
 4506 4606 9361
 4507 4607 9362
 4508 4608 9363
 4509 4609 9364
 4510 4610 9365
 4511 4611 9366
 4512 4612 9367
 4513 4613 9368
 4514 4614 9369
 4515 4615 9370
 4516 4616 9371
 4517 4617 9372
 4518 4618 9373
 4519 4619 9374
 4520 4620 9375
 4521 4621 9376
 4522 4622 9377
 4523 4623 9378
 4524 4624 9379
 4525 4625 9380
 4526 4626 9381
 4527 4627 9382
 4528 4628 9383
 4529 4629 9384
 4530 4630 9385
 4531 4631 9386
 4532 4632 9387
 4533 4633 9388
 4534 4634 9389
 4535 4635 9390
 4536 4636 9391
 4537 4637 9392
 4538 4638 9393
 4539 4639 9394
 4540 4640 9395
 4541 4641 9396
 4542 4642 9397
 4543 4643 9398
 4544 4644 9399
 4545 4645 9400
 4546 4646 9401
 4547 4647 9402
 4548 4648 9403
 4549 4649 9404
 4550 4650 9405
 4551 4651 9406
 4552 4652 9407
 4553 4653 9408
 4554 4654 9409
 4555 4655 9410
 4556 4656 9411
 4557 4657 9412
 4558 4658 9413
 4559 4659 9414
 4560 4660 9415
 4561 4661 9416
 4562 4662 9417
 4563 4663 9418
 4564 4664 9419
 4565 4665 9420
 4566 4666 9421
 4567 4667 9422
 4568 4668 9423
 4569 4669 9424
 4570 4670 9425
 4571 4671 9426
 4572 4672 9427
 4573 4673 9428
 4574 4674 9429
 4575 4675 9430
 4576 4676 9431
 4577 4677 9432
 4578 4678 9433
 4579 4679 9434
 4580 4680 9435
 4581 4681 9436
 4582 4682 9437
 4583 4683 9438
 4584 4684 9439
 4585 4685 9440
 4586 4686 9441
 4587 4687 9442
 4588 4688 9443
 4589 4689 9444
 4590 4690 9445
 4591 4691 9446
 4592 4692 9447
 4593 4693 9448
 4594 4694 9449
 4595 4695 9450
 4596 4696 9451
 4597 4697 9452
 4598 4698 9453
 4600 4700 9454
 4601 4701 9455
 4602 4702 9456
 4603 4703 9457
 4604 4704 9458
 4605 4705 9459
 4606 4706 9460
 4607 4707 9461
 4608 4708 9462
 4609 4709 9463
 4610 4710 9464
 4611 4711 9465
 4612 4712 9466
 4613 4713 9467
 4614 4714 9468
 4615 4715 9469
 4616 4716 9470
 4617 4717 9471
 4618 4718 9472
 4619 4719 9473
 4620 4720 9474
 4621 4721 9475
 4622 4722 9476
 4623 4723 9477
 4624 4724 9478
 4625 4725 9479
 4626 4726 9480
 4627 4727 9481
 4628 4728 9482
 4629 4729 9483
 4630 4730 9484
 4631 4731 9485
 4632 4732 9486
 4633 4733 9487
 4634 4734 9488
 4635 4735 9489
 4636 4736 9490
 4637 4737 9491
 4638 4738 9492
 4639 4739 9493
 4640 4740 9494
 4641 4741 9495
 4642 4742 9496
 4643 4743 9497
 4644 4744 9498
 4645 4745 9499
 4646 4746 9500
 4647 4747 9501
 4648 4748 9502
 4649 4749 9503
 4650 4750 9504
 4651 4751 9505
 4652 4752 9506
 4653 4753 9507
 4654 4754 9508
 4655 4755 9509
 4656 4756 9510
 4657 4757 9511
 4658 4758 9512
 4659 4759 9513
 4660 4760 9514
 4661 4761 9515
 4662 4762 9516
 4663 4763 9517
 4664 4764 9518
 4665 4765 9519
 4666 4766 9520
 4667 4767 9521
 4668 4768 9522
 4669 4769 9523
 4670 4770 9524
 4671 4771 9525
 4672 4772 9526
 4673 4773 9527
 4674 4774 9528
 4675 4775 9529
 4676 4776 9530
 4677 4777 9531
 4678 4778 9532
 4679 4779 9533
 4680 4780 9534
 4681 4781 9535
 4682 4782 9536
 4683 4783 9537
 4684 4784 9538
 4685 4785 9539
 4686 4786 9540
 4687 4787 9541
 4688 4788 9542
 4689 4789 9543
 4690 4790 9544
 4691 4791 9545
 4692 4792 9546
 4693 4793 9547
 4694 4794 9548
 4695 4795 9549
 4696 4796 9550
 4697 4797 9551
 4698 4798 9552
 4700 4800 9553
 4701 4801 9554
 4702 4802 9555
 4703 4803 9556
 4704 4804 9557
 4705 4805 9558
 4706 4806 9559
 4707 4807 9560
 4708 4808 9561
 4709 4809 9562
 4710 4810 9563
 4711 4811 9564
 4712 4812 9565
 4713 4813 9566
 4714 4814 9567
 4715 4815 9568
 4716 4816 9569
 4717 4817 9570
 4718 4818 9571
 4719 4819 9572
 4720 4820 9573
 4721 4821 9574
 4722 4822 9575
 4723 4823 9576
 4724 4824 9577
 4725 4825 9578
 4726 4826 9579
 4727 4827 9580
 4728 4828 9581
 4729 4829 9582
 4730 4830 9583
 4731 4831 9584
 4732 4832 9585
 4733 4833 9586
 4734 4834 9587
 4735 4835 9588
 4736 4836 9589
 4737 4837 9590
 4738 4838 9591
 4739 4839 9592
 4740 4840 9593
 4741 4841 9594
 4742 4842 9595
 4743 4843 9596
 4744 4844 9597
 4745 4845 9598
 4746 4846 9599
 4747 4847 9600
 4748 4848 9601
 4749 4849 9602
 4750 4850 9603
 4751 4851 9604
 4752 4852 9605
 4753 4853 9606
 4754 4854 9607
 4755 4855 9608
 4756 4856 9609
 4757 4857 9610
 4758 4858 9611
 4759 4859 9612
 4760 4860 9613
 4761 4861 9614
 4762 4862 9615
 4763 4863 9616
 4764 4864 9617
 4765 4865 9618
 4766 4866 9619
 4767 4867 9620
 4768 4868 9621
 4769 4869 9622
 4770 4870 9623
 4771 4871 9624
 4772 4872 9625
 4773 4873 9626
 4774 4874 9627
 4775 4875 9628
 4776 4876 9629
 4777 4877 9630
 4778 4878 9631
 4779 4879 9632
 4780 4880 9633
 4781 4881 9634
 4782 4882 9635
 4783 4883 9636
 4784 4884 9637
 4785 4885 9638
 4786 4886 9639
 4787 4887 9640
 4788 4888 9641
 4789 4889 9642
 4790 4890 9643
 4791 4891 9644
 4792 4892 9645
 4793 4893 9646
 4794 4894 9647
 4795 4895 9648
 4796 4896 9649
 4797 4897 9650
 4798 4898 9651</DataArray>
            <DataArray Name="offsets" format="ascii" type="Int32">3 6 9 12 15 18 21 24 27 30 33 36 39 42 45 48 51 54 57 60 63 66 69 72 75 78 81 84 87 90 93 96 99 102 105 108 111 114 117 120 123 126 129 132 135 138 141 144 147 150 153 156 159 162 165 168 171 174 177 180 183 186 189 192 195 198 201 204 207 210 213 216 219 222 225 228 231 234 237 240 243 246 249 252 255 258 261 264 267 270 273 276 279 282 285 288 291 294 297 300 303 306 309 312 315 318 321 324 327 330 333 336 339 342 345 348 351 354 357 360 363 366 369 372 375 378 381 384 387 390 393 396 399 402 405 408 411 414 417 420 423 426 429 432 435 438 441 444 447 450 453 456 459 462 465 468 471 474 477 480 483 486 489 492 495 498 501 504 507 510 513 516 519 522 525 528 531 534 537 540 543 546 549 552 555 558 561 564 567 570 573 576 579 582 585 588 591 594 597 600 603 606 609 612 615 618 621 624 627 630 633 636 639 642 645 648 651 654 657 660 663 666 669 672 675 678 681 684 687 690 693 696 699 702 705 708 711 714 717 720 723 726 729 732 735 738 741 744 747 750 753 756 759 762 765 768 771 774 777 780 783 786 789 792 795 798 801 804 807 810 813 816 819 822 825 828 831 834 837 840 843 846 849 852 855 858 861 864 867 870 873 876 879 882 885 888 891 894 897 900 903 906 909 912 915 918 921 924 927 930 933 936 939 942 945 948 951 954 957 960 963 966 969 972 975 978 981 984 987 990 993 996 999 1002 1005 1008 1011 1014 1017 1020 1023 1026 1029 1032 1035 1038 1041 1044 1047 1050 1053 1056 1059 1062 1065 1068 1071 1074 1077 1080 1083 1086 1089 1092 1095 1098 1101 1104 1107 1110 1113 1116 1119 1122 1125 1128 1131 1134 1137 1140 1143 1146 1149 1152 1155 1158 1161 1164 1167 1170 1173 1176 1179 1182 1185 1188 1191 1194 1197 1200 1203 1206 1209 1212 1215 1218 1221 1224 1227 1230 1233 1236 1239 1242 1245 1248 1251 1254 1257 1260 1263 1266 1269 1272 1275 1278 1281 1284 1287 1290 1293 1296 1299 1302 1305 1308 1311 1314 1317 1320 1323 1326 1329 1332 1335 1338 1341 1344 1347 1350 1353 1356 1359 1362 1365 1368 1371 1374 1377 1380 1383 1386 1389 1392 1395 1398 1401 1404 1407 1410 1413 1416 1419 1422 1425 1428 1431 1434 1437 1440 1443 1446 1449 1452 1455 1458 1461 1464 1467 1470 1473 1476 1479 1482 1485 1488 1491 1494 1497 1500 1503 1506 1509 1512 1515 1518 1521 1524 1527 1530 1533 1536 1539 1542 1545 1548 1551 1554 1557 1560 1563 1566 1569 1572 1575 1578 1581 1584 1587 1590 1593 1596 1599 1602 1605 1608 1611 1614 1617 1620 1623 1626 1629 1632 1635 1638 1641 1644 1647 1650 1653 1656 1659 1662 1665 1668 1671 1674 1677 1680 1683 1686 1689 1692 1695 1698 1701 1704 1707 1710 1713 1716 1719 1722 1725 1728 1731 1734 1737 1740 1743 1746 1749 1752 1755 1758 1761 1764 1767 1770 1773 1776 1779 1782 1785 1788 1791 1794 1797 1800 1803 1806 1809 1812 1815 1818 1821 1824 1827 1830 1833 1836 1839 1842 1845 1848 1851 1854 1857 1860 1863 1866 1869 1872 1875 1878 1881 1884 1887 1890 1893 1896 1899 1902 1905 1908 1911 1914 1917 1920 1923 1926 1929 1932 1935 1938 1941 1944 1947 1950 1953 1956 1959 1962 1965 1968 1971 1974 1977 1980 1983 1986 1989 1992 1995 1998 2001 2004 2007 2010 2013 2016 2019 2022 2025 2028 2031 2034 2037 2040 2043 2046 2049 2052 2055 2058 2061 2064 2067 2070 2073 2076 2079 2082 2085 2088 2091 2094 2097 2100 2103 2106 2109 2112 2115 2118 2121 2124 2127 2130 2133 2136 2139 2142 2145 2148 2151 2154 2157 2160 2163 2166 2169 2172 2175 2178 2181 2184 2187 2190 2193 2196 2199 2202 2205 2208 2211 2214 2217 2220 2223 2226 2229 2232 2235 2238 2241 2244 2247 2250 2253 2256 2259 2262 2265 2268 2271 2274 2277 2280 2283 2286 2289 2292 2295 2298 2301 2304 2307 2310 2313 2316 2319 2322 2325 2328 2331 2334 2337 2340 2343 2346 2349 2352 2355 2358 2361 2364 2367 2370 2373 2376 2379 2382 2385 2388 2391 2394 2397 2400 2403 2406 2409 2412 2415 2418 2421 2424 2427 2430 2433 2436 2439 2442 2445 2448 2451 2454 2457 2460 2463 2466 2469 2472 2475 2478 2481 2484 2487 2490 2493 2496 2499 2502 2505 2508 2511 2514 2517 2520 2523 2526 2529 2532 2535 2538 2541 2544 2547 2550 2553 2556 2559 2562 2565 2568 2571 2574 2577 2580 2583 2586 2589 2592 2595 2598 2601 2604 2607 2610 2613 2616 2619 2622 2625 2628 2631 2634 2637 2640 2643 2646 2649 2652 2655 2658 2661 2664 2667 2670 2673 2676 2679 2682 2685 2688 2691 2694 2697 2700 2703 2706 2709 2712 2715 2718 2721 2724 2727 2730 2733 2736 2739 2742 2745 2748 2751 2754 2757 2760 2763 2766 2769 2772 2775 2778 2781 2784 2787 2790 2793 2796 2799 2802 2805 2808 2811 2814 2817 2820 2823 2826 2829 2832 2835 2838 2841 2844 2847 2850 2853 2856 2859 2862 2865 2868 2871 2874 2877 2880 2883 2886 2889 2892 2895 2898 2901 2904 2907 2910 2913 2916 2919 2922 2925 2928 2931 2934 2937 2940 2943 2946 2949 2952 2955 2958 2961 2964 2967 2970 2973 2976 2979 2982 2985 2988 2991 2994 2997 3000 3003 3006 3009 3012 3015 3018 3021 3024 3027 3030 3033 3036 3039 3042 3045 3048 3051 3054 3057 3060 3063 3066 3069 3072 3075 3078 3081 3084 3087 3090 3093 3096 3099 3102 3105 3108 3111 3114 3117 3120 3123 3126 3129 3132 3135 3138 3141 3144 3147 3150 3153 3156 3159 3162 3165 3168 3171 3174 3177 3180 3183 3186 3189 3192 3195 3198 3201 3204 3207 3210 3213 3216 3219 3222 3225 3228 3231 3234 3237 3240 3243 3246 3249 3252 3255 3258 3261 3264 3267 3270 3273 3276 3279 3282 3285 3288 3291 3294 3297 3300 3303 3306 3309 3312 3315 3318 3321 3324 3327 3330 3333 3336 3339 3342 3345 3348 3351 3354 3357 3360 3363 3366 3369 3372 3375 3378 3381 3384 3387 3390 3393 3396 3399 3402 3405 3408 3411 3414 3417 3420 3423 3426 3429 3432 3435 3438 3441 3444 3447 3450 3453 3456 3459 3462 3465 3468 3471 3474 3477 3480 3483 3486 3489 3492 3495 3498 3501 3504 3507 3510 3513 3516 3519 3522 3525 3528 3531 3534 3537 3540 3543 3546 3549 3552 3555 3558 3561 3564 3567 3570 3573 3576 3579 3582 3585 3588 3591 3594 3597 3600 3603 3606 3609 3612 3615 3618 3621 3624 3627 3630 3633 3636 3639 3642 3645 3648 3651 3654 3657 3660 3663 3666 3669 3672 3675 3678 3681 3684 3687 3690 3693 3696 3699 3702 3705 3708 3711 3714 3717 3720 3723 3726 3729 3732 3735 3738 3741 3744 3747 3750 3753 3756 3759 3762 3765 3768 3771 3774 3777 3780 3783 3786 3789 3792 3795 3798 3801 3804 3807 3810 3813 3816 3819 3822 3825 3828 3831 3834 3837 3840 3843 3846 3849 3852 3855 3858 3861 3864 3867 3870 3873 3876 3879 3882 3885 3888 3891 3894 3897 3900 3903 3906 3909 3912 3915 3918 3921 3924 3927 3930 3933 3936 3939 3942 3945 3948 3951 3954 3957 3960 3963 3966 3969 3972 3975 3978 3981 3984 3987 3990 3993 3996 3999 4002 4005 4008 4011 4014 4017 4020 4023 4026 4029 4032 4035 4038 4041 4044 4047 4050 4053 4056 4059 4062 4065 4068 4071 4074 4077 4080 4083 4086 4089 4092 4095 4098 4101 4104 4107 4110 4113 4116 4119 4122 4125 4128 4131 4134 4137 4140 4143 4146 4149 4152 4155 4158 4161 4164 4167 4170 4173 4176 4179 4182 4185 4188 4191 4194 4197 4200 4203 4206 4209 4212 4215 4218 4221 4224 4227 4230 4233 4236 4239 4242 4245 4248 4251 4254 4257 4260 4263 4266 4269 4272 4275 4278 4281 4284 4287 4290 4293 4296 4299 4302 4305 4308 4311 4314 4317 4320 4323 4326 4329 4332 4335 4338 4341 4344 4347 4350 4353 4356 4359 4362 4365 4368 4371 4374 4377 4380 4383 4386 4389 4392 4395 4398 4401 4404 4407 4410 4413 4416 4419 4422 4425 4428 4431 4434 4437 4440 4443 4446 4449 4452 4455 4458 4461 4464 4467 4470 4473 4476 4479 4482 4485 4488 4491 4494 4497 4500 4503 4506 4509 4512 4515 4518 4521 4524 4527 4530 4533 4536 4539 4542 4545 4548 4551 4554 4557 4560 4563 4566 4569 4572 4575 4578 4581 4584 4587 4590 4593 4596 4599 4602 4605 4608 4611 4614 4617 4620 4623 4626 4629 4632 4635 4638 4641 4644 4647 4650 4653 4656 4659 4662 4665 4668 4671 4674 4677 4680 4683 4686 4689 4692 4695 4698 4701 4704 4707 4710 4713 4716 4719 4722 4725 4728 4731 4734 4737 4740 4743 4746 4749 4752 4755 4758 4761 4764 4767 4770 4773 4776 4779 4782 4785 4788 4791 4794 4797 4800 4803 4806 4809 4812 4815 4818 4821 4824 4827 4830 4833 4836 4839 4842 4845 4848 4851 4854 4857 4860 4863 4866 4869 4872 4875 4878 4881 4884 4887 4890 4893 4896 4899 4902 4905 4908 4911 4914 4917 4920 4923 4926 4929 4932 4935 4938 4941 4944 4947 4950 4953 4956 4959 4962 4965 4968 4971 4974 4977 4980 4983 4986 4989 4992 4995 4998 5001 5004 5007 5010 5013 5016 5019 5022 5025 5028 5031 5034 5037 5040 5043 5046 5049 5052 5055 5058 5061 5064 5067 5070 5073 5076 5079 5082 5085 5088 5091 5094 5097 5100 5103 5106 5109 5112 5115 5118 5121 5124 5127 5130 5133 5136 5139 5142 5145 5148 5151 5154 5157 5160 5163 5166 5169 5172 5175 5178 5181 5184 5187 5190 5193 5196 5199 5202 5205 5208 5211 5214 5217 5220 5223 5226 5229 5232 5235 5238 5241 5244 5247 5250 5253 5256 5259 5262 5265 5268 5271 5274 5277 5280 5283 5286 5289 5292 5295 5298 5301 5304 5307 5310 5313 5316 5319 5322 5325 5328 5331 5334 5337 5340 5343 5346 5349 5352 5355 5358 5361 5364 5367 5370 5373 5376 5379 5382 5385 5388 5391 5394 5397 5400 5403 5406 5409 5412 5415 5418 5421 5424 5427 5430 5433 5436 5439 5442 5445 5448 5451 5454 5457 5460 5463 5466 5469 5472 5475 5478 5481 5484 5487 5490 5493 5496 5499 5502 5505 5508 5511 5514 5517 5520 5523 5526 5529 5532 5535 5538 5541 5544 5547 5550 5553 5556 5559 5562 5565 5568 5571 5574 5577 5580 5583 5586 5589 5592 5595 5598 5601 5604 5607 5610 5613 5616 5619 5622 5625 5628 5631 5634 5637 5640 5643 5646 5649 5652 5655 5658 5661 5664 5667 5670 5673 5676 5679 5682 5685 5688 5691 5694 5697 5700 5703 5706 5709 5712 5715 5718 5721 5724 5727 5730 5733 5736 5739 5742 5745 5748 5751 5754 5757 5760 5763 5766 5769 5772 5775 5778 5781 5784 5787 5790 5793 5796 5799 5802 5805 5808 5811 5814 5817 5820 5823 5826 5829 5832 5835 5838 5841 5844 5847 5850 5853 5856 5859 5862 5865 5868 5871 5874 5877 5880 5883 5886 5889 5892 5895 5898 5901 5904 5907 5910 5913 5916 5919 5922 5925 5928 5931 5934 5937 5940 5943 5946 5949 5952 5955 5958 5961 5964 5967 5970 5973 5976 5979 5982 5985 5988 5991 5994 5997 6000 6003 6006 6009 6012 6015 6018 6021 6024 6027 6030 6033 6036 6039 6042 6045 6048 6051 6054 6057 6060 6063 6066 6069 6072 6075 6078 6081 6084 6087 6090 6093 6096 6099 6102 6105 6108 6111 6114 6117 6120 6123 6126 6129 6132 6135 6138 6141 6144 6147 6150 6153 6156 6159 6162 6165 6168 6171 6174 6177 6180 6183 6186 6189 6192 6195 6198 6201 6204 6207 6210 6213 6216 6219 6222 6225 6228 6231 6234 6237 6240 6243 6246 6249 6252 6255 6258 6261 6264 6267 6270 6273 6276 6279 6282 6285 6288 6291 6294 6297 6300 6303 6306 6309 6312 6315 6318 6321 6324 6327 6330 6333 6336 6339 6342 6345 6348 6351 6354 6357 6360 6363 6366 6369 6372 6375 6378 6381 6384 6387 6390 6393 6396 6399 6402 6405 6408 6411 6414 6417 6420 6423 6426 6429 6432 6435 6438 6441 6444 6447 6450 6453 6456 6459 6462 6465 6468 6471 6474 6477 6480 6483 6486 6489 6492 6495 6498 6501 6504 6507 6510 6513 6516 6519 6522 6525 6528 6531 6534 6537 6540 6543 6546 6549 6552 6555 6558 6561 6564 6567 6570 6573 6576 6579 6582 6585 6588 6591 6594 6597 6600 6603 6606 6609 6612 6615 6618 6621 6624 6627 6630 6633 6636 6639 6642 6645 6648 6651 6654 6657 6660 6663 6666 6669 6672 6675 6678 6681 6684 6687 6690 6693 6696 6699 6702 6705 6708 6711 6714 6717 6720 6723 6726 6729 6732 6735 6738 6741 6744 6747 6750 6753 6756 6759 6762 6765 6768 6771 6774 6777 6780 6783 6786 6789 6792 6795 6798 6801 6804 6807 6810 6813 6816 6819 6822 6825 6828 6831 6834 6837 6840 6843 6846 6849 6852 6855 6858 6861 6864 6867 6870 6873 6876 6879 6882 6885 6888 6891 6894 6897 6900 6903 6906 6909 6912 6915 6918 6921 6924 6927 6930 6933 6936 6939 6942 6945 6948 6951 6954 6957 6960 6963 6966 6969 6972 6975 6978 6981 6984 6987 6990 6993 6996 6999 7002 7005 7008 7011 7014 7017 7020 7023 7026 7029 7032 7035 7038 7041 7044 7047 7050 7053 7056 7059 7062 7065 7068 7071 7074 7077 7080 7083 7086 7089 7092 7095 7098 7101 7104 7107 7110 7113 7116 7119 7122 7125 7128 7131 7134 7137 7140 7143 7146 7149 7152 7155 7158 7161 7164 7167 7170 7173 7176 7179 7182 7185 7188 7191 7194 7197 7200 7203 7206 7209 7212 7215 7218 7221 7224 7227 7230 7233 7236 7239 7242 7245 7248 7251 7254 7257 7260 7263 7266 7269 7272 7275 7278 7281 7284 7287 7290 7293 7296 7299 7302 7305 7308 7311 7314 7317 7320 7323 7326 7329 7332 7335 7338 7341 7344 7347 7350 7353 7356 7359 7362 7365 7368 7371 7374 7377 7380 7383 7386 7389 7392 7395 7398 7401 7404 7407 7410 7413 7416 7419 7422 7425 7428 7431 7434 7437 7440 7443 7446 7449 7452 7455 7458 7461 7464 7467 7470 7473 7476 7479 7482 7485 7488 7491 7494 7497 7500 7503 7506 7509 7512 7515 7518 7521 7524 7527 7530 7533 7536 7539 7542 7545 7548 7551 7554 7557 7560 7563 7566 7569 7572 7575 7578 7581 7584 7587 7590 7593 7596 7599 7602 7605 7608 7611 7614 7617 7620 7623 7626 7629 7632 7635 7638 7641 7644 7647 7650 7653 7656 7659 7662 7665 7668 7671 7674 7677 7680 7683 7686 7689 7692 7695 7698 7701 7704 7707 7710 7713 7716 7719 7722 7725 7728 7731 7734 7737 7740 7743 7746 7749 7752 7755 7758 7761 7764 7767 7770 7773 7776 7779 7782 7785 7788 7791 7794 7797 7800 7803 7806 7809 7812 7815 7818 7821 7824 7827 7830 7833 7836 7839 7842 7845 7848 7851 7854 7857 7860 7863 7866 7869 7872 7875 7878 7881 7884 7887 7890 7893 7896 7899 7902 7905 7908 7911 7914 7917 7920 7923 7926 7929 7932 7935 7938 7941 7944 7947 7950 7953 7956 7959 7962 7965 7968 7971 7974 7977 7980 7983 7986 7989 7992 7995 7998 8001 8004 8007 8010 8013 8016 8019 8022 8025 8028 8031 8034 8037 8040 8043 8046 8049 8052 8055 8058 8061 8064 8067 8070 8073 8076 8079 8082 8085 8088 8091 8094 8097 8100 8103 8106 8109 8112 8115 8118 8121 8124 8127 8130 8133 8136 8139 8142 8145 8148 8151 8154 8157 8160 8163 8166 8169 8172 8175 8178 8181 8184 8187 8190 8193 8196 8199 8202 8205 8208 8211 8214 8217 8220 8223 8226 8229 8232 8235 8238 8241 8244 8247 8250 8253 8256 8259 8262 8265 8268 8271 8274 8277 8280 8283 8286 8289 8292 8295 8298 8301 8304 8307 8310 8313 8316 8319 8322 8325 8328 8331 8334 8337 8340 8343 8346 8349 8352 8355 8358 8361 8364 8367 8370 8373 8376 8379 8382 8385 8388 8391 8394 8397 8400 8403 8406 8409 8412 8415 8418 8421 8424 8427 8430 8433 8436 8439 8442 8445 8448 8451 8454 8457 8460 8463 8466 8469 8472 8475 8478 8481 8484 8487 8490 8493 8496 8499 8502 8505 8508 8511 8514 8517 8520 8523 8526 8529 8532 8535 8538 8541 8544 8547 8550 8553 8556 8559 8562 8565 8568 8571 8574 8577 8580 8583 8586 8589 8592 8595 8598 8601 8604 8607 8610 8613 8616 8619 8622 8625 8628 8631 8634 8637 8640 8643 8646 8649 8652 8655 8658 8661 8664 8667 8670 8673 8676 8679 8682 8685 8688 8691 8694 8697 8700 8703 8706 8709 8712 8715 8718 8721 8724 8727 8730 8733 8736 8739 8742 8745 8748 8751 8754 8757 8760 8763 8766 8769 8772 8775 8778 8781 8784 8787 8790 8793 8796 8799 8802 8805 8808 8811 8814 8817 8820 8823 8826 8829 8832 8835 8838 8841 8844 8847 8850 8853 8856 8859 8862 8865 8868 8871 8874 8877 8880 8883 8886 8889 8892 8895 8898 8901 8904 8907 8910 8913 8916 8919 8922 8925 8928 8931 8934 8937 8940 8943 8946 8949 8952 8955 8958 8961 8964 8967 8970 8973 8976 8979 8982 8985 8988 8991 8994 8997 9000 9003 9006 9009 9012 9015 9018 9021 9024 9027 9030 9033 9036 9039 9042 9045 9048 9051 9054 9057 9060 9063 9066 9069 9072 9075 9078 9081 9084 9087 9090 9093 9096 9099 9102 9105 9108 9111 9114 9117 9120 9123 9126 9129 9132 9135 9138 9141 9144 9147 9150 9153 9156 9159 9162 9165 9168 9171 9174 9177 9180 9183 9186 9189 9192 9195 9198 9201 9204 9207 9210 9213 9216 9219 9222 9225 9228 9231 9234 9237 9240 9243 9246 9249 9252 9255 9258 9261 9264 9267 9270 9273 9276 9279 9282 9285 9288 9291 9294 9297 9300 9303 9306 9309 9312 9315 9318 9321 9324 9327 9330 9333 9336 9339 9342 9345 9348 9351 9354 9357 9360 9363 9366 9369 9372 9375 9378 9381 9384 9387 9390 9393 9396 9399 9402 9405 9408 9411 9414 9417 9420 9423 9426 9429 9432 9435 9438 9441 9444 9447 9450 9453 9456 9459 9462 9465 9468 9471 9474 9477 9480 9483 9486 9489 9492 9495 9498 9501 9504 9507 9510 9513 9516 9519 9522 9525 9528 9531 9534 9537 9540 9543 9546 9549 9552 9555 9558 9561 9564 9567 9570 9573 9576 9579 9582 9585 9588 9591 9594 9597 9600 9603 9606 9609 9612 9615 9618 9621 9624 9627 9630 9633 9636 9639 9642 9645 9648 9651 9654 9657 9660 9663 9666 9669 9672 9675 9678 9681 9684 9687 9690 9693 9696 9699 9702 9705 9708 9711 9714 9717 9720 9723 9726 9729 9732 9735 9738 9741 9744 9747 9750 9753 9756 9759 9762 9765 9768 9771 9774 9777 9780 9783 9786 9789 9792 9795 9798 9801 9804 9807 9810 9813 9816 9819 9822 9825 9828 9831 9834 9837 9840 9843 9846 9849 9852 9855 9858 9861 9864 9867 9870 9873 9876 9879 9882 9885 9888 9891 9894 9897 9900 9903 9906 9909 9912 9915 9918 9921 9924 9927 9930 9933 9936 9939 9942 9945 9948 9951 9954 9957 9960 9963 9966 9969 9972 9975 9978 9981 9984 9987 9990 9993 9996 9999 10002 10005 10008 10011 10014 10017 10020 10023 10026 10029 10032 10035 10038 10041 10044 10047 10050 10053 10056 10059 10062 10065 10068 10071 10074 10077 10080 10083 10086 10089 10092 10095 10098 10101 10104 10107 10110 10113 10116 10119 10122 10125 10128 10131 10134 10137 10140 10143 10146 10149 10152 10155 10158 10161 10164 10167 10170 10173 10176 10179 10182 10185 10188 10191 10194 10197 10200 10203 10206 10209 10212 10215 10218 10221 10224 10227 10230 10233 10236 10239 10242 10245 10248 10251 10254 10257 10260 10263 10266 10269 10272 10275 10278 10281 10284 10287 10290 10293 10296 10299 10302 10305 10308 10311 10314 10317 10320 10323 10326 10329 10332 10335 10338 10341 10344 10347 10350 10353 10356 10359 10362 10365 10368 10371 10374 10377 10380 10383 10386 10389 10392 10395 10398 10401 10404 10407 10410 10413 10416 10419 10422 10425 10428 10431 10434 10437 10440 10443 10446 10449 10452 10455 10458 10461 10464 10467 10470 10473 10476 10479 10482 10485 10488 10491 10494 10497 10500 10503 10506 10509 10512 10515 10518 10521 10524 10527 10530 10533 10536 10539 10542 10545 10548 10551 10554 10557 10560 10563 10566 10569 10572 10575 10578 10581 10584 10587 10590 10593 10596 10599 10602 10605 10608 10611 10614 10617 10620 10623 10626 10629 10632 10635 10638 10641 10644 10647 10650 10653 10656 10659 10662 10665 10668 10671 10674 10677 10680 10683 10686 10689 10692 10695 10698 10701 10704 10707 10710 10713 10716 10719 10722 10725 10728 10731 10734 10737 10740 10743 10746 10749 10752 10755 10758 10761 10764 10767 10770 10773 10776 10779 10782 10785 10788 10791 10794 10797 10800 10803 10806 10809 10812 10815 10818 10821 10824 10827 10830 10833 10836 10839 10842 10845 10848 10851 10854 10857 10860 10863 10866 10869 10872 10875 10878 10881 10884 10887 10890 10893 10896 10899 10902 10905 10908 10911 10914 10917 10920 10923 10926 10929 10932 10935 10938 10941 10944 10947 10950 10953 10956 10959 10962 10965 10968 10971 10974 10977 10980 10983 10986 10989 10992 10995 10998 11001 11004 11007 11010 11013 11016 11019 11022 11025 11028 11031 11034 11037 11040 11043 11046 11049 11052 11055 11058 11061 11064 11067 11070 11073 11076 11079 11082 11085 11088 11091 11094 11097 11100 11103 11106 11109 11112 11115 11118 11121 11124 11127 11130 11133 11136 11139 11142 11145 11148 11151 11154 11157 11160 11163 11166 11169 11172 11175 11178 11181 11184 11187 11190 11193 11196 11199 11202 11205 11208 11211 11214 11217 11220 11223 11226 11229 11232 11235 11238 11241 11244 11247 11250 11253 11256 11259 11262 11265 11268 11271 11274 11277 11280 11283 11286 11289 11292 11295 11298 11301 11304 11307 11310 11313 11316 11319 11322 11325 11328 11331 11334 11337 11340 11343 11346 11349 11352 11355 11358 11361 11364 11367 11370 11373 11376 11379 11382 11385 11388 11391 11394 11397 11400 11403 11406 11409 11412 11415 11418 11421 11424 11427 11430 11433 11436 11439 11442 11445 11448 11451 11454 11457 11460 11463 11466 11469 11472 11475 11478 11481 11484 11487 11490 11493 11496 11499 11502 11505 11508 11511 11514 11517 11520 11523 11526 11529 11532 11535 11538 11541 11544 11547 11550 11553 11556 11559 11562 11565 11568 11571 11574 11577 11580 11583 11586 11589 11592 11595 11598 11601 11604 11607 11610 11613 11616 11619 11622 11625 11628 11631 11634 11637 11640 11643 11646 11649 11652 11655 11658 11661 11664 11667 11670 11673 11676 11679 11682 11685 11688 11691 11694 11697 11700 11703 11706 11709 11712 11715 11718 11721 11724 11727 11730 11733 11736 11739 11742 11745 11748 11751 11754 11757 11760 11763 11766 11769 11772 11775 11778 11781 11784 11787 11790 11793 11796 11799 11802 11805 11808 11811 11814 11817 11820 11823 11826 11829 11832 11835 11838 11841 11844 11847 11850 11853 11856 11859 11862 11865 11868 11871 11874 11877 11880 11883 11886 11889 11892 11895 11898 11901 11904 11907 11910 11913 11916 11919 11922 11925 11928 11931 11934 11937 11940 11943 11946 11949 11952 11955 11958 11961 11964 11967 11970 11973 11976 11979 11982 11985 11988 11991 11994 11997 12000 12003 12006 12009 12012 12015 12018 12021 12024 12027 12030 12033 12036 12039 12042 12045 12048 12051 12054 12057 12060 12063 12066 12069 12072 12075 12078 12081 12084 12087 12090 12093 12096 12099 12102 12105 12108 12111 12114 12117 12120 12123 12126 12129 12132 12135 12138 12141 12144 12147 12150 12153 12156 12159 12162 12165 12168 12171 12174 12177 12180 12183 12186 12189 12192 12195 12198 12201 12204 12207 12210 12213 12216 12219 12222 12225 12228 12231 12234 12237 12240 12243 12246 12249 12252 12255 12258 12261 12264 12267 12270 12273 12276 12279 12282 12285 12288 12291 12294 12297 12300 12303 12306 12309 12312 12315 12318 12321 12324 12327 12330 12333 12336 12339 12342 12345 12348 12351 12354 12357 12360 12363 12366 12369 12372 12375 12378 12381 12384 12387 12390 12393 12396 12399 12402 12405 12408 12411 12414 12417 12420 12423 12426 12429 12432 12435 12438 12441 12444 12447 12450 12453 12456 12459 12462 12465 12468 12471 12474 12477 12480 12483 12486 12489 12492 12495 12498 12501 12504 12507 12510 12513 12516 12519 12522 12525 12528 12531 12534 12537 12540 12543 12546 12549 12552 12555 12558 12561 12564 12567 12570 12573 12576 12579 12582 12585 12588 12591 12594 12597 12600 12603 12606 12609 12612 12615 12618 12621 12624 12627 12630 12633 12636 12639 12642 12645 12648 12651 12654 12657 12660 12663 12666 12669 12672 12675 12678 12681 12684 12687 12690 12693 12696 12699 12702 12705 12708 12711 12714 12717 12720 12723 12726 12729 12732 12735 12738 12741 12744 12747 12750 12753 12756 12759 12762 12765 12768 12771 12774 12777 12780 12783 12786 12789 12792 12795 12798 12801 12804 12807 12810 12813 12816 12819 12822 12825 12828 12831 12834 12837 12840 12843 12846 12849 12852 12855 12858 12861 12864 12867 12870 12873 12876 12879 12882 12885 12888 12891 12894 12897 12900 12903 12906 12909 12912 12915 12918 12921 12924 12927 12930 12933 12936 12939 12942 12945 12948 12951 12954 12957 12960 12963 12966 12969 12972 12975 12978 12981 12984 12987 12990 12993 12996 12999 13002 13005 13008 13011 13014 13017 13020 13023 13026 13029 13032 13035 13038 13041 13044 13047 13050 13053 13056 13059 13062 13065 13068 13071 13074 13077 13080 13083 13086 13089 13092 13095 13098 13101 13104 13107 13110 13113 13116 13119 13122 13125 13128 13131 13134 13137 13140 13143 13146 13149 13152 13155 13158 13161 13164 13167 13170 13173 13176 13179 13182 13185 13188 13191 13194 13197 13200 13203 13206 13209 13212 13215 13218 13221 13224 13227 13230 13233 13236 13239 13242 13245 13248 13251 13254 13257 13260 13263 13266 13269 13272 13275 13278 13281 13284 13287 13290 13293 13296 13299 13302 13305 13308 13311 13314 13317 13320 13323 13326 13329 13332 13335 13338 13341 13344 13347 13350 13353 13356 13359 13362 13365 13368 13371 13374 13377 13380 13383 13386 13389 13392 13395 13398 13401 13404 13407 13410 13413 13416 13419 13422 13425 13428 13431 13434 13437 13440 13443 13446 13449 13452 13455 13458 13461 13464 13467 13470 13473 13476 13479 13482 13485 13488 13491 13494 13497 13500 13503 13506 13509 13512 13515 13518 13521 13524 13527 13530 13533 13536 13539 13542 13545 13548 13551 13554 13557 13560 13563 13566 13569 13572 13575 13578 13581 13584 13587 13590 13593 13596 13599 13602 13605 13608 13611 13614 13617 13620 13623 13626 13629 13632 13635 13638 13641 13644 13647 13650 13653 13656 13659 13662 13665 13668 13671 13674 13677 13680 13683 13686 13689 13692 13695 13698 13701 13704 13707 13710 13713 13716 13719 13722 13725 13728 13731 13734 13737 13740 13743 13746 13749 13752 13755 13758 13761 13764 13767 13770 13773 13776 13779 13782 13785 13788 13791 13794 13797 13800 13803 13806 13809 13812 13815 13818 13821 13824 13827 13830 13833 13836 13839 13842 13845 13848 13851 13854 13857 13860 13863 13866 13869 13872 13875 13878 13881 13884 13887 13890 13893 13896 13899 13902 13905 13908 13911 13914 13917 13920 13923 13926 13929 13932 13935 13938 13941 13944 13947 13950 13953 13956 13959 13962 13965 13968 13971 13974 13977 13980 13983 13986 13989 13992 13995 13998 14001 14004 14007 14010 14013 14016 14019 14022 14025 14028 14031 14034 14037 14040 14043 14046 14049 14052 14055 14058 14061 14064 14067 14070 14073 14076 14079 14082 14085 14088 14091 14094 14097 14100 14103 14106 14109 14112 14115 14118 14121 14124 14127 14130 14133 14136 14139 14142 14145 14148 14151 14154 14157 14160 14163 14166 14169 14172 14175 14178 14181 14184 14187 14190 14193 14196 14199 14202 14205 14208 14211 14214 14217 14220 14223 14226 14229 14232 14235 14238 14241 14244 14247 14250 14253 14256 14259 14262 14265 14268 14271 14274 14277 14280 14283 14286 14289 14292 14295 14298 14301 14304 14307 14310 14313 14316 14319 14322 14325 14328 14331 14334 14337 14340 14343 14346 14349 14352 14355 14358 14361 14364 14367 14370 14373 14376 14379 14382 14385 14388 14391 14394 14397 14400 14403 14406 14409 14412 14415 14418 14421 14424 14427 14430 14433 14436 14439 14442 14445 14448 14451 14454 14457 14460 14463 14466 14469 14472 14475 14478 14481 14484 14487 14490 14493 14496 14499 14502 14505 14508 14511 14514 14517 14520 14523 14526 14529 14532 14535 14538 14541 14544 14547 14550 14553 14556 14559 14562 14565 14568 14571 14574 14577 14580 14583 14586 14589 14592 14595 14598 14601 14604 14607 14610 14613 14616 14619 14622 14625 14628 14631 14634 14637 14640 14643 14646 14649 14652 14655 14658 14661 14664 14667 14670 14673 14676 14679 14682 14685 14688 14691 14694 14697 14700 14703 14706 14709 14712 14715 14718 14721 14724 14727 14730 14733 14736 14739 14742 14745 14748 14751 14754 14757 14760 14763 14766 14769 14772 14775 14778 14781 14784 14787 14790 14793 14796 14799 14802 14805 14808 14811 14814 14817 14820 14823 14826 14829 14832 14835 14838 14841 14844 14847 14850 14853 14856 14859 14862 14865 14868 14871 14874 14877 14880 14883 14886 14889 14892 14895 14898 14901 14904 14907 14910 14913 14916 14919 14922 14925 14928 14931 14934 14937 14940 14943 14946 14949 14952 14955 14958 14961 14964 14967 14970 14973 14976 14979 14982 14985 14988 14991 14994 14997 15000 15003 15006 15009 15012 15015 15018 15021 15024 15027 15030 15033 15036 15039 15042 15045 15048 15051 15054 15057 15060 15063 15066 15069 15072 15075 15078 15081 15084 15087 15090 15093 15096 15099 15102 15105 15108 15111 15114 15117 15120 15123 15126 15129 15132 15135 15138 15141 15144 15147 15150 15153 15156 15159 15162 15165 15168 15171 15174 15177 15180 15183 15186 15189 15192 15195 15198 15201 15204 15207 15210 15213 15216 15219 15222 15225 15228 15231 15234 15237 15240 15243 15246 15249 15252 15255 15258 15261 15264 15267 15270 15273 15276 15279 15282 15285 15288 15291 15294 15297 15300 15303 15306 15309 15312 15315 15318 15321 15324 15327 15330 15333 15336 15339 15342 15345 15348 15351 15354 15357 15360 15363 15366 15369 15372 15375 15378 15381 15384 15387 15390 15393 15396 15399 15402 15405 15408 15411 15414 15417 15420 15423 15426 15429 15432 15435 15438 15441 15444 15447 15450 15453 15456 15459 15462 15465 15468 15471 15474 15477 15480 15483 15486 15489 15492 15495 15498 15501 15504 15507 15510 15513 15516 15519 15522 15525 15528 15531 15534 15537 15540 15543 15546 15549 15552 15555 15558 15561 15564 15567 15570 15573 15576 15579 15582 15585 15588 15591 15594 15597 15600 15603 15606 15609 15612 15615 15618 15621 15624 15627 15630 15633 15636 15639 15642 15645 15648 15651 15654 15657 15660 15663 15666 15669 15672 15675 15678 15681 15684 15687 15690 15693 15696 15699 15702 15705 15708 15711 15714 15717 15720 15723 15726 15729 15732 15735 15738 15741 15744 15747 15750 15753 15756 15759 15762 15765 15768 15771 15774 15777 15780 15783 15786 15789 15792 15795 15798 15801 15804 15807 15810 15813 15816 15819 15822 15825 15828 15831 15834 15837 15840 15843 15846 15849 15852 15855 15858 15861 15864 15867 15870 15873 15876 15879 15882 15885 15888 15891 15894 15897 15900 15903 15906 15909 15912 15915 15918 15921 15924 15927 15930 15933 15936 15939 15942 15945 15948 15951 15954 15957 15960 15963 15966 15969 15972 15975 15978 15981 15984 15987 15990 15993 15996 15999 16002 16005 16008 16011 16014 16017 16020 16023 16026 16029 16032 16035 16038 16041 16044 16047 16050 16053 16056 16059 16062 16065 16068 16071 16074 16077 16080 16083 16086 16089 16092 16095 16098 16101 16104 16107 16110 16113 16116 16119 16122 16125 16128 16131 16134 16137 16140 16143 16146 16149 16152 16155 16158 16161 16164 16167 16170 16173 16176 16179 16182 16185 16188 16191 16194 16197 16200 16203 16206 16209 16212 16215 16218 16221 16224 16227 16230 16233 16236 16239 16242 16245 16248 16251 16254 16257 16260 16263 16266 16269 16272 16275 16278 16281 16284 16287 16290 16293 16296 16299 16302 16305 16308 16311 16314 16317 16320 16323 16326 16329 16332 16335 16338 16341 16344 16347 16350 16353 16356 16359 16362 16365 16368 16371 16374 16377 16380 16383 16386 16389 16392 16395 16398 16401 16404 16407 16410 16413 16416 16419 16422 16425 16428 16431 16434 16437 16440 16443 16446 16449 16452 16455 16458 16461 16464 16467 16470 16473 16476 16479 16482 16485 16488 16491 16494 16497 16500 16503 16506 16509 16512 16515 16518 16521 16524 16527 16530 16533 16536 16539 16542 16545 16548 16551 16554 16557 16560 16563 16566 16569 16572 16575 16578 16581 16584 16587 16590 16593 16596 16599 16602 16605 16608 16611 16614 16617 16620 16623 16626 16629 16632 16635 16638 16641 16644 16647 16650 16653 16656 16659 16662 16665 16668 16671 16674 16677 16680 16683 16686 16689 16692 16695 16698 16701 16704 16707 16710 16713 16716 16719 16722 16725 16728 16731 16734 16737 16740 16743 16746 16749 16752 16755 16758 16761 16764 16767 16770 16773 16776 16779 16782 16785 16788 16791 16794 16797 16800 16803 16806 16809 16812 16815 16818 16821 16824 16827 16830 16833 16836 16839 16842 16845 16848 16851 16854 16857 16860 16863 16866 16869 16872 16875 16878 16881 16884 16887 16890 16893 16896 16899 16902 16905 16908 16911 16914 16917 16920 16923 16926 16929 16932 16935 16938 16941 16944 16947 16950 16953 16956 16959 16962 16965 16968 16971 16974 16977 16980 16983 16986 16989 16992 16995 16998 17001 17004 17007 17010 17013 17016 17019 17022 17025 17028 17031 17034 17037 17040 17043 17046 17049 17052 17055 17058 17061 17064 17067 17070 17073 17076 17079 17082 17085 17088 17091 17094 17097 17100 17103 17106 17109 17112 17115 17118 17121 17124 17127 17130 17133 17136 17139 17142 17145 17148 17151 17154 17157 17160 17163 17166 17169 17172 17175 17178 17181 17184 17187 17190 17193 17196 17199 17202 17205 17208 17211 17214 17217 17220 17223 17226 17229 17232 17235 17238 17241 17244 17247 17250 17253 17256 17259 17262 17265 17268 17271 17274 17277 17280 17283 17286 17289 17292 17295 17298 17301 17304 17307 17310 17313 17316 17319 17322 17325 17328 17331 17334 17337 17340 17343 17346 17349 17352 17355 17358 17361 17364 17367 17370 17373 17376 17379 17382 17385 17388 17391 17394 17397 17400 17403 17406 17409 17412 17415 17418 17421 17424 17427 17430 17433 17436 17439 17442 17445 17448 17451 17454 17457 17460 17463 17466 17469 17472 17475 17478 17481 17484 17487 17490 17493 17496 17499 17502 17505 17508 17511 17514 17517 17520 17523 17526 17529 17532 17535 17538 17541 17544 17547 17550 17553 17556 17559 17562 17565 17568 17571 17574 17577 17580 17583 17586 17589 17592 17595 17598 17601 17604 17607 17610 17613 17616 17619 17622 17625 17628 17631 17634 17637 17640 17643 17646 17649 17652 17655 17658 17661 17664 17667 17670 17673 17676 17679 17682 17685 17688 17691 17694 17697 17700 17703 17706 17709 17712 17715 17718 17721 17724 17727 17730 17733 17736 17739 17742 17745 17748 17751 17754 17757 17760 17763 17766 17769 17772 17775 17778 17781 17784 17787 17790 17793 17796 17799 17802 17805 17808 17811 17814 17817 17820 17823 17826 17829 17832 17835 17838 17841 17844 17847 17850 17853 17856 17859 17862 17865 17868 17871 17874 17877 17880 17883 17886 17889 17892 17895 17898 17901 17904 17907 17910 17913 17916 17919 17922 17925 17928 17931 17934 17937 17940 17943 17946 17949 17952 17955 17958 17961 17964 17967 17970 17973 17976 17979 17982 17985 17988 17991 17994 17997 18000 18003 18006 18009 18012 18015 18018 18021 18024 18027 18030 18033 18036 18039 18042 18045 18048 18051 18054 18057 18060 18063 18066 18069 18072 18075 18078 18081 18084 18087 18090 18093 18096 18099 18102 18105 18108 18111 18114 18117 18120 18123 18126 18129 18132 18135 18138 18141 18144 18147 18150 18153 18156 18159 18162 18165 18168 18171 18174 18177 18180 18183 18186 18189 18192 18195 18198 18201 18204 18207 18210 18213 18216 18219 18222 18225 18228 18231 18234 18237 18240 18243 18246 18249 18252 18255 18258 18261 18264 18267 18270 18273 18276 18279 18282 18285 18288 18291 18294 18297 18300 18303 18306 18309 18312 18315 18318 18321 18324 18327 18330 18333 18336 18339 18342 18345 18348 18351 18354 18357 18360 18363 18366 18369 18372 18375 18378 18381 18384 18387 18390 18393 18396 18399 18402 18405 18408 18411 18414 18417 18420 18423 18426 18429 18432 18435 18438 18441 18444 18447 18450 18453 18456 18459 18462 18465 18468 18471 18474 18477 18480 18483 18486 18489 18492 18495 18498 18501 18504 18507 18510 18513 18516 18519 18522 18525 18528 18531 18534 18537 18540 18543 18546 18549 18552 18555 18558 18561 18564 18567 18570 18573 18576 18579 18582 18585 18588 18591 18594 18597 18600 18603 18606 18609 18612 18615 18618 18621 18624 18627 18630 18633 18636 18639 18642 18645 18648 18651 18654 18657 18660 18663 18666 18669 18672 18675 18678 18681 18684 18687 18690 18693 18696 18699 18702 18705 18708 18711 18714 18717 18720 18723 18726 18729 18732 18735 18738 18741 18744 18747 18750 18753 18756 18759 18762 18765 18768 18771 18774 18777 18780 18783 18786 18789 18792 18795 18798 18801 18804 18807 18810 18813 18816 18819 18822 18825 18828 18831 18834 18837 18840 18843 18846 18849 18852 18855 18858 18861 18864 18867 18870 18873 18876 18879 18882 18885 18888 18891 18894 18897 18900 18903 18906 18909 18912 18915 18918 18921 18924 18927 18930 18933 18936 18939 18942 18945 18948 18951 18954 18957 18960 18963 18966 18969 18972 18975 18978 18981 18984 18987 18990 18993 18996 18999 19002 19005 19008 19011 19014 19017 19020 19023 19026 19029 19032 19035 19038 19041 19044 19047 19050 19053 19056 19059 19062 19065 19068 19071 19074 19077 19080 19083 19086 19089 19092 19095 19098 19101 19104 19107 19110 19113 19116 19119 19122 19125 19128 19131 19134 19137 19140 19143 19146 19149 19152 19155 19158 19161 19164 19167 19170 19173 19176 19179 19182 19185 19188 19191 19194 19197 19200 19203 19206 19209 19212 19215 19218 19221 19224 19227 19230 19233 19236 19239 19242 19245 19248 19251 19254 19257 19260 19263 19266 19269 19272 19275 19278 19281 19284 19287 19290 19293 19296 19299 19302 19305 19308 19311 19314 19317 19320 19323 19326 19329 19332 19335 19338 19341 19344 19347 19350 19353 19356 19359 19362 19365 19368 19371 19374 19377 19380 19383 19386 19389 19392 19395 19398 19401 19404 19407 19410 19413 19416 19419 19422 19425 19428 19431 19434 19437 19440 19443 19446 19449 19452 19455 19458 19461 19464 19467 19470 19473 19476 19479 19482 19485 19488 19491 19494 19497 19500 19503 19506 19509 19512 19515 19518 19521 19524 19527 19530 19533 19536 19539 19542 19545 19548 19551 19554 19557 19560 19563 19566 19569 19572 19575 19578 19581 19584 19587 19590 19593 19596 19599 19602 19605 19608 19611 19614 19617 19620 19623 19626 19629 19632 19635 19638 19641 19644 19647 19650 19653 19656 19659 19662 19665 19668 19671 19674 19677 19680 19683 19686 19689 19692 19695 19698 19701 19704 19707 19710 19713 19716 19719 19722 19725 19728 19731 19734 19737 19740 19743 19746 19749 19752 19755 19758 19761 19764 19767 19770 19773 19776 19779 19782 19785 19788 19791 19794 19797 19800 19803 19806 19809 19812 19815 19818 19821 19824 19827 19830 19833 19836 19839 19842 19845 19848 19851 19854 19857 19860 19863 19866 19869 19872 19875 19878 19881 19884 19887 19890 19893 19896 19899 19902 19905 19908 19911 19914 19917 19920 19923 19926 19929 19932 19935 19938 19941 19944 19947 19950 19953 19956 19959 19962 19965 19968 19971 19974 19977 19980 19983 19986 19989 19992 19995 19998 20001 20004 20007 20010 20013 20016 20019 20022 20025 20028 20031 20034 20037 20040 20043 20046 20049 20052 20055 20058 20061 20064 20067 20070 20073 20076 20079 20082 20085 20088 20091 20094 20097 20100 20103 20106 20109 20112 20115 20118 20121 20124 20127 20130 20133 20136 20139 20142 20145 20148 20151 20154 20157 20160 20163 20166 20169 20172 20175 20178 20181 20184 20187 20190 20193 20196 20199 20202 20205 20208 20211 20214 20217 20220 20223 20226 20229 20232 20235 20238 20241 20244 20247 20250 20253 20256 20259 20262 20265 20268 20271 20274 20277 20280 20283 20286 20289 20292 20295 20298 20301 20304 20307 20310 20313 20316 20319 20322 20325 20328 20331 20334 20337 20340 20343 20346 20349 20352 20355 20358 20361 20364 20367 20370 20373 20376 20379 20382 20385 20388 20391 20394 20397 20400 20403 20406 20409 20412 20415 20418 20421 20424 20427 20430 20433 20436 20439 20442 20445 20448 20451 20454 20457 20460 20463 20466 20469 20472 20475 20478 20481 20484 20487 20490 20493 20496 20499 20502 20505 20508 20511 20514 20517 20520 20523 20526 20529 20532 20535 20538 20541 20544 20547 20550 20553 20556 20559 20562 20565 20568 20571 20574 20577 20580 20583 20586 20589 20592 20595 20598 20601 20604 20607 20610 20613 20616 20619 20622 20625 20628 20631 20634 20637 20640 20643 20646 20649 20652 20655 20658 20661 20664 20667 20670 20673 20676 20679 20682 20685 20688 20691 20694 20697 20700 20703 20706 20709 20712 20715 20718 20721 20724 20727 20730 20733 20736 20739 20742 20745 20748 20751 20754 20757 20760 20763 20766 20769 20772 20775 20778 20781 20784 20787 20790 20793 20796 20799 20802 20805 20808 20811 20814 20817 20820 20823 20826 20829 20832 20835 20838 20841 20844 20847 20850 20853 20856 20859 20862 20865 20868 20871 20874 20877 20880 20883 20886 20889 20892 20895 20898 20901 20904 20907 20910 20913 20916 20919 20922 20925 20928 20931 20934 20937 20940 20943 20946 20949 20952 20955 20958 20961 20964 20967 20970 20973 20976 20979 20982 20985 20988 20991 20994 20997 21000 21003 21006 21009 21012 21015 21018 21021 21024 21027 21030 21033 21036 21039 21042 21045 21048 21051 21054 21057 21060 21063 21066 21069 21072 21075 21078 21081 21084 21087 21090 21093 21096 21099 21102 21105 21108 21111 21114 21117 21120 21123 21126 21129 21132 21135 21138 21141 21144 21147 21150 21153 21156 21159 21162 21165 21168 21171 21174 21177 21180 21183 21186 21189 21192 21195 21198 21201 21204 21207 21210 21213 21216 21219 21222 21225 21228 21231 21234 21237 21240 21243 21246 21249 21252 21255 21258 21261 21264 21267 21270 21273 21276 21279 21282 21285 21288 21291 21294 21297 21300 21303 21306 21309 21312 21315 21318 21321 21324 21327 21330 21333 21336 21339 21342 21345 21348 21351 21354 21357 21360 21363 21366 21369 21372 21375 21378 21381 21384 21387 21390 21393 21396 21399 21402 21405 21408 21411 21414 21417 21420 21423 21426 21429 21432 21435 21438 21441 21444 21447 21450 21453 21456 21459 21462 21465 21468 21471 21474 21477 21480 21483 21486 21489 21492 21495 21498 21501 21504 21507 21510 21513 21516 21519 21522 21525 21528 21531 21534 21537 21540 21543 21546 21549 21552 21555 21558 21561 21564 21567 21570 21573 21576 21579 21582 21585 21588 21591 21594 21597 21600 21603 21606 21609 21612 21615 21618 21621 21624 21627 21630 21633 21636 21639 21642 21645 21648 21651 21654 21657 21660 21663 21666 21669 21672 21675 21678 21681 21684 21687 21690 21693 21696 21699 21702 21705 21708 21711 21714 21717 21720 21723 21726 21729 21732 21735 21738 21741 21744 21747 21750 21753 21756 21759 21762 21765 21768 21771 21774 21777 21780 21783 21786 21789 21792 21795 21798 21801 21804 21807 21810 21813 21816 21819 21822 21825 21828 21831 21834 21837 21840 21843 21846 21849 21852 21855 21858 21861 21864 21867 21870 21873 21876 21879 21882 21885 21888 21891 21894 21897 21900 21903 21906 21909 21912 21915 21918 21921 21924 21927 21930 21933 21936 21939 21942 21945 21948 21951 21954 21957 21960 21963 21966 21969 21972 21975 21978 21981 21984 21987 21990 21993 21996 21999 22002 22005 22008 22011 22014 22017 22020 22023 22026 22029 22032 22035 22038 22041 22044 22047 22050 22053 22056 22059 22062 22065 22068 22071 22074 22077 22080 22083 22086 22089 22092 22095 22098 22101 22104 22107 22110 22113 22116 22119 22122 22125 22128 22131 22134 22137 22140 22143 22146 22149 22152 22155 22158 22161 22164 22167 22170 22173 22176 22179 22182 22185 22188 22191 22194 22197 22200 22203 22206 22209 22212 22215 22218 22221 22224 22227 22230 22233 22236 22239 22242 22245 22248 22251 22254 22257 22260 22263 22266 22269 22272 22275 22278 22281 22284 22287 22290 22293 22296 22299 22302 22305 22308 22311 22314 22317 22320 22323 22326 22329 22332 22335 22338 22341 22344 22347 22350 22353 22356 22359 22362 22365 22368 22371 22374 22377 22380 22383 22386 22389 22392 22395 22398 22401 22404 22407 22410 22413 22416 22419 22422 22425 22428 22431 22434 22437 22440 22443 22446 22449 22452 22455 22458 22461 22464 22467 22470 22473 22476 22479 22482 22485 22488 22491 22494 22497 22500 22503 22506 22509 22512 22515 22518 22521 22524 22527 22530 22533 22536 22539 22542 22545 22548 22551 22554 22557 22560 22563 22566 22569 22572 22575 22578 22581 22584 22587 22590 22593 22596 22599 22602 22605 22608 22611 22614 22617 22620 22623 22626 22629 22632 22635 22638 22641 22644 22647 22650 22653 22656 22659 22662 22665 22668 22671 22674 22677 22680 22683 22686 22689 22692 22695 22698 22701 22704 22707 22710 22713 22716 22719 22722 22725 22728 22731 22734 22737 22740 22743 22746 22749 22752 22755 22758 22761 22764 22767 22770 22773 22776 22779 22782 22785 22788 22791 22794 22797 22800 22803 22806 22809 22812 22815 22818 22821 22824 22827 22830 22833 22836 22839 22842 22845 22848 22851 22854 22857 22860 22863 22866 22869 22872 22875 22878 22881 22884 22887 22890 22893 22896 22899 22902 22905 22908 22911 22914 22917 22920 22923 22926 22929 22932 22935 22938 22941 22944 22947 22950 22953 22956 22959 22962 22965 22968 22971 22974 22977 22980 22983 22986 22989 22992 22995 22998 23001 23004 23007 23010 23013 23016 23019 23022 23025 23028 23031 23034 23037 23040 23043 23046 23049 23052 23055 23058 23061 23064 23067 23070 23073 23076 23079 23082 23085 23088 23091 23094 23097 23100 23103 23106 23109 23112 23115 23118 23121 23124 23127 23130 23133 23136 23139 23142 23145 23148 23151 23154 23157 23160 23163 23166 23169 23172 23175 23178 23181 23184 23187 23190 23193 23196 23199 23202 23205 23208 23211 23214 23217 23220 23223 23226 23229 23232 23235 23238 23241 23244 23247 23250 23253 23256 23259 23262 23265 23268 23271 23274 23277 23280 23283 23286 23289 23292 23295 23298 23301 23304 23307 23310 23313 23316 23319 23322 23325 23328 23331 23334 23337 23340 23343 23346 23349 23352 23355 23358 23361 23364 23367 23370 23373 23376 23379 23382 23385 23388 23391 23394 23397 23400 23403 23406 23409 23412 23415 23418 23421 23424 23427 23430 23433 23436 23439 23442 23445 23448 23451 23454 23457 23460 23463 23466 23469 23472 23475 23478 23481 23484 23487 23490 23493 23496 23499 23502 23505 23508 23511 23514 23517 23520 23523 23526 23529 23532 23535 23538 23541 23544 23547 23550 23553 23556 23559 23562 23565 23568 23571 23574 23577 23580 23583 23586 23589 23592 23595 23598 23601 23604 23607 23610 23613 23616 23619 23622 23625 23628 23631 23634 23637 23640 23643 23646 23649 23652 23655 23658 23661 23664 23667 23670 23673 23676 23679 23682 23685 23688 23691 23694 23697 23700 23703 23706 23709 23712 23715 23718 23721 23724 23727 23730 23733 23736 23739 23742 23745 23748 23751 23754 23757 23760 23763 23766 23769 23772 23775 23778 23781 23784 23787 23790 23793 23796 23799 23802 23805 23808 23811 23814 23817 23820 23823 23826 23829 23832 23835 23838 23841 23844 23847 23850 23853 23856 23859 23862 23865 23868 23871 23874 23877 23880 23883 23886 23889 23892 23895 23898 23901 23904 23907 23910 23913 23916 23919 23922 23925 23928 23931 23934 23937 23940 23943 23946 23949 23952 23955 23958 23961 23964 23967 23970 23973 23976 23979 23982 23985 23988 23991 23994 23997 24000 24003 24006 24009 24012 24015 24018 24021 24024 24027 24030 24033 24036 24039 24042 24045 24048 24051 24054 24057 24060 24063 24066 24069 24072 24075 24078 24081 24084 24087 24090 24093 24096 24099 24102 24105 24108 24111 24114 24117 24120 24123 24126 24129 24132 24135 24138 24141 24144 24147 24150 24153 24156 24159 24162 24165 24168 24171 24174 24177 24180 24183 24186 24189 24192 24195 24198 24201 24204 24207 24210 24213 24216 24219 24222 24225 24228 24231 24234 24237 24240 24243 24246 24249 24252 24255 24258 24261 24264 24267 24270 24273 24276 24279 24282 24285 24288 24291 24294 24297 24300 24303 24306 24309 24312 24315 24318 24321 24324 24327 24330 24333 24336 24339 24342 24345 24348 24351 24354 24357 24360 24363 24366 24369 24372 24375 24378 24381 24384 24387 24390 24393 24396 24399 24402 24405 24408 24411 24414 24417 24420 24423 24426 24429 24432 24435 24438 24441 24444 24447 24450 24453 24456 24459 24462 24465 24468 24471 24474 24477 24480 24483 24486 24489 24492 24495 24498 24501 24504 24507 24510 24513 24516 24519 24522 24525 24528 24531 24534 24537 24540 24543 24546 24549 24552 24555 24558 24561 24564 24567 24570 24573 24576 24579 24582 24585 24588 24591 24594 24597 24600 24603 24606 24609 24612 24615 24618 24621 24624 24627 24630 24633 24636 24639 24642 24645 24648 24651 24654 24657 24660 24663 24666 24669 24672 24675 24678 24681 24684 24687 24690 24693 24696 24699 24702 24705 24708 24711 24714 24717 24720 24723 24726 24729 24732 24735 24738 24741 24744 24747 24750 24753 24756 24759 24762 24765 24768 24771 24774 24777 24780 24783 24786 24789 24792 24795 24798 24801 24804 24807 24810 24813 24816 24819 24822 24825 24828 24831 24834 24837 24840 24843 24846 24849 24852 24855 24858 24861 24864 24867 24870 24873 24876 24879 24882 24885 24888 24891 24894 24897 24900 24903 24906 24909 24912 24915 24918 24921 24924 24927 24930 24933 24936 24939 24942 24945 24948 24951 24954 24957 24960 24963 24966 24969 24972 24975 24978 24981 24984 24987 24990 24993 24996 24999 25002 25005 25008 25011 25014 25017 25020 25023 25026 25029 25032 25035 25038 25041 25044 25047 25050 25053 25056 25059 25062 25065 25068 25071 25074 25077 25080 25083 25086 25089 25092 25095 25098 25101 25104 25107 25110 25113 25116 25119 25122 25125 25128 25131 25134 25137 25140 25143 25146 25149 25152 25155 25158 25161 25164 25167 25170 25173 25176 25179 25182 25185 25188 25191 25194 25197 25200 25203 25206 25209 25212 25215 25218 25221 25224 25227 25230 25233 25236 25239 25242 25245 25248 25251 25254 25257 25260 25263 25266 25269 25272 25275 25278 25281 25284 25287 25290 25293 25296 25299 25302 25305 25308 25311 25314 25317 25320 25323 25326 25329 25332 25335 25338 25341 25344 25347 25350 25353 25356 25359 25362 25365 25368 25371 25374 25377 25380 25383 25386 25389 25392 25395 25398 25401 25404 25407 25410 25413 25416 25419 25422 25425 25428 25431 25434 25437 25440 25443 25446 25449 25452 25455 25458 25461 25464 25467 25470 25473 25476 25479 25482 25485 25488 25491 25494 25497 25500 25503 25506 25509 25512 25515 25518 25521 25524 25527 25530 25533 25536 25539 25542 25545 25548 25551 25554 25557 25560 25563 25566 25569 25572 25575 25578 25581 25584 25587 25590 25593 25596 25599 25602 25605 25608 25611 25614 25617 25620 25623 25626 25629 25632 25635 25638 25641 25644 25647 25650 25653 25656 25659 25662 25665 25668 25671 25674 25677 25680 25683 25686 25689 25692 25695 25698 25701 25704 25707 25710 25713 25716 25719 25722 25725 25728 25731 25734 25737 25740 25743 25746 25749 25752 25755 25758 25761 25764 25767 25770 25773 25776 25779 25782 25785 25788 25791 25794 25797 25800 25803 25806 25809 25812 25815 25818 25821 25824 25827 25830 25833 25836 25839 25842 25845 25848 25851 25854 25857 25860 25863 25866 25869 25872 25875 25878 25881 25884 25887 25890 25893 25896 25899 25902 25905 25908 25911 25914 25917 25920 25923 25926 25929 25932 25935 25938 25941 25944 25947 25950 25953 25956 25959 25962 25965 25968 25971 25974 25977 25980 25983 25986 25989 25992 25995 25998 26001 26004 26007 26010 26013 26016 26019 26022 26025 26028 26031 26034 26037 26040 26043 26046 26049 26052 26055 26058 26061 26064 26067 26070 26073 26076 26079 26082 26085 26088 26091 26094 26097 26100 26103 26106 26109 26112 26115 26118 26121 26124 26127 26130 26133 26136 26139 26142 26145 26148 26151 26154 26157 26160 26163 26166 26169 26172 26175 26178 26181 26184 26187 26190 26193 26196 26199 26202 26205 26208 26211 26214 26217 26220 26223 26226 26229 26232 26235 26238 26241 26244 26247 26250 26253 26256 26259 26262 26265 26268 26271 26274 26277 26280 26283 26286 26289 26292 26295 26298 26301 26304 26307 26310 26313 26316 26319 26322 26325 26328 26331 26334 26337 26340 26343 26346 26349 26352 26355 26358 26361 26364 26367 26370 26373 26376 26379 26382 26385 26388 26391 26394 26397 26400 26403 26406 26409 26412 26415 26418 26421 26424 26427 26430 26433 26436 26439 26442 26445 26448 26451 26454 26457 26460 26463 26466 26469 26472 26475 26478 26481 26484 26487 26490 26493 26496 26499 26502 26505 26508 26511 26514 26517 26520 26523 26526 26529 26532 26535 26538 26541 26544 26547 26550 26553 26556 26559 26562 26565 26568 26571 26574 26577 26580 26583 26586 26589 26592 26595 26598 26601 26604 26607 26610 26613 26616 26619 26622 26625 26628 26631 26634 26637 26640 26643 26646 26649 26652 26655 26658 26661 26664 26667 26670 26673 26676 26679 26682 26685 26688 26691 26694 26697 26700 26703 26706 26709 26712 26715 26718 26721 26724 26727 26730 26733 26736 26739 26742 26745 26748 26751 26754 26757 26760 26763 26766 26769 26772 26775 26778 26781 26784 26787 26790 26793 26796 26799 26802 26805 26808 26811 26814 26817 26820 26823 26826 26829 26832 26835 26838 26841 26844 26847 26850 26853 26856 26859 26862 26865 26868 26871 26874 26877 26880 26883 26886 26889 26892 26895 26898 26901 26904 26907 26910 26913 26916 26919 26922 26925 26928 26931 26934 26937 26940 26943 26946 26949 26952 26955 26958 26961 26964 26967 26970 26973 26976 26979 26982 26985 26988 26991 26994 26997 27000 27003 27006 27009 27012 27015 27018 27021 27024 27027 27030 27033 27036 27039 27042 27045 27048 27051 27054 27057 27060 27063 27066 27069 27072 27075 27078 27081 27084 27087 27090 27093 27096 27099 27102 27105 27108 27111 27114 27117 27120 27123 27126 27129 27132 27135 27138 27141 27144 27147 27150 27153 27156 27159 27162 27165 27168 27171 27174 27177 27180 27183 27186 27189 27192 27195 27198 27201 27204 27207 27210 27213 27216 27219 27222 27225 27228 27231 27234 27237 27240 27243 27246 27249 27252 27255 27258 27261 27264 27267 27270 27273 27276 27279 27282 27285 27288 27291 27294 27297 27300 27303 27306 27309 27312 27315 27318 27321 27324 27327 27330 27333 27336 27339 27342 27345 27348 27351 27354 27357 27360 27363 27366 27369 27372 27375 27378 27381 27384 27387 27390 27393 27396 27399 27402 27405 27408 27411 27414 27417 27420 27423 27426 27429 27432 27435 27438 27441 27444 27447 27450 27453 27456 27459 27462 27465 27468 27471 27474 27477 27480 27483 27486 27489 27492 27495 27498 27501 27504 27507 27510 27513 27516 27519 27522 27525 27528 27531 27534 27537 27540 27543 27546 27549 27552 27555 27558 27561 27564 27567 27570 27573 27576 27579 27582 27585 27588 27591 27594 27597 27600 27603 27606 27609 27612 27615 27618 27621 27624 27627 27630 27633 27636 27639 27642 27645 27648 27651 27654 27657 27660 27663 27666 27669 27672 27675 27678 27681 27684 27687 27690 27693 27696 27699 27702 27705 27708 27711 27714 27717 27720 27723 27726 27729 27732 27735 27738 27741 27744 27747 27750 27753 27756 27759 27762 27765 27768 27771 27774 27777 27780 27783 27786 27789 27792 27795 27798 27801 27804 27807 27810 27813 27816 27819 27822 27825 27828 27831 27834 27837 27840 27843 27846 27849 27852 27855 27858 27861 27864 27867 27870 27873 27876 27879 27882 27885 27888 27891 27894 27897 27900 27903 27906 27909 27912 27915 27918 27921 27924 27927 27930 27933 27936 27939 27942 27945 27948 27951 27954 27957 27960 27963 27966 27969 27972 27975 27978 27981 27984 27987 27990 27993 27996 27999 28002 28005 28008 28011 28014 28017 28020 28023 28026 28029 28032 28035 28038 28041 28044 28047 28050 28053 28056 28059 28062 28065 28068 28071 28074 28077 28080 28083 28086 28089 28092 28095 28098 28101 28104 28107 28110 28113 28116 28119 28122 28125 28128 28131 28134 28137 28140 28143 28146 28149 28152 28155 28158 28161 28164 28167 28170 28173 28176 28179 28182 28185 28188 28191 28194 28197 28200 28203 28206 28209 28212 28215 28218 28221 28224 28227 28230 28233 28236 28239 28242 28245 28248 28251 28254 28257 28260 28263 28266 28269 28272 28275 28278 28281 28284 28287 28290 28293 28296 28299 28302 28305 28308 28311 28314 28317 28320 28323 28326 28329 28332 28335 28338 28341 28344 28347 28350 28353 28356 28359 28362 28365 28368 28371 28374 28377 28380 28383 28386 28389 28392 28395 28398 28401 28404 28407 28410 28413 28416 28419 28422 28425 28428 28431 28434 28437 28440 28443 28446 28449 28452 28455 28458 28461 28464 28467 28470 28473 28476 28479 28482 28485 28488 28491 28494 28497 28500 28503 28506 28509 28512 28515 28518 28521 28524 28527 28530 28533 28536 28539 28542 28545 28548 28551 28554 28557 28560 28563 28566 28569 28572 28575 28578 28581 28584 28587 28590 28593 28596 28599 28602 28605 28608 28611 28614 28617 28620 28623 28626 28629 28632 28635 28638 28641 28644 28647 28650 28653 28656 28659 28662 28665 28668 28671 28674 28677 28680 28683 28686 28689 28692 28695 28698 28701 28704 28707 28710 28713 28716 28719 28722 28725 28728 28731 28734 28737 28740 28743 28746 28749 28752 28755 28758 28761 28764 28767 28770 28773 28776 28779 28782 28785 28788 28791 28794 28797 28800 28803 28806 28809 28812 28815 28818 28821 28824 28827 28830 28833 28836 28839 28842 28845 28848 28851 28854 28857 28860 28863 28866 28869 28872 28875 28878 28881 28884 28887 28890 28893 28896 28899 28902 28905 28908 28911 28914 28917 28920 28923 28926 28929 28932 28935 28938 28941 28944 28947 28950 28953 28956 28959 28962 28965 28968 28971 28974 28977 28980 28983 28986 28989 28992 28995 28998 29001 29004 29007 29010 29013 29016 29019 29022 29025 29028 29031 29034 29037 29040 29043 29046 29049 29052 29055 29058 29061 29064 29067 29070 29073 29076 29079 29082 29085 29088 29091 29094 29097 29100 29103 29106 29109 29112 29115 29118 29121 29124 29127 29130 29133 29136 29139 29142 29145 29148 29151 29154 29157 29160 29163 29166 29169 29172 29175 29178 29181 29184 29187 29190 29193 29196 29199 29202 29205 29208 29211 29214 29217 29220 29223 29226 29229 29232 29235 29238 29241 29244 29247 29250 29253 29256 29259 29262 29265 29268 29271 29274 29277 29280 29283 29286 29289 29292 29295 29298 29301 29304 29307 29310 29313 29316 29319 29322 29325 29328 29331 29334 29337 29340 29343 29346 29349 29352 29355 29358 29361 29364 29367 29370 29373 29376 29379 29382 29385 29388 29391 29394 29397 29400 29403 29406 29409 29412 29415 29418 29421 29424 29427 29430 29433 29436 29439 29442 29445 29448 29451 29454 29457 29460 29463 29466 29469 29472 29475 29478 29481 29484 29487 29490 29493 29496 29499 29502 29505 29508 29511 29514 29517 29520 29523 29526 29529 29532 29535 29538 29541 29544 29547 29550 29553 29556 29559 29562 29565 29568 29571 29574 29577 29580 29583 29586 29589 29592 29595 29598 29601 29604 29607 29610 29613 29616 29619 29622 29625 29628 29631 29634 29637 29640 29643 29646 29649 29652 29655 29658 29661 29664 29667 29670 29673 29676 29679 29682 29685 29688 29691 29694 29697 29700 29703 29706 29709 29712 29715 29718 29721 29724 29727 29730 29733 29736 29739 29742 29745 29748 29751 29754 29757 29760 29763 29766 29769 29772 29775 29778 29781 29784 29787 29790 29793 29796 29799 29802 29805 29808 29811 29814 29817 29820 29823 29826 29829 29832 29835 29838 29841 29844 29847 29850 29853 29856 29859 29862 29865 29868 29871 29874 29877 29880 29883 29886 29889 29892 29895 29898 29901 29904 29907 29910 29913 29916 29919 29922 29925 29928 29931 29934 29937 29940 29943 29946 29949 29952 29955 29958 29961 29964 29967 29970 29973 29976 29979 29982 29985 29988 29991 29994 29997 30000 30003 30006 30009 30012 30015 30018 30021 30024 30027 30030 30033 30036 30039 30042 30045 30048 30051 30054 30057 30060 30063 30066 30069 30072 30075 30078 30081 30084 30087 30090 30093 30096 30099 30102 30105 30108 30111 30114 30117 30120 30123 30126 30129 30132 30135 30138 30141 30144 30147 30150 30153 30156 30159 30162 30165 30168 30171 30174 30177 30180 30183 30186 30189 30192 30195 30198 30201 30204 30207 30210 30213 30216 30219 30222 30225 30228 30231 30234 30237 30240 30243 30246 30249 30252 30255 30258 30261 30264 30267 30270 30273 30276 30279 30282 30285 30288 30291 30294 30297 30300 30303 30306 30309 30312 30315 30318 30321 30324 30327 30330 30333 30336 30339 30342 30345 30348 30351 30354 30357 30360 30363 30366 30369 30372 30375 30378 30381 30384 30387 30390 30393 30396 30399 30402 30405 30408 30411 30414 30417 30420 30423 30426 30429 30432 30435 30438 30441 30444 30447 30450 30453 30456 30459 30462 30465 30468 30471 30474 30477 30480 30483 30486 30489 30492 30495 30498 30501 30504 30507 30510 30513 30516 30519 30522 30525 30528 30531 30534 30537 30540 30543 30546 30549 30552 30555 30558 30561 30564 30567 30570 30573 30576 30579 30582 30585 30588 30591 30594 30597 30600 30603 30606 30609 30612 30615 30618 30621 30624 30627 30630 30633 30636 30639 30642 30645 30648 30651 30654 30657 30660 30663 30666 30669 30672 30675 30678 30681 30684 30687 30690 30693 30696 30699 30702 30705 30708 30711 30714 30717 30720 30723 30726 30729 30732 30735 30738 30741 30744 30747 30750 30753 30756 30759 30762 30765 30768 30771 30774 30777 30780 30783 30786 30789 30792 30795 30798 30801 30804 30807 30810 30813 30816 30819 30822 30825 30828 30831 30834 30837 30840 30843 30846 30849 30852 30855 30858 30861 30864 30867 30870 30873 30876 30879 30882 30885 30888 30891 30894 30897 30900 30903 30906 30909 30912 30915 30918 30921 30924 30927 30930 30933 30936 30939 30942 30945 30948 30951 30954 30957 30960 30963 30966 30969 30972 30975 30978 30981 30984 30987 30990 30993 30996 30999 31002 31005 31008 31011 31014 31017 31020 31023 31026 31029 31032 31035 31038 31041 31044 31047 31050 31053 31056 31059 31062 31065 31068 31071 31074 31077 31080 31083 31086 31089 31092 31095 31098 31101 31104 31107 31110 31113 31116 31119 31122 31125 31128 31131 31134 31137 31140 31143 31146 31149 31152 31155 31158 31161 31164 31167 31170 31173 31176 31179 31182 31185 31188 31191 31194 31197 31200 31203 31206 31209 31212 31215 31218 31221 31224 31227 31230 31233 31236 31239 31242 31245 31248 31251 31254 31257 31260 31263 31266 31269 31272 31275 31278 31281 31284 31287 31290 31293 31296 31299 31302 31305 31308 31311 31314 31317 31320 31323 31326 31329 31332 31335 31338 31341 31344 31347 31350 31353 31356 31359 31362 31365 31368 31371 31374 31377 31380 31383 31386 31389 31392 31395 31398 31401 31404 31407 31410 31413 31416 31419 31422 31425 31428 31431 31434 31437 31440 31443 31446 31449 31452 31455 31458 31461 31464 31467 31470 31473 31476 31479 31482 31485 31488 31491 31494 31497 31500 31503 31506 31509 31512 31515 31518 31521 31524 31527 31530 31533 31536 31539 31542 31545 31548 31551 31554 31557 31560 31563 31566 31569 31572 31575 31578 31581 31584 31587 31590 31593 31596 31599 31602 31605 31608 31611 31614 31617 31620 31623 31626 31629 31632 31635 31638 31641 31644 31647 31650 31653 31656 31659 31662 31665 31668 31671 31674 31677 31680 31683 31686 31689 31692 31695 31698 31701 31704 31707 31710 31713 31716 31719 31722 31725 31728 31731 31734 31737 31740 31743 31746 31749 31752 31755 31758 31761 31764 31767 31770 31773 31776 31779 31782 31785 31788 31791 31794 31797 31800 31803 31806 31809 31812 31815 31818 31821 31824 31827 31830 31833 31836 31839 31842 31845 31848 31851 31854 31857 31860 31863 31866 31869 31872 31875 31878 31881 31884 31887 31890 31893 31896 31899 31902 31905 31908 31911 31914 31917 31920 31923 31926 31929 31932 31935 31938 31941 31944 31947 31950 31953 31956 31959 31962 31965 31968 31971 31974 31977 31980 31983 31986 31989 31992 31995 31998 32001 32004 32007 32010 32013 32016 32019 32022 32025 32028 32031 32034 32037 32040 32043 32046 32049 32052 32055 32058 32061 32064 32067 32070 32073 32076 32079 32082 32085 32088 32091 32094 32097 32100 32103 32106 32109 32112 32115 32118 32121 32124 32127 32130 32133 32136 32139 32142 32145 32148 32151 32154 32157 32160 32163 32166 32169 32172 32175 32178 32181 32184 32187 32190 32193 32196 32199 32202 32205 32208 32211 32214 32217 32220 32223 32226 32229 32232 32235 32238 32241 32244 32247 32250 32253 32256 32259 32262 32265 32268 32271 32274 32277 32280 32283 32286 32289 32292 32295 32298 32301 32304 32307 32310 32313 32316 32319 32322 32325 32328 32331 32334 32337 32340 32343 32346 32349 32352 32355 32358 32361 32364 32367 32370 32373 32376 32379 32382 32385 32388 32391 32394 32397 32400 32403 32406 32409 32412 32415 32418 32421 32424 32427 32430 32433 32436 32439 32442 32445 32448 32451 32454 32457 32460 32463 32466 32469 32472 32475 32478 32481 32484 32487 32490 32493 32496 32499 32502 32505 32508 32511 32514 32517 32520 32523 32526 32529 32532 32535 32538 32541 32544 32547 32550 32553 32556 32559 32562 32565 32568 32571 32574 32577 32580 32583 32586 32589 32592 32595 32598 32601 32604 32607 32610 32613 32616 32619 32622 32625 32628 32631 32634 32637 32640 32643 32646 32649 32652 32655 32658 32661 32664 32667 32670 32673 32676 32679 32682 32685 32688 32691 32694 32697 32700 32703 32706 32709 32712 32715 32718 32721 32724 32727 32730 32733 32736 32739 32742 32745 32748 32751 32754 32757 32760 32763 32766 32769 32772 32775 32778 32781 32784 32787 32790 32793 32796 32799 32802 32805 32808 32811 32814 32817 32820 32823 32826 32829 32832 32835 32838 32841 32844 32847 32850 32853 32856 32859 32862 32865 32868 32871 32874 32877 32880 32883 32886 32889 32892 32895 32898 32901 32904 32907 32910 32913 32916 32919 32922 32925 32928 32931 32934 32937 32940 32943 32946 32949 32952 32955 32958 32961 32964 32967 32970 32973 32976 32979 32982 32985 32988 32991 32994 32997 33000 33003 33006 33009 33012 33015 33018 33021 33024 33027 33030 33033 33036 33039 33042 33045 33048 33051 33054 33057 33060 33063 33066 33069 33072 33075 33078 33081 33084 33087 33090 33093 33096 33099 33102 33105 33108 33111 33114 33117 33120 33123 33126 33129 33132 33135 33138 33141 33144 33147 33150 33153 33156 33159 33162 33165 33168 33171 33174 33177 33180 33183 33186 33189 33192 33195 33198 33201 33204 33207 33210 33213 33216 33219 33222 33225 33228 33231 33234 33237 33240 33243 33246 33249 33252 33255 33258 33261 33264 33267 33270 33273 33276 33279 33282 33285 33288 33291 33294 33297 33300 33303 33306 33309 33312 33315 33318 33321 33324 33327 33330 33333 33336 33339 33342 33345 33348 33351 33354 33357 33360 33363 33366 33369 33372 33375 33378 33381 33384 33387 33390 33393 33396 33399 33402 33405 33408 33411 33414 33417 33420 33423 33426 33429 33432 33435 33438 33441 33444 33447 33450 33453 33456 33459 33462 33465 33468 33471 33474 33477 33480 33483 33486 33489 33492 33495 33498 33501 33504 33507 33510 33513 33516 33519 33522 33525 33528 33531 33534 33537 33540 33543 33546 33549 33552 33555 33558 33561 33564 33567 33570 33573 33576 33579 33582 33585 33588 33591 33594 33597 33600 33603 33606 33609 33612 33615 33618 33621 33624 33627 33630 33633 33636 33639 33642 33645 33648 33651 33654 33657 33660 33663 33666 33669 33672 33675 33678 33681 33684 33687 33690 33693 33696 33699 33702 33705 33708 33711 33714 33717 33720 33723 33726 33729 33732 33735 33738 33741 33744 33747 33750 33753 33756 33759 33762 33765 33768 33771 33774 33777 33780 33783 33786 33789 33792 33795 33798 33801 33804 33807 33810 33813 33816 33819 33822 33825 33828 33831 33834 33837 33840 33843 33846 33849 33852 33855 33858 33861 33864 33867 33870 33873 33876 33879 33882 33885 33888 33891 33894 33897 33900 33903 33906 33909 33912 33915 33918 33921 33924 33927 33930 33933 33936 33939 33942 33945 33948 33951 33954 33957 33960 33963 33966 33969 33972 33975 33978 33981 33984 33987 33990 33993 33996 33999 34002 34005 34008 34011 34014 34017 34020 34023 34026 34029 34032 34035 34038 34041 34044 34047 34050 34053 34056 34059 34062 34065 34068 34071 34074 34077 34080 34083 34086 34089 34092 34095 34098 34101 34104 34107 34110 34113 34116 34119 34122 34125 34128 34131 34134 34137 34140 34143 34146 34149 34152 34155 34158 34161 34164 34167 34170 34173 34176 34179 34182 34185 34188 34191 34194 34197 34200 34203 34206 34209 34212 34215 34218 34221 34224 34227 34230 34233 34236 34239 34242 34245 34248 34251 34254 34257 34260 34263 34266 34269 34272 34275 34278 34281 34284 34287 34290 34293 34296 34299 34302 34305 34308 34311 34314 34317 34320 34323 34326 34329 34332 34335 34338 34341 34344 34347 34350 34353 34356 34359 34362 34365 34368 34371 34374 34377 34380 34383 34386 34389 34392 34395 34398 34401 34404 34407 34410 34413 34416 34419 34422 34425 34428 34431 34434 34437 34440 34443 34446 34449 34452 34455 34458 34461 34464 34467 34470 34473 34476 34479 34482 34485 34488 34491 34494 34497 34500 34503 34506 34509 34512 34515 34518 34521 34524 34527 34530 34533 34536 34539 34542 34545 34548 34551 34554 34557 34560 34563 34566 34569 34572 34575 34578 34581 34584 34587 34590 34593 34596 34599 34602 34605 34608 34611 34614 34617 34620 34623 34626 34629 34632 34635 34638 34641 34644 34647 34650 34653 34656 34659 34662 34665 34668 34671 34674 34677 34680 34683 34686 34689 34692 34695 34698 34701 34704 34707 34710 34713 34716 34719 34722 34725 34728 34731 34734 34737 34740 34743 34746 34749 34752 34755 34758 34761 34764 34767 34770 34773 34776 34779 34782 34785 34788 34791 34794 34797 34800 34803 34806 34809 34812 34815 34818 34821 34824 34827 34830 34833 34836 34839 34842 34845 34848 34851 34854 34857 34860 34863 34866 34869 34872 34875 34878 34881 34884 34887 34890 34893 34896 34899 34902 34905 34908 34911 34914 34917 34920 34923 34926 34929 34932 34935 34938 34941 34944 34947 34950 34953 34956 34959 34962 34965 34968 34971 34974 34977 34980 34983 34986 34989 34992 34995 34998 35001 35004 35007 35010 35013 35016 35019 35022 35025 35028 35031 35034 35037 35040 35043 35046 35049 35052 35055 35058 35061 35064 35067 35070 35073 35076 35079 35082 35085 35088 35091 35094 35097 35100 35103 35106 35109 35112 35115 35118 35121 35124 35127 35130 35133 35136 35139 35142 35145 35148 35151 35154 35157 35160 35163 35166 35169 35172 35175 35178 35181 35184 35187 35190 35193 35196 35199 35202 35205 35208 35211 35214 35217 35220 35223 35226 35229 35232 35235 35238 35241 35244 35247 35250 35253 35256 35259 35262 35265 35268 35271 35274 35277 35280 35283 35286 35289 35292 35295 35298 35301 35304 35307 35310 35313 35316 35319 35322 35325 35328 35331 35334 35337 35340 35343 35346 35349 35352 35355 35358 35361 35364 35367 35370 35373 35376 35379 35382 35385 35388 35391 35394 35397 35400 35403 35406 35409 35412 35415 35418 35421 35424 35427 35430 35433 35436 35439 35442 35445 35448 35451 35454 35457 35460 35463 35466 35469 35472 35475 35478 35481 35484 35487 35490 35493 35496 35499 35502 35505 35508 35511 35514 35517 35520 35523 35526 35529 35532 35535 35538 35541 35544 35547 35550 35553 35556 35559 35562 35565 35568 35571 35574 35577 35580 35583 35586 35589 35592 35595 35598 35601 35604 35607 35610 35613 35616 35619 35622 35625 35628 35631 35634 35637 35640 35643 35646 35649 35652 35655 35658 35661 35664 35667 35670 35673 35676 35679 35682 35685 35688 35691 35694 35697 35700 35703 35706 35709 35712 35715 35718 35721 35724 35727 35730 35733 35736 35739 35742 35745 35748 35751 35754 35757 35760 35763 35766 35769 35772 35775 35778 35781 35784 35787 35790 35793 35796 35799 35802 35805 35808 35811 35814 35817 35820 35823 35826 35829 35832 35835 35838 35841 35844 35847 35850 35853 35856 35859 35862 35865 35868 35871 35874 35877 35880 35883 35886 35889 35892 35895 35898 35901 35904 35907 35910 35913 35916 35919 35922 35925 35928 35931 35934 35937 35940 35943 35946 35949 35952 35955 35958 35961 35964 35967 35970 35973 35976 35979 35982 35985 35988 35991 35994 35997 36000 36003 36006 36009 36012 36015 36018 36021 36024 36027 36030 36033 36036 36039 36042 36045 36048 36051 36054 36057 36060 36063 36066 36069 36072 36075 36078 36081 36084 36087 36090 36093 36096 36099 36102 36105 36108 36111 36114 36117 36120 36123 36126 36129 36132 36135 36138 36141 36144 36147 36150 36153 36156 36159 36162 36165 36168 36171 36174 36177 36180 36183 36186 36189 36192 36195 36198 36201 36204 36207 36210 36213 36216 36219 36222 36225 36228 36231 36234 36237 36240 36243 36246 36249 36252 36255 36258 36261 36264 36267 36270 36273 36276 36279 36282 36285 36288 36291 36294 36297 36300 36303 36306 36309 36312 36315 36318 36321 36324 36327 36330 36333 36336 36339 36342 36345 36348 36351 36354 36357 36360 36363 36366 36369 36372 36375 36378 36381 36384 36387 36390 36393 36396 36399 36402 36405 36408 36411 36414 36417 36420 36423 36426 36429 36432 36435 36438 36441 36444 36447 36450 36453 36456 36459 36462 36465 36468 36471 36474 36477 36480 36483 36486 36489 36492 36495 36498 36501 36504 36507 36510 36513 36516 36519 36522 36525 36528 36531 36534 36537 36540 36543 36546 36549 36552 36555 36558 36561 36564 36567 36570 36573 36576 36579 36582 36585 36588 36591 36594 36597 36600 36603 36606 36609 36612 36615 36618 36621 36624 36627 36630 36633 36636 36639 36642 36645 36648 36651 36654 36657 36660 36663 36666 36669 36672 36675 36678 36681 36684 36687 36690 36693 36696 36699 36702 36705 36708 36711 36714 36717 36720 36723 36726 36729 36732 36735 36738 36741 36744 36747 36750 36753 36756 36759 36762 36765 36768 36771 36774 36777 36780 36783 36786 36789 36792 36795 36798 36801 36804 36807 36810 36813 36816 36819 36822 36825 36828 36831 36834 36837 36840 36843 36846 36849 36852 36855 36858 36861 36864 36867 36870 36873 36876 36879 36882 36885 36888 36891 36894 36897 36900 36903 36906 36909 36912 36915 36918 36921 36924 36927 36930 36933 36936 36939 36942 36945 36948 36951 36954 36957 36960 36963 36966 36969 36972 36975 36978 36981 36984 36987 36990 36993 36996 36999 37002 37005 37008 37011 37014 37017 37020 37023 37026 37029 37032 37035 37038 37041 37044 37047 37050 37053 37056 37059 37062 37065 37068 37071 37074 37077 37080 37083 37086 37089 37092 37095 37098 37101 37104 37107 37110 37113 37116 37119 37122 37125 37128 37131 37134 37137 37140 37143 37146 37149 37152 37155 37158 37161 37164 37167 37170 37173 37176 37179 37182 37185 37188 37191 37194 37197 37200 37203 37206 37209 37212 37215 37218 37221 37224 37227 37230 37233 37236 37239 37242 37245 37248 37251 37254 37257 37260 37263 37266 37269 37272 37275 37278 37281 37284 37287 37290 37293 37296 37299 37302 37305 37308 37311 37314 37317 37320 37323 37326 37329 37332 37335 37338 37341 37344 37347 37350 37353 37356 37359 37362 37365 37368 37371 37374 37377 37380 37383 37386 37389 37392 37395 37398 37401 37404 37407 37410 37413 37416 37419 37422 37425 37428 37431 37434 37437 37440 37443 37446 37449 37452 37455 37458 37461 37464 37467 37470 37473 37476 37479 37482 37485 37488 37491 37494 37497 37500 37503 37506 37509 37512 37515 37518 37521 37524 37527 37530 37533 37536 37539 37542 37545 37548 37551 37554 37557 37560 37563 37566 37569 37572 37575 37578 37581 37584 37587 37590 37593 37596 37599 37602 37605 37608 37611 37614 37617 37620 37623 37626 37629 37632 37635 37638 37641 37644 37647 37650 37653 37656 37659 37662 37665 37668 37671 37674 37677 37680 37683 37686 37689 37692 37695 37698 37701 37704 37707 37710 37713 37716 37719 37722 37725 37728 37731 37734 37737 37740 37743 37746 37749 37752 37755 37758 37761 37764 37767 37770 37773 37776 37779 37782 37785 37788 37791 37794 37797 37800 37803 37806 37809 37812 37815 37818 37821 37824 37827 37830 37833 37836 37839 37842 37845 37848 37851 37854 37857 37860 37863 37866 37869 37872 37875 37878 37881 37884 37887 37890 37893 37896 37899 37902 37905 37908 37911 37914 37917 37920 37923 37926 37929 37932 37935 37938 37941 37944 37947 37950 37953 37956 37959 37962 37965 37968 37971 37974 37977 37980 37983 37986 37989 37992 37995 37998 38001 38004 38007 38010 38013 38016 38019 38022 38025 38028 38031 38034 38037 38040 38043 38046 38049 38052 38055 38058 38061 38064 38067 38070 38073 38076 38079 38082 38085 38088 38091 38094 38097 38100 38103 38106 38109 38112 38115 38118 38121 38124 38127 38130 38133 38136 38139 38142 38145 38148 38151 38154 38157 38160 38163 38166 38169 38172 38175 38178 38181 38184 38187 38190 38193 38196 38199 38202 38205 38208 38211 38214 38217 38220 38223 38226 38229 38232 38235 38238 38241 38244 38247 38250 38253 38256 38259 38262 38265 38268 38271 38274 38277 38280 38283 38286 38289 38292 38295 38298 38301 38304 38307 38310 38313 38316 38319 38322 38325 38328 38331 38334 38337 38340 38343 38346 38349 38352 38355 38358 38361 38364 38367 38370 38373 38376 38379 38382 38385 38388 38391 38394 38397 38400 38403 38406 38409 38412 38415 38418 38421 38424 38427 38430 38433 38436 38439 38442 38445 38448 38451 38454 38457 38460 38463 38466 38469 38472 38475 38478 38481 38484 38487 38490 38493 38496 38499 38502 38505 38508 38511 38514 38517 38520 38523 38526 38529 38532 38535 38538 38541 38544 38547 38550 38553 38556 38559 38562 38565 38568 38571 38574 38577 38580 38583 38586 38589 38592 38595 38598 38601 38604 38607 38610 38613 38616 38619 38622 38625 38628 38631 38634 38637 38640 38643 38646 38649 38652 38655 38658 38661 38664 38667 38670 38673 38676 38679 38682 38685 38688 38691 38694 38697 38700 38703 38706 38709 38712 38715 38718 38721 38724 38727 38730 38733 38736 38739 38742 38745 38748 38751 38754 38757 38760 38763 38766 38769 38772 38775 38778 38781 38784 38787 38790 38793 38796 38799 38802 38805 38808 38811 38814 38817 38820 38823 38826 38829 38832 38835 38838 38841 38844 38847 38850 38853 38856 38859 38862 38865 38868 38871 38874 38877 38880 38883 38886 38889 38892 38895 38898 38901 38904 38907 38910 38913 38916 38919 38922 38925 38928 38931 38934 38937 38940 38943 38946 38949 38952 38955 38958 38961 38964 38967 38970 38973 38976 38979 38982 38985 38988 38991 38994 38997 39000 39003 39006 39009 39012 39015 39018 39021 39024 39027 39030 39033 39036 39039 39042 39045 39048 39051 39054 39057 39060 39063 39066 39069 39072 39075 39078 39081 39084 39087 39090 39093 39096 39099 39102 39105 39108 39111 39114 39117 39120 39123 39126 39129 39132 39135 39138 39141 39144 39147 39150 39153 39156 39159 39162 39165 39168 39171 39174 39177 39180 39183 39186 39189 39192 39195 39198 39201 39204 39207 39210 39213 39216 39219 39222 39225 39228 39231 39234 39237 39240 39243 39246 39249 39252 39255 39258 39261 39264 39267 39270 39273 39276 39279 39282 39285 39288 39291 39294 39297 39300 39303 39306 39309 39312 39315 39318 39321 39324 39327 39330 39333 39336 39339 39342 39345 39348 39351 39354 39357 39360 39363 39366 39369 39372 39375 39378 39381 39384 39387 39390 39393 39396 39399 39402 39405 39408 39411 39414 39417 39420 39423 39426 39429 39432 39435 39438 39441 39444 39447 39450 39453 39456 39459 39462 39465 39468 39471 39474 39477 39480 39483 39486 39489 39492 39495 39498 39501 39504 39507 39510 39513 39516 39519 39522 39525 39528 39531 39534 39537 39540 39543 39546 39549 39552 39555 39558 39561 39564 39567 39570 39573 39576 39579 39582 39585 39588 39591 39594 39597 39600 39603 39606 39609 39612 39615 39618 39621 39624 39627 39630 39633 39636 39639 39642 39645 39648 39651 39654 39657 39660 39663 39666 39669 39672 39675 39678 39681 39684 39687 39690 39693 39696 39699 39702 39705 39708 39711 39714 39717 39720 39723 39726 39729 39732 39735 39738 39741 39744 39747 39750 39753 39756 39759 39762 39765 39768 39771 39774 39777 39780 39783 39786 39789 39792 39795 39798 39801 39804 39807 39810 39813 39816 39819 39822 39825 39828 39831 39834 39837 39840 39843 39846 39849 39852 39855 39858 39861 39864 39867 39870 39873 39876 39879 39882 39885 39888 39891 39894 39897 39900 39903 39906 39909 39912 39915 39918 39921 39924 39927 39930 39933 39936 39939 39942 39945 39948 39951 39954 39957 39960 39963 39966 39969 39972 39975 39978 39981 39984 39987 39990 39993 39996 39999 40002 40005 40008 40011 40014 40017 40020 40023 40026 40029 40032 40035 40038 40041 40044 40047 40050 40053 40056 40059 40062 40065 40068 40071 40074 40077 40080 40083 40086 40089 40092 40095 40098 40101 40104 40107 40110 40113 40116 40119 40122 40125 40128 40131 40134 40137 40140 40143 40146 40149 40152 40155 40158 40161 40164 40167 40170 40173 40176 40179 40182 40185 40188 40191 40194 40197 40200 40203 40206 40209 40212 40215 40218 40221 40224 40227 40230 40233 40236 40239 40242 40245 40248 40251 40254 40257 40260 40263 40266 40269 40272 40275 40278 40281 40284 40287 40290 40293 40296 40299 40302 40305 40308 40311 40314 40317 40320 40323 40326 40329 40332 40335 40338 40341 40344 40347 40350 40353 40356 40359 40362 40365 40368 40371 40374 40377 40380 40383 40386 40389 40392 40395 40398 40401 40404 40407 40410 40413 40416 40419 40422 40425 40428 40431 40434 40437 40440 40443 40446 40449 40452 40455 40458 40461 40464 40467 40470 40473 40476 40479 40482 40485 40488 40491 40494 40497 40500 40503 40506 40509 40512 40515 40518 40521 40524 40527 40530 40533 40536 40539 40542 40545 40548 40551 40554 40557 40560 40563 40566 40569 40572 40575 40578 40581 40584 40587 40590 40593 40596 40599 40602 40605 40608 40611 40614 40617 40620 40623 40626 40629 40632 40635 40638 40641 40644 40647 40650 40653 40656 40659 40662 40665 40668 40671 40674 40677 40680 40683 40686 40689 40692 40695 40698 40701 40704 40707 40710 40713 40716 40719 40722 40725 40728 40731 40734 40737 40740 40743 40746 40749 40752 40755 40758 40761 40764 40767 40770 40773 40776 40779 40782 40785 40788 40791 40794 40797 40800 40803 40806 40809 40812 40815 40818 40821 40824 40827 40830 40833 40836 40839 40842 40845 40848 40851 40854 40857 40860 40863 40866 40869 40872 40875 40878 40881 40884 40887 40890 40893 40896 40899 40902 40905 40908 40911 40914 40917 40920 40923 40926 40929 40932 40935 40938 40941 40944 40947 40950 40953 40956 40959 40962 40965 40968 40971 40974 40977 40980 40983 40986 40989 40992 40995 40998 41001 41004 41007 41010 41013 41016 41019 41022 41025 41028 41031 41034 41037 41040 41043 41046 41049 41052 41055 41058 41061 41064 41067 41070 41073 41076 41079 41082 41085 41088 41091 41094 41097 41100 41103 41106 41109 41112 41115 41118 41121 41124 41127 41130 41133 41136 41139 41142 41145 41148 41151 41154 41157 41160 41163 41166 41169 41172 41175 41178 41181 41184 41187 41190 41193 41196 41199 41202 41205 41208 41211 41214 41217 41220 41223 41226 41229 41232 41235 41238 41241 41244 41247 41250 41253 41256 41259 41262 41265 41268 41271 41274 41277 41280 41283 41286 41289 41292 41295 41298 41301 41304 41307 41310 41313 41316 41319 41322 41325 41328 41331 41334 41337 41340 41343 41346 41349 41352 41355 41358 41361 41364 41367 41370 41373 41376 41379 41382 41385 41388 41391 41394 41397 41400 41403 41406 41409 41412 41415 41418 41421 41424 41427 41430 41433 41436 41439 41442 41445 41448 41451 41454 41457 41460 41463 41466 41469 41472 41475 41478 41481 41484 41487 41490 41493 41496 41499 41502 41505 41508 41511 41514 41517 41520 41523 41526 41529 41532 41535 41538 41541 41544 41547 41550 41553 41556 41559 41562 41565 41568 41571 41574 41577 41580 41583 41586 41589 41592 41595 41598 41601 41604 41607 41610 41613 41616 41619 41622 41625 41628 41631 41634 41637 41640 41643 41646 41649 41652 41655 41658 41661 41664 41667 41670 41673 41676 41679 41682 41685 41688 41691 41694 41697 41700 41703 41706 41709 41712 41715 41718 41721 41724 41727 41730 41733 41736 41739 41742 41745 41748 41751 41754 41757 41760 41763 41766 41769 41772 41775 41778 41781 41784 41787 41790 41793 41796 41799 41802 41805 41808 41811 41814 41817 41820 41823 41826 41829 41832 41835 41838 41841 41844 41847 41850 41853 41856 41859 41862 41865 41868 41871 41874 41877 41880 41883 41886 41889 41892 41895 41898 41901 41904 41907 41910 41913 41916 41919 41922 41925 41928 41931 41934 41937 41940 41943 41946 41949 41952 41955 41958 41961 41964 41967 41970 41973 41976 41979 41982 41985 41988 41991 41994 41997 42000 42003 42006 42009 42012 42015 42018 42021 42024 42027 42030 42033 42036 42039 42042 42045 42048 42051 42054 42057 42060 42063 42066 42069 42072 42075 42078 42081 42084 42087 42090 42093 42096 42099 42102 42105 42108 42111 42114 42117 42120 42123 42126 42129 42132 42135 42138 42141 42144 42147 42150 42153 42156 42159 42162 42165 42168 42171 42174 42177 42180 42183 42186 42189 42192 42195 42198 42201 42204 42207 42210 42213 42216 42219 42222 42225 42228 42231 42234 42237 42240 42243 42246 42249 42252 42255 42258 42261 42264 42267 42270 42273 42276 42279 42282 42285 42288 42291 42294 42297 42300 42303 42306 42309 42312 42315 42318 42321 42324 42327 42330 42333 42336 42339 42342 42345 42348 42351 42354 42357 42360 42363 42366 42369 42372 42375 42378 42381 42384 42387 42390 42393 42396 42399 42402 42405 42408 42411 42414 42417 42420 42423 42426 42429 42432 42435 42438 42441 42444 42447 42450 42453 42456 42459 42462 42465 42468 42471 42474 42477 42480 42483 42486 42489 42492 42495 42498 42501 42504 42507 42510 42513 42516 42519 42522 42525 42528 42531 42534 42537 42540 42543 42546 42549 42552 42555 42558 42561 42564 42567 42570 42573 42576 42579 42582 42585 42588 42591 42594 42597 42600 42603 42606 42609 42612 42615 42618 42621 42624 42627 42630 42633 42636 42639 42642 42645 42648 42651 42654 42657 42660 42663 42666 42669 42672 42675 42678 42681 42684 42687 42690 42693 42696 42699 42702 42705 42708 42711 42714 42717 42720 42723 42726 42729 42732 42735 42738 42741 42744 42747 42750 42753 42756 42759 42762 42765 42768 42771 42774 42777 42780 42783 42786 42789 42792 42795 42798 42801 42804 42807 42810 42813 42816 42819 42822 42825 42828 42831 42834 42837 42840 42843 42846 42849 42852 42855 42858 42861 42864 42867 42870 42873 42876 42879 42882 42885 42888 42891 42894 42897 42900 42903 42906 42909 42912 42915 42918 42921 42924 42927 42930 42933 42936 42939 42942 42945 42948 42951 42954 42957 42960 42963 42966 42969 42972 42975 42978 42981 42984 42987 42990 42993 42996 42999 43002 43005 43008 43011 43014 43017 43020 43023 43026 43029 43032 43035 43038 43041 43044 43047 43050 43053 43056 43059 43062 43065 43068 43071 43074 43077 43080 43083 43086 43089 43092 43095 43098 43101 43104 43107 43110 43113 43116 43119 43122 43125 43128 43131 43134 43137 43140 43143 43146 43149 43152 43155 43158 43161 43164 43167 43170 43173 43176 43179 43182 43185 43188 43191 43194 43197 43200 43203 43206 43209 43212 43215 43218 43221 43224 43227 43230 43233 43236 43239 43242 43245 43248 43251 43254 43257 43260 43263 43266 43269 43272 43275 43278 43281 43284 43287 43290 43293 43296 43299 43302 43305 43308 43311 43314 43317 43320 43323 43326 43329 43332 43335 43338 43341 43344 43347 43350 43353 43356 43359 43362 43365 43368 43371 43374 43377 43380 43383 43386 43389 43392 43395 43398 43401 43404 43407 43410 43413 43416 43419 43422 43425 43428 43431 43434 43437 43440 43443 43446 43449 43452 43455 43458 43461 43464 43467 43470 43473 43476 43479 43482 43485 43488 43491 43494 43497 43500 43503 43506 43509 43512 43515 43518 43521 43524 43527 43530 43533 43536 43539 43542 43545 43548 43551 43554 43557 43560 43563 43566 43569 43572 43575 43578 43581 43584 43587 43590 43593 43596 43599 43602 43605 43608 43611 43614 43617 43620 43623 43626 43629 43632 43635 43638 43641 43644 43647 43650 43653 43656 43659 43662 43665 43668 43671 43674 43677 43680 43683 43686 43689 43692 43695 43698 43701 43704 43707 43710 43713 43716 43719 43722 43725 43728 43731 43734 43737 43740 43743 43746 43749 43752 43755 43758 43761 43764 43767 43770 43773 43776 43779 43782 43785 43788 43791 43794 43797 43800 43803 43806 43809 43812 43815 43818 43821 43824 43827 43830 43833 43836 43839 43842 43845 43848 43851 43854 43857 43860 43863 43866 43869 43872 43875 43878 43881 43884 43887 43890 43893 43896 43899 43902 43905 43908 43911 43914 43917 43920 43923 43926 43929 43932 43935 43938 43941 43944 43947 43950 43953 43956 43959 43962 43965 43968 43971 43974 43977 43980 43983 43986 43989 43992 43995 43998 44001 44004 44007 44010 44013 44016 44019 44022 44025 44028 44031 44034 44037 44040 44043 44046 44049 44052 44055 44058 44061 44064 44067 44070 44073 44076 44079 44082 44085 44088 44091 44094 44097 44100 44103 44106 44109 44112 44115 44118 44121 44124 44127 44130 44133 44136 44139 44142 44145 44148 44151 44154 44157 44160 44163 44166 44169 44172 44175 44178 44181 44184 44187 44190 44193 44196 44199 44202 44205 44208 44211 44214 44217 44220 44223 44226 44229 44232 44235 44238 44241 44244 44247 44250 44253 44256 44259 44262 44265 44268 44271 44274 44277 44280 44283 44286 44289 44292 44295 44298 44301 44304 44307 44310 44313 44316 44319 44322 44325 44328 44331 44334 44337 44340 44343 44346 44349 44352 44355 44358 44361 44364 44367 44370 44373 44376 44379 44382 44385 44388 44391 44394 44397 44400 44403 44406 44409 44412 44415 44418 44421 44424 44427 44430 44433 44436 44439 44442 44445 44448 44451 44454 44457 44460 44463 44466 44469 44472 44475 44478 44481 44484 44487 44490 44493 44496 44499 44502 44505 44508 44511 44514 44517 44520 44523 44526 44529 44532 44535 44538 44541 44544 44547 44550 44553 44556 44559 44562 44565 44568 44571 44574 44577 44580 44583 44586 44589 44592 44595 44598 44601 44604 44607 44610 44613 44616 44619 44622 44625 44628 44631 44634 44637 44640 44643 44646 44649 44652 44655 44658 44661 44664 44667 44670 44673 44676 44679 44682 44685 44688 44691 44694 44697 44700 44703 44706 44709 44712 44715 44718 44721 44724 44727 44730 44733 44736 44739 44742 44745 44748 44751 44754 44757 44760 44763 44766 44769 44772 44775 44778 44781 44784 44787 44790 44793 44796 44799 44802 44805 44808 44811 44814 44817 44820 44823 44826 44829 44832 44835 44838 44841 44844 44847 44850 44853 44856 44859 44862 44865 44868 44871 44874 44877 44880 44883 44886 44889 44892 44895 44898 44901 44904 44907 44910 44913 44916 44919 44922 44925 44928 44931 44934 44937 44940 44943 44946 44949 44952 44955 44958 44961 44964 44967 44970 44973 44976 44979 44982 44985 44988 44991 44994 44997 45000 45003 45006 45009 45012 45015 45018 45021 45024 45027 45030 45033 45036 45039 45042 45045 45048 45051 45054 45057 45060 45063 45066 45069 45072 45075 45078 45081 45084 45087 45090 45093 45096 45099 45102 45105 45108 45111 45114 45117 45120 45123 45126 45129 45132 45135 45138 45141 45144 45147 45150 45153 45156 45159 45162 45165 45168 45171 45174 45177 45180 45183 45186 45189 45192 45195 45198 45201 45204 45207 45210 45213 45216 45219 45222 45225 45228 45231 45234 45237 45240 45243 45246 45249 45252 45255 45258 45261 45264 45267 45270 45273 45276 45279 45282 45285 45288 45291 45294 45297 45300 45303 45306 45309 45312 45315 45318 45321 45324 45327 45330 45333 45336 45339 45342 45345 45348 45351 45354 45357 45360 45363 45366 45369 45372 45375 45378 45381 45384 45387 45390 45393 45396 45399 45402 45405 45408 45411 45414 45417 45420 45423 45426 45429 45432 45435 45438 45441 45444 45447 45450 45453 45456 45459 45462 45465 45468 45471 45474 45477 45480 45483 45486 45489 45492 45495 45498 45501 45504 45507 45510 45513 45516 45519 45522 45525 45528 45531 45534 45537 45540 45543 45546 45549 45552 45555 45558 45561 45564 45567 45570 45573 45576 45579 45582 45585 45588 45591 45594 45597 45600 45603 45606 45609 45612 45615 45618 45621 45624 45627 45630 45633 45636 45639 45642 45645 45648 45651 45654 45657 45660 45663 45666 45669 45672 45675 45678 45681 45684 45687 45690 45693 45696 45699 45702 45705 45708 45711 45714 45717 45720 45723 45726 45729 45732 45735 45738 45741 45744 45747 45750 45753 45756 45759 45762 45765 45768 45771 45774 45777 45780 45783 45786 45789 45792 45795 45798 45801 45804 45807 45810 45813 45816 45819 45822 45825 45828 45831 45834 45837 45840 45843 45846 45849 45852 45855 45858 45861 45864 45867 45870 45873 45876 45879 45882 45885 45888 45891 45894 45897 45900 45903 45906 45909 45912 45915 45918 45921 45924 45927 45930 45933 45936 45939 45942 45945 45948 45951 45954 45957 45960 45963 45966 45969 45972 45975 45978 45981 45984 45987 45990 45993 45996 45999 46002 46005 46008 46011 46014 46017 46020 46023 46026 46029 46032 46035 46038 46041 46044 46047 46050 46053 46056 46059 46062 46065 46068 46071 46074 46077 46080 46083 46086 46089 46092 46095 46098 46101 46104 46107 46110 46113 46116 46119 46122 46125 46128 46131 46134 46137 46140 46143 46146 46149 46152 46155 46158 46161 46164 46167 46170 46173 46176 46179 46182 46185 46188 46191 46194 46197 46200 46203 46206 46209 46212 46215 46218 46221 46224 46227 46230 46233 46236 46239 46242 46245 46248 46251 46254 46257 46260 46263 46266 46269 46272 46275 46278 46281 46284 46287 46290 46293 46296 46299 46302 46305 46308 46311 46314 46317 46320 46323 46326 46329 46332 46335 46338 46341 46344 46347 46350 46353 46356 46359 46362 46365 46368 46371 46374 46377 46380 46383 46386 46389 46392 46395 46398 46401 46404 46407 46410 46413 46416 46419 46422 46425 46428 46431 46434 46437 46440 46443 46446 46449 46452 46455 46458 46461 46464 46467 46470 46473 46476 46479 46482 46485 46488 46491 46494 46497 46500 46503 46506 46509 46512 46515 46518 46521 46524 46527 46530 46533 46536 46539 46542 46545 46548 46551 46554 46557 46560 46563 46566 46569 46572 46575 46578 46581 46584 46587 46590 46593 46596 46599 46602 46605 46608 46611 46614 46617 46620 46623 46626 46629 46632 46635 46638 46641 46644 46647 46650 46653 46656 46659 46662 46665 46668 46671 46674 46677 46680 46683 46686 46689 46692 46695 46698 46701 46704 46707 46710 46713 46716 46719 46722 46725 46728 46731 46734 46737 46740 46743 46746 46749 46752 46755 46758 46761 46764 46767 46770 46773 46776 46779 46782 46785 46788 46791 46794 46797 46800 46803 46806 46809 46812 46815 46818 46821 46824 46827 46830 46833 46836 46839 46842 46845 46848 46851 46854 46857 46860 46863 46866 46869 46872 46875 46878 46881 46884 46887 46890 46893 46896 46899 46902 46905 46908 46911 46914 46917 46920 46923 46926 46929 46932 46935 46938 46941 46944 46947 46950 46953 46956 46959 46962 46965 46968 46971 46974 46977 46980 46983 46986 46989 46992 46995 46998 47001 47004 47007 47010 47013 47016 47019 47022 47025 47028 47031 47034 47037 47040 47043 47046 47049 47052 47055 47058 47061 47064 47067 47070 47073 47076 47079 47082 47085 47088 47091 47094 47097 47100 47103 47106 47109 47112 47115 47118 47121 47124 47127 47130 47133 47136 47139 47142 47145 47148 47151 47154 47157 47160 47163 47166 47169 47172 47175 47178 47181 47184 47187 47190 47193 47196 47199 47202 47205 47208 47211 47214 47217 47220 47223 47226 47229 47232 47235 47238 47241 47244 47247 47250 47253 47256 47259 47262 47265 47268 47271 47274 47277 47280 47283 47286 47289 47292 47295 47298 47301 47304 47307 47310 47313 47316 47319 47322 47325 47328 47331 47334 47337 47340 47343 47346 47349 47352 47355 47358 47361 47364 47367 47370 47373 47376 47379 47382 47385 47388 47391 47394 47397 47400 47403 47406 47409 47412 47415 47418 47421 47424 47427 47430 47433 47436 47439 47442 47445 47448 47451 47454 47457 47460 47463 47466 47469 47472 47475 47478 47481 47484 47487 47490 47493 47496 47499 47502 47505 47508 47511 47514 47517 47520 47523 47526 47529 47532 47535 47538 47541 47544 47547 47550 47553 47556 47559 47562 47565 47568 47571 47574 47577 47580 47583 47586 47589 47592 47595 47598 47601 47604 47607 47610 47613 47616 47619 47622 47625 47628 47631 47634 47637 47640 47643 47646 47649 47652 47655 47658 47661 47664 47667 47670 47673 47676 47679 47682 47685 47688 47691 47694 47697 47700 47703 47706 47709 47712 47715 47718 47721 47724 47727 47730 47733 47736 47739 47742 47745 47748 47751 47754 47757 47760 47763 47766 47769 47772 47775 47778 47781 47784 47787 47790 47793 47796 47799 47802 47805 47808 47811 47814 47817 47820 47823 47826 47829 47832 47835 47838 47841 47844 47847 47850 47853 47856 47859 47862 47865 47868 47871 47874 47877 47880 47883 47886 47889 47892 47895 47898 47901 47904 47907 47910 47913 47916 47919 47922 47925 47928 47931 47934 47937 47940 47943 47946 47949 47952 47955 47958 47961 47964 47967 47970 47973 47976 47979 47982 47985 47988 47991 47994 47997 48000 48003 48006 48009 48012 48015 48018 48021 48024 48027 48030 48033 48036 48039 48042 48045 48048 48051 48054 48057 48060 48063 48066 48069 48072 48075 48078 48081 48084 48087 48090 48093 48096 48099 48102 48105 48108 48111 48114 48117 48120 48123 48126 48129 48132 48135 48138 48141 48144 48147 48150 48153 48156 48159 48162 48165 48168 48171 48174 48177 48180 48183 48186 48189 48192 48195 48198 48201 48204 48207 48210 48213 48216 48219 48222 48225 48228 48231 48234 48237 48240 48243 48246 48249 48252 48255 48258 48261 48264 48267 48270 48273 48276 48279 48282 48285 48288 48291 48294 48297 48300 48303 48306 48309 48312 48315 48318 48321 48324 48327 48330 48333 48336 48339 48342 48345 48348 48351 48354 48357 48360 48363 48366 48369 48372 48375 48378 48381 48384 48387 48390 48393 48396 48399 48402 48405 48408 48411 48414 48417 48420 48423 48426 48429 48432 48435 48438 48441 48444 48447 48450 48453 48456 48459 48462 48465 48468 48471 48474 48477 48480 48483 48486 48489 48492 48495 48498 48501 48504 48507 48510 48513 48516 48519 48522 48525 48528 48531 48534 48537 48540 48543 48546 48549 48552 48555 48558 48561 48564 48567 48570 48573 48576 48579 48582 48585 48588 48591 48594 48597 48600 48603 48606 48609 48612 48615 48618 48621 48624 48627 48630 48633 48636 48639 48642 48645 48648 48651 48654 48657 48660 48663 48666 48669 48672 48675 48678 48681 48684 48687 48690 48693 48696 48699 48702 48705 48708 48711 48714 48717 48720 48723 48726 48729 48732 48735 48738 48741 48744 48747 48750 48753 48756 48759 48762 48765 48768 48771 48774 48777 48780 48783 48786 48789 48792 48795 48798 48801 48804 48807 48810 48813 48816 48819 48822 48825 48828 48831 48834 48837 48840 48843 48846 48849 48852 48855 48858 48861 48864 48867 48870 48873 48876 48879 48882 48885 48888 48891 48894 48897 48900 48903 48906 48909 48912 48915 48918 48921 48924 48927 48930 48933 48936 48939 48942 48945 48948 48951 48954 48957 48960 48963 48966 48969 48972 48975 48978 48981 48984 48987 48990 48993 48996 48999 49002 49005 49008 49011 49014 49017 49020 49023 49026 49029 49032 49035 49038 49041 49044 49047 49050 49053 49056 49059 49062 49065 49068 49071 49074 49077 49080 49083 49086 49089 49092 49095 49098 49101 49104 49107 49110 49113 49116 49119 49122 49125 49128 49131 49134 49137 49140 49143 49146 49149 49152 49155 49158 49161 49164 49167 49170 49173 49176 49179 49182 49185 49188 49191 49194 49197 49200 49203 49206 49209 49212 49215 49218 49221 49224 49227 49230 49233 49236 49239 49242 49245 49248 49251 49254 49257 49260 49263 49266 49269 49272 49275 49278 49281 49284 49287 49290 49293 49296 49299 49302 49305 49308 49311 49314 49317 49320 49323 49326 49329 49332 49335 49338 49341 49344 49347 49350 49353 49356 49359 49362 49365 49368 49371 49374 49377 49380 49383 49386 49389 49392 49395 49398 49401 49404 49407 49410 49413 49416 49419 49422 49425 49428 49431 49434 49437 49440 49443 49446 49449 49452 49455 49458 49461 49464 49467 49470 49473 49476 49479 49482 49485 49488 49491 49494 49497 49500 49503 49506 49509 49512 49515 49518 49521 49524 49527 49530 49533 49536 49539 49542 49545 49548 49551 49554 49557 49560 49563 49566 49569 49572 49575 49578 49581 49584 49587 49590 49593 49596 49599 49602 49605 49608 49611 49614 49617 49620 49623 49626 49629 49632 49635 49638 49641 49644 49647 49650 49653 49656 49659 49662 49665 49668 49671 49674 49677 49680 49683 49686 49689 49692 49695 49698 49701 49704 49707 49710 49713 49716 49719 49722 49725 49728 49731 49734 49737 49740 49743 49746 49749 49752 49755 49758 49761 49764 49767 49770 49773 49776 49779 49782 49785 49788 49791 49794 49797 49800 49803 49806 49809 49812 49815 49818 49821 49824 49827 49830 49833 49836 49839 49842 49845 49848 49851 49854 49857 49860 49863 49866 49869 49872 49875 49878 49881 49884 49887 49890 49893 49896 49899 49902 49905 49908 49911 49914 49917 49920 49923 49926 49929 49932 49935 49938 49941 49944 49947 49950 49953 49956 49959 49962 49965 49968 49971 49974 49977 49980 49983 49986 49989 49992 49995 49998 50001 50004 50007 50010 50013 50016 50019 50022 50025 50028 50031 50034 50037 50040 50043 50046 50049 50052 50055 50058 50061 50064 50067 50070 50073 50076 50079 50082 50085 50088 50091 50094 50097 50100 50103 50106 50109 50112 50115 50118 50121 50124 50127 50130 50133 50136 50139 50142 50145 50148 50151 50154 50157 50160 50163 50166 50169 50172 50175 50178 50181 50184 50187 50190 50193 50196 50199 50202 50205 50208 50211 50214 50217 50220 50223 50226 50229 50232 50235 50238 50241 50244 50247 50250 50253 50256 50259 50262 50265 50268 50271 50274 50277 50280 50283 50286 50289 50292 50295 50298 50301 50304 50307 50310 50313 50316 50319 50322 50325 50328 50331 50334 50337 50340 50343 50346 50349 50352 50355 50358 50361 50364 50367 50370 50373 50376 50379 50382 50385 50388 50391 50394 50397 50400 50403 50406 50409 50412 50415 50418 50421 50424 50427 50430 50433 50436 50439 50442 50445 50448 50451 50454 50457 50460 50463 50466 50469 50472 50475 50478 50481 50484 50487 50490 50493 50496 50499 50502 50505 50508 50511 50514 50517 50520 50523 50526 50529 50532 50535 50538 50541 50544 50547 50550 50553 50556 50559 50562 50565 50568 50571 50574 50577 50580 50583 50586 50589 50592 50595 50598 50601 50604 50607 50610 50613 50616 50619 50622 50625 50628 50631 50634 50637 50640 50643 50646 50649 50652 50655 50658 50661 50664 50667 50670 50673 50676 50679 50682 50685 50688 50691 50694 50697 50700 50703 50706 50709 50712 50715 50718 50721 50724 50727 50730 50733 50736 50739 50742 50745 50748 50751 50754 50757 50760 50763 50766 50769 50772 50775 50778 50781 50784 50787 50790 50793 50796 50799 50802 50805 50808 50811 50814 50817 50820 50823 50826 50829 50832 50835 50838 50841 50844 50847 50850 50853 50856 50859 50862 50865 50868 50871 50874 50877 50880 50883 50886 50889 50892 50895 50898 50901 50904 50907 50910 50913 50916 50919 50922 50925 50928 50931 50934 50937 50940 50943 50946 50949 50952 50955 50958 50961 50964 50967 50970 50973 50976 50979 50982 50985 50988 50991 50994 50997 51000 51003 51006 51009 51012 51015 51018 51021 51024 51027 51030 51033 51036 51039 51042 51045 51048 51051 51054 51057 51060 51063 51066 51069 51072 51075 51078 51081 51084 51087 51090 51093 51096 51099 51102 51105 51108 51111 51114 51117 51120 51123 51126 51129 51132 51135 51138 51141 51144 51147 51150 51153 51156 51159 51162 51165 51168 51171 51174 51177 51180 51183 51186 51189 51192 51195 51198 51201 51204 51207 51210 51213 51216 51219 51222 51225 51228 51231 51234 51237 51240 51243 51246 51249 51252 51255 51258 51261 51264 51267 51270 51273 51276 51279 51282 51285 51288 51291 51294 51297 51300 51303 51306 51309 51312 51315 51318 51321 51324 51327 51330 51333 51336 51339 51342 51345 51348 51351 51354 51357 51360 51363 51366 51369 51372 51375 51378 51381 51384 51387 51390 51393 51396 51399 51402 51405 51408 51411 51414 51417 51420 51423 51426 51429 51432 51435 51438 51441 51444 51447 51450 51453 51456 51459 51462 51465 51468 51471 51474 51477 51480 51483 51486 51489 51492 51495 51498 51501 51504 51507 51510 51513 51516 51519 51522 51525 51528 51531 51534 51537 51540 51543 51546 51549 51552 51555 51558 51561 51564 51567 51570 51573 51576 51579 51582 51585 51588 51591 51594 51597 51600 51603 51606 51609 51612 51615 51618 51621 51624 51627 51630 51633 51636 51639 51642 51645 51648 51651 51654 51657 51660 51663 51666 51669 51672 51675 51678 51681 51684 51687 51690 51693 51696 51699 51702 51705 51708 51711 51714 51717 51720 51723 51726 51729 51732 51735 51738 51741 51744 51747 51750 51753 51756 51759 51762 51765 51768 51771 51774 51777 51780 51783 51786 51789 51792 51795 51798 51801 51804 51807 51810 51813 51816 51819 51822 51825 51828 51831 51834 51837 51840 51843 51846 51849 51852 51855 51858 51861 51864 51867 51870 51873 51876 51879 51882 51885 51888 51891 51894 51897 51900 51903 51906 51909 51912 51915 51918 51921 51924 51927 51930 51933 51936 51939 51942 51945 51948 51951 51954 51957 51960 51963 51966 51969 51972 51975 51978 51981 51984 51987 51990 51993 51996 51999 52002 52005 52008 52011 52014 52017 52020 52023 52026 52029 52032 52035 52038 52041 52044 52047 52050 52053 52056 52059 52062 52065 52068 52071 52074 52077 52080 52083 52086 52089 52092 52095 52098 52101 52104 52107 52110 52113 52116 52119 52122 52125 52128 52131 52134 52137 52140 52143 52146 52149 52152 52155 52158 52161 52164 52167 52170 52173 52176 52179 52182 52185 52188 52191 52194 52197 52200 52203 52206 52209 52212 52215 52218 52221 52224 52227 52230 52233 52236 52239 52242 52245 52248 52251 52254 52257 52260 52263 52266 52269 52272 52275 52278 52281 52284 52287 52290 52293 52296 52299 52302 52305 52308 52311 52314 52317 52320 52323 52326 52329 52332 52335 52338 52341 52344 52347 52350 52353 52356 52359 52362 52365 52368 52371 52374 52377 52380 52383 52386 52389 52392 52395 52398 52401 52404 52407 52410 52413 52416 52419 52422 52425 52428 52431 52434 52437 52440 52443 52446 52449 52452 52455 52458 52461 52464 52467 52470 52473 52476 52479 52482 52485 52488 52491 52494 52497 52500 52503 52506 52509 52512 52515 52518 52521 52524 52527 52530 52533 52536 52539 52542 52545 52548 52551 52554 52557 52560 52563 52566 52569 52572 52575 52578 52581 52584 52587 52590 52593 52596 52599 52602 52605 52608 52611 52614 52617 52620 52623 52626 52629 52632 52635 52638 52641 52644 52647 52650 52653 52656 52659 52662 52665 52668 52671 52674 52677 52680 52683 52686 52689 52692 52695 52698 52701 52704 52707 52710 52713 52716 52719 52722 52725 52728 52731 52734 52737 52740 52743 52746 52749 52752 52755 52758 52761 52764 52767 52770 52773 52776 52779 52782 52785 52788 52791 52794 52797 52800 52803 52806 52809 52812 52815 52818 52821 52824 52827 52830 52833 52836 52839 52842 52845 52848 52851 52854 52857 52860 52863 52866 52869 52872 52875 52878 52881 52884 52887 52890 52893 52896 52899 52902 52905 52908 52911 52914 52917 52920 52923 52926 52929 52932 52935 52938 52941 52944 52947 52950 52953 52956 52959 52962 52965 52968 52971 52974 52977 52980 52983 52986 52989 52992 52995 52998 53001 53004 53007 53010 53013 53016 53019 53022 53025 53028 53031 53034 53037 53040 53043 53046 53049 53052 53055 53058 53061 53064 53067 53070 53073 53076 53079 53082 53085 53088 53091 53094 53097 53100 53103 53106 53109 53112 53115 53118 53121 53124 53127 53130 53133 53136 53139 53142 53145 53148 53151 53154 53157 53160 53163 53166 53169 53172 53175 53178 53181 53184 53187 53190 53193 53196 53199 53202 53205 53208 53211 53214 53217 53220 53223 53226 53229 53232 53235 53238 53241 53244 53247 53250 53253 53256 53259 53262 53265 53268 53271 53274 53277 53280 53283 53286 53289 53292 53295 53298 53301 53304 53307 53310 53313 53316 53319 53322 53325 53328 53331 53334 53337 53340 53343 53346 53349 53352 53355 53358 53361 53364 53367 53370 53373 53376 53379 53382 53385 53388 53391 53394 53397 53400 53403 53406 53409 53412 53415 53418 53421 53424 53427 53430 53433 53436 53439 53442 53445 53448 53451 53454 53457 53460 53463 53466 53469 53472 53475 53478 53481 53484 53487 53490 53493 53496 53499 53502 53505 53508 53511 53514 53517 53520 53523 53526 53529 53532 53535 53538 53541 53544 53547 53550 53553 53556 53559 53562 53565 53568 53571 53574 53577 53580 53583 53586 53589 53592 53595 53598 53601 53604 53607 53610 53613 53616 53619 53622 53625 53628 53631 53634 53637 53640 53643 53646 53649 53652 53655 53658 53661 53664 53667 53670 53673 53676 53679 53682 53685 53688 53691 53694 53697 53700 53703 53706 53709 53712 53715 53718 53721 53724 53727 53730 53733 53736 53739 53742 53745 53748 53751 53754 53757 53760 53763 53766 53769 53772 53775 53778 53781 53784 53787 53790 53793 53796 53799 53802 53805 53808 53811 53814 53817 53820 53823 53826 53829 53832 53835 53838 53841 53844 53847 53850 53853 53856 53859 53862 53865 53868 53871 53874 53877 53880 53883 53886 53889 53892 53895 53898 53901 53904 53907 53910 53913 53916 53919 53922 53925 53928 53931 53934 53937 53940 53943 53946 53949 53952 53955 53958 53961 53964 53967 53970 53973 53976 53979 53982 53985 53988 53991 53994 53997 54000 54003 54006 54009 54012 54015 54018 54021 54024 54027 54030 54033 54036 54039 54042 54045 54048 54051 54054 54057 54060 54063 54066 54069 54072 54075 54078 54081 54084 54087 54090 54093 54096 54099 54102 54105 54108 54111 54114 54117 54120 54123 54126 54129 54132 54135 54138 54141 54144 54147 54150 54153 54156 54159 54162 54165 54168 54171 54174 54177 54180 54183 54186 54189 54192 54195 54198 54201 54204 54207 54210 54213 54216 54219 54222 54225 54228 54231 54234 54237 54240 54243 54246 54249 54252 54255 54258 54261 54264 54267 54270 54273 54276 54279 54282 54285 54288 54291 54294 54297 54300 54303 54306 54309 54312 54315 54318 54321 54324 54327 54330 54333 54336 54339 54342 54345 54348 54351 54354 54357 54360 54363 54366 54369 54372 54375 54378 54381 54384 54387 54390 54393 54396 54399 54402 54405 54408 54411 54414 54417 54420 54423 54426 54429 54432 54435 54438 54441 54444 54447 54450 54453 54456 54459 54462 54465 54468 54471 54474 54477 54480 54483 54486 54489 54492 54495 54498 54501 54504 54507 54510 54513 54516 54519 54522 54525 54528 54531 54534 54537 54540 54543 54546 54549 54552 54555 54558 54561 54564 54567 54570 54573 54576 54579 54582 54585 54588 54591 54594 54597 54600 54603 54606 54609 54612 54615 54618 54621 54624 54627 54630 54633 54636 54639 54642 54645 54648 54651 54654 54657 54660 54663 54666 54669 54672 54675 54678 54681 54684 54687 54690 54693 54696 54699 54702 54705 54708 54711 54714 54717 54720 54723 54726 54729 54732 54735 54738 54741 54744 54747 54750 54753 54756 54759 54762 54765 54768 54771 54774 54777 54780 54783 54786 54789 54792 54795 54798 54801 54804 54807 54810 54813 54816 54819 54822 54825 54828 54831 54834 54837 54840 54843 54846 54849 54852 54855 54858 54861 54864 54867 54870 54873 54876 54879 54882 54885 54888 54891 54894 54897 54900 54903 54906 54909 54912 54915 54918 54921 54924 54927 54930 54933 54936 54939 54942 54945 54948 54951 54954 54957 54960 54963 54966 54969 54972 54975 54978 54981 54984 54987 54990 54993 54996 54999 55002 55005 55008 55011 55014 55017 55020 55023 55026 55029 55032 55035 55038 55041 55044 55047 55050 55053 55056 55059 55062 55065 55068 55071 55074 55077 55080 55083 55086 55089 55092 55095 55098 55101 55104 55107 55110 55113 55116 55119 55122 55125 55128 55131 55134 55137 55140 55143 55146 55149 55152 55155 55158 55161 55164 55167 55170 55173 55176 55179 55182 55185 55188 55191 55194 55197 55200 55203 55206 55209 55212 55215 55218 55221 55224 55227 55230 55233 55236 55239 55242 55245 55248 55251 55254 55257 55260 55263 55266 55269 55272 55275 55278 55281 55284 55287 55290 55293 55296 55299 55302 55305 55308 55311 55314 55317 55320 55323 55326 55329 55332 55335 55338 55341 55344 55347 55350 55353 55356 55359 55362 55365 55368 55371 55374 55377 55380 55383 55386 55389 55392 55395 55398 55401 55404 55407 55410 55413 55416 55419 55422 55425 55428 55431 55434 55437 55440 55443 55446 55449 55452 55455 55458 55461 55464 55467 55470 55473 55476 55479 55482 55485 55488 55491 55494 55497 55500 55503 55506 55509 55512 55515 55518 55521 55524 55527 55530 55533 55536 55539 55542 55545 55548 55551 55554 55557 55560 55563 55566 55569 55572 55575 55578 55581 55584 55587 55590 55593 55596 55599 55602 55605 55608 55611 55614 55617 55620 55623 55626 55629 55632 55635 55638 55641 55644 55647 55650 55653 55656 55659 55662 55665 55668 55671 55674 55677 55680 55683 55686 55689 55692 55695 55698 55701 55704 55707 55710 55713 55716 55719 55722 55725 55728 55731 55734 55737 55740 55743 55746 55749 55752 55755 55758 55761 55764 55767 55770 55773 55776 55779 55782 55785 55788 55791 55794 55797 55800 55803 55806 55809 55812 55815 55818 55821 55824 55827 55830 55833 55836 55839 55842 55845 55848 55851 55854 55857 55860 55863 55866 55869 55872 55875 55878 55881 55884 55887 55890 55893 55896 55899 55902 55905 55908 55911 55914 55917 55920 55923 55926 55929 55932 55935 55938 55941 55944 55947 55950 55953 55956 55959 55962 55965 55968 55971 55974 55977 55980 55983 55986 55989 55992 55995 55998 56001 56004 56007 56010 56013 56016 56019 56022 56025 56028 56031 56034 56037 56040 56043 56046 56049 56052 56055 56058 56061 56064 56067 56070 56073 56076 56079 56082 56085 56088 56091 56094 56097 56100 56103 56106 56109 56112 56115 56118 56121 56124 56127 56130 56133 56136 56139 56142 56145 56148 56151 56154 56157 56160 56163 56166 56169 56172 56175 56178 56181 56184 56187 56190 56193 56196 56199 56202 56205 56208 56211 56214 56217 56220 56223 56226 56229 56232 56235 56238 56241 56244 56247 56250 56253 56256 56259 56262 56265 56268 56271 56274 56277 56280 56283 56286 56289 56292 56295 56298 56301 56304 56307 56310 56313 56316 56319 56322 56325 56328 56331 56334 56337 56340 56343 56346 56349 56352 56355 56358 56361 56364 56367 56370 56373 56376 56379 56382 56385 56388 56391 56394 56397 56400 56403 56406 56409 56412 56415 56418 56421 56424 56427 56430 56433 56436 56439 56442 56445 56448 56451 56454 56457 56460 56463 56466 56469 56472 56475 56478 56481 56484 56487 56490 56493 56496 56499 56502 56505 56508 56511 56514 56517 56520 56523 56526 56529 56532 56535 56538 56541 56544 56547 56550 56553 56556 56559 56562 56565 56568 56571 56574 56577 56580 56583 56586 56589 56592 56595 56598 56601 56604 56607 56610 56613 56616 56619 56622 56625 56628 56631 56634 56637 56640 56643 56646 56649 56652 56655 56658 56661 56664 56667 56670 56673 56676 56679 56682 56685 56688 56691 56694 56697 56700 56703 56706 56709 56712 56715 56718 56721 56724 56727 56730 56733 56736 56739 56742 56745 56748 56751 56754 56757 56760 56763 56766 56769 56772 56775 56778 56781 56784 56787 56790 56793 56796 56799 56802 56805 56808 56811 56814 56817 56820 56823 56826 56829 56832 56835 56838 56841 56844 56847 56850 56853 56856 56859 56862 56865 56868 56871 56874 56877 56880 56883 56886 56889 56892 56895 56898 56901 56904 56907 56910 56913 56916 56919 56922 56925 56928 56931 56934 56937 56940 56943 56946 56949 56952 56955 56958 56961 56964 56967 56970 56973 56976 56979 56982 56985 56988 56991 56994 56997 57000 57003 57006 57009 57012 57015 57018 57021 57024 </DataArray>
            <DataArray Name="types" format="ascii" type="UInt8">5 5 5 5 5 5 5 5 5 5 5 5 5 5 5 5 5 5 5 5 5 5 5 5 5 5 5 5 5 5 5 5 5 5 5 5 5 5 5 5 5 5 5 5 5 5 5 5 5 5 5 5 5 5 5 5 5 5 5 5 5 5 5 5 5 5 5 5 5 5 5 5 5 5 5 5 5 5 5 5 5 5 5 5 5 5 5 5 5 5 5 5 5 5 5 5 5 5 5 5 5 5 5 5 5 5 5 5 5 5 5 5 5 5 5 5 5 5 5 5 5 5 5 5 5 5 5 5 5 5 5 5 5 5 5 5 5 5 5 5 5 5 5 5 5 5 5 5 5 5 5 5 5 5 5 5 5 5 5 5 5 5 5 5 5 5 5 5 5 5 5 5 5 5 5 5 5 5 5 5 5 5 5 5 5 5 5 5 5 5 5 5 5 5 5 5 5 5 5 5 5 5 5 5 5 5 5 5 5 5 5 5 5 5 5 5 5 5 5 5 5 5 5 5 5 5 5 5 5 5 5 5 5 5 5 5 5 5 5 5 5 5 5 5 5 5 5 5 5 5 5 5 5 5 5 5 5 5 5 5 5 5 5 5 5 5 5 5 5 5 5 5 5 5 5 5 5 5 5 5 5 5 5 5 5 5 5 5 5 5 5 5 5 5 5 5 5 5 5 5 5 5 5 5 5 5 5 5 5 5 5 5 5 5 5 5 5 5 5 5 5 5 5 5 5 5 5 5 5 5 5 5 5 5 5 5 5 5 5 5 5 5 5 5 5 5 5 5 5 5 5 5 5 5 5 5 5 5 5 5 5 5 5 5 5 5 5 5 5 5 5 5 5 5 5 5 5 5 5 5 5 5 5 5 5 5 5 5 5 5 5 5 5 5 5 5 5 5 5 5 5 5 5 5 5 5 5 5 5 5 5 5 5 5 5 5 5 5 5 5 5 5 5 5 5 5 5 5 5 5 5 5 5 5 5 5 5 5 5 5 5 5 5 5 5 5 5 5 5 5 5 5 5 5 5 5 5 5 5 5 5 5 5 5 5 5 5 5 5 5 5 5 5 5 5 5 5 5 5 5 5 5 5 5 5 5 5 5 5 5 5 5 5 5 5 5 5 5 5 5 5 5 5 5 5 5 5 5 5 5 5 5 5 5 5 5 5 5 5 5 5 5 5 5 5 5 5 5 5 5 5 5 5 5 5 5 5 5 5 5 5 5 5 5 5 5 5 5 5 5 5 5 5 5 5 5 5 5 5 5 5 5 5 5 5 5 5 5 5 5 5 5 5 5 5 5 5 5 5 5 5 5 5 5 5 5 5 5 5 5 5 5 5 5 5 5 5 5 5 5 5 5 5 5 5 5 5 5 5 5 5 5 5 5 5 5 5 5 5 5 5 5 5 5 5 5 5 5 5 5 5 5 5 5 5 5 5 5 5 5 5 5 5 5 5 5 5 5 5 5 5 5 5 5 5 5 5 5 5 5 5 5 5 5 5 5 5 5 5 5 5 5 5 5 5 5 5 5 5 5 5 5 5 5 5 5 5 5 5 5 5 5 5 5 5 5 5 5 5 5 5 5 5 5 5 5 5 5 5 5 5 5 5 5 5 5 5 5 5 5 5 5 5 5 5 5 5 5 5 5 5 5 5 5 5 5 5 5 5 5 5 5 5 5 5 5 5 5 5 5 5 5 5 5 5 5 5 5 5 5 5 5 5 5 5 5 5 5 5 5 5 5 5 5 5 5 5 5 5 5 5 5 5 5 5 5 5 5 5 5 5 5 5 5 5 5 5 5 5 5 5 5 5 5 5 5 5 5 5 5 5 5 5 5 5 5 5 5 5 5 5 5 5 5 5 5 5 5 5 5 5 5 5 5 5 5 5 5 5 5 5 5 5 5 5 5 5 5 5 5 5 5 5 5 5 5 5 5 5 5 5 5 5 5 5 5 5 5 5 5 5 5 5 5 5 5 5 5 5 5 5 5 5 5 5 5 5 5 5 5 5 5 5 5 5 5 5 5 5 5 5 5 5 5 5 5 5 5 5 5 5 5 5 5 5 5 5 5 5 5 5 5 5 5 5 5 5 5 5 5 5 5 5 5 5 5 5 5 5 5 5 5 5 5 5 5 5 5 5 5 5 5 5 5 5 5 5 5 5 5 5 5 5 5 5 5 5 5 5 5 5 5 5 5 5 5 5 5 5 5 5 5 5 5 5 5 5 5 5 5 5 5 5 5 5 5 5 5 5 5 5 5 5 5 5 5 5 5 5 5 5 5 5 5 5 5 5 5 5 5 5 5 5 5 5 5 5 5 5 5 5 5 5 5 5 5 5 5 5 5 5 5 5 5 5 5 5 5 5 5 5 5 5 5 5 5 5 5 5 5 5 5 5 5 5 5 5 5 5 5 5 5 5 5 5 5 5 5 5 5 5 5 5 5 5 5 5 5 5 5 5 5 5 5 5 5 5 5 5 5 5 5 5 5 5 5 5 5 5 5 5 5 5 5 5 5 5 5 5 5 5 5 5 5 5 5 5 5 5 5 5 5 5 5 5 5 5 5 5 5 5 5 5 5 5 5 5 5 5 5 5 5 5 5 5 5 5 5 5 5 5 5 5 5 5 5 5 5 5 5 5 5 5 5 5 5 5 5 5 5 5 5 5 5 5 5 5 5 5 5 5 5 5 5 5 5 5 5 5 5 5 5 5 5 5 5 5 5 5 5 5 5 5 5 5 5 5 5 5 5 5 5 5 5 5 5 5 5 5 5 5 5 5 5 5 5 5 5 5 5 5 5 5 5 5 5 5 5 5 5 5 5 5 5 5 5 5 5 5 5 5 5 5 5 5 5 5 5 5 5 5 5 5 5 5 5 5 5 5 5 5 5 5 5 5 5 5 5 5 5 5 5 5 5 5 5 5 5 5 5 5 5 5 5 5 5 5 5 5 5 5 5 5 5 5 5 5 5 5 5 5 5 5 5 5 5 5 5 5 5 5 5 5 5 5 5 5 5 5 5 5 5 5 5 5 5 5 5 5 5 5 5 5 5 5 5 5 5 5 5 5 5 5 5 5 5 5 5 5 5 5 5 5 5 5 5 5 5 5 5 5 5 5 5 5 5 5 5 5 5 5 5 5 5 5 5 5 5 5 5 5 5 5 5 5 5 5 5 5 5 5 5 5 5 5 5 5 5 5 5 5 5 5 5 5 5 5 5 5 5 5 5 5 5 5 5 5 5 5 5 5 5 5 5 5 5 5 5 5 5 5 5 5 5 5 5 5 5 5 5 5 5 5 5 5 5 5 5 5 5 5 5 5 5 5 5 5 5 5 5 5 5 5 5 5 5 5 5 5 5 5 5 5 5 5 5 5 5 5 5 5 5 5 5 5 5 5 5 5 5 5 5 5 5 5 5 5 5 5 5 5 5 5 5 5 5 5 5 5 5 5 5 5 5 5 5 5 5 5 5 5 5 5 5 5 5 5 5 5 5 5 5 5 5 5 5 5 5 5 5 5 5 5 5 5 5 5 5 5 5 5 5 5 5 5 5 5 5 5 5 5 5 5 5 5 5 5 5 5 5 5 5 5 5 5 5 5 5 5 5 5 5 5 5 5 5 5 5 5 5 5 5 5 5 5 5 5 5 5 5 5 5 5 5 5 5 5 5 5 5 5 5 5 5 5 5 5 5 5 5 5 5 5 5 5 5 5 5 5 5 5 5 5 5 5 5 5 5 5 5 5 5 5 5 5 5 5 5 5 5 5 5 5 5 5 5 5 5 5 5 5 5 5 5 5 5 5 5 5 5 5 5 5 5 5 5 5 5 5 5 5 5 5 5 5 5 5 5 5 5 5 5 5 5 5 5 5 5 5 5 5 5 5 5 5 5 5 5 5 5 5 5 5 5 5 5 5 5 5 5 5 5 5 5 5 5 5 5 5 5 5 5 5 5 5 5 5 5 5 5 5 5 5 5 5 5 5 5 5 5 5 5 5 5 5 5 5 5 5 5 5 5 5 5 5 5 5 5 5 5 5 5 5 5 5 5 5 5 5 5 5 5 5 5 5 5 5 5 5 5 5 5 5 5 5 5 5 5 5 5 5 5 5 5 5 5 5 5 5 5 5 5 5 5 5 5 5 5 5 5 5 5 5 5 5 5 5 5 5 5 5 5 5 5 5 5 5 5 5 5 5 5 5 5 5 5 5 5 5 5 5 5 5 5 5 5 5 5 5 5 5 5 5 5 5 5 5 5 5 5 5 5 5 5 5 5 5 5 5 5 5 5 5 5 5 5 5 5 5 5 5 5 5 5 5 5 5 5 5 5 5 5 5 5 5 5 5 5 5 5 5 5 5 5 5 5 5 5 5 5 5 5 5 5 5 5 5 5 5 5 5 5 5 5 5 5 5 5 5 5 5 5 5 5 5 5 5 5 5 5 5 5 5 5 5 5 5 5 5 5 5 5 5 5 5 5 5 5 5 5 5 5 5 5 5 5 5 5 5 5 5 5 5 5 5 5 5 5 5 5 5 5 5 5 5 5 5 5 5 5 5 5 5 5 5 5 5 5 5 5 5 5 5 5 5 5 5 5 5 5 5 5 5 5 5 5 5 5 5 5 5 5 5 5 5 5 5 5 5 5 5 5 5 5 5 5 5 5 5 5 5 5 5 5 5 5 5 5 5 5 5 5 5 5 5 5 5 5 5 5 5 5 5 5 5 5 5 5 5 5 5 5 5 5 5 5 5 5 5 5 5 5 5 5 5 5 5 5 5 5 5 5 5 5 5 5 5 5 5 5 5 5 5 5 5 5 5 5 5 5 5 5 5 5 5 5 5 5 5 5 5 5 5 5 5 5 5 5 5 5 5 5 5 5 5 5 5 5 5 5 5 5 5 5 5 5 5 5 5 5 5 5 5 5 5 5 5 5 5 5 5 5 5 5 5 5 5 5 5 5 5 5 5 5 5 5 5 5 5 5 5 5 5 5 5 5 5 5 5 5 5 5 5 5 5 5 5 5 5 5 5 5 5 5 5 5 5 5 5 5 5 5 5 5 5 5 5 5 5 5 5 5 5 5 5 5 5 5 5 5 5 5 5 5 5 5 5 5 5 5 5 5 5 5 5 5 5 5 5 5 5 5 5 5 5 5 5 5 5 5 5 5 5 5 5 5 5 5 5 5 5 5 5 5 5 5 5 5 5 5 5 5 5 5 5 5 5 5 5 5 5 5 5 5 5 5 5 5 5 5 5 5 5 5 5 5 5 5 5 5 5 5 5 5 5 5 5 5 5 5 5 5 5 5 5 5 5 5 5 5 5 5 5 5 5 5 5 5 5 5 5 5 5 5 5 5 5 5 5 5 5 5 5 5 5 5 5 5 5 5 5 5 5 5 5 5 5 5 5 5 5 5 5 5 5 5 5 5 5 5 5 5 5 5 5 5 5 5 5 5 5 5 5 5 5 5 5 5 5 5 5 5 5 5 5 5 5 5 5 5 5 5 5 5 5 5 5 5 5 5 5 5 5 5 5 5 5 5 5 5 5 5 5 5 5 5 5 5 5 5 5 5 5 5 5 5 5 5 5 5 5 5 5 5 5 5 5 5 5 5 5 5 5 5 5 5 5 5 5 5 5 5 5 5 5 5 5 5 5 5 5 5 5 5 5 5 5 5 5 5 5 5 5 5 5 5 5 5 5 5 5 5 5 5 5 5 5 5 5 5 5 5 5 5 5 5 5 5 5 5 5 5 5 5 5 5 5 5 5 5 5 5 5 5 5 5 5 5 5 5 5 5 5 5 5 5 5 5 5 5 5 5 5 5 5 5 5 5 5 5 5 5 5 5 5 5 5 5 5 5 5 5 5 5 5 5 5 5 5 5 5 5 5 5 5 5 5 5 5 5 5 5 5 5 5 5 5 5 5 5 5 5 5 5 5 5 5 5 5 5 5 5 5 5 5 5 5 5 5 5 5 5 5 5 5 5 5 5 5 5 5 5 5 5 5 5 5 5 5 5 5 5 5 5 5 5 5 5 5 5 5 5 5 5 5 5 5 5 5 5 5 5 5 5 5 5 5 5 5 5 5 5 5 5 5 5 5 5 5 5 5 5 5 5 5 5 5 5 5 5 5 5 5 5 5 5 5 5 5 5 5 5 5 5 5 5 5 5 5 5 5 5 5 5 5 5 5 5 5 5 5 5 5 5 5 5 5 5 5 5 5 5 5 5 5 5 5 5 5 5 5 5 5 5 5 5 5 5 5 5 5 5 5 5 5 5 5 5 5 5 5 5 5 5 5 5 5 5 5 5 5 5 5 5 5 5 5 5 5 5 5 5 5 5 5 5 5 5 5 5 5 5 5 5 5 5 5 5 5 5 5 5 5 5 5 5 5 5 5 5 5 5 5 5 5 5 5 5 5 5 5 5 5 5 5 5 5 5 5 5 5 5 5 5 5 5 5 5 5 5 5 5 5 5 5 5 5 5 5 5 5 5 5 5 5 5 5 5 5 5 5 5 5 5 5 5 5 5 5 5 5 5 5 5 5 5 5 5 5 5 5 5 5 5 5 5 5 5 5 5 5 5 5 5 5 5 5 5 5 5 5 5 5 5 5 5 5 5 5 5 5 5 5 5 5 5 5 5 5 5 5 5 5 5 5 5 5 5 5 5 5 5 5 5 5 5 5 5 5 5 5 5 5 5 5 5 5 5 5 5 5 5 5 5 5 5 5 5 5 5 5 5 5 5 5 5 5 5 5 5 5 5 5 5 5 5 5 5 5 5 5 5 5 5 5 5 5 5 5 5 5 5 5 5 5 5 5 5 5 5 5 5 5 5 5 5 5 5 5 5 5 5 5 5 5 5 5 5 5 5 5 5 5 5 5 5 5 5 5 5 5 5 5 5 5 5 5 5 5 5 5 5 5 5 5 5 5 5 5 5 5 5 5 5 5 5 5 5 5 5 5 5 5 5 5 5 5 5 5 5 5 5 5 5 5 5 5 5 5 5 5 5 5 5 5 5 5 5 5 5 5 5 5 5 5 5 5 5 5 5 5 5 5 5 5 5 5 5 5 5 5 5 5 5 5 5 5 5 5 5 5 5 5 5 5 5 5 5 5 5 5 5 5 5 5 5 5 5 5 5 5 5 5 5 5 5 5 5 5 5 5 5 5 5 5 5 5 5 5 5 5 5 5 5 5 5 5 5 5 5 5 5 5 5 5 5 5 5 5 5 5 5 5 5 5 5 5 5 5 5 5 5 5 5 5 5 5 5 5 5 5 5 5 5 5 5 5 5 5 5 5 5 5 5 5 5 5 5 5 5 5 5 5 5 5 5 5 5 5 5 5 5 5 5 5 5 5 5 5 5 5 5 5 5 5 5 5 5 5 5 5 5 5 5 5 5 5 5 5 5 5 5 5 5 5 5 5 5 5 5 5 5 5 5 5 5 5 5 5 5 5 5 5 5 5 5 5 5 5 5 5 5 5 5 5 5 5 5 5 5 5 5 5 5 5 5 5 5 5 5 5 5 5 5 5 5 5 5 5 5 5 5 5 5 5 5 5 5 5 5 5 5 5 5 5 5 5 5 5 5 5 5 5 5 5 5 5 5 5 5 5 5 5 5 5 5 5 5 5 5 5 5 5 5 5 5 5 5 5 5 5 5 5 5 5 5 5 5 5 5 5 5 5 5 5 5 5 5 5 5 5 5 5 5 5 5 5 5 5 5 5 5 5 5 5 5 5 5 5 5 5 5 5 5 5 5 5 5 5 5 5 5 5 5 5 5 5 5 5 5 5 5 5 5 5 5 5 5 5 5 5 5 5 5 5 5 5 5 5 5 5 5 5 5 5 5 5 5 5 5 5 5 5 5 5 5 5 5 5 5 5 5 5 5 5 5 5 5 5 5 5 5 5 5 5 5 5 5 5 5 5 5 5 5 5 5 5 5 5 5 5 5 5 5 5 5 5 5 5 5 5 5 5 5 5 5 5 5 5 5 5 5 5 5 5 5 5 5 5 5 5 5 5 5 5 5 5 5 5 5 5 5 5 5 5 5 5 5 5 5 5 5 5 5 5 5 5 5 5 5 5 5 5 5 5 5 5 5 5 5 5 5 5 5 5 5 5 5 5 5 5 5 5 5 5 5 5 5 5 5 5 5 5 5 5 5 5 5 5 5 5 5 5 5 5 5 5 5 5 5 5 5 5 5 5 5 5 5 5 5 5 5 5 5 5 5 5 5 5 5 5 5 5 5 5 5 5 5 5 5 5 5 5 5 5 5 5 5 5 5 5 5 5 5 5 5 5 5 5 5 5 5 5 5 5 5 5 5 5 5 5 5 5 5 5 5 5 5 5 5 5 5 5 5 5 5 5 5 5 5 5 5 5 5 5 5 5 5 5 5 5 5 5 5 5 5 5 5 5 5 5 5 5 5 5 5 5 5 5 5 5 5 5 5 5 5 5 5 5 5 5 5 5 5 5 5 5 5 5 5 5 5 5 5 5 5 5 5 5 5 5 5 5 5 5 5 5 5 5 5 5 5 5 5 5 5 5 5 5 5 5 5 5 5 5 5 5 5 5 5 5 5 5 5 5 5 5 5 5 5 5 5 5 5 5 5 5 5 5 5 5 5 5 5 5 5 5 5 5 5 5 5 5 5 5 5 5 5 5 5 5 5 5 5 5 5 5 5 5 5 5 5 5 5 5 5 5 5 5 5 5 5 5 5 5 5 5 5 5 5 5 5 5 5 5 5 5 5 5 5 5 5 5 5 5 5 5 5 5 5 5 5 5 5 5 5 5 5 5 5 5 5 5 5 5 5 5 5 5 5 5 5 5 5 5 5 5 5 5 5 5 5 5 5 5 5 5 5 5 5 5 5 5 5 5 5 5 5 5 5 5 5 5 5 5 5 5 5 5 5 5 5 5 5 5 5 5 5 5 5 5 5 5 5 5 5 5 5 5 5 5 5 5 5 5 5 5 5 5 5 5 5 5 5 5 5 5 5 5 5 5 5 5 5 5 5 5 5 5 5 5 5 5 5 5 5 5 5 5 5 5 5 5 5 5 5 5 5 5 5 5 5 5 5 5 5 5 5 5 5 5 5 5 5 5 5 5 5 5 5 5 5 5 5 5 5 5 5 5 5 5 5 5 5 5 5 5 5 5 5 5 5 5 5 5 5 5 5 5 5 5 5 5 5 5 5 5 5 5 5 5 5 5 5 5 5 5 5 5 5 5 5 5 5 5 5 5 5 5 5 5 5 5 5 5 5 5 5 5 5 5 5 5 5 5 5 5 5 5 5 5 5 5 5 5 5 5 5 5 5 5 5 5 5 5 5 5 5 5 5 5 5 5 5 5 5 5 5 5 5 5 5 5 5 5 5 5 5 5 5 5 5 5 5 5 5 5 5 5 5 5 5 5 5 5 5 5 5 5 5 5 5 5 5 5 5 5 5 5 5 5 5 5 5 5 5 5 5 5 5 5 5 5 5 5 5 5 5 5 5 5 5 5 5 5 5 5 5 5 5 5 5 5 5 5 5 5 5 5 5 5 5 5 5 5 5 5 5 5 5 5 5 5 5 5 5 5 5 5 5 5 5 5 5 5 5 5 5 5 5 5 5 5 5 5 5 5 5 5 5 5 5 5 5 5 5 5 5 5 5 5 5 5 5 5 5 5 5 5 5 5 5 5 5 5 5 5 5 5 5 5 5 5 5 5 5 5 5 5 5 5 5 5 5 5 5 5 5 5 5 5 5 5 5 5 5 5 5 5 5 5 5 5 5 5 5 5 5 5 5 5 5 5 5 5 5 5 5 5 5 5 5 5 5 5 5 5 5 5 5 5 5 5 5 5 5 5 5 5 5 5 5 5 5 5 5 5 5 5 5 5 5 5 5 5 5 5 5 5 5 5 5 5 5 5 5 5 5 5 5 5 5 5 5 5 5 5 5 5 5 5 5 5 5 5 5 5 5 5 5 5 5 5 5 5 5 5 5 5 5 5 5 5 5 5 5 5 5 5 5 5 5 5 5 5 5 5 5 5 5 5 5 5 5 5 5 5 5 5 5 5 5 5 5 5 5 5 5 5 5 5 5 5 5 5 5 5 5 5 5 5 5 5 5 5 5 5 5 5 5 5 5 5 5 5 5 5 5 5 5 5 5 5 5 5 5 5 5 5 5 5 5 5 5 5 5 5 5 5 5 5 5 5 5 5 5 5 5 5 5 5 5 5 5 5 5 5 5 5 5 5 5 5 5 5 5 5 5 5 5 5 5 5 5 5 5 5 5 5 5 5 5 5 5 5 5 5 5 5 5 5 5 5 5 5 5 5 5 5 5 5 5 5 5 5 5 5 5 5 5 5 5 5 5 5 5 5 5 5 5 5 5 5 5 5 5 5 5 5 5 5 5 5 5 5 5 5 5 5 5 5 5 5 5 5 5 5 5 5 5 5 5 5 5 5 5 5 5 5 5 5 5 5 5 5 5 5 5 5 5 5 5 5 5 5 5 5 5 5 5 5 5 5 5 5 5 5 5 5 5 5 5 5 5 5 5 5 5 5 5 5 5 5 5 5 5 5 5 5 5 5 5 5 5 5 5 5 5 5 5 5 5 5 5 5 5 5 5 5 5 5 5 5 5 5 5 5 5 5 5 5 5 5 5 5 5 5 5 5 5 5 5 5 5 5 5 5 5 5 5 5 5 5 5 5 5 5 5 5 5 5 5 5 5 5 5 5 5 5 5 5 5 5 5 5 5 5 5 5 5 5 5 5 5 5 5 5 5 5 5 5 5 5 5 5 5 5 5 5 5 5 5 5 5 5 5 5 5 5 5 5 5 5 5 5 5 5 5 5 5 5 5 5 5 5 5 5 5 5 5 5 5 5 5 5 5 5 5 5 5 5 5 5 5 5 5 5 5 5 5 5 5 5 5 5 5 5 5 5 5 5 5 5 5 5 5 5 5 5 5 5 5 5 5 5 5 5 5 5 5 5 5 5 5 5 5 5 5 5 5 5 5 5 5 5 5 5 5 5 5 5 5 5 5 5 5 5 5 5 5 5 5 5 5 5 5 5 5 5 5 5 5 5 5 5 5 5 5 5 5 5 5 5 5 5 5 5 5 5 5 5 5 5 5 5 5 5 5 5 5 5 5 5 5 5 5 5 5 5 5 5 5 5 5 5 5 5 5 5 5 5 5 5 5 5 5 5 5 5 5 5 5 5 5 5 5 5 5 5 5 5 5 5 5 5 5 5 5 5 5 5 5 5 5 5 5 5 5 5 5 5 5 5 5 5 5 5 5 5 5 5 5 5 5 5 5 5 5 5 5 5 5 5 5 5 5 5 5 5 5 5 5 5 5 5 5 5 5 5 5 5 5 5 5 5 5 5 5 5 5 5 5 5 5 5 5 5 5 5 5 5 5 5 5 5 5 5 5 5 5 5 5 5 5 5 5 5 5 5 5 5 5 5 5 5 5 5 5 5 5 5 5 5 5 5 5 5 5 5 5 5 5 5 5 5 5 5 5 5 5 5 5 5 5 5 5 5 5 5 5 5 5 5 5 5 5 5 5 5 5 5 5 5 5 5 5 5 5 5 5 5 5 5 5 5 5 5 5 5 5 5 5 5 5 5 5 5 5 5 5 5 5 5 5 5 5 5 5 5 5 5 5 5 5 5 5 5 5 5 5 5 5 5 5 5 5 5 5 5 5 5 5 5 5 5 5 5 5 5 5 5 5 5 5 5 5 5 5 5 5 5 5 5 5 5 5 5 5 5 5 5 5 5 5 5 5 5 5 5 5 5 5 5 5 5 5 5 5 5 5 5 5 5 5 5 5 5 5 5 5 5 5 5 5 5 5 5 5 5 5 5 5 5 5 5 5 5 5 5 5 5 5 5 5 5 5 5 5 5 5 5 5 5 5 5 5 5 5 5 5 5 5 5 5 5 5 5 5 5 5 5 5 5 5 5 5 5 5 5 5 5 5 5 5 5 5 5 5 5 5 5 5 5 5 5 5 5 5 5 5 5 5 5 5 5 5 5 5 5 5 5 5 5 5 5 5 5 5 5 5 5 5 5 5 5 5 5 5 5 5 5 5 5 5 5 5 5 5 5 5 5 5 5 5 5 5 5 5 5 5 5 5 5 5 5 5 5 5 5 5 5 5 5 5 5 5 5 5 5 5 5 5 5 5 5 5 5 5 5 5 5 5 5 5 5 5 5 5 5 5 5 5 5 5 5 5 5 5 5 5 5 5 5 5 5 5 5 5 5 5 5 5 5 5 5 5 5 5 5 5 5 5 5 5 5 5 5 5 5 5 5 5 5 5 5 5 5 5 5 5 5 5 5 5 5 5 5 5 5 5 5 5 5 5 5 5 5 5 5 5 5 5 5 5 5 5 5 5 5 5 5 5 5 5 5 5 5 5 5 5 5 5 5 5 5 5 5 5 5 5 5 5 5 5 5 5 5 5 5 5 5 5 5 5 5 5 5 5 5 5 5 5 5 5 5 5 5 5 5 5 5 5 5 5 5 5 5 5 5 5 5 5 5 5 5 5 5 5 5 5 5 5 5 5 5 5 5 5 5 5 5 5 5 5 5 5 5 5 5 5 5 5 5 5 5 5 5 5 5 5 5 5 5 5 5 5 5 5 5 5 5 5 5 5 5 5 5 5 5 5 5 5 5 5 5 5 5 5 5 5 5 5 5 5 5 5 5 5 5 5 5 5 5 5 5 5 5 5 5 5 5 5 5 5 5 5 5 5 5 5 5 5 5 5 5 5 5 5 5 5 5 5 5 5 5 5 5 5 5 5 5 5 5 5 5 5 5 5 5 5 5 5 5 5 5 5 5 5 5 5 5 5 5 5 5 5 5 5 5 5 5 5 5 5 5 5 5 5 5 5 5 5 5 5 5 5 5 5 5 5 5 5 5 5 5 5 5 5 5 5 5 5 5 5 5 5 5 5 5 5 5 5 5 5 5 5 5 5 5 5 5 5 5 5 5 5 5 5 5 5 5 5 5 5 5 5 5 5 5 5 5 5 5 5 5 5 5 5 5 5 5 5 5 5 5 5 5 5 5 5 5 5 5 5 5 5 5 5 5 5 5 5 5 5 5 5 5 5 5 5 5 5 5 5 5 5 5 5 5 5 5 5 5 5 5 5 5 5 5 5 5 5 5 5 5 5 5 5 5 5 5 5 5 5 5 5 5 5 5 5 5 5 5 5 5 5 5 5 5 5 5 5 5 5 5 5 5 5 5 5 5 5 5 5 5 5 5 5 5 5 5 5 5 5 5 5 5 5 5 5 5 5 5 5 5 5 5 5 5 5 5 5 5 5 5 5 5 5 5 5 5 5 5 5 5 5 5 5 5 5 5 5 5 5 5 5 5 5 5 5 5 5 5 5 5 5 5 5 5 5 5 5 5 5 5 5 5 5 5 5 5 5 5 5 5 5 5 5 5 5 5 5 5 5 5 5 5 5 5 5 5 5 5 5 5 5 5 5 5 5 5 5 5 5 5 5 5 5 5 5 5 5 5 5 5 5 5 5 5 5 5 5 5 5 5 5 5 5 5 5 5 5 5 5 5 5 5 5 5 5 5 5 5 5 5 5 5 5 5 5 5 5 5 5 5 5 5 5 5 5 5 5 5 5 5 5 5 5 5 5 5 5 5 5 5 5 5 5 5 5 5 5 5 5 5 5 5 5 5 5 5 5 5 5 5 5 5 5 5 5 5 5 5 5 5 5 5 5 5 5 5 5 5 5 5 5 5 5 5 5 5 5 5 5 5 5 5 5 5 5 5 5 5 5 5 5 5 5 5 5 5 5 5 5 5 5 5 5 5 5 5 5 5 5 5 5 5 5 5 5 5 5 5 5 5 5 5 5 5 5 5 5 5 5 5 5 5 5 5 5 5 5 5 5 5 5 5 5 5 5 5 5 5 5 5 5 5 5 5 5 5 5 5 5 5 5 5 5 5 5 5 5 5 5 5 5 5 5 5 5 5 5 5 5 5 5 5 5 5 5 5 5 5 5 5 5 5 5 5 5 5 5 5 5 5 5 5 5 5 5 5 5 5 5 5 5 5 5 5 5 5 5 5 5 5 5 5 5 5 5 5 5 5 5 5 5 5 5 5 5 5 5 5 5 5 5 5 5 5 5 5 5 5 5 5 5 5 5 5 5 5 5 5 5 5 5 5 5 5 5 5 5 5 5 5 5 5 5 5 5 5 5 5 5 5 5 5 5 5 5 5 5 5 5 5 5 5 5 5 5 5 5 5 5 5 5 5 5 5 5 5 5 5 5 5 5 5 5 5 5 5 5 5 5 5 5 5 5 5 5 5 5 5 5 5 5 5 5 5 5 5 5 5 5 5 5 5 5 5 5 5 5 5 5 5 5 5 5 5 5 5 5 5 5 5 5 5 5 5 5 5 5 5 5 5 5 5 5 5 5 5 5 5 5 5 5 5 5 5 5 5 5 5 5 5 5 5 5 5 5 5 5 5 5 5 5 5 5 5 5 5 5 5 5 5 5 5 5 5 5 5 5 5 5 5 5 5 5 5 5 5 5 5 5 5 5 5 5 5 5 5 5 5 5 5 5 5 5 5 5 5 5 5 5 5 5 5 5 5 5 5 5 5 5 5 5 5 5 5 5 5 5 5 5 5 5 5 5 5 5 5 5 5 5 5 5 5 5 5 5 5 5 5 5 5 5 5 5 5 5 5 5 5 5 5 5 5 5 5 5 5 5 5 5 5 5 5 5 5 5 5 5 5 5 5 5 5 5 5 5 5 5 5 5 5 5 5 5 5 5 5 5 5 5 5 5 5 5 5 5 5 5 5 5 5 5 5 5 5 5 5 5 5 5 5 5 5 5 5 5 5 5 5 5 5 5 5 5 5 5 5 5 5 5 5 5 5 5 5 5 5 5 5 5 5 5 5 5 5 5 5 5 5 5 5 5 5 5 5 5 5 5 5 5 5 5 5 5 5 5 5 5 5 5 5 5 5 5 5 5 5 5 5 5 5 5 5 5 5 5 5 5 5 5 5 5 5 5 5 5 5 5 5 5 5 5 5 5 5 5 5 5 5 5 5 5 5 5 5 5 5 5 5 5 5 5 5 5 5 5 5 5 5 5 5 5 5 5 5 5 5 5 5 5 5 5 5 5 5 5 5 5 5 5 5 5 5 5 5 5 5 5 5 5 5 5 5 5 5 5 5 5 5 5 5 5 5 5 5 5 5 5 5 5 5 5 5 5 5 5 5 5 5 5 5 5 5 5 5 5 5 5 5 5 5 5 5 5 5 5 5 5 5 5 5 5 5 5 5 5 5 5 5 5 5 5 5 5 5 5 5 5 5 5 5 5 5 5 5 5 5 5 5 5 5 5 5 5 5 5 5 5 5 5 5 5 5 5 5 5 5 5 5 5 5 5 5 5 5 5 5 5 5 5 5 5 5 5 5 5 5 5 5 5 5 5 5 5 5 5 5 5 5 5 5 5 5 5 5 5 5 5 5 5 5 5 5 5 5 5 5 5 5 5 5 5 5 5 5 5 5 5 5 5 5 5 5 5 5 5 5 5 5 5 5 5 5 5 5 5 5 5 5 5 5 5 5 5 5 5 5 5 5 5 5 5 5 5 5 5 5 5 5 5 5 5 5 5 5 5 5 5 5 5 5 5 5 5 5 5 5 5 5 5 5 5 5 5 5 5 5 5 5 5 5 5 5 5 5 5 5 5 5 5 5 5 5 5 5 5 5 5 5 5 5 5 5 5 5 5 5 5 5 5 5 5 5 5 5 5 5 5 5 5 5 5 5 5 5 5 5 5 5 5 5 5 5 5 5 5 5 5 5 5 5 5 5 5 5 5 5 5 5 5 5 5 5 5 5 5 5 5 5 5 5 5 5 5 5 5 5 5 5 5 5 5 5 5 5 5 5 5 5 5 5 5 5 5 5 5 5 5 5 5 5 5 5 5 5 5 5 5 5 5 5 5 5 5 5 5 5 5 5 5 5 5 5 5 5 5 5 5 5 5 5 5 5 5 5 5 5 5 5 5 5 5 5 5 5 5 5 5 5 5 5 5 5 5 5 5 5 5 5 5 5 5 5 5 5 5 5 5 5 5 5 5 5 5 5 5 5 5 5 5 5 5 5 5 5 5 5 5 5 5 5 5 5 5 5 5 5 5 5 5 5 5 5 5 5 5 5 5 5 5 5 5 5 5 5 5 5 5 5 5 5 5 5 5 5 5 5 5 5 5 5 5 5 5 5 5 5 5 5 5 5 5 5 5 5 5 5 5 5 5 5 5 5 5 5 5 5 5 5 5 5 5 5 5 5 5 5 5 5 5 5 5 5 5 5 5 5 5 5 5 5 5 5 5 5 5 5 5 5 5 5 5 5 5 5 5 5 5 5 5 5 5 5 5 5 5 5 5 5 5 5 5 5 5 5 5 5 5 5 5 5 5 5 5 5 5 5 5 5 5 5 5 5 5 5 5 5 5 5 5 5 5 5 5 5 5 5 5 5 5 5 5 5 5 5 5 5 5 5 5 5 5 5 5 5 5 5 5 5 5 5 5 5 5 5 5 5 5 5 5 5 5 5 5 5 5 5 5 5 5 5 5 5 5 5 5 5 5 5 5 5 5 5 5 5 5 5 5 5 5 5 5 5 5 5 5 5 5 5 5 5 5 5 5 5 5 5 5 5 5 5 5 5 5 5 5 5 5 5 5 5 5 5 5 5 5 5 5 5 5 5 5 5 5 5 5 5 5 5 5 5 5 5 5 5 5 5 5 5 5 5 5 5 5 5 5 5 5 5 5 5 5 5 5 5 5 5 5 5 5 5 5 5 5 5 5 5 5 5 5 5 5 5 5 5 5 5 5 5 5 5 5 5 5 5 5 5 5 5 5 5 5 5 5 5 5 5 5 5 5 5 5 5 5 5 5 5 5 5 5 5 5 5 5 5 5 5 5 5 5 5 5 5 5 5 5 5 5 5 5 5 5 5 5 5 5 5 5 5 5 5 5 5 5 5 5 5 5 5 5 5 5 5 5 5 5 5 5 5 5 5 5 5 5 5 5 5 5 5 5 5 5 5 5 5 5 5 5 5 5 5 5 5 5 5 5 5 5 5 5 5 5 5 5 5 5 5 5 5 5 5 5 5 5 5 5 5 5 5 5 5 5 5 5 5 5 5 5 5 5 5 5 5 5 5 5 5 5 5 5 5 5 5 5 5 5 5 5 5 5 5 5 5 5 5 5 5 5 5 5 5 5 5 5 5 5 5 5 5 5 5 5 5 5 5 5 5 5 5 5 5 5 5 5 5 5 5 5 5 5 5 5 5 5 5 5 5 5 5 5 5 5 5 5 5 5 5 5 5 5 5 5 5 5 5 5 5 5 5 5 5 5 5 5 5 5 5 5 5 5 5 5 5 5 5 5 5 5 5 5 5 5 5 5 5 5 5 5 5 5 5 5 5 5 5 5 5 5 5 5 5 5 5 5 5 5 5 5 5 5 5 5 5 5 5 5 5 5 5 5 5 5 5 5 5 5 5 5 5 5 5 5 5 5 5 5 5 5 5 5 5 5 5 5 5 5 5 5 5 5 5 5 5 5 5 5 5 5 5 5 5 5 5 5 5 5 5 5 5 5 5 5 5 5 5 5 5 5 5 5 5 5 5 5 5 5 5 5 5 5 5 5 5 5 5 5 5 5 5 5 5 5 5 5 5 5 5 5 5 5 5 5 5 5 5 5 5 5 5 5 5 5 5 5 5 5 5 5 5 5 5 5 5 5 5 5 5 5 5 5 5 5 5 5 5 5 5 5 5 5 5 5 5 5 5 5 5 5 5 5 5 5 5 5 5 5 5 5 5 5 5 5 5 5 5 5 5 5 5 5 5 5 5 5 5 5 5 5 5 5 5 5 5 5 5 5 5 5 5 5 5 5 5 5 5 5 5 5 5 5 5 5 5 5 5 5 5 5 5 5 5 5 5 5 5 5 5 5 5 5 5 5 5 5 5 5 5 5 5 5 5 5 5 5 5 5 5 5 5 5 5 5 5 5 5 5 5 5 5 5 5 5 5 5 5 5 5 5 5 5 5 5 5 5 5 5 5 5 5 5 5 5 5 5 5 5 5 5 5 5 5 5 5 5 5 5 5 5 5 5 5 5 5 5 5 5 5 5 5 5 5 5 5 5 5 5 5 5 5 5 5 5 5 5 5 5 5 5 5 5 5 5 5 5 5 5 5 5 5 5 5 5 5 5 5 5 5 5 5 5 5 5 5 5 5 5 5 5 5 5 5 5 5 5 5 5 5 5 5 5 5 5 5 5 5 5 5 5 5 5 5 5 5 5 5 5 5 5 5 5 5 5 5 5 5 5 5 5 5 5 5 5 5 5 5 5 5 5 5 5 5 5 5 5 5 5 5 5 5 5 5 5 5 5 5 5 5 5 5 5 5 5 5 5 5 5 5 5 5 5 5 5 5 5 5 5 5 5 5 5 5 5 5 5 5 5 5 5 5 5 5 5 5 5 5 5 5 5 5 5 5 5 5 5 5 5 5 5 5 5 5 5 5 5 5 5 5 5 5 5 5 5 5 5 5 5 5 5 5 5 5 5 5 5 5 5 5 5 5 5 5 5 5 5 5 5 5 5 5 5 5 5 5 5 5 5 5 5 5 5 5 5 5 5 5 5 5 5 5 5 5 5 5 5 5 5 5 5 5 5 5 5 5 5 5 5 5 5 5 5 5 5 5 5 5 5 5 5 5 5 5 5 5 5 5 5 5 5 5 5 5 5 5 5 5 5 5 5 5 5 5 5 5 5 5 5 5 5 5 5 5 5 5 5 5 5 5 5 5 5 5 5 5 5 5 5 5 5 5 5 5 5 5 5 5 5 5 5 5 5 5 5 5 5 5 5 5 5 5 5 5 5 5 5 5 5 5 5 5 5 5 5 5 5 5 5 5 5 5 5 5 5 5 5 5 5 5 5 5 5 5 5 5 5 5 5 5 5 5 5 5 5 5 5 5 5 5 5 5 5 5 5 5 5 5 5 5 5 5 5 5 5 5 5 5 5 5 5 5 5 5 5 5 5 5 5 5 5 5 5 5 5 5 5 5 5 5 5 5 5 5 5 5 5 5 5 5 5 5 5 5 5 5 5 5 5 5 5 5 5 5 5 5 5 5 5 5 5 5 5 5 5 5 5 5 5 5 5 5 5 5 5 5 5 5 5 5 5 5 5 5 5 5 5 5 5 5 5 5 5 5 5 5 5 5 5 5 5 5 5 5 5 5 5 5 5 5 5 5 5 5 5 5 5 5 5 5 5 5 5 5 5 5 5 5 5 5 5 5 5 5 5 5 5 5 5 5 5 5 5 5 5 5 5 5 5 5 5 5 5 5 5 5 5 5 5 5 5 5 5 5 5 5 5 5 5 5 5 5 5 5 5 5 5 5 5 5 5 5 5 5 5 5 5 5 5 5 5 5 5 5 5 5 5 5 5 5 5 5 5 5 5 5 5 5 5 5 5 5 5 5 5 5 5 5 5 5 5 5 5 5 5 5 5 5 5 5 5 5 5 5 5 5 5 5 5 5 5 5 5 5 5 5 5 5 5 5 5 5 5 5 5 5 5 5 5 5 5 5 5 5 5 5 5 5 5 5 5 5 5 5 5 5 5 5 5 5 5 5 5 5 5 5 5 5 5 5 5 5 5 5 5 5 5 5 5 5 5 5 5 5 5 5 5 5 5 5 5 5 5 5 5 5 5 5 5 5 5 5 5 5 5 5 5 5 5 5 5 5 5 5 5 5 5 5 5 5 5 5 5 5 5 5 5 5 5 5 5 5 5 5 5 5 5 5 5 5 5 5 5 5 5 5 5 5 5 5 5 5 5 5 5 5 5 5 5 5 5 5 5 5 5 5 5 5 5 5 5 5 5 5 5 5 5 5 5 5 5 5 5 5 5 5 5 5 5 5 5 5 5 5 5 5 5 5 5 5 5 5 5 5 5 5 5 5 5 5 5 5 5 5 5 5 5 5 5 5 5 5 5 5 5 5 5 5 5 5 5 5 5 5 5 5 5 5 5 5 5 5 5 5 5 5 5 5 5 5 5 5 5 5 5 5 5 5 5 5 5 5 5 5 5 5 5 5 5 5 5 5 5 5 5 5 5 5 5 5 5 5 5 5 5 5 5 5 5 5 5 5 5 5 5 5 5 5 5 5 5 5 5 5 5 5 5 5 5 5 5 5 5 5 5 5 5 5 5 5 5 5 5 5 5 5 5 5 5 5 5 5 5 5 5 5 5 5 5 5 5 5 5 5 5 5 5 5 5 5 5 5 5 5 5 5 5 5 5 5 5 5 5 5 5 5 5 5 5 5 5 5 5 5 5 5 5 5 5 5 5 5 5 5 5 5 5 5 5 5 5 5 5 5 5 5 5 5 5 5 5 5 5 5 5 5 5 5 5 5 5 5 5 5 5 5 5 5 5 5 5 5 5 5 5 5 5 5 5 5 5 5 5 5 5 5 5 5 5 5 5 5 5 5 5 5 5 5 5 5 5 5 5 5 5 5 5 5 5 5 5 5 5 5 5 5 5 5 5 5 5 5 5 5 5 5 5 5 5 5 5 5 5 5 5 5 5 5 5 5 5 5 5 5 5 5 5 5 5 5 5 5 5 5 5 5 5 5 5 5 5 5 5 5 5 5 5 5 5 5 5 5 5 5 5 5 5 5 5 5 5 5 5 5 5 5 5 5 5 5 5 5 5 5 5 5 5 5 5 5 5 5 5 5 5 5 5 5 5 5 5 5 5 5 5 5 5 5 5 5 5 5 5 5 5 5 5 5 5 5 5 5 5 5 5 5 5 5 5 5 5 5 5 5 5 5 5 5 5 5 5 5 5 5 5 5 5 5 5 5 5 5 5 5 5 5 5 5 5 5 5 5 5 5 5 5 5 5 5 5 5 5 5 5 5 5 5 5 5 5 5 5 5 5 5 5 5 5 5 5 5 5 5 5 5 5 5 5 5 5 5 5 5 5 5 5 5 5 5 5 5 5 5 5 5 5 5 5 5 5 5 5 5 5 5 5 5 5 5 5 5 5 5 5 5 5 5 5 5 5 5 5 5 5 5 5 5 5 5 5 5 5 5 5 5 5 5 5 5 5 5 5 5 5 5 5 5 5 5 5 5 5 5 5 5 5 5 5 5 5 5 5 5 5 5 5 5 5 5 5 5 5 5 5 5 5 5 5 5 5 5 5 5 5 5 5 5 5 5 5 5 5 5 5 5 5 5 5 5 5 5 5 5 5 5 5 5 5 5 5 5 5 5 5 5 5 5 5 5 5 5 5 5 5 5 5 5 5 5 5 5 5 5 5 5 5 5 5 5 5 5 5 5 5 5 5 5 5 5 5 5 5 5 5 5 5 5 5 5 5 5 5 5 5 5 5 5 5 5 5 5 5 5 5 5 5 5 5 5 5 5 5 5 5 5 5 5 5 5 5 5 5 5 5 5 5 5 5 5 5 5 5 5 5 5 5 5 5 5 5 5 5 5 5 5 5 5 5 5 5 5 5 5 5 5 5 5 5 5 5 5 5 5 5 5 5 5 5 5 5 5 5 5 5 5 5 5 5 5 5 5 5 5 5 5 5 5 5 5 5 5 5 5 5 5 5 5 5 5 5 5 5 5 5 5 5 5 5 5 5 5 5 5 5 5 5 5 5 5 5 5 5 5 5 5 5 5 5 5 5 5 5 5 5 5 5 5 5 5 5 5 5 5 5 5 5 5 5 5 5 5 5 5 5 5 5 5 5 5 5 5 5 5 5 5 5 5 5 5 5 5 5 5 5 5 5 5 5 5 5 5 5 5 5 5 5 5 5 5 5 5 5 5 5 5 5 5 5 5 5 5 5 5 5 5 5 5 5 5 5 5 5 5 5 5 5 5 5 5 5 5 5 5 5 5 5 5 5 5 5 5 5 5 5 5 5 5 5 5 5 5 5 5 5 5 5 5 5 5 5 5 5 5 5 5 5 5 5 5 5 5 5 5 5 5 5 5 5 5 5 5 5 5 5 5 5 5 5 5 5 5 5 5 5 5 5 5 5 5 5 5 5 5 5 5 5 5 5 5 5 5 5 5 5 5 5 5 5 5 5 5 5 5 5 5 5 5 5 5 5 5 5 5 5 5 5 5 5 5 5 5 5 5 5 5 5 5 5 5 5 5 5 5 5 5 5 5 5 5 5 5 5 5 5 5 5 5 5 5 5 5 5 5 5 5 5 5 5 5 5 5 5 5 5 5 5 5 5 5 5 5 5 5 5 5 5 5 5 5 5 5 5 5 5 5 5 5 5 5 5 5 5 5 5 5 5 5 5 5 5 5 5 5 5 5 5 5 5 5 5 5 5 5 5 5 5 5 5 5 5 5 5 5 5 5 5 5 5 5 5 5 5 5 5 5 5 5 5 5 5 5 5 5 5 5 5 5 5 5 5 5 5 5 5 5 5 5 5 5 5 5 5 5 5 5 5 5 5 5 5 5 5 5 5 5 5 5 5 5 5 5 5 5 5 5 5 5 5 5 5 5 5 5 5 5 5 5 5 5 5 5 5 5 5 5 5 5 5 5 5 5 5 5 5 5 5 5 5 5 5 5 5 5 5 5 5 5 5 5 5 5 5 5 5 5 5 5 5 5 5 5 5 5 5 5 5 5 5 5 5 5 5 5 5 5 5 5 5 5 5 5 5 5 5 5 5 5 5 5 5 5 5 5 5 5 5 5 5 5 5 5 5 5 5 5 5 5 5 5 5 5 5 5 5 5 5 5 5 5 5 5 5 5 5 5 5 5 5 5 5 5 5 5 5 5 5 5 5 5 5 5 5 5 5 5 5 5 5 5 5 5 5 5 5 5 5 5 5 5 5 5 5 5 5 5 5 5 5 5 5 5 5 5 5 5 5 5 5 5 5 5 5 5 5 5 5 5 5 5 5 5 5 5 5 5 5 5 5 5 5 5 5 5 5 5 5 5 5 5 5 5 5 5 5 5 5 5 5 5 5 5 5 5 5 5 5 5 5 5 5 5 5 5 5 5 5 5 5 5 5 5 5 5 5 5 5 5 5 5 5 5 5 5 5 5 5 5 5 5 5 5 5 5 5 5 5 5 5 5 5 5 5 5 5 5 5 5 5 5 5 5 5 5 5 5 5 5 5 5 5 5 5 5 5 5 5 5 5 5 5 5 5 5 5 5 5 5 5 5 5 5 5 5 5 5 5 5 5 5 5 5 5 5 5 5 5 5 5 5 5 5 5 5 5 5 5 5 5 5 5 5 5 5 5 5 5 5 5 5 5 5 5 5 5 5 5 5 5 5 5 5 5 5 5 5 5 5 5 5 5 5 5 5 5 5 5 5 5 5 5 5 5 5 5 5 5 5 5 5 5 5 5 5 5 5 5 5 5 5 5 5 5 5 5 5 5 5 5 5 5 5 5 5 5 5 5 5 5 5 5 5 5 5 5 5 5 5 5 5 5 5 5 5 5 5 5 5 5 5 5 5 5 5 5 5 5 5 5 5 5 5 5 5 5 5 5 5 5 5 5 5 5 5 5 5 5 5 5 5 5 5 5 5 5 5 5 5 5 5 5 5 5 5 5 5 5 5 5 5 5 5 5 5 5 5 5 5 5 5 5 5 5 5 5 5 5 5 5 5 5 5 5 5 5 5 5 5 5 5 5 5 5 5 5 5 5 5 5 5 5 5 5 5 5 5 5 5 5 5 5 5 5 5 5 5 5 5 5 5 5 5 5 5 5 5 5 5 5 5 5 5 5 5 5 5 5 5 5 5 5 5 5 5 5 5 5 5 5 5 5 5 5 5 5 5 5 5 5 5 5 5 5 5 5 5 5 5 5 5 5 5 5 5 5 5 5 5 5 5 5 5 5 5 5 5 5 5 5 5 5 5 5 5 5 5 5 5 5 5 5 5 5 5 5 5 5 5 5 5 5 5 5 5 5 5 5 5 5 5 5 5 5 5 5 5 5 5 5 5 5 5 5 5 5 5 5 5 5 5 5 5 5 5 5 5 5 5 5 5 5 5 5 5 5 5 5 5 5 5 5 5 5 5 5 5 5 5 5 5 5 5 5 5 5 5 5 5 5 5 5 5 5 5 5 5 5 5 5 5 5 5 5 5 5 5 5 5 5 5 5 5 5 5 5 5 5 5 5 5 5 5 5 5 5 5 5 5 5 5 5 5 5 5 5 5 5 5 5 5 5 5 5 5 5 5 5 5 5 5 5 5 5 5 5 5 5 5 5 5 5 5 5 5 5 5 5 5 5 5 5 5 5 5 5 5 5 5 5 5 5 5 5 5 5 5 5 5 5 5 5 5 5 5 5 5 5 5 5 5 5 5 5 5 5 5 5 5 5 5 5 5 5 5 5 5 5 5 5 5 5 5 5 5 5 5 5 5 5 5 5 5 5 5 5 5 5 5 5 5 5 5 5 5 5 5 5 5 5 5 5 5 5 5 5 5 5 5 5 5 5 5 5 5 5 5 5 5 5 5 5 5 5 5 5 5 5 5 5 5 5 5 5 5 5 5 5 5 5 5 5 5 5 5 5 5 5 5 5 5 5 5 5 5 5 5 5 5 5 5 5 5 5 5 5 5 5 5 5 5 5 5 5 5 5 5 5 5 5 5 5 5 5 5 5 5 5 5 5 5 5 5 5 5 5 5 5 5 5 5 5 5 5 5 5 5 5 5 5 5 5 5 5 5 5 5 5 5 5 5 5 5 5 5 5 5 5 5 5 5 5 5 5 5 5 5 5 5 5 5 5 5 5 5 5 5 5 5 5 5 5 5 5 5 5 5 5 5 5 5 5 5 5 5 5 5 5 5 5 5 5 5 5 5 5 5 5 5 5 5 5 5 5 5 5 5 5 5 5 5 5 5 5 5 5 5 5 5 5 5 5 5 5 5 5 5 5 5 5 5 5 5 5 5 5 5 5 5 5 5 5 5 5 5 5 5 5 5 5 5 5 5 5 5 5 5 5 5 5 5 5 5 5 5 5 5 5 5 5 5 5 5 5 5 5 5 5 5 5 5 5 5 5 5 5 5 5 5 5 5 5 5 5 5 5 5 5 5 5 5 5 5 5 5 5 5 5 5 5 5 5 5 5 5 5 5 5 5 5 5 5 5 5 5 5 5 5 5 5 5 5 5 5 5 5 5 5 5 5 5 5 5 5 5 5 5 5 5 5 5 5 5 5 5 5 5 5 5 5 5 5 5 5 5 5 5 5 5 5 5 5 5 5 5 5 5 5 5 5 5 5 5 5 5 5 5 5 5 5 5 5 5 5 5 5 5 5 5 5 5 5 5 5 5 5 5 5 5 5 5 5 5 5 5 5 5 5 5 5 5 5 5 5 5 5 5 5 5 5 5 5 5 5 5 5 5 5 5 5 5 5 5 5 5 5 5 5 5 5 5 5 5 5 5 5 5 5 5 5 5 5 5 5 5 5 5 5 5 5 5 5 5 5 5 5 5 5 5 5 5 5 5 5 5 5 5 5 5 5 5 5 5 5 5 5 5 5 5 5 5 5 5 5 5 5 5 5 5 5 5 5 5 5 5 5 5 5 5 5 5 5 5 5 5 5 5 5 5 5 5 5 5 5 5 5 5 5 5 5 5 5 5 5 5 5 5 5 5 5 5 5 5 5 5 5 5 5 5 5 5 5 5 5 5 5 5 5 5 5 5 5 5 5 5 5 5 5 5 5 5 5 5 5 5 5 5 5 5 5 5 5 5 5 5 5 5 5 5 5 5 5 5 5 5 5 5 5 5 5 5 5 5 5 5 5 5 5 5 5 5 5 5 5 5 5 5 5 5 5 5 5 5 5 5 5 5 5 5 5 5 5 5 5 5 5 5 5 5 5 5 5 5 5 5 5 5 5 5 5 5 5 5 5 5 5 5 5 5 5 5 5 5 5 5 5 5 5 5 5 5 5 5 5 5 5 5 5 5 5 5 5 5 5 5 5 5 5 5 5 5 5 5 5 5 5 5 5 5 5 5 5 5 5 5 5 5 5 5 5 5 5 5 5 5 5 5 5 5 5 5 5 5 5 5 5 5 5 5 5 5 5 5 5 5 5 5 5 5 5 5 5 5 5 5 5 5 5 5 5 5 5 5 5 5 5 5 5 5 5 5 5 5 5 5 5 5 5 5 5 5 5 5 5 5 5 5 5 5 5 5 5 5 5 5 5 5 5 5 5 5 5 5 5 5 5 5 5 5 5 5 5 5 5 5 5 5 5 5 5 5 5 5 5 5 5 5 5 5 5 5 5 5 5 5 5 5 5 5 5 5 5 5 5 5 5 5 5 5 5 5 5 5 5 5 5 5 5 5 5 5 5 5 5 5 5 5 5 5 5 5 5 5 5 5 5 5 5 5 5 5 5 5 5 5 5 5 5 5 5 5 5 5 5 5 5 5 5 5 5 5 5 5 5 5 5 5 5 5 5 5 5 5 5 5 5 5 5 5 5 5 5 5 5 5 5 5 5 5 5 5 5 5 5 5 5 5 5 5 5 5 5 5 5 5 5 5 5 5 5 5 5 5 5 5 5 5 5 5 5 5 5 5 5 5 5 5 5 5 5 5 5 5 5 5 5 5 5 5 5 5 5 5 5 5 5 5 5 5 5 5 5 5 5 5 5 5 5 5 5 5 5 5 5 5 5 5 5 5 5 5 5 5 5 5 5 5 5 5 5 5 5 5 5 5 5 5 5 5 5 5 5 5 5 5 5 5 5 5 5 5 5 5 5 5 5 5 5 5 5 5 5 5 5 5 5 5 5 5 5 5 5 5 5 5 5 5 5 5 5 5 5 5 5 5 5 5 5 5 5 5 5 5 5 5 5 5 5 5 5 5 5 5 5 5 5 5 5 5 5 5 5 5 5 5 5 5 5 5 5 5 5 5 5 5 5 5 5 5 5 5 5 5 5 5 5 5 5 5 5 5 5 5 5 5 5 5 5 5 5 5 5 5 5 5 5 5 5 5 5 5 5 5 5 5 5 5 5 5 5 5 5 5 5 5 5 5 5 5 5 5 5 5 5 5 5 5 5 5 5 5 5 5 5 5 5 5 5 5 5 5 5 5 5 5 5 5 5 5 5 5 5 5 5 5 5 5 5 5 5 5 5 5 5 5 5 5 5 5 5 5 5 5 5 5 5 5 5 5 5 5 5 5 5 5 5 5 5 5 5 5 5 5 5 5 5 5 5 5 5 5 5 5 5 5 5 5 5 5 5 5 5 5 5 5 5 5 5 5 5 5 5 5 5 5 5 5 5 5 5 5 5 5 5 5 5 5 5 5 5 5 5 5 5 5 5 5 5 5 5 5 5 5 5 5 5 5 5 5 5 5 5 5 5 5 5 5 5 5 5 5 5 5 5 5 5 5 5 5 5 5 5 5 5 5 5 5 5 5 5 5 5 5 5 5 5 5 5 5 5 5 5 5 5 5 5 5 5 5 5 5 5 5 5 5 5 5 5 5 5 5 5 5 5 5 5 5 5 5 5 5 5 5 5 5 5 5 5 5 5 5 5 5 5 5 5 5 5 5 5 5 5 5 5 5 5 5 5 5 5 5 5 5 5 5 5 5 5 5 5 5 5 5 5 5 5 5 5 5 5 5 5 5 5 5 5 5 5 5 5 5 5 5 5 5 5 5 5 5 5 5 5 5 5 5 5 5 5 5 5 5 5 5 5 5 5 5 5 5 5 5 5 5 5 5 5 5 5 5 5 5 5 5 5 5 5 5 5 5 5 5 5 5 5 5 5 5 5 5 5 5 5 5 5 5 5 5 5 5 5 5 5 5 5 5 5 5 5 5 5 5 5 5 5 5 5 5 5 5 5 5 5 5 5 5 5 5 5 5 5 5 5 5 5 5 5 5 5 5 5 5 5 5 5 5 5 5 5 5 5 5 5 5 5 5 5 5 5 5 5 5 5 5 5 5 5 5 5 5 5 5 5 5 5 5 5 5 5 5 5 5 5 5 5 5 5 5 5 5 5 5 5 5 5 5 5 5 5 5 5 5 5 5 5 5 5 5 5 5 5 5 5 5 5 5 5 5 5 5 5 5 5 5 5 5 5 5 5 5 5 5 5 5 5 5 5 5 5 5 5 5 5 5 5 5 5 5 5 5 5 5 5 5 5 5 5 5 5 5 5 5 5 5 5 5 5 5 5 5 5 5 5 5 5 5 5 5 5 5 5 5 5 5 5 5 5 5 5 5 5 5 5 5 5 5 5 5 5 5 5 5 5 5 5 5 5 5 5 5 5 5 5 5 5 5 5 5 5 5 5 5 5 5 5 5 5 5 5 5 5 5 5 5 5 5 5 5 5 5 5 5 5 5 5 5 5 5 5 5 5 5 5 5 5 5 5 5 5 5 5 5 5 5 5 5 5 5 5 5 5 5 5 5 5 5 5 5 5 5 5 5 5 5 5 5 5 5 5 5 5 5 5 5 5 5 5 5 5 5 5 5 5 5 5 5 5 5 5 5 5 5 5 5 5 5 5 5 5 5 5 5 5 5 5 5 5 5 5 5 5 5 5 5 5 5 5 5 5 5 5 5 5 5 5 5 5 5 5 5 5 5 5 5 5 5 5 5 5 5 5 5 5 5 5 5 5 5 5 5 5 5 5 5 5 5 5 5 5 5 5 5 5 5 5 5 5 5 5 5 5 5 5 5 5 5 5 5 5 5 5 5 5 5 5 5 5 5 5 5 5 5 5 5 5 5 5 5 5 5 5 5 5 5 5 5 5 5 5 5 5 5 5 5 5 5 5 5 5 5 5 5 5 5 5 5 5 5 5 5 5 5 5 5 5 5 5 5 5 5 5 5 5 5 5 5 5 5 5 5 5 5 5 5 5 5 5 5 5 5 5 5 5 5 5 5 5 5 5 5 5 5 5 5 5 5 5 5 5 5 5 5 5 5 5 5 5 5 5 5 5 5 5 5 5 5 5 5 5 5 5 5 5 5 5 5 5 5 5 5 5 5 5 5 5 5 5 5 5 5 5 5 5 5 5 5 5 5 5 5 5 5 5 5 5 5 5 5 5 5 5 5 5 5 5 5 5 5 5 5 5 5 5 5 5 5 5 5 5 5 5 5 5 5 5 5 5 5 5 5 5 5 5 5 5 5 5 5 5 5 5 5 5 5 5 5 5 5 5 5 5 5 5 5 5 5 5 5 5 5 5 5 5 5 5 5 5 5 5 5 5 5 5 5 5 5 5 5 5 5 5 5 5 5 5 5 5 5 5 5 5 5 5 5 5 5 5 5 5 5 5 5 5 5 5 5 5 5 5 5 5 5 5 5 5 5 5 5 5 5 5 5 5 5 5 5 5 5 5 5 5 5 5 5 5 5 5 5 5 5 5 5 5 5 5 5 5 5 5 5 5 5 5 5 5 5 5 5 5 5 5 5 5 5 5 5 5 5 5 5 5 5 5 5 5 5 5 5 5 5 5 5 5 5 5 5 5 5 5 5 5 5 5 5 5 5 5 5 5 5 5 5 5 5 5 5 5 5 5 5 5 5 5 5 5 5 5 5 5 5 5 5 5 5 5 5 5 5 5 5 5 5 5 5 5 5 5 5 5 5 5 5 5 5 5 5 5 5 5 5 5 5 5 5 5 5 5 5 5 5 5 5 5 5 5 5 5 5 5 5 5 5 5 5 5 5 5 5 5 5 5 5 5 5 5 5 5 5 5 5 5 5 5 5 5 5 5 5 5 5 5 5 5 5 5 5 5 5 5 5 5 5 5 5 5 5 5 5 5 5 5 5 5 5 5 5 5 5 5 5 5 5 5 5 5 5 5 5 5 5 5 5 5 5 5 5 5 5 5 5 5 5 5 5 5 5 5 5 5 5 5 5 5 5 5 5 5 5 5 5 5 5 5 5 5 5 5 5 5 5 5 5 5 5 5 5 5 5 5 5 5 5 5 5 5 5 5 5 5 5 5 5 5 5 5 5 5 5 5 5 5 5 5 5 5 5 5 5 5 5 5 5 5 5 5 5 5 5 5 5 5 5 5 5 5 5 5 5 5 5 5 5 5 5 5 5 5 5 5 5 5 5 5 5 5 5 5 5 5 5 5 5 5 5 5 5 5 5 5 5 5 5 5 5 5 5 5 5 5 5 5 5 5 5 5 5 5 5 5 5 5 5 5 5 5 5 5 5 5 5 5 5 5 5 5 5 5 5 5 5 5 5 5 5 5 5 5 5 5 5 5 5 5 5 5 5 5 5 5 5 5 5 5 5 5 5 5 5 5 5 5 5 5 5 5 5 5 5 5 5 5 5 5 5 5 5 5 5 5 5 5 5 5 5 5 5 5 5 5 5 5 5 5 5 5 5 5 5 5 5 5 5 5 5 5 5 5 5 5 5 5 5 5 5 5 5 5 5 5 5 5 5 5 5 5 5 5 5 5 5 5 5 5 5 5 5 5 5 5 5 5 5 5 5 5 5 5 5 5 5 5 5 5 5 5 5 5 5 5 5 5 5 5 5 5 5 5 5 5 5 5 5 5 5 5 5 5 5 5 5 5 5 5 5 5 5 5 5 5 5 5 5 5 5 5 5 5 5 5 5 5 5 5 5 5 5 5 5 5 5 5 5 5 5 5 5 5 5 5 5 5 5 5 5 5 5 5 5 5 5 5 5 5 5 5 5 5 5 5 5 5 5 5 5 5 5 5 5 5 5 5 5 5 5 5 5 5 5 5 5 5 5 5 5 5 5 5 5 5 5 5 5 5 5 5 5 5 5 5 5 5 5 5 5 5 5 5 5 5 5 5 5 5 5 5 5 5 5 5 5 5 5 5 5 5 5 5 5 5 5 5 5 5 5 5 5 5 5 5 5 5 5 5 5 5 5 5 5 5 5 5 5 5 5 5 5 5 5 5 5 5 5 5 5 5 5 5 5 5 5 5 5 5 5 5 5 5 5 5 5 5 5 5 5 5 5 5 5 5 5 5 5 5 5 5 5 5 5 5 5 5 5 5 5 5 5 5 5 5 5 5 5 5 5 5 5 5 5 5 5 5 5 5 5 5 5 5 5 5 5 5 5 5 5 5 5 5 5 5 5 5 5 5 5 5 5 5 5 5 5 5 5 5 5 5 5 5 5 5 5 5 5 5 5 5 5 5 5 5 5 5 5 5 5 5 5 5 5 5 5 5 5 5 5 5 5 5 5 5 5 5 5 5 5 5 5 5 5 5 5 5 5 5 5 5 5 5 5 5 5 5 5 5 5 5 5 5 5 5 5 5 5 5 5 5 5 5 5 5 5 5 5 5 5 5 5 5 5 5 5 5 5 5 5 5 5 5 5 5 5 5 5 5 5 5 5 5 5 5 5 5 5 5 5 5 5 5 5 5 5 5 5 5 5 5 5 5 5 5 5 5 5 5 5 5 5 5 5 5 5 5 5 5 5 5 5 5 5 5 5 5 5 5 5 5 5 5 5 5 5 5 5 5 5 5 5 5 5 5 5 5 5 5 5 5 5 5 5 5 5 5 5 5 5 5 5 5 5 5 5 5 5 5 5 5 5 5 5 5 5 5 5 5 5 5 5 5 5 5 5 5 5 5 5 5 5 5 5 5 5 5 5 5 5 5 5 5 5 5 5 5 5 5 5 5 5 5 5 5 5 5 5 5 5 5 5 5 5 5 5 5 5 5 5 5 5 5 5 5 5 5 5 5 5 5 5 5 5 5 5 5 5 5 5 5 5 5 5 5 5 5 5 5 5 5 5 5 5 5 5 5 5 5 5 5 5 5 5 5 5 5 5 5 5 5 5 5 5 5 5 5 5 5 5 5 5 5 5 5 5 5 5 5 5 5 5 5 5 5 5 5 5 5 5 5 5 5 5 5 5 5 5 5 5 5 5 5 5 5 5 5 5 5 5 5 5 5 5 5 5 5 5 5 5 5 5 5 5 5 5 5 5 5 5 5 5 5 5 5 5 5 5 5 5 5 5 5 5 5 5 5 5 5 5 5 5 5 5 5 5 5 5 5 5 5 5 5 5 5 5 5 5 5 5 5 5 5 5 5 5 5 5 5 5 5 5 5 5 5 5 5 5 5 5 5 5 5 5 5 5 5 5 5 5 5 5 5 5 5 5 5 5 5 5 5 5 5 5 5 5 5 5 5 5 5 5 5 5 5 5 5 5 5 5 5 5 5 5 5 5 5 5 5 5 5 5 5 5 5 5 5 5 5 5 5 5 5 5 5 5 5 5 5 5 5 5 5 5 5 5 5 5 5 5 5 5 5 5 5 5 5 5 5 5 5 5 5 5 5 5 5 5 5 5 5 5 5 5 5 5 5 5 5 5 5 5 5 5 5 5 5 5 5 5 5 5 5 5 5 5 5 5 5 5 5 5 5 5 5 5 5 5 5 5 5 5 5 5 5 5 5 5 5 5 5 5 5 5 5 5 5 5 5 5 5 5 5 5 5 5 5 5 5 5 5 5 5 5 5 5 5 5 5 5 5 5 5 5 5 5 5 5 5 5 5 5 5 5 5 5 5 5 5 5 5 5 5 5 5 5 5 5 5 5 5 5 5 5 5 5 5 5 5 5 5 5 5 5 5 5 5 5 5 5 5 5 5 5 5 5 5 5 5 5 5 5 5 5 5 5 5 5 5 5 5 5 5 5 5 5 5 5 5 5 5 5 5 5 5 5 5 5 5 5 5 5 5 5 5 5 5 5 5 5 5 5 5 5 5 5 5 5 5 5 5 5 5 5 5 5 5 5 5 5 5 5 5 5 5 5 5 5 5 5 5 5 5 5 5 5 5 5 5 5 5 5 5 5 5 5 5 5 5 5 5 5 5 5 5 5 5 5 5 5 5 5 5 5 5 5 5 5 5 5 5 5 5 5 5 5 5 5 5 5 5 5 5 5 5 5 5 5 5 5 5 5 5 5 5 5 5 5 5 5 5 5 5 5 5 5 5 5 5 5 5 5 5 5 5 5 5 5 5 5 5 5 5 5 5 5 5 5 5 5 5 5 5 5 5 5 5 5 5 5 5 5 5 5 5 5 5 5 5 5 5 5 5 5 5 5 5 5 5 5 5 5 5 5 5 5 5 5 5 5 5 5 5 5 5 5 5 5 5 5 5 5 5 5 5 5 5 5 5 5 5 5 5 5 5 5 5 5 5 5 5 5 5 5 5 5 5 5 5 5 5 5 5 5 5 5 5 5 5 5 5 5 5 5 5 5 5 5 5 5 5 5 5 5 5 5 5 5 5 5 5 5 5 5 5 5 5 5 5 5 5 5 5 5 5 5 5 5 5 5 5 5 5 5 5 5 5 5 5 5 5 5 5 5 5 5 5 5 5 5 5 5 5 5 5 5 5 5 5 5 5 5 5 5 5 5 5 5 5 5 5 5 5 5 5 5 5 5 5 5 5 5 5 5 5 5 5 5 5 5 5 5 5 5 5 5 5 5 5 5 5 5 5 5 5 5 5 5 5 5 5 5 5 5 5 5 5 5 5 5 5 5 5 5 5 5 5 5 5 5 5 5 5 5 5 5 5 5 5 5 5 5 5 5 5 5 5 5 5 5 5 5 5 5 5 5 5 5 5 5 5 5 5 5 5 5 5 5 5 5 5 5 5 5 5 5 5 5 5 5 5 5 5 5 5 5 5 5 5 5 5 5 5 5 5 5 5 5 5 5 5 5 5 5 5 5 5 5 5 5 5 5 5 5 5 5 5 5 5 5 5 5 5 5 5 5 5 5 5 5 5 5 5 5 5 5 5 5 5 5 5 5 5 5 5 5 5 5 5 5 5 5 5 5 5 5 5 5 5 5 5 5 5 5 5 5 5 5 5 5 5 5 5 5 5 5 5 5 5 5 5 5 5 5 5 5 5 5 5 5 5 5 5 5 5 5 5 5 5 5 5 5 5 5 5 5 5 5 5 5 5 5 5 5 5 5 5 5 5 5 5 5 5 5 5 5 5 5 5 5 5 5 5 5 5 5 5 5 5 5 5 5 5 5 5 5 5 5 5 5 5 5 5 5 5 5 5 5 5 5 5 5 5 5 5 5 5 5 5 5 5 5 5 5 5 5 5 5 5 5 5 5 5 5 5 5 5 5 5 5 5 5 5 5 5 5 5 5 5 5 5 5 5 5 5 5 5 5 5 5 5 5 5 5 5 5 5 5 5 5 5 5 5 5 5 5 5 5 5 5 5 5 5 5 5 5 5 5 5 5 5 5 5 5 5 5 5 5 5 5 5 5 5 5 5 5 5 5 5 5 5 5 5 5 5 5 5 5 5 5 5 5 5 5 5 5 5 5 5 5 5 5 5 5 5 5 5 5 5 5 5 5 5 5 5 5 5 5 5 5 5 5 5 5 5 5 5 5 5 5 5 5 5 5 5 5 5 5 5 5 5 5 5 5 5 5 5 5 5 5 5 5 5 5 5 5 5 5 5 5 5 5 5 5 5 5 5 5 5 5 5 5 5 5 5 5 5 5 5 5 5 5 5 5 5 5 5 5 5 5 5 5 5 5 5 5 5 5 5 5 5 5 5 5 5 5 5 5 5 5 5 5 5 5 5 5 5 5 5 5 5 5 5 5 5 5 5 5 5 5 5 5 5 5 5 5 5 5 5 5 5 5 5 5 5 5 5 5 5 5 5 5 5 5 5 5 5 5 5 5 5 5 5 5 5 5 5 5 5 5 5 5 5 5 5 5 5 5 5 5 5 5 5 5 5 5 5 5 5 5 5 5 5 5 5 5 5 5 5 5 5 5 5 5 5 5 5 5 5 5 5 5 5 5 5 5 5 5 5 5 5 5 5 5 5 5 5 5 5 5 5 5 5 5 5 5 5 5 5 5 5 5 5 5 5 5 5 5 5 5 5 5 5 5 5 5 5 5 5 5 5 5 5 5 5 5 5 5 5 5 5 5 5 5 5 5 5 5 5 5 5 5 5 5 5 5 5 5 5 5 5 5 5 5 5 5 5 5 5 5 5 5 5 5 5 5 5 5 5 5 5 5 5 5 5 5 5 5 5 5 5 5 5 5 5 5 5 5 5 5 5 5 5 5 5 5 5 5 5 5 5 5 5 5 5 5 5 5 5 5 5 5 5 5 5 5 5 5 5 5 5 5 5 5 5 5 5 5 5 5 5 5 5 5 5 5 5 5 5 5 5 5 5 5 5 5 5 5 5 5 5 5 5 5 5 5 5 5 5 5 5 5 5 5 5 5 5 5 5 5 5 5 5 5 5 5 5 5 5 5 5 5 5 5 5 5 5 5 5 5 5 5 5 5 5 5 5 5 5 5 5 5 5 5 5 5 5 5 5 5 5 5 5 5 5 5 5 5 5 5 5 5 5 5 5 5 5 5 5 5 5 5 5 5 5 5 5 5 5 5 5 5 5 5 5 5 5 5 5 5 5 5 5 5 5 5 5 5 5 5 5 5 5 5 5 5 5 5 5 5 5 5 5 5 5 5 5 5 5 5 5 5 5 5 5 5 5 5 5 5 5 5 5 5 5 5 5 5 5 5 5 5 5 5 5 5 5 5 5 5 5 5 5 5 5 5 5 5 5 5 5 5 5 5 5 5 5 5 5 5 5 5 5 5 5 5 5 5 5 5 5 5 5 5 5 5 5 5 5 5 5 5 5 5 5 5 5 5 5 5 5 5 5 5 5 5 5 5 5 5 5 5 5 5 5 5 5 5 5 5 5 5 5 5 5 5 5 5 5 5 5 5 5 5 5 5 5 5 5 5 5 5 5 5 5 5 5 5 5 5 5 5 5 5 5 5 5 5 5 5 5 5 5 5 5 5 5 5 5 5 5 5 5 5 5 5 5 5 5 5 5 5 5 5 5 5 5 5 5 5 5 5 5 5 5 5 5 5 5 5 5 5 5 5 5 5 5 5 5 5 5 5 5 5 5 5 5 5 5 5 5 5 5 5 5 5 5 5 5 5 5 5 5 5 5 5 5 5 5 5 5 5 5 5 5 5 5 5 5 5 5 5 5 5 5 5 5 5 5 5 5 5 5 5 5 5 5 5 5 5 5 5 5 5 5 5 5 5 5 5 5 5 5 5 5 5 5 5 5 5 5 5 5 5 5 5 5 5 5 5 5 5 5 5 5 5 5 5 5 5 5 5 5 5 5 5 5 5 5 5 5 5 5 5 5 5 5 5 5 5 5 5 5 5 5 5 5 5 5 5 5 5 5 5 5 5 5 5 5 5 5 5 5 5 5 5 5 5 5 5 5 5 5 5 5 5 5 5 5 5 5 5 5 5 5 5 5 5 5 5 5 5 5 5 5 5 5 5 5 5 5 5 5 5 5 5 5 5 5 5 5 5 5 5 5 5 5 5 5 5 5 5 5 5 5 5 5 5 5 5 5 5 5 5 5 5 5 5 5 5 5 5 5 5 5 5 5 5 5 5 5 5 5 5 5 5 5 5 5 5 5 5 5 5 5 5 5 5 5 5 5 5 5 5 5 5 5 5 5 5 5 5 5 5 5 5 5 5 5 5 5 5 5 5 5 5 5 5 5 5 5 5 5 5 5 5 5 5 5 5 5 5 5 5 5 5 5 5 5 5 5 5 5 5 5 5 5 5 5 5 5 5 5 5 5 5 5 5 5 5 5 5 5 5 5 5 5 5 5 5 5 5 5 5 5 5 5 5 5 5 5 5 5 5 5 5 5 5 5 5 5 5 5 5 5 5 5 5 5 5 5 5 5 5 5 5 5 5 5 5 5 5 5 5 5 5 5 5 5 5 5 5 5 5 5 5 5 5 5 5 5 5 5 5 5 5 5 5 5 5 5 5 5 5 5 5 5 5 5 5 5 5 5 5 5 5 5 5 5 5 5 5 5 5 5 5 5 5 5 5 5 5 5 5 5 5 5 5 5 5 5 5 5 5 5 5 5 5 5 5 5 5 5 5 5 5 5 5 5 5 5 5 5 5 5 5 5 5 5 5 5 5 5 5 5 5 5 5 5 5 5 5 5 5 5 5 5 5 5 5 5 5 5 5 5 5 5 5 5 5 5 5 5 5 5 5 5 5 5 5 5 5 5 5 5 5 5 5 5 5 5 5 5 5 5 5 5 5 5 5 5 5 5 5 5 5 5 5 5 5 5 5 5 5 5 5 5 5 5 5 5 5 5 5 5 5 5 5 5 5 5 5 5 5 5 5 5 5 5 5 5 5 5 5 5 5 5 5 5 5 5 5 5 5 5 5 5 5 5 5 5 5 5 5 5 5 5 5 5 5 5 5 5 5 5 5 5 5 5 5 5 5 5 5 5 5 5 5 5 5 5 5 5 5 5 5 5 5 5 5 5 5 5 5 5 5 5 5 5 5 5 5 5 5 5 5 5 5 5 5 5 5 5 5 5 5 5 5 5 5 5 5 5 5 5 5 5 5 5 5 5 5 5 5 5 5 5 5 5 5 5 5 5 5 5 5 5 5 5 5 5 5 5 5 5 5 5 5 5 5 5 5 5 5 5 5 5 5 5 5 5 5 5 5 5 5 5 5 5 5 5 5 5 5 5 5 5 5 5 5 5 5 5 5 5 5 5 5 5 5 5 5 5 5 5 5 5 5 5 5 5 5 5 5 5 5 5 5 5 5 5 5 5 5 5 5 5 5 5 5 5 5 5 5 5 5 5 5 5 5 5 5 5 5 5 5 5 5 5 5 5 5 5 5 5 5 5 5 5 5 5 5 5 5 5 5 5 5 5 5 5 5 5 5 5 5 5 5 5 5 5 5 5 5 5 5 5 5 5 5 5 5 5 5 5 5 5 5 5 5 5 5 5 5 5 5 5 5 5 5 5 5 5 5 5 5 5 5 5 5 5 5 5 5 5 5 5 5 5 5 5 5 5 5 5 5 5 5 5 5 5 5 5 5 5 5 5 5 5 5 5 5 5 5 5 5 5 5 5 5 5 5 5 5 5 5 5 5 5 5 5 5 5 5 5 5 5 5 5 5 5 5 5 5 5 5 5 5 5 5 5 5 5 5 5 5 5 5 5 5 5 5 5 5 5 5 5 5 5 5 5 5 5 5 5 5 5 5 5 5 5 5 5 5 5 5 5 5 5 5 5 5 5 5 5 5 5 5 5 5 5 5 5 5 5 5 5 5 5 5 5 5 5 5 5 5 5 5 5 5 5 5 5 5 5 5 5 5 5 5 5 5 5 5 5 5 5 5 5 5 5 5 5 5 5 5 5 5 5 5 5 5 5 5 5 5 5 5 5 5 5 5 5 5 5 5 5 5 5 5 5 5 5 5 5 5 5 5 5 5 5 5 5 5 5 5 5 5 5 5 5 5 5 5 5 5 5 5 5 5 5 5 5 5 5 5 5 5 5 5 5 5 5 5 5 5 5 5 5 5 5 5 5 5 5 5 5 5 5 5 5 5 5 5 5 5 5 5 5 5 5 5 5 5 5 5 5 5 5 5 5 5 5 5 5 5 5 5 5 5 5 5 5 5 5 5 5 5 5 5 5 5 5 5 5 5 5 5 5 5 5 5 5 5 5 5 5 5 5 5 5 5 5 5 5 5 5 5 5 5 5 5 5 5 5 5 5 5 5 5 5 5 5 5 5 5 5 5 5 5 5 5 5 5 5 5 5 5 5 5 5 5 5 5 5 5 5 5 5 5 5 5 5 5 5 5 5 5 5 5 5 5 5 5 5 5 5 5 5 5 5 5 5 5 5 5 5 5 5 5 5 5 5 5 5 5 5 5 5 5 5 5 5 5 5 5 5 5 5 5 5 5 5 5 5 5 5 5 5 5 5 5 5 5 5 5 5 5 5 5 5 5 5 5 5 5 5 5 5 5 5 5 5 5 5 5 5 5 5 5 5 5 5 5 5 5 5 5 5 5 5 5 5 5 5 5 5 5 5 5 5 5 5 5 5 5 5 5 5 5 5 5 5 5 5 5 5 5 5 5 5 5 5 5 5 5 5 5 5 5 5 5 5 5 5 5 5 5 5 5 5 5 5 5 5 5 5 5 5 5 5 5 5 5 5 5 5 5 5 5 5 5 5 5 5 5 5 5 5 5 5 5 5 5 5 5 5 5 5 5 5 5 5 5 5 5 5 5 5 5 5 5 5 5 5 5 5 5 5 5 5 5 5 5 5 5 5 5 5 5 5 5 5 5 5 5 5 5 5 5 5 5 5 5 5 5 5 5 5 5 5 5 5 5 5 5 5 5 5 5 5 5 5 5 5 5 5 5 5 5 5 5 5 5 5 5 5 5 5 5 5 5 5 5 5 5 5 5 5 5 5 5 5 5 5 5 5 5 5 5 5 5 5 5 5 5 5 5 5 5 5 5 5 5 5 5 5 5 5 5 5 5 5 5 5 5 5 5 5 5 5 5 5 5 5 5 5 5 5 5 5 5 5 5 5 5 5 5 5 5 5 5 5 5 5 5 5 5 5 5 5 5 5 5 5 5 5 5 5 5 5 5 5 5 5 5 5 5 5 5 5 5 5 5 5 5 5 5 5 5 5 5 5 5 5 5 5 5 5 5 5 5 5 5 5 5 5 5 5 5 5 5 5 5 5 5 5 5 5 5 5 5 5 5 5 5 5 5 5 5 5 5 5 5 5 5 5 5 5 5 5 5 5 5 5 5 5 5 5 5 5 5 5 5 5 5 5 5 5 5 5 5 5 5 5 5 5 5 5 5 5 5 5 5 5 5 5 5 5 5 5 5 5 5 5 5 5 5 5 5 5 5 5 5 5 5 5 5 5 5 5 5 5 5 5 5 5 5 5 5 5 5 5 5 5 5 5 5 5 5 5 5 5 5 5 5 5 5 5 5 5 5 5 5 5 5 5 5 5 5 5 5 5 5 5 5 5 5 5 5 5 5 5 5 5 5 5 5 5 5 5 5 5 5 5 5 5 5 5 5 5 5 5 5 5 5 5 5 5 5 5 5 5 5 5 5 5 5 5 5 5 5 5 5 5 5 5 5 5 5 5 5 5 5 5 5 5 5 5 5 5 5 5 5 5 5 5 5 5 5 5 5 5 5 5 5 5 5 5 5 5 5 5 5 5 5 5 5 5 5 5 5 5 5 5 5 5 5 5 5 5 5 5 5 5 5 5 5 5 5 5 5 5 5 5 5 5 5 5 5 5 5 5 5 5 5 5 5 5 5 5 5 5 5 5 5 5 5 5 5 5 5 5 5 5 5 5 5 5 5 5 5 5 5 5 5 5 5 5 5 5 5 5 5 5 5 5 5 5 5 5 5 5 5 5 5 5 5 5 5 5 5 5 5 5 5 5 5 5 5 5 5 5 5 5 5 5 5 5 5 5 5 5 5 5 5 5 5 5 5 5 5 5 5 5 5 5 5 5 5 5 5 5 5 5 5 5 5 5 5 5 5 5 5 5 5 5 5 5 5 5 5 5 5 5 5 5 5 5 5 5 5 5 5 5 5 5 5 5 5 5 5 5 5 5 5 5 5 5 5 5 5 5 5 5 5 5 5 5 5 5 5 5 5 5 5 5 5 5 5 5 5 5 5 5 5 5 5 5 5 5 5 5 5 5 5 5 5 5 5 5 5 5 5 5 5 5 5 5 5 5 5 5 5 5 5 5 5 5 5 5 5 5 5 5 5 5 5 5 5 5 5 5 5 5 5 5 5 5 5 5 5 5 5 5 5 5 5 5 5 5 5 5 5 5 5 5 5 5 5 5 5 5 5 5 5 5 5 5 5 5 5 5 5 5 5 5 5 5 5 5 5 5 5 5 5 5 5 5 5 5 5 5 5 5 5 5 5 5 5 5 5 5 5 5 5 5 5 5 5 5 5 5 5 5 5 5 5 5 5 5 5 5 5 5 5 5 5 5 5 5 5 5 5 5 5 5 5 5 5 5 5 5 5 5 5 5 5 5 5 5 5 5 5 5 5 5 5 5 5 5 5 5 5 5 5 5 5 5 5 5 5 5 5 5 5 5 5 5 5 5 5 5 5 5 5 5 5 5 5 5 5 5 5 5 5 5 5 5 5 5 5 5 5 5 5 5 5 5 5 5 5 5 5 5 5 5 5 5 5 5 5 5 5 5 5 5 5 5 5 5 5 5 5 5 5 5 5 5 5 5 5 5 5 5 5 5 5 5 5 5 5 5 5 5 5 5 5 5 5 5 5 5 5 5 5 5 5 5 5 5 5 5 5 5 5 5 5 5 5 5 5 5 5 5 5 5 5 5 5 5 5 5 5 5 5 5 5 5 5 5 5 5 5 5 5 5 5 5 5 5 5 5 5 5 5 5 5 5 5 5 5 5 5 5 5 5 5 5 5 5 5 5 5 5 5 5 5 5 5 5 5 5 5 5 5 5 5 5 5 5 5 5 5 5 5 5 5 5 5 5 5 5 5 5 5 5 5 5 5 5 5 5 5 5 5 5 5 5 5 5 5 5 5 5 5 5 5 5 5 5 5 5 5 5 5 5 5 5 5 5 5 5 5 5 5 5 5 5 5 5 5 5 5 5 5 5 5 5 5 5 5 5 5 5 5 5 5 5 5 5 5 5 5 5 5 5 5 5 5 5 5 5 5 5 5 5 5 5 5 5 5 5 5 5 5 5 5 5 5 5 5 5 5 5 5 5 5 5 5 5 5 5 5 5 5 5 5 5 5 5 5 5 5 5 5 5 5 5 5 5 5 5 5 5 5 5 5 5 5 5 5 5 5 5 5 5 5 5 5 5 5 5 5 5 5 5 5 5 5 5 5 5 5 5 5 5 5 5 5 5 5 5 5 5 5 5 5 5 5 5 5 5 5 5 5 5 5 5 5 5 5 5 5 5 5 5 5 5 5 5 5 5 5 5 5 5 5 5 5 5 5 5 5 5 5 5 5 5 5 5 5 5 5 5 5 5 5 5 5 5 5 5 5 5 5 5 5 5 5 5 5 5 5 5 5 5 5 5 5 5 5 5 5 5 5 5 5 5 5 5 5 5 5 5 5 5 5 5 5 5 5 5 5 5 5 5 5 5 5 5 5 5 5 5 5 5 5 5 5 5 5 5 5 5 5 5 5 5 5 5 5 5 5 5 5 5 5 5 5 5 5 5 5 5 5 5 5 5 5 5 5 5 5 5 5 5 5 5 5 5 5 5 5 5 5 5 5 5 5 5 5 5 5 5 5 5 5 5 5 5 5 5 5 5 5 5 5 5 5 5 5 5 5 5 5 5 5 5 5 5 5 5 5 5 5 5 5 5 5 5 5 5 5 5 5 5 5 5 5 5 5 5 5 5 5 5 5 5 5 5 5 5 5 5 5 5 5 5 5 5 5 5 5 5 5 5 5 5 5 5 5 5 5 5 5 5 5 5 5 5 5 5 5 5 5 5 5 5 5 5 5 5 5 5 5 5 5 5 5 5 5 5 5 5 5 5 5 5 5 5 5 5 5 5 5 5 5 5 5 5 5 5 5 5 5 5 5 5 5 5 5 5 5 5 5 5 5 5 5 5 5 5 5 5 5 5 5 5 5 5 5 5 5 5 5 5 5 5 5 5 5 5 5 5 5 5 5 5 5 5 5 5 5 5 5 5 5 5 5 5 5 5 5 5 5 5 5 5 5 5 5 5 5 5 5 5 5 5 5 5 5 5 5 5 5 5 5 5 5 5 5 5 5 5 5 5 5 5 5 5 5 5 5 5 5 5 5 5 5 5 5 5 5 5 5 </DataArray>
         </Cells>
         <PointData>
            <DataArray Name="displacement" NumberOfComponents="2" format="ascii" type="Float64">
-3.66145e-17 -2.19687e-16 
 5.59775e-17  1.18952e-16 
 1.66420e-16 -4.01765e-18 
-4.42290e-17  4.78151e-18 
 6.92201e-17  5.62049e-17 
-1.39601e-17 -1.04701e-16 
 4.12164e-17  5.15859e-17 
 6.12064e-18 -2.58980e-17 
 6.48246e-18  1.22293e-17 
 1.67542e-17 -5.42395e-18 
 1.10714e-16  8.30357e-17 
 1.73873e-17 -3.47746e-17 
 8.94158e-18  4.52450e-17 
       00000        00000 
 6.68005e-17  1.05700e-17 
-2.60354e-17 -7.47552e-18 
 5.37569e-17  1.95630e-17 
 4.18803e-17  1.39601e-17 
 2.07589e-17        00000 
 3.47746e-17  1.56486e-17 
 2.44236e-18  8.77520e-18 
-7.30724e-18 -1.59982e-17 
 7.25340e-17  2.57994e-17 
-1.42741e-17  3.72034e-18 
 7.93919e-18  1.01137e-17 
 1.77057e-17 -1.63982e-19 
 3.80580e-17  1.03795e-17 
 5.21619e-18  8.69366e-19 
 1.25426e-17  7.12784e-18 
 3.49003e-18        00000 
 2.88399e-17  2.23622e-17 
-1.01909e-17 -8.84383e-18 
 2.84065e-17  1.36060e-17 
-6.98005e-18  6.98005e-18 
 3.11384e-17  6.91964e-18 
 5.21619e-18  1.04324e-17 
 2.37271e-17 -8.70713e-18 
 3.07422e-18  1.02042e-17 
 2.56938e-17  6.88884e-18 
-4.57154e-18  1.00081e-17 
 8.97608e-18  1.22595e-17 
 3.43533e-18 -2.59755e-18 
 9.51451e-18  4.32478e-18 
 3.47746e-18  9.56302e-18 
 3.56937e-18  5.35305e-18 
-3.49003e-18 -6.98005e-18 
 4.20712e-18  1.50105e-17 
 1.49023e-18 -2.76309e-18 
 2.08298e-18  1.05768e-17 
 2.18127e-19 -2.61752e-18 
-1.02709e-18  7.78427e-18 
-6.52052e-19  1.04328e-17 
-3.67521e-18 -2.32967e-18 
-1.79579e-19  1.93766e-18 
-6.69113e-20  9.31090e-18 
-4.73901e-18  8.43779e-18 
-9.39967e-20 -6.02630e-19 
-1.36089e-17  5.00166e-18 
       00000  6.91935e-18 
-1.82575e-17  1.13022e-17 
-1.27602e-18  3.72685e-18 
-1.39607e-17  3.49017e-18 
 1.47464e-18  6.83661e-18 
-1.63384e-17  8.19623e-18 
-2.29278e-18 -2.31521e-18 
-1.04705e-17  2.09410e-17 
-6.91935e-18  3.45967e-18 
-2.43433e-17  1.82575e-17 
-7.93133e-18  2.47331e-18 
-3.11798e-17  3.11184e-18 
 5.49355e-18  1.08254e-17 
-1.86189e-17  1.48089e-17 
-4.00065e-19 -2.78749e-18 
-1.10866e-17  1.70760e-17 
-2.07580e-17  1.38387e-17 
 3.47761e-18  1.21716e-17 
-2.70461e-18  5.57704e-18 
-4.18821e-17  2.79214e-17 
 2.59066e-17  2.17019e-18 
-4.89301e-17  6.50911e-18 
 1.38736e-17  6.45446e-18 
-3.49017e-17  1.74509e-17 
-4.84354e-17  2.07580e-17 
-5.21641e-17  1.73880e-18 
-3.82894e-18  7.14681e-17 
-3.35929e-17 -2.46971e-17 
-2.59007e-17  2.51983e-17 
-7.31444e-17  9.32588e-18 
 3.29014e-17  3.39307e-17 
-2.79214e-17 -6.98035e-18 
 5.56259e-18  4.88486e-18 
-3.05534e-17  8.84609e-17 
-4.73721e-18 -9.77759e-18 
-6.98035e-17  9.07445e-17 
 1.75030e-17 -9.71183e-18 
-2.06329e-17  7.39495e-17 
 1.47361e-18  1.63784e-18 
-6.02098e-17  9.81682e-17 
 1.39574e-16  6.28084e-17 
-7.32289e-17  5.49217e-17 
 6.87766e-01  5.97706e-01 
 5.77743e-01  5.25605e-01 
 5.09613e-01  4.66762e-01 
 4.62792e-01  4.18352e-01 
 4.27973e-01  3.78020e-01 
 4.00489e-01  3.43934e-01 
 3.77819e-01  3.14756e-01 
 3.58467e-01  2.89474e-01 
 3.41514e-01  2.67347e-01 
 3.26342e-01  2.47794e-01 
 3.12540e-01  2.30385e-01 
 2.99807e-01  2.14771e-01 
 2.87934e-01  2.00687e-01 
 2.76756e-01  1.87913e-01 
 2.66154e-01  1.76277e-01 
 2.56032e-01  1.65633e-01 
 2.46318e-01  1.55866e-01 
 2.36950e-01  1.46875e-01 
 2.27884e-01  1.38579e-01 
 2.19077e-01  1.30906e-01 
 2.10501e-01  1.23799e-01 
 2.02126e-01  1.17203e-01 
 1.93932e-01  1.11077e-01 
 1.85897e-01  1.05378e-01 
 1.78007e-01  1.00076e-01 
 1.70245e-01  9.51387e-02 
 1.62602e-01  9.05412e-02 
 1.55063e-01  8.62585e-02 
 1.47622e-01  8.22715e-02 
 1.40268e-01  7.85603e-02 
 1.32996e-01  7.51097e-02 
 1.25795e-01  7.19036e-02 
 1.18663e-01  6.89298e-02 
 1.11590e-01  6.61752e-02 
 1.04575e-01  6.36303e-02 
 9.76092e-02  6.12843e-02 
 9.06914e-02  5.91296e-02 
 8.38144e-02  5.71574e-02 
 7.69770e-02  5.53616e-02 
 7.01727e-02  5.37352e-02 
 6.34006e-02  5.22734e-02 
 5.66547e-02  5.09707e-02 
 4.99345e-02  4.98232e-02 
 4.32340e-02  4.88269e-02 
 3.65531e-02  4.79789e-02 
 2.98860e-02  4.72761e-02 
 2.32325e-02  4.67166e-02 
 1.65873e-02  4.62984e-02 
 9.95021e-03  4.60204e-02 
 3.31585e-03  4.58815e-02 
-3.31585e-03  4.58815e-02 
-9.95021e-03  4.60204e-02 
-1.65873e-02  4.62984e-02 
-2.32325e-02  4.67166e-02 
-2.98860e-02  4.72761e-02 
-3.65531e-02  4.79789e-02 
-4.32340e-02  4.88269e-02 
-4.99345e-02  4.98232e-02 
-5.66547e-02  5.09707e-02 
-6.34006e-02  5.22734e-02 
-7.01727e-02  5.37352e-02 
-7.69770e-02  5.53616e-02 
-8.38144e-02  5.71574e-02 
-9.06914e-02  5.91296e-02 
-9.76092e-02  6.12843e-02 
-1.04575e-01  6.36303e-02 
-1.11590e-01  6.61752e-02 
-1.18663e-01  6.89298e-02 
-1.25795e-01  7.19036e-02 
-1.32996e-01  7.51097e-02 
-1.40268e-01  7.85603e-02 
-1.47622e-01  8.22715e-02 
-1.55063e-01  8.62585e-02 
-1.62602e-01  9.05412e-02 
-1.70245e-01  9.51387e-02 
-1.78007e-01  1.00076e-01 
-1.85897e-01  1.05378e-01 
-1.93932e-01  1.11077e-01 
-2.02126e-01  1.17203e-01 
-2.10501e-01  1.23799e-01 
-2.19077e-01  1.30906e-01 
-2.27884e-01  1.38579e-01 
-2.36950e-01  1.46875e-01 
-2.46318e-01  1.55866e-01 
-2.56032e-01  1.65633e-01 
-2.66154e-01  1.76277e-01 
-2.76756e-01  1.87913e-01 
-2.87934e-01  2.00687e-01 
-2.99807e-01  2.14771e-01 
-3.12540e-01  2.30385e-01 
-3.26342e-01  2.47794e-01 
-3.41514e-01  2.67347e-01 
-3.58467e-01  2.89474e-01 
-3.77819e-01  3.14756e-01 
-4.00489e-01  3.43934e-01 
-4.27973e-01  3.78020e-01 
-4.62792e-01  4.18352e-01 
-5.09613e-01  4.66762e-01 
-5.77743e-01  5.25605e-01 
-6.87766e-01  5.97706e-01 
 1.17847e+00  9.52629e-01 
 1.10150e+00  9.02354e-01 
 1.02565e+00  8.48839e-01 
 9.58086e-01  7.96196e-01 
 8.99292e-01  7.46292e-01 
 8.48053e-01  6.99814e-01 
 8.02999e-01  6.56934e-01 
 7.62908e-01  6.17524e-01 
 7.26825e-01  5.81374e-01 
 6.93979e-01  5.48202e-01 
 6.63792e-01  5.17748e-01 
 6.35787e-01  4.89742e-01 
 6.09612e-01  4.63956e-01 
 5.84966e-01  4.40164e-01 
 5.61625e-01  4.18186e-01 
 5.39393e-01  3.97840e-01 
 5.18123e-01  3.78984e-01 
 4.97681e-01  3.61477e-01 
 4.77968e-01  3.45209e-01 
 4.58890e-01  3.30069e-01 
 4.40379e-01  3.15970e-01 
 4.22364e-01  3.02824e-01 
 4.04798e-01  2.90564e-01 
 3.87629e-01  2.79120e-01 
 3.70822e-01  2.68439e-01 
 3.54335e-01  2.58464e-01 
 3.38145e-01  2.49152e-01 
 3.22216e-01  2.40459e-01 
 3.06532e-01  2.32350e-01 
 2.91065e-01  2.24788e-01 
 2.75801e-01  2.17745e-01 
 2.60716e-01  2.11191e-01 
 2.45801e-01  2.05104e-01 
 2.31035e-01  1.99458e-01 
 2.16410e-01  1.94236e-01 
 2.01909e-01  1.89418e-01 
 1.87526e-01  1.84988e-01 
 1.73244e-01  1.80929e-01 
 1.59059e-01  1.77231e-01 
 1.44956e-01  1.73879e-01 
 1.30932e-01  1.70865e-01 
 1.16973e-01  1.68177e-01 
 1.03077e-01  1.65808e-01 
 8.92294e-02  1.63751e-01 
 7.54292e-02  1.61999e-01 
 6.16634e-02  1.60546e-01 
 4.79306e-02  1.59390e-01 
 3.42184e-02  1.58525e-01 
 2.05255e-02  1.57950e-01 
 6.83983e-03  1.57663e-01 
-6.83983e-03  1.57663e-01 
-2.05255e-02  1.57950e-01 
-3.42184e-02  1.58525e-01 
-4.79306e-02  1.59390e-01 
-6.16634e-02  1.60546e-01 
-7.54292e-02  1.61999e-01 
-8.92294e-02  1.63751e-01 
-1.03077e-01  1.65808e-01 
-1.16973e-01  1.68177e-01 
-1.30932e-01  1.70865e-01 
-1.44956e-01  1.73879e-01 
-1.59059e-01  1.77231e-01 
-1.73244e-01  1.80929e-01 
-1.87526e-01  1.84988e-01 
-2.01909e-01  1.89418e-01 
-2.16410e-01  1.94236e-01 
-2.31035e-01  1.99458e-01 
-2.45801e-01  2.05104e-01 
-2.60716e-01  2.11191e-01 
-2.75801e-01  2.17745e-01 
-2.91065e-01  2.24788e-01 
-3.06532e-01  2.32350e-01 
-3.22216e-01  2.40459e-01 
-3.38145e-01  2.49152e-01 
-3.54335e-01  2.58464e-01 
-3.70822e-01  2.68439e-01 
-3.87629e-01  2.79120e-01 
-4.04798e-01  2.90564e-01 
-4.22364e-01  3.02824e-01 
-4.40379e-01  3.15970e-01 
-4.58890e-01  3.30069e-01 
-4.77968e-01  3.45209e-01 
-4.97681e-01  3.61477e-01 
-5.18123e-01  3.78984e-01 
-5.39393e-01  3.97840e-01 
-5.61625e-01  4.18186e-01 
-5.84966e-01  4.40164e-01 
-6.09612e-01  4.63956e-01 
-6.35787e-01  4.89742e-01 
-6.63792e-01  5.17748e-01 
-6.93979e-01  5.48202e-01 
-7.26825e-01  5.81374e-01 
-7.62908e-01  6.17524e-01 
-8.02999e-01  6.56934e-01 
-8.48053e-01  6.99814e-01 
-8.99292e-01  7.46292e-01 
-9.58086e-01  7.96196e-01 
-1.02565e+00  8.48839e-01 
-1.10150e+00  9.02354e-01 
-1.17847e+00  9.52629e-01 
 1.63834e+00  1.27356e+00 
 1.56261e+00  1.22402e+00 
 1.49000e+00  1.17514e+00 
 1.41995e+00  1.12648e+00 
 1.35337e+00  1.07851e+00 
 1.29077e+00  1.03176e+00 
 1.23227e+00  9.86698e-01 
 1.17766e+00  9.43578e-01 
 1.12666e+00  9.02577e-01 
 1.07887e+00  8.63736e-01 
 1.03398e+00  8.27065e-01 
 9.91620e-01  7.92501e-01 
 9.51523e-01  7.59979e-01 
 9.13406e-01  7.29396e-01 
 8.77055e-01  7.00663e-01 
 8.42254e-01  6.73667e-01 
 8.08844e-01  6.48316e-01 
 7.76658e-01  6.24503e-01 
 7.45579e-01  6.02144e-01 
 7.15479e-01  5.81141e-01 
 6.86270e-01  5.61420e-01 
 6.57853e-01  5.42896e-01 
 6.30160e-01  5.25506e-01 
 6.03114e-01  5.09175e-01 
 5.76664e-01  4.93851e-01 
 5.50746e-01  4.79470e-01 
 5.25322e-01  4.65986e-01 
 5.00339e-01  4.53347e-01 
 4.75768e-01  4.41515e-01 
 4.51565e-01  4.30444e-01 
 4.27707e-01  4.20103e-01 
 4.04155e-01  4.10453e-01 
 3.80894e-01  4.01468e-01 
 3.57888e-01  3.93116e-01 
 3.35124e-01  3.85375e-01 
 3.12574e-01  3.78218e-01 
 2.90225e-01  3.71627e-01 
 2.68052e-01  3.65580e-01 
 2.46046e-01  3.60062e-01 
 2.24182e-01  3.55054e-01 
 2.02454e-01  3.50546e-01 
 1.80838e-01  3.46521e-01 
 1.59329e-01  3.42972e-01 
 1.37906e-01  3.39886e-01 
 1.16564e-01  3.37257e-01 
 9.52820e-02  3.35076e-01 
 7.40564e-02  3.33338e-01 
 5.28670e-02  3.32039e-01 
 3.17104e-02  3.31175e-01 
 1.05668e-02  3.30743e-01 
-1.05668e-02  3.30743e-01 
-3.17104e-02  3.31175e-01 
-5.28670e-02  3.32039e-01 
-7.40564e-02  3.33338e-01 
-9.52820e-02  3.35076e-01 
-1.16564e-01  3.37257e-01 
-1.37906e-01  3.39886e-01 
-1.59329e-01  3.42972e-01 
-1.80838e-01  3.46521e-01 
-2.02454e-01  3.50546e-01 
-2.24182e-01  3.55054e-01 
-2.46046e-01  3.60062e-01 
-2.68052e-01  3.65580e-01 
-2.90225e-01  3.71627e-01 
-3.12574e-01  3.78218e-01 
-3.35124e-01  3.85375e-01 
-3.57888e-01  3.93116e-01 
-3.80894e-01  4.01468e-01 
-4.04155e-01  4.10453e-01 
-4.27707e-01  4.20103e-01 
-4.51565e-01  4.30444e-01 
-4.75768e-01  4.41515e-01 
-5.00339e-01  4.53347e-01 
-5.25322e-01  4.65986e-01 
-5.50746e-01  4.79470e-01 
-5.76664e-01  4.93851e-01 
-6.03114e-01  5.09175e-01 
-6.30160e-01  5.25506e-01 
-6.57853e-01  5.42896e-01 
-6.86270e-01  5.61420e-01 
-7.15479e-01  5.81141e-01 
-7.45579e-01  6.02144e-01 
-7.76658e-01  6.24503e-01 
-8.08844e-01  6.48316e-01 
-8.42254e-01  6.73667e-01 
-8.77055e-01  7.00663e-01 
-9.13406e-01  7.29396e-01 
-9.51523e-01  7.59979e-01 
-9.91620e-01  7.92501e-01 
-1.03398e+00  8.27065e-01 
-1.07887e+00  8.63736e-01 
-1.12666e+00  9.02577e-01 
-1.17766e+00  9.43578e-01 
-1.23227e+00  9.86698e-01 
-1.29077e+00  1.03176e+00 
-1.35337e+00  1.07851e+00 
-1.41995e+00  1.12648e+00 
-1.49000e+00  1.17514e+00 
-1.56261e+00  1.22402e+00 
-1.63834e+00  1.27356e+00 
 2.08323e+00  1.59179e+00 
 2.00546e+00  1.54398e+00 
 1.92936e+00  1.49655e+00 
 1.85533e+00  1.44974e+00 
 1.78353e+00  1.40365e+00 
 1.71409e+00  1.35839e+00 
 1.64720e+00  1.31416e+00 
 1.58293e+00  1.27112e+00 
 1.52131e+00  1.22943e+00 
 1.46225e+00  1.18920e+00 
 1.40566e+00  1.15052e+00 
 1.35137e+00  1.11343e+00 
 1.29926e+00  1.07796e+00 
 1.24914e+00  1.04410e+00 
 1.20089e+00  1.01184e+00 
 1.15432e+00  9.81138e-01 
 1.10932e+00  9.51961e-01 
 1.06574e+00  9.24254e-01 
 1.02349e+00  8.97976e-01 
 9.82427e-01  8.73063e-01 
 9.42475e-01  8.49474e-01 
 9.03526e-01  8.27144e-01 
 8.65512e-01  8.06030e-01 
 8.28343e-01  7.86074e-01 
 7.91962e-01  7.67234e-01 
 7.56295e-01  7.49457e-01 
 7.21296e-01  7.32705e-01 
 6.86899e-01  7.16929e-01 
 6.53069e-01  7.02096e-01 
 6.19749e-01  6.88164e-01 
 5.86910e-01  6.75102e-01 
 5.54501e-01  6.62873e-01 
 5.22501e-01  6.51452e-01 
 4.90863e-01  6.40807e-01 
 4.59571e-01  6.30914e-01 
 4.28582e-01  6.21747e-01 
 3.97882e-01  6.13286e-01 
 3.67434e-01  6.05508e-01 
 3.37226e-01  5.98398e-01 
 3.07223e-01  5.91937e-01 
 2.77416e-01  5.86110e-01 
 2.47772e-01  5.80903e-01 
 2.18283e-01  5.76305e-01 
 1.88918e-01  5.72303e-01 
 1.59671e-01  5.68891e-01 
 1.30511e-01  5.66059e-01 
 1.01433e-01  5.63802e-01 
 7.24080e-02  5.62113e-01 
 4.34304e-02  5.60989e-01 
 1.44721e-02  5.60428e-01 
-1.44721e-02  5.60428e-01 
-4.34304e-02  5.60989e-01 
-7.24080e-02  5.62113e-01 
-1.01433e-01  5.63802e-01 
-1.30511e-01  5.66059e-01 
-1.59671e-01  5.68891e-01 
-1.88918e-01  5.72303e-01 
-2.18283e-01  5.76305e-01 
-2.47772e-01  5.80903e-01 
-2.77416e-01  5.86110e-01 
-3.07223e-01  5.91937e-01 
-3.37226e-01  5.98398e-01 
-3.67434e-01  6.05508e-01 
-3.97882e-01  6.13286e-01 
-4.28582e-01  6.21747e-01 
-4.59571e-01  6.30914e-01 
-4.90863e-01  6.40807e-01 
-5.22501e-01  6.51452e-01 
-5.54501e-01  6.62873e-01 
-5.86910e-01  6.75102e-01 
-6.19749e-01  6.88164e-01 
-6.53069e-01  7.02096e-01 
-6.86899e-01  7.16929e-01 
-7.21296e-01  7.32705e-01 
-7.56295e-01  7.49457e-01 
-7.91962e-01  7.67234e-01 
-8.28343e-01  7.86074e-01 
-8.65512e-01  8.06030e-01 
-9.03526e-01  8.27144e-01 
-9.42475e-01  8.49474e-01 
-9.82427e-01  8.73063e-01 
-1.02349e+00  8.97976e-01 
-1.06574e+00  9.24254e-01 
-1.10932e+00  9.51961e-01 
-1.15432e+00  9.81138e-01 
-1.20089e+00  1.01184e+00 
-1.24914e+00  1.04410e+00 
-1.29926e+00  1.07796e+00 
-1.35137e+00  1.11343e+00 
-1.40566e+00  1.15052e+00 
-1.46225e+00  1.18920e+00 
-1.52131e+00  1.22943e+00 
-1.58293e+00  1.27112e+00 
-1.64720e+00  1.31416e+00 
-1.71409e+00  1.35839e+00 
-1.78353e+00  1.40365e+00 
-1.85533e+00  1.44974e+00 
-1.92936e+00  1.49655e+00 
-2.00546e+00  1.54398e+00 
-2.08323e+00  1.59179e+00 
 2.51797e+00  1.92390e+00 
 2.43561e+00  1.87713e+00 
 2.35463e+00  1.83098e+00 
 2.27515e+00  1.78546e+00 
 2.19736e+00  1.74068e+00 
 2.12135e+00  1.69668e+00 
 2.04724e+00  1.65356e+00 
 1.97506e+00  1.61138e+00 
 1.90490e+00  1.57024e+00 
 1.83672e+00  1.53021e+00 
 1.77055e+00  1.49137e+00 
 1.70632e+00  1.45375e+00 
 1.64399e+00  1.41742e+00 
 1.58347e+00  1.38239e+00 
 1.52468e+00  1.34869e+00 
 1.46753e+00  1.31631e+00 
 1.41195e+00  1.28527e+00 
 1.35781e+00  1.25554e+00 
 1.30505e+00  1.22710e+00 
 1.25357e+00  1.19994e+00 
 1.20329e+00  1.17404e+00 
 1.15413e+00  1.14935e+00 
 1.10602e+00  1.12585e+00 
 1.05887e+00  1.10352e+00 
 1.01265e+00  1.08231e+00 
 9.67254e-01  1.06219e+00 
 9.22655e-01  1.04315e+00 
 8.78778e-01  1.02513e+00 
 8.35588e-01  1.00811e+00 
 7.93020e-01  9.92068e-01 
 7.51043e-01  9.76972e-01 
 7.09600e-01  9.62791e-01 
 6.68665e-01  9.49505e-01 
 6.28184e-01  9.37084e-01 
 5.88138e-01  9.25512e-01 
 5.48477e-01  9.14761e-01 
 5.09182e-01  9.04817e-01 
 4.70209e-01  8.95657e-01 
 4.31543e-01  8.87267e-01 
 3.93141e-01  8.79629e-01 
 3.54990e-01  8.72732e-01 
 3.17049e-01  8.66559e-01 
 2.79309e-01  8.61102e-01 
 2.41730e-01  8.56348e-01 
 2.04303e-01  8.52290e-01 
 1.66989e-01  8.48920e-01 
 1.29782e-01  8.46231e-01 
 9.26442e-02  8.44219e-01 
 5.55678e-02  8.42880e-01 
 1.85165e-02  8.42211e-01 
-1.85165e-02  8.42211e-01 
-5.55678e-02  8.42880e-01 
-9.26442e-02  8.44219e-01 
-1.29782e-01  8.46231e-01 
-1.66989e-01  8.48920e-01 
-2.04303e-01  8.52290e-01 
-2.41730e-01  8.56348e-01 
-2.79309e-01  8.61102e-01 
-3.17049e-01  8.66559e-01 
-3.54990e-01  8.72732e-01 
-3.93141e-01  8.79629e-01 
-4.31543e-01  8.87267e-01 
-4.70209e-01  8.95657e-01 
-5.09182e-01  9.04817e-01 
-5.48477e-01  9.14761e-01 
-5.88138e-01  9.25512e-01 
-6.28184e-01  9.37084e-01 
-6.68665e-01  9.49505e-01 
-7.09600e-01  9.62791e-01 
-7.51043e-01  9.76972e-01 
-7.93020e-01  9.92068e-01 
-8.35588e-01  1.00811e+00 
-8.78778e-01  1.02513e+00 
-9.22655e-01  1.04315e+00 
-9.67254e-01  1.06219e+00 
-1.01265e+00  1.08231e+00 
-1.05887e+00  1.10352e+00 
-1.10602e+00  1.12585e+00 
-1.15413e+00  1.14935e+00 
-1.20329e+00  1.17404e+00 
-1.25357e+00  1.19994e+00 
-1.30505e+00  1.22710e+00 
-1.35781e+00  1.25554e+00 
-1.41195e+00  1.28527e+00 
-1.46753e+00  1.31631e+00 
-1.52468e+00  1.34869e+00 
-1.58347e+00  1.38239e+00 
-1.64399e+00  1.41742e+00 
-1.70632e+00  1.45375e+00 
-1.77055e+00  1.49137e+00 
-1.83672e+00  1.53021e+00 
-1.90490e+00  1.57024e+00 
-1.97506e+00  1.61138e+00 
-2.04724e+00  1.65356e+00 
-2.12135e+00  1.69668e+00 
-2.19736e+00  1.74068e+00 
-2.27515e+00  1.78546e+00 
-2.35463e+00  1.83098e+00 
-2.43561e+00  1.87713e+00 
-2.51797e+00  1.92390e+00 
 2.94438e+00  2.27776e+00 
 2.85608e+00  2.23192e+00 
 2.76902e+00  2.18679e+00 
 2.68328e+00  2.14237e+00 
 2.59897e+00  2.09871e+00 
 2.51613e+00  2.05582e+00 
 2.43488e+00  2.01376e+00 
 2.35521e+00  1.97256e+00 
 2.27720e+00  1.93227e+00 
 2.20084e+00  1.89293e+00 
 2.12616e+00  1.85460e+00 
 2.05313e+00  1.81730e+00 
 1.98175e+00  1.78107e+00 
 1.91196e+00  1.74595e+00 
 1.84375e+00  1.71195e+00 
 1.77705e+00  1.67910e+00 
 1.71181e+00  1.64740e+00 
 1.64796e+00  1.61686e+00 
 1.58547e+00  1.58748e+00 
 1.52424e+00  1.55926e+00 
 1.46423e+00  1.53219e+00 
 1.40536e+00  1.50625e+00 
 1.34759e+00  1.48144e+00 
 1.29083e+00  1.45774e+00 
 1.23506e+00  1.43513e+00 
 1.18018e+00  1.41359e+00 
 1.12617e+00  1.39310e+00 
 1.07296e+00  1.37365e+00 
 1.02051e+00  1.35521e+00 
 9.68761e-01  1.33776e+00 
 9.17678e-01  1.32129e+00 
 8.67202e-01  1.30577e+00 
 8.17308e-01  1.29119e+00 
 7.67937e-01  1.27752e+00 
 7.19070e-01  1.26475e+00 
 6.70650e-01  1.25286e+00 
 6.22660e-01  1.24184e+00 
 5.75046e-01  1.23167e+00 
 5.27795e-01  1.22233e+00 
 4.80855e-01  1.21382e+00 
 4.34213e-01  1.20612e+00 
 3.87821e-01  1.19922e+00 
 3.41668e-01  1.19312e+00 
 2.95708e-01  1.18779e+00 
 2.49929e-01  1.18324e+00 
 2.04286e-01  1.17946e+00 
 1.58771e-01  1.17645e+00 
 1.13339e-01  1.17419e+00 
 6.79809e-02  1.17268e+00 
 2.26530e-02  1.17193e+00 
-2.26530e-02  1.17193e+00 
-6.79809e-02  1.17268e+00 
-1.13339e-01  1.17419e+00 
-1.58771e-01  1.17645e+00 
-2.04286e-01  1.17946e+00 
-2.49929e-01  1.18324e+00 
-2.95708e-01  1.18779e+00 
-3.41668e-01  1.19312e+00 
-3.87821e-01  1.19922e+00 
-4.34213e-01  1.20612e+00 
-4.80855e-01  1.21382e+00 
-5.27795e-01  1.22233e+00 
-5.75046e-01  1.23167e+00 
-6.22660e-01  1.24184e+00 
-6.70650e-01  1.25286e+00 
-7.19070e-01  1.26475e+00 
-7.67937e-01  1.27752e+00 
-8.17308e-01  1.29119e+00 
-8.67202e-01  1.30577e+00 
-9.17678e-01  1.32129e+00 
-9.68761e-01  1.33776e+00 
-1.02051e+00  1.35521e+00 
-1.07296e+00  1.37365e+00 
-1.12617e+00  1.39310e+00 
-1.18018e+00  1.41359e+00 
-1.23506e+00  1.43513e+00 
-1.29083e+00  1.45774e+00 
-1.34759e+00  1.48144e+00 
-1.40536e+00  1.50625e+00 
-1.46423e+00  1.53219e+00 
-1.52424e+00  1.55926e+00 
-1.58547e+00  1.58748e+00 
-1.64796e+00  1.61686e+00 
-1.71181e+00  1.64740e+00 
-1.77705e+00  1.67910e+00 
-1.84375e+00  1.71195e+00 
-1.91196e+00  1.74595e+00 
-1.98175e+00  1.78107e+00 
-2.05313e+00  1.81730e+00 
-2.12616e+00  1.85460e+00 
-2.20084e+00  1.89293e+00 
-2.27720e+00  1.93227e+00 
-2.35521e+00  1.97256e+00 
-2.43488e+00  2.01376e+00 
-2.51613e+00  2.05582e+00 
-2.59897e+00  2.09871e+00 
-2.68328e+00  2.14237e+00 
-2.76902e+00  2.18679e+00 
-2.85608e+00  2.23192e+00 
-2.94438e+00  2.27776e+00 
 3.36291e+00  2.65789e+00 
 3.26789e+00  2.61294e+00 
 3.17409e+00  2.56876e+00 
 3.08152e+00  2.52533e+00 
 2.99028e+00  2.48269e+00 
 2.90037e+00  2.44082e+00 
 2.81187e+00  2.39977e+00 
 2.72478e+00  2.35955e+00 
 2.63915e+00  2.32018e+00 
 2.55497e+00  2.28169e+00 
 2.47227e+00  2.24412e+00 
 2.39102e+00  2.20747e+00 
 2.31125e+00  2.17178e+00 
 2.23290e+00  2.13707e+00 
 2.15599e+00  2.10336e+00 
 2.08045e+00  2.07066e+00 
 2.00629e+00  2.03900e+00 
 1.93342e+00  2.00838e+00 
 1.86184e+00  1.97880e+00 
 1.79147e+00  1.95028e+00 
 1.72229e+00  1.92281e+00 
 1.65424e+00  1.89639e+00 
 1.58728e+00  1.87103e+00 
 1.52134e+00  1.84670e+00 
 1.45640e+00  1.82341e+00 
 1.39238e+00  1.80115e+00 
 1.32927e+00  1.77991e+00 
 1.26698e+00  1.75967e+00 
 1.20549e+00  1.74043e+00 
 1.14474e+00  1.72217e+00 
 1.08471e+00  1.70488e+00 
 1.02533e+00  1.68855e+00 
 9.66573e-01  1.67316e+00 
 9.08387e-01  1.65871e+00 
 8.50753e-01  1.64518e+00 
 7.93607e-01  1.63256e+00 
 7.36937e-01  1.62083e+00 
 6.80682e-01  1.60999e+00 
 6.24830e-01  1.60003e+00 
 5.69323e-01  1.59093e+00 
 5.14151e-01  1.58269e+00 
 4.59259e-01  1.57529e+00 
 4.04635e-01  1.56874e+00 
 3.50226e-01  1.56302e+00 
 2.96023e-01  1.55813e+00 
 2.41973e-01  1.55407e+00 
 1.88068e-01  1.55082e+00 
 1.34256e-01  1.54839e+00 
 8.05282e-02  1.54677e+00 
 2.68343e-02  1.54596e+00 
-2.68343e-02  1.54596e+00 
-8.05282e-02  1.54677e+00 
-1.34256e-01  1.54839e+00 
-1.88068e-01  1.55082e+00 
-2.41973e-01  1.55407e+00 
-2.96023e-01  1.55813e+00 
-3.50226e-01  1.56302e+00 
-4.04635e-01  1.56874e+00 
-4.59259e-01  1.57529e+00 
-5.14151e-01  1.58269e+00 
-5.69323e-01  1.59093e+00 
-6.24830e-01  1.60003e+00 
-6.80682e-01  1.60999e+00 
-7.36937e-01  1.62083e+00 
-7.93607e-01  1.63256e+00 
-8.50753e-01  1.64518e+00 
-9.08387e-01  1.65871e+00 
-9.66573e-01  1.67316e+00 
-1.02533e+00  1.68855e+00 
-1.08471e+00  1.70488e+00 
-1.14474e+00  1.72217e+00 
-1.20549e+00  1.74043e+00 
-1.26698e+00  1.75967e+00 
-1.32927e+00  1.77991e+00 
-1.39238e+00  1.80115e+00 
-1.45640e+00  1.82341e+00 
-1.52134e+00  1.84670e+00 
-1.58728e+00  1.87103e+00 
-1.65424e+00  1.89639e+00 
-1.72229e+00  1.92281e+00 
-1.79147e+00  1.95028e+00 
-1.86184e+00  1.97880e+00 
-1.93342e+00  2.00838e+00 
-2.00629e+00  2.03900e+00 
-2.08045e+00  2.07066e+00 
-2.15599e+00  2.10336e+00 
-2.23290e+00  2.13707e+00 
-2.31125e+00  2.17178e+00 
-2.39102e+00  2.20747e+00 
-2.47227e+00  2.24412e+00 
-2.55497e+00  2.28169e+00 
-2.63915e+00  2.32018e+00 
-2.72478e+00  2.35955e+00 
-2.81187e+00  2.39977e+00 
-2.90037e+00  2.44082e+00 
-2.99028e+00  2.48269e+00 
-3.08152e+00  2.52533e+00 
-3.17409e+00  2.56876e+00 
-3.26789e+00  2.61294e+00 
-3.36291e+00  2.65789e+00 
 3.77354e+00  3.06683e+00 
 3.67136e+00  3.02278e+00 
 3.57041e+00  2.97952e+00 
 3.47069e+00  2.93705e+00 
 3.37224e+00  2.89538e+00 
 3.27507e+00  2.85450e+00 
 3.17923e+00  2.81443e+00 
 3.08470e+00  2.77516e+00 
 2.99152e+00  2.73674e+00 
 2.89967e+00  2.69915e+00 
 2.80919e+00  2.66243e+00 
 2.72004e+00  2.62657e+00 
 2.63225e+00  2.59161e+00 
 2.54576e+00  2.55755e+00 
 2.46060e+00  2.52442e+00 
 2.37672e+00  2.49222e+00 
 2.29411e+00  2.46097e+00 
 2.21273e+00  2.43067e+00 
 2.13256e+00  2.40133e+00 
 2.05355e+00  2.37297e+00 
 1.97569e+00  2.34559e+00 
 1.89890e+00  2.31918e+00 
 1.82319e+00  2.29376e+00 
 1.74848e+00  2.26931e+00 
 1.67475e+00  2.24585e+00 
 1.60195e+00  2.22337e+00 
 1.53005e+00  2.20186e+00 
 1.45898e+00  2.18132e+00 
 1.38873e+00  2.16174e+00 
 1.31923e+00  2.14312e+00 
 1.25047e+00  2.12545e+00 
 1.18238e+00  2.10873e+00 
 1.11495e+00  2.09294e+00 
 1.04810e+00  2.07808e+00 
 9.81839e-01  2.06415e+00 
 9.16087e-01  2.05112e+00 
 8.50838e-01  2.03901e+00 
 7.86028e-01  2.02779e+00 
 7.21648e-01  2.01746e+00 
 6.57635e-01  2.00802e+00 
 5.93981e-01  1.99946e+00 
 5.30625e-01  1.99178e+00 
 4.67559e-01  1.98496e+00 
 4.04723e-01  1.97900e+00 
 3.42110e-01  1.97391e+00 
 2.79662e-01  1.96967e+00 
 2.17371e-01  1.96628e+00 
 1.55180e-01  1.96374e+00 
 9.30808e-02  1.96204e+00 
 3.10175e-02  1.96120e+00 
-3.10175e-02  1.96120e+00 
-9.30808e-02  1.96204e+00 
-1.55180e-01  1.96374e+00 
-2.17371e-01  1.96628e+00 
-2.79662e-01  1.96967e+00 
-3.42110e-01  1.97391e+00 
-4.04723e-01  1.97900e+00 
-4.67559e-01  1.98496e+00 
-5.30625e-01  1.99178e+00 
-5.93981e-01  1.99946e+00 
-6.57635e-01  2.00802e+00 
-7.21648e-01  2.01746e+00 
-7.86028e-01  2.02779e+00 
-8.50838e-01  2.03901e+00 
-9.16087e-01  2.05112e+00 
-9.81839e-01  2.06415e+00 
-1.04810e+00  2.07808e+00 
-1.11495e+00  2.09294e+00 
-1.18238e+00  2.10873e+00 
-1.25047e+00  2.12545e+00 
-1.31923e+00  2.14312e+00 
-1.38873e+00  2.16174e+00 
-1.45898e+00  2.18132e+00 
-1.53005e+00  2.20186e+00 
-1.60195e+00  2.22337e+00 
-1.67475e+00  2.24585e+00 
-1.74848e+00  2.26931e+00 
-1.82319e+00  2.29376e+00 
-1.89890e+00  2.31918e+00 
-1.97569e+00  2.34559e+00 
-2.05355e+00  2.37297e+00 
-2.13256e+00  2.40133e+00 
-2.21273e+00  2.43067e+00 
-2.29411e+00  2.46097e+00 
-2.37672e+00  2.49222e+00 
-2.46060e+00  2.52442e+00 
-2.54576e+00  2.55755e+00 
-2.63225e+00  2.59161e+00 
-2.72004e+00  2.62657e+00 
-2.80919e+00  2.66243e+00 
-2.89967e+00  2.69915e+00 
-2.99152e+00  2.73674e+00 
-3.08470e+00  2.77516e+00 
-3.17923e+00  2.81443e+00 
-3.27507e+00  2.85450e+00 
-3.37224e+00  2.89538e+00 
-3.47069e+00  2.93705e+00 
-3.57041e+00  2.97952e+00 
-3.67136e+00  3.02278e+00 
-3.77354e+00  3.06683e+00 
 4.17595e+00  3.50590e+00 
 4.06639e+00  3.46277e+00 
 3.95809e+00  3.42046e+00 
 3.85102e+00  3.37893e+00 
 3.74523e+00  3.33822e+00 
 3.64069e+00  3.29830e+00 
 3.53744e+00  3.25919e+00 
 3.43546e+00  3.22089e+00 
 3.33478e+00  3.18340e+00 
 3.23536e+00  3.14673e+00 
 3.13723e+00  3.11090e+00 
 3.04036e+00  3.07590e+00 
 2.94478e+00  3.04175e+00 
 2.85042e+00  3.00847e+00 
 2.75732e+00  2.97605e+00 
 2.66541e+00  2.94452e+00 
 2.57472e+00  2.91387e+00 
 2.48519e+00  2.88412e+00 
 2.39681e+00  2.85529e+00 
 2.30954e+00  2.82735e+00 
 2.22336e+00  2.80034e+00 
 2.13823e+00  2.77425e+00 
 2.05413e+00  2.74909e+00 
 1.97101e+00  2.72486e+00 
 1.88885e+00  2.70156e+00 
 1.80759e+00  2.67918e+00 
 1.72722e+00  2.65775e+00 
 1.64768e+00  2.63724e+00 
 1.56895e+00  2.61766e+00 
 1.49097e+00  2.59900e+00 
 1.41374e+00  2.58127e+00 
 1.33718e+00  2.56446e+00 
 1.26128e+00  2.54858e+00 
 1.18598e+00  2.53360e+00 
 1.11127e+00  2.51953e+00 
 1.03709e+00  2.50636e+00 
 9.63423e-01  2.49410e+00 
 8.90206e-01  2.48274e+00 
 8.17434e-01  2.47227e+00 
 7.45041e-01  2.46268e+00 
 6.73021e-01  2.45398e+00 
 6.01309e-01  2.44617e+00 
 5.29899e-01  2.43923e+00 
 4.58729e-01  2.43316e+00 
 3.87792e-01  2.42797e+00 
 3.17026e-01  2.42364e+00 
 2.46426e-01  2.42019e+00 
 1.75929e-01  2.41759e+00 
 1.05529e-01  2.41587e+00 
 3.51662e-02  2.41500e+00 
-3.51662e-02  2.41500e+00 
-1.05529e-01  2.41587e+00 
-1.75929e-01  2.41759e+00 
-2.46426e-01  2.42019e+00 
-3.17026e-01  2.42364e+00 
-3.87792e-01  2.42797e+00 
-4.58729e-01  2.43316e+00 
-5.29899e-01  2.43923e+00 
-6.01309e-01  2.44617e+00 
-6.73021e-01  2.45398e+00 
-7.45041e-01  2.46268e+00 
-8.17434e-01  2.47227e+00 
-8.90206e-01  2.48274e+00 
-9.63423e-01  2.49410e+00 
-1.03709e+00  2.50636e+00 
-1.11127e+00  2.51953e+00 
-1.18598e+00  2.53360e+00 
-1.26128e+00  2.54858e+00 
-1.33718e+00  2.56446e+00 
-1.41374e+00  2.58127e+00 
-1.49097e+00  2.59900e+00 
-1.56895e+00  2.61766e+00 
-1.64768e+00  2.63724e+00 
-1.72722e+00  2.65775e+00 
-1.80759e+00  2.67918e+00 
-1.88885e+00  2.70156e+00 
-1.97101e+00  2.72486e+00 
-2.05413e+00  2.74909e+00 
-2.13823e+00  2.77425e+00 
-2.22336e+00  2.80034e+00 
-2.30954e+00  2.82735e+00 
-2.39681e+00  2.85529e+00 
-2.48519e+00  2.88412e+00 
-2.57472e+00  2.91387e+00 
-2.66541e+00  2.94452e+00 
-2.75732e+00  2.97605e+00 
-2.85042e+00  3.00847e+00 
-2.94478e+00  3.04175e+00 
-3.04036e+00  3.07590e+00 
-3.13723e+00  3.11090e+00 
-3.23536e+00  3.14673e+00 
-3.33478e+00  3.18340e+00 
-3.43546e+00  3.22089e+00 
-3.53744e+00  3.25919e+00 
-3.64069e+00  3.29830e+00 
-3.74523e+00  3.33822e+00 
-3.85102e+00  3.37893e+00 
-3.95809e+00  3.42046e+00 
-4.06639e+00  3.46277e+00 
-4.17595e+00  3.50590e+00 
 4.56984e+00  3.97576e+00 
 4.45281e+00  3.93358e+00 
 4.33708e+00  3.89222e+00 
 4.22259e+00  3.85166e+00 
 4.10940e+00  3.81191e+00 
 3.99746e+00  3.77295e+00 
 3.88680e+00  3.73480e+00 
 3.77738e+00  3.69744e+00 
 3.66924e+00  3.66090e+00 
 3.56232e+00  3.62515e+00 
 3.45666e+00  3.59023e+00 
 3.35222e+00  3.55611e+00 
 3.24900e+00  3.52282e+00 
 3.14697e+00  3.49036e+00 
 3.04614e+00  3.45874e+00 
 2.94646e+00  3.42796e+00 
 2.84794e+00  3.39803e+00 
 2.75053e+00  3.36896e+00 
 2.65423e+00  3.34075e+00 
 2.55899e+00  3.31340e+00 
 2.46482e+00  3.28694e+00 
 2.37164e+00  3.26135e+00 
 2.27947e+00  3.23664e+00 
 2.18824e+00  3.21282e+00 
 2.09795e+00  3.18989e+00 
 2.00853e+00  3.16784e+00 
 1.91999e+00  3.14670e+00 
 1.83226e+00  3.12644e+00 
 1.74533e+00  3.10708e+00 
 1.65914e+00  3.08862e+00 
 1.57368e+00  3.07105e+00 
 1.48890e+00  3.05437e+00 
 1.40478e+00  3.03859e+00 
 1.32125e+00  3.02370e+00 
 1.23831e+00  3.00970e+00 
 1.15590e+00  2.99659e+00 
 1.07402e+00  2.98436e+00 
 9.92580e-01  2.97302e+00 
 9.11594e-01  2.96256e+00 
 8.30990e-01  2.95298e+00 
 7.50766e-01  2.94428e+00 
 6.70853e-01  2.93645e+00 
 5.91249e-01  2.92950e+00 
 5.11888e-01  2.92342e+00 
 4.32766e-01  2.91822e+00 
 3.53817e-01  2.91388e+00 
 2.75038e-01  2.91042e+00 
 1.96363e-01  2.90782e+00 
 1.17790e-01  2.90608e+00 
 3.92524e-02  2.90522e+00 
-3.92524e-02  2.90522e+00 
-1.17790e-01  2.90608e+00 
-1.96363e-01  2.90782e+00 
-2.75038e-01  2.91042e+00 
-3.53817e-01  2.91388e+00 
-4.32766e-01  2.91822e+00 
-5.11888e-01  2.92342e+00 
-5.91249e-01  2.92950e+00 
-6.70853e-01  2.93645e+00 
-7.50766e-01  2.94428e+00 
-8.30990e-01  2.95298e+00 
-9.11594e-01  2.96256e+00 
-9.92580e-01  2.97302e+00 
-1.07402e+00  2.98436e+00 
-1.15590e+00  2.99659e+00 
-1.23831e+00  3.00970e+00 
-1.32125e+00  3.02370e+00 
-1.40478e+00  3.03859e+00 
-1.48890e+00  3.05437e+00 
-1.57368e+00  3.07105e+00 
-1.65914e+00  3.08862e+00 
-1.74533e+00  3.10708e+00 
-1.83226e+00  3.12644e+00 
-1.91999e+00  3.14670e+00 
-2.00853e+00  3.16784e+00 
-2.09795e+00  3.18989e+00 
-2.18824e+00  3.21282e+00 
-2.27947e+00  3.23664e+00 
-2.37164e+00  3.26135e+00 
-2.46482e+00  3.28694e+00 
-2.55899e+00  3.31340e+00 
-2.65423e+00  3.34075e+00 
-2.75053e+00  3.36896e+00 
-2.84794e+00  3.39803e+00 
-2.94646e+00  3.42796e+00 
-3.04614e+00  3.45874e+00 
-3.14697e+00  3.49036e+00 
-3.24900e+00  3.52282e+00 
-3.35222e+00  3.55611e+00 
-3.45666e+00  3.59023e+00 
-3.56232e+00  3.62515e+00 
-3.66924e+00  3.66090e+00 
-3.77738e+00  3.69744e+00 
-3.88680e+00  3.73480e+00 
-3.99746e+00  3.77295e+00 
-4.10940e+00  3.81191e+00 
-4.22259e+00  3.85166e+00 
-4.33708e+00  3.89222e+00 
-4.45281e+00  3.93358e+00 
-4.56984e+00  3.97576e+00 
 4.95490e+00  4.47658e+00 
 4.83040e+00  4.43539e+00 
 4.70723e+00  4.39501e+00 
 4.58534e+00  4.35542e+00 
 4.46477e+00  4.31664e+00 
 4.34544e+00  4.27865e+00 
 4.22741e+00  4.24146e+00 
 4.11061e+00  4.20505e+00 
 3.99508e+00  4.16944e+00 
 3.88075e+00  4.13463e+00 
 3.76767e+00  4.10061e+00 
 3.65576e+00  4.06739e+00 
 3.54507e+00  4.03498e+00 
 3.43552e+00  4.00337e+00 
 3.32715e+00  3.97258e+00 
 3.21988e+00  3.94260e+00 
 3.11375e+00  3.91344e+00 
 3.00868e+00  3.88511e+00 
 2.90470e+00  3.85761e+00 
 2.80174e+00  3.83094e+00 
 2.69981e+00  3.80511e+00 
 2.59885e+00  3.78012e+00 
 2.49887e+00  3.75598e+00 
 2.39980e+00  3.73269e+00 
 2.30164e+00  3.71026e+00 
 2.20434e+00  3.68868e+00 
 2.10789e+00  3.66797e+00 
 2.01223e+00  3.64811e+00 
 1.91736e+00  3.62912e+00 
 1.82322e+00  3.61099e+00 
 1.72980e+00  3.59372e+00 
 1.63703e+00  3.57732e+00 
 1.54492e+00  3.56179e+00 
 1.45340e+00  3.54713e+00 
 1.36247e+00  3.53333e+00 
 1.27205e+00  3.52040e+00 
 1.18215e+00  3.50834e+00 
 1.09271e+00  3.49714e+00 
 1.00371e+00  3.48680e+00 
 9.15095e-01  3.47733e+00 
 8.26859e-01  3.46873e+00 
 7.38933e-01  3.46099e+00 
 6.51318e-01  3.45411e+00 
 5.63945e-01  3.44809e+00 
 4.76813e-01  3.44293e+00 
 3.89853e-01  3.43864e+00 
 3.03066e-01  3.43520e+00 
 2.16382e-01  3.43262e+00 
 1.29802e-01  3.43091e+00 
 4.32558e-02  3.43005e+00 
-4.32558e-02  3.43005e+00 
-1.29802e-01  3.43091e+00 
-2.16382e-01  3.43262e+00 
-3.03066e-01  3.43520e+00 
-3.89853e-01  3.43864e+00 
-4.76813e-01  3.44293e+00 
-5.63945e-01  3.44809e+00 
-6.51318e-01  3.45411e+00 
-7.38933e-01  3.46099e+00 
-8.26859e-01  3.46873e+00 
-9.15095e-01  3.47733e+00 
-1.00371e+00  3.48680e+00 
-1.09271e+00  3.49714e+00 
-1.18215e+00  3.50834e+00 
-1.27205e+00  3.52040e+00 
-1.36247e+00  3.53333e+00 
-1.45340e+00  3.54713e+00 
-1.54492e+00  3.56179e+00 
-1.63703e+00  3.57732e+00 
-1.72980e+00  3.59372e+00 
-1.82322e+00  3.61099e+00 
-1.91736e+00  3.62912e+00 
-2.01223e+00  3.64811e+00 
-2.10789e+00  3.66797e+00 
-2.20434e+00  3.68868e+00 
-2.30164e+00  3.71026e+00 
-2.39980e+00  3.73269e+00 
-2.49887e+00  3.75598e+00 
-2.59885e+00  3.78012e+00 
-2.69981e+00  3.80511e+00 
-2.80174e+00  3.83094e+00 
-2.90470e+00  3.85761e+00 
-3.00868e+00  3.88511e+00 
-3.11375e+00  3.91344e+00 
-3.21988e+00  3.94260e+00 
-3.32715e+00  3.97258e+00 
-3.43552e+00  4.00337e+00 
-3.54507e+00  4.03498e+00 
-3.65576e+00  4.06739e+00 
-3.76767e+00  4.10061e+00 
-3.88075e+00  4.13463e+00 
-3.99508e+00  4.16944e+00 
-4.11061e+00  4.20505e+00 
-4.22741e+00  4.24146e+00 
-4.34544e+00  4.27865e+00 
-4.46477e+00  4.31664e+00 
-4.58534e+00  4.35542e+00 
-4.70723e+00  4.39501e+00 
-4.83040e+00  4.43539e+00 
-4.95490e+00  4.47658e+00 
 5.33078e+00  5.00814e+00 
 5.19889e+00  4.96796e+00 
 5.06836e+00  4.92858e+00 
 4.93913e+00  4.88998e+00 
 4.81123e+00  4.85219e+00 
 4.68460e+00  4.81517e+00 
 4.55927e+00  4.77894e+00 
 4.43517e+00  4.74349e+00 
 4.31234e+00  4.70883e+00 
 4.19071e+00  4.67494e+00 
 4.07031e+00  4.64184e+00 
 3.95108e+00  4.60952e+00 
 3.83305e+00  4.57799e+00 
 3.71614e+00  4.54725e+00 
 3.60038e+00  4.51730e+00 
 3.48571e+00  4.48814e+00 
 3.37215e+00  4.45978e+00 
 3.25963e+00  4.43222e+00 
 3.14817e+00  4.40547e+00 
 3.03770e+00  4.37951e+00 
 2.92824e+00  4.35438e+00 
 2.81973e+00  4.33005e+00 
 2.71217e+00  4.30655e+00 
 2.60549e+00  4.28386e+00 
 2.49972e+00  4.26201e+00 
 2.39477e+00  4.24097e+00 
 2.29066e+00  4.22077e+00 
 2.18732e+00  4.20139e+00 
 2.08475e+00  4.18285e+00 
 1.98289e+00  4.16515e+00 
 1.88175e+00  4.14828e+00 
 1.78124e+00  4.13225e+00 
 1.68138e+00  4.11707e+00 
 1.58210e+00  4.10272e+00 
 1.48340e+00  4.08922e+00 
 1.38521e+00  4.07655e+00 
 1.28753e+00  4.06474e+00 
 1.19029e+00  4.05376e+00 
 1.09351e+00  4.04363e+00 
 9.97091e-01  4.03434e+00 
 9.01054e-01  4.02590e+00 
 8.05324e-01  4.01831e+00 
 7.09904e-01  4.01155e+00 
 6.14721e-01  4.00564e+00 
 5.19781e-01  4.00058e+00 
 4.25010e-01  3.99636e+00 
 3.30411e-01  3.99298e+00 
 2.35914e-01  3.99045e+00 
 1.41522e-01  3.98876e+00 
 4.71620e-02  3.98792e+00 
-4.71620e-02  3.98792e+00 
-1.41522e-01  3.98876e+00 
-2.35914e-01  3.99045e+00 
-3.30411e-01  3.99298e+00 
-4.25010e-01  3.99636e+00 
-5.19781e-01  4.00058e+00 
-6.14721e-01  4.00564e+00 
-7.09904e-01  4.01155e+00 
-8.05324e-01  4.01831e+00 
-9.01054e-01  4.02590e+00 
-9.97091e-01  4.03434e+00 
-1.09351e+00  4.04363e+00 
-1.19029e+00  4.05376e+00 
-1.28753e+00  4.06474e+00 
-1.38521e+00  4.07655e+00 
-1.48340e+00  4.08922e+00 
-1.58210e+00  4.10272e+00 
-1.68138e+00  4.11707e+00 
-1.78124e+00  4.13225e+00 
-1.88175e+00  4.14828e+00 
-1.98289e+00  4.16515e+00 
-2.08475e+00  4.18285e+00 
-2.18732e+00  4.20139e+00 
-2.29066e+00  4.22077e+00 
-2.39477e+00  4.24097e+00 
-2.49972e+00  4.26201e+00 
-2.60549e+00  4.28386e+00 
-2.71217e+00  4.30655e+00 
-2.81973e+00  4.33005e+00 
-2.92824e+00  4.35438e+00 
-3.03770e+00  4.37951e+00 
-3.14817e+00  4.40547e+00 
-3.25963e+00  4.43222e+00 
-3.37215e+00  4.45978e+00 
-3.48571e+00  4.48814e+00 
-3.60038e+00  4.51730e+00 
-3.71614e+00  4.54725e+00 
-3.83305e+00  4.57799e+00 
-3.95108e+00  4.60952e+00 
-4.07031e+00  4.64184e+00 
-4.19071e+00  4.67494e+00 
-4.31234e+00  4.70883e+00 
-4.43517e+00  4.74349e+00 
-4.55927e+00  4.77894e+00 
-4.68460e+00  4.81517e+00 
-4.81123e+00  4.85219e+00 
-4.93913e+00  4.88998e+00 
-5.06836e+00  4.92858e+00 
-5.19889e+00  4.96796e+00 
-5.33078e+00  5.00814e+00 
 5.69725e+00  5.57006e+00 
 5.55807e+00  5.53091e+00 
 5.42028e+00  5.49255e+00 
 5.28382e+00  5.45497e+00 
 5.14871e+00  5.41817e+00 
 5.01488e+00  5.38213e+00 
 4.88236e+00  5.34688e+00 
 4.75108e+00  5.31239e+00 
 4.62107e+00  5.27867e+00 
 4.49226e+00  5.24572e+00 
 4.36468e+00  5.21354e+00 
 4.23826e+00  5.18212e+00 
 4.11302e+00  5.15148e+00 
 3.98890e+00  5.12160e+00 
 3.86593e+00  5.09250e+00 
 3.74402e+00  5.06417e+00 
 3.62320e+00  5.03662e+00 
 3.50341e+00  5.00985e+00 
 3.38466e+00  4.98386e+00 
 3.26689e+00  4.95865e+00 
 3.15010e+00  4.93423e+00 
 3.03424e+00  4.91060e+00 
 2.91932e+00  4.88776e+00 
 2.80526e+00  4.86572e+00 
 2.69209e+00  4.84447e+00 
 2.57972e+00  4.82402e+00 
 2.46818e+00  4.80438e+00 
 2.35739e+00  4.78554e+00 
 2.24736e+00  4.76751e+00 
 2.13802e+00  4.75028e+00 
 2.02938e+00  4.73387e+00 
 1.92137e+00  4.71827e+00 
 1.81399e+00  4.70348e+00 
 1.70718e+00  4.68951e+00 
 1.60094e+00  4.67635e+00 
 1.49520e+00  4.66401e+00 
 1.38997e+00  4.65249e+00 
 1.28517e+00  4.64179e+00 
 1.18082e+00  4.63191e+00 
 1.07683e+00  4.62286e+00 
 9.73210e-01  4.61462e+00 
 8.69895e-01  4.60721e+00 
 7.66887e-01  4.60062e+00 
 6.64113e-01  4.59485e+00 
 5.61579e-01  4.58991e+00 
 4.59210e-01  4.58578e+00 
 3.57015e-01  4.58249e+00 
 2.54917e-01  4.58002e+00 
 1.52924e-01  4.57837e+00 
 5.09624e-02  4.57754e+00 
-5.09624e-02  4.57754e+00 
-1.52924e-01  4.57837e+00 
-2.54917e-01  4.58002e+00 
-3.57015e-01  4.58249e+00 
-4.59210e-01  4.58578e+00 
-5.61579e-01  4.58991e+00 
-6.64113e-01  4.59485e+00 
-7.66887e-01  4.60062e+00 
-8.69895e-01  4.60721e+00 
-9.73210e-01  4.61462e+00 
-1.07683e+00  4.62286e+00 
-1.18082e+00  4.63191e+00 
-1.28517e+00  4.64179e+00 
-1.38997e+00  4.65249e+00 
-1.49520e+00  4.66401e+00 
-1.60094e+00  4.67635e+00 
-1.70718e+00  4.68951e+00 
-1.81399e+00  4.70348e+00 
-1.92137e+00  4.71827e+00 
-2.02938e+00  4.73387e+00 
-2.13802e+00  4.75028e+00 
-2.24736e+00  4.76751e+00 
-2.35739e+00  4.78554e+00 
-2.46818e+00  4.80438e+00 
-2.57972e+00  4.82402e+00 
-2.69209e+00  4.84447e+00 
-2.80526e+00  4.86572e+00 
-2.91932e+00  4.88776e+00 
-3.03424e+00  4.91060e+00 
-3.15010e+00  4.93423e+00 
-3.26689e+00  4.95865e+00 
-3.38466e+00  4.98386e+00 
-3.50341e+00  5.00985e+00 
-3.62320e+00  5.03662e+00 
-3.74402e+00  5.06417e+00 
-3.86593e+00  5.09250e+00 
-3.98890e+00  5.12160e+00 
-4.11302e+00  5.15148e+00 
-4.23826e+00  5.18212e+00 
-4.36468e+00  5.21354e+00 
-4.49226e+00  5.24572e+00 
-4.62107e+00  5.27867e+00 
-4.75108e+00  5.31239e+00 
-4.88236e+00  5.34688e+00 
-5.01488e+00  5.38213e+00 
-5.14871e+00  5.41817e+00 
-5.28382e+00  5.45497e+00 
-5.42028e+00  5.49255e+00 
-5.55807e+00  5.53091e+00 
-5.69725e+00  5.57006e+00 
 6.05410e+00  6.16183e+00 
 5.90778e+00  6.12373e+00 
 5.76288e+00  6.08641e+00 
 5.61932e+00  6.04985e+00 
 5.47712e+00  6.01406e+00 
 5.33623e+00  5.97902e+00 
 5.19665e+00  5.94474e+00 
 5.05833e+00  5.91121e+00 
 4.92128e+00  5.87844e+00 
 4.78543e+00  5.84642e+00 
 4.65081e+00  5.81516e+00 
 4.51734e+00  5.78465e+00 
 4.38506e+00  5.75489e+00 
 4.25389e+00  5.72588e+00 
 4.12385e+00  5.69764e+00 
 3.99487e+00  5.67014e+00 
 3.86698e+00  5.64340e+00 
 3.74010e+00  5.61742e+00 
 3.61425e+00  5.59221e+00 
 3.48935e+00  5.56775e+00 
 3.36544e+00  5.54406e+00 
 3.24243e+00  5.52113e+00 
 3.12035e+00  5.49898e+00 
 2.99912e+00  5.47759e+00 
 2.87876e+00  5.45698e+00 
 2.75919e+00  5.43714e+00 
 2.64043e+00  5.41808e+00 
 2.52241e+00  5.39980e+00 
 2.40513e+00  5.38230e+00 
 2.28854e+00  5.36558e+00 
 2.17263e+00  5.34965e+00 
 2.05734e+00  5.33450e+00 
 1.94267e+00  5.32015e+00 
 1.82856e+00  5.30658e+00 
 1.71501e+00  5.29381e+00 
 1.60195e+00  5.28182e+00 
 1.48939e+00  5.27064e+00 
 1.37726e+00  5.26024e+00 
 1.26556e+00  5.25064e+00 
 1.15422e+00  5.24184e+00 
 1.04325e+00  5.23384e+00 
 9.32575e-01  5.22663e+00 
 8.22204e-01  5.22023e+00 
 7.12061e-01  5.21462e+00 
 6.02156e-01  5.20981e+00 
 4.92413e-01  5.20581e+00 
 3.82842e-01  5.20260e+00 
 2.73366e-01  5.20020e+00 
 1.63995e-01  5.19859e+00 
 5.46522e-02  5.19779e+00 
-5.46522e-02  5.19779e+00 
-1.63995e-01  5.19859e+00 
-2.73366e-01  5.20020e+00 
-3.82842e-01  5.20260e+00 
-4.92413e-01  5.20581e+00 
-6.02156e-01  5.20981e+00 
-7.12061e-01  5.21462e+00 
-8.22204e-01  5.22023e+00 
-9.32575e-01  5.22663e+00 
-1.04325e+00  5.23384e+00 
-1.15422e+00  5.24184e+00 
-1.26556e+00  5.25064e+00 
-1.37726e+00  5.26024e+00 
-1.48939e+00  5.27064e+00 
-1.60195e+00  5.28182e+00 
-1.71501e+00  5.29381e+00 
-1.82856e+00  5.30658e+00 
-1.94267e+00  5.32015e+00 
-2.05734e+00  5.33450e+00 
-2.17263e+00  5.34965e+00 
-2.28854e+00  5.36558e+00 
-2.40513e+00  5.38230e+00 
-2.52241e+00  5.39980e+00 
-2.64043e+00  5.41808e+00 
-2.75919e+00  5.43714e+00 
-2.87876e+00  5.45698e+00 
-2.99912e+00  5.47759e+00 
-3.12035e+00  5.49898e+00 
-3.24243e+00  5.52113e+00 
-3.36544e+00  5.54406e+00 
-3.48935e+00  5.56775e+00 
-3.61425e+00  5.59221e+00 
-3.74010e+00  5.61742e+00 
-3.86698e+00  5.64340e+00 
-3.99487e+00  5.67014e+00 
-4.12385e+00  5.69764e+00 
-4.25389e+00  5.72588e+00 
-4.38506e+00  5.75489e+00 
-4.51734e+00  5.78465e+00 
-4.65081e+00  5.81516e+00 
-4.78543e+00  5.84642e+00 
-4.92128e+00  5.87844e+00 
-5.05833e+00  5.91121e+00 
-5.19665e+00  5.94474e+00 
-5.33623e+00  5.97902e+00 
-5.47712e+00  6.01406e+00 
-5.61932e+00  6.04985e+00 
-5.76288e+00  6.08641e+00 
-5.90778e+00  6.12373e+00 
-6.05410e+00  6.16183e+00 
 6.40111e+00  6.78272e+00 
 6.24782e+00  6.74569e+00 
 6.09597e+00  6.70943e+00 
 5.94547e+00  6.67390e+00 
 5.79635e+00  6.63913e+00 
 5.64854e+00  6.60509e+00 
 5.50207e+00  6.57180e+00 
 5.35685e+00  6.53924e+00 
 5.21291e+00  6.50742e+00 
 5.07018e+00  6.47634e+00 
 4.92868e+00  6.44600e+00 
 4.78833e+00  6.41639e+00 
 4.64917e+00  6.38751e+00 
 4.51111e+00  6.35937e+00 
 4.37418e+00  6.33198e+00 
 4.23831e+00  6.30531e+00 
 4.10351e+00  6.27939e+00 
 3.96972e+00  6.25420e+00 
 3.83695e+00  6.22975e+00 
 3.70512e+00  6.20605e+00 
 3.57427e+00  6.18309e+00 
 3.44432e+00  6.16087e+00 
 3.31527e+00  6.13940e+00 
 3.18707e+00  6.11868e+00 
 3.05973e+00  6.09871e+00 
 2.93316e+00  6.07949e+00 
 2.80740e+00  6.06102e+00 
 2.68236e+00  6.04331e+00 
 2.55806e+00  6.02636e+00 
 2.43442e+00  6.01016e+00 
 2.31147e+00  5.99473e+00 
 2.18912e+00  5.98005e+00 
 2.06739e+00  5.96615e+00 
 1.94620e+00  5.95300e+00 
 1.82556e+00  5.94062e+00 
 1.70541e+00  5.92901e+00 
 1.58575e+00  5.91817e+00 
 1.46650e+00  5.90809e+00 
 1.34769e+00  5.89879e+00 
 1.22923e+00  5.89026e+00 
 1.11113e+00  5.88251e+00 
 9.93325e-01  5.87552e+00 
 8.75818e-01  5.86931e+00 
 7.58534e-01  5.86388e+00 
 6.41486e-01  5.85922e+00 
 5.24595e-01  5.85533e+00 
 4.07876e-01  5.85223e+00 
 2.91248e-01  5.84990e+00 
 1.74725e-01  5.84834e+00 
 5.82285e-02  5.84757e+00 
-5.82285e-02  5.84757e+00 
-1.74725e-01  5.84834e+00 
-2.91248e-01  5.84990e+00 
-4.07876e-01  5.85223e+00 
-5.24595e-01  5.85533e+00 
-6.41486e-01  5.85922e+00 
-7.58534e-01  5.86388e+00 
-8.75818e-01  5.86931e+00 
-9.93325e-01  5.87552e+00 
-1.11113e+00  5.88251e+00 
-1.22923e+00  5.89026e+00 
-1.34769e+00  5.89879e+00 
-1.46650e+00  5.90809e+00 
-1.58575e+00  5.91817e+00 
-1.70541e+00  5.92901e+00 
-1.82556e+00  5.94062e+00 
-1.94620e+00  5.95300e+00 
-2.06739e+00  5.96615e+00 
-2.18912e+00  5.98005e+00 
-2.31147e+00  5.99473e+00 
-2.43442e+00  6.01016e+00 
-2.55806e+00  6.02636e+00 
-2.68236e+00  6.04331e+00 
-2.80740e+00  6.06102e+00 
-2.93316e+00  6.07949e+00 
-3.05973e+00  6.09871e+00 
-3.18707e+00  6.11868e+00 
-3.31527e+00  6.13940e+00 
-3.44432e+00  6.16087e+00 
-3.57427e+00  6.18309e+00 
-3.70512e+00  6.20605e+00 
-3.83695e+00  6.22975e+00 
-3.96972e+00  6.25420e+00 
-4.10351e+00  6.27939e+00 
-4.23831e+00  6.30531e+00 
-4.37418e+00  6.33198e+00 
-4.51111e+00  6.35937e+00 
-4.64917e+00  6.38751e+00 
-4.78833e+00  6.41639e+00 
-4.92868e+00  6.44600e+00 
-5.07018e+00  6.47634e+00 
-5.21291e+00  6.50742e+00 
-5.35685e+00  6.53924e+00 
-5.50207e+00  6.57180e+00 
-5.64854e+00  6.60509e+00 
-5.79635e+00  6.63913e+00 
-5.94547e+00  6.67390e+00 
-6.09597e+00  6.70943e+00 
-6.24782e+00  6.74569e+00 
-6.40111e+00  6.78272e+00 
 6.73817e+00  7.43204e+00 
 6.57808e+00  7.39610e+00 
 6.41945e+00  7.36090e+00 
 6.26219e+00  7.32642e+00 
 6.10633e+00  7.29267e+00 
 5.95177e+00  7.25964e+00 
 5.79857e+00  7.22734e+00 
 5.64662e+00  7.19576e+00 
 5.49597e+00  7.16490e+00 
 5.34652e+00  7.13475e+00 
 5.19830e+00  7.10533e+00 
 5.05125e+00  7.07662e+00 
 4.90537e+00  7.04863e+00 
 4.76060e+00  7.02135e+00 
 4.61696e+00  6.99480e+00 
 4.47437e+00  6.96896e+00 
 4.33285e+00  6.94385e+00 
 4.19232e+00  6.91945e+00 
 4.05282e+00  6.89578e+00 
 3.91426e+00  6.87282e+00 
 3.77666e+00  6.85059e+00 
 3.63995e+00  6.82908e+00 
 3.50415e+00  6.80829e+00 
 3.36917e+00  6.78824e+00 
 3.23505e+00  6.76891e+00 
 3.10169e+00  6.75031e+00 
 2.96913e+00  6.73244e+00 
 2.83729e+00  6.71530e+00 
 2.70617e+00  6.69889e+00 
 2.57571e+00  6.68322e+00 
 2.44593e+00  6.66829e+00 
 2.31673e+00  6.65409e+00 
 2.18815e+00  6.64064e+00 
 2.06010e+00  6.62792e+00 
 1.93261e+00  6.61595e+00 
 1.80558e+00  6.60471e+00 
 1.67904e+00  6.59422e+00 
 1.55291e+00  6.58448e+00 
 1.42721e+00  6.57548e+00 
 1.30185e+00  6.56723e+00 
 1.17686e+00  6.55972e+00 
 1.05214e+00  6.55297e+00 
 9.27725e-01  6.54696e+00 
 8.03526e-01  6.54170e+00 
 6.79563e-01  6.53719e+00 
 5.55752e-01  6.53344e+00 
 4.32111e-01  6.53043e+00 
 3.08560e-01  6.52818e+00 
 1.85113e-01  6.52667e+00 
 6.16909e-02  6.52592e+00 
-6.16909e-02  6.52592e+00 
-1.85113e-01  6.52667e+00 
-3.08560e-01  6.52818e+00 
-4.32111e-01  6.53043e+00 
-5.55752e-01  6.53344e+00 
-6.79563e-01  6.53719e+00 
-8.03526e-01  6.54170e+00 
-9.27725e-01  6.54696e+00 
-1.05214e+00  6.55297e+00 
-1.17686e+00  6.55972e+00 
-1.30185e+00  6.56723e+00 
-1.42721e+00  6.57548e+00 
-1.55291e+00  6.58448e+00 
-1.67904e+00  6.59422e+00 
-1.80558e+00  6.60471e+00 
-1.93261e+00  6.61595e+00 
-2.06010e+00  6.62792e+00 
-2.18815e+00  6.64064e+00 
-2.31673e+00  6.65409e+00 
-2.44593e+00  6.66829e+00 
-2.57571e+00  6.68322e+00 
-2.70617e+00  6.69889e+00 
-2.83729e+00  6.71530e+00 
-2.96913e+00  6.73244e+00 
-3.10169e+00  6.75031e+00 
-3.23505e+00  6.76891e+00 
-3.36917e+00  6.78824e+00 
-3.50415e+00  6.80829e+00 
-3.63995e+00  6.82908e+00 
-3.77666e+00  6.85059e+00 
-3.91426e+00  6.87282e+00 
-4.05282e+00  6.89578e+00 
-4.19232e+00  6.91945e+00 
-4.33285e+00  6.94385e+00 
-4.47437e+00  6.96896e+00 
-4.61696e+00  6.99480e+00 
-4.76060e+00  7.02135e+00 
-4.90537e+00  7.04863e+00 
-5.05125e+00  7.07662e+00 
-5.19830e+00  7.10533e+00 
-5.34652e+00  7.13475e+00 
-5.49597e+00  7.16490e+00 
-5.64662e+00  7.19576e+00 
-5.79857e+00  7.22734e+00 
-5.95177e+00  7.25964e+00 
-6.10633e+00  7.29267e+00 
-6.26219e+00  7.32642e+00 
-6.41945e+00  7.36090e+00 
-6.57808e+00  7.39610e+00 
-6.73817e+00  7.43204e+00 
 7.06516e+00  8.10904e+00 
 6.89848e+00  8.07420e+00 
 6.73326e+00  8.04008e+00 
 6.56942e+00  8.00665e+00 
 6.40699e+00  7.97394e+00 
 6.24588e+00  7.94192e+00 
 6.08612e+00  7.91062e+00 
 5.92762e+00  7.88001e+00 
 5.77043e+00  7.85011e+00 
 5.61444e+00  7.82090e+00 
 5.45969e+00  7.79239e+00 
 5.30610e+00  7.76458e+00 
 5.15370e+00  7.73748e+00 
 5.00239e+00  7.71107e+00 
 4.85222e+00  7.68536e+00 
 4.70309e+00  7.66035e+00 
 4.55504e+00  7.63604e+00 
 4.40797e+00  7.61242e+00 
 4.26193e+00  7.58951e+00 
 4.11681e+00  7.56730e+00 
 3.97266e+00  7.54579e+00 
 3.82939e+00  7.52499e+00 
 3.68702e+00  7.50489e+00 
 3.54547e+00  7.48549e+00 
 3.40477e+00  7.46680e+00 
 3.26483e+00  7.44881e+00 
 3.12568e+00  7.43153e+00 
 2.98723e+00  7.41497e+00 
 2.84952e+00  7.39911e+00 
 2.71244e+00  7.38396e+00 
 2.57604e+00  7.36953e+00 
 2.44021e+00  7.35581e+00 
 2.30500e+00  7.34281e+00 
 2.17031e+00  7.33052e+00 
 2.03617e+00  7.31895e+00 
 1.90249e+00  7.30809e+00 
 1.76930e+00  7.29796e+00 
 1.63650e+00  7.28854e+00 
 1.50413e+00  7.27985e+00 
 1.37210e+00  7.27188e+00 
 1.24043e+00  7.26463e+00 
 1.10903e+00  7.25810e+00 
 9.77933e-01  7.25230e+00 
 8.47046e-01  7.24722e+00 
 7.16392e-01  7.24286e+00 
 5.85888e-01  7.23923e+00 
 4.55553e-01  7.23633e+00 
 3.25304e-01  7.23415e+00 
 1.95161e-01  7.23270e+00 
 6.50397e-02  7.23197e+00 
-6.50397e-02  7.23197e+00 
-1.95161e-01  7.23270e+00 
-3.25304e-01  7.23415e+00 
-4.55553e-01  7.23633e+00 
-5.85888e-01  7.23923e+00 
-7.16392e-01  7.24286e+00 
-8.47046e-01  7.24722e+00 
-9.77933e-01  7.25230e+00 
-1.10903e+00  7.25810e+00 
-1.24043e+00  7.26463e+00 
-1.37210e+00  7.27188e+00 
-1.50413e+00  7.27985e+00 
-1.63650e+00  7.28854e+00 
-1.76930e+00  7.29796e+00 
-1.90249e+00  7.30809e+00 
-2.03617e+00  7.31895e+00 
-2.17031e+00  7.33052e+00 
-2.30500e+00  7.34281e+00 
-2.44021e+00  7.35581e+00 
-2.57604e+00  7.36953e+00 
-2.71244e+00  7.38396e+00 
-2.84952e+00  7.39911e+00 
-2.98723e+00  7.41497e+00 
-3.12568e+00  7.43153e+00 
-3.26483e+00  7.44881e+00 
-3.40477e+00  7.46680e+00 
-3.54547e+00  7.48549e+00 
-3.68702e+00  7.50489e+00 
-3.82939e+00  7.52499e+00 
-3.97266e+00  7.54579e+00 
-4.11681e+00  7.56730e+00 
-4.26193e+00  7.58951e+00 
-4.40797e+00  7.61242e+00 
-4.55504e+00  7.63604e+00 
-4.70309e+00  7.66035e+00 
-4.85222e+00  7.68536e+00 
-5.00239e+00  7.71107e+00 
-5.15370e+00  7.73748e+00 
-5.30610e+00  7.76458e+00 
-5.45969e+00  7.79239e+00 
-5.61444e+00  7.82090e+00 
-5.77043e+00  7.85011e+00 
-5.92762e+00  7.88001e+00 
-6.08612e+00  7.91062e+00 
-6.24588e+00  7.94192e+00 
-6.40699e+00  7.97394e+00 
-6.56942e+00  8.00665e+00 
-6.73326e+00  8.04008e+00 
-6.89848e+00  8.07420e+00 
-7.06516e+00  8.10904e+00 
 7.38198e+00  8.81286e+00 
 7.20890e+00  8.77912e+00 
 7.03729e+00  8.74607e+00 
 6.86706e+00  8.71371e+00 
 6.69826e+00  8.68204e+00 
 6.53077e+00  8.65104e+00 
 6.36465e+00  8.62074e+00 
 6.19980e+00  8.59111e+00 
 6.03625e+00  8.56216e+00 
 5.87391e+00  8.53389e+00 
 5.71282e+00  8.50631e+00 
 5.55288e+00  8.47940e+00 
 5.39413e+00  8.45318e+00 
 5.23648e+00  8.42762e+00 
 5.07996e+00  8.40276e+00 
 4.92449e+00  8.37857e+00 
 4.77009e+00  8.35506e+00 
 4.61667e+00  8.33222e+00 
 4.46427e+00  8.31007e+00 
 4.31281e+00  8.28860e+00 
 4.16230e+00  8.26781e+00 
 4.01266e+00  8.24770e+00 
 3.86393e+00  8.22828e+00 
 3.71601e+00  8.20954e+00 
 3.56893e+00  8.19148e+00 
 3.42261e+00  8.17410e+00 
 3.27707e+00  8.15742e+00 
 3.13223e+00  8.14141e+00 
 2.98812e+00  8.12610e+00 
 2.84464e+00  8.11147e+00 
 2.70182e+00  8.09754e+00 
 2.55959e+00  8.08429e+00 
 2.41796e+00  8.07174e+00 
 2.27685e+00  8.05987e+00 
 2.13628e+00  8.04870e+00 
 1.99616e+00  8.03823e+00 
 1.85653e+00  8.02845e+00 
 1.71729e+00  8.01936e+00 
 1.57848e+00  8.01097e+00 
 1.43999e+00  8.00327e+00 
 1.30187e+00  7.99628e+00 
 1.16401e+00  7.98998e+00 
 1.02645e+00  7.98438e+00 
 8.89100e-01  7.97948e+00 
 7.51981e-01  7.97528e+00 
 6.15008e-01  7.97177e+00 
 4.78204e-01  7.96897e+00 
 3.41484e-01  7.96687e+00 
 2.04870e-01  7.96547e+00 
 6.82756e-02  7.96477e+00 
-6.82756e-02  7.96477e+00 
-2.04870e-01  7.96547e+00 
-3.41484e-01  7.96687e+00 
-4.78204e-01  7.96897e+00 
-6.15008e-01  7.97177e+00 
-7.51981e-01  7.97528e+00 
-8.89100e-01  7.97948e+00 
-1.02645e+00  7.98438e+00 
-1.16401e+00  7.98998e+00 
-1.30187e+00  7.99628e+00 
-1.43999e+00  8.00327e+00 
-1.57848e+00  8.01097e+00 
-1.71729e+00  8.01936e+00 
-1.85653e+00  8.02845e+00 
-1.99616e+00  8.03823e+00 
-2.13628e+00  8.04870e+00 
-2.27685e+00  8.05987e+00 
-2.41796e+00  8.07174e+00 
-2.55959e+00  8.08429e+00 
-2.70182e+00  8.09754e+00 
-2.84464e+00  8.11147e+00 
-2.98812e+00  8.12610e+00 
-3.13223e+00  8.14141e+00 
-3.27707e+00  8.15742e+00 
-3.42261e+00  8.17410e+00 
-3.56893e+00  8.19148e+00 
-3.71601e+00  8.20954e+00 
-3.86393e+00  8.22828e+00 
-4.01266e+00  8.24770e+00 
-4.16230e+00  8.26781e+00 
-4.31281e+00  8.28860e+00 
-4.46427e+00  8.31007e+00 
-4.61667e+00  8.33222e+00 
-4.77009e+00  8.35506e+00 
-4.92449e+00  8.37857e+00 
-5.07996e+00  8.40276e+00 
-5.23648e+00  8.42762e+00 
-5.39413e+00  8.45318e+00 
-5.55288e+00  8.47940e+00 
-5.71282e+00  8.50631e+00 
-5.87391e+00  8.53389e+00 
-6.03625e+00  8.56216e+00 
-6.19980e+00  8.59111e+00 
-6.36465e+00  8.62074e+00 
-6.53077e+00  8.65104e+00 
-6.69826e+00  8.68204e+00 
-6.86706e+00  8.71371e+00 
-7.03729e+00  8.74607e+00 
-7.20890e+00  8.77912e+00 
-7.38198e+00  8.81286e+00 
 7.68858e+00  9.54267e+00 
 7.50929e+00  9.51004e+00 
 7.33150e+00  9.47809e+00 
 7.15508e+00  9.44679e+00 
 6.98010e+00  9.41616e+00 
 6.80644e+00  9.38619e+00 
 6.63415e+00  9.35689e+00 
 6.46313e+00  9.32824e+00 
 6.29342e+00  9.30025e+00 
 6.12492e+00  9.27293e+00 
 5.95767e+00  9.24626e+00 
 5.79158e+00  9.22025e+00 
 5.62668e+00  9.19491e+00 
 5.46288e+00  9.17021e+00 
 5.30021e+00  9.14619e+00 
 5.13858e+00  9.12281e+00 
 4.97803e+00  9.10010e+00 
 4.81846e+00  9.07804e+00 
 4.65990e+00  9.05665e+00 
 4.50228e+00  9.03591e+00 
 4.34561e+00  9.01584e+00 
 4.18981e+00  8.99642e+00 
 4.03491e+00  8.97767e+00 
 3.88082e+00  8.95957e+00 
 3.72757e+00  8.94214e+00 
 3.57507e+00  8.92537e+00 
 3.42335e+00  8.90927e+00 
 3.27232e+00  8.89383e+00 
 3.12202e+00  8.87905e+00 
 2.97235e+00  8.86494e+00 
 2.82334e+00  8.85150e+00 
 2.67490e+00  8.83872e+00 
 2.52706e+00  8.82661e+00 
 2.37974e+00  8.81517e+00 
 2.23296e+00  8.80440e+00 
 2.08662e+00  8.79429e+00 
 1.94077e+00  8.78486e+00 
 1.79531e+00  8.77610e+00 
 1.65026e+00  8.76801e+00 
 1.50555e+00  8.76059e+00 
 1.36119e+00  8.75385e+00 
 1.21710e+00  8.74777e+00 
 1.07330e+00  8.74238e+00 
 9.29704e-01  8.73765e+00 
 7.86342e-01  8.73360e+00 
 6.43123e-01  8.73022e+00 
 5.00074e-01  8.72752e+00 
 3.57105e-01  8.72550e+00 
 2.14243e-01  8.72415e+00 
 7.13997e-02  8.72347e+00 
-7.13997e-02  8.72347e+00 
-2.14243e-01  8.72415e+00 
-3.57105e-01  8.72550e+00 
-5.00074e-01  8.72752e+00 
-6.43123e-01  8.73022e+00 
-7.86342e-01  8.73360e+00 
-9.29704e-01  8.73765e+00 
-1.07330e+00  8.74238e+00 
-1.21710e+00  8.74777e+00 
-1.36119e+00  8.75385e+00 
-1.50555e+00  8.76059e+00 
-1.65026e+00  8.76801e+00 
-1.79531e+00  8.77610e+00 
-1.94077e+00  8.78486e+00 
-2.08662e+00  8.79429e+00 
-2.23296e+00  8.80440e+00 
-2.37974e+00  8.81517e+00 
-2.52706e+00  8.82661e+00 
-2.67490e+00  8.83872e+00 
-2.82334e+00  8.85150e+00 
-2.97235e+00  8.86494e+00 
-3.12202e+00  8.87905e+00 
-3.27232e+00  8.89383e+00 
-3.42335e+00  8.90927e+00 
-3.57507e+00  8.92537e+00 
-3.72757e+00  8.94214e+00 
-3.88082e+00  8.95957e+00 
-4.03491e+00  8.97767e+00 
-4.18981e+00  8.99642e+00 
-4.34561e+00  9.01584e+00 
-4.50228e+00  9.03591e+00 
-4.65990e+00  9.05665e+00 
-4.81846e+00  9.07804e+00 
-4.97803e+00  9.10010e+00 
-5.13858e+00  9.12281e+00 
-5.30021e+00  9.14619e+00 
-5.46288e+00  9.17021e+00 
-5.62668e+00  9.19491e+00 
-5.79158e+00  9.22025e+00 
-5.95767e+00  9.24626e+00 
-6.12492e+00  9.27293e+00 
-6.29342e+00  9.30025e+00 
-6.46313e+00  9.32824e+00 
-6.63415e+00  9.35689e+00 
-6.80644e+00  9.38619e+00 
-6.98010e+00  9.41616e+00 
-7.15508e+00  9.44679e+00 
-7.33150e+00  9.47809e+00 
-7.50929e+00  9.51004e+00 
-7.68858e+00  9.54267e+00 
 7.98491e+00  1.02977e+01 
 7.79963e+00  1.02662e+01 
 7.61585e+00  1.02353e+01 
 7.43345e+00  1.02051e+01 
 7.25249e+00  1.01755e+01 
 7.07286e+00  1.01465e+01 
 6.89460e+00  1.01182e+01 
 6.71761e+00  1.00906e+01 
 6.54194e+00  1.00636e+01 
 6.36748e+00  1.00372e+01 
 6.19427e+00  1.00114e+01 
 6.02222e+00  9.98632e+00 
 5.85136e+00  9.96185e+00 
 5.68160e+00  9.93802e+00 
 5.51298e+00  9.91483e+00 
 5.34539e+00  9.89227e+00 
 5.17889e+00  9.87035e+00 
 5.01336e+00  9.84907e+00 
 4.84885e+00  9.82842e+00 
 4.68526e+00  9.80842e+00 
 4.52263e+00  9.78905e+00 
 4.36087e+00  9.77032e+00 
 4.20000e+00  9.75224e+00 
 4.03994e+00  9.73479e+00 
 3.88072e+00  9.71798e+00 
 3.72225e+00  9.70181e+00 
 3.56456e+00  9.68629e+00 
 3.40755e+00  9.67140e+00 
 3.25127e+00  9.65716e+00 
 3.09561e+00  9.64355e+00 
 2.94061e+00  9.63060e+00 
 2.78618e+00  9.61828e+00 
 2.63235e+00  9.60661e+00 
 2.47903e+00  9.59559e+00 
 2.32625e+00  9.58521e+00 
 2.17391e+00  9.57548e+00 
 2.02205e+00  9.56639e+00 
 1.87058e+00  9.55795e+00 
 1.71953e+00  9.55016e+00 
 1.56880e+00  9.54301e+00 
 1.41842e+00  9.53651e+00 
 1.26831e+00  9.53067e+00 
 1.11849e+00  9.52547e+00 
 9.68873e-01  9.52092e+00 
 8.19488e-01  9.51702e+00 
 6.70244e-01  9.51376e+00 
 5.21170e-01  9.51116e+00 
 3.72174e-01  9.50921e+00 
 2.23285e-01  9.50791e+00 
 7.44134e-02  9.50726e+00 
-7.44134e-02  9.50726e+00 
-2.23285e-01  9.50791e+00 
-3.72174e-01  9.50921e+00 
-5.21170e-01  9.51116e+00 
-6.70244e-01  9.51376e+00 
-8.19488e-01  9.51702e+00 
-9.68873e-01  9.52092e+00 
-1.11849e+00  9.52547e+00 
-1.26831e+00  9.53067e+00 
-1.41842e+00  9.53651e+00 
-1.56880e+00  9.54301e+00 
-1.71953e+00  9.55016e+00 
-1.87058e+00  9.55795e+00 
-2.02205e+00  9.56639e+00 
-2.17391e+00  9.57548e+00 
-2.32625e+00  9.58521e+00 
-2.47903e+00  9.59559e+00 
-2.63235e+00  9.60661e+00 
-2.78618e+00  9.61828e+00 
-2.94061e+00  9.63060e+00 
-3.09561e+00  9.64355e+00 
-3.25127e+00  9.65716e+00 
-3.40755e+00  9.67140e+00 
-3.56456e+00  9.68629e+00 
-3.72225e+00  9.70181e+00 
-3.88072e+00  9.71798e+00 
-4.03994e+00  9.73479e+00 
-4.20000e+00  9.75224e+00 
-4.36087e+00  9.77032e+00 
-4.52263e+00  9.78905e+00 
-4.68526e+00  9.80842e+00 
-4.84885e+00  9.82842e+00 
-5.01336e+00  9.84907e+00 
-5.17889e+00  9.87035e+00 
-5.34539e+00  9.89227e+00 
-5.51298e+00  9.91483e+00 
-5.68160e+00  9.93802e+00 
-5.85136e+00  9.96185e+00 
-6.02222e+00  9.98632e+00 
-6.19427e+00  1.00114e+01 
-6.36748e+00  1.00372e+01 
-6.54194e+00  1.00636e+01 
-6.71761e+00  1.00906e+01 
-6.89460e+00  1.01182e+01 
-7.07286e+00  1.01465e+01 
-7.25249e+00  1.01755e+01 
-7.43345e+00  1.02051e+01 
-7.61585e+00  1.02353e+01 
-7.79963e+00  1.02662e+01 
-7.98491e+00  1.02977e+01 
 8.27091e+00  1.10769e+01 
 8.07985e+00  1.10465e+01 
 7.89029e+00  1.10168e+01 
 7.70212e+00  1.09876e+01 
 7.51538e+00  1.09591e+01 
 7.32998e+00  1.09312e+01 
 7.14595e+00  1.09039e+01 
 6.96320e+00  1.08772e+01 
 6.78177e+00  1.08511e+01 
 6.60154e+00  1.08257e+01 
 6.42258e+00  1.08009e+01 
 6.24477e+00  1.07767e+01 
 6.06816e+00  1.07531e+01 
 5.89264e+00  1.07301e+01 
 5.71826e+00  1.07077e+01 
 5.54492e+00  1.06860e+01 
 5.37266e+00  1.06649e+01 
 5.20137e+00  1.06444e+01 
 5.03111e+00  1.06245e+01 
 4.86176e+00  1.06052e+01 
 4.69337e+00  1.05865e+01 
 4.52585e+00  1.05685e+01 
 4.35922e+00  1.05511e+01 
 4.19340e+00  1.05342e+01 
 4.02842e+00  1.05181e+01 
 3.86417e+00  1.05025e+01 
 3.70071e+00  1.04875e+01 
 3.53794e+00  1.04732e+01 
 3.37588e+00  1.04595e+01 
 3.21444e+00  1.04464e+01 
 3.05367e+00  1.04339e+01 
 2.89346e+00  1.04221e+01 
 2.73385e+00  1.04108e+01 
 2.57474e+00  1.04002e+01 
 2.41617e+00  1.03902e+01 
 2.25804e+00  1.03808e+01 
 2.10039e+00  1.03721e+01 
 1.94313e+00  1.03640e+01 
 1.78627e+00  1.03565e+01 
 1.62975e+00  1.03496e+01 
 1.47357e+00  1.03434e+01 
 1.31766e+00  1.03377e+01 
 1.16204e+00  1.03327e+01 
 1.00662e+00  1.03283e+01 
 8.51428e-01  1.03246e+01 
 6.96378e-01  1.03215e+01 
 5.41497e-01  1.03190e+01 
 3.86693e-01  1.03171e+01 
 2.31997e-01  1.03158e+01 
 7.73171e-02  1.03152e+01 
-7.73171e-02  1.03152e+01 
-2.31997e-01  1.03158e+01 
-3.86693e-01  1.03171e+01 
-5.41497e-01  1.03190e+01 
-6.96378e-01  1.03215e+01 
-8.51428e-01  1.03246e+01 
-1.00662e+00  1.03283e+01 
-1.16204e+00  1.03327e+01 
-1.31766e+00  1.03377e+01 
-1.47357e+00  1.03434e+01 
-1.62975e+00  1.03496e+01 
-1.78627e+00  1.03565e+01 
-1.94313e+00  1.03640e+01 
-2.10039e+00  1.03721e+01 
-2.25804e+00  1.03808e+01 
-2.41617e+00  1.03902e+01 
-2.57474e+00  1.04002e+01 
-2.73385e+00  1.04108e+01 
-2.89346e+00  1.04221e+01 
-3.05367e+00  1.04339e+01 
-3.21444e+00  1.04464e+01 
-3.37588e+00  1.04595e+01 
-3.53794e+00  1.04732e+01 
-3.70071e+00  1.04875e+01 
-3.86417e+00  1.05025e+01 
-4.02842e+00  1.05181e+01 
-4.19340e+00  1.05342e+01 
-4.35922e+00  1.05511e+01 
-4.52585e+00  1.05685e+01 
-4.69337e+00  1.05865e+01 
-4.86176e+00  1.06052e+01 
-5.03111e+00  1.06245e+01 
-5.20137e+00  1.06444e+01 
-5.37266e+00  1.06649e+01 
-5.54492e+00  1.06860e+01 
-5.71826e+00  1.07077e+01 
-5.89264e+00  1.07301e+01 
-6.06816e+00  1.07531e+01 
-6.24477e+00  1.07767e+01 
-6.42258e+00  1.08009e+01 
-6.60154e+00  1.08257e+01 
-6.78177e+00  1.08511e+01 
-6.96320e+00  1.08772e+01 
-7.14595e+00  1.09039e+01 
-7.32998e+00  1.09312e+01 
-7.51538e+00  1.09591e+01 
-7.70212e+00  1.09876e+01 
-7.89029e+00  1.10168e+01 
-8.07985e+00  1.10465e+01 
-8.27091e+00  1.10769e+01 
 8.54657e+00  1.18796e+01 
 8.34993e+00  1.18504e+01 
 8.15480e+00  1.18217e+01 
 7.96106e+00  1.17936e+01 
 7.76876e+00  1.17661e+01 
 7.57780e+00  1.17392e+01 
 7.38821e+00  1.17130e+01 
 7.19990e+00  1.16873e+01 
 7.01290e+00  1.16622e+01 
 6.82712e+00  1.16377e+01 
 6.64260e+00  1.16138e+01 
 6.45924e+00  1.15905e+01 
 6.27707e+00  1.15677e+01 
 6.09600e+00  1.15456e+01 
 5.91607e+00  1.15241e+01 
 5.73717e+00  1.15032e+01 
 5.55936e+00  1.14828e+01 
 5.38252e+00  1.14631e+01 
 5.20670e+00  1.14439e+01 
 5.03180e+00  1.14254e+01 
 4.85786e+00  1.14074e+01 
 4.68478e+00  1.13901e+01 
 4.51260e+00  1.13733e+01 
 4.34121e+00  1.13571e+01 
 4.17067e+00  1.13415e+01 
 4.00087e+00  1.13266e+01 
 3.83184e+00  1.13122e+01 
 3.66350e+00  1.12984e+01 
 3.49588e+00  1.12852e+01 
 3.32888e+00  1.12726e+01 
 3.16253e+00  1.12606e+01 
 2.99675e+00  1.12492e+01 
 2.83157e+00  1.12384e+01 
 2.66689e+00  1.12282e+01 
 2.50274e+00  1.12186e+01 
 2.33904e+00  1.12096e+01 
 2.17581e+00  1.12012e+01 
 2.01296e+00  1.11934e+01 
 1.85053e+00  1.11862e+01 
 1.68842e+00  1.11796e+01 
 1.52666e+00  1.11736e+01 
 1.36516e+00  1.11681e+01 
 1.20396e+00  1.11633e+01 
 1.04295e+00  1.11591e+01 
 8.82172e-01  1.11555e+01 
 7.21532e-01  1.11525e+01 
 5.61062e-01  1.11501e+01 
 4.00669e-01  1.11483e+01 
 2.40383e-01  1.11471e+01 
 8.01120e-02  1.11465e+01 
-8.01120e-02  1.11465e+01 
-2.40383e-01  1.11471e+01 
-4.00669e-01  1.11483e+01 
-5.61062e-01  1.11501e+01 
-7.21532e-01  1.11525e+01 
-8.82172e-01  1.11555e+01 
-1.04295e+00  1.11591e+01 
-1.20396e+00  1.11633e+01 
-1.36516e+00  1.11681e+01 
-1.52666e+00  1.11736e+01 
-1.68842e+00  1.11796e+01 
-1.85053e+00  1.11862e+01 
-2.01296e+00  1.11934e+01 
-2.17581e+00  1.12012e+01 
-2.33904e+00  1.12096e+01 
-2.50274e+00  1.12186e+01 
-2.66689e+00  1.12282e+01 
-2.83157e+00  1.12384e+01 
-2.99675e+00  1.12492e+01 
-3.16253e+00  1.12606e+01 
-3.32888e+00  1.12726e+01 
-3.49588e+00  1.12852e+01 
-3.66350e+00  1.12984e+01 
-3.83184e+00  1.13122e+01 
-4.00087e+00  1.13266e+01 
-4.17067e+00  1.13415e+01 
-4.34121e+00  1.13571e+01 
-4.51260e+00  1.13733e+01 
-4.68478e+00  1.13901e+01 
-4.85786e+00  1.14074e+01 
-5.03180e+00  1.14254e+01 
-5.20670e+00  1.14439e+01 
-5.38252e+00  1.14631e+01 
-5.55936e+00  1.14828e+01 
-5.73717e+00  1.15032e+01 
-5.91607e+00  1.15241e+01 
-6.09600e+00  1.15456e+01 
-6.27707e+00  1.15677e+01 
-6.45924e+00  1.15905e+01 
-6.64260e+00  1.16138e+01 
-6.82712e+00  1.16377e+01 
-7.01290e+00  1.16622e+01 
-7.19990e+00  1.16873e+01 
-7.38821e+00  1.17130e+01 
-7.57780e+00  1.17392e+01 
-7.76876e+00  1.17661e+01 
-7.96106e+00  1.17936e+01 
-8.15480e+00  1.18217e+01 
-8.34993e+00  1.18504e+01 
-8.54657e+00  1.18796e+01 
 8.81188e+00  1.27049e+01 
 8.60988e+00  1.26768e+01 
 8.40939e+00  1.26492e+01 
 8.21029e+00  1.26222e+01 
 8.01263e+00  1.25958e+01 
 7.81631e+00  1.25699e+01 
 7.62136e+00  1.25446e+01 
 7.42770e+00  1.25199e+01 
 7.23535e+00  1.24958e+01 
 7.04422e+00  1.24722e+01 
 6.85435e+00  1.24493e+01 
 6.66563e+00  1.24268e+01 
 6.47812e+00  1.24050e+01 
 6.29170e+00  1.23837e+01 
 6.10642e+00  1.23630e+01 
 5.92217e+00  1.23429e+01 
 5.73901e+00  1.23234e+01 
 5.55682e+00  1.23044e+01 
 5.37565e+00  1.22860e+01 
 5.19540e+00  1.22682e+01 
 5.01611e+00  1.22509e+01 
 4.83767e+00  1.22342e+01 
 4.66014e+00  1.22181e+01 
 4.48341e+00  1.22026e+01 
 4.30751e+00  1.21876e+01 
 4.13235e+00  1.21732e+01 
 3.95797e+00  1.21594e+01 
 3.78427e+00  1.21462e+01 
 3.61129e+00  1.21335e+01 
 3.43893e+00  1.21214e+01 
 3.26723e+00  1.21099e+01 
 3.09609e+00  1.20989e+01 
 2.92554e+00  1.20886e+01 
 2.75550e+00  1.20788e+01 
 2.58599e+00  1.20695e+01 
 2.41692e+00  1.20609e+01 
 2.24833e+00  1.20528e+01 
 2.08011e+00  1.20453e+01 
 1.91231e+00  1.20384e+01 
 1.74483e+00  1.20321e+01 
 1.57770e+00  1.20263e+01 
 1.41083e+00  1.20211e+01 
 1.24426e+00  1.20165e+01 
 1.07788e+00  1.20125e+01 
 9.11727e-01  1.20090e+01 
 7.45714e-01  1.20061e+01 
 5.79871e-01  1.20038e+01 
 4.14103e-01  1.20021e+01 
 2.48444e-01  1.20009e+01 
 8.27988e-02  1.20004e+01 
-8.27988e-02  1.20004e+01 
-2.48444e-01  1.20009e+01 
-4.14103e-01  1.20021e+01 
-5.79871e-01  1.20038e+01 
-7.45714e-01  1.20061e+01 
-9.11727e-01  1.20090e+01 
-1.07788e+00  1.20125e+01 
-1.24426e+00  1.20165e+01 
-1.41083e+00  1.20211e+01 
-1.57770e+00  1.20263e+01 
-1.74483e+00  1.20321e+01 
-1.91231e+00  1.20384e+01 
-2.08011e+00  1.20453e+01 
-2.24833e+00  1.20528e+01 
-2.41692e+00  1.20609e+01 
-2.58599e+00  1.20695e+01 
-2.75550e+00  1.20788e+01 
-2.92554e+00  1.20886e+01 
-3.09609e+00  1.20989e+01 
-3.26723e+00  1.21099e+01 
-3.43893e+00  1.21214e+01 
-3.61129e+00  1.21335e+01 
-3.78427e+00  1.21462e+01 
-3.95797e+00  1.21594e+01 
-4.13235e+00  1.21732e+01 
-4.30751e+00  1.21876e+01 
-4.48341e+00  1.22026e+01 
-4.66014e+00  1.22181e+01 
-4.83767e+00  1.22342e+01 
-5.01611e+00  1.22509e+01 
-5.19540e+00  1.22682e+01 
-5.37565e+00  1.22860e+01 
-5.55682e+00  1.23044e+01 
-5.73901e+00  1.23234e+01 
-5.92217e+00  1.23429e+01 
-6.10642e+00  1.23630e+01 
-6.29170e+00  1.23837e+01 
-6.47812e+00  1.24050e+01 
-6.66563e+00  1.24268e+01 
-6.85435e+00  1.24493e+01 
-7.04422e+00  1.24722e+01 
-7.23535e+00  1.24958e+01 
-7.42770e+00  1.25199e+01 
-7.62136e+00  1.25446e+01 
-7.81631e+00  1.25699e+01 
-8.01263e+00  1.25958e+01 
-8.21029e+00  1.26222e+01 
-8.40939e+00  1.26492e+01 
-8.60988e+00  1.26768e+01 
-8.81188e+00  1.27049e+01 
 9.06680e+00  1.35519e+01 
 8.85965e+00  1.35248e+01 
 8.65400e+00  1.34984e+01 
 8.44976e+00  1.34724e+01 
 8.24695e+00  1.34471e+01 
 8.04548e+00  1.34223e+01 
 7.84539e+00  1.33980e+01 
 7.64658e+00  1.33743e+01 
 7.44909e+00  1.33511e+01 
 7.25281e+00  1.33285e+01 
 7.05780e+00  1.33064e+01 
 6.86393e+00  1.32849e+01 
 6.67127e+00  1.32639e+01 
 6.47971e+00  1.32435e+01 
 6.28929e+00  1.32237e+01 
 6.09990e+00  1.32043e+01 
 5.91159e+00  1.31856e+01 
 5.72426e+00  1.31674e+01 
 5.53794e+00  1.31497e+01 
 5.35255e+00  1.31326e+01 
 5.16811e+00  1.31160e+01 
 4.98453e+00  1.31000e+01 
 4.80185e+00  1.30846e+01 
 4.61997e+00  1.30697e+01 
 4.43893e+00  1.30553e+01 
 4.25863e+00  1.30415e+01 
 4.07910e+00  1.30283e+01 
 3.90025e+00  1.30156e+01 
 3.72212e+00  1.30034e+01 
 3.54461e+00  1.29918e+01 
 3.36776e+00  1.29808e+01 
 3.19147e+00  1.29703e+01 
 3.01577e+00  1.29603e+01 
 2.84057e+00  1.29509e+01 
 2.66591e+00  1.29421e+01 
 2.49169e+00  1.29338e+01 
 2.31794e+00  1.29261e+01 
 2.14457e+00  1.29189e+01 
 1.97162e+00  1.29123e+01 
 1.79898e+00  1.29062e+01 
 1.62670e+00  1.29007e+01 
 1.45467e+00  1.28957e+01 
 1.28294e+00  1.28913e+01 
 1.11140e+00  1.28874e+01 
 9.40096e-01  1.28841e+01 
 7.68925e-01  1.28813e+01 
 5.97925e-01  1.28791e+01 
 4.26998e-01  1.28775e+01 
 2.56182e-01  1.28764e+01 
 8.53776e-02  1.28758e+01 
-8.53776e-02  1.28758e+01 
-2.56182e-01  1.28764e+01 
-4.26998e-01  1.28775e+01 
-5.97925e-01  1.28791e+01 
-7.68925e-01  1.28813e+01 
-9.40096e-01  1.28841e+01 
-1.11140e+00  1.28874e+01 
-1.28294e+00  1.28913e+01 
-1.45467e+00  1.28957e+01 
-1.62670e+00  1.29007e+01 
-1.79898e+00  1.29062e+01 
-1.97162e+00  1.29123e+01 
-2.14457e+00  1.29189e+01 
-2.31794e+00  1.29261e+01 
-2.49169e+00  1.29338e+01 
-2.66591e+00  1.29421e+01 
-2.84057e+00  1.29509e+01 
-3.01577e+00  1.29603e+01 
-3.19147e+00  1.29703e+01 
-3.36776e+00  1.29808e+01 
-3.54461e+00  1.29918e+01 
-3.72212e+00  1.30034e+01 
-3.90025e+00  1.30156e+01 
-4.07910e+00  1.30283e+01 
-4.25863e+00  1.30415e+01 
-4.43893e+00  1.30553e+01 
-4.61997e+00  1.30697e+01 
-4.80185e+00  1.30846e+01 
-4.98453e+00  1.31000e+01 
-5.16811e+00  1.31160e+01 
-5.35255e+00  1.31326e+01 
-5.53794e+00  1.31497e+01 
-5.72426e+00  1.31674e+01 
-5.91159e+00  1.31856e+01 
-6.09990e+00  1.32043e+01 
-6.28929e+00  1.32237e+01 
-6.47971e+00  1.32435e+01 
-6.67127e+00  1.32639e+01 
-6.86393e+00  1.32849e+01 
-7.05780e+00  1.33064e+01 
-7.25281e+00  1.33285e+01 
-7.44909e+00  1.33511e+01 
-7.64658e+00  1.33743e+01 
-7.84539e+00  1.33980e+01 
-8.04548e+00  1.34223e+01 
-8.24695e+00  1.34471e+01 
-8.44976e+00  1.34724e+01 
-8.65400e+00  1.34984e+01 
-8.85965e+00  1.35248e+01 
-9.06680e+00  1.35519e+01 
 9.31134e+00  1.44196e+01 
 9.09925e+00  1.43937e+01 
 8.88866e+00  1.43684e+01 
 8.67948e+00  1.43435e+01 
 8.47173e+00  1.43192e+01 
 8.26532e+00  1.42954e+01 
 8.06030e+00  1.42721e+01 
 7.85655e+00  1.42494e+01 
 7.65412e+00  1.42272e+01 
 7.45290e+00  1.42055e+01 
 7.25295e+00  1.41844e+01 
 7.05415e+00  1.41638e+01 
 6.85655e+00  1.41437e+01 
 6.66005e+00  1.41241e+01 
 6.46469e+00  1.41051e+01 
 6.27036e+00  1.40866e+01 
 6.07712e+00  1.40686e+01 
 5.88484e+00  1.40512e+01 
 5.69359e+00  1.40342e+01 
 5.50326e+00  1.40179e+01 
 5.31389e+00  1.40020e+01 
 5.12537e+00  1.39867e+01 
 4.93775e+00  1.39719e+01 
 4.75093e+00  1.39576e+01 
 4.56495e+00  1.39438e+01 
 4.37970e+00  1.39306e+01 
 4.19524e+00  1.39179e+01 
 4.01145e+00  1.39058e+01 
 3.82838e+00  1.38942e+01 
 3.64593e+00  1.38831e+01 
 3.46414e+00  1.38725e+01 
 3.28290e+00  1.38624e+01 
 3.10226e+00  1.38529e+01 
 2.92212e+00  1.38439e+01 
 2.74252e+00  1.38355e+01 
 2.56336e+00  1.38276e+01 
 2.38467e+00  1.38202e+01 
 2.20636e+00  1.38133e+01 
 2.02846e+00  1.38069e+01 
 1.85088e+00  1.38011e+01 
 1.67366e+00  1.37958e+01 
 1.49669e+00  1.37911e+01 
 1.32001e+00  1.37869e+01 
 1.14353e+00  1.37832e+01 
 9.67282e-01  1.37800e+01 
 7.91167e-01  1.37774e+01 
 6.15225e-01  1.37752e+01 
 4.39355e-01  1.37737e+01 
 2.63597e-01  1.37726e+01 
 8.78488e-02  1.37721e+01 
-8.78488e-02  1.37721e+01 
-2.63597e-01  1.37726e+01 
-4.39355e-01  1.37737e+01 
-6.15225e-01  1.37752e+01 
-7.91167e-01  1.37774e+01 
-9.67282e-01  1.37800e+01 
-1.14353e+00  1.37832e+01 
-1.32001e+00  1.37869e+01 
-1.49669e+00  1.37911e+01 
-1.67366e+00  1.37958e+01 
-1.85088e+00  1.38011e+01 
-2.02846e+00  1.38069e+01 
-2.20636e+00  1.38133e+01 
-2.38467e+00  1.38202e+01 
-2.56336e+00  1.38276e+01 
-2.74252e+00  1.38355e+01 
-2.92212e+00  1.38439e+01 
-3.10226e+00  1.38529e+01 
-3.28290e+00  1.38624e+01 
-3.46414e+00  1.38725e+01 
-3.64593e+00  1.38831e+01 
-3.82838e+00  1.38942e+01 
-4.01145e+00  1.39058e+01 
-4.19524e+00  1.39179e+01 
-4.37970e+00  1.39306e+01 
-4.56495e+00  1.39438e+01 
-4.75093e+00  1.39576e+01 
-4.93775e+00  1.39719e+01 
-5.12537e+00  1.39867e+01 
-5.31389e+00  1.40020e+01 
-5.50326e+00  1.40179e+01 
-5.69359e+00  1.40342e+01 
-5.88484e+00  1.40512e+01 
-6.07712e+00  1.40686e+01 
-6.27036e+00  1.40866e+01 
-6.46469e+00  1.41051e+01 
-6.66005e+00  1.41241e+01 
-6.85655e+00  1.41437e+01 
-7.05415e+00  1.41638e+01 
-7.25295e+00  1.41844e+01 
-7.45290e+00  1.42055e+01 
-7.65412e+00  1.42272e+01 
-7.85655e+00  1.42494e+01 
-8.06030e+00  1.42721e+01 
-8.26532e+00  1.42954e+01 
-8.47173e+00  1.43192e+01 
-8.67948e+00  1.43435e+01 
-8.88866e+00  1.43684e+01 
-9.09925e+00  1.43937e+01 
-9.31134e+00  1.44196e+01 
 9.54550e+00  1.53074e+01 
 9.32868e+00  1.52826e+01 
 9.11337e+00  1.52583e+01 
 8.89946e+00  1.52345e+01 
 8.68698e+00  1.52113e+01 
 8.47585e+00  1.51885e+01 
 8.26609e+00  1.51663e+01 
 8.05761e+00  1.51445e+01 
 7.85045e+00  1.51233e+01 
 7.64450e+00  1.51026e+01 
 7.43982e+00  1.50823e+01 
 7.23629e+00  1.50626e+01 
 7.03396e+00  1.50434e+01 
 6.83273e+00  1.50247e+01 
 6.63263e+00  1.50065e+01 
 6.43357e+00  1.49888e+01 
 6.23560e+00  1.49716e+01 
 6.03859e+00  1.49549e+01 
 5.84261e+00  1.49388e+01 
 5.64754e+00  1.49231e+01 
 5.45343e+00  1.49079e+01 
 5.26018e+00  1.48933e+01 
 5.06783e+00  1.48791e+01 
 4.87628e+00  1.48655e+01 
 4.68556e+00  1.48524e+01 
 4.49558e+00  1.48397e+01 
 4.30639e+00  1.48276e+01 
 4.11787e+00  1.48160e+01 
 3.93007e+00  1.48049e+01 
 3.74288e+00  1.47943e+01 
 3.55636e+00  1.47842e+01 
 3.37039e+00  1.47746e+01 
 3.18502e+00  1.47655e+01 
 3.00015e+00  1.47569e+01 
 2.81582e+00  1.47489e+01 
 2.63192e+00  1.47413e+01 
 2.44850e+00  1.47342e+01 
 2.26546e+00  1.47277e+01 
 2.08284e+00  1.47216e+01 
 1.90053e+00  1.47161e+01 
 1.71857e+00  1.47110e+01 
 1.53688e+00  1.47065e+01 
 1.35547e+00  1.47024e+01 
 1.17426e+00  1.46989e+01 
 9.93287e-01  1.46959e+01 
 8.12443e-01  1.46934e+01 
 6.31774e-01  1.46914e+01 
 4.51175e-01  1.46898e+01 
 2.70689e-01  1.46888e+01 
 9.02126e-02  1.46883e+01 
-9.02126e-02  1.46883e+01 
-2.70689e-01  1.46888e+01 
-4.51175e-01  1.46898e+01 
-6.31774e-01  1.46914e+01 
-8.12443e-01  1.46934e+01 
-9.93287e-01  1.46959e+01 
-1.17426e+00  1.46989e+01 
-1.35547e+00  1.47024e+01 
-1.53688e+00  1.47065e+01 
-1.71857e+00  1.47110e+01 
-1.90053e+00  1.47161e+01 
-2.08284e+00  1.47216e+01 
-2.26546e+00  1.47277e+01 
-2.44850e+00  1.47342e+01 
-2.63192e+00  1.47413e+01 
-2.81582e+00  1.47489e+01 
-3.00015e+00  1.47569e+01 
-3.18502e+00  1.47655e+01 
-3.37039e+00  1.47746e+01 
-3.55636e+00  1.47842e+01 
-3.74288e+00  1.47943e+01 
-3.93007e+00  1.48049e+01 
-4.11787e+00  1.48160e+01 
-4.30639e+00  1.48276e+01 
-4.49558e+00  1.48397e+01 
-4.68556e+00  1.48524e+01 
-4.87628e+00  1.48655e+01 
-5.06783e+00  1.48791e+01 
-5.26018e+00  1.48933e+01 
-5.45343e+00  1.49079e+01 
-5.64754e+00  1.49231e+01 
-5.84261e+00  1.49388e+01 
-6.03859e+00  1.49549e+01 
-6.23560e+00  1.49716e+01 
-6.43357e+00  1.49888e+01 
-6.63263e+00  1.50065e+01 
-6.83273e+00  1.50247e+01 
-7.03396e+00  1.50434e+01 
-7.23629e+00  1.50626e+01 
-7.43982e+00  1.50823e+01 
-7.64450e+00  1.51026e+01 
-7.85045e+00  1.51233e+01 
-8.05761e+00  1.51445e+01 
-8.26609e+00  1.51663e+01 
-8.47585e+00  1.51885e+01 
-8.68698e+00  1.52113e+01 
-8.89946e+00  1.52345e+01 
-9.11337e+00  1.52583e+01 
-9.32868e+00  1.52826e+01 
-9.54550e+00  1.53074e+01 
 9.76927e+00  1.62141e+01 
 9.54794e+00  1.61905e+01 
 9.32811e+00  1.61673e+01 
 9.10968e+00  1.61446e+01 
 8.89269e+00  1.61224e+01 
 8.67703e+00  1.61007e+01 
 8.46275e+00  1.60794e+01 
 8.24975e+00  1.60587e+01 
 8.03807e+00  1.60384e+01 
 7.82760e+00  1.60186e+01 
 7.61839e+00  1.59993e+01 
 7.41034e+00  1.59805e+01 
 7.20348e+00  1.59621e+01 
 6.99772e+00  1.59443e+01 
 6.79310e+00  1.59269e+01 
 6.58952e+00  1.59100e+01 
 6.38701e+00  1.58936e+01 
 6.18548e+00  1.58777e+01 
 5.98497e+00  1.58623e+01 
 5.78537e+00  1.58473e+01 
 5.58674e+00  1.58329e+01 
 5.38896e+00  1.58189e+01 
 5.19209e+00  1.58054e+01 
 4.99600e+00  1.57924e+01 
 4.80076e+00  1.57799e+01 
 4.60626e+00  1.57679e+01 
 4.41254e+00  1.57563e+01 
 4.21949e+00  1.57452e+01 
 4.02717e+00  1.57346e+01 
 3.83546e+00  1.57245e+01 
 3.64442e+00  1.57149e+01 
 3.45393e+00  1.57058e+01 
 3.26404e+00  1.56971e+01 
 3.07465e+00  1.56890e+01 
 2.88579e+00  1.56813e+01 
 2.69738e+00  1.56741e+01 
 2.50944e+00  1.56673e+01 
 2.32188e+00  1.56611e+01 
 2.13474e+00  1.56553e+01 
 1.94792e+00  1.56501e+01 
 1.76145e+00  1.56452e+01 
 1.57523e+00  1.56409e+01 
 1.38932e+00  1.56371e+01 
 1.20359e+00  1.56337e+01 
 1.01810e+00  1.56308e+01 
 8.32748e-01  1.56285e+01 
 6.47566e-01  1.56265e+01 
 4.62455e-01  1.56251e+01 
 2.77457e-01  1.56241e+01 
 9.24683e-02  1.56237e+01 
-9.24683e-02  1.56237e+01 
-2.77457e-01  1.56241e+01 
-4.62455e-01  1.56251e+01 
-6.47566e-01  1.56265e+01 
-8.32748e-01  1.56285e+01 
-1.01810e+00  1.56308e+01 
-1.20359e+00  1.56337e+01 
-1.38932e+00  1.56371e+01 
-1.57523e+00  1.56409e+01 
-1.76145e+00  1.56452e+01 
-1.94792e+00  1.56501e+01 
-2.13474e+00  1.56553e+01 
-2.32188e+00  1.56611e+01 
-2.50944e+00  1.56673e+01 
-2.69738e+00  1.56741e+01 
-2.88579e+00  1.56813e+01 
-3.07465e+00  1.56890e+01 
-3.26404e+00  1.56971e+01 
-3.45393e+00  1.57058e+01 
-3.64442e+00  1.57149e+01 
-3.83546e+00  1.57245e+01 
-4.02717e+00  1.57346e+01 
-4.21949e+00  1.57452e+01 
-4.41254e+00  1.57563e+01 
-4.60626e+00  1.57679e+01 
-4.80076e+00  1.57799e+01 
-4.99600e+00  1.57924e+01 
-5.19209e+00  1.58054e+01 
-5.38896e+00  1.58189e+01 
-5.58674e+00  1.58329e+01 
-5.78537e+00  1.58473e+01 
-5.98497e+00  1.58623e+01 
-6.18548e+00  1.58777e+01 
-6.38701e+00  1.58936e+01 
-6.58952e+00  1.59100e+01 
-6.79310e+00  1.59269e+01 
-6.99772e+00  1.59443e+01 
-7.20348e+00  1.59621e+01 
-7.41034e+00  1.59805e+01 
-7.61839e+00  1.59993e+01 
-7.82760e+00  1.60186e+01 
-8.03807e+00  1.60384e+01 
-8.24975e+00  1.60587e+01 
-8.46275e+00  1.60794e+01 
-8.67703e+00  1.61007e+01 
-8.89269e+00  1.61224e+01 
-9.10968e+00  1.61446e+01 
-9.32811e+00  1.61673e+01 
-9.54794e+00  1.61905e+01 
-9.76927e+00  1.62141e+01 
 9.98267e+00  1.71391e+01 
 9.75703e+00  1.71165e+01 
 9.53290e+00  1.70945e+01 
 9.31016e+00  1.70728e+01 
 9.08886e+00  1.70517e+01 
 8.86889e+00  1.70310e+01 
 8.65030e+00  1.70108e+01 
 8.43298e+00  1.69910e+01 
 8.21699e+00  1.69717e+01 
 8.00220e+00  1.69528e+01 
 7.78868e+00  1.69344e+01 
 7.57630e+00  1.69165e+01 
 7.36513e+00  1.68991e+01 
 7.15505e+00  1.68821e+01 
 6.94611e+00  1.68655e+01 
 6.73820e+00  1.68495e+01 
 6.53137e+00  1.68338e+01 
 6.32551e+00  1.68187e+01 
 6.12068e+00  1.68040e+01 
 5.91676e+00  1.67898e+01 
 5.71381e+00  1.67760e+01 
 5.51171e+00  1.67627e+01 
 5.31051e+00  1.67499e+01 
 5.11011e+00  1.67375e+01 
 4.91055e+00  1.67256e+01 
 4.71172e+00  1.67142e+01 
 4.51368e+00  1.67032e+01 
 4.31632e+00  1.66927e+01 
 4.11968e+00  1.66826e+01 
 3.92366e+00  1.66730e+01 
 3.72830e+00  1.66639e+01 
 3.53350e+00  1.66552e+01 
 3.33930e+00  1.66470e+01 
 3.14560e+00  1.66392e+01 
 2.95244e+00  1.66319e+01 
 2.75972e+00  1.66251e+01 
 2.56748e+00  1.66187e+01 
 2.37561e+00  1.66128e+01 
 2.18417e+00  1.66073e+01 
 1.99304e+00  1.66023e+01 
 1.80227e+00  1.65977e+01 
 1.61176e+00  1.65936e+01 
 1.42154e+00  1.65900e+01 
 1.23152e+00  1.65868e+01 
 1.04173e+00  1.65841e+01 
 8.52078e-01  1.65818e+01 
 6.62601e-01  1.65800e+01 
 4.73193e-01  1.65786e+01 
 2.83900e-01  1.65777e+01 
 9.46157e-02  1.65772e+01 
-9.46157e-02  1.65772e+01 
-2.83900e-01  1.65777e+01 
-4.73193e-01  1.65786e+01 
-6.62601e-01  1.65800e+01 
-8.52078e-01  1.65818e+01 
-1.04173e+00  1.65841e+01 
-1.23152e+00  1.65868e+01 
-1.42154e+00  1.65900e+01 
-1.61176e+00  1.65936e+01 
-1.80227e+00  1.65977e+01 
-1.99304e+00  1.66023e+01 
-2.18417e+00  1.66073e+01 
-2.37561e+00  1.66128e+01 
-2.56748e+00  1.66187e+01 
-2.75972e+00  1.66251e+01 
-2.95244e+00  1.66319e+01 
-3.14560e+00  1.66392e+01 
-3.33930e+00  1.66470e+01 
-3.53350e+00  1.66552e+01 
-3.72830e+00  1.66639e+01 
-3.92366e+00  1.66730e+01 
-4.11968e+00  1.66826e+01 
-4.31632e+00  1.66927e+01 
-4.51368e+00  1.67032e+01 
-4.71172e+00  1.67142e+01 
-4.91055e+00  1.67256e+01 
-5.11011e+00  1.67375e+01 
-5.31051e+00  1.67499e+01 
-5.51171e+00  1.67627e+01 
-5.71381e+00  1.67760e+01 
-5.91676e+00  1.67898e+01 
-6.12068e+00  1.68040e+01 
-6.32551e+00  1.68187e+01 
-6.53137e+00  1.68338e+01 
-6.73820e+00  1.68495e+01 
-6.94611e+00  1.68655e+01 
-7.15505e+00  1.68821e+01 
-7.36513e+00  1.68991e+01 
-7.57630e+00  1.69165e+01 
-7.78868e+00  1.69344e+01 
-8.00220e+00  1.69528e+01 
-8.21699e+00  1.69717e+01 
-8.43298e+00  1.69910e+01 
-8.65030e+00  1.70108e+01 
-8.86889e+00  1.70310e+01 
-9.08886e+00  1.70517e+01 
-9.31016e+00  1.70728e+01 
-9.53290e+00  1.70945e+01 
-9.75703e+00  1.71165e+01 
-9.98267e+00  1.71391e+01 
 1.01857e+01  1.80814e+01 
 9.95598e+00  1.80599e+01 
 9.72776e+00  1.80390e+01 
 9.50092e+00  1.80184e+01 
 9.27552e+00  1.79983e+01 
 9.05145e+00  1.79787e+01 
 8.82876e+00  1.79594e+01 
 8.60733e+00  1.79406e+01 
 8.38722e+00  1.79223e+01 
 8.16832e+00  1.79044e+01 
 7.95069e+00  1.78869e+01 
 7.73420e+00  1.78699e+01 
 7.51891e+00  1.78533e+01 
 7.30470e+00  1.78372e+01 
 7.09164e+00  1.78215e+01 
 6.87961e+00  1.78062e+01 
 6.66867e+00  1.77914e+01 
 6.45869e+00  1.77770e+01 
 6.24974e+00  1.77631e+01 
 6.04170e+00  1.77496e+01 
 5.83463e+00  1.77366e+01 
 5.62841e+00  1.77239e+01 
 5.42309e+00  1.77118e+01 
 5.21857e+00  1.77001e+01 
 5.01490e+00  1.76888e+01 
 4.81196e+00  1.76779e+01 
 4.60981e+00  1.76675e+01 
 4.40834e+00  1.76575e+01 
 4.20759e+00  1.76480e+01 
 4.00746e+00  1.76389e+01 
 3.80800e+00  1.76303e+01 
 3.60909e+00  1.76221e+01 
 3.41079e+00  1.76143e+01 
 3.21299e+00  1.76069e+01 
 3.01574e+00  1.76000e+01 
 2.81892e+00  1.75936e+01 
 2.62258e+00  1.75875e+01 
 2.42663e+00  1.75819e+01 
 2.23110e+00  1.75767e+01 
 2.03588e+00  1.75720e+01 
 1.84103e+00  1.75677e+01 
 1.64643e+00  1.75638e+01 
 1.45213e+00  1.75604e+01 
 1.25803e+00  1.75574e+01 
 1.06416e+00  1.75548e+01 
 8.70428e-01  1.75526e+01 
 6.76872e-01  1.75509e+01 
 4.83386e-01  1.75496e+01 
 2.90016e-01  1.75488e+01 
 9.66541e-02  1.75483e+01 
-9.66541e-02  1.75483e+01 
-2.90016e-01  1.75488e+01 
-4.83386e-01  1.75496e+01 
-6.76872e-01  1.75509e+01 
-8.70428e-01  1.75526e+01 
-1.06416e+00  1.75548e+01 
-1.25803e+00  1.75574e+01 
-1.45213e+00  1.75604e+01 
-1.64643e+00  1.75638e+01 
-1.84103e+00  1.75677e+01 
-2.03588e+00  1.75720e+01 
-2.23110e+00  1.75767e+01 
-2.42663e+00  1.75819e+01 
-2.62258e+00  1.75875e+01 
-2.81892e+00  1.75936e+01 
-3.01574e+00  1.76000e+01 
-3.21299e+00  1.76069e+01 
-3.41079e+00  1.76143e+01 
-3.60909e+00  1.76221e+01 
-3.80800e+00  1.76303e+01 
-4.00746e+00  1.76389e+01 
-4.20759e+00  1.76480e+01 
-4.40834e+00  1.76575e+01 
-4.60981e+00  1.76675e+01 
-4.81196e+00  1.76779e+01 
-5.01490e+00  1.76888e+01 
-5.21857e+00  1.77001e+01 
-5.42309e+00  1.77118e+01 
-5.62841e+00  1.77239e+01 
-5.83463e+00  1.77366e+01 
-6.04170e+00  1.77496e+01 
-6.24974e+00  1.77631e+01 
-6.45869e+00  1.77770e+01 
-6.66867e+00  1.77914e+01 
-6.87961e+00  1.78062e+01 
-7.09164e+00  1.78215e+01 
-7.30470e+00  1.78372e+01 
-7.51891e+00  1.78533e+01 
-7.73420e+00  1.78699e+01 
-7.95069e+00  1.78869e+01 
-8.16832e+00  1.79044e+01 
-8.38722e+00  1.79223e+01 
-8.60733e+00  1.79406e+01 
-8.82876e+00  1.79594e+01 
-9.05145e+00  1.79787e+01 
-9.27552e+00  1.79983e+01 
-9.50092e+00  1.80184e+01 
-9.72776e+00  1.80390e+01 
-9.95598e+00  1.80599e+01 
-1.01857e+01  1.80814e+01 
 1.03784e+01  1.90400e+01 
 1.01448e+01  1.90197e+01 
 9.91269e+00  1.89999e+01 
 9.68196e+00  1.89804e+01 
 9.45267e+00  1.89613e+01 
 9.22470e+00  1.89427e+01 
 8.99811e+00  1.89245e+01 
 8.77278e+00  1.89067e+01 
 8.54877e+00  1.88893e+01 
 8.32596e+00  1.88723e+01 
 8.10441e+00  1.88558e+01 
 7.88401e+00  1.88397e+01 
 7.66480e+00  1.88239e+01 
 7.44668e+00  1.88087e+01 
 7.22970e+00  1.87938e+01 
 7.01375e+00  1.87794e+01 
 6.79889e+00  1.87653e+01 
 6.58499e+00  1.87517e+01 
 6.37212e+00  1.87386e+01 
 6.16016e+00  1.87258e+01 
 5.94917e+00  1.87135e+01 
 5.73903e+00  1.87015e+01 
 5.52980e+00  1.86901e+01 
 5.32137e+00  1.86790e+01 
 5.11379e+00  1.86683e+01 
 4.90694e+00  1.86581e+01 
 4.70088e+00  1.86483e+01 
 4.49550e+00  1.86388e+01 
 4.29085e+00  1.86299e+01 
 4.08683e+00  1.86213e+01 
 3.88347e+00  1.86131e+01 
 3.68067e+00  1.86054e+01 
 3.47848e+00  1.85980e+01 
 3.27679e+00  1.85911e+01 
 3.07565e+00  1.85846e+01 
 2.87495e+00  1.85785e+01 
 2.67474e+00  1.85728e+01 
 2.47491e+00  1.85675e+01 
 2.27551e+00  1.85627e+01 
 2.07642e+00  1.85582e+01 
 1.87770e+00  1.85542e+01 
 1.67923e+00  1.85505e+01 
 1.48107e+00  1.85473e+01 
 1.28310e+00  1.85444e+01 
 1.08538e+00  1.85420e+01 
 8.87784e-01  1.85400e+01 
 6.90371e-01  1.85384e+01 
 4.93027e-01  1.85372e+01 
 2.95801e-01  1.85363e+01 
 9.85820e-02  1.85359e+01 
-9.85820e-02  1.85359e+01 
-2.95801e-01  1.85363e+01 
-4.93027e-01  1.85372e+01 
-6.90371e-01  1.85384e+01 
-8.87784e-01  1.85400e+01 
-1.08538e+00  1.85420e+01 
-1.28310e+00  1.85444e+01 
-1.48107e+00  1.85473e+01 
-1.67923e+00  1.85505e+01 
-1.87770e+00  1.85542e+01 
-2.07642e+00  1.85582e+01 
-2.27551e+00  1.85627e+01 
-2.47491e+00  1.85675e+01 
-2.67474e+00  1.85728e+01 
-2.87495e+00  1.85785e+01 
-3.07565e+00  1.85846e+01 
-3.27679e+00  1.85911e+01 
-3.47848e+00  1.85980e+01 
-3.68067e+00  1.86054e+01 
-3.88347e+00  1.86131e+01 
-4.08683e+00  1.86213e+01 
-4.29085e+00  1.86299e+01 
-4.49550e+00  1.86388e+01 
-4.70088e+00  1.86483e+01 
-4.90694e+00  1.86581e+01 
-5.11379e+00  1.86683e+01 
-5.32137e+00  1.86790e+01 
-5.52980e+00  1.86901e+01 
-5.73903e+00  1.87015e+01 
-5.94917e+00  1.87135e+01 
-6.16016e+00  1.87258e+01 
-6.37212e+00  1.87386e+01 
-6.58499e+00  1.87517e+01 
-6.79889e+00  1.87653e+01 
-7.01375e+00  1.87794e+01 
-7.22970e+00  1.87938e+01 
-7.44668e+00  1.88087e+01 
-7.66480e+00  1.88239e+01 
-7.88401e+00  1.88397e+01 
-8.10441e+00  1.88558e+01 
-8.32596e+00  1.88723e+01 
-8.54877e+00  1.88893e+01 
-8.77278e+00  1.89067e+01 
-8.99811e+00  1.89245e+01 
-9.22470e+00  1.89427e+01 
-9.45267e+00  1.89613e+01 
-9.68196e+00  1.89804e+01 
-9.91269e+00  1.89999e+01 
-1.01448e+01  1.90197e+01 
-1.03784e+01  1.90400e+01 
 1.05608e+01  2.00143e+01 
 1.03235e+01  1.99951e+01 
 1.00877e+01  1.99763e+01 
 9.85333e+00  1.99579e+01 
 9.62035e+00  1.99399e+01 
 9.38869e+00  1.99223e+01 
 9.15840e+00  1.99051e+01 
 8.92937e+00  1.98882e+01 
 8.70165e+00  1.98718e+01 
 8.47513e+00  1.98558e+01 
 8.24987e+00  1.98402e+01 
 8.02574e+00  1.98249e+01 
 7.80282e+00  1.98101e+01 
 7.58098e+00  1.97957e+01 
 7.36028e+00  1.97817e+01 
 7.14061e+00  1.97680e+01 
 6.92202e+00  1.97548e+01 
 6.70440e+00  1.97420e+01 
 6.48781e+00  1.97296e+01 
 6.27213e+00  1.97176e+01 
 6.05742e+00  1.97059e+01 
 5.84357e+00  1.96947e+01 
 5.63062e+00  1.96839e+01 
 5.41847e+00  1.96735e+01 
 5.20718e+00  1.96635e+01 
 4.99663e+00  1.96538e+01 
 4.78687e+00  1.96446e+01 
 4.57779e+00  1.96358e+01 
 4.36945e+00  1.96273e+01 
 4.16173e+00  1.96193e+01 
 3.95468e+00  1.96116e+01 
 3.74820e+00  1.96043e+01 
 3.54233e+00  1.95975e+01 
 3.33697e+00  1.95910e+01 
 3.13216e+00  1.95849e+01 
 2.92779e+00  1.95792e+01 
 2.72392e+00  1.95738e+01 
 2.52043e+00  1.95689e+01 
 2.31737e+00  1.95643e+01 
 2.11463e+00  1.95602e+01 
 1.91226e+00  1.95564e+01 
 1.71014e+00  1.95530e+01 
 1.50834e+00  1.95499e+01 
 1.30673e+00  1.95473e+01 
 1.10537e+00  1.95450e+01 
 9.04137e-01  1.95431e+01 
 7.03088e-01  1.95416e+01 
 5.02110e-01  1.95405e+01 
 3.01250e-01  1.95397e+01 
 1.00398e-01  1.95393e+01 
-1.00398e-01  1.95393e+01 
-3.01250e-01  1.95397e+01 
-5.02110e-01  1.95405e+01 
-7.03088e-01  1.95416e+01 
-9.04137e-01  1.95431e+01 
-1.10537e+00  1.95450e+01 
-1.30673e+00  1.95473e+01 
-1.50834e+00  1.95499e+01 
-1.71014e+00  1.95530e+01 
-1.91226e+00  1.95564e+01 
-2.11463e+00  1.95602e+01 
-2.31737e+00  1.95643e+01 
-2.52043e+00  1.95689e+01 
-2.72392e+00  1.95738e+01 
-2.92779e+00  1.95792e+01 
-3.13216e+00  1.95849e+01 
-3.33697e+00  1.95910e+01 
-3.54233e+00  1.95975e+01 
-3.74820e+00  1.96043e+01 
-3.95468e+00  1.96116e+01 
-4.16173e+00  1.96193e+01 
-4.36945e+00  1.96273e+01 
-4.57779e+00  1.96358e+01 
-4.78687e+00  1.96446e+01 
-4.99663e+00  1.96538e+01 
-5.20718e+00  1.96635e+01 
-5.41847e+00  1.96735e+01 
-5.63062e+00  1.96839e+01 
-5.84357e+00  1.96947e+01 
-6.05742e+00  1.97059e+01 
-6.27213e+00  1.97176e+01 
-6.48781e+00  1.97296e+01 
-6.70440e+00  1.97420e+01 
-6.92202e+00  1.97548e+01 
-7.14061e+00  1.97680e+01 
-7.36028e+00  1.97817e+01 
-7.58098e+00  1.97957e+01 
-7.80282e+00  1.98101e+01 
-8.02574e+00  1.98249e+01 
-8.24987e+00  1.98402e+01 
-8.47513e+00  1.98558e+01 
-8.70165e+00  1.98718e+01 
-8.92937e+00  1.98882e+01 
-9.15840e+00  1.99051e+01 
-9.38869e+00  1.99223e+01 
-9.62035e+00  1.99399e+01 
-9.85333e+00  1.99579e+01 
-1.00877e+01  1.99763e+01 
-1.03235e+01  1.99951e+01 
-1.05608e+01  2.00143e+01 
 1.07329e+01  2.10032e+01 
 1.04922e+01  2.09852e+01 
 1.02529e+01  2.09674e+01 
 1.00151e+01  2.09501e+01 
 9.77860e+00  2.09331e+01 
 9.54345e+00  2.09166e+01 
 9.30966e+00  2.09003e+01 
 9.07712e+00  2.08845e+01 
 8.84589e+00  2.08690e+01 
 8.61586e+00  2.08539e+01 
 8.38707e+00  2.08392e+01 
 8.15943e+00  2.08249e+01 
 7.93298e+00  2.08110e+01 
 7.70761e+00  2.07974e+01 
 7.48338e+00  2.07842e+01 
 7.26018e+00  2.07714e+01 
 7.03806e+00  2.07590e+01 
 6.81691e+00  2.07470e+01 
 6.59679e+00  2.07353e+01 
 6.37758e+00  2.07241e+01 
 6.15935e+00  2.07132e+01 
 5.94197e+00  2.07027e+01 
 5.72551e+00  2.06925e+01 
 5.50985e+00  2.06828e+01 
 5.29504e+00  2.06734e+01 
 5.08098e+00  2.06644e+01 
 4.86772e+00  2.06558e+01 
 4.65515e+00  2.06475e+01 
 4.44332e+00  2.06396e+01 
 4.23211e+00  2.06321e+01 
 4.02159e+00  2.06250e+01 
 3.81163e+00  2.06182e+01 
 3.60230e+00  2.06118e+01 
 3.39347e+00  2.06057e+01 
 3.18521e+00  2.06001e+01 
 2.97739e+00  2.05947e+01 
 2.77007e+00  2.05898e+01 
 2.56314e+00  2.05852e+01 
 2.35664e+00  2.05809e+01 
 2.15047e+00  2.05771e+01 
 1.94467e+00  2.05735e+01 
 1.73914e+00  2.05704e+01 
 1.53391e+00  2.05675e+01 
 1.32889e+00  2.05651e+01 
 1.12411e+00  2.05630e+01 
 9.19468e-01  2.05612e+01 
 7.15011e-01  2.05598e+01 
 5.10625e-01  2.05588e+01 
 3.06359e-01  2.05581e+01 
 1.02101e-01  2.05577e+01 
-1.02101e-01  2.05577e+01 
-3.06359e-01  2.05581e+01 
-5.10625e-01  2.05588e+01 
-7.15011e-01  2.05598e+01 
-9.19468e-01  2.05612e+01 
-1.12411e+00  2.05630e+01 
-1.32889e+00  2.05651e+01 
-1.53391e+00  2.05675e+01 
-1.73914e+00  2.05704e+01 
-1.94467e+00  2.05735e+01 
-2.15047e+00  2.05771e+01 
-2.35664e+00  2.05809e+01 
-2.56314e+00  2.05852e+01 
-2.77007e+00  2.05898e+01 
-2.97739e+00  2.05947e+01 
-3.18521e+00  2.06001e+01 
-3.39347e+00  2.06057e+01 
-3.60230e+00  2.06118e+01 
-3.81163e+00  2.06182e+01 
-4.02159e+00  2.06250e+01 
-4.23211e+00  2.06321e+01 
-4.44332e+00  2.06396e+01 
-4.65515e+00  2.06475e+01 
-4.86772e+00  2.06558e+01 
-5.08098e+00  2.06644e+01 
-5.29504e+00  2.06734e+01 
-5.50985e+00  2.06828e+01 
-5.72551e+00  2.06925e+01 
-5.94197e+00  2.07027e+01 
-6.15935e+00  2.07132e+01 
-6.37758e+00  2.07241e+01 
-6.59679e+00  2.07353e+01 
-6.81691e+00  2.07470e+01 
-7.03806e+00  2.07590e+01 
-7.26018e+00  2.07714e+01 
-7.48338e+00  2.07842e+01 
-7.70761e+00  2.07974e+01 
-7.93298e+00  2.08110e+01 
-8.15943e+00  2.08249e+01 
-8.38707e+00  2.08392e+01 
-8.61586e+00  2.08539e+01 
-8.84589e+00  2.08690e+01 
-9.07712e+00  2.08845e+01 
-9.30966e+00  2.09003e+01 
-9.54345e+00  2.09166e+01 
-9.77860e+00  2.09331e+01 
-1.00151e+01  2.09501e+01 
-1.02529e+01  2.09674e+01 
-1.04922e+01  2.09852e+01 
-1.07329e+01  2.10032e+01 
 1.08949e+01  2.20060e+01 
 1.06509e+01  2.19890e+01 
 1.04084e+01  2.19724e+01 
 1.01672e+01  2.19561e+01 
 9.92746e+00  2.19401e+01 
 9.68901e+00  2.19246e+01 
 9.45191e+00  2.19093e+01 
 9.21606e+00  2.18945e+01 
 8.98151e+00  2.18800e+01 
 8.74815e+00  2.18658e+01 
 8.51603e+00  2.18520e+01 
 8.28505e+00  2.18386e+01 
 8.05526e+00  2.18256e+01 
 7.82654e+00  2.18129e+01 
 7.59897e+00  2.18005e+01 
 7.37242e+00  2.17886e+01 
 7.14696e+00  2.17770e+01 
 6.92247e+00  2.17657e+01 
 6.69901e+00  2.17549e+01 
 6.47646e+00  2.17444e+01 
 6.25490e+00  2.17342e+01 
 6.03419e+00  2.17244e+01 
 5.81440e+00  2.17150e+01 
 5.59542e+00  2.17059e+01 
 5.37731e+00  2.16972e+01 
 5.15994e+00  2.16888e+01 
 4.94338e+00  2.16808e+01 
 4.72752e+00  2.16731e+01 
 4.51240e+00  2.16658e+01 
 4.29792e+00  2.16589e+01 
 4.08412e+00  2.16522e+01 
 3.87090e+00  2.16460e+01 
 3.65831e+00  2.16400e+01 
 3.44624e+00  2.16345e+01 
 3.23473e+00  2.16292e+01 
 3.02368e+00  2.16243e+01 
 2.81314e+00  2.16197e+01 
 2.60299e+00  2.16155e+01 
 2.39328e+00  2.16115e+01 
 2.18390e+00  2.16080e+01 
 1.97490e+00  2.16047e+01 
 1.76617e+00  2.16018e+01 
 1.55775e+00  2.15992e+01 
 1.34954e+00  2.15969e+01 
 1.14158e+00  2.15950e+01 
 9.33757e-01  2.15934e+01 
 7.26122e-01  2.15921e+01 
 5.18559e-01  2.15911e+01 
 3.11120e-01  2.15905e+01 
 1.03687e-01  2.15901e+01 
-1.03687e-01  2.15901e+01 
-3.11120e-01  2.15905e+01 
-5.18559e-01  2.15911e+01 
-7.26122e-01  2.15921e+01 
-9.33757e-01  2.15934e+01 
-1.14158e+00  2.15950e+01 
-1.34954e+00  2.15969e+01 
-1.55775e+00  2.15992e+01 
-1.76617e+00  2.16018e+01 
-1.97490e+00  2.16047e+01 
-2.18390e+00  2.16080e+01 
-2.39328e+00  2.16115e+01 
-2.60299e+00  2.16155e+01 
-2.81314e+00  2.16197e+01 
-3.02368e+00  2.16243e+01 
-3.23473e+00  2.16292e+01 
-3.44624e+00  2.16345e+01 
-3.65831e+00  2.16400e+01 
-3.87090e+00  2.16460e+01 
-4.08412e+00  2.16522e+01 
-4.29792e+00  2.16589e+01 
-4.51240e+00  2.16658e+01 
-4.72752e+00  2.16731e+01 
-4.94338e+00  2.16808e+01 
-5.15994e+00  2.16888e+01 
-5.37731e+00  2.16972e+01 
-5.59542e+00  2.17059e+01 
-5.81440e+00  2.17150e+01 
-6.03419e+00  2.17244e+01 
-6.25490e+00  2.17342e+01 
-6.47646e+00  2.17444e+01 
-6.69901e+00  2.17549e+01 
-6.92247e+00  2.17657e+01 
-7.14696e+00  2.17770e+01 
-7.37242e+00  2.17886e+01 
-7.59897e+00  2.18005e+01 
-7.82654e+00  2.18129e+01 
-8.05526e+00  2.18256e+01 
-8.28505e+00  2.18386e+01 
-8.51603e+00  2.18520e+01 
-8.74815e+00  2.18658e+01 
-8.98151e+00  2.18800e+01 
-9.21606e+00  2.18945e+01 
-9.45191e+00  2.19093e+01 
-9.68901e+00  2.19246e+01 
-9.92746e+00  2.19401e+01 
-1.01672e+01  2.19561e+01 
-1.04084e+01  2.19724e+01 
-1.06509e+01  2.19890e+01 
-1.08949e+01  2.20060e+01 
 1.10467e+01  2.30217e+01 
 1.07997e+01  2.30058e+01 
 1.05541e+01  2.29902e+01 
 1.03098e+01  2.29750e+01 
 1.00670e+01  2.29601e+01 
 9.82543e+00  2.29455e+01 
 9.58522e+00  2.29313e+01 
 9.34624e+00  2.29174e+01 
 9.10855e+00  2.29038e+01 
 8.87203e+00  2.28906e+01 
 8.63676e+00  2.28778e+01 
 8.40262e+00  2.28652e+01 
 8.16967e+00  2.28531e+01 
 7.93779e+00  2.28412e+01 
 7.70705e+00  2.28298e+01 
 7.47733e+00  2.28186e+01 
 7.24870e+00  2.28079e+01 
 7.02105e+00  2.27974e+01 
 6.79443e+00  2.27873e+01 
 6.56873e+00  2.27776e+01 
 6.34402e+00  2.27682e+01 
 6.12017e+00  2.27591e+01 
 5.89725e+00  2.27504e+01 
 5.67514e+00  2.27420e+01 
 5.45390e+00  2.27340e+01 
 5.23343e+00  2.27263e+01 
 5.01377e+00  2.27189e+01 
 4.79481e+00  2.27119e+01 
 4.57661e+00  2.27051e+01 
 4.35906e+00  2.26987e+01 
 4.14221e+00  2.26927e+01 
 3.92594e+00  2.26869e+01 
 3.71031e+00  2.26815e+01 
 3.49520e+00  2.26763e+01 
 3.28068e+00  2.26715e+01 
 3.06661e+00  2.26670e+01 
 2.85307e+00  2.26628e+01 
 2.63992e+00  2.26590e+01 
 2.42722e+00  2.26554e+01 
 2.21487e+00  2.26521e+01 
 2.00290e+00  2.26491e+01 
 1.79120e+00  2.26465e+01 
 1.57983e+00  2.26441e+01 
 1.36866e+00  2.26420e+01 
 1.15775e+00  2.26403e+01 
 9.46980e-01  2.26388e+01 
 7.36403e-01  2.26376e+01 
 5.25901e-01  2.26367e+01 
 3.15524e-01  2.26362e+01 
 1.05155e-01  2.26359e+01 
-1.05155e-01  2.26359e+01 
-3.15524e-01  2.26362e+01 
-5.25901e-01  2.26367e+01 
-7.36403e-01  2.26376e+01 
-9.46980e-01  2.26388e+01 
-1.15775e+00  2.26403e+01 
-1.36866e+00  2.26420e+01 
-1.57983e+00  2.26441e+01 
-1.79120e+00  2.26465e+01 
-2.00290e+00  2.26491e+01 
-2.21487e+00  2.26521e+01 
-2.42722e+00  2.26554e+01 
-2.63992e+00  2.26590e+01 
-2.85307e+00  2.26628e+01 
-3.06661e+00  2.26670e+01 
-3.28068e+00  2.26715e+01 
-3.49520e+00  2.26763e+01 
-3.71031e+00  2.26815e+01 
-3.92594e+00  2.26869e+01 
-4.14221e+00  2.26927e+01 
-4.35906e+00  2.26987e+01 
-4.57661e+00  2.27051e+01 
-4.79481e+00  2.27119e+01 
-5.01377e+00  2.27189e+01 
-5.23343e+00  2.27263e+01 
-5.45390e+00  2.27340e+01 
-5.67514e+00  2.27420e+01 
-5.89725e+00  2.27504e+01 
-6.12017e+00  2.27591e+01 
-6.34402e+00  2.27682e+01 
-6.56873e+00  2.27776e+01 
-6.79443e+00  2.27873e+01 
-7.02105e+00  2.27974e+01 
-7.24870e+00  2.28079e+01 
-7.47733e+00  2.28186e+01 
-7.70705e+00  2.28298e+01 
-7.93779e+00  2.28412e+01 
-8.16967e+00  2.28531e+01 
-8.40262e+00  2.28652e+01 
-8.63676e+00  2.28778e+01 
-8.87203e+00  2.28906e+01 
-9.10855e+00  2.29038e+01 
-9.34624e+00  2.29174e+01 
-9.58522e+00  2.29313e+01 
-9.82543e+00  2.29455e+01 
-1.00670e+01  2.29601e+01 
-1.03098e+01  2.29750e+01 
-1.05541e+01  2.29902e+01 
-1.07997e+01  2.30058e+01 
-1.10467e+01  2.30217e+01 
 1.11886e+01  2.40495e+01 
 1.09387e+01  2.40347e+01 
 1.06902e+01  2.40202e+01 
 1.04431e+01  2.40060e+01 
 1.01973e+01  2.39921e+01 
 9.95282e+00  2.39785e+01 
 9.70966e+00  2.39653e+01 
 9.46771e+00  2.39524e+01 
 9.22705e+00  2.39398e+01 
 8.98755e+00  2.39275e+01 
 8.74930e+00  2.39156e+01 
 8.51216e+00  2.39040e+01 
 8.27620e+00  2.38927e+01 
 8.04132e+00  2.38817e+01 
 7.80759e+00  2.38711e+01 
 7.57487e+00  2.38608e+01 
 7.34325e+00  2.38509e+01 
 7.11260e+00  2.38413e+01 
 6.88300e+00  2.38320e+01 
 6.65432e+00  2.38230e+01 
 6.42664e+00  2.38144e+01 
 6.19983e+00  2.38061e+01 
 5.97396e+00  2.37981e+01 
 5.74891e+00  2.37904e+01 
 5.52475e+00  2.37831e+01 
 5.30136e+00  2.37760e+01 
 5.07880e+00  2.37693e+01 
 4.85695e+00  2.37629e+01 
 4.63588e+00  2.37567e+01 
 4.41546e+00  2.37509e+01 
 4.19575e+00  2.37454e+01 
 3.97665e+00  2.37402e+01 
 3.75819e+00  2.37353e+01 
 3.54028e+00  2.37306e+01 
 3.32295e+00  2.37263e+01 
 3.10610e+00  2.37222e+01 
 2.88978e+00  2.37184e+01 
 2.67386e+00  2.37149e+01 
 2.45842e+00  2.37117e+01 
 2.24331e+00  2.37087e+01 
 2.02861e+00  2.37061e+01 
 1.81418e+00  2.37036e+01 
 1.60008e+00  2.37015e+01 
 1.38620e+00  2.36997e+01 
 1.17258e+00  2.36981e+01 
 9.59111e-01  2.36967e+01 
 7.45835e-01  2.36957e+01 
 5.32635e-01  2.36949e+01 
 3.19564e-01  2.36944e+01 
 1.06502e-01  2.36941e+01 
-1.06502e-01  2.36941e+01 
-3.19564e-01  2.36944e+01 
-5.32635e-01  2.36949e+01 
-7.45835e-01  2.36957e+01 
-9.59111e-01  2.36967e+01 
-1.17258e+00  2.36981e+01 
-1.38620e+00  2.36997e+01 
-1.60008e+00  2.37015e+01 
-1.81418e+00  2.37036e+01 
-2.02861e+00  2.37061e+01 
-2.24331e+00  2.37087e+01 
-2.45842e+00  2.37117e+01 
-2.67386e+00  2.37149e+01 
-2.88978e+00  2.37184e+01 
-3.10610e+00  2.37222e+01 
-3.32295e+00  2.37263e+01 
-3.54028e+00  2.37306e+01 
-3.75819e+00  2.37353e+01 
-3.97665e+00  2.37402e+01 
-4.19575e+00  2.37454e+01 
-4.41546e+00  2.37509e+01 
-4.63588e+00  2.37567e+01 
-4.85695e+00  2.37629e+01 
-5.07880e+00  2.37693e+01 
-5.30136e+00  2.37760e+01 
-5.52475e+00  2.37831e+01 
-5.74891e+00  2.37904e+01 
-5.97396e+00  2.37981e+01 
-6.19983e+00  2.38061e+01 
-6.42664e+00  2.38144e+01 
-6.65432e+00  2.38230e+01 
-6.88300e+00  2.38320e+01 
-7.11260e+00  2.38413e+01 
-7.34325e+00  2.38509e+01 
-7.57487e+00  2.38608e+01 
-7.80759e+00  2.38711e+01 
-8.04132e+00  2.38817e+01 
-8.27620e+00  2.38927e+01 
-8.51216e+00  2.39040e+01 
-8.74930e+00  2.39156e+01 
-8.98755e+00  2.39275e+01 
-9.22705e+00  2.39398e+01 
-9.46771e+00  2.39524e+01 
-9.70966e+00  2.39653e+01 
-9.95282e+00  2.39785e+01 
-1.01973e+01  2.39921e+01 
-1.04431e+01  2.40060e+01 
-1.06902e+01  2.40202e+01 
-1.09387e+01  2.40347e+01 
-1.11886e+01  2.40495e+01 
 1.13206e+01  2.50887e+01 
 1.10680e+01  2.50749e+01 
 1.08169e+01  2.50614e+01 
 1.05670e+01  2.50483e+01 
 1.03185e+01  2.50354e+01 
 1.00712e+01  2.50228e+01 
 9.82529e+00  2.50105e+01 
 9.58054e+00  2.49985e+01 
 9.33706e+00  2.49869e+01 
 9.09473e+00  2.49756e+01 
 8.85364e+00  2.49645e+01 
 8.61365e+00  2.49538e+01 
 8.37485e+00  2.49435e+01 
 8.13713e+00  2.49334e+01 
 7.90054e+00  2.49237e+01 
 7.66498e+00  2.49143e+01 
 7.43052e+00  2.49052e+01 
 7.19705e+00  2.48964e+01 
 6.96463e+00  2.48879e+01 
 6.73314e+00  2.48797e+01 
 6.50266e+00  2.48719e+01 
 6.27306e+00  2.48643e+01 
 6.04443e+00  2.48571e+01 
 5.81663e+00  2.48501e+01 
 5.58973e+00  2.48435e+01 
 5.36361e+00  2.48371e+01 
 5.13835e+00  2.48311e+01 
 4.91381e+00  2.48253e+01 
 4.69007e+00  2.48198e+01 
 4.46700e+00  2.48146e+01 
 4.24466e+00  2.48096e+01 
 4.02293e+00  2.48049e+01 
 3.80187e+00  2.48005e+01 
 3.58137e+00  2.47964e+01 
 3.36147e+00  2.47925e+01 
 3.14206e+00  2.47888e+01 
 2.92319e+00  2.47855e+01 
 2.70475e+00  2.47824e+01 
 2.48678e+00  2.47795e+01 
 2.26917e+00  2.47769e+01 
 2.05197e+00  2.47745e+01 
 1.83506e+00  2.47723e+01 
 1.61848e+00  2.47705e+01 
 1.40213e+00  2.47688e+01 
 1.18605e+00  2.47674e+01 
 9.70121e-01  2.47662e+01 
 7.54393e-01  2.47653e+01 
 5.38746e-01  2.47646e+01 
 3.23229e-01  2.47641e+01 
 1.07723e-01  2.47639e+01 
-1.07723e-01  2.47639e+01 
-3.23229e-01  2.47641e+01 
-5.38746e-01  2.47646e+01 
-7.54393e-01  2.47653e+01 
-9.70121e-01  2.47662e+01 
-1.18605e+00  2.47674e+01 
-1.40213e+00  2.47688e+01 
-1.61848e+00  2.47705e+01 
-1.83506e+00  2.47723e+01 
-2.05197e+00  2.47745e+01 
-2.26917e+00  2.47769e+01 
-2.48678e+00  2.47795e+01 
-2.70475e+00  2.47824e+01 
-2.92319e+00  2.47855e+01 
-3.14206e+00  2.47888e+01 
-3.36147e+00  2.47925e+01 
-3.58137e+00  2.47964e+01 
-3.80187e+00  2.48005e+01 
-4.02293e+00  2.48049e+01 
-4.24466e+00  2.48096e+01 
-4.46700e+00  2.48146e+01 
-4.69007e+00  2.48198e+01 
-4.91381e+00  2.48253e+01 
-5.13835e+00  2.48311e+01 
-5.36361e+00  2.48371e+01 
-5.58973e+00  2.48435e+01 
-5.81663e+00  2.48501e+01 
-6.04443e+00  2.48571e+01 
-6.27306e+00  2.48643e+01 
-6.50266e+00  2.48719e+01 
-6.73314e+00  2.48797e+01 
-6.96463e+00  2.48879e+01 
-7.19705e+00  2.48964e+01 
-7.43052e+00  2.49052e+01 
-7.66498e+00  2.49143e+01 
-7.90054e+00  2.49237e+01 
-8.13713e+00  2.49334e+01 
-8.37485e+00  2.49435e+01 
-8.61365e+00  2.49538e+01 
-8.85364e+00  2.49645e+01 
-9.09473e+00  2.49756e+01 
-9.33706e+00  2.49869e+01 
-9.58054e+00  2.49985e+01 
-9.82529e+00  2.50105e+01 
-1.00712e+01  2.50228e+01 
-1.03185e+01  2.50354e+01 
-1.05670e+01  2.50483e+01 
-1.08169e+01  2.50614e+01 
-1.10680e+01  2.50749e+01 
-1.13206e+01  2.50887e+01 
 1.14430e+01  2.61384e+01 
 1.11880e+01  2.61257e+01 
 1.09343e+01  2.61132e+01 
 1.06818e+01  2.61010e+01 
 1.04307e+01  2.60891e+01 
 1.01808e+01  2.60775e+01 
 9.93224e+00  2.60662e+01 
 9.68481e+00  2.60552e+01 
 9.43864e+00  2.60445e+01 
 9.19362e+00  2.60341e+01 
 8.94981e+00  2.60240e+01 
 8.70711e+00  2.60142e+01 
 8.46560e+00  2.60047e+01 
 8.22516e+00  2.59955e+01 
 7.98587e+00  2.59867e+01 
 7.74761e+00  2.59781e+01 
 7.51046e+00  2.59699e+01 
 7.27431e+00  2.59620e+01 
 7.03922e+00  2.59543e+01 
 6.80509e+00  2.59470e+01 
 6.57197e+00  2.59399e+01 
 6.33977e+00  2.59331e+01 
 6.10854e+00  2.59267e+01 
 5.87817e+00  2.59205e+01 
 5.64872e+00  2.59145e+01 
 5.42008e+00  2.59089e+01 
 5.19231e+00  2.59035e+01 
 4.96529e+00  2.58983e+01 
 4.73908e+00  2.58935e+01 
 4.51357e+00  2.58889e+01 
 4.28880e+00  2.58845e+01 
 4.06468e+00  2.58804e+01 
 3.84124e+00  2.58765e+01 
 3.61838e+00  2.58728e+01 
 3.39614e+00  2.58694e+01 
 3.17440e+00  2.58662e+01 
 2.95323e+00  2.58633e+01 
 2.73250e+00  2.58605e+01 
 2.51225e+00  2.58580e+01 
 2.29238e+00  2.58557e+01 
 2.07293e+00  2.58536e+01 
 1.85378e+00  2.58518e+01 
 1.63498e+00  2.58501e+01 
 1.41641e+00  2.58487e+01 
 1.19812e+00  2.58474e+01 
 9.79986e-01  2.58464e+01 
 7.62060e-01  2.58456e+01 
 5.44219e-01  2.58450e+01 
 3.26512e-01  2.58446e+01 
 1.08817e-01  2.58444e+01 
-1.08817e-01  2.58444e+01 
-3.26512e-01  2.58446e+01 
-5.44219e-01  2.58450e+01 
-7.62060e-01  2.58456e+01 
-9.79986e-01  2.58464e+01 
-1.19812e+00  2.58474e+01 
-1.41641e+00  2.58487e+01 
-1.63498e+00  2.58501e+01 
-1.85378e+00  2.58518e+01 
-2.07293e+00  2.58536e+01 
-2.29238e+00  2.58557e+01 
-2.51225e+00  2.58580e+01 
-2.73250e+00  2.58605e+01 
-2.95323e+00  2.58633e+01 
-3.17440e+00  2.58662e+01 
-3.39614e+00  2.58694e+01 
-3.61838e+00  2.58728e+01 
-3.84124e+00  2.58765e+01 
-4.06468e+00  2.58804e+01 
-4.28880e+00  2.58845e+01 
-4.51357e+00  2.58889e+01 
-4.73908e+00  2.58935e+01 
-4.96529e+00  2.58983e+01 
-5.19231e+00  2.59035e+01 
-5.42008e+00  2.59089e+01 
-5.64872e+00  2.59145e+01 
-5.87817e+00  2.59205e+01 
-6.10854e+00  2.59267e+01 
-6.33977e+00  2.59331e+01 
-6.57197e+00  2.59399e+01 
-6.80509e+00  2.59470e+01 
-7.03922e+00  2.59543e+01 
-7.27431e+00  2.59620e+01 
-7.51046e+00  2.59699e+01 
-7.74761e+00  2.59781e+01 
-7.98587e+00  2.59867e+01 
-8.22516e+00  2.59955e+01 
-8.46560e+00  2.60047e+01 
-8.70711e+00  2.60142e+01 
-8.94981e+00  2.60240e+01 
-9.19362e+00  2.60341e+01 
-9.43864e+00  2.60445e+01 
-9.68481e+00  2.60552e+01 
-9.93224e+00  2.60662e+01 
-1.01808e+01  2.60775e+01 
-1.04307e+01  2.60891e+01 
-1.06818e+01  2.61010e+01 
-1.09343e+01  2.61132e+01 
-1.11880e+01  2.61257e+01 
-1.14430e+01  2.61384e+01 
 1.15562e+01  2.71981e+01 
 1.12988e+01  2.71863e+01 
 1.10427e+01  2.71749e+01 
 1.07878e+01  2.71636e+01 
 1.05342e+01  2.71527e+01 
 1.02818e+01  2.71420e+01 
 1.00306e+01  2.71317e+01 
 9.78063e+00  2.71216e+01 
 9.53187e+00  2.71118e+01 
 9.28425e+00  2.71023e+01 
 9.03784e+00  2.70932e+01 
 8.79253e+00  2.70843e+01 
 8.54842e+00  2.70757e+01 
 8.30538e+00  2.70675e+01 
 8.06350e+00  2.70595e+01 
 7.82267e+00  2.70519e+01 
 7.58296e+00  2.70445e+01 
 7.34427e+00  2.70374e+01 
 7.10667e+00  2.70306e+01 
 6.87004e+00  2.70241e+01 
 6.63446e+00  2.70178e+01 
 6.39981e+00  2.70119e+01 
 6.16617e+00  2.70062e+01 
 5.93341e+00  2.70007e+01 
 5.70160e+00  2.69955e+01 
 5.47062e+00  2.69905e+01 
 5.24055e+00  2.69858e+01 
 5.01125e+00  2.69813e+01 
 4.78279e+00  2.69771e+01 
 4.55506e+00  2.69731e+01 
 4.32810e+00  2.69693e+01 
 4.10180e+00  2.69657e+01 
 3.87622e+00  2.69623e+01 
 3.65123e+00  2.69592e+01 
 3.42688e+00  2.69562e+01 
 3.20307e+00  2.69535e+01 
 2.97983e+00  2.69509e+01 
 2.75705e+00  2.69486e+01 
 2.53478e+00  2.69464e+01 
 2.31290e+00  2.69444e+01 
 2.09145e+00  2.69426e+01 
 1.87031e+00  2.69410e+01 
 1.64954e+00  2.69396e+01 
 1.42901e+00  2.69384e+01 
 1.20877e+00  2.69373e+01 
 9.88686e-01  2.69364e+01 
 7.68820e-01  2.69357e+01 
 5.49044e-01  2.69352e+01 
 3.29406e-01  2.69349e+01 
 1.09781e-01  2.69347e+01 
-1.09781e-01  2.69347e+01 
-3.29406e-01  2.69349e+01 
-5.49044e-01  2.69352e+01 
-7.68820e-01  2.69357e+01 
-9.88686e-01  2.69364e+01 
-1.20877e+00  2.69373e+01 
-1.42901e+00  2.69384e+01 
-1.64954e+00  2.69396e+01 
-1.87031e+00  2.69410e+01 
-2.09145e+00  2.69426e+01 
-2.31290e+00  2.69444e+01 
-2.53478e+00  2.69464e+01 
-2.75705e+00  2.69486e+01 
-2.97983e+00  2.69509e+01 
-3.20307e+00  2.69535e+01 
-3.42688e+00  2.69562e+01 
-3.65123e+00  2.69592e+01 
-3.87622e+00  2.69623e+01 
-4.10180e+00  2.69657e+01 
-4.32810e+00  2.69693e+01 
-4.55506e+00  2.69731e+01 
-4.78279e+00  2.69771e+01 
-5.01125e+00  2.69813e+01 
-5.24055e+00  2.69858e+01 
-5.47062e+00  2.69905e+01 
-5.70160e+00  2.69955e+01 
-5.93341e+00  2.70007e+01 
-6.16617e+00  2.70062e+01 
-6.39981e+00  2.70119e+01 
-6.63446e+00  2.70178e+01 
-6.87004e+00  2.70241e+01 
-7.10667e+00  2.70306e+01 
-7.34427e+00  2.70374e+01 
-7.58296e+00  2.70445e+01 
-7.82267e+00  2.70519e+01 
-8.06350e+00  2.70595e+01 
-8.30538e+00  2.70675e+01 
-8.54842e+00  2.70757e+01 
-8.79253e+00  2.70843e+01 
-9.03784e+00  2.70932e+01 
-9.28425e+00  2.71023e+01 
-9.53187e+00  2.71118e+01 
-9.78063e+00  2.71216e+01 
-1.00306e+01  2.71317e+01 
-1.02818e+01  2.71420e+01 
-1.05342e+01  2.71527e+01 
-1.07878e+01  2.71636e+01 
-1.10427e+01  2.71749e+01 
-1.12988e+01  2.71863e+01 
-1.15562e+01  2.71981e+01 
 1.16604e+01  2.82671e+01 
 1.14007e+01  2.82563e+01 
 1.11423e+01  2.82457e+01 
 1.08851e+01  2.82354e+01 
 1.06291e+01  2.82254e+01 
 1.03742e+01  2.82157e+01 
 1.01206e+01  2.82063e+01 
 9.86807e+00  2.81971e+01 
 9.61680e+00  2.81883e+01 
 9.36665e+00  2.81797e+01 
 9.11771e+00  2.81715e+01 
 8.86988e+00  2.81635e+01 
 8.62324e+00  2.81559e+01 
 8.37770e+00  2.81485e+01 
 8.13334e+00  2.81415e+01 
 7.89004e+00  2.81347e+01 
 7.64790e+00  2.81282e+01 
 7.40680e+00  2.81220e+01 
 7.16683e+00  2.81161e+01 
 6.92786e+00  2.81104e+01 
 6.68997e+00  2.81049e+01 
 6.45305e+00  2.80997e+01 
 6.21717e+00  2.80948e+01 
 5.98220e+00  2.80901e+01 
 5.74823e+00  2.80856e+01 
 5.51513e+00  2.80813e+01 
 5.28296e+00  2.80773e+01 
 5.05160e+00  2.80734e+01 
 4.82111e+00  2.80698e+01 
 4.59138e+00  2.80664e+01 
 4.36246e+00  2.80631e+01 
 4.13422e+00  2.80601e+01 
 3.90673e+00  2.80572e+01 
 3.67986e+00  2.80545e+01 
 3.45366e+00  2.80520e+01 
 3.22801e+00  2.80497e+01 
 3.00296e+00  2.80475e+01 
 2.77839e+00  2.80455e+01 
 2.55434e+00  2.80436e+01 
 2.33070e+00  2.80420e+01 
 2.10751e+00  2.80404e+01 
 1.88465e+00  2.80391e+01 
 1.66216e+00  2.80379e+01 
 1.43992e+00  2.80368e+01 
 1.21798e+00  2.80359e+01 
 9.96218e-01  2.80352e+01 
 7.74672e-01  2.80346e+01 
 5.53220e-01  2.80341e+01 
 3.31910e-01  2.80338e+01 
 1.10616e-01  2.80337e+01 
-1.10616e-01  2.80337e+01 
-3.31910e-01  2.80338e+01 
-5.53220e-01  2.80341e+01 
-7.74672e-01  2.80346e+01 
-9.96218e-01  2.80352e+01 
-1.21798e+00  2.80359e+01 
-1.43992e+00  2.80368e+01 
-1.66216e+00  2.80379e+01 
-1.88465e+00  2.80391e+01 
-2.10751e+00  2.80404e+01 
-2.33070e+00  2.80420e+01 
-2.55434e+00  2.80436e+01 
-2.77839e+00  2.80455e+01 
-3.00296e+00  2.80475e+01 
-3.22801e+00  2.80497e+01 
-3.45366e+00  2.80520e+01 
-3.67986e+00  2.80545e+01 
-3.90673e+00  2.80572e+01 
-4.13422e+00  2.80601e+01 
-4.36246e+00  2.80631e+01 
-4.59138e+00  2.80664e+01 
-4.82111e+00  2.80698e+01 
-5.05160e+00  2.80734e+01 
-5.28296e+00  2.80773e+01 
-5.51513e+00  2.80813e+01 
-5.74823e+00  2.80856e+01 
-5.98220e+00  2.80901e+01 
-6.21717e+00  2.80948e+01 
-6.45305e+00  2.80997e+01 
-6.68997e+00  2.81049e+01 
-6.92786e+00  2.81104e+01 
-7.16683e+00  2.81161e+01 
-7.40680e+00  2.81220e+01 
-7.64790e+00  2.81282e+01 
-7.89004e+00  2.81347e+01 
-8.13334e+00  2.81415e+01 
-8.37770e+00  2.81485e+01 
-8.62324e+00  2.81559e+01 
-8.86988e+00  2.81635e+01 
-9.11771e+00  2.81715e+01 
-9.36665e+00  2.81797e+01 
-9.61680e+00  2.81883e+01 
-9.86807e+00  2.81971e+01 
-1.01206e+01  2.82063e+01 
-1.03742e+01  2.82157e+01 
-1.06291e+01  2.82254e+01 
-1.08851e+01  2.82354e+01 
-1.11423e+01  2.82457e+01 
-1.14007e+01  2.82563e+01 
-1.16604e+01  2.82671e+01 
 1.17562e+01  2.93450e+01 
 1.14943e+01  2.93351e+01 
 1.12336e+01  2.93255e+01 
 1.09741e+01  2.93161e+01 
 1.07157e+01  2.93070e+01 
 1.04583e+01  2.92981e+01 
 1.02022e+01  2.92896e+01 
 9.94726e+00  2.92814e+01 
 9.69348e+00  2.92735e+01 
 9.44083e+00  2.92658e+01 
 9.18939e+00  2.92585e+01 
 8.93908e+00  2.92515e+01 
 8.68999e+00  2.92448e+01 
 8.44201e+00  2.92384e+01 
 8.19525e+00  2.92322e+01 
 7.94960e+00  2.92263e+01 
 7.70514e+00  2.92207e+01 
 7.46176e+00  2.92153e+01 
 7.21955e+00  2.92102e+01 
 6.97840e+00  2.92054e+01 
 6.73837e+00  2.92007e+01 
 6.49936e+00  2.91963e+01 
 6.26143e+00  2.91921e+01 
 6.02446e+00  2.91881e+01 
 5.78854e+00  2.91843e+01 
 5.55352e+00  2.91807e+01 
 5.31948e+00  2.91772e+01 
 5.08629e+00  2.91740e+01 
 4.85401e+00  2.91709e+01 
 4.62252e+00  2.91680e+01 
 4.39187e+00  2.91652e+01 
 4.16194e+00  2.91627e+01 
 3.93279e+00  2.91602e+01 
 3.70429e+00  2.91579e+01 
 3.47648e+00  2.91558e+01 
 3.24925e+00  2.91538e+01 
 3.02264e+00  2.91520e+01 
 2.79653e+00  2.91503e+01 
 2.57097e+00  2.91487e+01 
 2.34582e+00  2.91473e+01 
 2.12115e+00  2.91460e+01 
 1.89681e+00  2.91448e+01 
 1.67287e+00  2.91438e+01 
 1.44918e+00  2.91429e+01 
 1.22580e+00  2.91421e+01 
 1.00260e+00  2.91414e+01 
 7.79631e-01  2.91409e+01 
 5.56759e-01  2.91405e+01 
 3.34032e-01  2.91403e+01 
 1.11323e-01  2.91402e+01 
-1.11323e-01  2.91402e+01 
-3.34032e-01  2.91403e+01 
-5.56759e-01  2.91405e+01 
-7.79631e-01  2.91409e+01 
-1.00260e+00  2.91414e+01 
-1.22580e+00  2.91421e+01 
-1.44918e+00  2.91429e+01 
-1.67287e+00  2.91438e+01 
-1.89681e+00  2.91448e+01 
-2.12115e+00  2.91460e+01 
-2.34582e+00  2.91473e+01 
-2.57097e+00  2.91487e+01 
-2.79653e+00  2.91503e+01 
-3.02264e+00  2.91520e+01 
-3.24925e+00  2.91538e+01 
-3.47648e+00  2.91558e+01 
-3.70429e+00  2.91579e+01 
-3.93279e+00  2.91602e+01 
-4.16194e+00  2.91627e+01 
-4.39187e+00  2.91652e+01 
-4.62252e+00  2.91680e+01 
-4.85401e+00  2.91709e+01 
-5.08629e+00  2.91740e+01 
-5.31948e+00  2.91772e+01 
-5.55352e+00  2.91807e+01 
-5.78854e+00  2.91843e+01 
-6.02446e+00  2.91881e+01 
-6.26143e+00  2.91921e+01 
-6.49936e+00  2.91963e+01 
-6.73837e+00  2.92007e+01 
-6.97840e+00  2.92054e+01 
-7.21955e+00  2.92102e+01 
-7.46176e+00  2.92153e+01 
-7.70514e+00  2.92207e+01 
-7.94960e+00  2.92263e+01 
-8.19525e+00  2.92322e+01 
-8.44201e+00  2.92384e+01 
-8.68999e+00  2.92448e+01 
-8.93908e+00  2.92515e+01 
-9.18939e+00  2.92585e+01 
-9.44083e+00  2.92658e+01 
-9.69348e+00  2.92735e+01 
-9.94726e+00  2.92814e+01 
-1.02022e+01  2.92896e+01 
-1.04583e+01  2.92981e+01 
-1.07157e+01  2.93070e+01 
-1.09741e+01  2.93161e+01 
-1.12336e+01  2.93255e+01 
-1.14943e+01  2.93351e+01 
-1.17562e+01  2.93450e+01 
 1.18442e+01  3.04319e+01 
 1.15801e+01  3.04228e+01 
 1.13171e+01  3.04140e+01 
 1.10551e+01  3.04055e+01 
 1.07942e+01  3.03972e+01 
 1.05344e+01  3.03893e+01 
 1.02758e+01  3.03816e+01 
 1.00182e+01  3.03743e+01 
 9.76193e+00  3.03673e+01 
 9.50675e+00  3.03606e+01 
 9.25281e+00  3.03542e+01 
 9.00004e+00  3.03481e+01 
 8.74852e+00  3.03423e+01 
 8.49818e+00  3.03368e+01 
 8.24910e+00  3.03315e+01 
 8.00118e+00  3.03265e+01 
 7.75452e+00  3.03218e+01 
 7.50901e+00  3.03172e+01 
 7.26472e+00  3.03129e+01 
 7.02155e+00  3.03088e+01 
 6.77958e+00  3.03049e+01 
 6.53867e+00  3.03012e+01 
 6.29891e+00  3.02976e+01 
 6.06016e+00  3.02942e+01 
 5.82251e+00  3.02910e+01 
 5.58581e+00  3.02880e+01 
 5.35014e+00  3.02851e+01 
 5.11537e+00  3.02823e+01 
 4.88154e+00  3.02797e+01 
 4.64855e+00  3.02772e+01 
 4.41643e+00  3.02748e+01 
 4.18507e+00  3.02726e+01 
 3.95451e+00  3.02705e+01 
 3.72463e+00  3.02685e+01 
 3.49547e+00  3.02666e+01 
 3.26691e+00  3.02649e+01 
 3.03900e+00  3.02633e+01 
 2.81161e+00  3.02618e+01 
 2.58478e+00  3.02604e+01 
 2.35838e+00  3.02591e+01 
 2.13247e+00  3.02580e+01 
 1.90691e+00  3.02569e+01 
 1.68175e+00  3.02560e+01 
 1.45686e+00  3.02552e+01 
 1.23228e+00  3.02545e+01 
 1.00790e+00  3.02539e+01 
 7.83745e-01  3.02535e+01 
 5.59694e-01  3.02531e+01 
 3.35792e-01  3.02529e+01 
 1.11909e-01  3.02528e+01 
-1.11909e-01  3.02528e+01 
-3.35792e-01  3.02529e+01 
-5.59694e-01  3.02531e+01 
-7.83745e-01  3.02535e+01 
-1.00790e+00  3.02539e+01 
-1.23228e+00  3.02545e+01 
-1.45686e+00  3.02552e+01 
-1.68175e+00  3.02560e+01 
-1.90691e+00  3.02569e+01 
-2.13247e+00  3.02580e+01 
-2.35838e+00  3.02591e+01 
-2.58478e+00  3.02604e+01 
-2.81161e+00  3.02618e+01 
-3.03900e+00  3.02633e+01 
-3.26691e+00  3.02649e+01 
-3.49547e+00  3.02666e+01 
-3.72463e+00  3.02685e+01 
-3.95451e+00  3.02705e+01 
-4.18507e+00  3.02726e+01 
-4.41643e+00  3.02748e+01 
-4.64855e+00  3.02772e+01 
-4.88154e+00  3.02797e+01 
-5.11537e+00  3.02823e+01 
-5.35014e+00  3.02851e+01 
-5.58581e+00  3.02880e+01 
-5.82251e+00  3.02910e+01 
-6.06016e+00  3.02942e+01 
-6.29891e+00  3.02976e+01 
-6.53867e+00  3.03012e+01 
-6.77958e+00  3.03049e+01 
-7.02155e+00  3.03088e+01 
-7.26472e+00  3.03129e+01 
-7.50901e+00  3.03172e+01 
-7.75452e+00  3.03218e+01 
-8.00118e+00  3.03265e+01 
-8.24910e+00  3.03315e+01 
-8.49818e+00  3.03368e+01 
-8.74852e+00  3.03423e+01 
-9.00004e+00  3.03481e+01 
-9.25281e+00  3.03542e+01 
-9.50675e+00  3.03606e+01 
-9.76193e+00  3.03673e+01 
-1.00182e+01  3.03743e+01 
-1.02758e+01  3.03816e+01 
-1.05344e+01  3.03893e+01 
-1.07942e+01  3.03972e+01 
-1.10551e+01  3.04055e+01 
-1.13171e+01  3.04140e+01 
-1.15801e+01  3.04228e+01 
-1.18442e+01  3.04319e+01 
 1.19251e+01  3.15280e+01 
 1.16586e+01  3.15196e+01 
 1.13931e+01  3.15115e+01 
 1.11286e+01  3.15038e+01 
 1.08651e+01  3.14963e+01 
 1.06026e+01  3.14893e+01 
 1.03413e+01  3.14825e+01 
 1.00810e+01  3.14761e+01 
 9.82208e+00  3.14700e+01 
 9.56429e+00  3.14642e+01 
 9.30781e+00  3.14588e+01 
 9.05256e+00  3.14536e+01 
 8.79865e+00  3.14487e+01 
 8.54600e+00  3.14440e+01 
 8.29469e+00  3.14396e+01 
 8.04464e+00  3.14354e+01 
 7.79593e+00  3.14314e+01 
 7.54845e+00  3.14276e+01 
 7.30229e+00  3.14240e+01 
 7.05732e+00  3.14205e+01 
 6.81361e+00  3.14172e+01 
 6.57106e+00  3.14140e+01 
 6.32971e+00  3.14109e+01 
 6.08944e+00  3.14080e+01 
 5.85032e+00  3.14052e+01 
 5.61221e+00  3.14025e+01 
 5.37517e+00  3.14000e+01 
 5.13908e+00  3.13975e+01 
 4.90398e+00  3.13952e+01 
 4.66974e+00  3.13929e+01 
 4.43642e+00  3.13907e+01 
 4.20389e+00  3.13887e+01 
 3.97218e+00  3.13867e+01 
 3.74118e+00  3.13849e+01 
 3.51092e+00  3.13831e+01 
 3.28128e+00  3.13815e+01 
 3.05231e+00  3.13800e+01 
 2.82387e+00  3.13785e+01 
 2.59601e+00  3.13772e+01 
 2.36860e+00  3.13760e+01 
 2.14168e+00  3.13748e+01 
 1.91513e+00  3.13738e+01 
 1.68898e+00  3.13729e+01 
 1.46311e+00  3.13721e+01 
 1.23757e+00  3.13715e+01 
 1.01221e+00  3.13709e+01 
 7.87096e-01  3.13704e+01 
 5.62085e-01  3.13701e+01 
 3.37226e-01  3.13699e+01 
 1.12387e-01  3.13698e+01 
-1.12387e-01  3.13698e+01 
-3.37226e-01  3.13699e+01 
-5.62085e-01  3.13701e+01 
-7.87096e-01  3.13704e+01 
-1.01221e+00  3.13709e+01 
-1.23757e+00  3.13715e+01 
-1.46311e+00  3.13721e+01 
-1.68898e+00  3.13729e+01 
-1.91513e+00  3.13738e+01 
-2.14168e+00  3.13748e+01 
-2.36860e+00  3.13760e+01 
-2.59601e+00  3.13772e+01 
-2.82387e+00  3.13785e+01 
-3.05231e+00  3.13800e+01 
-3.28128e+00  3.13815e+01 
-3.51092e+00  3.13831e+01 
-3.74118e+00  3.13849e+01 
-3.97218e+00  3.13867e+01 
-4.20389e+00  3.13887e+01 
-4.43642e+00  3.13907e+01 
-4.66974e+00  3.13929e+01 
-4.90398e+00  3.13952e+01 
-5.13908e+00  3.13975e+01 
-5.37517e+00  3.14000e+01 
-5.61221e+00  3.14025e+01 
-5.85032e+00  3.14052e+01 
-6.08944e+00  3.14080e+01 
-6.32971e+00  3.14109e+01 
-6.57106e+00  3.14140e+01 
-6.81361e+00  3.14172e+01 
-7.05732e+00  3.14205e+01 
-7.30229e+00  3.14240e+01 
-7.54845e+00  3.14276e+01 
-7.79593e+00  3.14314e+01 
-8.04464e+00  3.14354e+01 
-8.29469e+00  3.14396e+01 
-8.54600e+00  3.14440e+01 
-8.79865e+00  3.14487e+01 
-9.05256e+00  3.14536e+01 
-9.30781e+00  3.14588e+01 
-9.56429e+00  3.14642e+01 
-9.82208e+00  3.14700e+01 
-1.00810e+01  3.14761e+01 
-1.03413e+01  3.14825e+01 
-1.06026e+01  3.14893e+01 
-1.08651e+01  3.14963e+01 
-1.11286e+01  3.15038e+01 
-1.13931e+01  3.15115e+01 
-1.16586e+01  3.15196e+01 
-1.19251e+01  3.15280e+01 
 1.20000e+01  3.26342e+01 
 1.17308e+01  3.26264e+01 
 1.14624e+01  3.26190e+01 
 1.11949e+01  3.26120e+01 
 1.09284e+01  3.26054e+01 
 1.06629e+01  3.25992e+01 
 1.03986e+01  3.25933e+01 
 1.01355e+01  3.25878e+01 
 9.87371e+00  3.25826e+01 
 9.61321e+00  3.25777e+01 
 9.35413e+00  3.25732e+01 
 9.09642e+00  3.25688e+01 
 8.84017e+00  3.25647e+01 
 8.58531e+00  3.25608e+01 
 8.33194e+00  3.25571e+01 
 8.07994e+00  3.25536e+01 
 7.82940e+00  3.25501e+01 
 7.58020e+00  3.25468e+01 
 7.33242e+00  3.25437e+01 
 7.08592e+00  3.25406e+01 
 6.84078e+00  3.25376e+01 
 6.59686e+00  3.25347e+01 
 6.35422e+00  3.25318e+01 
 6.11273e+00  3.25291e+01 
 5.87244e+00  3.25264e+01 
 5.63321e+00  3.25238e+01 
 5.39510e+00  3.25213e+01 
 5.15796e+00  3.25188e+01 
 4.92186e+00  3.25164e+01 
 4.68666e+00  3.25141e+01 
 4.45239e+00  3.25119e+01 
 4.21893e+00  3.25097e+01 
 3.98633e+00  3.25077e+01 
 3.75445e+00  3.25057e+01 
 3.52333e+00  3.25038e+01 
 3.29284e+00  3.25020e+01 
 3.06303e+00  3.25003e+01 
 2.83376e+00  3.24988e+01 
 2.60508e+00  3.24973e+01 
 2.37686e+00  3.24959e+01 
 2.14914e+00  3.24947e+01 
 1.92179e+00  3.24936e+01 
 1.69485e+00  3.24925e+01 
 1.46819e+00  3.24917e+01 
 1.24186e+00  3.24909e+01 
 1.01572e+00  3.24903e+01 
 7.89821e-01  3.24897e+01 
 5.64030e-01  3.24893e+01 
 3.38393e-01  3.24891e+01 
 1.12775e-01  3.24890e+01 
-1.12775e-01  3.24890e+01 
-3.38393e-01  3.24891e+01 
-5.64030e-01  3.24893e+01 
-7.89821e-01  3.24897e+01 
-1.01572e+00  3.24903e+01 
-1.24186e+00  3.24909e+01 
-1.46819e+00  3.24917e+01 
-1.69485e+00  3.24925e+01 
-1.92179e+00  3.24936e+01 
-2.14914e+00  3.24947e+01 
-2.37686e+00  3.24959e+01 
-2.60508e+00  3.24973e+01 
-2.83376e+00  3.24988e+01 
-3.06303e+00  3.25003e+01 
-3.29284e+00  3.25020e+01 
-3.52333e+00  3.25038e+01 
-3.75445e+00  3.25057e+01 
-3.98633e+00  3.25077e+01 
-4.21893e+00  3.25097e+01 
-4.45239e+00  3.25119e+01 
-4.68666e+00  3.25141e+01 
-4.92186e+00  3.25164e+01 
-5.15796e+00  3.25188e+01 
-5.39510e+00  3.25213e+01 
-5.63321e+00  3.25238e+01 
-5.87244e+00  3.25264e+01 
-6.11273e+00  3.25291e+01 
-6.35422e+00  3.25318e+01 
-6.59686e+00  3.25347e+01 
-6.84078e+00  3.25376e+01 
-7.08592e+00  3.25406e+01 
-7.33242e+00  3.25437e+01 
-7.58020e+00  3.25468e+01 
-7.82940e+00  3.25501e+01 
-8.07994e+00  3.25536e+01 
-8.33194e+00  3.25571e+01 
-8.58531e+00  3.25608e+01 
-8.84017e+00  3.25647e+01 
-9.09642e+00  3.25688e+01 
-9.35413e+00  3.25732e+01 
-9.61321e+00  3.25777e+01 
-9.87371e+00  3.25826e+01 
-1.01355e+01  3.25878e+01 
-1.03986e+01  3.25933e+01 
-1.06629e+01  3.25992e+01 
-1.09284e+01  3.26054e+01 
-1.11949e+01  3.26120e+01 
-1.14624e+01  3.26190e+01 
-1.17308e+01  3.26264e+01 
-1.20000e+01  3.26342e+01 
 1.20701e+01  3.37527e+01 
 1.17974e+01  3.37454e+01 
 1.15254e+01  3.37387e+01 
 1.12543e+01  3.37324e+01 
 1.09842e+01  3.37265e+01 
 1.07152e+01  3.37212e+01 
 1.04475e+01  3.37162e+01 
 1.01812e+01  3.37116e+01 
 9.91639e+00  3.37072e+01 
 9.65309e+00  3.37032e+01 
 9.39145e+00  3.36994e+01 
 9.13137e+00  3.36957e+01 
 8.87298e+00  3.36922e+01 
 8.61616e+00  3.36888e+01 
 8.36099e+00  3.36855e+01 
 8.10736e+00  3.36822e+01 
 7.85534e+00  3.36789e+01 
 7.60477e+00  3.36757e+01 
 7.35573e+00  3.36726e+01 
 7.10808e+00  3.36694e+01 
 6.86186e+00  3.36662e+01 
 6.61693e+00  3.36631e+01 
 6.37334e+00  3.36600e+01 
 6.13095e+00  3.36569e+01 
 5.88980e+00  3.36539e+01 
 5.64976e+00  3.36509e+01 
 5.41087e+00  3.36479e+01 
 5.17298e+00  3.36450e+01 
 4.93614e+00  3.36421e+01 
 4.70022e+00  3.36393e+01 
 4.46525e+00  3.36366e+01 
 4.23110e+00  3.36340e+01 
 3.99782e+00  3.36314e+01 
 3.76526e+00  3.36290e+01 
 3.53347e+00  3.36266e+01 
 3.30232e+00  3.36244e+01 
 3.07185e+00  3.36223e+01 
 2.84193e+00  3.36203e+01 
 2.61259e+00  3.36184e+01 
 2.38372e+00  3.36167e+01 
 2.15534e+00  3.36151e+01 
 1.92734e+00  3.36137e+01 
 1.69975e+00  3.36124e+01 
 1.47243e+00  3.36113e+01 
 1.24545e+00  3.36103e+01 
 1.01866e+00  3.36095e+01 
 7.92109e-01  3.36088e+01 
 5.65665e-01  3.36083e+01 
 3.39374e-01  3.36080e+01 
 1.13102e-01  3.36078e+01 
-1.13102e-01  3.36078e+01 
-3.39374e-01  3.36080e+01 
-5.65665e-01  3.36083e+01 
-7.92109e-01  3.36088e+01 
-1.01866e+00  3.36095e+01 
-1.24545e+00  3.36103e+01 
-1.47243e+00  3.36113e+01 
-1.69975e+00  3.36124e+01 
-1.92734e+00  3.36137e+01 
-2.15534e+00  3.36151e+01 
-2.38372e+00  3.36167e+01 
-2.61259e+00  3.36184e+01 
-2.84193e+00  3.36203e+01 
-3.07185e+00  3.36223e+01 
-3.30232e+00  3.36244e+01 
-3.53347e+00  3.36266e+01 
-3.76526e+00  3.36290e+01 
-3.99782e+00  3.36314e+01 
-4.23110e+00  3.36340e+01 
-4.46525e+00  3.36366e+01 
-4.70022e+00  3.36393e+01 
-4.93614e+00  3.36421e+01 
-5.17298e+00  3.36450e+01 
-5.41087e+00  3.36479e+01 
-5.64976e+00  3.36509e+01 
-5.88980e+00  3.36539e+01 
-6.13095e+00  3.36569e+01 
-6.37334e+00  3.36600e+01 
-6.61693e+00  3.36631e+01 
-6.86186e+00  3.36662e+01 
-7.10808e+00  3.36694e+01 
-7.35573e+00  3.36726e+01 
-7.60477e+00  3.36757e+01 
-7.85534e+00  3.36789e+01 
-8.10736e+00  3.36822e+01 
-8.36099e+00  3.36855e+01 
-8.61616e+00  3.36888e+01 
-8.87298e+00  3.36922e+01 
-9.13137e+00  3.36957e+01 
-9.39145e+00  3.36994e+01 
-9.65309e+00  3.37032e+01 
-9.91639e+00  3.37072e+01 
-1.01812e+01  3.37116e+01 
-1.04475e+01  3.37162e+01 
-1.07152e+01  3.37212e+01 
-1.09842e+01  3.37265e+01 
-1.12543e+01  3.37324e+01 
-1.15254e+01  3.37387e+01 
-1.17974e+01  3.37454e+01 
-1.20701e+01  3.37527e+01 
 1.21366e+01  3.48872e+01 
 1.18592e+01  3.48804e+01 
 1.15825e+01  3.48742e+01 
 1.13066e+01  3.48687e+01 
 1.10319e+01  3.48637e+01 
 1.07586e+01  3.48592e+01 
 1.04871e+01  3.48552e+01 
 1.02173e+01  3.48513e+01 
 9.94952e+00  3.48477e+01 
 9.68359e+00  3.48442e+01 
 9.41967e+00  3.48407e+01 
 9.15762e+00  3.48372e+01 
 8.89752e+00  3.48337e+01 
 8.63921e+00  3.48301e+01 
 8.38276e+00  3.48264e+01 
 8.12800e+00  3.48227e+01 
 7.87498e+00  3.48188e+01 
 7.62353e+00  3.48149e+01 
 7.37369e+00  3.48109e+01 
 7.12530e+00  3.48069e+01 
 6.87841e+00  3.48028e+01 
 6.63285e+00  3.47987e+01 
 6.38867e+00  3.47946e+01 
 6.14571e+00  3.47904e+01 
 5.90402e+00  3.47863e+01 
 5.66344e+00  3.47822e+01 
 5.42402e+00  3.47782e+01 
 5.18561e+00  3.47742e+01 
 4.94826e+00  3.47702e+01 
 4.71181e+00  3.47664e+01 
 4.47633e+00  3.47626e+01 
 4.24166e+00  3.47590e+01 
 4.00785e+00  3.47555e+01 
 3.77476e+00  3.47521e+01 
 3.54243e+00  3.47489e+01 
 3.31074e+00  3.47458e+01 
 3.07972e+00  3.47428e+01 
 2.84924e+00  3.47401e+01 
 2.61935e+00  3.47375e+01 
 2.38991e+00  3.47352e+01 
 2.16096e+00  3.47330e+01 
 1.93238e+00  3.47310e+01 
 1.70421e+00  3.47292e+01 
 1.47631e+00  3.47276e+01 
 1.24874e+00  3.47263e+01 
 1.02135e+00  3.47252e+01 
 7.94205e-01  3.47243e+01 
 5.67164e-01  3.47236e+01 
 3.40274e-01  3.47231e+01 
 1.13402e-01  3.47229e+01 
-1.13402e-01  3.47229e+01 
-3.40274e-01  3.47231e+01 
-5.67164e-01  3.47236e+01 
-7.94205e-01  3.47243e+01 
-1.02135e+00  3.47252e+01 
-1.24874e+00  3.47263e+01 
-1.47631e+00  3.47276e+01 
-1.70421e+00  3.47292e+01 
-1.93238e+00  3.47310e+01 
-2.16096e+00  3.47330e+01 
-2.38991e+00  3.47352e+01 
-2.61935e+00  3.47375e+01 
-2.84924e+00  3.47401e+01 
-3.07972e+00  3.47428e+01 
-3.31074e+00  3.47458e+01 
-3.54243e+00  3.47489e+01 
-3.77476e+00  3.47521e+01 
-4.00785e+00  3.47555e+01 
-4.24166e+00  3.47590e+01 
-4.47633e+00  3.47626e+01 
-4.71181e+00  3.47664e+01 
-4.94826e+00  3.47702e+01 
-5.18561e+00  3.47742e+01 
-5.42402e+00  3.47782e+01 
-5.66344e+00  3.47822e+01 
-5.90402e+00  3.47863e+01 
-6.14571e+00  3.47904e+01 
-6.38867e+00  3.47946e+01 
-6.63285e+00  3.47987e+01 
-6.87841e+00  3.48028e+01 
-7.12530e+00  3.48069e+01 
-7.37369e+00  3.48109e+01 
-7.62353e+00  3.48149e+01 
-7.87498e+00  3.48188e+01 
-8.12800e+00  3.48227e+01 
-8.38276e+00  3.48264e+01 
-8.63921e+00  3.48301e+01 
-8.89752e+00  3.48337e+01 
-9.15762e+00  3.48372e+01 
-9.41967e+00  3.48407e+01 
-9.68359e+00  3.48442e+01 
-9.94952e+00  3.48477e+01 
-1.02173e+01  3.48513e+01 
-1.04871e+01  3.48552e+01 
-1.07586e+01  3.48592e+01 
-1.10319e+01  3.48637e+01 
-1.13066e+01  3.48687e+01 
-1.15825e+01  3.48742e+01 
-1.18592e+01  3.48804e+01 
-1.21366e+01  3.48872e+01 
 1.22011e+01  3.60454e+01 
 1.19165e+01  3.60388e+01 
 1.16325e+01  3.60335e+01 
 1.13499e+01  3.60290e+01 
 1.10695e+01  3.60252e+01 
 1.07915e+01  3.60215e+01 
 1.05162e+01  3.60179e+01 
 1.02434e+01  3.60143e+01 
 9.97321e+00  3.60104e+01 
 9.70541e+00  3.60063e+01 
 9.44001e+00  3.60019e+01 
 9.17680e+00  3.59973e+01 
 8.91579e+00  3.59924e+01 
 8.65676e+00  3.59872e+01 
 8.39971e+00  3.59818e+01 
 8.14446e+00  3.59762e+01 
 7.89101e+00  3.59705e+01 
 7.63919e+00  3.59645e+01 
 7.38901e+00  3.59585e+01 
 7.14031e+00  3.59524e+01 
 6.89310e+00  3.59462e+01 
 6.64724e+00  3.59400e+01 
 6.40274e+00  3.59338e+01 
 6.15946e+00  3.59276e+01 
 5.91743e+00  3.59214e+01 
 5.67650e+00  3.59154e+01 
 5.43672e+00  3.59094e+01 
 5.19793e+00  3.59035e+01 
 4.96017e+00  3.58977e+01 
 4.72331e+00  3.58921e+01 
 4.48739e+00  3.58867e+01 
 4.25226e+00  3.58815e+01 
 4.01798e+00  3.58764e+01 
 3.78440e+00  3.58715e+01 
 3.55158e+00  3.58669e+01 
 3.31937e+00  3.58625e+01 
 3.08782e+00  3.58584e+01 
 2.85679e+00  3.58545e+01 
 2.62634e+00  3.58508e+01 
 2.39633e+00  3.58475e+01 
 2.16680e+00  3.58444e+01 
 1.93763e+00  3.58416e+01 
 1.70886e+00  3.58391e+01 
 1.48036e+00  3.58369e+01 
 1.25217e+00  3.58350e+01 
 1.02417e+00  3.58334e+01 
 7.96403e-01  3.58322e+01 
 5.68736e-01  3.58312e+01 
 3.41218e-01  3.58306e+01 
 1.13717e-01  3.58303e+01 
-1.13717e-01  3.58303e+01 
-3.41218e-01  3.58306e+01 
-5.68736e-01  3.58312e+01 
-7.96403e-01  3.58322e+01 
-1.02417e+00  3.58334e+01 
-1.25217e+00  3.58350e+01 
-1.48036e+00  3.58369e+01 
-1.70886e+00  3.58391e+01 
-1.93763e+00  3.58416e+01 
-2.16680e+00  3.58444e+01 
-2.39633e+00  3.58475e+01 
-2.62634e+00  3.58508e+01 
-2.85679e+00  3.58545e+01 
-3.08782e+00  3.58584e+01 
-3.31937e+00  3.58625e+01 
-3.55158e+00  3.58669e+01 
-3.78440e+00  3.58715e+01 
-4.01798e+00  3.58764e+01 
-4.25226e+00  3.58815e+01 
-4.48739e+00  3.58867e+01 
-4.72331e+00  3.58921e+01 
-4.96017e+00  3.58977e+01 
-5.19793e+00  3.59035e+01 
-5.43672e+00  3.59094e+01 
-5.67650e+00  3.59154e+01 
-5.91743e+00  3.59214e+01 
-6.15946e+00  3.59276e+01 
-6.40274e+00  3.59338e+01 
-6.64724e+00  3.59400e+01 
-6.89310e+00  3.59462e+01 
-7.14031e+00  3.59524e+01 
-7.38901e+00  3.59585e+01 
-7.63919e+00  3.59645e+01 
-7.89101e+00  3.59705e+01 
-8.14446e+00  3.59762e+01 
-8.39971e+00  3.59818e+01 
-8.65676e+00  3.59872e+01 
-8.91579e+00  3.59924e+01 
-9.17680e+00  3.59973e+01 
-9.44001e+00  3.60019e+01 
-9.70541e+00  3.60063e+01 
-9.97321e+00  3.60104e+01 
-1.02434e+01  3.60143e+01 
-1.05162e+01  3.60179e+01 
-1.07915e+01  3.60215e+01 
-1.10695e+01  3.60252e+01 
-1.13499e+01  3.60290e+01 
-1.16325e+01  3.60335e+01 
-1.19165e+01  3.60388e+01 
-1.22011e+01  3.60454e+01 
 1.22644e+01  3.72433e+01 
 1.19647e+01  3.72388e+01 
 1.16700e+01  3.72351e+01 
 1.13801e+01  3.72313e+01 
 1.10949e+01  3.72270e+01 
 1.08137e+01  3.72221e+01 
 1.05363e+01  3.72164e+01 
 1.02621e+01  3.72100e+01 
 9.99112e+00  3.72030e+01 
 9.72284e+00  3.71955e+01 
 9.45718e+00  3.71874e+01 
 9.19386e+00  3.71789e+01 
 8.93280e+00  3.71701e+01 
 8.67377e+00  3.71609e+01 
 8.41674e+00  3.71515e+01 
 8.16149e+00  3.71420e+01 
 7.90803e+00  3.71323e+01 
 7.65616e+00  3.71226e+01 
 7.40591e+00  3.71128e+01 
 7.15709e+00  3.71030e+01 
 6.90973e+00  3.70933e+01 
 6.66367e+00  3.70836e+01 
 6.41895e+00  3.70740e+01 
 6.17540e+00  3.70646e+01 
 5.93306e+00  3.70554e+01 
 5.69179e+00  3.70463e+01 
 5.45163e+00  3.70374e+01 
 5.21243e+00  3.70288e+01 
 4.97424e+00  3.70204e+01 
 4.73691e+00  3.70123e+01 
 4.50049e+00  3.70044e+01 
 4.26484e+00  3.69969e+01 
 4.03001e+00  3.69897e+01 
 3.79587e+00  3.69828e+01 
 3.56245e+00  3.69762e+01 
 3.32963e+00  3.69700e+01 
 3.09745e+00  3.69642e+01 
 2.86578e+00  3.69588e+01 
 2.63466e+00  3.69537e+01 
 2.40397e+00  3.69490e+01 
 2.17376e+00  3.69447e+01 
 1.94388e+00  3.69409e+01 
 1.71440e+00  3.69374e+01 
 1.48518e+00  3.69344e+01 
 1.25627e+00  3.69318e+01 
 1.02753e+00  3.69296e+01 
 7.99021e-01  3.69278e+01 
 5.70609e-01  3.69265e+01 
 3.42343e-01  3.69256e+01 
 1.14092e-01  3.69252e+01 
-1.14092e-01  3.69252e+01 
-3.42343e-01  3.69256e+01 
-5.70609e-01  3.69265e+01 
-7.99021e-01  3.69278e+01 
-1.02753e+00  3.69296e+01 
-1.25627e+00  3.69318e+01 
-1.48518e+00  3.69344e+01 
-1.71440e+00  3.69374e+01 
-1.94388e+00  3.69409e+01 
-2.17376e+00  3.69447e+01 
-2.40397e+00  3.69490e+01 
-2.63466e+00  3.69537e+01 
-2.86578e+00  3.69588e+01 
-3.09745e+00  3.69642e+01 
-3.32963e+00  3.69700e+01 
-3.56245e+00  3.69762e+01 
-3.79587e+00  3.69828e+01 
-4.03001e+00  3.69897e+01 
-4.26484e+00  3.69969e+01 
-4.50049e+00  3.70044e+01 
-4.73691e+00  3.70123e+01 
-4.97424e+00  3.70204e+01 
-5.21243e+00  3.70288e+01 
-5.45163e+00  3.70374e+01 
-5.69179e+00  3.70463e+01 
-5.93306e+00  3.70554e+01 
-6.17540e+00  3.70646e+01 
-6.41895e+00  3.70740e+01 
-6.66367e+00  3.70836e+01 
-6.90973e+00  3.70933e+01 
-7.15709e+00  3.71030e+01 
-7.40591e+00  3.71128e+01 
-7.65616e+00  3.71226e+01 
-7.90803e+00  3.71323e+01 
-8.16149e+00  3.71420e+01 
-8.41674e+00  3.71515e+01 
-8.67377e+00  3.71609e+01 
-8.93280e+00  3.71701e+01 
-9.19386e+00  3.71789e+01 
-9.45718e+00  3.71874e+01 
-9.72284e+00  3.71955e+01 
-9.99112e+00  3.72030e+01 
-1.02621e+01  3.72100e+01 
-1.05363e+01  3.72164e+01 
-1.08137e+01  3.72221e+01 
-1.10949e+01  3.72270e+01 
-1.13801e+01  3.72313e+01 
-1.16700e+01  3.72351e+01 
-1.19647e+01  3.72388e+01 
-1.22644e+01  3.72433e+01 
 1.23041e+01  3.85334e+01 
 1.19944e+01  3.85253e+01 
 1.16953e+01  3.85146e+01 
 1.14035e+01  3.85022e+01 
 1.11175e+01  3.84884e+01 
 1.08362e+01  3.84737e+01 
 1.05589e+01  3.84585e+01 
 1.02851e+01  3.84427e+01 
 1.00144e+01  3.84267e+01 
 9.74637e+00  3.84106e+01 
 9.48097e+00  3.83943e+01 
 9.21783e+00  3.83780e+01 
 8.95690e+00  3.83618e+01 
 8.69793e+00  3.83457e+01 
 8.44090e+00  3.83296e+01 
 8.18558e+00  3.83137e+01 
 7.93199e+00  3.82980e+01 
 7.67994e+00  3.82825e+01 
 7.42944e+00  3.82673e+01 
 7.18032e+00  3.82522e+01 
 6.93262e+00  3.82375e+01 
 6.68617e+00  3.82231e+01 
 6.44101e+00  3.82090e+01 
 6.19698e+00  3.81952e+01 
 5.95413e+00  3.81818e+01 
 5.71231e+00  3.81688e+01 
 5.47156e+00  3.81561e+01 
 5.23173e+00  3.81439e+01 
 4.99289e+00  3.81321e+01 
 4.75487e+00  3.81207e+01 
 4.51775e+00  3.81098e+01 
 4.28136e+00  3.80994e+01 
 4.04577e+00  3.80894e+01 
 3.81084e+00  3.80799e+01 
 3.57662e+00  3.80710e+01 
 3.34298e+00  3.80625e+01 
 3.10995e+00  3.80546e+01 
 2.87742e+00  3.80472e+01 
 2.64543e+00  3.80403e+01 
 2.41386e+00  3.80340e+01 
 2.18274e+00  3.80282e+01 
 1.95195e+00  3.80230e+01 
 1.72154e+00  3.80183e+01 
 1.49139e+00  3.80142e+01 
 1.26153e+00  3.80107e+01 
 1.03185e+00  3.80078e+01 
 8.02385e-01  3.80055e+01 
 5.73014e-01  3.80037e+01 
 3.43788e-01  3.80025e+01 
 1.14574e-01  3.80019e+01 
-1.14574e-01  3.80019e+01 
-3.43788e-01  3.80025e+01 
-5.73014e-01  3.80037e+01 
-8.02385e-01  3.80055e+01 
-1.03185e+00  3.80078e+01 
-1.26153e+00  3.80107e+01 
-1.49139e+00  3.80142e+01 
-1.72154e+00  3.80183e+01 
-1.95195e+00  3.80230e+01 
-2.18274e+00  3.80282e+01 
-2.41386e+00  3.80340e+01 
-2.64543e+00  3.80403e+01 
-2.87742e+00  3.80472e+01 
-3.10995e+00  3.80546e+01 
-3.34298e+00  3.80625e+01 
-3.57662e+00  3.80710e+01 
-3.81084e+00  3.80799e+01 
-4.04577e+00  3.80894e+01 
-4.28136e+00  3.80994e+01 
-4.51775e+00  3.81098e+01 
-4.75487e+00  3.81207e+01 
-4.99289e+00  3.81321e+01 
-5.23173e+00  3.81439e+01 
-5.47156e+00  3.81561e+01 
-5.71231e+00  3.81688e+01 
-5.95413e+00  3.81818e+01 
-6.19698e+00  3.81952e+01 
-6.44101e+00  3.82090e+01 
-6.68617e+00  3.82231e+01 
-6.93262e+00  3.82375e+01 
-7.18032e+00  3.82522e+01 
-7.42944e+00  3.82673e+01 
-7.67994e+00  3.82825e+01 
-7.93199e+00  3.82980e+01 
-8.18558e+00  3.83137e+01 
-8.44090e+00  3.83296e+01 
-8.69793e+00  3.83457e+01 
-8.95690e+00  3.83618e+01 
-9.21783e+00  3.83780e+01 
-9.48097e+00  3.83943e+01 
-9.74637e+00  3.84106e+01 
-1.00144e+01  3.84267e+01 
-1.02851e+01  3.84427e+01 
-1.05589e+01  3.84585e+01 
-1.08362e+01  3.84737e+01 
-1.11175e+01  3.84884e+01 
-1.14035e+01  3.85022e+01 
-1.16953e+01  3.85146e+01 
-1.19944e+01  3.85253e+01 
-1.23041e+01  3.85334e+01 
 3.06885e-01  2.76083e-01 
 2.64089e-01  2.45156e-01 
 2.36728e-01  2.19265e-01 
 2.17381e-01  1.97596e-01 
 2.02630e-01  1.79309e-01 
 1.90737e-01  1.63700e-01 
 1.80746e-01  1.50229e-01 
 1.72085e-01  1.38478e-01 
 1.64393e-01  1.28136e-01 
 1.57432e-01  1.18953e-01 
 1.51035e-01  1.10744e-01 
 1.45085e-01  1.03356e-01 
 1.39494e-01  9.66716e-02 
 1.34199e-01  9.05931e-02 
 1.29149e-01  8.50441e-02 
 1.24305e-01  7.99583e-02 
 1.19637e-01  7.52839e-02 
 1.15120e-01  7.09747e-02 
 1.10734e-01  6.69939e-02 
 1.06462e-01  6.33084e-02 
 1.02292e-01  5.98914e-02 
 9.82111e-02  5.67183e-02 
 9.42103e-02  5.37690e-02 
 9.02808e-02  5.10248e-02 
 8.64160e-02  4.84705e-02 
 8.26091e-02  4.60915e-02 
 7.88553e-02  4.38760e-02 
 7.51490e-02  4.18126e-02 
 7.14868e-02  3.98918e-02 
 6.78640e-02  3.81047e-02 
 6.42781e-02  3.64436e-02 
 6.07251e-02  3.49014e-02 
 5.72029e-02  3.34719e-02 
 5.37081e-02  3.21494e-02 
 5.02393e-02  3.09288e-02 
 4.67932e-02  2.98056e-02 
 4.33687e-02  2.87756e-02 
 3.99629e-02  2.78352e-02 
 3.65749e-02  2.69811e-02 
 3.32021e-02  2.62104e-02 
 2.98437e-02  2.55204e-02 
 2.64972e-02  2.49089e-02 
 2.31621e-02  2.43738e-02 
 1.98359e-02  2.39135e-02 
 1.65182e-02  2.35264e-02 
 1.32065e-02  2.32114e-02 
 9.90060e-03  2.29673e-02 
 6.59803e-03  2.27936e-02 
 3.29869e-03  2.26895e-02 
-2.39997e-14  2.26549e-02 
-3.29869e-03  2.26895e-02 
-6.59803e-03  2.27936e-02 
-9.90060e-03  2.29673e-02 
-1.32065e-02  2.32114e-02 
-1.65182e-02  2.35264e-02 
-1.98359e-02  2.39135e-02 
-2.31621e-02  2.43738e-02 
-2.64972e-02  2.49089e-02 
-2.98437e-02  2.55204e-02 
-3.32021e-02  2.62104e-02 
-3.65749e-02  2.69811e-02 
-3.99629e-02  2.78352e-02 
-4.33687e-02  2.87756e-02 
-4.67932e-02  2.98056e-02 
-5.02393e-02  3.09288e-02 
-5.37081e-02  3.21494e-02 
-5.72029e-02  3.34719e-02 
-6.07251e-02  3.49014e-02 
-6.42781e-02  3.64436e-02 
-6.78640e-02  3.81047e-02 
-7.14868e-02  3.98918e-02 
-7.51490e-02  4.18126e-02 
-7.88553e-02  4.38760e-02 
-8.26091e-02  4.60915e-02 
-8.64160e-02  4.84705e-02 
-9.02808e-02  5.10248e-02 
-9.42103e-02  5.37690e-02 
-9.82111e-02  5.67183e-02 
-1.02292e-01  5.98914e-02 
-1.06462e-01  6.33084e-02 
-1.10734e-01  6.69939e-02 
-1.15120e-01  7.09747e-02 
-1.19637e-01  7.52839e-02 
-1.24305e-01  7.99583e-02 
-1.29149e-01  8.50441e-02 
-1.34199e-01  9.05931e-02 
-1.39494e-01  9.66716e-02 
-1.45085e-01  1.03356e-01 
-1.51035e-01  1.10744e-01 
-1.57432e-01  1.18953e-01 
-1.64393e-01  1.28136e-01 
-1.72085e-01  1.38478e-01 
-1.80746e-01  1.50229e-01 
-1.90737e-01  1.63700e-01 
-2.02630e-01  1.79309e-01 
-2.17381e-01  1.97596e-01 
-2.36728e-01  2.19265e-01 
-2.64089e-01  2.45156e-01 
-3.06885e-01  2.76083e-01 
 8.89257e-01  7.46010e-01 
 8.04328e-01  6.85556e-01 
 7.38482e-01  6.31645e-01 
 6.85773e-01  5.83678e-01 
 6.42321e-01  5.40991e-01 
 6.05533e-01  5.02891e-01 
 5.73688e-01  4.68778e-01 
 5.45579e-01  4.38102e-01 
 5.20371e-01  4.10417e-01 
 4.97442e-01  3.85323e-01 
 4.76349e-01  3.62503e-01 
 4.56741e-01  3.41670e-01 
 4.38365e-01  3.22599e-01 
 4.21011e-01  3.05084e-01 
 4.04523e-01  2.88961e-01 
 3.88767e-01  2.74081e-01 
 3.73646e-01  2.60323e-01 
 3.59069e-01  2.47575e-01 
 3.44971e-01  2.35748e-01 
 3.31289e-01  2.24756e-01 
 3.17980e-01  2.14533e-01 
 3.04996e-01  2.05012e-01 
 2.92307e-01  1.96140e-01 
 2.79879e-01  1.87868e-01 
 2.67689e-01  1.80153e-01 
 2.55710e-01  1.72954e-01 
 2.43926e-01  1.66240e-01 
 2.32315e-01  1.59978e-01 
 2.20865e-01  1.54142e-01 
 2.09558e-01  1.48705e-01 
 1.98386e-01  1.43647e-01 
 1.87333e-01  1.38945e-01 
 1.76392e-01  1.34584e-01 
 1.65549e-01  1.30546e-01 
 1.54801e-01  1.26816e-01 
 1.44134e-01  1.23382e-01 
 1.33545e-01  1.20231e-01 
 1.23023e-01  1.17352e-01 
 1.12565e-01  1.14736e-01 
 1.02161e-01  1.12374e-01 
 9.18086e-02  1.10260e-01 
 8.14988e-02  1.08384e-01 
 7.12297e-02  1.06743e-01 
 6.09922e-02  1.05331e-01 
 5.07850e-02  1.04143e-01 
 4.05994e-02  1.03176e-01 
 3.04343e-02  1.02427e-01 
 2.02812e-02  1.01893e-01 
 1.01393e-02  1.01574e-01 
-7.41602e-14  1.01467e-01 
-1.01393e-02  1.01574e-01 
-2.02812e-02  1.01893e-01 
-3.04343e-02  1.02427e-01 
-4.05994e-02  1.03176e-01 
-5.07850e-02  1.04143e-01 
-6.09922e-02  1.05331e-01 
-7.12297e-02  1.06743e-01 
-8.14988e-02  1.08384e-01 
-9.18086e-02  1.10260e-01 
-1.02161e-01  1.12374e-01 
-1.12565e-01  1.14736e-01 
-1.23023e-01  1.17352e-01 
-1.33545e-01  1.20231e-01 
-1.44134e-01  1.23382e-01 
-1.54801e-01  1.26816e-01 
-1.65549e-01  1.30546e-01 
-1.76392e-01  1.34584e-01 
-1.87333e-01  1.38945e-01 
-1.98386e-01  1.43647e-01 
-2.09558e-01  1.48705e-01 
-2.20865e-01  1.54142e-01 
-2.32315e-01  1.59978e-01 
-2.43926e-01  1.66240e-01 
-2.55710e-01  1.72954e-01 
-2.67689e-01  1.80153e-01 
-2.79879e-01  1.87868e-01 
-2.92307e-01  1.96140e-01 
-3.04996e-01  2.05012e-01 
-3.17980e-01  2.14533e-01 
-3.31289e-01  2.24756e-01 
-3.44971e-01  2.35748e-01 
-3.59069e-01  2.47575e-01 
-3.73646e-01  2.60323e-01 
-3.88767e-01  2.74081e-01 
-4.04523e-01  2.88961e-01 
-4.21011e-01  3.05084e-01 
-4.38365e-01  3.22599e-01 
-4.56741e-01  3.41670e-01 
-4.76349e-01  3.62503e-01 
-4.97442e-01  3.85323e-01 
-5.20371e-01  4.10417e-01 
-5.45579e-01  4.38102e-01 
-5.73688e-01  4.68778e-01 
-6.05533e-01  5.02891e-01 
-6.42321e-01  5.40991e-01 
-6.85773e-01  5.83678e-01 
-7.38482e-01  6.31645e-01 
-8.04328e-01  6.85556e-01 
-8.89257e-01  7.46010e-01 
 1.37032e+00  1.08819e+00 
 1.29554e+00  1.03772e+00 
 1.22394e+00  9.86552e-01 
 1.15792e+00  9.36523e-01 
 1.09783e+00  8.88598e-01 
 1.04323e+00  8.43212e-01 
 9.93466e-01  8.00552e-01 
 9.47863e-01  7.60610e-01 
 9.05830e-01  7.23322e-01 
 8.66825e-01  6.88544e-01 
 8.30423e-01  6.56139e-01 
 7.96238e-01  6.25935e-01 
 7.63976e-01  5.97787e-01 
 7.33364e-01  5.71533e-01 
 7.04200e-01  5.47040e-01 
 6.76290e-01  5.24170e-01 
 6.49490e-01  5.02808e-01 
 6.23662e-01  4.82835e-01 
 5.98702e-01  4.64160e-01 
 5.74507e-01  4.46681e-01 
 5.51003e-01  4.30323e-01 
 5.28111e-01  4.15004e-01 
 5.05778e-01  4.00660e-01 
 4.83940e-01  3.87224e-01 
 4.62558e-01  3.74643e-01 
 4.41582e-01  3.62863e-01 
 4.20983e-01  3.51840e-01 
 4.00719e-01  3.41528e-01 
 3.80768e-01  3.31892e-01 
 3.61095e-01  3.22893e-01 
 3.41685e-01  3.14502e-01 
 3.22506e-01  3.06688e-01 
 3.03546e-01  2.99426e-01 
 2.84779e-01  2.92690e-01 
 2.66195e-01  2.86459e-01 
 2.47771e-01  2.80713e-01 
 2.29499e-01  2.75436e-01 
 2.11358e-01  2.70608e-01 
 1.93342e-01  2.66217e-01 
 1.75432e-01  2.62248e-01 
 1.57623e-01  2.58692e-01 
 1.39897e-01  2.55536e-01 
 1.22250e-01  2.52772e-01 
 1.04665e-01  2.50392e-01 
 8.71394e-02  2.48390e-01 
 6.96558e-02  2.46759e-01 
 5.22119e-02  2.45495e-01 
 3.47918e-02  2.44595e-01 
 1.73931e-02  2.44056e-01 
-1.27266e-13  2.43877e-01 
-1.73931e-02  2.44056e-01 
-3.47918e-02  2.44595e-01 
-5.22119e-02  2.45495e-01 
-6.96558e-02  2.46759e-01 
-8.71394e-02  2.48390e-01 
-1.04665e-01  2.50392e-01 
-1.22250e-01  2.52772e-01 
-1.39897e-01  2.55536e-01 
-1.57623e-01  2.58692e-01 
-1.75432e-01  2.62248e-01 
-1.93342e-01  2.66217e-01 
-2.11358e-01  2.70608e-01 
-2.29499e-01  2.75436e-01 
-2.47771e-01  2.80713e-01 
-2.66195e-01  2.86459e-01 
-2.84779e-01  2.92690e-01 
-3.03546e-01  2.99426e-01 
-3.22506e-01  3.06688e-01 
-3.41685e-01  3.14502e-01 
-3.61095e-01  3.22893e-01 
-3.80768e-01  3.31892e-01 
-4.00719e-01  3.41528e-01 
-4.20983e-01  3.51840e-01 
-4.41582e-01  3.62863e-01 
-4.62558e-01  3.74643e-01 
-4.83940e-01  3.87224e-01 
-5.05778e-01  4.00660e-01 
-5.28111e-01  4.15004e-01 
-5.51003e-01  4.30323e-01 
-5.74507e-01  4.46681e-01 
-5.98702e-01  4.64160e-01 
-6.23662e-01  4.82835e-01 
-6.49490e-01  5.02808e-01 
-6.76290e-01  5.24170e-01 
-7.04200e-01  5.47040e-01 
-7.33364e-01  5.71533e-01 
-7.63976e-01  5.97787e-01 
-7.96238e-01  6.25935e-01 
-8.30423e-01  6.56139e-01 
-8.66825e-01  6.88544e-01 
-9.05830e-01  7.23322e-01 
-9.47863e-01  7.60610e-01 
-9.93466e-01  8.00552e-01 
-1.04323e+00  8.43212e-01 
-1.09783e+00  8.88598e-01 
-1.15792e+00  9.36523e-01 
-1.22394e+00  9.86552e-01 
-1.29554e+00  1.03772e+00 
-1.37032e+00  1.08819e+00 
 1.82265e+00  1.40826e+00 
 1.74706e+00  1.35978e+00 
 1.67392e+00  1.31182e+00 
 1.60331e+00  1.26437e+00 
 1.53565e+00  1.21779e+00 
 1.47120e+00  1.17240e+00 
 1.41004e+00  1.12848e+00 
 1.35206e+00  1.08622e+00 
 1.29710e+00  1.04576e+00 
 1.24493e+00  1.00713e+00 
 1.19534e+00  9.70374e-01 
 1.14806e+00  9.35456e-01 
 1.10291e+00  9.02352e-01 
 1.05967e+00  8.70993e-01 
 1.01815e+00  8.41329e-01 
 9.78186e-01  8.13277e-01 
 9.39638e-01  7.86776e-01 
 9.02357e-01  7.61743e-01 
 8.66238e-01  7.38116e-01 
 8.31159e-01  7.15817e-01 
 7.97038e-01  6.94787e-01 
 7.63778e-01  6.74954e-01 
 7.31313e-01  6.56267e-01 
 6.99562e-01  6.38661e-01 
 6.68477e-01  6.22089e-01 
 6.37988e-01  6.06496e-01 
 6.08058e-01  5.91842e-01 
 5.78627e-01  5.78077e-01 
 5.49667e-01  5.65168e-01 
 5.21128e-01  5.53071e-01 
 4.92985e-01  5.41757e-01 
 4.65195e-01  5.31190e-01 
 4.37740e-01  5.21344e-01 
 4.10581e-01  5.12190e-01 
 3.83703e-01  5.03705e-01 
 3.57072e-01  4.95864e-01 
 3.30675e-01  4.88649e-01 
 3.04482e-01  4.82038e-01 
 2.78482e-01  4.76017e-01 
 2.52647e-01  4.70568e-01 
 2.26968e-01  4.65678e-01 
 2.01419e-01  4.61335e-01 
 1.75992e-01  4.57529e-01 
 1.50663e-01  4.54248e-01 
 1.25424e-01  4.51486e-01 
 1.00253e-01  4.49234e-01 
 7.51427e-02  4.47490e-01 
 5.00701e-02  4.46246e-01 
 2.50305e-02  4.45501e-01 
-1.82388e-13  4.45253e-01 
-2.50305e-02  4.45501e-01 
-5.00701e-02  4.46246e-01 
-7.51427e-02  4.47490e-01 
-1.00253e-01  4.49234e-01 
-1.25424e-01  4.51486e-01 
-1.50663e-01  4.54248e-01 
-1.75992e-01  4.57529e-01 
-2.01419e-01  4.61335e-01 
-2.26968e-01  4.65678e-01 
-2.52647e-01  4.70568e-01 
-2.78482e-01  4.76017e-01 
-3.04482e-01  4.82038e-01 
-3.30675e-01  4.88649e-01 
-3.57072e-01  4.95864e-01 
-3.83703e-01  5.03705e-01 
-4.10581e-01  5.12190e-01 
-4.37740e-01  5.21344e-01 
-4.65195e-01  5.31190e-01 
-4.92985e-01  5.41757e-01 
-5.21128e-01  5.53071e-01 
-5.49667e-01  5.65168e-01 
-5.78627e-01  5.78077e-01 
-6.08058e-01  5.91842e-01 
-6.37988e-01  6.06496e-01 
-6.68477e-01  6.22089e-01 
-6.99562e-01  6.38661e-01 
-7.31313e-01  6.56267e-01 
-7.63778e-01  6.74954e-01 
-7.97038e-01  6.94787e-01 
-8.31159e-01  7.15817e-01 
-8.66238e-01  7.38116e-01 
-9.02357e-01  7.61743e-01 
-9.39638e-01  7.86776e-01 
-9.78186e-01  8.13277e-01 
-1.01815e+00  8.41329e-01 
-1.05967e+00  8.70993e-01 
-1.10291e+00  9.02352e-01 
-1.14806e+00  9.35456e-01 
-1.19534e+00  9.70374e-01 
-1.24493e+00  1.00713e+00 
-1.29710e+00  1.04576e+00 
-1.35206e+00  1.08622e+00 
-1.41004e+00  1.12848e+00 
-1.47120e+00  1.17240e+00 
-1.53565e+00  1.21779e+00 
-1.60331e+00  1.26437e+00 
-1.67392e+00  1.31182e+00 
-1.74706e+00  1.35978e+00 
-1.82265e+00  1.40826e+00 
 2.26071e+00  1.73401e+00 
 2.18144e+00  1.68695e+00 
 2.10380e+00  1.64045e+00 
 2.02801e+00  1.59462e+00 
 1.95425e+00  1.54957e+00 
 1.88261e+00  1.50538e+00 
 1.81323e+00  1.46222e+00 
 1.74612e+00  1.42017e+00 
 1.68133e+00  1.37938e+00 
 1.61877e+00  1.33991e+00 
 1.55841e+00  1.30184e+00 
 1.50012e+00  1.26520e+00 
 1.44382e+00  1.23002e+00 
 1.38935e+00  1.19630e+00 
 1.33664e+00  1.16404e+00 
 1.28553e+00  1.13321e+00 
 1.23594e+00  1.10380e+00 
 1.18774e+00  1.07576e+00 
 1.14084e+00  1.04907e+00 
 1.09513e+00  1.02368e+00 
 1.05055e+00  9.99561e-01 
 1.00698e+00  9.76658e-01 
 9.64377e-01  9.54939e-01 
 9.22644e-01  9.34357e-01 
 8.81735e-01  9.14879e-01 
 8.41572e-01  8.96460e-01 
 8.02115e-01  8.79068e-01 
 7.63296e-01  8.62661e-01 
 7.25082e-01  8.47211e-01 
 6.87412e-01  8.32681e-01 
 6.50259e-01  8.19045e-01 
 6.13571e-01  8.06269e-01 
 5.77323e-01  7.94330e-01 
 5.41468e-01  7.83200e-01 
 5.05986e-01  7.72859e-01 
 4.70835e-01  7.63281e-01 
 4.35998e-01  7.54449e-01 
 4.01434e-01  7.46342e-01 
 3.67131e-01  7.38945e-01 
 3.33051e-01  7.32241e-01 
 2.99183e-01  7.26217e-01 
 2.65490e-01  7.20860e-01 
 2.31964e-01  7.16159e-01 
 1.98570e-01  7.12104e-01 
 1.65301e-01  7.08688e-01 
 1.32122e-01  7.05901e-01 
 9.90275e-02  7.03740e-01 
 6.59842e-02  7.02200e-01 
 3.29858e-02  7.01277e-01 
-2.38992e-13  7.00969e-01 
-3.29858e-02  7.01277e-01 
-6.59842e-02  7.02200e-01 
-9.90275e-02  7.03740e-01 
-1.32122e-01  7.05901e-01 
-1.65301e-01  7.08688e-01 
-1.98570e-01  7.12104e-01 
-2.31964e-01  7.16159e-01 
-2.65490e-01  7.20860e-01 
-2.99183e-01  7.26217e-01 
-3.33051e-01  7.32241e-01 
-3.67131e-01  7.38945e-01 
-4.01434e-01  7.46342e-01 
-4.35998e-01  7.54449e-01 
-4.70835e-01  7.63281e-01 
-5.05986e-01  7.72859e-01 
-5.41468e-01  7.83200e-01 
-5.77323e-01  7.94330e-01 
-6.13571e-01  8.06269e-01 
-6.50259e-01  8.19045e-01 
-6.87412e-01  8.32681e-01 
-7.25082e-01  8.47211e-01 
-7.63296e-01  8.62661e-01 
-8.02115e-01  8.79068e-01 
-8.41572e-01  8.96460e-01 
-8.81735e-01  9.14879e-01 
-9.22644e-01  9.34357e-01 
-9.64377e-01  9.54939e-01 
-1.00698e+00  9.76658e-01 
-1.05055e+00  9.99561e-01 
-1.09513e+00  1.02368e+00 
-1.14084e+00  1.04907e+00 
-1.18774e+00  1.07576e+00 
-1.23594e+00  1.10380e+00 
-1.28553e+00  1.13321e+00 
-1.33664e+00  1.16404e+00 
-1.38935e+00  1.19630e+00 
-1.44382e+00  1.23002e+00 
-1.50012e+00  1.26520e+00 
-1.55841e+00  1.30184e+00 
-1.61877e+00  1.33991e+00 
-1.68133e+00  1.37938e+00 
-1.74612e+00  1.42017e+00 
-1.81323e+00  1.46222e+00 
-1.88261e+00  1.50538e+00 
-1.95425e+00  1.54957e+00 
-2.02801e+00  1.59462e+00 
-2.10380e+00  1.64045e+00 
-2.18144e+00  1.68695e+00 
-2.26071e+00  1.73401e+00 
 2.68863e+00  2.07742e+00 
 2.60396e+00  2.03143e+00 
 2.52066e+00  1.98613e+00 
 2.43883e+00  1.94152e+00 
 2.35860e+00  1.89767e+00 
 2.28003e+00  1.85464e+00 
 2.20322e+00  1.81248e+00 
 2.12819e+00  1.77126e+00 
 2.05500e+00  1.73106e+00 
 1.98363e+00  1.69190e+00 
 1.91408e+00  1.65387e+00 
 1.84630e+00  1.61698e+00 
 1.78028e+00  1.58130e+00 
 1.71592e+00  1.54683e+00 
 1.65319e+00  1.51359e+00 
 1.59199e+00  1.48159e+00 
 1.53227e+00  1.45084e+00 
 1.47394e+00  1.42131e+00 
 1.41694e+00  1.39302e+00 
 1.36117e+00  1.36593e+00 
 1.30659e+00  1.34003e+00 
 1.25309e+00  1.31530e+00 
 1.20065e+00  1.29171e+00 
 1.14916e+00  1.26925e+00 
 1.09860e+00  1.24789e+00 
 1.04887e+00  1.22759e+00 
 9.99953e-01  1.20834e+00 
 9.51768e-01  1.19012e+00 
 9.04286e-01  1.17288e+00 
 8.57440e-01  1.15662e+00 
 8.11205e-01  1.14131e+00 
 7.65519e-01  1.12692e+00 
 7.20360e-01  1.11343e+00 
 6.75672e-01  1.10083e+00 
 6.31435e-01  1.08908e+00 
 5.87597e-01  1.07818e+00 
 5.44143e-01  1.06811e+00 
 5.01021e-01  1.05885e+00 
 4.58220e-01  1.05039e+00 
 4.15692e-01  1.04270e+00 
 3.73425e-01  1.03579e+00 
 3.31375e-01  1.02963e+00 
 2.89531e-01  1.02422e+00 
 2.47851e-01  1.01955e+00 
 2.06326e-01  1.01561e+00 
 1.64913e-01  1.01240e+00 
 1.23605e-01  1.00990e+00 
 8.23607e-02  1.00813e+00 
 4.11725e-02  1.00706e+00 
-2.97086e-13  1.00670e+00 
-4.11725e-02  1.00706e+00 
-8.23607e-02  1.00813e+00 
-1.23605e-01  1.00990e+00 
-1.64913e-01  1.01240e+00 
-2.06326e-01  1.01561e+00 
-2.47851e-01  1.01955e+00 
-2.89531e-01  1.02422e+00 
-3.31375e-01  1.02963e+00 
-3.73425e-01  1.03579e+00 
-4.15692e-01  1.04270e+00 
-4.58220e-01  1.05039e+00 
-5.01021e-01  1.05885e+00 
-5.44143e-01  1.06811e+00 
-5.87597e-01  1.07818e+00 
-6.31435e-01  1.08908e+00 
-6.75672e-01  1.10083e+00 
-7.20360e-01  1.11343e+00 
-7.65519e-01  1.12692e+00 
-8.11205e-01  1.14131e+00 
-8.57440e-01  1.15662e+00 
-9.04286e-01  1.17288e+00 
-9.51768e-01  1.19012e+00 
-9.99953e-01  1.20834e+00 
-1.04887e+00  1.22759e+00 
-1.09860e+00  1.24789e+00 
-1.14916e+00  1.26925e+00 
-1.20065e+00  1.29171e+00 
-1.25309e+00  1.31530e+00 
-1.30659e+00  1.34003e+00 
-1.36117e+00  1.36593e+00 
-1.41694e+00  1.39302e+00 
-1.47394e+00  1.42131e+00 
-1.53227e+00  1.45084e+00 
-1.59199e+00  1.48159e+00 
-1.65319e+00  1.51359e+00 
-1.71592e+00  1.54683e+00 
-1.78028e+00  1.58130e+00 
-1.84630e+00  1.61698e+00 
-1.91408e+00  1.65387e+00 
-1.98363e+00  1.69190e+00 
-2.05500e+00  1.73106e+00 
-2.12819e+00  1.77126e+00 
-2.20322e+00  1.81248e+00 
-2.28003e+00  1.85464e+00 
-2.35860e+00  1.89767e+00 
-2.43883e+00  1.94152e+00 
-2.52066e+00  1.98613e+00 
-2.60396e+00  2.03143e+00 
-2.68863e+00  2.07742e+00 
 3.10795e+00  2.44485e+00 
 3.01691e+00  2.39982e+00 
 2.92713e+00  2.35553e+00 
 2.83866e+00  2.31199e+00 
 2.75159e+00  2.26922e+00 
 2.66596e+00  2.22724e+00 
 2.58183e+00  2.18610e+00 
 2.49922e+00  2.14582e+00 
 2.41817e+00  2.10644e+00 
 2.33867e+00  2.06800e+00 
 2.26075e+00  2.03053e+00 
 2.18437e+00  1.99405e+00 
 2.10954e+00  1.95861e+00 
 2.03620e+00  1.92422e+00 
 1.96435e+00  1.89090e+00 
 1.89391e+00  1.85866e+00 
 1.82487e+00  1.82753e+00 
 1.75715e+00  1.79750e+00 
 1.69073e+00  1.76857e+00 
 1.62551e+00  1.74075e+00 
 1.56148e+00  1.71402e+00 
 1.49855e+00  1.68839e+00 
 1.43669e+00  1.66384e+00 
 1.37582e+00  1.64036e+00 
 1.31592e+00  1.61793e+00 
 1.25691e+00  1.59655e+00 
 1.19875e+00  1.57620e+00 
 1.14138e+00  1.55686e+00 
 1.08478e+00  1.53851e+00 
 1.02887e+00  1.52115e+00 
 9.73631e-01  1.50475e+00 
 9.19000e-01  1.48929e+00 
 8.64957e-01  1.47477e+00 
 8.11440e-01  1.46117e+00 
 7.58431e-01  1.44847e+00 
 7.05874e-01  1.43665e+00 
 6.53751e-01  1.42572e+00 
 6.02008e-01  1.41564e+00 
 5.50630e-01  1.40642e+00 
 4.99566e-01  1.39803e+00 
 4.48803e-01  1.39047e+00 
 3.98289e-01  1.38374e+00 
 3.48014e-01  1.37781e+00 
 2.97927e-01  1.37269e+00 
 2.48021e-01  1.36837e+00 
 1.98245e-01  1.36484e+00 
 1.48591e-01  1.36211e+00 
 9.90111e-02  1.36015e+00 
 4.94965e-02  1.35898e+00 
-3.55617e-13  1.35859e+00 
-4.94965e-02  1.35898e+00 
-9.90111e-02  1.36015e+00 
-1.48591e-01  1.36211e+00 
-1.98245e-01  1.36484e+00 
-2.48021e-01  1.36837e+00 
-2.97927e-01  1.37269e+00 
-3.48014e-01  1.37781e+00 
-3.98289e-01  1.38374e+00 
-4.48803e-01  1.39047e+00 
-4.99566e-01  1.39803e+00 
-5.50630e-01  1.40642e+00 
-6.02008e-01  1.41564e+00 
-6.53751e-01  1.42572e+00 
-7.05874e-01  1.43665e+00 
-7.58431e-01  1.44847e+00 
-8.11440e-01  1.46117e+00 
-8.64957e-01  1.47477e+00 
-9.19000e-01  1.48929e+00 
-9.73631e-01  1.50475e+00 
-1.02887e+00  1.52115e+00 
-1.08478e+00  1.53851e+00 
-1.14138e+00  1.55686e+00 
-1.19875e+00  1.57620e+00 
-1.25691e+00  1.59655e+00 
-1.31592e+00  1.61793e+00 
-1.37582e+00  1.64036e+00 
-1.43669e+00  1.66384e+00 
-1.49855e+00  1.68839e+00 
-1.56148e+00  1.71402e+00 
-1.62551e+00  1.74075e+00 
-1.69073e+00  1.76857e+00 
-1.75715e+00  1.79750e+00 
-1.82487e+00  1.82753e+00 
-1.89391e+00  1.85866e+00 
-1.96435e+00  1.89090e+00 
-2.03620e+00  1.92422e+00 
-2.10954e+00  1.95861e+00 
-2.18437e+00  1.99405e+00 
-2.26075e+00  2.03053e+00 
-2.33867e+00  2.06800e+00 
-2.41817e+00  2.10644e+00 
-2.49922e+00  2.14582e+00 
-2.58183e+00  2.18610e+00 
-2.66596e+00  2.22724e+00 
-2.75159e+00  2.26922e+00 
-2.83866e+00  2.31199e+00 
-2.92713e+00  2.35553e+00 
-3.01691e+00  2.39982e+00 
-3.10795e+00  2.44485e+00 
 3.51905e+00  2.83981e+00 
 3.42106e+00  2.79569e+00 
 3.32431e+00  2.75236e+00 
 3.22881e+00  2.70980e+00 
 3.13463e+00  2.66804e+00 
 3.04177e+00  2.62706e+00 
 2.95028e+00  2.58691e+00 
 2.86016e+00  2.54758e+00 
 2.77145e+00  2.50911e+00 
 2.68414e+00  2.47151e+00 
 2.59824e+00  2.43481e+00 
 2.51373e+00  2.39901e+00 
 2.43063e+00  2.36415e+00 
 2.34889e+00  2.33024e+00 
 2.26851e+00  2.29731e+00 
 2.18945e+00  2.26535e+00 
 2.11169e+00  2.23439e+00 
 2.03517e+00  2.20442e+00 
 1.95988e+00  2.17548e+00 
 1.88576e+00  2.14754e+00 
 1.81279e+00  2.12062e+00 
 1.74090e+00  2.09471e+00 
 1.67007e+00  2.06982e+00 
 1.60022e+00  2.04594e+00 
 1.53135e+00  2.02307e+00 
 1.46338e+00  2.00119e+00 
 1.39628e+00  1.98031e+00 
 1.33000e+00  1.96041e+00 
 1.26451e+00  1.94149e+00 
 1.19974e+00  1.92353e+00 
 1.13568e+00  1.90653e+00 
 1.07225e+00  1.89047e+00 
 1.00946e+00  1.87535e+00 
 9.47217e-01  1.86116e+00 
 8.85525e-01  1.84788e+00 
 8.24316e-01  1.83551e+00 
 7.63577e-01  1.82403e+00 
 7.03249e-01  1.81345e+00 
 6.43320e-01  1.80374e+00 
 5.83731e-01  1.79491e+00 
 5.24471e-01  1.78694e+00 
 4.65484e-01  1.77983e+00 
 4.06760e-01  1.77357e+00 
 3.48243e-01  1.76815e+00 
 2.89925e-01  1.76358e+00 
 2.31750e-01  1.75984e+00 
 1.73710e-01  1.75694e+00 
 1.15752e-01  1.75487e+00 
 5.78662e-02  1.75363e+00 
-4.09892e-13  1.75322e+00 
-5.78662e-02  1.75363e+00 
-1.15752e-01  1.75487e+00 
-1.73710e-01  1.75694e+00 
-2.31750e-01  1.75984e+00 
-2.89925e-01  1.76358e+00 
-3.48243e-01  1.76815e+00 
-4.06760e-01  1.77357e+00 
-4.65484e-01  1.77983e+00 
-5.24471e-01  1.78694e+00 
-5.83731e-01  1.79491e+00 
-6.43320e-01  1.80374e+00 
-7.03249e-01  1.81345e+00 
-7.63577e-01  1.82403e+00 
-8.24316e-01  1.83551e+00 
-8.85525e-01  1.84788e+00 
-9.47217e-01  1.86116e+00 
-1.00946e+00  1.87535e+00 
-1.07225e+00  1.89047e+00 
-1.13568e+00  1.90653e+00 
-1.19974e+00  1.92353e+00 
-1.26451e+00  1.94149e+00 
-1.33000e+00  1.96041e+00 
-1.39628e+00  1.98031e+00 
-1.46338e+00  2.00119e+00 
-1.53135e+00  2.02307e+00 
-1.60022e+00  2.04594e+00 
-1.67007e+00  2.06982e+00 
-1.74090e+00  2.09471e+00 
-1.81279e+00  2.12062e+00 
-1.88576e+00  2.14754e+00 
-1.95988e+00  2.17548e+00 
-2.03517e+00  2.20442e+00 
-2.11169e+00  2.23439e+00 
-2.18945e+00  2.26535e+00 
-2.26851e+00  2.29731e+00 
-2.34889e+00  2.33024e+00 
-2.43063e+00  2.36415e+00 
-2.51373e+00  2.39901e+00 
-2.59824e+00  2.43481e+00 
-2.68414e+00  2.47151e+00 
-2.77145e+00  2.50911e+00 
-2.86016e+00  2.54758e+00 
-2.95028e+00  2.58691e+00 
-3.04177e+00  2.62706e+00 
-3.13463e+00  2.66804e+00 
-3.22881e+00  2.70980e+00 
-3.32431e+00  2.75236e+00 
-3.42106e+00  2.79569e+00 
-3.51905e+00  2.83981e+00 
 3.92193e+00  3.26425e+00 
 3.81668e+00  3.22105e+00 
 3.71268e+00  3.17867e+00 
 3.60991e+00  3.13707e+00 
 3.50844e+00  3.09627e+00 
 3.40823e+00  3.05627e+00 
 3.30933e+00  3.01709e+00 
 3.21173e+00  2.97871e+00 
 3.11545e+00  2.94117e+00 
 3.02047e+00  2.90446e+00 
 2.92682e+00  2.86861e+00 
 2.83446e+00  2.83361e+00 
 2.74340e+00  2.79950e+00 
 2.65361e+00  2.76627e+00 
 2.56510e+00  2.73395e+00 
 2.47782e+00  2.70253e+00 
 2.39176e+00  2.67205e+00 
 2.30688e+00  2.64249e+00 
 2.22317e+00  2.61387e+00 
 2.14058e+00  2.58619e+00 
 2.05909e+00  2.55947e+00 
 1.97864e+00  2.53370e+00 
 1.89923e+00  2.50888e+00 
 1.82079e+00  2.48502e+00 
 1.74330e+00  2.46212e+00 
 1.66670e+00  2.44016e+00 
 1.59099e+00  2.41916e+00 
 1.51608e+00  2.39911e+00 
 1.44197e+00  2.38000e+00 
 1.36859e+00  2.36184e+00 
 1.29593e+00  2.34460e+00 
 1.22393e+00  2.32830e+00 
 1.15257e+00  2.31292e+00 
 1.08178e+00  2.29846e+00 
 1.01156e+00  2.28492e+00 
 9.41837e-01  2.27227e+00 
 8.72608e-01  2.26054e+00 
 8.03807e-01  2.24969e+00 
 7.35425e-01  2.23974e+00 
 6.67399e-01  2.23067e+00 
 5.99721e-01  2.22248e+00 
 5.32330e-01  2.21516e+00 
 4.65218e-01  2.20872e+00 
 3.98325e-01  2.20314e+00 
 3.31642e-01  2.19842e+00 
 2.65112e-01  2.19457e+00 
 1.98726e-01  2.19158e+00 
 1.32425e-01  2.18944e+00 
 6.62025e-02  2.18816e+00 
-4.58564e-13  2.18773e+00 
-6.62025e-02  2.18816e+00 
-1.32425e-01  2.18944e+00 
-1.98726e-01  2.19158e+00 
-2.65112e-01  2.19457e+00 
-3.31642e-01  2.19842e+00 
-3.98325e-01  2.20314e+00 
-4.65218e-01  2.20872e+00 
-5.32330e-01  2.21516e+00 
-5.99721e-01  2.22248e+00 
-6.67399e-01  2.23067e+00 
-7.35425e-01  2.23974e+00 
-8.03807e-01  2.24969e+00 
-8.72608e-01  2.26054e+00 
-9.41837e-01  2.27227e+00 
-1.01156e+00  2.28492e+00 
-1.08178e+00  2.29846e+00 
-1.15257e+00  2.31292e+00 
-1.22393e+00  2.32830e+00 
-1.29593e+00  2.34460e+00 
-1.36859e+00  2.36184e+00 
-1.44197e+00  2.38000e+00 
-1.51608e+00  2.39911e+00 
-1.59099e+00  2.41916e+00 
-1.66670e+00  2.44016e+00 
-1.74330e+00  2.46212e+00 
-1.82079e+00  2.48502e+00 
-1.89923e+00  2.50888e+00 
-1.97864e+00  2.53370e+00 
-2.05909e+00  2.55947e+00 
-2.14058e+00  2.58619e+00 
-2.22317e+00  2.61387e+00 
-2.30688e+00  2.64249e+00 
-2.39176e+00  2.67205e+00 
-2.47782e+00  2.70253e+00 
-2.56510e+00  2.73395e+00 
-2.65361e+00  2.76627e+00 
-2.74340e+00  2.79950e+00 
-2.83446e+00  2.83361e+00 
-2.92682e+00  2.86861e+00 
-3.02047e+00  2.90446e+00 
-3.11545e+00  2.94117e+00 
-3.21173e+00  2.97871e+00 
-3.30933e+00  3.01709e+00 
-3.40823e+00  3.05627e+00 
-3.50844e+00  3.09627e+00 
-3.60991e+00  3.13707e+00 
-3.71268e+00  3.17867e+00 
-3.81668e+00  3.22105e+00 
-3.92193e+00  3.26425e+00 
 4.31639e+00  3.71920e+00 
 4.20373e+00  3.67695e+00 
 4.09234e+00  3.63551e+00 
 3.98220e+00  3.59487e+00 
 3.87334e+00  3.55504e+00 
 3.76573e+00  3.51600e+00 
 3.65941e+00  3.47777e+00 
 3.55434e+00  3.44035e+00 
 3.45056e+00  3.40374e+00 
 3.34802e+00  3.36794e+00 
 3.24675e+00  3.33297e+00 
 3.14671e+00  3.29883e+00 
 3.04792e+00  3.26553e+00 
 2.95032e+00  3.23308e+00 
 2.85395e+00  3.20150e+00 
 2.75874e+00  3.17077e+00 
 2.66470e+00  3.14092e+00 
 2.57178e+00  3.11195e+00 
 2.47999e+00  3.08387e+00 
 2.38926e+00  3.05668e+00 
 2.29959e+00  3.03039e+00 
 2.21093e+00  3.00500e+00 
 2.12328e+00  2.98052e+00 
 2.03656e+00  2.95694e+00 
 1.95078e+00  2.93428e+00 
 1.86587e+00  2.91253e+00 
 1.78183e+00  2.89169e+00 
 1.69859e+00  2.87176e+00 
 1.61613e+00  2.85275e+00 
 1.53441e+00  2.83464e+00 
 1.45340e+00  2.81745e+00 
 1.37305e+00  2.80116e+00 
 1.29334e+00  2.78577e+00 
 1.21422e+00  2.77129e+00 
 1.13566e+00  2.75770e+00 
 1.05762e+00  2.74501e+00 
 9.80069e-01  2.73321e+00 
 9.02958e-01  2.72230e+00 
 8.26275e-01  2.71228e+00 
 7.49956e-01  2.70314e+00 
 6.73995e-01  2.69488e+00 
 5.98328e-01  2.68749e+00 
 5.22949e-01  2.68099e+00 
 4.47793e-01  2.67535e+00 
 3.72857e-01  2.67059e+00 
 2.98076e-01  2.66669e+00 
 2.23446e-01  2.66366e+00 
 1.48902e-01  2.66150e+00 
 7.44416e-02  2.66020e+00 
-5.05338e-13  2.65977e+00 
-7.44416e-02  2.66020e+00 
-1.48902e-01  2.66150e+00 
-2.23446e-01  2.66366e+00 
-2.98076e-01  2.66669e+00 
-3.72857e-01  2.67059e+00 
-4.47793e-01  2.67535e+00 
-5.22949e-01  2.68099e+00 
-5.98328e-01  2.68749e+00 
-6.73995e-01  2.69488e+00 
-7.49956e-01  2.70314e+00 
-8.26275e-01  2.71228e+00 
-9.02958e-01  2.72230e+00 
-9.80069e-01  2.73321e+00 
-1.05762e+00  2.74501e+00 
-1.13566e+00  2.75770e+00 
-1.21422e+00  2.77129e+00 
-1.29334e+00  2.78577e+00 
-1.37305e+00  2.80116e+00 
-1.45340e+00  2.81745e+00 
-1.53441e+00  2.83464e+00 
-1.61613e+00  2.85275e+00 
-1.69859e+00  2.87176e+00 
-1.78183e+00  2.89169e+00 
-1.86587e+00  2.91253e+00 
-1.95078e+00  2.93428e+00 
-2.03656e+00  2.95694e+00 
-2.12328e+00  2.98052e+00 
-2.21093e+00  3.00500e+00 
-2.29959e+00  3.03039e+00 
-2.38926e+00  3.05668e+00 
-2.47999e+00  3.08387e+00 
-2.57178e+00  3.11195e+00 
-2.66470e+00  3.14092e+00 
-2.75874e+00  3.17077e+00 
-2.85395e+00  3.20150e+00 
-2.95032e+00  3.23308e+00 
-3.04792e+00  3.26553e+00 
-3.14671e+00  3.29883e+00 
-3.24675e+00  3.33297e+00 
-3.34802e+00  3.36794e+00 
-3.45056e+00  3.40374e+00 
-3.55434e+00  3.44035e+00 
-3.65941e+00  3.47777e+00 
-3.76573e+00  3.51600e+00 
-3.87334e+00  3.55504e+00 
-3.98220e+00  3.59487e+00 
-4.09234e+00  3.63551e+00 
-4.20373e+00  3.67695e+00 
-4.31639e+00  3.71920e+00 
 4.70213e+00  4.20501e+00 
 4.58201e+00  4.16373e+00 
 4.46320e+00  4.12326e+00 
 4.34565e+00  4.08359e+00 
 4.22940e+00  4.04472e+00 
 4.11440e+00  4.00664e+00 
 4.00069e+00  3.96937e+00 
 3.88820e+00  3.93289e+00 
 3.77698e+00  3.89721e+00 
 3.66697e+00  3.86233e+00 
 3.55821e+00  3.82827e+00 
 3.45063e+00  3.79500e+00 
 3.34426e+00  3.76256e+00 
 3.23905e+00  3.73094e+00 
 3.13502e+00  3.70014e+00 
 3.03211e+00  3.67018e+00 
 2.93033e+00  3.64106e+00 
 2.82963e+00  3.61277e+00 
 2.73002e+00  3.58534e+00 
 2.63143e+00  3.55876e+00 
 2.53387e+00  3.53304e+00 
 2.43728e+00  3.50819e+00 
 2.34167e+00  3.48420e+00 
 2.24697e+00  3.46108e+00 
 2.15318e+00  3.43883e+00 
 2.06024e+00  3.41746e+00 
 1.96815e+00  3.39696e+00 
 1.87684e+00  3.37734e+00 
 1.78632e+00  3.35861e+00 
 1.69650e+00  3.34075e+00 
 1.60740e+00  3.32377e+00 
 1.51894e+00  3.30767e+00 
 1.43112e+00  3.29246e+00 
 1.34388e+00  3.27812e+00 
 1.25722e+00  3.26466e+00 
 1.17105e+00  3.25207e+00 
 1.08539e+00  3.24037e+00 
 1.00017e+00  3.22953e+00 
 9.15371e-01  3.21957e+00 
 8.30940e-01  3.21048e+00 
 7.46872e-01  3.20227e+00 
 6.63098e-01  3.19492e+00 
 5.79616e-01  3.18844e+00 
 4.96359e-01  3.18282e+00 
 4.13326e-01  3.17807e+00 
 3.30448e-01  3.17419e+00 
 2.47724e-01  3.17117e+00 
 1.65086e-01  3.16901e+00 
 8.25341e-02  3.16772e+00 
-5.47286e-13  3.16729e+00 
-8.25341e-02  3.16772e+00 
-1.65086e-01  3.16901e+00 
-2.47724e-01  3.17117e+00 
-3.30448e-01  3.17419e+00 
-4.13326e-01  3.17807e+00 
-4.96359e-01  3.18282e+00 
-5.79616e-01  3.18844e+00 
-6.63098e-01  3.19492e+00 
-7.46872e-01  3.20227e+00 
-8.30940e-01  3.21048e+00 
-9.15371e-01  3.21957e+00 
-1.00017e+00  3.22953e+00 
-1.08539e+00  3.24037e+00 
-1.17105e+00  3.25207e+00 
-1.25722e+00  3.26466e+00 
-1.34388e+00  3.27812e+00 
-1.43112e+00  3.29246e+00 
-1.51894e+00  3.30767e+00 
-1.60740e+00  3.32377e+00 
-1.69650e+00  3.34075e+00 
-1.78632e+00  3.35861e+00 
-1.87684e+00  3.37734e+00 
-1.96815e+00  3.39696e+00 
-2.06024e+00  3.41746e+00 
-2.15318e+00  3.43883e+00 
-2.24697e+00  3.46108e+00 
-2.34167e+00  3.48420e+00 
-2.43728e+00  3.50819e+00 
-2.53387e+00  3.53304e+00 
-2.63143e+00  3.55876e+00 
-2.73002e+00  3.58534e+00 
-2.82963e+00  3.61277e+00 
-2.93033e+00  3.64106e+00 
-3.03211e+00  3.67018e+00 
-3.13502e+00  3.70014e+00 
-3.23905e+00  3.73094e+00 
-3.34426e+00  3.76256e+00 
-3.45063e+00  3.79500e+00 
-3.55821e+00  3.82827e+00 
-3.66697e+00  3.86233e+00 
-3.77698e+00  3.89721e+00 
-3.88820e+00  3.93289e+00 
-4.00069e+00  3.96937e+00 
-4.11440e+00  4.00664e+00 
-4.22940e+00  4.04472e+00 
-4.34565e+00  4.08359e+00 
-4.46320e+00  4.12326e+00 
-4.58201e+00  4.16373e+00 
-4.70213e+00  4.20501e+00 
 5.07888e+00  4.72169e+00 
 4.95134e+00  4.68140e+00 
 4.82515e+00  4.64192e+00 
 4.70024e+00  4.60323e+00 
 4.57664e+00  4.56533e+00 
 4.45430e+00  4.52822e+00 
 4.33324e+00  4.49191e+00 
 4.21342e+00  4.45637e+00 
 4.09485e+00  4.42163e+00 
 3.97747e+00  4.38768e+00 
 3.86133e+00  4.35452e+00 
 3.74635e+00  4.32214e+00 
 3.63256e+00  4.29057e+00 
 3.51990e+00  4.25979e+00 
 3.40839e+00  4.22982e+00 
 3.29797e+00  4.20066e+00 
 3.18866e+00  4.17230e+00 
 3.08039e+00  4.14476e+00 
 2.97318e+00  4.11805e+00 
 2.86696e+00  4.09215e+00 
 2.76175e+00  4.06708e+00 
 2.65748e+00  4.04284e+00 
 2.55417e+00  4.01943e+00 
 2.45173e+00  3.99686e+00 
 2.35019e+00  3.97514e+00 
 2.24948e+00  3.95425e+00 
 2.14959e+00  3.93422e+00 
 2.05047e+00  3.91502e+00 
 1.95212e+00  3.89668e+00 
 1.85446e+00  3.87919e+00 
 1.75751e+00  3.86255e+00 
 1.66119e+00  3.84676e+00 
 1.56550e+00  3.83183e+00 
 1.47038e+00  3.81775e+00 
 1.37582e+00  3.80453e+00 
 1.28177e+00  3.79216e+00 
 1.18821e+00  3.78064e+00 
 1.09508e+00  3.76998e+00 
 1.00238e+00  3.76018e+00 
 9.10044e-01  3.75123e+00 
 8.18069e-01  3.74313e+00 
 7.26385e-01  3.73589e+00 
 6.34994e-01  3.72950e+00 
 5.43826e-01  3.72396e+00 
 4.52882e-01  3.71928e+00 
 3.62092e-01  3.71544e+00 
 2.71458e-01  3.71246e+00 
 1.80909e-01  3.71033e+00 
 9.04461e-02  3.70906e+00 
-5.84863e-13  3.70863e+00 
-9.04461e-02  3.70906e+00 
-1.80909e-01  3.71033e+00 
-2.71458e-01  3.71246e+00 
-3.62092e-01  3.71544e+00 
-4.52882e-01  3.71928e+00 
-5.43826e-01  3.72396e+00 
-6.34994e-01  3.72950e+00 
-7.26385e-01  3.73589e+00 
-8.18069e-01  3.74313e+00 
-9.10044e-01  3.75123e+00 
-1.00238e+00  3.76018e+00 
-1.09508e+00  3.76998e+00 
-1.18821e+00  3.78064e+00 
-1.28177e+00  3.79216e+00 
-1.37582e+00  3.80453e+00 
-1.47038e+00  3.81775e+00 
-1.56550e+00  3.83183e+00 
-1.66119e+00  3.84676e+00 
-1.75751e+00  3.86255e+00 
-1.85446e+00  3.87919e+00 
-1.95212e+00  3.89668e+00 
-2.05047e+00  3.91502e+00 
-2.14959e+00  3.93422e+00 
-2.24948e+00  3.95425e+00 
-2.35019e+00  3.97514e+00 
-2.45173e+00  3.99686e+00 
-2.55417e+00  4.01943e+00 
-2.65748e+00  4.04284e+00 
-2.76175e+00  4.06708e+00 
-2.86696e+00  4.09215e+00 
-2.97318e+00  4.11805e+00 
-3.08039e+00  4.14476e+00 
-3.18866e+00  4.17230e+00 
-3.29797e+00  4.20066e+00 
-3.40839e+00  4.22982e+00 
-3.51990e+00  4.25979e+00 
-3.63256e+00  4.29057e+00 
-3.74635e+00  4.32214e+00 
-3.86133e+00  4.35452e+00 
-3.97747e+00  4.38768e+00 
-4.09485e+00  4.42163e+00 
-4.21342e+00  4.45637e+00 
-4.33324e+00  4.49191e+00 
-4.45430e+00  4.52822e+00 
-4.57664e+00  4.56533e+00 
-4.70024e+00  4.60323e+00 
-4.82515e+00  4.64192e+00 
-4.95134e+00  4.68140e+00 
-5.07888e+00  4.72169e+00 
 5.44641e+00  5.26897e+00 
 5.31154e+00  5.22970e+00 
 5.17805e+00  5.19122e+00 
 5.04586e+00  5.15353e+00 
 4.91500e+00  5.11662e+00 
 4.78541e+00  5.08048e+00 
 4.65711e+00  5.04513e+00 
 4.53005e+00  5.01055e+00 
 4.40424e+00  4.97674e+00 
 4.27962e+00  4.94371e+00 
 4.15622e+00  4.91146e+00 
 4.03398e+00  4.87998e+00 
 3.91291e+00  4.84928e+00 
 3.79296e+00  4.81936e+00 
 3.67414e+00  4.79023e+00 
 3.55638e+00  4.76188e+00 
 3.43972e+00  4.73432e+00 
 3.32407e+00  4.70755e+00 
 3.20947e+00  4.68157e+00 
 3.09583e+00  4.65639e+00 
 2.98319e+00  4.63201e+00 
 2.87146e+00  4.60844e+00 
 2.76066e+00  4.58567e+00 
 2.65073e+00  4.56371e+00 
 2.54167e+00  4.54256e+00 
 2.43341e+00  4.52223e+00 
 2.32597e+00  4.50271e+00 
 2.21927e+00  4.48401e+00 
 2.11333e+00  4.46614e+00 
 2.00807e+00  4.44909e+00 
 1.90350e+00  4.43286e+00 
 1.79955e+00  4.41746e+00 
 1.69623e+00  4.40288e+00 
 1.59345e+00  4.38914e+00 
 1.49124e+00  4.37622e+00 
 1.38952e+00  4.36414e+00 
 1.28829e+00  4.35288e+00 
 1.18748e+00  4.34246e+00 
 1.08710e+00  4.33287e+00 
 9.87074e-01  4.32412e+00 
 8.87407e-01  4.31620e+00 
 7.88025e-01  4.30911e+00 
 6.88936e-01  4.30285e+00 
 5.90065e-01  4.29743e+00 
 4.91419e-01  4.29284e+00 
 3.92923e-01  4.28909e+00 
 2.94582e-01  4.28617e+00 
 1.96325e-01  4.28408e+00 
 9.81552e-02  4.28283e+00 
-6.20309e-13  4.28242e+00 
-9.81552e-02  4.28283e+00 
-1.96325e-01  4.28408e+00 
-2.94582e-01  4.28617e+00 
-3.92923e-01  4.28909e+00 
-4.91419e-01  4.29284e+00 
-5.90065e-01  4.29743e+00 
-6.88936e-01  4.30285e+00 
-7.88025e-01  4.30911e+00 
-8.87407e-01  4.31620e+00 
-9.87074e-01  4.32412e+00 
-1.08710e+00  4.33287e+00 
-1.18748e+00  4.34246e+00 
-1.28829e+00  4.35288e+00 
-1.38952e+00  4.36414e+00 
-1.49124e+00  4.37622e+00 
-1.59345e+00  4.38914e+00 
-1.69623e+00  4.40288e+00 
-1.79955e+00  4.41746e+00 
-1.90350e+00  4.43286e+00 
-2.00807e+00  4.44909e+00 
-2.11333e+00  4.46614e+00 
-2.21927e+00  4.48401e+00 
-2.32597e+00  4.50271e+00 
-2.43341e+00  4.52223e+00 
-2.54167e+00  4.54256e+00 
-2.65073e+00  4.56371e+00 
-2.76066e+00  4.58567e+00 
-2.87146e+00  4.60844e+00 
-2.98319e+00  4.63201e+00 
-3.09583e+00  4.65639e+00 
-3.20947e+00  4.68157e+00 
-3.32407e+00  4.70755e+00 
-3.43972e+00  4.73432e+00 
-3.55638e+00  4.76188e+00 
-3.67414e+00  4.79023e+00 
-3.79296e+00  4.81936e+00 
-3.91291e+00  4.84928e+00 
-4.03398e+00  4.87998e+00 
-4.15622e+00  4.91146e+00 
-4.27962e+00  4.94371e+00 
-4.40424e+00  4.97674e+00 
-4.53005e+00  5.01055e+00 
-4.65711e+00  5.04513e+00 
-4.78541e+00  5.08048e+00 
-4.91500e+00  5.11662e+00 
-5.04586e+00  5.15353e+00 
-5.17805e+00  5.19122e+00 
-5.31154e+00  5.22970e+00 
-5.44641e+00  5.26897e+00 
 5.80445e+00  5.84633e+00 
 5.66239e+00  5.80809e+00 
 5.52172e+00  5.77064e+00 
 5.38237e+00  5.73395e+00 
 5.24438e+00  5.69804e+00 
 5.10766e+00  5.66289e+00 
 4.97224e+00  5.62850e+00 
 4.83806e+00  5.59487e+00 
 4.70514e+00  5.56201e+00 
 4.57342e+00  5.52990e+00 
 4.44291e+00  5.49856e+00 
 4.31354e+00  5.46798e+00 
 4.18535e+00  5.43816e+00 
 4.05826e+00  5.40910e+00 
 3.93229e+00  5.38081e+00 
 3.80738e+00  5.35328e+00 
 3.68354e+00  5.32652e+00 
 3.56070e+00  5.30053e+00 
 3.43890e+00  5.27531e+00 
 3.31804e+00  5.25086e+00 
 3.19816e+00  5.22720e+00 
 3.07918e+00  5.20431e+00 
 2.96111e+00  5.18220e+00 
 2.84389e+00  5.16088e+00 
 2.72753e+00  5.14034e+00 
 2.61196e+00  5.12059e+00 
 2.49719e+00  5.10164e+00 
 2.38314e+00  5.08347e+00 
 2.26984e+00  5.06610e+00 
 2.15720e+00  5.04953e+00 
 2.04525e+00  5.03376e+00 
 1.93390e+00  5.01878e+00 
 1.82317e+00  5.00461e+00 
 1.71297e+00  4.99124e+00 
 1.60333e+00  4.97868e+00 
 1.49417e+00  4.96692e+00 
 1.38550e+00  4.95597e+00 
 1.27724e+00  4.94583e+00 
 1.16940e+00  4.93650e+00 
 1.06191e+00  4.92797e+00 
 9.54770e-01  4.92026e+00 
 8.47915e-01  4.91335e+00 
 7.41348e-01  4.90726e+00 
 6.34995e-01  4.90198e+00 
 5.28865e-01  4.89751e+00 
 4.22882e-01  4.89385e+00 
 3.17054e-01  4.89101e+00 
 2.11307e-01  4.88897e+00 
 1.05647e-01  4.88775e+00 
-6.48368e-13  4.88735e+00 
-1.05647e-01  4.88775e+00 
-2.11307e-01  4.88897e+00 
-3.17054e-01  4.89101e+00 
-4.22882e-01  4.89385e+00 
-5.28865e-01  4.89751e+00 
-6.34995e-01  4.90198e+00 
-7.41348e-01  4.90726e+00 
-8.47915e-01  4.91335e+00 
-9.54770e-01  4.92026e+00 
-1.06191e+00  4.92797e+00 
-1.16940e+00  4.93650e+00 
-1.27724e+00  4.94583e+00 
-1.38550e+00  4.95597e+00 
-1.49417e+00  4.96692e+00 
-1.60333e+00  4.97868e+00 
-1.71297e+00  4.99124e+00 
-1.82317e+00  5.00461e+00 
-1.93390e+00  5.01878e+00 
-2.04525e+00  5.03376e+00 
-2.15720e+00  5.04953e+00 
-2.26984e+00  5.06610e+00 
-2.38314e+00  5.08347e+00 
-2.49719e+00  5.10164e+00 
-2.61196e+00  5.12059e+00 
-2.72753e+00  5.14034e+00 
-2.84389e+00  5.16088e+00 
-2.96111e+00  5.18220e+00 
-3.07918e+00  5.20431e+00 
-3.19816e+00  5.22720e+00 
-3.31804e+00  5.25086e+00 
-3.43890e+00  5.27531e+00 
-3.56070e+00  5.30053e+00 
-3.68354e+00  5.32652e+00 
-3.80738e+00  5.35328e+00 
-3.93229e+00  5.38081e+00 
-4.05826e+00  5.40910e+00 
-4.18535e+00  5.43816e+00 
-4.31354e+00  5.46798e+00 
-4.44291e+00  5.49856e+00 
-4.57342e+00  5.52990e+00 
-4.70514e+00  5.56201e+00 
-4.83806e+00  5.59487e+00 
-4.97224e+00  5.62850e+00 
-5.10766e+00  5.66289e+00 
-5.24438e+00  5.69804e+00 
-5.38237e+00  5.73395e+00 
-5.52172e+00  5.77064e+00 
-5.66239e+00  5.80809e+00 
-5.80445e+00  5.84633e+00 
 6.15285e+00  6.45318e+00 
 6.00374e+00  6.41600e+00 
 5.85605e+00  6.37959e+00 
 5.70969e+00  6.34392e+00 
 5.56470e+00  6.30901e+00 
 5.42100e+00  6.27485e+00 
 5.27861e+00  6.24144e+00 
 5.13746e+00  6.20877e+00 
 4.99758e+00  6.17685e+00 
 4.85889e+00  6.14567e+00 
 4.72142e+00  6.11524e+00 
 4.58509e+00  6.08555e+00 
 4.44993e+00  6.05661e+00 
 4.31586e+00  6.02840e+00 
 4.18292e+00  6.00095e+00 
 4.05102e+00  5.97424e+00 
 3.92019e+00  5.94829e+00 
 3.79035e+00  5.92308e+00 
 3.66152e+00  5.89862e+00 
 3.53364e+00  5.87492e+00 
 3.40672e+00  5.85197e+00 
 3.28068e+00  5.82978e+00 
 3.15555e+00  5.80835e+00 
 3.03125e+00  5.78767e+00 
 2.90780e+00  5.76776e+00 
 2.78512e+00  5.74861e+00 
 2.66323e+00  5.73024e+00 
 2.54206e+00  5.71262e+00 
 2.42162e+00  5.69578e+00 
 2.30183e+00  5.67971e+00 
 2.18271e+00  5.66442e+00 
 2.06418e+00  5.64989e+00 
 1.94627e+00  5.63615e+00 
 1.82888e+00  5.62318e+00 
 1.71204e+00  5.61099e+00 
 1.59567e+00  5.59959e+00 
 1.47978e+00  5.58896e+00 
 1.36429e+00  5.57912e+00 
 1.24922e+00  5.57006e+00 
 1.13449e+00  5.56179e+00 
 1.02011e+00  5.55430e+00 
 9.06005e-01  5.54760e+00 
 7.92187e-01  5.54168e+00 
 6.78578e-01  5.53656e+00 
 5.65189e-01  5.53222e+00 
 4.51944e-01  5.52867e+00 
 3.38853e-01  5.52591e+00 
 2.25839e-01  5.52393e+00 
 1.12914e-01  5.52275e+00 
-6.73145e-13  5.52235e+00 
-1.12914e-01  5.52275e+00 
-2.25839e-01  5.52393e+00 
-3.38853e-01  5.52591e+00 
-4.51944e-01  5.52867e+00 
-5.65189e-01  5.53222e+00 
-6.78578e-01  5.53656e+00 
-7.92187e-01  5.54168e+00 
-9.06005e-01  5.54760e+00 
-1.02011e+00  5.55430e+00 
-1.13449e+00  5.56179e+00 
-1.24922e+00  5.57006e+00 
-1.36429e+00  5.57912e+00 
-1.47978e+00  5.58896e+00 
-1.59567e+00  5.59959e+00 
-1.71204e+00  5.61099e+00 
-1.82888e+00  5.62318e+00 
-1.94627e+00  5.63615e+00 
-2.06418e+00  5.64989e+00 
-2.18271e+00  5.66442e+00 
-2.30183e+00  5.67971e+00 
-2.42162e+00  5.69578e+00 
-2.54206e+00  5.71262e+00 
-2.66323e+00  5.73024e+00 
-2.78512e+00  5.74861e+00 
-2.90780e+00  5.76776e+00 
-3.03125e+00  5.78767e+00 
-3.15555e+00  5.80835e+00 
-3.28068e+00  5.82978e+00 
-3.40672e+00  5.85197e+00 
-3.53364e+00  5.87492e+00 
-3.66152e+00  5.89862e+00 
-3.79035e+00  5.92308e+00 
-3.92019e+00  5.94829e+00 
-4.05102e+00  5.97424e+00 
-4.18292e+00  6.00095e+00 
-4.31586e+00  6.02840e+00 
-4.44993e+00  6.05661e+00 
-4.58509e+00  6.08555e+00 
-4.72142e+00  6.11524e+00 
-4.85889e+00  6.14567e+00 
-4.99758e+00  6.17685e+00 
-5.13746e+00  6.20877e+00 
-5.27861e+00  6.24144e+00 
-5.42100e+00  6.27485e+00 
-5.56470e+00  6.30901e+00 
-5.70969e+00  6.34392e+00 
-5.85605e+00  6.37959e+00 
-6.00374e+00  6.41600e+00 
-6.15285e+00  6.45318e+00 
 6.49146e+00  7.08886e+00 
 6.33548e+00  7.05275e+00 
 6.18093e+00  7.01739e+00 
 6.02773e+00  6.98276e+00 
 5.87590e+00  6.94886e+00 
 5.72538e+00  6.91569e+00 
 5.57618e+00  6.88326e+00 
 5.42822e+00  6.85155e+00 
 5.28154e+00  6.82058e+00 
 5.13605e+00  6.79033e+00 
 4.99178e+00  6.76081e+00 
 4.84865e+00  6.73201e+00 
 4.70670e+00  6.70395e+00 
 4.56583e+00  6.67660e+00 
 4.42608e+00  6.64999e+00 
 4.28737e+00  6.62410e+00 
 4.14972e+00  6.59895e+00 
 4.01306e+00  6.57452e+00 
 3.87741e+00  6.55082e+00 
 3.74268e+00  6.52786e+00 
 3.60891e+00  6.50563e+00 
 3.47602e+00  6.48413e+00 
 3.34402e+00  6.46338e+00 
 3.21284e+00  6.44336e+00 
 3.08251e+00  6.42408e+00 
 2.95293e+00  6.40554e+00 
 2.82414e+00  6.38774e+00 
 2.69605e+00  6.37069e+00 
 2.56868e+00  6.35438e+00 
 2.44195e+00  6.33882e+00 
 2.31589e+00  6.32401e+00 
 2.19041e+00  6.30995e+00 
 2.06553e+00  6.29665e+00 
 1.94117e+00  6.28409e+00 
 1.81735e+00  6.27229e+00 
 1.69399e+00  6.26125e+00 
 1.57111e+00  6.25096e+00 
 1.44862e+00  6.24143e+00 
 1.32655e+00  6.23266e+00 
 1.20480e+00  6.22465e+00 
 1.08341e+00  6.21740e+00 
 9.62280e-01  6.21091e+00 
 8.41437e-01  6.20518e+00 
 7.20798e-01  6.20021e+00 
 6.00378e-01  6.19601e+00 
 4.80098e-01  6.19257e+00 
 3.59971e-01  6.18990e+00 
 2.39918e-01  6.18799e+00 
 1.19955e-01  6.18684e+00 
-7.03760e-13  6.18646e+00 
-1.19955e-01  6.18684e+00 
-2.39918e-01  6.18799e+00 
-3.59971e-01  6.18990e+00 
-4.80098e-01  6.19257e+00 
-6.00378e-01  6.19601e+00 
-7.20798e-01  6.20021e+00 
-8.41437e-01  6.20518e+00 
-9.62280e-01  6.21091e+00 
-1.08341e+00  6.21740e+00 
-1.20480e+00  6.22465e+00 
-1.32655e+00  6.23266e+00 
-1.44862e+00  6.24143e+00 
-1.57111e+00  6.25096e+00 
-1.69399e+00  6.26125e+00 
-1.81735e+00  6.27229e+00 
-1.94117e+00  6.28409e+00 
-2.06553e+00  6.29665e+00 
-2.19041e+00  6.30995e+00 
-2.31589e+00  6.32401e+00 
-2.44195e+00  6.33882e+00 
-2.56868e+00  6.35438e+00 
-2.69605e+00  6.37069e+00 
-2.82414e+00  6.38774e+00 
-2.95293e+00  6.40554e+00 
-3.08251e+00  6.42408e+00 
-3.21284e+00  6.44336e+00 
-3.34402e+00  6.46338e+00 
-3.47602e+00  6.48413e+00 
-3.60891e+00  6.50563e+00 
-3.74268e+00  6.52786e+00 
-3.87741e+00  6.55082e+00 
-4.01306e+00  6.57452e+00 
-4.14972e+00  6.59895e+00 
-4.28737e+00  6.62410e+00 
-4.42608e+00  6.64999e+00 
-4.56583e+00  6.67660e+00 
-4.70670e+00  6.70395e+00 
-4.84865e+00  6.73201e+00 
-4.99178e+00  6.76081e+00 
-5.13605e+00  6.79033e+00 
-5.28154e+00  6.82058e+00 
-5.42822e+00  6.85155e+00 
-5.57618e+00  6.88326e+00 
-5.72538e+00  6.91569e+00 
-5.87590e+00  6.94886e+00 
-6.02773e+00  6.98276e+00 
-6.18093e+00  7.01739e+00 
-6.33548e+00  7.05275e+00 
-6.49146e+00  7.08886e+00 
 6.82013e+00  7.75256e+00 
 6.65746e+00  7.71753e+00 
 6.49624e+00  7.68323e+00 
 6.33637e+00  7.64964e+00 
 6.17789e+00  7.61676e+00 
 6.02072e+00  7.58460e+00 
 5.86488e+00  7.55315e+00 
 5.71029e+00  7.52241e+00 
 5.55698e+00  7.49238e+00 
 5.40486e+00  7.46306e+00 
 5.25397e+00  7.43445e+00 
 5.10422e+00  7.40654e+00 
 4.95565e+00  7.37935e+00 
 4.80815e+00  7.35286e+00 
 4.66178e+00  7.32709e+00 
 4.51644e+00  7.30202e+00 
 4.37216e+00  7.27766e+00 
 4.22886e+00  7.25401e+00 
 4.08657e+00  7.23107e+00 
 3.94520e+00  7.20884e+00 
 3.80477e+00  7.18733e+00 
 3.66522e+00  7.16653e+00 
 3.52655e+00  7.14644e+00 
 3.38870e+00  7.12707e+00 
 3.25168e+00  7.10842e+00 
 3.11541e+00  7.09049e+00 
 2.97992e+00  7.07327e+00 
 2.84512e+00  7.05678e+00 
 2.71104e+00  7.04101e+00 
 2.57759e+00  7.02597e+00 
 2.44480e+00  7.01165e+00 
 2.31258e+00  6.99805e+00 
 2.18096e+00  6.98518e+00 
 2.04985e+00  6.97305e+00 
 1.91928e+00  6.96164e+00 
 1.78915e+00  6.95096e+00 
 1.65950e+00  6.94101e+00 
 1.53023e+00  6.93180e+00 
 1.40137e+00  6.92332e+00 
 1.27284e+00  6.91557e+00 
 1.14466e+00  6.90857e+00 
 1.01673e+00  6.90229e+00 
 8.89094e-01  6.89675e+00 
 7.61652e-01  6.89195e+00 
 6.34428e-01  6.88789e+00 
 5.07340e-01  6.88457e+00 
 3.80405e-01  6.88198e+00 
 2.53541e-01  6.88013e+00 
 1.26767e-01  6.87903e+00 
-7.24252e-13  6.87866e+00 
-1.26767e-01  6.87903e+00 
-2.53541e-01  6.88013e+00 
-3.80405e-01  6.88198e+00 
-5.07340e-01  6.88457e+00 
-6.34428e-01  6.88789e+00 
-7.61652e-01  6.89195e+00 
-8.89094e-01  6.89675e+00 
-1.01673e+00  6.90229e+00 
-1.14466e+00  6.90857e+00 
-1.27284e+00  6.91557e+00 
-1.40137e+00  6.92332e+00 
-1.53023e+00  6.93180e+00 
-1.65950e+00  6.94101e+00 
-1.78915e+00  6.95096e+00 
-1.91928e+00  6.96164e+00 
-2.04985e+00  6.97305e+00 
-2.18096e+00  6.98518e+00 
-2.31258e+00  6.99805e+00 
-2.44480e+00  7.01165e+00 
-2.57759e+00  7.02597e+00 
-2.71104e+00  7.04101e+00 
-2.84512e+00  7.05678e+00 
-2.97992e+00  7.07327e+00 
-3.11541e+00  7.09049e+00 
-3.25168e+00  7.10842e+00 
-3.38870e+00  7.12707e+00 
-3.52655e+00  7.14644e+00 
-3.66522e+00  7.16653e+00 
-3.80477e+00  7.18733e+00 
-3.94520e+00  7.20884e+00 
-4.08657e+00  7.23107e+00 
-4.22886e+00  7.25401e+00 
-4.37216e+00  7.27766e+00 
-4.51644e+00  7.30202e+00 
-4.66178e+00  7.32709e+00 
-4.80815e+00  7.35286e+00 
-4.95565e+00  7.37935e+00 
-5.10422e+00  7.40654e+00 
-5.25397e+00  7.43445e+00 
-5.40486e+00  7.46306e+00 
-5.55698e+00  7.49238e+00 
-5.71029e+00  7.52241e+00 
-5.86488e+00  7.55315e+00 
-6.02072e+00  7.58460e+00 
-6.17789e+00  7.61676e+00 
-6.33637e+00  7.64964e+00 
-6.49624e+00  7.68323e+00 
-6.65746e+00  7.71753e+00 
-6.82013e+00  7.75256e+00 
 7.13879e+00  8.44351e+00 
 6.96962e+00  8.40957e+00 
 6.80191e+00  8.37634e+00 
 6.63556e+00  8.34379e+00 
 6.47062e+00  8.31195e+00 
 6.30698e+00  8.28079e+00 
 6.14469e+00  8.25033e+00 
 5.98365e+00  8.22055e+00 
 5.82389e+00  8.19148e+00 
 5.66533e+00  8.16308e+00 
 5.50800e+00  8.13538e+00 
 5.35181e+00  8.10837e+00 
 5.19680e+00  8.08205e+00 
 5.04287e+00  8.05641e+00 
 4.89006e+00  8.03147e+00 
 4.73828e+00  8.00721e+00 
 4.58755e+00  7.98364e+00 
 4.43781e+00  7.96077e+00 
 4.28906e+00  7.93858e+00 
 4.14124e+00  7.91708e+00 
 3.99436e+00  7.89628e+00 
 3.84833e+00  7.87617e+00 
 3.70320e+00  7.85676e+00 
 3.55887e+00  7.83803e+00 
 3.41538e+00  7.82001e+00 
 3.27262e+00  7.80267e+00 
 3.13064e+00  7.78604e+00 
 2.98934e+00  7.77010e+00 
 2.84876e+00  7.75487e+00 
 2.70880e+00  7.74033e+00 
 2.56949e+00  7.72650e+00 
 2.43075e+00  7.71337e+00 
 2.29260e+00  7.70094e+00 
 2.15495e+00  7.68922e+00 
 2.01784e+00  7.67820e+00 
 1.88116e+00  7.66789e+00 
 1.74496e+00  7.65828e+00 
 1.60914e+00  7.64938e+00 
 1.47372e+00  7.64120e+00 
 1.33863e+00  7.63372e+00 
 1.20388e+00  7.62695e+00 
 1.06938e+00  7.62089e+00 
 9.35168e-01  7.61555e+00 
 8.01149e-01  7.61091e+00 
 6.67346e-01  7.60699e+00 
 5.33676e-01  7.60378e+00 
 4.00159e-01  7.60128e+00 
 2.66711e-01  7.59950e+00 
 1.33353e-01  7.59843e+00 
-7.33575e-13  7.59807e+00 
-1.33353e-01  7.59843e+00 
-2.66711e-01  7.59950e+00 
-4.00159e-01  7.60128e+00 
-5.33676e-01  7.60378e+00 
-6.67346e-01  7.60699e+00 
-8.01149e-01  7.61091e+00 
-9.35168e-01  7.61555e+00 
-1.06938e+00  7.62089e+00 
-1.20388e+00  7.62695e+00 
-1.33863e+00  7.63372e+00 
-1.47372e+00  7.64120e+00 
-1.60914e+00  7.64938e+00 
-1.74496e+00  7.65828e+00 
-1.88116e+00  7.66789e+00 
-2.01784e+00  7.67820e+00 
-2.15495e+00  7.68922e+00 
-2.29260e+00  7.70094e+00 
-2.43075e+00  7.71337e+00 
-2.56949e+00  7.72650e+00 
-2.70880e+00  7.74033e+00 
-2.84876e+00  7.75487e+00 
-2.98934e+00  7.77010e+00 
-3.13064e+00  7.78604e+00 
-3.27262e+00  7.80267e+00 
-3.41538e+00  7.82001e+00 
-3.55887e+00  7.83803e+00 
-3.70320e+00  7.85676e+00 
-3.84833e+00  7.87617e+00 
-3.99436e+00  7.89628e+00 
-4.14124e+00  7.91708e+00 
-4.28906e+00  7.93858e+00 
-4.43781e+00  7.96077e+00 
-4.58755e+00  7.98364e+00 
-4.73828e+00  8.00721e+00 
-4.89006e+00  8.03147e+00 
-5.04287e+00  8.05641e+00 
-5.19680e+00  8.08205e+00 
-5.35181e+00  8.10837e+00 
-5.50800e+00  8.13538e+00 
-5.66533e+00  8.16308e+00 
-5.82389e+00  8.19148e+00 
-5.98365e+00  8.22055e+00 
-6.14469e+00  8.25033e+00 
-6.30698e+00  8.28079e+00 
-6.47062e+00  8.31195e+00 
-6.63556e+00  8.34379e+00 
-6.80191e+00  8.37634e+00 
-6.96962e+00  8.40957e+00 
-7.13879e+00  8.44351e+00 
 7.44736e+00  9.16092e+00 
 7.27190e+00  9.12808e+00 
 7.09790e+00  9.09592e+00 
 6.92527e+00  9.06442e+00 
 6.75405e+00  9.03361e+00 
 6.58414e+00  9.00346e+00 
 6.41559e+00  8.97399e+00 
 6.24828e+00  8.94519e+00 
 6.08227e+00  8.91706e+00 
 5.91746e+00  8.88960e+00 
 5.75388e+00  8.86281e+00 
 5.59144e+00  8.83669e+00 
 5.43018e+00  8.81123e+00 
 5.27000e+00  8.78645e+00 
 5.11094e+00  8.76233e+00 
 4.95290e+00  8.73888e+00 
 4.79593e+00  8.71611e+00 
 4.63993e+00  8.69400e+00 
 4.48493e+00  8.67256e+00 
 4.33085e+00  8.65179e+00 
 4.17770e+00  8.63170e+00 
 4.02542e+00  8.61227e+00 
 3.87402e+00  8.59352e+00 
 3.72342e+00  8.57543e+00 
 3.57364e+00  8.55803e+00 
 3.42460e+00  8.54129e+00 
 3.27634e+00  8.52523e+00 
 3.12875e+00  8.50985e+00 
 2.98187e+00  8.49514e+00 
 2.83560e+00  8.48111e+00 
 2.68999e+00  8.46776e+00 
 2.54494e+00  8.45509e+00 
 2.40047e+00  8.44310e+00 
 2.25651e+00  8.43179e+00 
 2.11307e+00  8.42116e+00 
 1.97007e+00  8.41121e+00 
 1.82753e+00  8.40194e+00 
 1.68538e+00  8.39336e+00 
 1.54362e+00  8.38546e+00 
 1.40218e+00  8.37825e+00 
 1.26109e+00  8.37172e+00 
 1.12024e+00  8.36588e+00 
 9.79676e-01  8.36072e+00 
 8.39302e-01  8.35625e+00 
 6.99145e-01  8.35247e+00 
 5.59116e-01  8.34937e+00 
 4.19241e-01  8.34696e+00 
 2.79432e-01  8.34524e+00 
 1.39714e-01  8.34421e+00 
-7.52623e-13  8.34387e+00 
-1.39714e-01  8.34421e+00 
-2.79432e-01  8.34524e+00 
-4.19241e-01  8.34696e+00 
-5.59116e-01  8.34937e+00 
-6.99145e-01  8.35247e+00 
-8.39302e-01  8.35625e+00 
-9.79676e-01  8.36072e+00 
-1.12024e+00  8.36588e+00 
-1.26109e+00  8.37172e+00 
-1.40218e+00  8.37825e+00 
-1.54362e+00  8.38546e+00 
-1.68538e+00  8.39336e+00 
-1.82753e+00  8.40194e+00 
-1.97007e+00  8.41121e+00 
-2.11307e+00  8.42116e+00 
-2.25651e+00  8.43179e+00 
-2.40047e+00  8.44310e+00 
-2.54494e+00  8.45509e+00 
-2.68999e+00  8.46776e+00 
-2.83560e+00  8.48111e+00 
-2.98187e+00  8.49514e+00 
-3.12875e+00  8.50985e+00 
-3.27634e+00  8.52523e+00 
-3.42460e+00  8.54129e+00 
-3.57364e+00  8.55803e+00 
-3.72342e+00  8.57543e+00 
-3.87402e+00  8.59352e+00 
-4.02542e+00  8.61227e+00 
-4.17770e+00  8.63170e+00 
-4.33085e+00  8.65179e+00 
-4.48493e+00  8.67256e+00 
-4.63993e+00  8.69400e+00 
-4.79593e+00  8.71611e+00 
-4.95290e+00  8.73888e+00 
-5.11094e+00  8.76233e+00 
-5.27000e+00  8.78645e+00 
-5.43018e+00  8.81123e+00 
-5.59144e+00  8.83669e+00 
-5.75388e+00  8.86281e+00 
-5.91746e+00  8.88960e+00 
-6.08227e+00  8.91706e+00 
-6.24828e+00  8.94519e+00 
-6.41559e+00  8.97399e+00 
-6.58414e+00  9.00346e+00 
-6.75405e+00  9.03361e+00 
-6.92527e+00  9.06442e+00 
-7.09790e+00  9.09592e+00 
-7.27190e+00  9.12808e+00 
-7.44736e+00  9.16092e+00 
 7.74577e+00  9.90388e+00 
 7.56421e+00  9.87214e+00 
 7.38413e+00  9.84106e+00 
 7.20542e+00  9.81062e+00 
 7.02813e+00  9.78084e+00 
 6.85215e+00  9.75171e+00 
 6.67752e+00  9.72323e+00 
 6.50415e+00  9.69540e+00 
 6.33208e+00  9.66822e+00 
 6.16121e+00  9.64169e+00 
 5.99157e+00  9.61581e+00 
 5.82308e+00  9.59058e+00 
 5.65576e+00  9.56599e+00 
 5.48953e+00  9.54205e+00 
 5.32441e+00  9.51877e+00 
 5.16033e+00  9.49612e+00 
 4.99730e+00  9.47413e+00 
 4.83524e+00  9.45279e+00 
 4.67418e+00  9.43210e+00 
 4.51404e+00  9.41205e+00 
 4.35484e+00  9.39265e+00 
 4.19648e+00  9.37390e+00 
 4.03902e+00  9.35581e+00 
 3.88234e+00  9.33836e+00 
 3.72650e+00  9.32157e+00 
 3.57138e+00  9.30543e+00 
 3.41703e+00  9.28994e+00 
 3.26336e+00  9.27510e+00 
 3.11039e+00  9.26092e+00 
 2.95804e+00  9.24739e+00 
 2.80633e+00  9.23452e+00 
 2.65518e+00  9.22230e+00 
 2.50462e+00  9.21074e+00 
 2.35455e+00  9.19983e+00 
 2.20500e+00  9.18959e+00 
 2.05589e+00  9.18000e+00 
 1.90724e+00  9.17107e+00 
 1.75896e+00  9.16279e+00 
 1.61108e+00  9.15518e+00 
 1.46352e+00  9.14823e+00 
 1.31630e+00  9.14194e+00 
 1.16932e+00  9.13631e+00 
 1.02263e+00  9.13134e+00 
 8.76121e-01  9.12703e+00 
 7.29830e-01  9.12339e+00 
 5.83666e-01  9.12041e+00 
 4.37655e-01  9.11809e+00 
 2.91708e-01  9.11643e+00 
 1.45853e-01  9.11544e+00 
-7.74797e-13  9.11511e+00 
-1.45853e-01  9.11544e+00 
-2.91708e-01  9.11643e+00 
-4.37655e-01  9.11809e+00 
-5.83666e-01  9.12041e+00 
-7.29830e-01  9.12339e+00 
-8.76121e-01  9.12703e+00 
-1.02263e+00  9.13134e+00 
-1.16932e+00  9.13631e+00 
-1.31630e+00  9.14194e+00 
-1.46352e+00  9.14823e+00 
-1.61108e+00  9.15518e+00 
-1.75896e+00  9.16279e+00 
-1.90724e+00  9.17107e+00 
-2.05589e+00  9.18000e+00 
-2.20500e+00  9.18959e+00 
-2.35455e+00  9.19983e+00 
-2.50462e+00  9.21074e+00 
-2.65518e+00  9.22230e+00 
-2.80633e+00  9.23452e+00 
-2.95804e+00  9.24739e+00 
-3.11039e+00  9.26092e+00 
-3.26336e+00  9.27510e+00 
-3.41703e+00  9.28994e+00 
-3.57138e+00  9.30543e+00 
-3.72650e+00  9.32157e+00 
-3.88234e+00  9.33836e+00 
-4.03902e+00  9.35581e+00 
-4.19648e+00  9.37390e+00 
-4.35484e+00  9.39265e+00 
-4.51404e+00  9.41205e+00 
-4.67418e+00  9.43210e+00 
-4.83524e+00  9.45279e+00 
-4.99730e+00  9.47413e+00 
-5.16033e+00  9.49612e+00 
-5.32441e+00  9.51877e+00 
-5.48953e+00  9.54205e+00 
-5.65576e+00  9.56599e+00 
-5.82308e+00  9.59058e+00 
-5.99157e+00  9.61581e+00 
-6.16121e+00  9.64169e+00 
-6.33208e+00  9.66822e+00 
-6.50415e+00  9.69540e+00 
-6.67752e+00  9.72323e+00 
-6.85215e+00  9.75171e+00 
-7.02813e+00  9.78084e+00 
-7.20542e+00  9.81062e+00 
-7.38413e+00  9.84106e+00 
-7.56421e+00  9.87214e+00 
-7.74577e+00  9.90388e+00 
 8.03398e+00  1.06716e+01 
 7.84654e+00  1.06409e+01 
 7.66058e+00  1.06109e+01 
 7.47599e+00  1.05816e+01 
 7.29283e+00  1.05528e+01 
 7.11097e+00  1.05247e+01 
 6.93048e+00  1.04972e+01 
 6.75125e+00  1.04704e+01 
 6.57332e+00  1.04441e+01 
 6.39658e+00  1.04185e+01 
 6.22109e+00  1.03936e+01 
 6.04674e+00  1.03692e+01 
 5.87357e+00  1.03455e+01 
 5.70148e+00  1.03224e+01 
 5.53051e+00  1.02999e+01 
 5.36056e+00  1.02781e+01 
 5.19168e+00  1.02569e+01 
 5.02377e+00  1.02363e+01 
 4.85685e+00  1.02164e+01 
 4.69085e+00  1.01970e+01 
 4.52578e+00  1.01783e+01 
 4.36157e+00  1.01603e+01 
 4.19824e+00  1.01428e+01 
 4.03570e+00  1.01260e+01 
 3.87398e+00  1.01098e+01 
 3.71300e+00  1.00943e+01 
 3.55278e+00  1.00793e+01 
 3.39323e+00  1.00650e+01 
 3.23438e+00  1.00514e+01 
 3.07614e+00  1.00383e+01 
 2.91855e+00  1.00259e+01 
 2.76152e+00  1.00142e+01 
 2.60506e+00  1.00030e+01 
 2.44910e+00  9.99254e+00 
 2.29365e+00  9.98267e+00 
 2.13864e+00  9.97343e+00 
 1.98409e+00  9.96484e+00 
 1.82991e+00  9.95687e+00 
 1.67613e+00  9.94954e+00 
 1.52266e+00  9.94285e+00 
 1.36953e+00  9.93680e+00 
 1.21665e+00  9.93138e+00 
 1.06404e+00  9.92659e+00 
 9.11621e-01  9.92245e+00 
 7.59415e-01  9.91894e+00 
 6.07335e-01  9.91607e+00 
 4.55408e-01  9.91384e+00 
 3.03544e-01  9.91224e+00 
 1.51771e-01  9.91129e+00 
-7.77666e-13  9.91097e+00 
-1.51771e-01  9.91129e+00 
-3.03544e-01  9.91224e+00 
-4.55408e-01  9.91384e+00 
-6.07335e-01  9.91607e+00 
-7.59415e-01  9.91894e+00 
-9.11621e-01  9.92245e+00 
-1.06404e+00  9.92659e+00 
-1.21665e+00  9.93138e+00 
-1.36953e+00  9.93680e+00 
-1.52266e+00  9.94285e+00 
-1.67613e+00  9.94954e+00 
-1.82991e+00  9.95687e+00 
-1.98409e+00  9.96484e+00 
-2.13864e+00  9.97343e+00 
-2.29365e+00  9.98267e+00 
-2.44910e+00  9.99254e+00 
-2.60506e+00  1.00030e+01 
-2.76152e+00  1.00142e+01 
-2.91855e+00  1.00259e+01 
-3.07614e+00  1.00383e+01 
-3.23438e+00  1.00514e+01 
-3.39323e+00  1.00650e+01 
-3.55278e+00  1.00793e+01 
-3.71300e+00  1.00943e+01 
-3.87398e+00  1.01098e+01 
-4.03570e+00  1.01260e+01 
-4.19824e+00  1.01428e+01 
-4.36157e+00  1.01603e+01 
-4.52578e+00  1.01783e+01 
-4.69085e+00  1.01970e+01 
-4.85685e+00  1.02164e+01 
-5.02377e+00  1.02363e+01 
-5.19168e+00  1.02569e+01 
-5.36056e+00  1.02781e+01 
-5.53051e+00  1.02999e+01 
-5.70148e+00  1.03224e+01 
-5.87357e+00  1.03455e+01 
-6.04674e+00  1.03692e+01 
-6.22109e+00  1.03936e+01 
-6.39658e+00  1.04185e+01 
-6.57332e+00  1.04441e+01 
-6.75125e+00  1.04704e+01 
-6.93048e+00  1.04972e+01 
-7.11097e+00  1.05247e+01 
-7.29283e+00  1.05528e+01 
-7.47599e+00  1.05816e+01 
-7.66058e+00  1.06109e+01 
-7.84654e+00  1.06409e+01 
-8.03398e+00  1.06716e+01 
 8.31199e+00  1.14632e+01 
 8.11887e+00  1.14336e+01 
 7.92723e+00  1.14047e+01 
 7.73697e+00  1.13764e+01 
 7.54814e+00  1.13487e+01 
 7.36062e+00  1.13216e+01 
 7.17447e+00  1.12951e+01 
 6.98957e+00  1.12692e+01 
 6.80598e+00  1.12440e+01 
 6.62359e+00  1.12193e+01 
 6.44244e+00  1.11952e+01 
 6.26243e+00  1.11718e+01 
 6.08360e+00  1.11489e+01 
 5.90586e+00  1.11267e+01 
 5.72924e+00  1.11050e+01 
 5.55364e+00  1.10840e+01 
 5.37910e+00  1.10636e+01 
 5.20553e+00  1.10437e+01 
 5.03296e+00  1.10245e+01 
 4.86130e+00  1.10059e+01 
 4.69058e+00  1.09879e+01 
 4.52070e+00  1.09705e+01 
 4.35171e+00  1.09537e+01 
 4.18351e+00  1.09375e+01 
 4.01613e+00  1.09219e+01 
 3.84948e+00  1.09070e+01 
 3.68359e+00  1.08926e+01 
 3.51837e+00  1.08788e+01 
 3.35385e+00  1.08657e+01 
 3.18995e+00  1.08532e+01 
 3.02668e+00  1.08412e+01 
 2.86397e+00  1.08299e+01 
 2.70183e+00  1.08192e+01 
 2.54019e+00  1.08091e+01 
 2.37906e+00  1.07996e+01 
 2.21837e+00  1.07907e+01 
 2.05813e+00  1.07824e+01 
 1.89826e+00  1.07748e+01 
 1.73879e+00  1.07677e+01 
 1.57963e+00  1.07613e+01 
 1.42081e+00  1.07555e+01 
 1.26223e+00  1.07503e+01 
 1.10393e+00  1.07457e+01 
 9.45812e-01  1.07417e+01 
 7.87910e-01  1.07383e+01 
 6.30131e-01  1.07355e+01 
 4.72506e-01  1.07334e+01 
 3.14942e-01  1.07319e+01 
 1.57471e-01  1.07309e+01 
-7.79002e-13  1.07306e+01 
-1.57471e-01  1.07309e+01 
-3.14942e-01  1.07319e+01 
-4.72506e-01  1.07334e+01 
-6.30131e-01  1.07355e+01 
-7.87910e-01  1.07383e+01 
-9.45812e-01  1.07417e+01 
-1.10393e+00  1.07457e+01 
-1.26223e+00  1.07503e+01 
-1.42081e+00  1.07555e+01 
-1.57963e+00  1.07613e+01 
-1.73879e+00  1.07677e+01 
-1.89826e+00  1.07748e+01 
-2.05813e+00  1.07824e+01 
-2.21837e+00  1.07907e+01 
-2.37906e+00  1.07996e+01 
-2.54019e+00  1.08091e+01 
-2.70183e+00  1.08192e+01 
-2.86397e+00  1.08299e+01 
-3.02668e+00  1.08412e+01 
-3.18995e+00  1.08532e+01 
-3.35385e+00  1.08657e+01 
-3.51837e+00  1.08788e+01 
-3.68359e+00  1.08926e+01 
-3.84948e+00  1.09070e+01 
-4.01613e+00  1.09219e+01 
-4.18351e+00  1.09375e+01 
-4.35171e+00  1.09537e+01 
-4.52070e+00  1.09705e+01 
-4.69058e+00  1.09879e+01 
-4.86130e+00  1.10059e+01 
-5.03296e+00  1.10245e+01 
-5.20553e+00  1.10437e+01 
-5.37910e+00  1.10636e+01 
-5.55364e+00  1.10840e+01 
-5.72924e+00  1.11050e+01 
-5.90586e+00  1.11267e+01 
-6.08360e+00  1.11489e+01 
-6.26243e+00  1.11718e+01 
-6.44244e+00  1.11952e+01 
-6.62359e+00  1.12193e+01 
-6.80598e+00  1.12440e+01 
-6.98957e+00  1.12692e+01 
-7.17447e+00  1.12951e+01 
-7.36062e+00  1.13216e+01 
-7.54814e+00  1.13487e+01 
-7.73697e+00  1.13764e+01 
-7.92723e+00  1.14047e+01 
-8.11887e+00  1.14336e+01 
-8.31199e+00  1.14632e+01 
 8.57973e+00  1.22777e+01 
 8.38114e+00  1.22493e+01 
 8.18404e+00  1.22215e+01 
 7.98832e+00  1.21942e+01 
 7.79403e+00  1.21675e+01 
 7.60105e+00  1.21415e+01 
 7.40944e+00  1.21160e+01 
 7.21909e+00  1.20911e+01 
 7.03004e+00  1.20667e+01 
 6.84220e+00  1.20430e+01 
 6.65559e+00  1.20199e+01 
 6.47013e+00  1.19973e+01 
 6.28585e+00  1.19753e+01 
 6.10266e+00  1.19539e+01 
 5.92058e+00  1.19331e+01 
 5.73953e+00  1.19128e+01 
 5.55955e+00  1.18932e+01 
 5.38052e+00  1.18741e+01 
 5.20250e+00  1.18556e+01 
 5.02538e+00  1.18377e+01 
 4.84921e+00  1.18204e+01 
 4.67388e+00  1.18037e+01 
 4.49944e+00  1.17875e+01 
 4.32578e+00  1.17720e+01 
 4.15294e+00  1.17570e+01 
 3.98083e+00  1.17426e+01 
 3.80949e+00  1.17288e+01 
 3.63881e+00  1.17156e+01 
 3.46883e+00  1.17029e+01 
 3.29946e+00  1.16909e+01 
 3.13073e+00  1.16794e+01 
 2.96255e+00  1.16685e+01 
 2.79494e+00  1.16583e+01 
 2.62783e+00  1.16485e+01 
 2.46124e+00  1.16394e+01 
 2.29507e+00  1.16309e+01 
 2.12936e+00  1.16230e+01 
 1.96402e+00  1.16156e+01 
 1.79907e+00  1.16088e+01 
 1.63444e+00  1.16026e+01 
 1.47013e+00  1.15971e+01 
 1.30608e+00  1.15920e+01 
 1.14230e+00  1.15876e+01 
 9.78700e-01  1.15838e+01 
 8.15318e-01  1.15806e+01 
 6.52058e-01  1.15779e+01 
 4.88952e-01  1.15759e+01 
 3.25906e-01  1.15744e+01 
 1.62954e-01  1.15735e+01 
-7.72431e-13  1.15732e+01 
-1.62954e-01  1.15735e+01 
-3.25906e-01  1.15744e+01 
-4.88952e-01  1.15759e+01 
-6.52058e-01  1.15779e+01 
-8.15318e-01  1.15806e+01 
-9.78700e-01  1.15838e+01 
-1.14230e+00  1.15876e+01 
-1.30608e+00  1.15920e+01 
-1.47013e+00  1.15971e+01 
-1.63444e+00  1.16026e+01 
-1.79907e+00  1.16088e+01 
-1.96402e+00  1.16156e+01 
-2.12936e+00  1.16230e+01 
-2.29507e+00  1.16309e+01 
-2.46124e+00  1.16394e+01 
-2.62783e+00  1.16485e+01 
-2.79494e+00  1.16583e+01 
-2.96255e+00  1.16685e+01 
-3.13073e+00  1.16794e+01 
-3.29946e+00  1.16909e+01 
-3.46883e+00  1.17029e+01 
-3.63881e+00  1.17156e+01 
-3.80949e+00  1.17288e+01 
-3.98083e+00  1.17426e+01 
-4.15294e+00  1.17570e+01 
-4.32578e+00  1.17720e+01 
-4.49944e+00  1.17875e+01 
-4.67388e+00  1.18037e+01 
-4.84921e+00  1.18204e+01 
-5.02538e+00  1.18377e+01 
-5.20250e+00  1.18556e+01 
-5.38052e+00  1.18741e+01 
-5.55955e+00  1.18932e+01 
-5.73953e+00  1.19128e+01 
-5.92058e+00  1.19331e+01 
-6.10266e+00  1.19539e+01 
-6.28585e+00  1.19753e+01 
-6.47013e+00  1.19973e+01 
-6.65559e+00  1.20199e+01 
-6.84220e+00  1.20430e+01 
-7.03004e+00  1.20667e+01 
-7.21909e+00  1.20911e+01 
-7.40944e+00  1.21160e+01 
-7.60105e+00  1.21415e+01 
-7.79403e+00  1.21675e+01 
-7.98832e+00  1.21942e+01 
-8.18404e+00  1.22215e+01 
-8.38114e+00  1.22493e+01 
-8.57973e+00  1.22777e+01 
 8.83721e+00  1.31144e+01 
 8.63337e+00  1.30871e+01 
 8.43101e+00  1.30603e+01 
 8.23004e+00  1.30341e+01 
 8.03049e+00  1.30085e+01 
 7.83226e+00  1.29835e+01 
 7.63540e+00  1.29590e+01 
 7.43980e+00  1.29350e+01 
 7.24551e+00  1.29117e+01 
 7.05241e+00  1.28889e+01 
 6.86056e+00  1.28666e+01 
 6.66985e+00  1.28449e+01 
 6.48033e+00  1.28238e+01 
 6.29188e+00  1.28032e+01 
 6.10456e+00  1.27833e+01 
 5.91827e+00  1.27638e+01 
 5.73303e+00  1.27449e+01 
 5.54876e+00  1.27266e+01 
 5.36550e+00  1.27089e+01 
 5.18313e+00  1.26917e+01 
 5.00171e+00  1.26751e+01 
 4.82113e+00  1.26590e+01 
 4.64144e+00  1.26435e+01 
 4.46253e+00  1.26286e+01 
 4.28445e+00  1.26142e+01 
 4.10708e+00  1.26004e+01 
 3.93049e+00  1.25871e+01 
 3.75455e+00  1.25744e+01 
 3.57932e+00  1.25623e+01 
 3.40469e+00  1.25507e+01 
 3.23071e+00  1.25397e+01 
 3.05727e+00  1.25293e+01 
 2.88441e+00  1.25194e+01 
 2.71204e+00  1.25101e+01 
 2.54019e+00  1.25014e+01 
 2.36876e+00  1.24932e+01 
 2.19779e+00  1.24855e+01 
 2.02719e+00  1.24785e+01 
 1.85699e+00  1.24720e+01 
 1.68708e+00  1.24661e+01 
 1.51752e+00  1.24607e+01 
 1.34820e+00  1.24559e+01 
 1.17916e+00  1.24517e+01 
 1.01029e+00  1.24480e+01 
 8.41647e-01  1.24449e+01 
 6.73121e-01  1.24424e+01 
 5.04750e-01  1.24404e+01 
 3.36438e-01  1.24390e+01 
 1.68220e-01  1.24381e+01 
-7.46179e-13  1.24378e+01 
-1.68220e-01  1.24381e+01 
-3.36438e-01  1.24390e+01 
-5.04750e-01  1.24404e+01 
-6.73121e-01  1.24424e+01 
-8.41647e-01  1.24449e+01 
-1.01029e+00  1.24480e+01 
-1.17916e+00  1.24517e+01 
-1.34820e+00  1.24559e+01 
-1.51752e+00  1.24607e+01 
-1.68708e+00  1.24661e+01 
-1.85699e+00  1.24720e+01 
-2.02719e+00  1.24785e+01 
-2.19779e+00  1.24855e+01 
-2.36876e+00  1.24932e+01 
-2.54019e+00  1.25014e+01 
-2.71204e+00  1.25101e+01 
-2.88441e+00  1.25194e+01 
-3.05727e+00  1.25293e+01 
-3.23071e+00  1.25397e+01 
-3.40469e+00  1.25507e+01 
-3.57932e+00  1.25623e+01 
-3.75455e+00  1.25744e+01 
-3.93049e+00  1.25871e+01 
-4.10708e+00  1.26004e+01 
-4.28445e+00  1.26142e+01 
-4.46253e+00  1.26286e+01 
-4.64144e+00  1.26435e+01 
-4.82113e+00  1.26590e+01 
-5.00171e+00  1.26751e+01 
-5.18313e+00  1.26917e+01 
-5.36550e+00  1.27089e+01 
-5.54876e+00  1.27266e+01 
-5.73303e+00  1.27449e+01 
-5.91827e+00  1.27638e+01 
-6.10456e+00  1.27833e+01 
-6.29188e+00  1.28032e+01 
-6.48033e+00  1.28238e+01 
-6.66985e+00  1.28449e+01 
-6.86056e+00  1.28666e+01 
-7.05241e+00  1.28889e+01 
-7.24551e+00  1.29117e+01 
-7.43980e+00  1.29350e+01 
-7.63540e+00  1.29590e+01 
-7.83226e+00  1.29835e+01 
-8.03049e+00  1.30085e+01 
-8.23004e+00  1.30341e+01 
-8.43101e+00  1.30603e+01 
-8.63337e+00  1.30871e+01 
-8.83721e+00  1.31144e+01 
 9.08443e+00  1.39723e+01 
 8.87554e+00  1.39461e+01 
 8.66814e+00  1.39205e+01 
 8.46212e+00  1.38954e+01 
 8.25753e+00  1.38708e+01 
 8.05426e+00  1.38468e+01 
 7.85236e+00  1.38233e+01 
 7.65171e+00  1.38003e+01 
 7.45238e+00  1.37779e+01 
 7.25424e+00  1.37560e+01 
 7.05735e+00  1.37347e+01 
 6.86160e+00  1.37139e+01 
 6.66703e+00  1.36936e+01 
 6.47355e+00  1.36739e+01 
 6.28119e+00  1.36547e+01 
 6.08985e+00  1.36361e+01 
 5.89958e+00  1.36180e+01 
 5.71026e+00  1.36004e+01 
 5.52195e+00  1.35834e+01 
 5.33455e+00  1.35669e+01 
 5.14809e+00  1.35510e+01 
 4.96247e+00  1.35356e+01 
 4.77773e+00  1.35207e+01 
 4.59378e+00  1.35064e+01 
 4.41065e+00  1.34926e+01 
 4.22824e+00  1.34794e+01 
 4.04660e+00  1.34667e+01 
 3.86562e+00  1.34545e+01 
 3.68535e+00  1.34429e+01 
 3.50567e+00  1.34318e+01 
 3.32665e+00  1.34213e+01 
 3.14816e+00  1.34113e+01 
 2.97026e+00  1.34018e+01 
 2.79283e+00  1.33929e+01 
 2.61594e+00  1.33846e+01 
 2.43946e+00  1.33767e+01 
 2.26344e+00  1.33694e+01 
 2.08779e+00  1.33627e+01 
 1.91254e+00  1.33564e+01 
 1.73759e+00  1.33508e+01 
 1.56297e+00  1.33456e+01 
 1.38860e+00  1.33410e+01 
 1.21451e+00  1.33370e+01 
 1.04060e+00  1.33335e+01 
 8.66901e-01  1.33305e+01 
 6.93324e-01  1.33281e+01 
 5.19903e-01  1.33262e+01 
 3.46540e-01  1.33248e+01 
 1.73272e-01  1.33240e+01 
-7.26833e-13  1.33237e+01 
-1.73272e-01  1.33240e+01 
-3.46540e-01  1.33248e+01 
-5.19903e-01  1.33262e+01 
-6.93324e-01  1.33281e+01 
-8.66901e-01  1.33305e+01 
-1.04060e+00  1.33335e+01 
-1.21451e+00  1.33370e+01 
-1.38860e+00  1.33410e+01 
-1.56297e+00  1.33456e+01 
-1.73759e+00  1.33508e+01 
-1.91254e+00  1.33564e+01 
-2.08779e+00  1.33627e+01 
-2.26344e+00  1.33694e+01 
-2.43946e+00  1.33767e+01 
-2.61594e+00  1.33846e+01 
-2.79283e+00  1.33929e+01 
-2.97026e+00  1.34018e+01 
-3.14816e+00  1.34113e+01 
-3.32665e+00  1.34213e+01 
-3.50567e+00  1.34318e+01 
-3.68535e+00  1.34429e+01 
-3.86562e+00  1.34545e+01 
-4.04660e+00  1.34667e+01 
-4.22824e+00  1.34794e+01 
-4.41065e+00  1.34926e+01 
-4.59378e+00  1.35064e+01 
-4.77773e+00  1.35207e+01 
-4.96247e+00  1.35356e+01 
-5.14809e+00  1.35510e+01 
-5.33455e+00  1.35669e+01 
-5.52195e+00  1.35834e+01 
-5.71026e+00  1.36004e+01 
-5.89958e+00  1.36180e+01 
-6.08985e+00  1.36361e+01 
-6.28119e+00  1.36547e+01 
-6.47355e+00  1.36739e+01 
-6.66703e+00  1.36936e+01 
-6.86160e+00  1.37139e+01 
-7.05735e+00  1.37347e+01 
-7.25424e+00  1.37560e+01 
-7.45238e+00  1.37779e+01 
-7.65171e+00  1.38003e+01 
-7.85236e+00  1.38233e+01 
-8.05426e+00  1.38468e+01 
-8.25753e+00  1.38708e+01 
-8.46212e+00  1.38954e+01 
-8.66814e+00  1.39205e+01 
-8.87554e+00  1.39461e+01 
-9.08443e+00  1.39723e+01 
 9.32136e+00  1.48506e+01 
 9.10764e+00  1.48255e+01 
 8.89541e+00  1.48010e+01 
 8.68455e+00  1.47769e+01 
 8.47513e+00  1.47534e+01 
 8.26702e+00  1.47304e+01 
 8.06029e+00  1.47079e+01 
 7.85481e+00  1.46859e+01 
 7.65064e+00  1.46644e+01 
 7.44767e+00  1.46435e+01 
 7.24594e+00  1.46231e+01 
 7.04535e+00  1.46032e+01 
 6.84596e+00  1.45838e+01 
 6.64763e+00  1.45649e+01 
 6.45044e+00  1.45465e+01 
 6.25427e+00  1.45287e+01 
 6.05916e+00  1.45114e+01 
 5.86501e+00  1.44946e+01 
 5.67187e+00  1.44783e+01 
 5.47962e+00  1.44625e+01 
 5.28833e+00  1.44473e+01 
 5.09787e+00  1.44325e+01 
 4.90830e+00  1.44183e+01 
 4.71951e+00  1.44046e+01 
 4.53154e+00  1.43914e+01 
 4.34430e+00  1.43788e+01 
 4.15782e+00  1.43666e+01 
 3.97201e+00  1.43550e+01 
 3.78690e+00  1.43439e+01 
 3.60239e+00  1.43333e+01 
 3.41852e+00  1.43232e+01 
 3.23520e+00  1.43137e+01 
 3.05246e+00  1.43046e+01 
 2.87020e+00  1.42961e+01 
 2.68847e+00  1.42881e+01 
 2.50716e+00  1.42806e+01 
 2.32631e+00  1.42736e+01 
 2.14582e+00  1.42672e+01 
 1.96573e+00  1.42612e+01 
 1.78594e+00  1.42558e+01 
 1.60649e+00  1.42509e+01 
 1.42729e+00  1.42465e+01 
 1.24836e+00  1.42426e+01 
 1.06961e+00  1.42393e+01 
 8.91078e-01  1.42364e+01 
 7.12665e-01  1.42341e+01 
 5.34410e-01  1.42323e+01 
 3.56210e-01  1.42310e+01 
 1.78108e-01  1.42302e+01 
-7.13817e-13  1.42300e+01 
-1.78108e-01  1.42302e+01 
-3.56210e-01  1.42310e+01 
-5.34410e-01  1.42323e+01 
-7.12665e-01  1.42341e+01 
-8.91078e-01  1.42364e+01 
-1.06961e+00  1.42393e+01 
-1.24836e+00  1.42426e+01 
-1.42729e+00  1.42465e+01 
-1.60649e+00  1.42509e+01 
-1.78594e+00  1.42558e+01 
-1.96573e+00  1.42612e+01 
-2.14582e+00  1.42672e+01 
-2.32631e+00  1.42736e+01 
-2.50716e+00  1.42806e+01 
-2.68847e+00  1.42881e+01 
-2.87020e+00  1.42961e+01 
-3.05246e+00  1.43046e+01 
-3.23520e+00  1.43137e+01 
-3.41852e+00  1.43232e+01 
-3.60239e+00  1.43333e+01 
-3.78690e+00  1.43439e+01 
-3.97201e+00  1.43550e+01 
-4.15782e+00  1.43666e+01 
-4.34430e+00  1.43788e+01 
-4.53154e+00  1.43914e+01 
-4.71951e+00  1.44046e+01 
-4.90830e+00  1.44183e+01 
-5.09787e+00  1.44325e+01 
-5.28833e+00  1.44473e+01 
-5.47962e+00  1.44625e+01 
-5.67187e+00  1.44783e+01 
-5.86501e+00  1.44946e+01 
-6.05916e+00  1.45114e+01 
-6.25427e+00  1.45287e+01 
-6.45044e+00  1.45465e+01 
-6.64763e+00  1.45649e+01 
-6.84596e+00  1.45838e+01 
-7.04535e+00  1.46032e+01 
-7.24594e+00  1.46231e+01 
-7.44767e+00  1.46435e+01 
-7.65064e+00  1.46644e+01 
-7.85481e+00  1.46859e+01 
-8.06029e+00  1.47079e+01 
-8.26702e+00  1.47304e+01 
-8.47513e+00  1.47534e+01 
-8.68455e+00  1.47769e+01 
-8.89541e+00  1.48010e+01 
-9.10764e+00  1.48255e+01 
-9.32136e+00  1.48506e+01 
 9.54801e+00  1.57484e+01 
 9.32967e+00  1.57245e+01 
 9.11281e+00  1.57010e+01 
 8.89734e+00  1.56780e+01 
 8.68329e+00  1.56555e+01 
 8.47056e+00  1.56335e+01 
 8.25920e+00  1.56120e+01 
 8.04909e+00  1.55910e+01 
 7.84030e+00  1.55705e+01 
 7.63270e+00  1.55505e+01 
 7.42635e+00  1.55310e+01 
 7.22113e+00  1.55119e+01 
 7.01710e+00  1.54934e+01 
 6.81415e+00  1.54754e+01 
 6.61233e+00  1.54578e+01 
 6.41152e+00  1.54408e+01 
 6.21179e+00  1.54243e+01 
 6.01301e+00  1.54082e+01 
 5.81524e+00  1.53927e+01 
 5.61836e+00  1.53776e+01 
 5.42244e+00  1.53630e+01 
 5.22735e+00  1.53490e+01 
 5.03315e+00  1.53354e+01 
 4.83973e+00  1.53223e+01 
 4.64714e+00  1.53097e+01 
 4.45526e+00  1.52977e+01 
 4.26416e+00  1.52861e+01 
 4.07371e+00  1.52750e+01 
 3.88398e+00  1.52644e+01 
 3.69484e+00  1.52543e+01 
 3.50635e+00  1.52447e+01 
 3.31840e+00  1.52355e+01 
 3.13103e+00  1.52269e+01 
 2.94415e+00  1.52188e+01 
 2.75779e+00  1.52112e+01 
 2.57186e+00  1.52040e+01 
 2.38638e+00  1.51974e+01 
 2.20127e+00  1.51912e+01 
 2.01656e+00  1.51855e+01 
 1.83215e+00  1.51804e+01 
 1.64808e+00  1.51757e+01 
 1.46425e+00  1.51715e+01 
 1.28070e+00  1.51678e+01 
 1.09733e+00  1.51646e+01 
 9.14179e-01  1.51619e+01 
 7.31145e-01  1.51597e+01 
 5.48270e-01  1.51580e+01 
 3.65450e-01  1.51568e+01 
 1.82728e-01  1.51560e+01 
-6.88379e-13  1.51558e+01 
-1.82728e-01  1.51560e+01 
-3.65450e-01  1.51568e+01 
-5.48270e-01  1.51580e+01 
-7.31145e-01  1.51597e+01 
-9.14179e-01  1.51619e+01 
-1.09733e+00  1.51646e+01 
-1.28070e+00  1.51678e+01 
-1.46425e+00  1.51715e+01 
-1.64808e+00  1.51757e+01 
-1.83215e+00  1.51804e+01 
-2.01656e+00  1.51855e+01 
-2.20127e+00  1.51912e+01 
-2.38638e+00  1.51974e+01 
-2.57186e+00  1.52040e+01 
-2.75779e+00  1.52112e+01 
-2.94415e+00  1.52188e+01 
-3.13103e+00  1.52269e+01 
-3.31840e+00  1.52355e+01 
-3.50635e+00  1.52447e+01 
-3.69484e+00  1.52543e+01 
-3.88398e+00  1.52644e+01 
-4.07371e+00  1.52750e+01 
-4.26416e+00  1.52861e+01 
-4.45526e+00  1.52977e+01 
-4.64714e+00  1.53097e+01 
-4.83973e+00  1.53223e+01 
-5.03315e+00  1.53354e+01 
-5.22735e+00  1.53490e+01 
-5.42244e+00  1.53630e+01 
-5.61836e+00  1.53776e+01 
-5.81524e+00  1.53927e+01 
-6.01301e+00  1.54082e+01 
-6.21179e+00  1.54243e+01 
-6.41152e+00  1.54408e+01 
-6.61233e+00  1.54578e+01 
-6.81415e+00  1.54754e+01 
-7.01710e+00  1.54934e+01 
-7.22113e+00  1.55119e+01 
-7.42635e+00  1.55310e+01 
-7.63270e+00  1.55505e+01 
-7.84030e+00  1.55705e+01 
-8.04909e+00  1.55910e+01 
-8.25920e+00  1.56120e+01 
-8.47056e+00  1.56335e+01 
-8.68329e+00  1.56555e+01 
-8.89734e+00  1.56780e+01 
-9.11281e+00  1.57010e+01 
-9.32967e+00  1.57245e+01 
-9.54801e+00  1.57484e+01 
 9.76440e+00  1.66649e+01 
 9.54164e+00  1.66420e+01 
 9.32038e+00  1.66196e+01 
 9.10049e+00  1.65977e+01 
 8.88203e+00  1.65763e+01 
 8.66488e+00  1.65553e+01 
 8.44910e+00  1.65348e+01 
 8.23458e+00  1.65148e+01 
 8.02137e+00  1.64952e+01 
 7.80934e+00  1.64761e+01 
 7.59857e+00  1.64575e+01 
 7.38893e+00  1.64394e+01 
 7.18048e+00  1.64217e+01 
 6.97311e+00  1.64045e+01 
 6.76686e+00  1.63878e+01 
 6.56163e+00  1.63716e+01 
 6.35747e+00  1.63558e+01 
 6.15426e+00  1.63405e+01 
 5.95207e+00  1.63257e+01 
 5.75077e+00  1.63114e+01 
 5.55042e+00  1.62975e+01 
 5.35091e+00  1.62841e+01 
 5.15228e+00  1.62712e+01 
 4.95444e+00  1.62587e+01 
 4.75742e+00  1.62467e+01 
 4.56113e+00  1.62352e+01 
 4.36560e+00  1.62242e+01 
 4.17074e+00  1.62136e+01 
 3.97658e+00  1.62036e+01 
 3.78302e+00  1.61939e+01 
 3.59012e+00  1.61848e+01 
 3.39775e+00  1.61761e+01 
 3.20597e+00  1.61679e+01 
 3.01467e+00  1.61602e+01 
 2.82390e+00  1.61529e+01 
 2.63355e+00  1.61461e+01 
 2.44366e+00  1.61398e+01 
 2.25414e+00  1.61340e+01 
 2.06502e+00  1.61286e+01 
 1.87620e+00  1.61237e+01 
 1.68773e+00  1.61192e+01 
 1.49949e+00  1.61152e+01 
 1.31153e+00  1.61117e+01 
 1.12376e+00  1.61087e+01 
 9.36201e-01  1.61061e+01 
 7.48762e-01  1.61040e+01 
 5.61482e-01  1.61024e+01 
 3.74258e-01  1.61012e+01 
 1.87132e-01  1.61005e+01 
-6.62445e-13  1.61003e+01 
-1.87132e-01  1.61005e+01 
-3.74258e-01  1.61012e+01 
-5.61482e-01  1.61024e+01 
-7.48762e-01  1.61040e+01 
-9.36201e-01  1.61061e+01 
-1.12376e+00  1.61087e+01 
-1.31153e+00  1.61117e+01 
-1.49949e+00  1.61152e+01 
-1.68773e+00  1.61192e+01 
-1.87620e+00  1.61237e+01 
-2.06502e+00  1.61286e+01 
-2.25414e+00  1.61340e+01 
-2.44366e+00  1.61398e+01 
-2.63355e+00  1.61461e+01 
-2.82390e+00  1.61529e+01 
-3.01467e+00  1.61602e+01 
-3.20597e+00  1.61679e+01 
-3.39775e+00  1.61761e+01 
-3.59012e+00  1.61848e+01 
-3.78302e+00  1.61939e+01 
-3.97658e+00  1.62036e+01 
-4.17074e+00  1.62136e+01 
-4.36560e+00  1.62242e+01 
-4.56113e+00  1.62352e+01 
-4.75742e+00  1.62467e+01 
-4.95444e+00  1.62587e+01 
-5.15228e+00  1.62712e+01 
-5.35091e+00  1.62841e+01 
-5.55042e+00  1.62975e+01 
-5.75077e+00  1.63114e+01 
-5.95207e+00  1.63257e+01 
-6.15426e+00  1.63405e+01 
-6.35747e+00  1.63558e+01 
-6.56163e+00  1.63716e+01 
-6.76686e+00  1.63878e+01 
-6.97311e+00  1.64045e+01 
-7.18048e+00  1.64217e+01 
-7.38893e+00  1.64394e+01 
-7.59857e+00  1.64575e+01 
-7.80934e+00  1.64761e+01 
-8.02137e+00  1.64952e+01 
-8.23458e+00  1.65148e+01 
-8.44910e+00  1.65348e+01 
-8.66488e+00  1.65553e+01 
-8.88203e+00  1.65763e+01 
-9.10049e+00  1.65977e+01 
-9.32038e+00  1.66196e+01 
-9.54164e+00  1.66420e+01 
-9.76440e+00  1.66649e+01 
 9.97052e+00  1.75991e+01 
 9.74356e+00  1.75773e+01 
 9.51810e+00  1.75560e+01 
 9.29400e+00  1.75351e+01 
 9.07134e+00  1.75147e+01 
 8.84998e+00  1.74948e+01 
 8.63000e+00  1.74753e+01 
 8.41126e+00  1.74562e+01 
 8.19383e+00  1.74376e+01 
 7.97759e+00  1.74195e+01 
 7.76261e+00  1.74018e+01 
 7.54875e+00  1.73845e+01 
 7.33608e+00  1.73677e+01 
 7.12449e+00  1.73514e+01 
 6.91402e+00  1.73355e+01 
 6.70457e+00  1.73200e+01 
 6.49618e+00  1.73051e+01 
 6.28876e+00  1.72905e+01 
 6.08234e+00  1.72764e+01 
 5.87682e+00  1.72628e+01 
 5.67225e+00  1.72496e+01 
 5.46852e+00  1.72369e+01 
 5.26567e+00  1.72246e+01 
 5.06361e+00  1.72128e+01 
 4.86238e+00  1.72015e+01 
 4.66187e+00  1.71905e+01 
 4.46213e+00  1.71801e+01 
 4.26305e+00  1.71700e+01 
 4.06468e+00  1.71605e+01 
 3.86692e+00  1.71514e+01 
 3.66980e+00  1.71427e+01 
 3.47323e+00  1.71345e+01 
 3.27724e+00  1.71267e+01 
 3.08174e+00  1.71194e+01 
 2.88677e+00  1.71125e+01 
 2.69222e+00  1.71060e+01 
 2.49814e+00  1.71000e+01 
 2.30441e+00  1.70945e+01 
 2.11110e+00  1.70894e+01 
 1.91809e+00  1.70848e+01 
 1.72542e+00  1.70805e+01 
 1.53299e+00  1.70768e+01 
 1.34085e+00  1.70735e+01 
 1.14888e+00  1.70706e+01 
 9.57135e-01  1.70681e+01 
 7.65508e-01  1.70661e+01 
 5.74042e-01  1.70646e+01 
 3.82630e-01  1.70635e+01 
 1.91319e-01  1.70628e+01 
-6.13808e-13  1.70626e+01 
-1.91319e-01  1.70628e+01 
-3.82630e-01  1.70635e+01 
-5.74042e-01  1.70646e+01 
-7.65508e-01  1.70661e+01 
-9.57135e-01  1.70681e+01 
-1.14888e+00  1.70706e+01 
-1.34085e+00  1.70735e+01 
-1.53299e+00  1.70768e+01 
-1.72542e+00  1.70805e+01 
-1.91809e+00  1.70848e+01 
-2.11110e+00  1.70894e+01 
-2.30441e+00  1.70945e+01 
-2.49814e+00  1.71000e+01 
-2.69222e+00  1.71060e+01 
-2.88677e+00  1.71125e+01 
-3.08174e+00  1.71194e+01 
-3.27724e+00  1.71267e+01 
-3.47323e+00  1.71345e+01 
-3.66980e+00  1.71427e+01 
-3.86692e+00  1.71514e+01 
-4.06468e+00  1.71605e+01 
-4.26305e+00  1.71700e+01 
-4.46213e+00  1.71801e+01 
-4.66187e+00  1.71905e+01 
-4.86238e+00  1.72015e+01 
-5.06361e+00  1.72128e+01 
-5.26567e+00  1.72246e+01 
-5.46852e+00  1.72369e+01 
-5.67225e+00  1.72496e+01 
-5.87682e+00  1.72628e+01 
-6.08234e+00  1.72764e+01 
-6.28876e+00  1.72905e+01 
-6.49618e+00  1.73051e+01 
-6.70457e+00  1.73200e+01 
-6.91402e+00  1.73355e+01 
-7.12449e+00  1.73514e+01 
-7.33608e+00  1.73677e+01 
-7.54875e+00  1.73845e+01 
-7.76261e+00  1.74018e+01 
-7.97759e+00  1.74195e+01 
-8.19383e+00  1.74376e+01 
-8.41126e+00  1.74562e+01 
-8.63000e+00  1.74753e+01 
-8.84998e+00  1.74948e+01 
-9.07134e+00  1.75147e+01 
-9.29400e+00  1.75351e+01 
-9.51810e+00  1.75560e+01 
-9.74356e+00  1.75773e+01 
-9.97052e+00  1.75991e+01 
 1.01664e+01  1.85501e+01 
 9.93545e+00  1.85294e+01 
 9.70599e+00  1.85092e+01 
 9.47790e+00  1.84894e+01 
 9.25124e+00  1.84701e+01 
 9.02588e+00  1.84511e+01 
 8.80189e+00  1.84326e+01 
 8.57915e+00  1.84145e+01 
 8.35771e+00  1.83969e+01 
 8.13746e+00  1.83797e+01 
 7.91846e+00  1.83629e+01 
 7.70059e+00  1.83465e+01 
 7.48390e+00  1.83306e+01 
 7.26829e+00  1.83151e+01 
 7.05380e+00  1.83000e+01 
 6.84033e+00  1.82854e+01 
 6.62793e+00  1.82712e+01 
 6.41648e+00  1.82574e+01 
 6.20605e+00  1.82441e+01 
 5.99651e+00  1.82312e+01 
 5.78792e+00  1.82187e+01 
 5.58017e+00  1.82066e+01 
 5.37331e+00  1.81950e+01 
 5.16724e+00  1.81838e+01 
 4.96199e+00  1.81731e+01 
 4.75747e+00  1.81627e+01 
 4.55372e+00  1.81528e+01 
 4.35064e+00  1.81434e+01 
 4.14827e+00  1.81343e+01 
 3.94650e+00  1.81257e+01 
 3.74539e+00  1.81175e+01 
 3.54482e+00  1.81097e+01 
 3.34484e+00  1.81024e+01 
 3.14534e+00  1.80955e+01 
 2.94638e+00  1.80890e+01 
 2.74784e+00  1.80829e+01 
 2.54978e+00  1.80773e+01 
 2.35207e+00  1.80720e+01 
 2.15478e+00  1.80672e+01 
 1.95779e+00  1.80628e+01 
 1.76114e+00  1.80589e+01 
 1.56474e+00  1.80553e+01 
 1.36862e+00  1.80522e+01 
 1.17269e+00  1.80495e+01 
 9.76973e-01  1.80472e+01 
 7.81377e-01  1.80453e+01 
 5.85943e-01  1.80438e+01 
 3.90564e-01  1.80428e+01 
 1.95286e-01  1.80422e+01 
-5.34424e-13  1.80419e+01 
-1.95286e-01  1.80422e+01 
-3.90564e-01  1.80428e+01 
-5.85943e-01  1.80438e+01 
-7.81377e-01  1.80453e+01 
-9.76973e-01  1.80472e+01 
-1.17269e+00  1.80495e+01 
-1.36862e+00  1.80522e+01 
-1.56474e+00  1.80553e+01 
-1.76114e+00  1.80589e+01 
-1.95779e+00  1.80628e+01 
-2.15478e+00  1.80672e+01 
-2.35207e+00  1.80720e+01 
-2.54978e+00  1.80773e+01 
-2.74784e+00  1.80829e+01 
-2.94638e+00  1.80890e+01 
-3.14534e+00  1.80955e+01 
-3.34484e+00  1.81024e+01 
-3.54482e+00  1.81097e+01 
-3.74539e+00  1.81175e+01 
-3.94650e+00  1.81257e+01 
-4.14827e+00  1.81343e+01 
-4.35064e+00  1.81434e+01 
-4.55372e+00  1.81528e+01 
-4.75747e+00  1.81627e+01 
-4.96199e+00  1.81731e+01 
-5.16724e+00  1.81838e+01 
-5.37331e+00  1.81950e+01 
-5.58017e+00  1.82066e+01 
-5.78792e+00  1.82187e+01 
-5.99651e+00  1.82312e+01 
-6.20605e+00  1.82441e+01 
-6.41648e+00  1.82574e+01 
-6.62793e+00  1.82712e+01 
-6.84033e+00  1.82854e+01 
-7.05380e+00  1.83000e+01 
-7.26829e+00  1.83151e+01 
-7.48390e+00  1.83306e+01 
-7.70059e+00  1.83465e+01 
-7.91846e+00  1.83629e+01 
-8.13746e+00  1.83797e+01 
-8.35771e+00  1.83969e+01 
-8.57915e+00  1.84145e+01 
-8.80189e+00  1.84326e+01 
-9.02588e+00  1.84511e+01 
-9.25124e+00  1.84701e+01 
-9.47790e+00  1.84894e+01 
-9.70599e+00  1.85092e+01 
-9.93545e+00  1.85294e+01 
-1.01664e+01  1.85501e+01 
 1.03521e+01  1.95171e+01 
 1.01173e+01  1.94976e+01 
 9.88410e+00  1.94785e+01 
 9.65222e+00  1.94597e+01 
 9.42177e+00  1.94414e+01 
 9.19261e+00  1.94235e+01 
 8.96482e+00  1.94060e+01 
 8.73827e+00  1.93889e+01 
 8.51303e+00  1.93722e+01 
 8.28897e+00  1.93559e+01 
 8.06615e+00  1.93400e+01 
 7.84446e+00  1.93245e+01 
 7.62396e+00  1.93095e+01 
 7.40453e+00  1.92948e+01 
 7.18622e+00  1.92806e+01 
 6.96893e+00  1.92668e+01 
 6.75270e+00  1.92533e+01 
 6.53743e+00  1.92403e+01 
 6.32318e+00  1.92277e+01 
 6.10982e+00  1.92156e+01 
 5.89741e+00  1.92038e+01 
 5.68585e+00  1.91924e+01 
 5.47518e+00  1.91815e+01 
 5.26529e+00  1.91709e+01 
 5.05624e+00  1.91608e+01 
 4.84791e+00  1.91511e+01 
 4.64036e+00  1.91417e+01 
 4.43347e+00  1.91328e+01 
 4.22730e+00  1.91243e+01 
 4.02174e+00  1.91162e+01 
 3.81684e+00  1.91085e+01 
 3.61248e+00  1.91012e+01 
 3.40872e+00  1.90943e+01 
 3.20545e+00  1.90878e+01 
 3.00271e+00  1.90817e+01 
 2.80040e+00  1.90760e+01 
 2.59856e+00  1.90706e+01 
 2.39709e+00  1.90657e+01 
 2.19604e+00  1.90612e+01 
 1.99528e+00  1.90571e+01 
 1.79488e+00  1.90534e+01 
 1.59472e+00  1.90500e+01 
 1.39486e+00  1.90471e+01 
 1.19517e+00  1.90445e+01 
 9.95704e-01  1.90424e+01 
 7.96359e-01  1.90406e+01 
 5.97179e-01  1.90393e+01 
 3.98054e-01  1.90383e+01 
 1.99031e-01  1.90377e+01 
-4.86687e-13  1.90375e+01 
-1.99031e-01  1.90377e+01 
-3.98054e-01  1.90383e+01 
-5.97179e-01  1.90393e+01 
-7.96359e-01  1.90406e+01 
-9.95704e-01  1.90424e+01 
-1.19517e+00  1.90445e+01 
-1.39486e+00  1.90471e+01 
-1.59472e+00  1.90500e+01 
-1.79488e+00  1.90534e+01 
-1.99528e+00  1.90571e+01 
-2.19604e+00  1.90612e+01 
-2.39709e+00  1.90657e+01 
-2.59856e+00  1.90706e+01 
-2.80040e+00  1.90760e+01 
-3.00271e+00  1.90817e+01 
-3.20545e+00  1.90878e+01 
-3.40872e+00  1.90943e+01 
-3.61248e+00  1.91012e+01 
-3.81684e+00  1.91085e+01 
-4.02174e+00  1.91162e+01 
-4.22730e+00  1.91243e+01 
-4.43347e+00  1.91328e+01 
-4.64036e+00  1.91417e+01 
-4.84791e+00  1.91511e+01 
-5.05624e+00  1.91608e+01 
-5.26529e+00  1.91709e+01 
-5.47518e+00  1.91815e+01 
-5.68585e+00  1.91924e+01 
-5.89741e+00  1.92038e+01 
-6.10982e+00  1.92156e+01 
-6.32318e+00  1.92277e+01 
-6.53743e+00  1.92403e+01 
-6.75270e+00  1.92533e+01 
-6.96893e+00  1.92668e+01 
-7.18622e+00  1.92806e+01 
-7.40453e+00  1.92948e+01 
-7.62396e+00  1.93095e+01 
-7.84446e+00  1.93245e+01 
-8.06615e+00  1.93400e+01 
-8.28897e+00  1.93559e+01 
-8.51303e+00  1.93722e+01 
-8.73827e+00  1.93889e+01 
-8.96482e+00  1.94060e+01 
-9.19261e+00  1.94235e+01 
-9.42177e+00  1.94414e+01 
-9.65222e+00  1.94597e+01 
-9.88410e+00  1.94785e+01 
-1.01173e+01  1.94976e+01 
-1.03521e+01  1.95171e+01 
 1.05275e+01  2.04993e+01 
 1.02892e+01  2.04808e+01 
 1.00524e+01  2.04628e+01 
 9.81697e+00  2.04451e+01 
 9.58293e+00  2.04278e+01 
 9.35018e+00  2.04109e+01 
 9.11879e+00  2.03944e+01 
 8.88864e+00  2.03782e+01 
 8.65978e+00  2.03625e+01 
 8.43210e+00  2.03471e+01 
 8.20567e+00  2.03322e+01 
 7.98036e+00  2.03176e+01 
 7.75623e+00  2.03034e+01 
 7.53317e+00  2.02896e+01 
 7.31124e+00  2.02762e+01 
 7.09032e+00  2.02632e+01 
 6.87047e+00  2.02506e+01 
 6.65158e+00  2.02383e+01 
 6.43370e+00  2.02265e+01 
 6.21672e+00  2.02150e+01 
 6.00069e+00  2.02040e+01 
 5.78551e+00  2.01933e+01 
 5.57122e+00  2.01830e+01 
 5.35772e+00  2.01731e+01 
 5.14506e+00  2.01636e+01 
 4.93313e+00  2.01545e+01 
 4.72198e+00  2.01458e+01 
 4.51150e+00  2.01374e+01 
 4.30174e+00  2.01294e+01 
 4.09259e+00  2.01218e+01 
 3.88411e+00  2.01146e+01 
 3.67618e+00  2.01078e+01 
 3.46885e+00  2.01013e+01 
 3.26201e+00  2.00953e+01 
 3.05571e+00  2.00896e+01 
 2.84984e+00  2.00842e+01 
 2.64445e+00  2.00793e+01 
 2.43943e+00  2.00747e+01 
 2.23483e+00  2.00705e+01 
 2.03054e+00  2.00666e+01 
 1.82660e+00  2.00632e+01 
 1.62291e+00  2.00600e+01 
 1.41951e+00  2.00573e+01 
 1.21630e+00  2.00549e+01 
 1.01331e+00  2.00529e+01 
 8.10440e-01  2.00513e+01 
 6.07739e-01  2.00500e+01 
 4.05093e-01  2.00491e+01 
 2.02551e-01  2.00485e+01 
-4.42133e-13  2.00484e+01 
-2.02551e-01  2.00485e+01 
-4.05093e-01  2.00491e+01 
-6.07739e-01  2.00500e+01 
-8.10440e-01  2.00513e+01 
-1.01331e+00  2.00529e+01 
-1.21630e+00  2.00549e+01 
-1.41951e+00  2.00573e+01 
-1.62291e+00  2.00600e+01 
-1.82660e+00  2.00632e+01 
-2.03054e+00  2.00666e+01 
-2.23483e+00  2.00705e+01 
-2.43943e+00  2.00747e+01 
-2.64445e+00  2.00793e+01 
-2.84984e+00  2.00842e+01 
-3.05571e+00  2.00896e+01 
-3.26201e+00  2.00953e+01 
-3.46885e+00  2.01013e+01 
-3.67618e+00  2.01078e+01 
-3.88411e+00  2.01146e+01 
-4.09259e+00  2.01218e+01 
-4.30174e+00  2.01294e+01 
-4.51150e+00  2.01374e+01 
-4.72198e+00  2.01458e+01 
-4.93313e+00  2.01545e+01 
-5.14506e+00  2.01636e+01 
-5.35772e+00  2.01731e+01 
-5.57122e+00  2.01830e+01 
-5.78551e+00  2.01933e+01 
-6.00069e+00  2.02040e+01 
-6.21672e+00  2.02150e+01 
-6.43370e+00  2.02265e+01 
-6.65158e+00  2.02383e+01 
-6.87047e+00  2.02506e+01 
-7.09032e+00  2.02632e+01 
-7.31124e+00  2.02762e+01 
-7.53317e+00  2.02896e+01 
-7.75623e+00  2.03034e+01 
-7.98036e+00  2.03176e+01 
-8.20567e+00  2.03322e+01 
-8.43210e+00  2.03471e+01 
-8.65978e+00  2.03625e+01 
-8.88864e+00  2.03782e+01 
-9.11879e+00  2.03944e+01 
-9.35018e+00  2.04109e+01 
-9.58293e+00  2.04278e+01 
-9.81697e+00  2.04451e+01 
-1.00524e+01  2.04628e+01 
-1.02892e+01  2.04808e+01 
-1.05275e+01  2.04993e+01 
 1.06929e+01  2.14957e+01 
 1.04512e+01  2.14783e+01 
 1.02111e+01  2.14613e+01 
 9.97221e+00  2.14447e+01 
 9.73478e+00  2.14284e+01 
 9.49863e+00  2.14125e+01 
 9.26384e+00  2.13970e+01 
 9.03027e+00  2.13818e+01 
 8.79800e+00  2.13670e+01 
 8.56690e+00  2.13526e+01 
 8.33703e+00  2.13385e+01 
 8.10829e+00  2.13249e+01 
 7.88073e+00  2.13115e+01 
 7.65424e+00  2.12986e+01 
 7.42887e+00  2.12860e+01 
 7.20451e+00  2.12738e+01 
 6.98122e+00  2.12620e+01 
 6.75889e+00  2.12506e+01 
 6.53758e+00  2.12395e+01 
 6.31717e+00  2.12288e+01 
 6.09771e+00  2.12184e+01 
 5.87911e+00  2.12085e+01 
 5.66140e+00  2.11989e+01 
 5.44449e+00  2.11896e+01 
 5.22842e+00  2.11808e+01 
 5.01309e+00  2.11723e+01 
 4.79854e+00  2.11641e+01 
 4.58467e+00  2.11564e+01 
 4.37153e+00  2.11489e+01 
 4.15900e+00  2.11419e+01 
 3.94715e+00  2.11352e+01 
 3.73585e+00  2.11288e+01 
 3.52516e+00  2.11228e+01 
 3.31497e+00  2.11172e+01 
 3.10533e+00  2.11119e+01 
 2.89612e+00  2.11070e+01 
 2.68740e+00  2.11024e+01 
 2.47905e+00  2.10981e+01 
 2.27113e+00  2.10942e+01 
 2.06352e+00  2.10907e+01 
 1.85627e+00  2.10874e+01 
 1.64927e+00  2.10846e+01 
 1.44257e+00  2.10820e+01 
 1.23605e+00  2.10798e+01 
 1.02977e+00  2.10780e+01 
 8.23604e-01  2.10765e+01 
 6.17610e-01  2.10753e+01 
 4.11673e-01  2.10744e+01 
 2.05841e-01  2.10739e+01 
-3.90775e-13  2.10738e+01 
-2.05841e-01  2.10739e+01 
-4.11673e-01  2.10744e+01 
-6.17610e-01  2.10753e+01 
-8.23604e-01  2.10765e+01 
-1.02977e+00  2.10780e+01 
-1.23605e+00  2.10798e+01 
-1.44257e+00  2.10820e+01 
-1.64927e+00  2.10846e+01 
-1.85627e+00  2.10874e+01 
-2.06352e+00  2.10907e+01 
-2.27113e+00  2.10942e+01 
-2.47905e+00  2.10981e+01 
-2.68740e+00  2.11024e+01 
-2.89612e+00  2.11070e+01 
-3.10533e+00  2.11119e+01 
-3.31497e+00  2.11172e+01 
-3.52516e+00  2.11228e+01 
-3.73585e+00  2.11288e+01 
-3.94715e+00  2.11352e+01 
-4.15900e+00  2.11419e+01 
-4.37153e+00  2.11489e+01 
-4.58467e+00  2.11564e+01 
-4.79854e+00  2.11641e+01 
-5.01309e+00  2.11723e+01 
-5.22842e+00  2.11808e+01 
-5.44449e+00  2.11896e+01 
-5.66140e+00  2.11989e+01 
-5.87911e+00  2.12085e+01 
-6.09771e+00  2.12184e+01 
-6.31717e+00  2.12288e+01 
-6.53758e+00  2.12395e+01 
-6.75889e+00  2.12506e+01 
-6.98122e+00  2.12620e+01 
-7.20451e+00  2.12738e+01 
-7.42887e+00  2.12860e+01 
-7.65424e+00  2.12986e+01 
-7.88073e+00  2.13115e+01 
-8.10829e+00  2.13249e+01 
-8.33703e+00  2.13385e+01 
-8.56690e+00  2.13526e+01 
-8.79800e+00  2.13670e+01 
-9.03027e+00  2.13818e+01 
-9.26384e+00  2.13970e+01 
-9.49863e+00  2.14125e+01 
-9.73478e+00  2.14284e+01 
-9.97221e+00  2.14447e+01 
-1.02111e+01  2.14613e+01 
-1.04512e+01  2.14783e+01 
-1.06929e+01  2.14957e+01 
 1.08482e+01  2.25055e+01 
 1.06034e+01  2.24892e+01 
 1.03600e+01  2.24733e+01 
 1.01180e+01  2.24577e+01 
 9.87738e+00  2.24425e+01 
 9.63803e+00  2.24276e+01 
 9.40001e+00  2.24130e+01 
 9.16322e+00  2.23988e+01 
 8.92771e+00  2.23849e+01 
 8.69337e+00  2.23714e+01 
 8.46026e+00  2.23583e+01 
 8.22827e+00  2.23455e+01 
 7.99745e+00  2.23331e+01 
 7.76770e+00  2.23210e+01 
 7.53908e+00  2.23093e+01 
 7.31147e+00  2.22979e+01 
 7.08493e+00  2.22869e+01 
 6.85935e+00  2.22762e+01 
 6.63478e+00  2.22659e+01 
 6.41113e+00  2.22560e+01 
 6.18844e+00  2.22464e+01 
 5.96660e+00  2.22371e+01 
 5.74567e+00  2.22282e+01 
 5.52553e+00  2.22197e+01 
 5.30626e+00  2.22115e+01 
 5.08772e+00  2.22036e+01 
 4.86997e+00  2.21961e+01 
 4.65291e+00  2.21889e+01 
 4.43659e+00  2.21820e+01 
 4.22090e+00  2.21755e+01 
 4.00588e+00  2.21693e+01 
 3.79143e+00  2.21635e+01 
 3.57760e+00  2.21580e+01 
 3.36427e+00  2.21528e+01 
 3.15150e+00  2.21479e+01 
 2.93918e+00  2.21434e+01 
 2.72735e+00  2.21391e+01 
 2.51590e+00  2.21352e+01 
 2.30488e+00  2.21316e+01 
 2.09418e+00  2.21284e+01 
 1.88385e+00  2.21254e+01 
 1.67377e+00  2.21228e+01 
 1.46399e+00  2.21205e+01 
 1.25441e+00  2.21185e+01 
 1.04506e+00  2.21168e+01 
 8.35831e-01  2.21154e+01 
 6.26779e-01  2.21143e+01 
 4.17784e-01  2.21135e+01 
 2.08896e-01  2.21130e+01 
-3.55186e-13  2.21129e+01 
-2.08896e-01  2.21130e+01 
-4.17784e-01  2.21135e+01 
-6.26779e-01  2.21143e+01 
-8.35831e-01  2.21154e+01 
-1.04506e+00  2.21168e+01 
-1.25441e+00  2.21185e+01 
-1.46399e+00  2.21205e+01 
-1.67377e+00  2.21228e+01 
-1.88385e+00  2.21254e+01 
-2.09418e+00  2.21284e+01 
-2.30488e+00  2.21316e+01 
-2.51590e+00  2.21352e+01 
-2.72735e+00  2.21391e+01 
-2.93918e+00  2.21434e+01 
-3.15150e+00  2.21479e+01 
-3.36427e+00  2.21528e+01 
-3.57760e+00  2.21580e+01 
-3.79143e+00  2.21635e+01 
-4.00588e+00  2.21693e+01 
-4.22090e+00  2.21755e+01 
-4.43659e+00  2.21820e+01 
-4.65291e+00  2.21889e+01 
-4.86997e+00  2.21961e+01 
-5.08772e+00  2.22036e+01 
-5.30626e+00  2.22115e+01 
-5.52553e+00  2.22197e+01 
-5.74567e+00  2.22282e+01 
-5.96660e+00  2.22371e+01 
-6.18844e+00  2.22464e+01 
-6.41113e+00  2.22560e+01 
-6.63478e+00  2.22659e+01 
-6.85935e+00  2.22762e+01 
-7.08493e+00  2.22869e+01 
-7.31147e+00  2.22979e+01 
-7.53908e+00  2.23093e+01 
-7.76770e+00  2.23210e+01 
-7.99745e+00  2.23331e+01 
-8.22827e+00  2.23455e+01 
-8.46026e+00  2.23583e+01 
-8.69337e+00  2.23714e+01 
-8.92771e+00  2.23849e+01 
-9.16322e+00  2.23988e+01 
-9.40001e+00  2.24130e+01 
-9.63803e+00  2.24276e+01 
-9.87738e+00  2.24425e+01 
-1.01180e+01  2.24577e+01 
-1.03600e+01  2.24733e+01 
-1.06034e+01  2.24892e+01 
-1.08482e+01  2.25055e+01 
 1.09936e+01  2.35278e+01 
 1.07458e+01  2.35126e+01 
 1.04995e+01  2.34977e+01 
 1.02544e+01  2.34832e+01 
 1.00108e+01  2.34689e+01 
 9.76841e+00  2.34550e+01 
 9.52736e+00  2.34414e+01 
 9.28751e+00  2.34282e+01 
 9.04894e+00  2.34153e+01 
 8.81153e+00  2.34027e+01 
 8.57535e+00  2.33905e+01 
 8.34028e+00  2.33786e+01 
 8.10638e+00  2.33671e+01 
 7.87355e+00  2.33558e+01 
 7.64184e+00  2.33450e+01 
 7.41115e+00  2.33344e+01 
 7.18153e+00  2.33242e+01 
 6.95288e+00  2.33144e+01 
 6.72525e+00  2.33049e+01 
 6.49853e+00  2.32957e+01 
 6.27278e+00  2.32868e+01 
 6.04789e+00  2.32783e+01 
 5.82393e+00  2.32701e+01 
 5.60077e+00  2.32623e+01 
 5.37847e+00  2.32547e+01 
 5.15692e+00  2.32475e+01 
 4.93619e+00  2.32406e+01 
 4.71614e+00  2.32340e+01 
 4.49685e+00  2.32278e+01 
 4.27819e+00  2.32218e+01 
 4.06023e+00  2.32162e+01 
 3.84284e+00  2.32108e+01 
 3.62608e+00  2.32058e+01 
 3.40984e+00  2.32011e+01 
 3.19416e+00  2.31966e+01 
 2.97894e+00  2.31925e+01 
 2.76423e+00  2.31887e+01 
 2.54990e+00  2.31851e+01 
 2.33602e+00  2.31819e+01 
 2.12246e+00  2.31789e+01 
 1.90928e+00  2.31762e+01 
 1.69635e+00  2.31738e+01 
 1.48374e+00  2.31717e+01 
 1.27132e+00  2.31699e+01 
 1.05915e+00  2.31684e+01 
 8.47098e-01  2.31671e+01 
 6.35226e-01  2.31661e+01 
 4.23414e-01  2.31654e+01 
 2.11711e-01  2.31650e+01 
-3.00388e-13  2.31649e+01 
-2.11711e-01  2.31650e+01 
-4.23414e-01  2.31654e+01 
-6.35226e-01  2.31661e+01 
-8.47098e-01  2.31671e+01 
-1.05915e+00  2.31684e+01 
-1.27132e+00  2.31699e+01 
-1.48374e+00  2.31717e+01 
-1.69635e+00  2.31738e+01 
-1.90928e+00  2.31762e+01 
-2.12246e+00  2.31789e+01 
-2.33602e+00  2.31819e+01 
-2.54990e+00  2.31851e+01 
-2.76423e+00  2.31887e+01 
-2.97894e+00  2.31925e+01 
-3.19416e+00  2.31966e+01 
-3.40984e+00  2.32011e+01 
-3.62608e+00  2.32058e+01 
-3.84284e+00  2.32108e+01 
-4.06023e+00  2.32162e+01 
-4.27819e+00  2.32218e+01 
-4.49685e+00  2.32278e+01 
-4.71614e+00  2.32340e+01 
-4.93619e+00  2.32406e+01 
-5.15692e+00  2.32475e+01 
-5.37847e+00  2.32547e+01 
-5.60077e+00  2.32623e+01 
-5.82393e+00  2.32701e+01 
-6.04789e+00  2.32783e+01 
-6.27278e+00  2.32868e+01 
-6.49853e+00  2.32957e+01 
-6.72525e+00  2.33049e+01 
-6.95288e+00  2.33144e+01 
-7.18153e+00  2.33242e+01 
-7.41115e+00  2.33344e+01 
-7.64184e+00  2.33450e+01 
-7.87355e+00  2.33558e+01 
-8.10638e+00  2.33671e+01 
-8.34028e+00  2.33786e+01 
-8.57535e+00  2.33905e+01 
-8.81153e+00  2.34027e+01 
-9.04894e+00  2.34153e+01 
-9.28751e+00  2.34282e+01 
-9.52736e+00  2.34414e+01 
-9.76841e+00  2.34550e+01 
-1.00108e+01  2.34689e+01 
-1.02544e+01  2.34832e+01 
-1.04995e+01  2.34977e+01 
-1.07458e+01  2.35126e+01 
-1.09936e+01  2.35278e+01 
 1.11291e+01  2.45618e+01 
 1.08786e+01  2.45477e+01 
 1.06294e+01  2.45338e+01 
 1.03816e+01  2.45203e+01 
 1.01351e+01  2.45071e+01 
 9.88988e+00  2.44941e+01 
 9.64595e+00  2.44815e+01 
 9.40321e+00  2.44692e+01 
 9.16174e+00  2.44573e+01 
 8.92142e+00  2.44456e+01 
 8.68233e+00  2.44343e+01 
 8.44433e+00  2.44233e+01 
 8.20751e+00  2.44127e+01 
 7.97176e+00  2.44023e+01 
 7.73713e+00  2.43923e+01 
 7.50352e+00  2.43826e+01 
 7.27099e+00  2.43733e+01 
 7.03942e+00  2.43642e+01 
 6.80890e+00  2.43555e+01 
 6.57929e+00  2.43471e+01 
 6.35067e+00  2.43390e+01 
 6.12291e+00  2.43313e+01 
 5.89610e+00  2.43238e+01 
 5.67009e+00  2.43166e+01 
 5.44497e+00  2.43098e+01 
 5.22062e+00  2.43032e+01 
 4.99708e+00  2.42970e+01 
 4.77426e+00  2.42910e+01 
 4.55220e+00  2.42854e+01 
 4.33079e+00  2.42800e+01 
 4.11009e+00  2.42749e+01 
 3.88998e+00  2.42701e+01 
 3.67051e+00  2.42655e+01 
 3.45158e+00  2.42613e+01 
 3.23322e+00  2.42573e+01 
 3.01534e+00  2.42536e+01 
 2.79797e+00  2.42501e+01 
 2.58100e+00  2.42470e+01 
 2.36448e+00  2.42441e+01 
 2.14830e+00  2.42414e+01 
 1.93251e+00  2.42390e+01 
 1.71698e+00  2.42369e+01 
 1.50177e+00  2.42350e+01 
 1.28677e+00  2.42333e+01 
 1.07201e+00  2.42320e+01 
 8.57381e-01  2.42308e+01 
 6.42935e-01  2.42300e+01 
 4.28551e-01  2.42293e+01 
 2.14280e-01  2.42290e+01 
-2.17492e-13  2.42288e+01 
-2.14280e-01  2.42290e+01 
-4.28551e-01  2.42293e+01 
-6.42935e-01  2.42300e+01 
-8.57381e-01  2.42308e+01 
-1.07201e+00  2.42320e+01 
-1.28677e+00  2.42333e+01 
-1.50177e+00  2.42350e+01 
-1.71698e+00  2.42369e+01 
-1.93251e+00  2.42390e+01 
-2.14830e+00  2.42414e+01 
-2.36448e+00  2.42441e+01 
-2.58100e+00  2.42470e+01 
-2.79797e+00  2.42501e+01 
-3.01534e+00  2.42536e+01 
-3.23322e+00  2.42573e+01 
-3.45158e+00  2.42613e+01 
-3.67051e+00  2.42655e+01 
-3.88998e+00  2.42701e+01 
-4.11009e+00  2.42749e+01 
-4.33079e+00  2.42800e+01 
-4.55220e+00  2.42854e+01 
-4.77426e+00  2.42910e+01 
-4.99708e+00  2.42970e+01 
-5.22062e+00  2.43032e+01 
-5.44497e+00  2.43098e+01 
-5.67009e+00  2.43166e+01 
-5.89610e+00  2.43238e+01 
-6.12291e+00  2.43313e+01 
-6.35067e+00  2.43390e+01 
-6.57929e+00  2.43471e+01 
-6.80890e+00  2.43555e+01 
-7.03942e+00  2.43642e+01 
-7.27099e+00  2.43733e+01 
-7.50352e+00  2.43826e+01 
-7.73713e+00  2.43923e+01 
-7.97176e+00  2.44023e+01 
-8.20751e+00  2.44127e+01 
-8.44433e+00  2.44233e+01 
-8.68233e+00  2.44343e+01 
-8.92142e+00  2.44456e+01 
-9.16174e+00  2.44573e+01 
-9.40321e+00  2.44692e+01 
-9.64595e+00  2.44815e+01 
-9.88988e+00  2.44941e+01 
-1.01351e+01  2.45071e+01 
-1.03816e+01  2.45203e+01 
-1.06294e+01  2.45338e+01 
-1.08786e+01  2.45477e+01 
-1.11291e+01  2.45618e+01 
 1.12551e+01  2.56068e+01 
 1.10019e+01  2.55937e+01 
 1.07502e+01  2.55809e+01 
 1.04997e+01  2.55683e+01 
 1.02505e+01  2.55561e+01 
 1.00025e+01  2.55442e+01 
 9.75587e+00  2.55325e+01 
 9.51039e+00  2.55212e+01 
 9.26616e+00  2.55102e+01 
 9.02307e+00  2.54994e+01 
 8.78120e+00  2.54890e+01 
 8.54043e+00  2.54790e+01 
 8.30083e+00  2.54692e+01 
 8.06229e+00  2.54597e+01 
 7.82489e+00  2.54506e+01 
 7.58851e+00  2.54418e+01 
 7.35322e+00  2.54333e+01 
 7.11891e+00  2.54250e+01 
 6.88565e+00  2.54171e+01 
 6.65332e+00  2.54095e+01 
 6.42199e+00  2.54022e+01 
 6.19155e+00  2.53952e+01 
 5.96206e+00  2.53885e+01 
 5.73341e+00  2.53821e+01 
 5.50565e+00  2.53759e+01 
 5.27868e+00  2.53701e+01 
 5.05255e+00  2.53645e+01 
 4.82715e+00  2.53591e+01 
 4.60253e+00  2.53541e+01 
 4.37858e+00  2.53493e+01 
 4.15536e+00  2.53448e+01 
 3.93275e+00  2.53405e+01 
 3.71080e+00  2.53365e+01 
 3.48940e+00  2.53327e+01 
 3.26860e+00  2.53292e+01 
 3.04828e+00  2.53259e+01 
 2.82849e+00  2.53228e+01 
 2.60912e+00  2.53200e+01 
 2.39021e+00  2.53174e+01 
 2.17165e+00  2.53151e+01 
 1.95349e+00  2.53130e+01 
 1.73561e+00  2.53111e+01 
 1.51805e+00  2.53094e+01 
 1.30070e+00  2.53080e+01 
 1.08361e+00  2.53068e+01 
 8.66656e-01  2.53058e+01 
 6.49888e-01  2.53050e+01 
 4.33184e-01  2.53045e+01 
 2.16596e-01  2.53042e+01 
-1.51096e-13  2.53040e+01 
-2.16596e-01  2.53042e+01 
-4.33184e-01  2.53045e+01 
-6.49888e-01  2.53050e+01 
-8.66656e-01  2.53058e+01 
-1.08361e+00  2.53068e+01 
-1.30070e+00  2.53080e+01 
-1.51805e+00  2.53094e+01 
-1.73561e+00  2.53111e+01 
-1.95349e+00  2.53130e+01 
-2.17165e+00  2.53151e+01 
-2.39021e+00  2.53174e+01 
-2.60912e+00  2.53200e+01 
-2.82849e+00  2.53228e+01 
-3.04828e+00  2.53259e+01 
-3.26860e+00  2.53292e+01 
-3.48940e+00  2.53327e+01 
-3.71080e+00  2.53365e+01 
-3.93275e+00  2.53405e+01 
-4.15536e+00  2.53448e+01 
-4.37858e+00  2.53493e+01 
-4.60253e+00  2.53541e+01 
-4.82715e+00  2.53591e+01 
-5.05255e+00  2.53645e+01 
-5.27868e+00  2.53701e+01 
-5.50565e+00  2.53759e+01 
-5.73341e+00  2.53821e+01 
-5.96206e+00  2.53885e+01 
-6.19155e+00  2.53952e+01 
-6.42199e+00  2.54022e+01 
-6.65332e+00  2.54095e+01 
-6.88565e+00  2.54171e+01 
-7.11891e+00  2.54250e+01 
-7.35322e+00  2.54333e+01 
-7.58851e+00  2.54418e+01 
-7.82489e+00  2.54506e+01 
-8.06229e+00  2.54597e+01 
-8.30083e+00  2.54692e+01 
-8.54043e+00  2.54790e+01 
-8.78120e+00  2.54890e+01 
-9.02307e+00  2.54994e+01 
-9.26616e+00  2.55102e+01 
-9.51039e+00  2.55212e+01 
-9.75587e+00  2.55325e+01 
-1.00025e+01  2.55442e+01 
-1.02505e+01  2.55561e+01 
-1.04997e+01  2.55683e+01 
-1.07502e+01  2.55809e+01 
-1.10019e+01  2.55937e+01 
-1.12551e+01  2.56068e+01 
 1.13716e+01  2.66620e+01 
 1.11161e+01  2.66499e+01 
 1.08618e+01  2.66381e+01 
 1.06088e+01  2.66265e+01 
 1.03570e+01  2.66152e+01 
 1.01065e+01  2.66042e+01 
 9.85722e+00  2.65935e+01 
 9.60911e+00  2.65831e+01 
 9.36224e+00  2.65731e+01 
 9.11650e+00  2.65633e+01 
 8.87197e+00  2.65538e+01 
 8.62854e+00  2.65446e+01 
 8.38628e+00  2.65358e+01 
 8.14510e+00  2.65272e+01 
 7.90505e+00  2.65189e+01 
 7.66604e+00  2.65110e+01 
 7.42814e+00  2.65033e+01 
 7.19123e+00  2.64960e+01 
 6.95539e+00  2.64889e+01 
 6.72050e+00  2.64821e+01 
 6.48663e+00  2.64756e+01 
 6.25367e+00  2.64694e+01 
 6.02169e+00  2.64634e+01 
 5.79057e+00  2.64577e+01 
 5.56037e+00  2.64523e+01 
 5.33098e+00  2.64471e+01 
 5.10246e+00  2.64422e+01 
 4.87468e+00  2.64375e+01 
 4.64773e+00  2.64330e+01 
 4.42146e+00  2.64288e+01 
 4.19594e+00  2.64249e+01 
 3.97105e+00  2.64211e+01 
 3.74685e+00  2.64176e+01 
 3.52322e+00  2.64143e+01 
 3.30020e+00  2.64112e+01 
 3.07769e+00  2.64084e+01 
 2.85572e+00  2.64057e+01 
 2.63419e+00  2.64033e+01 
 2.41314e+00  2.64011e+01 
 2.19245e+00  2.63990e+01 
 1.97217e+00  2.63972e+01 
 1.75218e+00  2.63955e+01 
 1.53253e+00  2.63941e+01 
 1.31310e+00  2.63929e+01 
 1.09393e+00  2.63918e+01 
 8.74903e-01  2.63910e+01 
 6.56069e-01  2.63903e+01 
 4.37303e-01  2.63898e+01 
 2.18654e-01  2.63895e+01 
-7.41268e-14  2.63894e+01 
-2.18654e-01  2.63895e+01 
-4.37303e-01  2.63898e+01 
-6.56069e-01  2.63903e+01 
-8.74903e-01  2.63910e+01 
-1.09393e+00  2.63918e+01 
-1.31310e+00  2.63929e+01 
-1.53253e+00  2.63941e+01 
-1.75218e+00  2.63955e+01 
-1.97217e+00  2.63972e+01 
-2.19245e+00  2.63990e+01 
-2.41314e+00  2.64011e+01 
-2.63419e+00  2.64033e+01 
-2.85572e+00  2.64057e+01 
-3.07769e+00  2.64084e+01 
-3.30020e+00  2.64112e+01 
-3.52322e+00  2.64143e+01 
-3.74685e+00  2.64176e+01 
-3.97105e+00  2.64211e+01 
-4.19594e+00  2.64249e+01 
-4.42146e+00  2.64288e+01 
-4.64773e+00  2.64330e+01 
-4.87468e+00  2.64375e+01 
-5.10246e+00  2.64422e+01 
-5.33098e+00  2.64471e+01 
-5.56037e+00  2.64523e+01 
-5.79057e+00  2.64577e+01 
-6.02169e+00  2.64634e+01 
-6.25367e+00  2.64694e+01 
-6.48663e+00  2.64756e+01 
-6.72050e+00  2.64821e+01 
-6.95539e+00  2.64889e+01 
-7.19123e+00  2.64960e+01 
-7.42814e+00  2.65033e+01 
-7.66604e+00  2.65110e+01 
-7.90505e+00  2.65189e+01 
-8.14510e+00  2.65272e+01 
-8.38628e+00  2.65358e+01 
-8.62854e+00  2.65446e+01 
-8.87197e+00  2.65538e+01 
-9.11650e+00  2.65633e+01 
-9.36224e+00  2.65731e+01 
-9.60911e+00  2.65831e+01 
-9.85722e+00  2.65935e+01 
-1.01065e+01  2.66042e+01 
-1.03570e+01  2.66152e+01 
-1.06088e+01  2.66265e+01 
-1.08618e+01  2.66381e+01 
-1.11161e+01  2.66499e+01 
-1.13716e+01  2.66620e+01 
 1.14792e+01  2.77268e+01 
 1.12212e+01  2.77157e+01 
 1.09646e+01  2.77048e+01 
 1.07091e+01  2.76942e+01 
 1.04550e+01  2.76838e+01 
 1.02019e+01  2.76738e+01 
 9.95012e+00  2.76640e+01 
 9.69946e+00  2.76546e+01 
 9.45004e+00  2.76454e+01 
 9.20173e+00  2.76365e+01 
 8.95463e+00  2.76280e+01 
 8.70864e+00  2.76197e+01 
 8.46383e+00  2.76118e+01 
 8.22010e+00  2.76041e+01 
 7.97753e+00  2.75968e+01 
 7.73601e+00  2.75897e+01 
 7.49562e+00  2.75829e+01 
 7.25625e+00  2.75764e+01 
 7.01798e+00  2.75701e+01 
 6.78069e+00  2.75642e+01 
 6.54445e+00  2.75585e+01 
 6.30915e+00  2.75530e+01 
 6.07486e+00  2.75478e+01 
 5.84145e+00  2.75428e+01 
 5.60901e+00  2.75381e+01 
 5.37740e+00  2.75336e+01 
 5.14669e+00  2.75294e+01 
 4.91677e+00  2.75253e+01 
 4.68769e+00  2.75215e+01 
 4.45932e+00  2.75179e+01 
 4.23174e+00  2.75144e+01 
 4.00481e+00  2.75112e+01 
 3.77859e+00  2.75082e+01 
 3.55296e+00  2.75054e+01 
 3.32798e+00  2.75027e+01 
 3.10352e+00  2.75003e+01 
 2.87963e+00  2.74980e+01 
 2.65618e+00  2.74959e+01 
 2.43324e+00  2.74940e+01 
 2.21067e+00  2.74923e+01 
 1.98853e+00  2.74907e+01 
 1.76669e+00  2.74893e+01 
 1.54520e+00  2.74881e+01 
 1.32394e+00  2.74870e+01 
 1.10295e+00  2.74861e+01 
 8.82113e-01  2.74854e+01 
 6.61471e-01  2.74848e+01 
 4.40902e-01  2.74844e+01 
 2.20453e-01  2.74842e+01 
 3.55723e-14  2.74841e+01 
-2.20453e-01  2.74842e+01 
-4.40902e-01  2.74844e+01 
-6.61471e-01  2.74848e+01 
-8.82113e-01  2.74854e+01 
-1.10295e+00  2.74861e+01 
-1.32394e+00  2.74870e+01 
-1.54520e+00  2.74881e+01 
-1.76669e+00  2.74893e+01 
-1.98853e+00  2.74907e+01 
-2.21067e+00  2.74923e+01 
-2.43324e+00  2.74940e+01 
-2.65618e+00  2.74959e+01 
-2.87963e+00  2.74980e+01 
-3.10352e+00  2.75003e+01 
-3.32798e+00  2.75027e+01 
-3.55296e+00  2.75054e+01 
-3.77859e+00  2.75082e+01 
-4.00481e+00  2.75112e+01 
-4.23174e+00  2.75144e+01 
-4.45932e+00  2.75179e+01 
-4.68769e+00  2.75215e+01 
-4.91677e+00  2.75253e+01 
-5.14669e+00  2.75294e+01 
-5.37740e+00  2.75336e+01 
-5.60901e+00  2.75381e+01 
-5.84145e+00  2.75428e+01 
-6.07486e+00  2.75478e+01 
-6.30915e+00  2.75530e+01 
-6.54445e+00  2.75585e+01 
-6.78069e+00  2.75642e+01 
-7.01798e+00  2.75701e+01 
-7.25625e+00  2.75764e+01 
-7.49562e+00  2.75829e+01 
-7.73601e+00  2.75897e+01 
-7.97753e+00  2.75968e+01 
-8.22010e+00  2.76041e+01 
-8.46383e+00  2.76118e+01 
-8.70864e+00  2.76197e+01 
-8.95463e+00  2.76280e+01 
-9.20173e+00  2.76365e+01 
-9.45004e+00  2.76454e+01 
-9.69946e+00  2.76546e+01 
-9.95012e+00  2.76640e+01 
-1.02019e+01  2.76738e+01 
-1.04550e+01  2.76838e+01 
-1.07091e+01  2.76942e+01 
-1.09646e+01  2.77048e+01 
-1.12212e+01  2.77157e+01 
-1.14792e+01  2.77268e+01 
 1.15781e+01  2.88008e+01 
 1.13179e+01  2.87906e+01 
 1.10589e+01  2.87806e+01 
 1.08011e+01  2.87709e+01 
 1.05445e+01  2.87615e+01 
 1.02890e+01  2.87523e+01 
 1.00347e+01  2.87435e+01 
 9.78153e+00  2.87350e+01 
 9.52959e+00  2.87267e+01 
 9.27877e+00  2.87188e+01 
 9.02916e+00  2.87112e+01 
 8.78067e+00  2.87039e+01 
 8.53338e+00  2.86968e+01 
 8.28720e+00  2.86901e+01 
 8.04220e+00  2.86836e+01 
 7.79829e+00  2.86774e+01 
 7.55554e+00  2.86715e+01 
 7.31385e+00  2.86658e+01 
 7.07329e+00  2.86604e+01 
 6.83375e+00  2.86553e+01 
 6.59531e+00  2.86504e+01 
 6.35785e+00  2.86457e+01 
 6.12143e+00  2.86412e+01 
 5.88595e+00  2.86369e+01 
 5.65146e+00  2.86329e+01 
 5.41785e+00  2.86291e+01 
 5.18518e+00  2.86254e+01 
 4.95333e+00  2.86220e+01 
 4.72235e+00  2.86187e+01 
 4.49212e+00  2.86156e+01 
 4.26271e+00  2.86127e+01 
 4.03398e+00  2.86100e+01 
 3.80599e+00  2.86074e+01 
 3.57862e+00  2.86050e+01 
 3.35192e+00  2.86028e+01 
 3.12576e+00  2.86007e+01 
 2.90019e+00  2.85988e+01 
 2.67509e+00  2.85970e+01 
 2.45051e+00  2.85953e+01 
 2.22632e+00  2.85939e+01 
 2.00258e+00  2.85925e+01 
 1.77914e+00  2.85913e+01 
 1.55607e+00  2.85903e+01 
 1.33324e+00  2.85894e+01 
 1.11069e+00  2.85886e+01 
 8.88292e-01  2.85880e+01 
 6.66101e-01  2.85875e+01 
 4.43986e-01  2.85871e+01 
 2.21995e-01  2.85869e+01 
 1.31554e-13  2.85869e+01 
-2.21995e-01  2.85869e+01 
-4.43986e-01  2.85871e+01 
-6.66101e-01  2.85875e+01 
-8.88292e-01  2.85880e+01 
-1.11069e+00  2.85886e+01 
-1.33324e+00  2.85894e+01 
-1.55607e+00  2.85903e+01 
-1.77914e+00  2.85913e+01 
-2.00258e+00  2.85925e+01 
-2.22632e+00  2.85939e+01 
-2.45051e+00  2.85953e+01 
-2.67509e+00  2.85970e+01 
-2.90019e+00  2.85988e+01 
-3.12576e+00  2.86007e+01 
-3.35192e+00  2.86028e+01 
-3.57862e+00  2.86050e+01 
-3.80599e+00  2.86074e+01 
-4.03398e+00  2.86100e+01 
-4.26271e+00  2.86127e+01 
-4.49212e+00  2.86156e+01 
-4.72235e+00  2.86187e+01 
-4.95333e+00  2.86220e+01 
-5.18518e+00  2.86254e+01 
-5.41785e+00  2.86291e+01 
-5.65146e+00  2.86329e+01 
-5.88595e+00  2.86369e+01 
-6.12143e+00  2.86412e+01 
-6.35785e+00  2.86457e+01 
-6.59531e+00  2.86504e+01 
-6.83375e+00  2.86553e+01 
-7.07329e+00  2.86604e+01 
-7.31385e+00  2.86658e+01 
-7.55554e+00  2.86715e+01 
-7.79829e+00  2.86774e+01 
-8.04220e+00  2.86836e+01 
-8.28720e+00  2.86901e+01 
-8.53338e+00  2.86968e+01 
-8.78067e+00  2.87039e+01 
-9.02916e+00  2.87112e+01 
-9.27877e+00  2.87188e+01 
-9.52959e+00  2.87267e+01 
-9.78153e+00  2.87350e+01 
-1.00347e+01  2.87435e+01 
-1.02890e+01  2.87523e+01 
-1.05445e+01  2.87615e+01 
-1.08011e+01  2.87709e+01 
-1.10589e+01  2.87806e+01 
-1.13179e+01  2.87906e+01 
-1.15781e+01  2.88008e+01 
 1.16688e+01  2.98836e+01 
 1.14064e+01  2.98742e+01 
 1.11451e+01  2.98651e+01 
 1.08849e+01  2.98563e+01 
 1.06258e+01  2.98478e+01 
 1.03678e+01  2.98395e+01 
 1.01110e+01  2.98316e+01 
 9.85535e+00  2.98240e+01 
 9.60090e+00  2.98167e+01 
 9.34757e+00  2.98097e+01 
 9.09548e+00  2.98030e+01 
 8.84453e+00  2.97966e+01 
 8.59482e+00  2.97905e+01 
 8.34625e+00  2.97846e+01 
 8.09892e+00  2.97791e+01 
 7.85272e+00  2.97737e+01 
 7.60774e+00  2.97687e+01 
 7.36387e+00  2.97638e+01 
 7.12118e+00  2.97592e+01 
 6.87957e+00  2.97549e+01 
 6.63911e+00  2.97507e+01 
 6.39968e+00  2.97467e+01 
 6.16135e+00  2.97429e+01 
 5.92400e+00  2.97393e+01 
 5.68769e+00  2.97359e+01 
 5.45231e+00  2.97327e+01 
 5.21790e+00  2.97296e+01 
 4.98436e+00  2.97266e+01 
 4.75173e+00  2.97239e+01 
 4.51989e+00  2.97212e+01 
 4.28890e+00  2.97188e+01 
 4.05862e+00  2.97164e+01 
 3.82912e+00  2.97142e+01 
 3.60025e+00  2.97122e+01 
 3.37209e+00  2.97102e+01 
 3.14448e+00  2.97084e+01 
 2.91749e+00  2.97068e+01 
 2.69099e+00  2.97052e+01 
 2.46503e+00  2.97038e+01 
 2.23947e+00  2.97025e+01 
 2.01437e+00  2.97014e+01 
 1.78960e+00  2.97003e+01 
 1.56520e+00  2.96994e+01 
 1.34104e+00  2.96986e+01 
 1.11718e+00  2.96979e+01 
 8.93476e-01  2.96974e+01 
 6.69984e-01  2.96970e+01 
 4.46573e-01  2.96967e+01 
 2.23288e-01  2.96965e+01 
 2.32957e-13  2.96964e+01 
-2.23288e-01  2.96965e+01 
-4.46573e-01  2.96967e+01 
-6.69984e-01  2.96970e+01 
-8.93476e-01  2.96974e+01 
-1.11718e+00  2.96979e+01 
-1.34104e+00  2.96986e+01 
-1.56520e+00  2.96994e+01 
-1.78960e+00  2.97003e+01 
-2.01437e+00  2.97014e+01 
-2.23947e+00  2.97025e+01 
-2.46503e+00  2.97038e+01 
-2.69099e+00  2.97052e+01 
-2.91749e+00  2.97068e+01 
-3.14448e+00  2.97084e+01 
-3.37209e+00  2.97102e+01 
-3.60025e+00  2.97122e+01 
-3.82912e+00  2.97142e+01 
-4.05862e+00  2.97164e+01 
-4.28890e+00  2.97188e+01 
-4.51989e+00  2.97212e+01 
-4.75173e+00  2.97239e+01 
-4.98436e+00  2.97266e+01 
-5.21790e+00  2.97296e+01 
-5.45231e+00  2.97327e+01 
-5.68769e+00  2.97359e+01 
-5.92400e+00  2.97393e+01 
-6.16135e+00  2.97429e+01 
-6.39968e+00  2.97467e+01 
-6.63911e+00  2.97507e+01 
-6.87957e+00  2.97549e+01 
-7.12118e+00  2.97592e+01 
-7.36387e+00  2.97638e+01 
-7.60774e+00  2.97687e+01 
-7.85272e+00  2.97737e+01 
-8.09892e+00  2.97791e+01 
-8.34625e+00  2.97846e+01 
-8.59482e+00  2.97905e+01 
-8.84453e+00  2.97966e+01 
-9.09548e+00  2.98030e+01 
-9.34757e+00  2.98097e+01 
-9.60090e+00  2.98167e+01 
-9.85535e+00  2.98240e+01 
-1.01110e+01  2.98316e+01 
-1.03678e+01  2.98395e+01 
-1.06258e+01  2.98478e+01 
-1.08849e+01  2.98563e+01 
-1.11451e+01  2.98651e+01 
-1.14064e+01  2.98742e+01 
-1.16688e+01  2.98836e+01 
 1.17521e+01  3.09754e+01 
 1.14873e+01  3.09668e+01 
 1.12236e+01  3.09585e+01 
 1.09608e+01  3.09506e+01 
 1.06992e+01  3.09429e+01 
 1.04386e+01  3.09355e+01 
 1.01792e+01  3.09285e+01 
 9.92095e+00  3.09218e+01 
 9.66391e+00  3.09154e+01 
 9.40804e+00  3.09093e+01 
 9.15345e+00  3.09035e+01 
 8.90006e+00  3.08981e+01 
 8.64798e+00  3.08928e+01 
 8.39710e+00  3.08879e+01 
 8.14753e+00  3.08831e+01 
 7.89917e+00  3.08787e+01 
 7.65210e+00  3.08744e+01 
 7.40621e+00  3.08703e+01 
 7.16158e+00  3.08664e+01 
 6.91809e+00  3.08627e+01 
 6.67582e+00  3.08592e+01 
 6.43465e+00  3.08558e+01 
 6.19464e+00  3.08526e+01 
 5.95566e+00  3.08495e+01 
 5.71779e+00  3.08466e+01 
 5.48088e+00  3.08438e+01 
 5.24500e+00  3.08411e+01 
 5.01003e+00  3.08386e+01 
 4.77601e+00  3.08361e+01 
 4.54281e+00  3.08338e+01 
 4.31050e+00  3.08316e+01 
 4.07893e+00  3.08295e+01 
 3.84816e+00  3.08276e+01 
 3.61806e+00  3.08257e+01 
 3.38868e+00  3.08240e+01 
 3.15989e+00  3.08223e+01 
 2.93173e+00  3.08208e+01 
 2.70407e+00  3.08194e+01 
 2.47697e+00  3.08181e+01 
 2.25029e+00  3.08169e+01 
 2.02407e+00  3.08158e+01 
 1.79819e+00  3.08149e+01 
 1.57270e+00  3.08140e+01 
 1.34746e+00  3.08133e+01 
 1.12251e+00  3.08126e+01 
 8.97739e-01  3.08121e+01 
 6.73178e-01  3.08117e+01 
 4.48699e-01  3.08114e+01 
 2.24351e-01  3.08113e+01 
 4.22097e-13  3.08112e+01 
-2.24351e-01  3.08113e+01 
-4.48699e-01  3.08114e+01 
-6.73178e-01  3.08117e+01 
-8.97739e-01  3.08121e+01 
-1.12251e+00  3.08126e+01 
-1.34746e+00  3.08133e+01 
-1.57270e+00  3.08140e+01 
-1.79819e+00  3.08149e+01 
-2.02407e+00  3.08158e+01 
-2.25029e+00  3.08169e+01 
-2.47697e+00  3.08181e+01 
-2.70407e+00  3.08194e+01 
-2.93173e+00  3.08208e+01 
-3.15989e+00  3.08223e+01 
-3.38868e+00  3.08240e+01 
-3.61806e+00  3.08257e+01 
-3.84816e+00  3.08276e+01 
-4.07893e+00  3.08295e+01 
-4.31050e+00  3.08316e+01 
-4.54281e+00  3.08338e+01 
-4.77601e+00  3.08361e+01 
-5.01003e+00  3.08386e+01 
-5.24500e+00  3.08411e+01 
-5.48088e+00  3.08438e+01 
-5.71779e+00  3.08466e+01 
-5.95566e+00  3.08495e+01 
-6.19464e+00  3.08526e+01 
-6.43465e+00  3.08558e+01 
-6.67582e+00  3.08592e+01 
-6.91809e+00  3.08627e+01 
-7.16158e+00  3.08664e+01 
-7.40621e+00  3.08703e+01 
-7.65210e+00  3.08744e+01 
-7.89917e+00  3.08787e+01 
-8.14753e+00  3.08831e+01 
-8.39710e+00  3.08879e+01 
-8.64798e+00  3.08928e+01 
-8.90006e+00  3.08981e+01 
-9.15345e+00  3.09035e+01 
-9.40804e+00  3.09093e+01 
-9.66391e+00  3.09154e+01 
-9.92095e+00  3.09218e+01 
-1.01792e+01  3.09285e+01 
-1.04386e+01  3.09355e+01 
-1.06992e+01  3.09429e+01 
-1.09608e+01  3.09506e+01 
-1.12236e+01  3.09585e+01 
-1.14873e+01  3.09668e+01 
-1.17521e+01  3.09754e+01 
 1.18288e+01  3.20769e+01 
 1.15613e+01  3.20690e+01 
 1.12949e+01  3.20615e+01 
 1.10293e+01  3.20543e+01 
 1.07649e+01  3.20474e+01 
 1.05014e+01  3.20410e+01 
 1.02392e+01  3.20348e+01 
 9.97820e+00  3.20290e+01 
 9.71847e+00  3.20236e+01 
 9.45998e+00  3.20184e+01 
 9.20287e+00  3.20135e+01 
 8.94706e+00  3.20089e+01 
 8.69266e+00  3.20045e+01 
 8.43958e+00  3.20003e+01 
 8.18791e+00  3.19964e+01 
 7.93755e+00  3.19926e+01 
 7.68859e+00  3.19889e+01 
 7.44090e+00  3.19855e+01 
 7.19456e+00  3.19821e+01 
 6.94945e+00  3.19789e+01 
 6.70564e+00  3.19758e+01 
 6.46299e+00  3.19728e+01 
 6.22157e+00  3.19699e+01 
 5.98125e+00  3.19672e+01 
 5.74208e+00  3.19645e+01 
 5.50393e+00  3.19619e+01 
 5.26685e+00  3.19594e+01 
 5.03072e+00  3.19570e+01 
 4.79558e+00  3.19546e+01 
 4.56129e+00  3.19524e+01 
 4.32792e+00  3.19502e+01 
 4.09532e+00  3.19482e+01 
 3.86354e+00  3.19462e+01 
 3.63245e+00  3.19444e+01 
 3.40210e+00  3.19426e+01 
 3.17235e+00  3.19409e+01 
 2.94325e+00  3.19394e+01 
 2.71466e+00  3.19379e+01 
 2.48664e+00  3.19366e+01 
 2.25905e+00  3.19354e+01 
 2.03194e+00  3.19342e+01 
 1.80517e+00  3.19332e+01 
 1.57879e+00  3.19323e+01 
 1.35267e+00  3.19315e+01 
 1.12685e+00  3.19309e+01 
 9.01204e-01  3.19303e+01 
 6.75775e-01  3.19299e+01 
 4.50430e-01  3.19296e+01 
 2.25216e-01  3.19294e+01 
 5.95123e-13  3.19294e+01 
-2.25216e-01  3.19294e+01 
-4.50430e-01  3.19296e+01 
-6.75775e-01  3.19299e+01 
-9.01204e-01  3.19303e+01 
-1.12685e+00  3.19309e+01 
-1.35267e+00  3.19315e+01 
-1.57879e+00  3.19323e+01 
-1.80517e+00  3.19332e+01 
-2.03194e+00  3.19342e+01 
-2.25905e+00  3.19354e+01 
-2.48664e+00  3.19366e+01 
-2.71466e+00  3.19379e+01 
-2.94325e+00  3.19394e+01 
-3.17235e+00  3.19409e+01 
-3.40210e+00  3.19426e+01 
-3.63245e+00  3.19444e+01 
-3.86354e+00  3.19462e+01 
-4.09532e+00  3.19482e+01 
-4.32792e+00  3.19502e+01 
-4.56129e+00  3.19524e+01 
-4.79558e+00  3.19546e+01 
-5.03072e+00  3.19570e+01 
-5.26685e+00  3.19594e+01 
-5.50393e+00  3.19619e+01 
-5.74208e+00  3.19645e+01 
-5.98125e+00  3.19672e+01 
-6.22157e+00  3.19699e+01 
-6.46299e+00  3.19728e+01 
-6.70564e+00  3.19758e+01 
-6.94945e+00  3.19789e+01 
-7.19456e+00  3.19821e+01 
-7.44090e+00  3.19855e+01 
-7.68859e+00  3.19889e+01 
-7.93755e+00  3.19926e+01 
-8.18791e+00  3.19964e+01 
-8.43958e+00  3.20003e+01 
-8.69266e+00  3.20045e+01 
-8.94706e+00  3.20089e+01 
-9.20287e+00  3.20135e+01 
-9.45998e+00  3.20184e+01 
-9.71847e+00  3.20236e+01 
-9.97820e+00  3.20290e+01 
-1.02392e+01  3.20348e+01 
-1.05014e+01  3.20410e+01 
-1.07649e+01  3.20474e+01 
-1.10293e+01  3.20543e+01 
-1.12949e+01  3.20615e+01 
-1.15613e+01  3.20690e+01 
-1.18288e+01  3.20769e+01 
 1.18997e+01  3.31895e+01 
 1.16291e+01  3.31822e+01 
 1.13594e+01  3.31754e+01 
 1.10905e+01  3.31689e+01 
 1.08228e+01  3.31629e+01 
 1.05562e+01  3.31573e+01 
 1.02908e+01  3.31521e+01 
 1.00268e+01  3.31472e+01 
 9.76424e+00  3.31426e+01 
 9.50307e+00  3.31383e+01 
 9.24346e+00  3.31342e+01 
 8.98531e+00  3.31303e+01 
 8.72874e+00  3.31266e+01 
 8.47365e+00  3.31230e+01 
 8.22012e+00  3.31195e+01 
 7.96803e+00  3.31161e+01 
 7.71746e+00  3.31129e+01 
 7.46828e+00  3.31096e+01 
 7.22055e+00  3.31065e+01 
 6.97414e+00  3.31034e+01 
 6.72910e+00  3.31004e+01 
 6.48530e+00  3.30974e+01 
 6.24279e+00  3.30944e+01 
 6.00143e+00  3.30915e+01 
 5.76127e+00  3.30887e+01 
 5.52218e+00  3.30859e+01 
 5.28419e+00  3.30832e+01 
 5.04717e+00  3.30806e+01 
 4.81118e+00  3.30780e+01 
 4.57606e+00  3.30755e+01 
 4.34188e+00  3.30730e+01 
 4.10848e+00  3.30707e+01 
 3.87592e+00  3.30684e+01 
 3.64406e+00  3.30663e+01 
 3.41295e+00  3.30642e+01 
 3.18245e+00  3.30622e+01 
 2.95261e+00  3.30604e+01 
 2.72329e+00  3.30587e+01 
 2.49454e+00  3.30571e+01 
 2.26622e+00  3.30556e+01 
 2.03838e+00  3.30542e+01 
 1.81089e+00  3.30530e+01 
 1.58379e+00  3.30519e+01 
 1.35695e+00  3.30510e+01 
 1.13042e+00  3.30502e+01 
 9.04058e-01  3.30495e+01 
 6.77914e-01  3.30490e+01 
 4.51856e-01  3.30486e+01 
 2.25929e-01  3.30484e+01 
 8.26178e-13  3.30484e+01 
-2.25929e-01  3.30484e+01 
-4.51856e-01  3.30486e+01 
-6.77914e-01  3.30490e+01 
-9.04058e-01  3.30495e+01 
-1.13042e+00  3.30502e+01 
-1.35695e+00  3.30510e+01 
-1.58379e+00  3.30519e+01 
-1.81089e+00  3.30530e+01 
-2.03838e+00  3.30542e+01 
-2.26622e+00  3.30556e+01 
-2.49454e+00  3.30571e+01 
-2.72329e+00  3.30587e+01 
-2.95261e+00  3.30604e+01 
-3.18245e+00  3.30622e+01 
-3.41295e+00  3.30642e+01 
-3.64406e+00  3.30663e+01 
-3.87592e+00  3.30684e+01 
-4.10848e+00  3.30707e+01 
-4.34188e+00  3.30730e+01 
-4.57606e+00  3.30755e+01 
-4.81118e+00  3.30780e+01 
-5.04717e+00  3.30806e+01 
-5.28419e+00  3.30832e+01 
-5.52218e+00  3.30859e+01 
-5.76127e+00  3.30887e+01 
-6.00143e+00  3.30915e+01 
-6.24279e+00  3.30944e+01 
-6.48530e+00  3.30974e+01 
-6.72910e+00  3.31004e+01 
-6.97414e+00  3.31034e+01 
-7.22055e+00  3.31065e+01 
-7.46828e+00  3.31096e+01 
-7.71746e+00  3.31129e+01 
-7.96803e+00  3.31161e+01 
-8.22012e+00  3.31195e+01 
-8.47365e+00  3.31230e+01 
-8.72874e+00  3.31266e+01 
-8.98531e+00  3.31303e+01 
-9.24346e+00  3.31342e+01 
-9.50307e+00  3.31383e+01 
-9.76424e+00  3.31426e+01 
-1.00268e+01  3.31472e+01 
-1.02908e+01  3.31521e+01 
-1.05562e+01  3.31573e+01 
-1.08228e+01  3.31629e+01 
-1.10905e+01  3.31689e+01 
-1.13594e+01  3.31754e+01 
-1.16291e+01  3.31822e+01 
-1.18997e+01  3.31895e+01 
 1.19659e+01  3.43162e+01 
 1.16912e+01  3.43094e+01 
 1.14173e+01  3.43032e+01 
 1.11444e+01  3.42976e+01 
 1.08726e+01  3.42924e+01 
 1.06022e+01  3.42877e+01 
 1.03334e+01  3.42834e+01 
 1.00662e+01  3.42793e+01 
 9.80074e+00  3.42754e+01 
 9.53699e+00  3.42717e+01 
 9.27507e+00  3.42681e+01 
 9.01487e+00  3.42646e+01 
 8.75647e+00  3.42611e+01 
 8.49974e+00  3.42576e+01 
 8.24474e+00  3.42541e+01 
 7.99134e+00  3.42506e+01 
 7.73959e+00  3.42470e+01 
 7.48933e+00  3.42435e+01 
 7.24061e+00  3.42399e+01 
 6.99329e+00  3.42363e+01 
 6.74741e+00  3.42327e+01 
 6.50281e+00  3.42291e+01 
 6.25955e+00  3.42254e+01 
 6.01748e+00  3.42218e+01 
 5.77664e+00  3.42183e+01 
 5.53688e+00  3.42147e+01 
 5.29825e+00  3.42113e+01 
 5.06060e+00  3.42078e+01 
 4.82399e+00  3.42045e+01 
 4.58827e+00  3.42012e+01 
 4.35347e+00  3.41980e+01 
 4.11948e+00  3.41949e+01 
 3.88632e+00  3.41919e+01 
 3.65386e+00  3.41891e+01 
 3.42215e+00  3.41864e+01 
 3.19105e+00  3.41838e+01 
 2.96061e+00  3.41813e+01 
 2.73069e+00  3.41790e+01 
 2.50133e+00  3.41769e+01 
 2.27240e+00  3.41749e+01 
 2.04396e+00  3.41731e+01 
 1.81585e+00  3.41715e+01 
 1.58814e+00  3.41701e+01 
 1.36068e+00  3.41688e+01 
 1.13353e+00  3.41677e+01 
 9.06549e-01  3.41669e+01 
 6.79784e-01  3.41662e+01 
 4.53102e-01  3.41657e+01 
 2.26552e-01  3.41654e+01 
 1.11246e-12  3.41653e+01 
-2.26552e-01  3.41654e+01 
-4.53102e-01  3.41657e+01 
-6.79784e-01  3.41662e+01 
-9.06549e-01  3.41669e+01 
-1.13353e+00  3.41677e+01 
-1.36068e+00  3.41688e+01 
-1.58814e+00  3.41701e+01 
-1.81585e+00  3.41715e+01 
-2.04396e+00  3.41731e+01 
-2.27240e+00  3.41749e+01 
-2.50133e+00  3.41769e+01 
-2.73069e+00  3.41790e+01 
-2.96061e+00  3.41813e+01 
-3.19105e+00  3.41838e+01 
-3.42215e+00  3.41864e+01 
-3.65386e+00  3.41891e+01 
-3.88632e+00  3.41919e+01 
-4.11948e+00  3.41949e+01 
-4.35347e+00  3.41980e+01 
-4.58827e+00  3.42012e+01 
-4.82399e+00  3.42045e+01 
-5.06060e+00  3.42078e+01 
-5.29825e+00  3.42113e+01 
-5.53688e+00  3.42147e+01 
-5.77664e+00  3.42183e+01 
-6.01748e+00  3.42218e+01 
-6.25955e+00  3.42254e+01 
-6.50281e+00  3.42291e+01 
-6.74741e+00  3.42327e+01 
-6.99329e+00  3.42363e+01 
-7.24061e+00  3.42399e+01 
-7.48933e+00  3.42435e+01 
-7.73959e+00  3.42470e+01 
-7.99134e+00  3.42506e+01 
-8.24474e+00  3.42541e+01 
-8.49974e+00  3.42576e+01 
-8.75647e+00  3.42611e+01 
-9.01487e+00  3.42646e+01 
-9.27507e+00  3.42681e+01 
-9.53699e+00  3.42717e+01 
-9.80074e+00  3.42754e+01 
-1.00662e+01  3.42793e+01 
-1.03334e+01  3.42834e+01 
-1.06022e+01  3.42877e+01 
-1.08726e+01  3.42924e+01 
-1.11444e+01  3.42976e+01 
-1.14173e+01  3.43032e+01 
-1.16912e+01  3.43094e+01 
-1.19659e+01  3.43162e+01 
 1.20284e+01  3.54627e+01 
 1.17478e+01  3.54564e+01 
 1.14680e+01  3.54511e+01 
 1.11896e+01  3.54464e+01 
 1.09130e+01  3.54422e+01 
 1.06384e+01  3.54383e+01 
 1.03661e+01  3.54346e+01 
 1.00958e+01  3.54309e+01 
 9.82788e+00  3.54271e+01 
 9.56205e+00  3.54232e+01 
 9.29840e+00  3.54193e+01 
 9.03675e+00  3.54151e+01 
 8.77714e+00  3.54108e+01 
 8.51938e+00  3.54064e+01 
 8.26352e+00  3.54018e+01 
 8.00936e+00  3.53971e+01 
 7.75694e+00  3.53922e+01 
 7.50608e+00  3.53872e+01 
 7.25683e+00  3.53822e+01 
 7.00901e+00  3.53771e+01 
 6.76265e+00  3.53719e+01 
 6.51760e+00  3.53668e+01 
 6.27390e+00  3.53616e+01 
 6.03139e+00  3.53565e+01 
 5.79011e+00  3.53513e+01 
 5.54992e+00  3.53463e+01 
 5.31084e+00  3.53413e+01 
 5.07275e+00  3.53364e+01 
 4.83568e+00  3.53316e+01 
 4.59949e+00  3.53270e+01 
 4.36422e+00  3.53225e+01 
 4.12973e+00  3.53181e+01 
 3.89608e+00  3.53139e+01 
 3.66311e+00  3.53099e+01 
 3.43088e+00  3.53060e+01 
 3.19925e+00  3.53024e+01 
 2.96826e+00  3.52989e+01 
 2.73779e+00  3.52957e+01 
 2.50787e+00  3.52928e+01 
 2.27838e+00  3.52900e+01 
 2.04936e+00  3.52875e+01 
 1.82067e+00  3.52852e+01 
 1.59237e+00  3.52832e+01 
 1.36432e+00  3.52815e+01 
 1.13657e+00  3.52800e+01 
 9.08985e-01  3.52788e+01 
 6.81614e-01  3.52778e+01 
 4.54324e-01  3.52771e+01 
 2.27163e-01  3.52767e+01 
 1.34381e-12  3.52766e+01 
-2.27163e-01  3.52767e+01 
-4.54324e-01  3.52771e+01 
-6.81614e-01  3.52778e+01 
-9.08985e-01  3.52788e+01 
-1.13657e+00  3.52800e+01 
-1.36432e+00  3.52815e+01 
-1.59237e+00  3.52832e+01 
-1.82067e+00  3.52852e+01 
-2.04936e+00  3.52875e+01 
-2.27838e+00  3.52900e+01 
-2.50787e+00  3.52928e+01 
-2.73779e+00  3.52957e+01 
-2.96826e+00  3.52989e+01 
-3.19925e+00  3.53024e+01 
-3.43088e+00  3.53060e+01 
-3.66311e+00  3.53099e+01 
-3.89608e+00  3.53139e+01 
-4.12973e+00  3.53181e+01 
-4.36422e+00  3.53225e+01 
-4.59949e+00  3.53270e+01 
-4.83568e+00  3.53316e+01 
-5.07275e+00  3.53364e+01 
-5.31084e+00  3.53413e+01 
-5.54992e+00  3.53463e+01 
-5.79011e+00  3.53513e+01 
-6.03139e+00  3.53565e+01 
-6.27390e+00  3.53616e+01 
-6.51760e+00  3.53668e+01 
-6.76265e+00  3.53719e+01 
-7.00901e+00  3.53771e+01 
-7.25683e+00  3.53822e+01 
-7.50608e+00  3.53872e+01 
-7.75694e+00  3.53922e+01 
-8.00936e+00  3.53971e+01 
-8.26352e+00  3.54018e+01 
-8.51938e+00  3.54064e+01 
-8.77714e+00  3.54108e+01 
-9.03675e+00  3.54151e+01 
-9.29840e+00  3.54193e+01 
-9.56205e+00  3.54232e+01 
-9.82788e+00  3.54271e+01 
-1.00958e+01  3.54309e+01 
-1.03661e+01  3.54346e+01 
-1.06384e+01  3.54383e+01 
-1.09130e+01  3.54422e+01 
-1.11896e+01  3.54464e+01 
-1.14680e+01  3.54511e+01 
-1.17478e+01  3.54564e+01 
-1.20284e+01  3.54627e+01 
 1.20870e+01  3.66409e+01 
 1.17962e+01  3.66361e+01 
 1.15082e+01  3.66319e+01 
 1.12235e+01  3.66279e+01 
 1.09422e+01  3.66238e+01 
 1.06641e+01  3.66194e+01 
 1.03892e+01  3.66146e+01 
 1.01171e+01  3.66094e+01 
 9.84771e+00  3.66038e+01 
 9.58087e+00  3.65978e+01 
 9.31648e+00  3.65914e+01 
 9.05429e+00  3.65847e+01 
 8.79428e+00  3.65776e+01 
 8.53622e+00  3.65704e+01 
 8.28010e+00  3.65629e+01 
 8.02573e+00  3.65552e+01 
 7.77312e+00  3.65475e+01 
 7.52207e+00  3.65396e+01 
 7.27262e+00  3.65317e+01 
 7.02459e+00  3.65237e+01 
 6.77801e+00  3.65158e+01 
 6.53271e+00  3.65078e+01 
 6.28874e+00  3.65000e+01 
 6.04593e+00  3.64922e+01 
 5.80433e+00  3.64846e+01 
 5.56378e+00  3.64771e+01 
 5.32434e+00  3.64698e+01 
 5.08584e+00  3.64626e+01 
 4.84835e+00  3.64556e+01 
 4.61171e+00  3.64489e+01 
 4.37597e+00  3.64424e+01 
 4.14099e+00  3.64361e+01 
 3.90682e+00  3.64301e+01 
 3.67332e+00  3.64243e+01 
 3.44054e+00  3.64189e+01 
 3.20834e+00  3.64138e+01 
 2.97677e+00  3.64089e+01 
 2.74570e+00  3.64044e+01 
 2.51517e+00  3.64002e+01 
 2.28506e+00  3.63964e+01 
 2.05540e+00  3.63929e+01 
 1.82607e+00  3.63897e+01 
 1.59711e+00  3.63869e+01 
 1.36840e+00  3.63845e+01 
 1.13998e+00  3.63824e+01 
 9.11718e-01  3.63807e+01 
 6.83667e-01  3.63794e+01 
 4.55695e-01  3.63785e+01 
 2.27849e-01  3.63779e+01 
 1.60643e-12  3.63777e+01 
-2.27849e-01  3.63779e+01 
-4.55695e-01  3.63785e+01 
-6.83667e-01  3.63794e+01 
-9.11718e-01  3.63807e+01 
-1.13998e+00  3.63824e+01 
-1.36840e+00  3.63845e+01 
-1.59711e+00  3.63869e+01 
-1.82607e+00  3.63897e+01 
-2.05540e+00  3.63929e+01 
-2.28506e+00  3.63964e+01 
-2.51517e+00  3.64002e+01 
-2.74570e+00  3.64044e+01 
-2.97677e+00  3.64089e+01 
-3.20834e+00  3.64138e+01 
-3.44054e+00  3.64189e+01 
-3.67332e+00  3.64243e+01 
-3.90682e+00  3.64301e+01 
-4.14099e+00  3.64361e+01 
-4.37597e+00  3.64424e+01 
-4.61171e+00  3.64489e+01 
-4.84835e+00  3.64556e+01 
-5.08584e+00  3.64626e+01 
-5.32434e+00  3.64698e+01 
-5.56378e+00  3.64771e+01 
-5.80433e+00  3.64846e+01 
-6.04593e+00  3.64922e+01 
-6.28874e+00  3.65000e+01 
-6.53271e+00  3.65078e+01 
-6.77801e+00  3.65158e+01 
-7.02459e+00  3.65237e+01 
-7.27262e+00  3.65317e+01 
-7.52207e+00  3.65396e+01 
-7.77312e+00  3.65475e+01 
-8.02573e+00  3.65552e+01 
-8.28010e+00  3.65629e+01 
-8.53622e+00  3.65704e+01 
-8.79428e+00  3.65776e+01 
-9.05429e+00  3.65847e+01 
-9.31648e+00  3.65914e+01 
-9.58087e+00  3.65978e+01 
-9.84771e+00  3.66038e+01 
-1.01171e+01  3.66094e+01 
-1.03892e+01  3.66146e+01 
-1.06641e+01  3.66194e+01 
-1.09422e+01  3.66238e+01 
-1.12235e+01  3.66279e+01 
-1.15082e+01  3.66319e+01 
-1.17962e+01  3.66361e+01 
-1.20870e+01  3.66409e+01 
 1.21315e+01  3.78847e+01 
 1.18302e+01  3.78782e+01 
 1.15361e+01  3.78707e+01 
 1.12478e+01  3.78622e+01 
 1.09643e+01  3.78528e+01 
 1.06850e+01  3.78426e+01 
 1.04094e+01  3.78319e+01 
 1.01370e+01  3.78206e+01 
 9.86756e+00  3.78089e+01 
 9.60076e+00  3.77969e+01 
 9.33646e+00  3.77846e+01 
 9.07437e+00  3.77722e+01 
 8.81445e+00  3.77596e+01 
 8.55645e+00  3.77469e+01 
 8.30037e+00  3.77342e+01 
 8.04598e+00  3.77215e+01 
 7.79330e+00  3.77088e+01 
 7.54214e+00  3.76962e+01 
 7.29252e+00  3.76838e+01 
 7.04428e+00  3.76715e+01 
 6.79745e+00  3.76593e+01 
 6.55185e+00  3.76474e+01 
 6.30754e+00  3.76357e+01 
 6.06435e+00  3.76242e+01 
 5.82233e+00  3.76130e+01 
 5.58132e+00  3.76021e+01 
 5.34139e+00  3.75915e+01 
 5.10237e+00  3.75812e+01 
 4.86432e+00  3.75713e+01 
 4.62710e+00  3.75618e+01 
 4.39075e+00  3.75526e+01 
 4.15514e+00  3.75438e+01 
 3.92031e+00  3.75354e+01 
 3.68613e+00  3.75274e+01 
 3.45264e+00  3.75199e+01 
 3.21972e+00  3.75128e+01 
 2.98741e+00  3.75061e+01 
 2.75559e+00  3.74999e+01 
 2.52429e+00  3.74942e+01 
 2.29338e+00  3.74889e+01 
 2.06293e+00  3.74841e+01 
 1.83279e+00  3.74798e+01 
 1.60301e+00  3.74760e+01 
 1.37347e+00  3.74727e+01 
 1.14422e+00  3.74699e+01 
 9.15117e-01  3.74676e+01 
 6.86221e-01  3.74658e+01 
 4.57399e-01  3.74645e+01 
 2.28702e-01  3.74638e+01 
 1.98761e-12  3.74635e+01 
-2.28702e-01  3.74638e+01 
-4.57399e-01  3.74645e+01 
-6.86221e-01  3.74658e+01 
-9.15117e-01  3.74676e+01 
-1.14422e+00  3.74699e+01 
-1.37347e+00  3.74727e+01 
-1.60301e+00  3.74760e+01 
-1.83279e+00  3.74798e+01 
-2.06293e+00  3.74841e+01 
-2.29338e+00  3.74889e+01 
-2.52429e+00  3.74942e+01 
-2.75559e+00  3.74999e+01 
-2.98741e+00  3.75061e+01 
-3.21972e+00  3.75128e+01 
-3.45264e+00  3.75199e+01 
-3.68613e+00  3.75274e+01 
-3.92031e+00  3.75354e+01 
-4.15514e+00  3.75438e+01 
-4.39075e+00  3.75526e+01 
-4.62710e+00  3.75618e+01 
-4.86432e+00  3.75713e+01 
-5.10237e+00  3.75812e+01 
-5.34139e+00  3.75915e+01 
-5.58132e+00  3.76021e+01 
-5.82233e+00  3.76130e+01 
-6.06435e+00  3.76242e+01 
-6.30754e+00  3.76357e+01 
-6.55185e+00  3.76474e+01 
-6.79745e+00  3.76593e+01 
-7.04428e+00  3.76715e+01 
-7.29252e+00  3.76838e+01 
-7.54214e+00  3.76962e+01 
-7.79330e+00  3.77088e+01 
-8.04598e+00  3.77215e+01 
-8.30037e+00  3.77342e+01 
-8.55645e+00  3.77469e+01 
-8.81445e+00  3.77596e+01 
-9.07437e+00  3.77722e+01 
-9.33646e+00  3.77846e+01 
-9.60076e+00  3.77969e+01 
-9.86756e+00  3.78089e+01 
-1.01370e+01  3.78206e+01 
-1.04094e+01  3.78319e+01 
-1.06850e+01  3.78426e+01 
-1.09643e+01  3.78528e+01 
-1.12478e+01  3.78622e+01 
-1.15361e+01  3.78707e+01 
-1.18302e+01  3.78782e+01 
-1.21315e+01  3.78847e+01 </DataArray>
            <DataArray Name="strain" NumberOfComponents="3" format="ascii" type="Float64">
 3.26127e+01 -1.94437e+00  2.49754e+01 
 2.67029e+01  5.77113e-01  2.54914e+01 
 2.37513e+01  1.06819e-01  2.21414e+01 
 2.16331e+01  7.96657e-02  2.00417e+01 
 2.00645e+01  4.16682e-02  1.81216e+01 
 1.88200e+01  2.64167e-02  1.65007e+01 
 1.77897e+01  1.74963e-02  1.51020e+01 
 1.69063e+01  1.22497e-02  1.38881e+01 
 1.61292e+01  9.03113e-03  1.28239e+01 
 1.54310e+01  6.83314e-03  1.18834e+01 
 1.47935e+01  5.38364e-03  1.10456e+01 
 1.42034e+01  4.29407e-03  1.02945e+01 
 1.36514e+01  3.53669e-03  9.61679e+00 
 1.31303e+01  2.92955e-03  9.00241e+00 
 1.26349e+01  2.48792e-03  8.44274e+00 
 1.21608e+01  2.12123e-03  7.93098e+00 
 1.17050e+01  1.84027e-03  7.46137e+00 
 1.12646e+01  1.60617e-03  7.02919e+00 
 1.08377e+01  1.41368e-03  6.63045e+00 
 1.04225e+01  1.25855e-03  6.26174e+00 
 1.00177e+01  1.11772e-03  5.92022e+00 
 9.62182e+00  1.01259e-03  5.60332e+00 
 9.23417e+00  9.03245e-04  5.30899e+00 
 8.85367e+00  8.31400e-04  5.03524e+00 
 8.47975e+00  7.41868e-04  4.78057e+00 
 8.11162e+00  6.93125e-04  4.54340e+00 
 7.74887e+00  6.16339e-04  4.32261e+00 
 7.39087e+00  5.84222e-04  4.11692e+00 
 7.03733e+00  5.15738e-04  3.92549e+00 
 6.68771e+00  4.95973e-04  3.74724e+00 
 6.34182e+00  4.32902e-04  3.58159e+00 
 5.99919e+00  4.22576e-04  3.42761e+00 
 5.65969e+00  3.62983e-04  3.28487e+00 
 5.32291e+00  3.60057e-04  3.15257e+00 
 4.98876e+00  3.02608e-04  3.03044e+00 
 4.65687e+00  3.05620e-04  2.91776e+00 
 4.32717e+00  2.49366e-04  2.81437e+00 
 3.99933e+00  2.57245e-04  2.71963e+00 
 3.67332e+00  2.01489e-04  2.63348e+00 
 3.34882e+00  2.13436e-04  2.55535e+00 
 3.02580e+00  1.57644e-04  2.48524e+00 
 2.70398e+00  1.73053e-04  2.42264e+00 
 2.38334e+00  1.16799e-04  2.36763e+00 
 2.06361e+00  1.35203e-04  2.31973e+00 
 1.74477e+00  7.81271e-05  2.27910e+00 
 1.42657e+00  9.91612e-05  2.24529e+00 
 1.10900e+00  4.09432e-05  2.21851e+00 
 7.91809e-01  6.43159e-05  2.19835e+00 
 4.74989e-01  4.65661e-06  2.18509e+00 
 1.58293e-01  3.01280e-05  2.17835e+00 
-1.58293e-01 -3.01280e-05  2.17835e+00 
-4.74989e-01 -4.65661e-06  2.18509e+00 
-7.91809e-01 -6.43159e-05  2.19835e+00 
-1.10900e+00 -4.09432e-05  2.21851e+00 
-1.42657e+00 -9.91612e-05  2.24529e+00 
-1.74477e+00 -7.81271e-05  2.27910e+00 
-2.06361e+00 -1.35203e-04  2.31973e+00 
-2.38334e+00 -1.16799e-04  2.36763e+00 
-2.70398e+00 -1.73053e-04  2.42264e+00 
-3.02580e+00 -1.57644e-04  2.48524e+00 
-3.34882e+00 -2.13436e-04  2.55535e+00 
-3.67332e+00 -2.01489e-04  2.63348e+00 
-3.99933e+00 -2.57245e-04  2.71963e+00 
-4.32717e+00 -2.49366e-04  2.81437e+00 
-4.65687e+00 -3.05620e-04  2.91776e+00 
-4.98876e+00 -3.02608e-04  3.03044e+00 
-5.32291e+00 -3.60057e-04  3.15257e+00 
-5.65969e+00 -3.62983e-04  3.28487e+00 
-5.99919e+00 -4.22576e-04  3.42761e+00 
-6.34182e+00 -4.32902e-04  3.58159e+00 
-6.68771e+00 -4.95973e-04  3.74724e+00 
-7.03733e+00 -5.15738e-04  3.92549e+00 
-7.39087e+00 -5.84222e-04  4.11692e+00 
-7.74887e+00 -6.16339e-04  4.32261e+00 
-8.11162e+00 -6.93125e-04  4.54340e+00 
-8.47975e+00 -7.41868e-04  4.78057e+00 
-8.85367e+00 -8.31400e-04  5.03524e+00 
-9.23417e+00 -9.03245e-04  5.30899e+00 
-9.62182e+00 -1.01259e-03  5.60332e+00 
-1.00177e+01 -1.11772e-03  5.92022e+00 
-1.04225e+01 -1.25855e-03  6.26174e+00 
-1.08377e+01 -1.41368e-03  6.63045e+00 
-1.12646e+01 -1.60617e-03  7.02919e+00 
-1.17050e+01 -1.84027e-03  7.46137e+00 
-1.21608e+01 -2.12123e-03  7.93098e+00 
-1.26349e+01 -2.48792e-03  8.44274e+00 
-1.31303e+01 -2.92955e-03  9.00241e+00 
-1.36514e+01 -3.53669e-03  9.61679e+00 
-1.42034e+01 -4.29407e-03  1.02945e+01 
-1.47935e+01 -5.38364e-03  1.10456e+01 
-1.54310e+01 -6.83314e-03  1.18834e+01 
-1.61292e+01 -9.03113e-03  1.28239e+01 
-1.69063e+01 -1.22497e-02  1.38881e+01 
-1.77897e+01 -1.74963e-02  1.51020e+01 
-1.88200e+01 -2.64167e-02  1.65007e+01 
-2.00645e+01 -4.16682e-02  1.81216e+01 
-2.16331e+01 -7.96657e-02  2.00417e+01 
-2.37513e+01 -1.06819e-01  2.21414e+01 
-2.67029e+01 -5.77113e-01  2.54914e+01 
-3.26127e+01  1.94437e+00  2.49754e+01 
 2.88130e+01 -1.51022e+01 -5.09638e-01 
 2.70030e+01 -1.30538e+01  4.07623e+00 
 2.49489e+01 -1.05022e+01  9.37232e+00 
 2.32265e+01 -8.71819e+00  1.11631e+01 
 2.17434e+01 -7.31261e+00  1.18384e+01 
 2.04667e+01 -6.22232e+00  1.18960e+01 
 1.93531e+01 -5.36070e+00  1.16571e+01 
 1.83685e+01 -4.66985e+00  1.12681e+01 
 1.74866e+01 -4.10811e+00  1.08075e+01 
 1.66869e+01 -3.64468e+00  1.03188e+01 
 1.59541e+01 -3.25778e+00  9.82536e+00 
 1.52760e+01 -2.93064e+00  9.34126e+00 
 1.46433e+01 -2.65132e+00  8.87340e+00 
 1.40484e+01 -2.41019e+00  8.42630e+00 
 1.34858e+01 -2.20040e+00  8.00128e+00 
 1.29503e+01 -2.01610e+00  7.59939e+00 
 1.24384e+01 -1.85321e+00  7.22001e+00 
 1.19467e+01 -1.70801e+00  6.86291e+00 
 1.14728e+01 -1.57798e+00  6.52686e+00 
 1.10143e+01 -1.46064e+00  6.21120e+00 
 1.05695e+01 -1.35439e+00  5.91457e+00 
 1.01368e+01 -1.25750e+00  5.63623e+00 
 9.71493e+00 -1.16894e+00  5.37490e+00 
 9.30264e+00 -1.08744e+00  5.12987e+00 
 8.89911e+00 -1.01234e+00  4.89998e+00 
 8.50331e+00 -9.42674e-01  4.68461e+00 
 8.11465e+00 -8.78020e-01  4.48276e+00 
 7.73232e+00 -8.17616e-01  4.29388e+00 
 7.35587e+00 -7.61191e-01  4.11713e+00 
 6.98463e+00 -7.08127e-01  3.95203e+00 
 6.61829e+00 -6.58260e-01  3.79787e+00 
 6.25626e+00 -6.11073e-01  3.65426e+00 
 5.89832e+00 -5.66476e-01  3.52058e+00 
 5.54395e+00 -5.24025e-01  3.39651e+00 
 5.19300e+00 -4.83682e-01  3.28156e+00 
 4.84501e+00 -4.45056e-01  3.17542e+00 
 4.49985e+00 -4.08148e-01  3.07770e+00 
 4.15713e+00 -3.72605e-01  2.98815e+00 
 3.81675e+00 -3.38457e-01  2.90645e+00 
 3.47834e+00 -3.05380e-01  2.83240e+00 
 3.14182e+00 -2.73424e-01  2.76573e+00 
 2.80686e+00 -2.42287e-01  2.70627e+00 
 2.47340e+00 -2.12034e-01  2.65384e+00 
 2.14112e+00 -1.82379e-01  2.60829e+00 
 1.80997e+00 -1.53398e-01  2.56949e+00 
 1.47965e+00 -1.24816e-01  2.53731e+00 
 1.15013e+00 -9.67147e-02  2.51169e+00 
 8.21095e-01 -6.88303e-02  2.49253e+00 
 4.92528e-01 -4.12474e-02  2.47979e+00 
 1.64133e-01 -1.37067e-02  2.47342e+00 
-1.64133e-01  1.37067e-02  2.47342e+00 
-4.92528e-01  4.12474e-02  2.47979e+00 
-8.21095e-01  6.88303e-02  2.49253e+00 
-1.15013e+00  9.67147e-02  2.51169e+00 
-1.47965e+00  1.24816e-01  2.53731e+00 
-1.80997e+00  1.53398e-01  2.56949e+00 
-2.14112e+00  1.82379e-01  2.60829e+00 
-2.47340e+00  2.12034e-01  2.65384e+00 
-2.80686e+00  2.42287e-01  2.70627e+00 
-3.14182e+00  2.73424e-01  2.76573e+00 
-3.47834e+00  3.05380e-01  2.83240e+00 
-3.81675e+00  3.38457e-01  2.90645e+00 
-4.15713e+00  3.72605e-01  2.98815e+00 
-4.49985e+00  4.08148e-01  3.07770e+00 
-4.84501e+00  4.45056e-01  3.17542e+00 
-5.19300e+00  4.83682e-01  3.28156e+00 
-5.54395e+00  5.24025e-01  3.39651e+00 
-5.89832e+00  5.66476e-01  3.52058e+00 
-6.25626e+00  6.11073e-01  3.65426e+00 
-6.61829e+00  6.58260e-01  3.79787e+00 
-6.98463e+00  7.08127e-01  3.95203e+00 
-7.35587e+00  7.61191e-01  4.11713e+00 
-7.73232e+00  8.17616e-01  4.29388e+00 
-8.11465e+00  8.78020e-01  4.48276e+00 
-8.50331e+00  9.42674e-01  4.68461e+00 
-8.89911e+00  1.01234e+00  4.89998e+00 
-9.30264e+00  1.08744e+00  5.12987e+00 
-9.71493e+00  1.16894e+00  5.37490e+00 
-1.01368e+01  1.25750e+00  5.63623e+00 
-1.05695e+01  1.35439e+00  5.91457e+00 
-1.10143e+01  1.46064e+00  6.21120e+00 
-1.14728e+01  1.57798e+00  6.52686e+00 
-1.19467e+01  1.70801e+00  6.86291e+00 
-1.24384e+01  1.85321e+00  7.22001e+00 
-1.29503e+01  2.01610e+00  7.59939e+00 
-1.34858e+01  2.20040e+00  8.00128e+00 
-1.40484e+01  2.41019e+00  8.42630e+00 
-1.46433e+01  2.65132e+00  8.87340e+00 
-1.52760e+01  2.93064e+00  9.34126e+00 
-1.59541e+01  3.25778e+00  9.82536e+00 
-1.66869e+01  3.64468e+00  1.03188e+01 
-1.74866e+01  4.10811e+00  1.08075e+01 
-1.83685e+01  4.66985e+00  1.12681e+01 
-1.93531e+01  5.36070e+00  1.16571e+01 
-2.04667e+01  6.22232e+00  1.18960e+01 
-2.17434e+01  7.31261e+00  1.18384e+01 
-2.32265e+01  8.71819e+00  1.11631e+01 
-2.49489e+01  1.05022e+01  9.37232e+00 
-2.70030e+01  1.30538e+01  4.07623e+00 
-2.88130e+01  1.51022e+01 -5.09638e-01 
 2.23992e+01 -9.37977e+00  1.88606e+00 
 2.36486e+01 -1.04905e+01  1.36629e+00 
 2.35875e+01 -1.06504e+01  2.54961e+00 
 2.30505e+01 -1.02093e+01  4.41997e+00 
 2.22922e+01 -9.56749e+00  5.88731e+00 
 2.14451e+01 -8.85403e+00  6.96496e+00 
 2.05776e+01 -8.14593e+00  7.69596e+00 
 1.97229e+01 -7.47542e+00  8.16109e+00 
 1.88973e+01 -6.85631e+00  8.42803e+00 
 1.81070e+01 -6.29172e+00  8.55049e+00 
 1.73539e+01 -5.78048e+00  8.56824e+00 
 1.66371e+01 -5.31865e+00  8.51133e+00 
 1.59547e+01 -4.90196e+00  8.40128e+00 
 1.53038e+01 -4.52550e+00  8.25462e+00 
 1.46822e+01 -4.18506e+00  8.08289e+00 
 1.40868e+01 -3.87628e+00  7.89531e+00 
 1.35155e+01 -3.59572e+00  7.69803e+00 
 1.29656e+01 -3.33987e+00  7.49627e+00 
 1.24354e+01 -3.10610e+00  7.29326e+00 
 1.19228e+01 -2.89165e+00  7.09198e+00 
 1.14263e+01 -2.69454e+00  6.89405e+00 
 1.09441e+01 -2.51263e+00  6.70118e+00 
 1.04752e+01 -2.34446e+00  6.51409e+00 
 1.00181e+01 -2.18834e+00  6.33376e+00 
 9.57196e+00 -2.04318e+00  6.16042e+00 
 9.13561e+00 -1.90765e+00  5.99460e+00 
 8.70836e+00 -1.78096e+00  5.83627e+00 
 8.28926e+00 -1.66201e+00  5.68571e+00 
 7.87776e+00 -1.55023e+00  5.54274e+00 
 7.47305e+00 -1.44472e+00  5.40751e+00 
 7.07472e+00 -1.34505e+00  5.27975e+00 
 6.68206e+00 -1.25047e+00  5.15954e+00 
 6.29474e+00 -1.16068e+00  5.04659e+00 
 5.91216e+00 -1.07503e+00  4.94092e+00 
 5.53406e+00 -9.93302e-01  4.84226e+00 
 5.15989e+00 -9.14936e-01  4.75059e+00 
 4.78944e+00 -8.39773e-01  4.66566e+00 
 4.42224e+00 -7.67322e-01  4.58745e+00 
 4.05810e+00 -6.97471e-01  4.51572e+00 
 3.69660e+00 -6.29778e-01  4.45046e+00 
 3.33759e+00 -5.64168e-01  4.39145e+00 
 2.98066e+00 -5.00235e-01  4.33869e+00 
 2.62569e+00 -4.37933e-01  4.29199e+00 
 2.27231e+00 -3.76882e-01  4.25134e+00 
 1.92040e+00 -3.17058e-01  4.21662e+00 
 1.56962e+00 -2.58098e-01  4.18780e+00 
 1.21986e+00 -1.99994e-01  4.16479e+00 
 8.70773e-01 -1.42397e-01  4.14759e+00 
 5.22285e-01 -8.53055e-02  4.13612e+00 
 1.74043e-01 -2.83797e-02  4.13041e+00 
-1.74043e-01  2.83797e-02  4.13041e+00 
-5.22285e-01  8.53055e-02  4.13612e+00 
-8.70773e-01  1.42397e-01  4.14759e+00 
-1.21986e+00  1.99994e-01  4.16479e+00 
-1.56962e+00  2.58098e-01  4.18780e+00 
-1.92040e+00  3.17058e-01  4.21662e+00 
-2.27231e+00  3.76882e-01  4.25134e+00 
-2.62569e+00  4.37933e-01  4.29199e+00 
-2.98066e+00  5.00235e-01  4.33869e+00 
-3.33759e+00  5.64168e-01  4.39145e+00 
-3.69660e+00  6.29778e-01  4.45046e+00 
-4.05810e+00  6.97471e-01  4.51572e+00 
-4.42224e+00  7.67322e-01  4.58745e+00 
-4.78944e+00  8.39773e-01  4.66566e+00 
-5.15989e+00  9.14936e-01  4.75059e+00 
-5.53406e+00  9.93302e-01  4.84226e+00 
-5.91216e+00  1.07503e+00  4.94092e+00 
-6.29474e+00  1.16068e+00  5.04659e+00 
-6.68206e+00  1.25047e+00  5.15954e+00 
-7.07472e+00  1.34505e+00  5.27975e+00 
-7.47305e+00  1.44472e+00  5.40751e+00 
-7.87776e+00  1.55023e+00  5.54274e+00 
-8.28926e+00  1.66201e+00  5.68571e+00 
-8.70836e+00  1.78096e+00  5.83627e+00 
-9.13561e+00  1.90765e+00  5.99460e+00 
-9.57196e+00  2.04318e+00  6.16042e+00 
-1.00181e+01  2.18834e+00  6.33376e+00 
-1.04752e+01  2.34446e+00  6.51409e+00 
-1.09441e+01  2.51263e+00  6.70118e+00 
-1.14263e+01  2.69454e+00  6.89405e+00 
-1.19228e+01  2.89165e+00  7.09198e+00 
-1.24354e+01  3.10610e+00  7.29326e+00 
-1.29656e+01  3.33987e+00  7.49627e+00 
-1.35155e+01  3.59572e+00  7.69803e+00 
-1.40868e+01  3.87628e+00  7.89531e+00 
-1.46822e+01  4.18506e+00  8.08289e+00 
-1.53038e+01  4.52550e+00  8.25462e+00 
-1.59547e+01  4.90196e+00  8.40128e+00 
-1.66371e+01  5.31865e+00  8.51133e+00 
-1.73539e+01  5.78048e+00  8.56824e+00 
-1.81070e+01  6.29172e+00  8.55049e+00 
-1.88973e+01  6.85631e+00  8.42803e+00 
-1.97229e+01  7.47542e+00  8.16109e+00 
-2.05776e+01  8.14593e+00  7.69596e+00 
-2.14451e+01  8.85403e+00  6.96496e+00 
-2.22922e+01  9.56749e+00  5.88731e+00 
-2.30505e+01  1.02093e+01  4.41997e+00 
-2.35875e+01  1.06504e+01  2.54961e+00 
-2.36486e+01  1.04905e+01  1.36629e+00 
-2.23992e+01  9.37977e+00  1.88606e+00 
 2.18133e+01 -9.90713e+00  3.18781e-01 
 2.16314e+01 -9.69968e+00  8.05734e-01 
 2.16685e+01 -9.66632e+00  1.43020e+00 
 2.15291e+01 -9.59561e+00  2.11221e+00 
 2.12311e+01 -9.40205e+00  2.95043e+00 
 2.08036e+01 -9.10806e+00  3.78720e+00 
 2.02853e+01 -8.74299e+00  4.55405e+00 
 1.97079e+01 -8.33578e+00  5.21497e+00 
 1.90960e+01 -7.90871e+00  5.76242e+00 
 1.84665e+01 -7.47730e+00  6.20175e+00 
 1.78317e+01 -7.05232e+00  6.54447e+00 
 1.71995e+01 -6.64031e+00  6.80382e+00 
 1.65752e+01 -6.24553e+00  6.99276e+00 
 1.59620e+01 -5.86995e+00  7.12326e+00 
 1.53620e+01 -5.51470e+00  7.20563e+00 
 1.47762e+01 -5.17965e+00  7.24896e+00 
 1.42050e+01 -4.86455e+00  7.26062e+00 
 1.36482e+01 -4.56838e+00  7.24712e+00 
 1.31057e+01 -4.29037e+00  7.21355e+00 
 1.25768e+01 -4.02920e+00  7.16446e+00 
 1.20610e+01 -3.78396e+00  7.10327e+00 
 1.15575e+01 -3.55332e+00  7.03314e+00 
 1.10657e+01 -3.33639e+00  6.95636e+00 
 1.05848e+01 -3.13193e+00  6.87512e+00 
 1.01143e+01 -2.93915e+00  6.79090e+00 
 9.65320e+00 -2.75693e+00  6.70526e+00 
 9.20116e+00 -2.58460e+00  6.61913e+00 
 8.75733e+00 -2.42119e+00  6.53361e+00 
 8.32132e+00 -2.26613e+00  6.44928e+00 
 7.89239e+00 -2.11856e+00  6.36692e+00 
 7.47018e+00 -1.97803e+00  6.28687e+00 
 7.05404e+00 -1.84377e+00  6.20968e+00 
 6.64367e+00 -1.71542e+00  6.13555e+00 
 6.23845e+00 -1.59229e+00  6.06486e+00 
 5.83814e+00 -1.47412e+00  5.99772e+00 
 5.44218e+00 -1.36027e+00  5.93440e+00 
 5.05037e+00 -1.25053e+00  5.87494e+00 
 4.66218e+00 -1.14434e+00  5.81953e+00 
 4.27743e+00 -1.04153e+00  5.76816e+00 
 3.89566e+00 -9.41580e-01  5.72099e+00 
 3.51671e+00 -8.44361e-01  5.67799e+00 
 3.14012e+00 -7.49399e-01  5.63926e+00 
 2.76577e+00 -6.56584e-01  5.60477e+00 
 2.39323e+00 -5.65473e-01  5.57458e+00 
 2.02238e+00 -4.75978e-01  5.54867e+00 
 1.65281e+00 -3.87678e-01  5.52709e+00 
 1.28442e+00 -3.00502e-01  5.50980e+00 
 9.16808e-01 -2.14040e-01  5.49685e+00 
 5.49876e-01 -1.28232e-01  5.48820e+00 
 1.83233e-01 -4.26795e-02  5.48388e+00 
-1.83233e-01  4.26795e-02  5.48388e+00 
-5.49876e-01  1.28232e-01  5.48820e+00 
-9.16808e-01  2.14040e-01  5.49685e+00 
-1.28442e+00  3.00502e-01  5.50980e+00 
-1.65281e+00  3.87678e-01  5.52709e+00 
-2.02238e+00  4.75978e-01  5.54867e+00 
-2.39323e+00  5.65473e-01  5.57458e+00 
-2.76577e+00  6.56584e-01  5.60477e+00 
-3.14012e+00  7.49399e-01  5.63926e+00 
-3.51671e+00  8.44361e-01  5.67799e+00 
-3.89566e+00  9.41580e-01  5.72099e+00 
-4.27743e+00  1.04153e+00  5.76816e+00 
-4.66218e+00  1.14434e+00  5.81953e+00 
-5.05037e+00  1.25053e+00  5.87494e+00 
-5.44218e+00  1.36027e+00  5.93440e+00 
-5.83814e+00  1.47412e+00  5.99772e+00 
-6.23845e+00  1.59229e+00  6.06486e+00 
-6.64367e+00  1.71542e+00  6.13555e+00 
-7.05404e+00  1.84377e+00  6.20968e+00 
-7.47018e+00  1.97803e+00  6.28687e+00 
-7.89239e+00  2.11856e+00  6.36692e+00 
-8.32132e+00  2.26613e+00  6.44928e+00 
-8.75733e+00  2.42119e+00  6.53361e+00 
-9.20116e+00  2.58460e+00  6.61913e+00 
-9.65320e+00  2.75693e+00  6.70526e+00 
-1.01143e+01  2.93915e+00  6.79090e+00 
-1.05848e+01  3.13193e+00  6.87512e+00 
-1.10657e+01  3.33639e+00  6.95636e+00 
-1.15575e+01  3.55332e+00  7.03314e+00 
-1.20610e+01  3.78396e+00  7.10327e+00 
-1.25768e+01  4.02920e+00  7.16446e+00 
-1.31057e+01  4.29037e+00  7.21355e+00 
-1.36482e+01  4.56838e+00  7.24712e+00 
-1.42050e+01  4.86455e+00  7.26062e+00 
-1.47762e+01  5.17965e+00  7.24896e+00 
-1.53620e+01  5.51470e+00  7.20563e+00 
-1.59620e+01  5.86995e+00  7.12326e+00 
-1.65752e+01  6.24553e+00  6.99276e+00 
-1.71995e+01  6.64031e+00  6.80382e+00 
-1.78317e+01  7.05232e+00  6.54447e+00 
-1.84665e+01  7.47730e+00  6.20175e+00 
-1.90960e+01  7.90871e+00  5.76242e+00 
-1.97079e+01  8.33578e+00  5.21497e+00 
-2.02853e+01  8.74299e+00  4.55405e+00 
-2.08036e+01  9.10806e+00  3.78720e+00 
-2.12311e+01  9.40205e+00  2.95043e+00 
-2.15291e+01  9.59561e+00  2.11221e+00 
-2.16685e+01  9.66632e+00  1.43020e+00 
-2.16314e+01  9.69968e+00  8.05734e-01 
-2.18133e+01  9.90713e+00  3.18781e-01 
 2.10958e+01 -9.50748e+00  3.02359e-01 
 2.09615e+01 -9.44593e+00  4.26172e-01 
 2.07429e+01 -9.33375e+00  8.79917e-01 
 2.05180e+01 -9.20171e+00  1.38116e+00 
 2.02514e+01 -9.05146e+00  1.90063e+00 
 1.99335e+01 -8.86826e+00  2.44996e+00 
 1.95627e+01 -8.64885e+00  3.00785e+00 
 1.91444e+01 -8.39590e+00  3.55246e+00 
 1.86872e+01 -8.11596e+00  4.06601e+00 
 1.81997e+01 -7.81625e+00  4.53674e+00 
 1.76904e+01 -7.50397e+00  4.95888e+00 
 1.71660e+01 -7.18504e+00  5.33058e+00 
 1.66327e+01 -6.86459e+00  5.65303e+00 
 1.60948e+01 -6.54631e+00  5.92897e+00 
 1.55562e+01 -6.23333e+00  6.16220e+00 
 1.50194e+01 -5.92756e+00  6.35686e+00 
 1.44866e+01 -5.63068e+00  6.51717e+00 
 1.39591e+01 -5.34345e+00  6.64726e+00 
 1.34381e+01 -5.06665e+00  6.75091e+00 
 1.29242e+01 -4.80032e+00  6.83170e+00 
 1.24179e+01 -4.54471e+00  6.89274e+00 
 1.19194e+01 -4.29947e+00  6.93697e+00 
 1.14287e+01 -4.06455e+00  6.96683e+00 
 1.09457e+01 -3.83939e+00  6.98465e+00 
 1.04705e+01 -3.62379e+00  6.99228e+00 
 1.00025e+01 -3.41711e+00  6.99156e+00 
 9.54182e+00 -3.21908e+00  6.98387e+00 
 9.08788e+00 -3.02903e+00  6.97063e+00 
 8.64057e+00 -2.84666e+00  6.95288e+00 
 8.19938e+00 -2.67134e+00  6.93170e+00 
 7.76416e+00 -2.50277e+00  6.90786e+00 
 7.33439e+00 -2.34033e+00  6.88219e+00 
 6.90990e+00 -2.18375e+00  6.85526e+00 
 6.49021e+00 -2.03246e+00  6.82770e+00 
 6.07513e+00 -1.88620e+00  6.79991e+00 
 5.66420e+00 -1.74444e+00  6.77240e+00 
 5.25725e+00 -1.60696e+00  6.74545e+00 
 4.85382e+00 -1.47324e+00  6.71945e+00 
 4.45376e+00 -1.34310e+00  6.69458e+00 
 4.05664e+00 -1.21606e+00  6.67115e+00 
 3.66231e+00 -1.09195e+00  6.64929e+00 
 3.27034e+00 -9.70311e-01  6.62923e+00 
 2.88061e+00 -8.51012e-01  6.61106e+00 
 2.49270e+00 -7.33595e-01  6.59494e+00 
 2.10651e+00 -6.17954e-01  6.58093e+00 
 1.72161e+00 -5.03647e-01  6.56916e+00 
 1.33791e+00 -3.90577e-01  6.55965e+00 
 9.55003e-01 -2.78314e-01  6.55249e+00 
 5.72789e-01 -1.66770e-01  6.54768e+00 
 1.90870e-01 -5.55217e-02  6.54528e+00 
-1.90870e-01  5.55217e-02  6.54528e+00 
-5.72789e-01  1.66770e-01  6.54768e+00 
-9.55003e-01  2.78314e-01  6.55249e+00 
-1.33791e+00  3.90577e-01  6.55965e+00 
-1.72161e+00  5.03647e-01  6.56916e+00 
-2.10651e+00  6.17954e-01  6.58093e+00 
-2.49270e+00  7.33595e-01  6.59494e+00 
-2.88061e+00  8.51012e-01  6.61106e+00 
-3.27034e+00  9.70311e-01  6.62923e+00 
-3.66231e+00  1.09195e+00  6.64929e+00 
-4.05664e+00  1.21606e+00  6.67115e+00 
-4.45376e+00  1.34310e+00  6.69458e+00 
-4.85382e+00  1.47324e+00  6.71945e+00 
-5.25725e+00  1.60696e+00  6.74545e+00 
-5.66420e+00  1.74444e+00  6.77240e+00 
-6.07513e+00  1.88620e+00  6.79991e+00 
-6.49021e+00  2.03246e+00  6.82770e+00 
-6.90990e+00  2.18375e+00  6.85526e+00 
-7.33439e+00  2.34033e+00  6.88219e+00 
-7.76416e+00  2.50277e+00  6.90786e+00 
-8.19938e+00  2.67134e+00  6.93170e+00 
-8.64057e+00  2.84666e+00  6.95288e+00 
-9.08788e+00  3.02903e+00  6.97063e+00 
-9.54182e+00  3.21908e+00  6.98387e+00 
-1.00025e+01  3.41711e+00  6.99156e+00 
-1.04705e+01  3.62379e+00  6.99228e+00 
-1.09457e+01  3.83939e+00  6.98465e+00 
-1.14287e+01  4.06455e+00  6.96683e+00 
-1.19194e+01  4.29947e+00  6.93697e+00 
-1.24179e+01  4.54471e+00  6.89274e+00 
-1.29242e+01  4.80032e+00  6.83170e+00 
-1.34381e+01  5.06665e+00  6.75091e+00 
-1.39591e+01  5.34345e+00  6.64726e+00 
-1.44866e+01  5.63068e+00  6.51717e+00 
-1.50194e+01  5.92756e+00  6.35686e+00 
-1.55562e+01  6.23333e+00  6.16220e+00 
-1.60948e+01  6.54631e+00  5.92897e+00 
-1.66327e+01  6.86459e+00  5.65303e+00 
-1.71660e+01  7.18504e+00  5.33058e+00 
-1.76904e+01  7.50397e+00  4.95888e+00 
-1.81997e+01  7.81625e+00  4.53674e+00 
-1.86872e+01  8.11596e+00  4.06601e+00 
-1.91444e+01  8.39590e+00  3.55246e+00 
-1.95627e+01  8.64885e+00  3.00785e+00 
-1.99335e+01  8.86826e+00  2.44996e+00 
-2.02514e+01  9.05146e+00  1.90063e+00 
-2.05180e+01  9.20171e+00  1.38116e+00 
-2.07429e+01  9.33375e+00  8.79917e-01 
-2.09615e+01  9.44593e+00  4.26172e-01 
-2.10958e+01  9.50748e+00  3.02359e-01 
 2.06720e+01 -9.35557e+00  2.04215e-01 
 2.04106e+01 -9.19856e+00  3.45846e-01 
 2.01515e+01 -9.07828e+00  6.78088e-01 
 1.98689e+01 -8.94334e+00  1.05078e+00 
 1.95688e+01 -8.79313e+00  1.45386e+00 
 1.92478e+01 -8.62867e+00  1.87338e+00 
 1.89039e+01 -8.44866e+00  2.30384e+00 
 1.85357e+01 -8.25216e+00  2.73755e+00 
 1.81437e+01 -8.03959e+00  3.16683e+00 
 1.77298e+01 -7.81229e+00  3.58388e+00 
 1.72969e+01 -7.57266e+00  3.98257e+00 
 1.68479e+01 -7.32318e+00  4.35804e+00 
 1.63862e+01 -7.06671e+00  4.70737e+00 
 1.59147e+01 -6.80567e+00  5.02880e+00 
 1.54363e+01 -6.54253e+00  5.32194e+00 
 1.49531e+01 -6.27914e+00  5.58710e+00 
 1.44675e+01 -6.01733e+00  5.82535e+00 
 1.39810e+01 -5.75832e+00  6.03803e+00 
 1.34951e+01 -5.50336e+00  6.22687e+00 
 1.30108e+01 -5.25312e+00  6.39363e+00 
 1.25292e+01 -5.00839e+00  6.54017e+00 
 1.20508e+01 -4.76944e+00  6.66831e+00 
 1.15763e+01 -4.53672e+00  6.77981e+00 
 1.11060e+01 -4.31022e+00  6.87637e+00 
 1.06401e+01 -4.09017e+00  6.95953e+00 
 1.01788e+01 -3.87637e+00  7.03078e+00 
 9.72230e+00 -3.66889e+00  7.09145e+00 
 9.27040e+00 -3.46742e+00  7.14279e+00 
 8.82324e+00 -3.27194e+00  7.18590e+00 
 8.38056e+00 -3.08206e+00  7.22183e+00 
 7.94242e+00 -2.89772e+00  7.25147e+00 
 7.50849e+00 -2.71849e+00  7.27568e+00 
 7.07878e+00 -2.54426e+00  7.29518e+00 
 6.65292e+00 -2.37458e+00  7.31067e+00 
 6.23088e+00 -2.20936e+00  7.32271e+00 
 5.81229e+00 -2.04814e+00  7.33188e+00 
 5.39709e+00 -1.89079e+00  7.33861e+00 
 4.98489e+00 -1.73688e+00  7.34337e+00 
 4.57564e+00 -1.58629e+00  7.34649e+00 
 4.16894e+00 -1.43857e+00  7.34834e+00 
 3.76472e+00 -1.29362e+00  7.34917e+00 
 3.36259e+00 -1.15101e+00  7.34928e+00 
 2.96247e+00 -1.01063e+00  7.34884e+00 
 2.56399e+00 -8.72054e-01  7.34809e+00 
 2.16707e+00 -7.35193e-01  7.34714e+00 
 1.77132e+00 -5.99621e-01  7.34616e+00 
 1.37667e+00 -4.65253e-01  7.34525e+00 
 9.82741e-01 -3.31670e-01  7.34449e+00 
 5.89453e-01 -1.98789e-01  7.34395e+00 
 1.96427e-01 -6.61963e-02  7.34367e+00 
-1.96427e-01  6.61963e-02  7.34367e+00 
-5.89453e-01  1.98789e-01  7.34395e+00 
-9.82741e-01  3.31670e-01  7.34449e+00 
-1.37667e+00  4.65253e-01  7.34525e+00 
-1.77132e+00  5.99621e-01  7.34616e+00 
-2.16707e+00  7.35193e-01  7.34714e+00 
-2.56399e+00  8.72054e-01  7.34809e+00 
-2.96247e+00  1.01063e+00  7.34884e+00 
-3.36259e+00  1.15101e+00  7.34928e+00 
-3.76472e+00  1.29362e+00  7.34917e+00 
-4.16894e+00  1.43857e+00  7.34834e+00 
-4.57564e+00  1.58629e+00  7.34649e+00 
-4.98489e+00  1.73688e+00  7.34337e+00 
-5.39709e+00  1.89079e+00  7.33861e+00 
-5.81229e+00  2.04814e+00  7.33188e+00 
-6.23088e+00  2.20936e+00  7.32271e+00 
-6.65292e+00  2.37458e+00  7.31067e+00 
-7.07878e+00  2.54426e+00  7.29518e+00 
-7.50849e+00  2.71849e+00  7.27568e+00 
-7.94242e+00  2.89772e+00  7.25147e+00 
-8.38056e+00  3.08206e+00  7.22183e+00 
-8.82324e+00  3.27194e+00  7.18590e+00 
-9.27040e+00  3.46742e+00  7.14279e+00 
-9.72230e+00  3.66889e+00  7.09145e+00 
-1.01788e+01  3.87637e+00  7.03078e+00 
-1.06401e+01  4.09017e+00  6.95953e+00 
-1.11060e+01  4.31022e+00  6.87637e+00 
-1.15763e+01  4.53672e+00  6.77981e+00 
-1.20508e+01  4.76944e+00  6.66831e+00 
-1.25292e+01  5.00839e+00  6.54017e+00 
-1.30108e+01  5.25312e+00  6.39363e+00 
-1.34951e+01  5.50336e+00  6.22687e+00 
-1.39810e+01  5.75832e+00  6.03803e+00 
-1.44675e+01  6.01733e+00  5.82535e+00 
-1.49531e+01  6.27914e+00  5.58710e+00 
-1.54363e+01  6.54253e+00  5.32194e+00 
-1.59147e+01  6.80567e+00  5.02880e+00 
-1.63862e+01  7.06671e+00  4.70737e+00 
-1.68479e+01  7.32318e+00  4.35804e+00 
-1.72969e+01  7.57266e+00  3.98257e+00 
-1.77298e+01  7.81229e+00  3.58388e+00 
-1.81437e+01  8.03959e+00  3.16683e+00 
-1.85357e+01  8.25216e+00  2.73755e+00 
-1.89039e+01  8.44866e+00  2.30384e+00 
-1.92478e+01  8.62867e+00  1.87338e+00 
-1.95688e+01  8.79313e+00  1.45386e+00 
-1.98689e+01  8.94334e+00  1.05078e+00 
-2.01515e+01  9.07828e+00  6.78088e-01 
-2.04106e+01  9.19856e+00  3.45846e-01 
-2.06720e+01  9.35557e+00  2.04215e-01 
 2.02794e+01 -9.18423e+00  1.81871e-01 
 1.99750e+01 -9.00722e+00  2.99991e-01 
 1.96662e+01 -8.86620e+00  6.00793e-01 
 1.93526e+01 -8.72146e+00  9.21570e-01 
 1.90298e+01 -8.57074e+00  1.26016e+00 
 1.86964e+01 -8.41219e+00  1.61328e+00 
 1.83513e+01 -8.24534e+00  1.97613e+00 
 1.79936e+01 -8.06967e+00  2.34422e+00 
 1.76230e+01 -7.88513e+00  2.71356e+00 
 1.72394e+01 -7.69172e+00  3.07997e+00 
 1.68433e+01 -7.49007e+00  3.43982e+00 
 1.64355e+01 -7.28086e+00  3.78954e+00 
 1.60175e+01 -7.06527e+00  4.12643e+00 
 1.55903e+01 -6.84434e+00  4.44808e+00 
 1.51556e+01 -6.61945e+00  4.75299e+00 
 1.47146e+01 -6.39169e+00  5.03999e+00 
 1.42689e+01 -6.16236e+00  5.30862e+00 
 1.38196e+01 -5.93236e+00  5.55865e+00 
 1.33679e+01 -5.70280e+00  5.79037e+00 
 1.29148e+01 -5.47434e+00  6.00419e+00 
 1.24612e+01 -5.24784e+00  6.20082e+00 
 1.20078e+01 -5.02372e+00  6.38101e+00 
 1.15553e+01 -4.80261e+00  6.54568e+00 
 1.11041e+01 -4.58471e+00  6.69576e+00 
 1.06549e+01 -4.37047e+00  6.83222e+00 
 1.02077e+01 -4.15992e+00  6.95600e+00 
 9.76303e+00 -3.95337e+00  7.06806e+00 
 9.32091e+00 -3.75071e+00  7.16930e+00 
 8.88164e+00 -3.55213e+00  7.26059e+00 
 8.44511e+00 -3.35744e+00  7.34276e+00 
 8.01155e+00 -3.16675e+00  7.41657e+00 
 7.58079e+00 -2.97979e+00  7.48277e+00 
 7.15296e+00 -2.79662e+00  7.54200e+00 
 6.72784e+00 -2.61694e+00  7.59491e+00 
 6.30551e+00 -2.44074e+00  7.64206e+00 
 5.88571e+00 -2.26771e+00  7.68398e+00 
 5.46848e+00 -2.09782e+00  7.72115e+00 
 5.05352e+00 -1.93071e+00  7.75400e+00 
 4.64086e+00 -1.76636e+00  7.78292e+00 
 4.23019e+00 -1.60439e+00  7.80829e+00 
 3.82149e+00 -1.44477e+00  7.83039e+00 
 3.41446e+00 -1.28712e+00  7.84953e+00 
 3.00907e+00 -1.13140e+00  7.86594e+00 
 2.60499e+00 -9.77213e-01  7.87985e+00 
 2.20220e+00 -8.24522e-01  7.89143e+00 
 1.80036e+00 -6.72943e-01  7.90085e+00 
 1.39944e+00 -5.22423e-01  7.90823e+00 
 9.99096e-01 -3.72582e-01  7.91368e+00 
 5.99305e-01 -2.23366e-01  7.91727e+00 
 1.99717e-01 -7.43943e-02  7.91906e+00 
-1.99717e-01  7.43943e-02  7.91906e+00 
-5.99305e-01  2.23366e-01  7.91727e+00 
-9.99096e-01  3.72582e-01  7.91368e+00 
-1.39944e+00  5.22423e-01  7.90823e+00 
-1.80036e+00  6.72943e-01  7.90085e+00 
-2.20220e+00  8.24522e-01  7.89143e+00 
-2.60499e+00  9.77213e-01  7.87985e+00 
-3.00907e+00  1.13140e+00  7.86594e+00 
-3.41446e+00  1.28712e+00  7.84953e+00 
-3.82149e+00  1.44477e+00  7.83039e+00 
-4.23019e+00  1.60439e+00  7.80829e+00 
-4.64086e+00  1.76636e+00  7.78292e+00 
-5.05352e+00  1.93071e+00  7.75400e+00 
-5.46848e+00  2.09782e+00  7.72115e+00 
-5.88571e+00  2.26771e+00  7.68398e+00 
-6.30551e+00  2.44074e+00  7.64206e+00 
-6.72784e+00  2.61694e+00  7.59491e+00 
-7.15296e+00  2.79662e+00  7.54200e+00 
-7.58079e+00  2.97979e+00  7.48277e+00 
-8.01155e+00  3.16675e+00  7.41657e+00 
-8.44511e+00  3.35744e+00  7.34276e+00 
-8.88164e+00  3.55213e+00  7.26059e+00 
-9.32091e+00  3.75071e+00  7.16930e+00 
-9.76303e+00  3.95337e+00  7.06806e+00 
-1.02077e+01  4.15992e+00  6.95600e+00 
-1.06549e+01  4.37047e+00  6.83222e+00 
-1.11041e+01  4.58471e+00  6.69576e+00 
-1.15553e+01  4.80261e+00  6.54568e+00 
-1.20078e+01  5.02372e+00  6.38101e+00 
-1.24612e+01  5.24784e+00  6.20082e+00 
-1.29148e+01  5.47434e+00  6.00419e+00 
-1.33679e+01  5.70280e+00  5.79037e+00 
-1.38196e+01  5.93236e+00  5.55865e+00 
-1.42689e+01  6.16236e+00  5.30862e+00 
-1.47146e+01  6.39169e+00  5.03999e+00 
-1.51556e+01  6.61945e+00  4.75299e+00 
-1.55903e+01  6.84434e+00  4.44808e+00 
-1.60175e+01  7.06527e+00  4.12643e+00 
-1.64355e+01  7.28086e+00  3.78954e+00 
-1.68433e+01  7.49007e+00  3.43982e+00 
-1.72394e+01  7.69172e+00  3.07997e+00 
-1.76230e+01  7.88513e+00  2.71356e+00 
-1.79936e+01  8.06967e+00  2.34422e+00 
-1.83513e+01  8.24534e+00  1.97613e+00 
-1.86964e+01  8.41219e+00  1.61328e+00 
-1.90298e+01  8.57074e+00  1.26016e+00 
-1.93526e+01  8.72146e+00  9.21570e-01 
-1.96662e+01  8.86620e+00  6.00793e-01 
-1.99750e+01  9.00722e+00  2.99991e-01 
-2.02794e+01  9.18423e+00  1.81871e-01 
 1.99006e+01 -9.01895e+00  1.71679e-01 
 1.95664e+01 -8.82412e+00  2.87828e-01 
 1.92331e+01 -8.67381e+00  5.75027e-01 
 1.88972e+01 -8.52177e+00  8.74984e-01 
 1.85581e+01 -8.36733e+00  1.18572e+00 
 1.82140e+01 -8.20946e+00  1.50509e+00 
 1.78641e+01 -8.04746e+00  1.83128e+00 
 1.75075e+01 -7.88066e+00  2.16173e+00 
 1.71437e+01 -7.70888e+00  2.49421e+00 
 1.67723e+01 -7.53184e+00  2.82616e+00 
 1.63933e+01 -7.34969e+00  3.15545e+00 
 1.60068e+01 -7.16249e+00  3.47975e+00 
 1.56131e+01 -6.97071e+00  3.79724e+00 
 1.52127e+01 -6.77467e+00  4.10602e+00 
 1.48062e+01 -6.57504e+00  4.40472e+00 
 1.43942e+01 -6.37230e+00  4.69202e+00 
 1.39776e+01 -6.16723e+00  4.96710e+00 
 1.35569e+01 -5.96031e+00  5.22918e+00 
 1.31330e+01 -5.75232e+00  5.47795e+00 
 1.27064e+01 -5.54369e+00  5.71311e+00 
 1.22780e+01 -5.33512e+00  5.93474e+00 
 1.18482e+01 -5.12694e+00  6.14289e+00 
 1.14176e+01 -4.91973e+00  6.33789e+00 
 1.09867e+01 -4.71373e+00  6.52005e+00 
 1.05559e+01 -4.50939e+00  6.68986e+00 
 1.01255e+01 -4.30683e+00  6.84775e+00 
 9.69596e+00 -4.10643e+00  6.99431e+00 
 9.26735e+00 -3.90818e+00  7.13003e+00 
 8.84006e+00 -3.71236e+00  7.25550e+00 
 8.41408e+00 -3.51891e+00  7.37124e+00 
 7.98971e+00 -3.32803e+00  7.47784e+00 
 7.56686e+00 -3.13956e+00  7.57579e+00 
 7.14577e+00 -2.95367e+00  7.66563e+00 
 6.72629e+00 -2.77015e+00  7.74782e+00 
 6.30860e+00 -2.58911e+00  7.82285e+00 
 5.89251e+00 -2.41031e+00  7.89113e+00 
 5.47815e+00 -2.23381e+00  7.95308e+00 
 5.06531e+00 -2.05935e+00  8.00908e+00 
 4.65407e+00 -1.88697e+00  8.05947e+00 
 4.24420e+00 -1.71637e+00  8.10457e+00 
 3.83575e+00 -1.54758e+00  8.14466e+00 
 3.42847e+00 -1.38030e+00  8.18003e+00 
 3.02241e+00 -1.21452e+00  8.21088e+00 
 2.61728e+00 -1.04994e+00  8.23744e+00 
 2.21312e+00 -8.86553e-01  8.25988e+00 
 1.80965e+00 -7.24027e-01  8.27834e+00 
 1.40689e+00 -5.62359e-01  8.29297e+00 
 1.00453e+00 -4.01217e-01  8.30385e+00 
 6.02614e-01 -2.40590e-01  8.31106e+00 
 2.00828e-01 -8.01435e-02  8.31466e+00 
-2.00828e-01  8.01435e-02  8.31466e+00 
-6.02614e-01  2.40590e-01  8.31106e+00 
-1.00453e+00  4.01217e-01  8.30385e+00 
-1.40689e+00  5.62359e-01  8.29297e+00 
-1.80965e+00  7.24027e-01  8.27834e+00 
-2.21312e+00  8.86553e-01  8.25988e+00 
-2.61728e+00  1.04994e+00  8.23744e+00 
-3.02241e+00  1.21452e+00  8.21088e+00 
-3.42847e+00  1.38030e+00  8.18003e+00 
-3.83575e+00  1.54758e+00  8.14466e+00 
-4.24420e+00  1.71637e+00  8.10457e+00 
-4.65407e+00  1.88697e+00  8.05947e+00 
-5.06531e+00  2.05935e+00  8.00908e+00 
-5.47815e+00  2.23381e+00  7.95308e+00 
-5.89251e+00  2.41031e+00  7.89113e+00 
-6.30860e+00  2.58911e+00  7.82285e+00 
-6.72629e+00  2.77015e+00  7.74782e+00 
-7.14577e+00  2.95367e+00  7.66563e+00 
-7.56686e+00  3.13956e+00  7.57579e+00 
-7.98971e+00  3.32803e+00  7.47784e+00 
-8.41408e+00  3.51891e+00  7.37124e+00 
-8.84006e+00  3.71236e+00  7.25550e+00 
-9.26735e+00  3.90818e+00  7.13003e+00 
-9.69596e+00  4.10643e+00  6.99431e+00 
-1.01255e+01  4.30683e+00  6.84775e+00 
-1.05559e+01  4.50939e+00  6.68986e+00 
-1.09867e+01  4.71373e+00  6.52005e+00 
-1.14176e+01  4.91973e+00  6.33789e+00 
-1.18482e+01  5.12694e+00  6.14289e+00 
-1.22780e+01  5.33512e+00  5.93474e+00 
-1.27064e+01  5.54369e+00  5.71311e+00 
-1.31330e+01  5.75232e+00  5.47795e+00 
-1.35569e+01  5.96031e+00  5.22918e+00 
-1.39776e+01  6.16723e+00  4.96710e+00 
-1.43942e+01  6.37230e+00  4.69202e+00 
-1.48062e+01  6.57504e+00  4.40472e+00 
-1.52127e+01  6.77467e+00  4.10602e+00 
-1.56131e+01  6.97071e+00  3.79724e+00 
-1.60068e+01  7.16249e+00  3.47975e+00 
-1.63933e+01  7.34969e+00  3.15545e+00 
-1.67723e+01  7.53184e+00  2.82616e+00 
-1.71437e+01  7.70888e+00  2.49421e+00 
-1.75075e+01  7.88066e+00  2.16173e+00 
-1.78641e+01  8.04746e+00  1.83128e+00 
-1.82140e+01  8.20946e+00  1.50509e+00 
-1.85581e+01  8.36733e+00  1.18572e+00 
-1.88972e+01  8.52177e+00  8.74984e-01 
-1.92331e+01  8.67381e+00  5.75027e-01 
-1.95664e+01  8.82412e+00  2.87828e-01 
-1.99006e+01  9.01895e+00  1.71679e-01 
 1.95135e+01 -8.84676e+00  1.70561e-01 
 1.91639e+01 -8.64323e+00  2.86958e-01 
 1.88158e+01 -8.48684e+00  5.74025e-01 
 1.84677e+01 -8.33043e+00  8.67482e-01 
 1.81185e+01 -8.17338e+00  1.16675e+00 
 1.77673e+01 -8.01489e+00  1.47069e+00 
 1.74135e+01 -7.85454e+00  1.77827e+00 
 1.70561e+01 -7.69175e+00  2.08810e+00 
 1.66949e+01 -7.52627e+00  2.39898e+00 
 1.63294e+01 -7.35774e+00  2.70937e+00 
 1.59594e+01 -7.18615e+00  3.01801e+00 
 1.55846e+01 -7.01133e+00  3.32340e+00 
 1.52052e+01 -6.83347e+00  3.62436e+00 
 1.48211e+01 -6.65256e+00  3.91954e+00 
 1.44327e+01 -6.46895e+00  4.20797e+00 
 1.40401e+01 -6.28275e+00  4.48852e+00 
 1.36438e+01 -6.09442e+00  4.76049e+00 
 1.32439e+01 -5.90413e+00  5.02304e+00 
 1.28410e+01 -5.71239e+00  5.27573e+00 
 1.24353e+01 -5.51941e+00  5.51803e+00 
 1.20275e+01 -5.32568e+00  5.74976e+00 
 1.16177e+01 -5.13139e+00  5.97063e+00 
 1.12064e+01 -4.93701e+00  6.18068e+00 
 1.07940e+01 -4.74267e+00  6.37983e+00 
 1.03807e+01 -4.54881e+00  6.56826e+00 
 9.96693e+00 -4.35549e+00  6.74607e+00 
 9.55295e+00 -4.16308e+00  6.91353e+00 
 9.13887e+00 -3.97161e+00  7.07084e+00 
 8.72506e+00 -3.78137e+00  7.21835e+00 
 8.31155e+00 -3.59233e+00  7.35632e+00 
 7.89863e+00 -3.40474e+00  7.48510e+00 
 7.48629e+00 -3.21851e+00  7.60501e+00 
 7.07476e+00 -3.03383e+00  7.71639e+00 
 6.66398e+00 -2.85058e+00  7.81955e+00 
 6.25415e+00 -2.66891e+00  7.91485e+00 
 5.84514e+00 -2.48865e+00  8.00256e+00 
 5.43713e+00 -2.30993e+00  8.08302e+00 
 5.02997e+00 -2.13254e+00  8.15649e+00 
 4.62378e+00 -1.95658e+00  8.22326e+00 
 4.21840e+00 -1.78182e+00  8.28356e+00 
 3.81393e+00 -1.60834e+00  8.33763e+00 
 3.41016e+00 -1.43590e+00  8.38568e+00 
 3.00720e+00 -1.26454e+00  8.42791e+00 
 2.60482e+00 -1.09401e+00  8.46448e+00 
 2.20310e+00 -9.24364e-01  8.49555e+00 
 1.80180e+00 -7.55318e-01  8.52125e+00 
 1.40100e+00 -5.86915e-01  8.54167e+00 
 1.00044e+00 -4.18875e-01  8.55692e+00 
 6.00207e-01 -2.51230e-01  8.56704e+00 
 2.00033e-01 -8.36988e-02  8.57210e+00 
-2.00033e-01  8.36988e-02  8.57210e+00 
-6.00207e-01  2.51230e-01  8.56704e+00 
-1.00044e+00  4.18875e-01  8.55692e+00 
-1.40100e+00  5.86915e-01  8.54167e+00 
-1.80180e+00  7.55318e-01  8.52125e+00 
-2.20310e+00  9.24364e-01  8.49555e+00 
-2.60482e+00  1.09401e+00  8.46448e+00 
-3.00720e+00  1.26454e+00  8.42791e+00 
-3.41016e+00  1.43590e+00  8.38568e+00 
-3.81393e+00  1.60834e+00  8.33763e+00 
-4.21840e+00  1.78182e+00  8.28356e+00 
-4.62378e+00  1.95658e+00  8.22326e+00 
-5.02997e+00  2.13254e+00  8.15649e+00 
-5.43713e+00  2.30993e+00  8.08302e+00 
-5.84514e+00  2.48865e+00  8.00256e+00 
-6.25415e+00  2.66891e+00  7.91485e+00 
-6.66398e+00  2.85058e+00  7.81955e+00 
-7.07476e+00  3.03383e+00  7.71639e+00 
-7.48629e+00  3.21851e+00  7.60501e+00 
-7.89863e+00  3.40474e+00  7.48510e+00 
-8.31155e+00  3.59233e+00  7.35632e+00 
-8.72506e+00  3.78137e+00  7.21835e+00 
-9.13887e+00  3.97161e+00  7.07084e+00 
-9.55295e+00  4.16308e+00  6.91353e+00 
-9.96693e+00  4.35549e+00  6.74607e+00 
-1.03807e+01  4.54881e+00  6.56826e+00 
-1.07940e+01  4.74267e+00  6.37983e+00 
-1.12064e+01  4.93701e+00  6.18068e+00 
-1.16177e+01  5.13139e+00  5.97063e+00 
-1.20275e+01  5.32568e+00  5.74976e+00 
-1.24353e+01  5.51941e+00  5.51803e+00 
-1.28410e+01  5.71239e+00  5.27573e+00 
-1.32439e+01  5.90413e+00  5.02304e+00 
-1.36438e+01  6.09442e+00  4.76049e+00 
-1.40401e+01  6.28275e+00  4.48852e+00 
-1.44327e+01  6.46895e+00  4.20797e+00 
-1.48211e+01  6.65256e+00  3.91954e+00 
-1.52052e+01  6.83347e+00  3.62436e+00 
-1.55846e+01  7.01133e+00  3.32340e+00 
-1.59594e+01  7.18615e+00  3.01801e+00 
-1.63294e+01  7.35774e+00  2.70937e+00 
-1.66949e+01  7.52627e+00  2.39898e+00 
-1.70561e+01  7.69175e+00  2.08810e+00 
-1.74135e+01  7.85454e+00  1.77827e+00 
-1.77673e+01  8.01489e+00  1.47069e+00 
-1.81185e+01  8.17338e+00  1.16675e+00 
-1.84677e+01  8.33043e+00  8.67482e-01 
-1.88158e+01  8.48684e+00  5.74025e-01 
-1.91639e+01  8.64323e+00  2.86958e-01 
-1.95135e+01  8.84676e+00  1.70561e-01 
 1.91122e+01 -8.66692e+00  1.72903e-01 
 1.87552e+01 -8.45911e+00  2.91835e-01 
 1.84003e+01 -8.29984e+00  5.83682e-01 
 1.80460e+01 -8.14116e+00  8.77920e-01 
 1.76920e+01 -7.98274e+00  1.17433e+00 
 1.73374e+01 -7.82394e+00  1.47227e+00 
 1.69818e+01 -7.66449e+00  1.77132e+00 
 1.66246e+01 -7.50389e+00  2.07063e+00 
 1.62655e+01 -7.34195e+00  2.36958e+00 
 1.59039e+01 -7.17832e+00  2.66722e+00 
 1.55397e+01 -7.01293e+00  2.96285e+00 
 1.51727e+01 -6.84553e+00  3.25548e+00 
 1.48027e+01 -6.67621e+00  3.54440e+00 
 1.44297e+01 -6.50481e+00  3.82865e+00 
 1.40537e+01 -6.33152e+00  4.10760e+00 
 1.36747e+01 -6.15628e+00  4.38040e+00 
 1.32929e+01 -5.97936e+00  4.64651e+00 
 1.29083e+01 -5.80075e+00  4.90523e+00 
 1.25213e+01 -5.62080e+00  5.15616e+00 
 1.21319e+01 -5.43953e+00  5.39876e+00 
 1.17405e+01 -5.25730e+00  5.63279e+00 
 1.13471e+01 -5.07416e+00  5.85786e+00 
 1.09521e+01 -4.89046e+00  6.07388e+00 
 1.05557e+01 -4.70626e+00  6.28061e+00 
 1.01581e+01 -4.52189e+00  6.47805e+00 
 9.75950e+00 -4.33739e+00  6.66612e+00 
 9.36020e+00 -4.15305e+00  6.84490e+00 
 8.96023e+00 -3.96889e+00  7.01440e+00 
 8.55994e+00 -3.78518e+00  7.17478e+00 
 8.15931e+00 -3.60189e+00  7.32612e+00 
 7.75863e+00 -3.41927e+00  7.46862e+00 
 7.35788e+00 -3.23723e+00  7.60240e+00 
 6.95732e+00 -3.05601e+00  7.72770e+00 
 6.55687e+00 -2.87549e+00  7.84465e+00 
 6.15677e+00 -2.69586e+00  7.95351e+00 
 5.75690e+00 -2.51699e+00  8.05441e+00 
 5.35749e+00 -2.33903e+00  8.14761e+00 
 4.95839e+00 -2.16183e+00  8.23325e+00 
 4.55978e+00 -1.98551e+00  8.31154e+00 
 4.16151e+00 -1.80991e+00  8.38264e+00 
 3.76373e+00 -1.63512e+00  8.44673e+00 
 3.36629e+00 -1.46096e+00  8.50395e+00 
 2.96930e+00 -1.28751e+00  8.55446e+00 
 2.57258e+00 -1.11458e+00  8.59836e+00 
 2.17627e+00 -9.42237e-01  8.63578e+00 
 1.78015e+00 -7.70265e-01  8.66681e+00 
 1.38435e+00 -5.98740e-01  8.69154e+00 
 9.88655e-01 -4.27429e-01  8.71002e+00 
 5.93174e-01 -2.56405e-01  8.72232e+00 
 1.97696e-01 -8.54317e-02  8.72846e+00 
-1.97696e-01  8.54317e-02  8.72846e+00 
-5.93174e-01  2.56405e-01  8.72232e+00 
-9.88655e-01  4.27429e-01  8.71002e+00 
-1.38435e+00  5.98740e-01  8.69154e+00 
-1.78015e+00  7.70265e-01  8.66681e+00 
-2.17627e+00  9.42237e-01  8.63578e+00 
-2.57258e+00  1.11458e+00  8.59836e+00 
-2.96930e+00  1.28751e+00  8.55446e+00 
-3.36629e+00  1.46096e+00  8.50395e+00 
-3.76373e+00  1.63512e+00  8.44673e+00 
-4.16151e+00  1.80991e+00  8.38264e+00 
-4.55978e+00  1.98551e+00  8.31154e+00 
-4.95839e+00  2.16183e+00  8.23325e+00 
-5.35749e+00  2.33903e+00  8.14761e+00 
-5.75690e+00  2.51699e+00  8.05441e+00 
-6.15677e+00  2.69586e+00  7.95351e+00 
-6.55687e+00  2.87549e+00  7.84465e+00 
-6.95732e+00  3.05601e+00  7.72770e+00 
-7.35788e+00  3.23723e+00  7.60240e+00 
-7.75863e+00  3.41927e+00  7.46862e+00 
-8.15931e+00  3.60189e+00  7.32612e+00 
-8.55994e+00  3.78518e+00  7.17478e+00 
-8.96023e+00  3.96889e+00  7.01440e+00 
-9.36020e+00  4.15305e+00  6.84490e+00 
-9.75950e+00  4.33739e+00  6.66612e+00 
-1.01581e+01  4.52189e+00  6.47805e+00 
-1.05557e+01  4.70626e+00  6.28061e+00 
-1.09521e+01  4.89046e+00  6.07388e+00 
-1.13471e+01  5.07416e+00  5.85786e+00 
-1.17405e+01  5.25730e+00  5.63279e+00 
-1.21319e+01  5.43953e+00  5.39876e+00 
-1.25213e+01  5.62080e+00  5.15616e+00 
-1.29083e+01  5.80075e+00  4.90523e+00 
-1.32929e+01  5.97936e+00  4.64651e+00 
-1.36747e+01  6.15628e+00  4.38040e+00 
-1.40537e+01  6.33152e+00  4.10760e+00 
-1.44297e+01  6.50481e+00  3.82865e+00 
-1.48027e+01  6.67621e+00  3.54440e+00 
-1.51727e+01  6.84553e+00  3.25548e+00 
-1.55397e+01  7.01293e+00  2.96285e+00 
-1.59039e+01  7.17832e+00  2.66722e+00 
-1.62655e+01  7.34195e+00  2.36958e+00 
-1.66246e+01  7.50389e+00  2.07063e+00 
-1.69818e+01  7.66449e+00  1.77132e+00 
-1.73374e+01  7.82394e+00  1.47227e+00 
-1.76920e+01  7.98274e+00  1.17433e+00 
-1.80460e+01  8.14116e+00  8.77920e-01 
-1.84003e+01  8.29984e+00  5.83682e-01 
-1.87552e+01  8.45911e+00  2.91835e-01 
-1.91122e+01  8.66692e+00  1.72903e-01 
 1.86951e+01 -8.47902e+00  1.76691e-01 
 1.83363e+01 -8.27016e+00  2.98731e-01 
 1.79794e+01 -8.11008e+00  5.97393e-01 
 1.76237e+01 -7.95087e+00  8.95581e-01 
 1.72687e+01 -7.79229e+00  1.19335e+00 
 1.69139e+01 -7.63387e+00  1.49033e+00 
 1.65590e+01 -7.47544e+00  1.78639e+00 
 1.62034e+01 -7.31656e+00  2.08100e+00 
 1.58471e+01 -7.15714e+00  2.37389e+00 
 1.54894e+01 -6.99682e+00  2.66445e+00 
 1.51303e+01 -6.83556e+00  2.95232e+00 
 1.47695e+01 -6.67310e+00  3.23683e+00 
 1.44070e+01 -6.50946e+00  3.51759e+00 
 1.40425e+01 -6.34445e+00  3.79392e+00 
 1.36760e+01 -6.17818e+00  4.06543e+00 
 1.33074e+01 -6.01051e+00  4.33149e+00 
 1.29369e+01 -5.84160e+00  4.59174e+00 
 1.25643e+01 -5.67136e+00  4.84562e+00 
 1.21898e+01 -5.50001e+00  5.09283e+00 
 1.18134e+01 -5.32750e+00  5.33290e+00 
 1.14354e+01 -5.15407e+00  5.56561e+00 
 1.10556e+01 -4.97969e+00  5.79059e+00 
 1.06744e+01 -4.80463e+00  6.00768e+00 
 1.02917e+01 -4.62885e+00  6.21662e+00 
 9.90787e+00 -4.45262e+00  6.41735e+00 
 9.52288e+00 -4.27592e+00  6.60967e+00 
 9.13701e+00 -4.09901e+00  6.79360e+00 
 8.75023e+00 -3.92185e+00  6.96901e+00 
 8.36282e+00 -3.74468e+00  7.13598e+00 
 7.97476e+00 -3.56746e+00  7.29445e+00 
 7.58629e+00 -3.39040e+00  7.44453e+00 
 7.19738e+00 -3.21345e+00  7.58621e+00 
 6.80827e+00 -3.03680e+00  7.71963e+00 
 6.41888e+00 -2.86037e+00  7.84483e+00 
 6.02944e+00 -2.68434e+00  7.96194e+00 
 5.63985e+00 -2.50859e+00  8.07103e+00 
 5.25033e+00 -2.33331e+00  8.17225e+00 
 4.86076e+00 -2.15836e+00  8.26565e+00 
 4.47134e+00 -1.98388e+00  8.35140e+00 
 4.08192e+00 -1.80973e+00  8.42956e+00 
 3.69269e+00 -1.63605e+00  8.50027e+00 
 3.30351e+00 -1.46267e+00  8.56359e+00 
 2.91453e+00 -1.28972e+00  8.61964e+00 
 2.52559e+00 -1.11703e+00  8.66849e+00 
 2.13685e+00 -9.44692e-01  8.71022e+00 
 1.74814e+00 -7.72538e-01  8.74488e+00 
 1.35960e+00 -6.00671e-01  8.77255e+00 
 9.71055e-01 -4.28898e-01  8.79326e+00 
 5.82645e-01 -2.57321e-01  8.80705e+00 
 1.94192e-01 -8.57434e-02  8.81394e+00 
-1.94192e-01  8.57434e-02  8.81394e+00 
-5.82645e-01  2.57321e-01  8.80705e+00 
-9.71055e-01  4.28898e-01  8.79326e+00 
-1.35960e+00  6.00671e-01  8.77255e+00 
-1.74814e+00  7.72538e-01  8.74488e+00 
-2.13685e+00  9.44692e-01  8.71022e+00 
-2.52559e+00  1.11703e+00  8.66849e+00 
-2.91453e+00  1.28972e+00  8.61964e+00 
-3.30351e+00  1.46267e+00  8.56359e+00 
-3.69269e+00  1.63605e+00  8.50027e+00 
-4.08192e+00  1.80973e+00  8.42956e+00 
-4.47134e+00  1.98388e+00  8.35140e+00 
-4.86076e+00  2.15836e+00  8.26565e+00 
-5.25033e+00  2.33331e+00  8.17225e+00 
-5.63985e+00  2.50859e+00  8.07103e+00 
-6.02944e+00  2.68434e+00  7.96194e+00 
-6.41888e+00  2.86037e+00  7.84483e+00 
-6.80827e+00  3.03680e+00  7.71963e+00 
-7.19738e+00  3.21345e+00  7.58621e+00 
-7.58629e+00  3.39040e+00  7.44453e+00 
-7.97476e+00  3.56746e+00  7.29445e+00 
-8.36282e+00  3.74468e+00  7.13598e+00 
-8.75023e+00  3.92185e+00  6.96901e+00 
-9.13701e+00  4.09901e+00  6.79360e+00 
-9.52288e+00  4.27592e+00  6.60967e+00 
-9.90787e+00  4.45262e+00  6.41735e+00 
-1.02917e+01  4.62885e+00  6.21662e+00 
-1.06744e+01  4.80463e+00  6.00768e+00 
-1.10556e+01  4.97969e+00  5.79059e+00 
-1.14354e+01  5.15407e+00  5.56561e+00 
-1.18134e+01  5.32750e+00  5.33290e+00 
-1.21898e+01  5.50001e+00  5.09283e+00 
-1.25643e+01  5.67136e+00  4.84562e+00 
-1.29369e+01  5.84160e+00  4.59174e+00 
-1.33074e+01  6.01051e+00  4.33149e+00 
-1.36760e+01  6.17818e+00  4.06543e+00 
-1.40425e+01  6.34445e+00  3.79392e+00 
-1.44070e+01  6.50946e+00  3.51759e+00 
-1.47695e+01  6.67310e+00  3.23683e+00 
-1.51303e+01  6.83556e+00  2.95232e+00 
-1.54894e+01  6.99682e+00  2.66445e+00 
-1.58471e+01  7.15714e+00  2.37389e+00 
-1.62034e+01  7.31656e+00  2.08100e+00 
-1.65590e+01  7.47544e+00  1.78639e+00 
-1.69139e+01  7.63387e+00  1.49033e+00 
-1.72687e+01  7.79229e+00  1.19335e+00 
-1.76237e+01  7.95087e+00  8.95581e-01 
-1.79794e+01  8.11008e+00  5.97393e-01 
-1.83363e+01  8.27016e+00  2.98731e-01 
-1.86951e+01  8.47902e+00  1.76691e-01 
 1.82628e+01 -8.28373e+00  1.80746e-01 
 1.79059e+01 -8.07595e+00  3.05919e-01 
 1.75507e+01 -7.91660e+00  6.11690e-01 
 1.71968e+01 -7.75814e+00  9.15004e-01 
 1.68438e+01 -7.60046e+00  1.21602e+00 
 1.64913e+01 -7.44318e+00  1.51453e+00 
 1.61391e+01 -7.28619e+00  1.81055e+00 
 1.57869e+01 -7.12915e+00  2.10375e+00 
 1.54344e+01 -6.97200e+00  2.39404e+00 
 1.50813e+01 -6.81442e+00  2.68103e+00 
 1.47275e+01 -6.65640e+00  2.96456e+00 
 1.43728e+01 -6.49769e+00  3.24417e+00 
 1.40170e+01 -6.33830e+00  3.51966e+00 
 1.36600e+01 -6.17802e+00  3.79056e+00 
 1.33017e+01 -6.01693e+00  4.05664e+00 
 1.29420e+01 -5.85486e+00  4.31744e+00 
 1.25810e+01 -5.69192e+00  4.57274e+00 
 1.22184e+01 -5.52797e+00  4.82210e+00 
 1.18546e+01 -5.36318e+00  5.06532e+00 
 1.14892e+01 -5.19742e+00  5.30200e+00 
 1.11225e+01 -5.03089e+00  5.53199e+00 
 1.07544e+01 -4.86350e+00  5.75494e+00 
 1.03851e+01 -4.69544e+00  5.97074e+00 
 1.00145e+01 -4.52665e+00  6.17911e+00 
 9.64292e+00 -4.35733e+00  6.37997e+00 
 9.27018e+00 -4.18741e+00  6.57310e+00 
 8.89656e+00 -4.01712e+00  6.75848e+00 
 8.52199e+00 -3.84637e+00  6.93594e+00 
 8.14671e+00 -3.67539e+00  7.10549e+00 
 7.77064e+00 -3.50409e+00  7.26702e+00 
 7.39402e+00 -3.33268e+00  7.42057e+00 
 7.01677e+00 -3.16108e+00  7.56607e+00 
 6.63912e+00 -2.98948e+00  7.70358e+00 
 6.26098e+00 -2.81779e+00  7.83306e+00 
 5.88257e+00 -2.64619e+00  7.95459e+00 
 5.50379e+00 -2.47458e+00  8.06817e+00 
 5.12485e+00 -2.30312e+00  8.17388e+00 
 4.74563e+00 -2.13170e+00  8.27173e+00 
 4.36633e+00 -1.96047e+00  8.36181e+00 
 3.98683e+00 -1.78931e+00  8.44412e+00 
 3.60732e+00 -1.61837e+00  8.51877e+00 
 3.22766e+00 -1.44750e+00  8.58577e+00 
 2.84803e+00 -1.27685e+00  8.64519e+00 
 2.46829e+00 -1.10626e+00  8.69707e+00 
 2.08861e+00 -9.35865e-01  8.74145e+00 
 1.70883e+00 -7.65513e-01  8.77838e+00 
 1.32913e+00 -5.95328e-01  8.80788e+00 
 9.49349e-01 -4.25149e-01  8.82998e+00 
 5.69643e-01 -2.55097e-01  8.84470e+00 
 1.89862e-01 -8.50073e-02  8.85206e+00 
-1.89862e-01  8.50073e-02  8.85206e+00 
-5.69643e-01  2.55097e-01  8.84470e+00 
-9.49349e-01  4.25149e-01  8.82998e+00 
-1.32913e+00  5.95328e-01  8.80788e+00 
-1.70883e+00  7.65513e-01  8.77838e+00 
-2.08861e+00  9.35865e-01  8.74145e+00 
-2.46829e+00  1.10626e+00  8.69707e+00 
-2.84803e+00  1.27685e+00  8.64519e+00 
-3.22766e+00  1.44750e+00  8.58577e+00 
-3.60732e+00  1.61837e+00  8.51877e+00 
-3.98683e+00  1.78931e+00  8.44412e+00 
-4.36633e+00  1.96047e+00  8.36181e+00 
-4.74563e+00  2.13170e+00  8.27173e+00 
-5.12485e+00  2.30312e+00  8.17388e+00 
-5.50379e+00  2.47458e+00  8.06817e+00 
-5.88257e+00  2.64619e+00  7.95459e+00 
-6.26098e+00  2.81779e+00  7.83306e+00 
-6.63912e+00  2.98948e+00  7.70358e+00 
-7.01677e+00  3.16108e+00  7.56607e+00 
-7.39402e+00  3.33268e+00  7.42057e+00 
-7.77064e+00  3.50409e+00  7.26702e+00 
-8.14671e+00  3.67539e+00  7.10549e+00 
-8.52199e+00  3.84637e+00  6.93594e+00 
-8.89656e+00  4.01712e+00  6.75848e+00 
-9.27018e+00  4.18741e+00  6.57310e+00 
-9.64292e+00  4.35733e+00  6.37997e+00 
-1.00145e+01  4.52665e+00  6.17911e+00 
-1.03851e+01  4.69544e+00  5.97074e+00 
-1.07544e+01  4.86350e+00  5.75494e+00 
-1.11225e+01  5.03089e+00  5.53199e+00 
-1.14892e+01  5.19742e+00  5.30200e+00 
-1.18546e+01  5.36318e+00  5.06532e+00 
-1.22184e+01  5.52797e+00  4.82210e+00 
-1.25810e+01  5.69192e+00  4.57274e+00 
-1.29420e+01  5.85486e+00  4.31744e+00 
-1.33017e+01  6.01693e+00  4.05664e+00 
-1.36600e+01  6.17802e+00  3.79056e+00 
-1.40170e+01  6.33830e+00  3.51966e+00 
-1.43728e+01  6.49769e+00  3.24417e+00 
-1.47275e+01  6.65640e+00  2.96456e+00 
-1.50813e+01  6.81442e+00  2.68103e+00 
-1.54344e+01  6.97200e+00  2.39404e+00 
-1.57869e+01  7.12915e+00  2.10375e+00 
-1.61391e+01  7.28619e+00  1.81055e+00 
-1.64913e+01  7.44318e+00  1.51453e+00 
-1.68438e+01  7.60046e+00  1.21602e+00 
-1.71968e+01  7.75814e+00  9.15004e-01 
-1.75507e+01  7.91660e+00  6.11690e-01 
-1.79059e+01  8.07595e+00  3.05919e-01 
-1.82628e+01  8.28373e+00  1.80746e-01 
 1.78170e+01 -8.08197e+00  1.84650e-01 
 1.74645e+01 -7.87677e+00  3.12715e-01 
 1.71136e+01 -7.71923e+00  6.25163e-01 
 1.67638e+01 -7.56252e+00  9.33733e-01 
 1.64150e+01 -7.40659e+00  1.23865e+00 
 1.60667e+01 -7.25114e+00  1.53978e+00 
 1.57191e+01 -7.09612e+00  1.83722e+00 
 1.53715e+01 -6.94123e+00  2.13075e+00 
 1.50241e+01 -6.78647e+00  2.42042e+00 
 1.46765e+01 -6.63155e+00  2.70593e+00 
 1.43286e+01 -6.47648e+00  2.98726e+00 
 1.39802e+01 -6.32103e+00  3.26408e+00 
 1.36312e+01 -6.16523e+00  3.53633e+00 
 1.32815e+01 -6.00886e+00  3.80365e+00 
 1.29310e+01 -5.85199e+00  4.06594e+00 
 1.25795e+01 -5.69444e+00  4.32286e+00 
 1.22271e+01 -5.53631e+00  4.57427e+00 
 1.18737e+01 -5.37743e+00  4.81984e+00 
 1.15193e+01 -5.21793e+00  5.05947e+00 
 1.11638e+01 -5.05767e+00  5.29280e+00 
 1.08073e+01 -4.89679e+00  5.51976e+00 
 1.04497e+01 -4.73518e+00  5.74005e+00 
 1.00912e+01 -4.57300e+00  5.95357e+00 
 9.73160e+00 -4.41014e+00  6.16008e+00 
 9.37110e+00 -4.24677e+00  6.35952e+00 
 9.00962e+00 -4.08280e+00  6.55165e+00 
 8.64735e+00 -3.91841e+00  6.73647e+00 
 8.28418e+00 -3.75350e+00  6.91377e+00 
 7.92032e+00 -3.58825e+00  7.08355e+00 
 7.55568e+00 -3.42258e+00  7.24567e+00 
 7.19045e+00 -3.25666e+00  7.40013e+00 
 6.82455e+00 -3.09041e+00  7.54684e+00 
 6.45817e+00 -2.92399e+00  7.68581e+00 
 6.09122e+00 -2.75731e+00  7.81696e+00 
 5.72390e+00 -2.59054e+00  7.94034e+00 
 5.35610e+00 -2.42358e+00  8.05589e+00 
 4.98802e+00 -2.25659e+00  8.16366e+00 
 4.61955e+00 -2.08946e+00  8.26361e+00 
 4.25087e+00 -1.92234e+00  8.35579e+00 
 3.88188e+00 -1.75513e+00  8.44018e+00 
 3.51276e+00 -1.58797e+00  8.51683e+00 
 3.14339e+00 -1.42073e+00  8.58573e+00 
 2.77393e+00 -1.25357e+00  8.64692e+00 
 2.40428e+00 -1.08635e+00  8.70041e+00 
 2.03459e+00 -9.19213e-01  8.74622e+00 
 1.66474e+00 -7.52023e-01  8.78437e+00 
 1.29490e+00 -5.84919e-01  8.81487e+00 
 9.24936e-01 -4.17760e-01  8.83773e+00 
 5.55008e-01 -2.50681e-01  8.85297e+00 
 1.84987e-01 -8.35389e-02  8.86059e+00 
-1.84987e-01  8.35389e-02  8.86059e+00 
-5.55008e-01  2.50681e-01  8.85297e+00 
-9.24936e-01  4.17760e-01  8.83773e+00 
-1.29490e+00  5.84919e-01  8.81487e+00 
-1.66474e+00  7.52023e-01  8.78437e+00 
-2.03459e+00  9.19213e-01  8.74622e+00 
-2.40428e+00  1.08635e+00  8.70041e+00 
-2.77393e+00  1.25357e+00  8.64692e+00 
-3.14339e+00  1.42073e+00  8.58573e+00 
-3.51276e+00  1.58797e+00  8.51683e+00 
-3.88188e+00  1.75513e+00  8.44018e+00 
-4.25087e+00  1.92234e+00  8.35579e+00 
-4.61955e+00  2.08946e+00  8.26361e+00 
-4.98802e+00  2.25659e+00  8.16366e+00 
-5.35610e+00  2.42358e+00  8.05589e+00 
-5.72390e+00  2.59054e+00  7.94034e+00 
-6.09122e+00  2.75731e+00  7.81696e+00 
-6.45817e+00  2.92399e+00  7.68581e+00 
-6.82455e+00  3.09041e+00  7.54684e+00 
-7.19045e+00  3.25666e+00  7.40013e+00 
-7.55568e+00  3.42258e+00  7.24567e+00 
-7.92032e+00  3.58825e+00  7.08355e+00 
-8.28418e+00  3.75350e+00  6.91377e+00 
-8.64735e+00  3.91841e+00  6.73647e+00 
-9.00962e+00  4.08280e+00  6.55165e+00 
-9.37110e+00  4.24677e+00  6.35952e+00 
-9.73160e+00  4.41014e+00  6.16008e+00 
-1.00912e+01  4.57300e+00  5.95357e+00 
-1.04497e+01  4.73518e+00  5.74005e+00 
-1.08073e+01  4.89679e+00  5.51976e+00 
-1.11638e+01  5.05767e+00  5.29280e+00 
-1.15193e+01  5.21793e+00  5.05947e+00 
-1.18737e+01  5.37743e+00  4.81984e+00 
-1.22271e+01  5.53631e+00  4.57427e+00 
-1.25795e+01  5.69444e+00  4.32286e+00 
-1.29310e+01  5.85199e+00  4.06594e+00 
-1.32815e+01  6.00886e+00  3.80365e+00 
-1.36312e+01  6.16523e+00  3.53633e+00 
-1.39802e+01  6.32103e+00  3.26408e+00 
-1.43286e+01  6.47648e+00  2.98726e+00 
-1.46765e+01  6.63155e+00  2.70593e+00 
-1.50241e+01  6.78647e+00  2.42042e+00 
-1.53715e+01  6.94123e+00  2.13075e+00 
-1.57191e+01  7.09612e+00  1.83722e+00 
-1.60667e+01  7.25114e+00  1.53978e+00 
-1.64150e+01  7.40659e+00  1.23865e+00 
-1.67638e+01  7.56252e+00  9.33733e-01 
-1.71136e+01  7.71923e+00  6.25163e-01 
-1.74645e+01  7.87677e+00  3.12715e-01 
-1.78170e+01  8.08197e+00  1.84650e-01 
 1.73596e+01 -7.87477e+00  1.88119e-01 
 1.70134e+01 -7.67319e+00  3.18698e-01 
 1.66685e+01 -7.51825e+00  6.37023e-01 
 1.63245e+01 -7.36403e+00  9.50456e-01 
 1.59815e+01 -7.21053e+00  1.25925e+00 
 1.56391e+01 -7.05750e+00  1.56331e+00 
 1.52972e+01 -6.90494e+00  1.86278e+00 
 1.49557e+01 -6.75259e+00  2.15751e+00 
 1.46144e+01 -6.60048e+00  2.44759e+00 
 1.42730e+01 -6.44835e+00  2.73282e+00 
 1.39317e+01 -6.29625e+00  3.01325e+00 
 1.35901e+01 -6.14395e+00  3.28863e+00 
 1.32483e+01 -5.99149e+00  3.55898e+00 
 1.29060e+01 -5.83869e+00  3.82402e+00 
 1.25633e+01 -5.68559e+00  4.08375e+00 
 1.22199e+01 -5.53203e+00  4.33788e+00 
 1.18759e+01 -5.37809e+00  4.58637e+00 
 1.15312e+01 -5.22360e+00  4.82895e+00 
 1.11859e+01 -5.06867e+00  5.06558e+00 
 1.08397e+01 -4.91315e+00  5.29597e+00 
 1.04928e+01 -4.75717e+00  5.52009e+00 
 1.01450e+01 -4.60058e+00  5.73768e+00 
 9.79648e+00 -4.44353e+00  5.94870e+00 
 9.44712e+00 -4.28589e+00  6.15291e+00 
 9.09705e+00 -4.12780e+00  6.35028e+00 
 8.74615e+00 -3.96917e+00  6.54061e+00 
 8.39458e+00 -3.81013e+00  6.72386e+00 
 8.04222e+00 -3.65058e+00  6.89987e+00 
 7.68925e+00 -3.49069e+00  7.06862e+00 
 7.33556e+00 -3.33034e+00  7.22995e+00 
 6.98133e+00 -3.16970e+00  7.38388e+00 
 6.62645e+00 -3.00867e+00  7.53026e+00 
 6.27109e+00 -2.84740e+00  7.66911e+00 
 5.91516e+00 -2.68579e+00  7.80034e+00 
 5.55883e+00 -2.52401e+00  7.92395e+00 
 5.20200e+00 -2.36194e+00  8.03987e+00 
 4.84485e+00 -2.19974e+00  8.14813e+00 
 4.48727e+00 -2.03731e+00  8.24865e+00 
 4.12943e+00 -1.87480e+00  8.34147e+00 
 3.77123e+00 -1.71209e+00  8.42655e+00 
 3.41284e+00 -1.54934e+00  8.50390e+00 
 3.05415e+00 -1.38643e+00  8.57350e+00 
 2.69533e+00 -1.22352e+00  8.63537e+00 
 2.33626e+00 -1.06047e+00  8.68949e+00 
 1.97711e+00 -8.97429e-01  8.73589e+00 
 1.61777e+00 -7.34284e-01  8.77453e+00 
 1.25840e+00 -5.71173e-01  8.80545e+00 
 8.98885e-01 -4.07970e-01  8.82864e+00 
 5.39385e-01 -2.44817e-01  8.84409e+00 
 1.79781e-01 -8.15869e-02  8.85182e+00 
-1.79781e-01  8.15869e-02  8.85182e+00 
-5.39385e-01  2.44817e-01  8.84409e+00 
-8.98885e-01  4.07970e-01  8.82864e+00 
-1.25840e+00  5.71173e-01  8.80545e+00 
-1.61777e+00  7.34284e-01  8.77453e+00 
-1.97711e+00  8.97429e-01  8.73589e+00 
-2.33626e+00  1.06047e+00  8.68949e+00 
-2.69533e+00  1.22352e+00  8.63537e+00 
-3.05415e+00  1.38643e+00  8.57350e+00 
-3.41284e+00  1.54934e+00  8.50390e+00 
-3.77123e+00  1.71209e+00  8.42655e+00 
-4.12943e+00  1.87480e+00  8.34147e+00 
-4.48727e+00  2.03731e+00  8.24865e+00 
-4.84485e+00  2.19974e+00  8.14813e+00 
-5.20200e+00  2.36194e+00  8.03987e+00 
-5.55883e+00  2.52401e+00  7.92395e+00 
-5.91516e+00  2.68579e+00  7.80034e+00 
-6.27109e+00  2.84740e+00  7.66911e+00 
-6.62645e+00  3.00867e+00  7.53026e+00 
-6.98133e+00  3.16970e+00  7.38388e+00 
-7.33556e+00  3.33034e+00  7.22995e+00 
-7.68925e+00  3.49069e+00  7.06862e+00 
-8.04222e+00  3.65058e+00  6.89987e+00 
-8.39458e+00  3.81013e+00  6.72386e+00 
-8.74615e+00  3.96917e+00  6.54061e+00 
-9.09705e+00  4.12780e+00  6.35028e+00 
-9.44712e+00  4.28589e+00  6.15291e+00 
-9.79648e+00  4.44353e+00  5.94870e+00 
-1.01450e+01  4.60058e+00  5.73768e+00 
-1.04928e+01  4.75717e+00  5.52009e+00 
-1.08397e+01  4.91315e+00  5.29597e+00 
-1.11859e+01  5.06867e+00  5.06558e+00 
-1.15312e+01  5.22360e+00  4.82895e+00 
-1.18759e+01  5.37809e+00  4.58637e+00 
-1.22199e+01  5.53203e+00  4.33788e+00 
-1.25633e+01  5.68559e+00  4.08375e+00 
-1.29060e+01  5.83869e+00  3.82402e+00 
-1.32483e+01  5.99149e+00  3.55898e+00 
-1.35901e+01  6.14395e+00  3.28863e+00 
-1.39317e+01  6.29625e+00  3.01325e+00 
-1.42730e+01  6.44835e+00  2.73282e+00 
-1.46144e+01  6.60048e+00  2.44759e+00 
-1.49557e+01  6.75259e+00  2.15751e+00 
-1.52972e+01  6.90494e+00  1.86278e+00 
-1.56391e+01  7.05750e+00  1.56331e+00 
-1.59815e+01  7.21053e+00  1.25925e+00 
-1.63245e+01  7.36403e+00  9.50456e-01 
-1.66685e+01  7.51825e+00  6.37023e-01 
-1.70134e+01  7.67319e+00  3.18698e-01 
-1.73596e+01  7.87477e+00  1.88119e-01 
 1.68927e+01 -7.66311e+00  1.91021e-01 
 1.65540e+01 -7.46588e+00  3.23692e-01 
 1.62163e+01 -7.31410e+00  6.46960e-01 
 1.58795e+01 -7.16293e+00  9.64633e-01 
 1.55434e+01 -7.01239e+00  1.27696e+00 
 1.52079e+01 -6.86227e+00  1.58386e+00 
 1.48730e+01 -6.71260e+00  1.88550e+00 
 1.45384e+01 -6.56316e+00  2.18175e+00 
 1.42041e+01 -6.41400e+00  2.47275e+00 
 1.38699e+01 -6.26490e+00  2.75834e+00 
 1.35358e+01 -6.11590e+00  3.03861e+00 
 1.32016e+01 -5.96682e+00  3.31337e+00 
 1.28674e+01 -5.81771e+00  3.58268e+00 
 1.25328e+01 -5.66838e+00  3.84634e+00 
 1.21981e+01 -5.51890e+00  4.10437e+00 
 1.18629e+01 -5.36910e+00  4.35655e+00 
 1.15273e+01 -5.21907e+00  4.60290e+00 
 1.11913e+01 -5.06863e+00  4.84319e+00 
 1.08547e+01 -4.91790e+00  5.07742e+00 
 1.05176e+01 -4.76671e+00  5.30537e+00 
 1.01800e+01 -4.61518e+00  5.52703e+00 
 9.84171e+00 -4.46316e+00  5.74219e+00 
 9.50288e+00 -4.31079e+00  5.95082e+00 
 9.16337e+00 -4.15792e+00  6.15274e+00 
 8.82331e+00 -4.00469e+00  6.34792e+00 
 8.48257e+00 -3.85097e+00  6.53618e+00 
 8.14128e+00 -3.69691e+00  6.71752e+00 
 7.79934e+00 -3.54239e+00  6.89176e+00 
 7.45689e+00 -3.38754e+00  7.05890e+00 
 7.11380e+00 -3.23226e+00  7.21879e+00 
 6.77024e+00 -3.07669e+00  7.37143e+00 
 6.42610e+00 -2.92073e+00  7.51668e+00 
 6.08153e+00 -2.76452e+00  7.65457e+00 
 5.73642e+00 -2.60795e+00  7.78498e+00 
 5.39095e+00 -2.45117e+00  7.90791e+00 
 5.04499e+00 -2.29408e+00  8.02328e+00 
 4.69872e+00 -2.13682e+00  8.13109e+00 
 4.35202e+00 -1.97929e+00  8.23128e+00 
 4.00507e+00 -1.82163e+00  8.32386e+00 
 3.65774e+00 -1.66374e+00  8.40876e+00 
 3.31022e+00 -1.50575e+00  8.48601e+00 
 2.96238e+00 -1.34757e+00  8.55556e+00 
 2.61440e+00 -1.18933e+00  8.61742e+00 
 2.26616e+00 -1.03092e+00  8.67155e+00 
 1.91782e+00 -8.72496e-01  8.71798e+00 
 1.56928e+00 -7.13929e-01  8.75666e+00 
 1.22070e+00 -5.55368e-01  8.78763e+00 
 8.71964e-01 -3.96696e-01  8.81085e+00 
 5.23234e-01 -2.38058e-01  8.82633e+00 
 1.74398e-01 -7.93356e-02  8.83407e+00 
-1.74398e-01  7.93356e-02  8.83407e+00 
-5.23234e-01  2.38058e-01  8.82633e+00 
-8.71964e-01  3.96696e-01  8.81085e+00 
-1.22070e+00  5.55368e-01  8.78763e+00 
-1.56928e+00  7.13929e-01  8.75666e+00 
-1.91782e+00  8.72496e-01  8.71798e+00 
-2.26616e+00  1.03092e+00  8.67155e+00 
-2.61440e+00  1.18933e+00  8.61742e+00 
-2.96238e+00  1.34757e+00  8.55556e+00 
-3.31022e+00  1.50575e+00  8.48601e+00 
-3.65774e+00  1.66374e+00  8.40876e+00 
-4.00507e+00  1.82163e+00  8.32386e+00 
-4.35202e+00  1.97929e+00  8.23128e+00 
-4.69872e+00  2.13682e+00  8.13109e+00 
-5.04499e+00  2.29408e+00  8.02328e+00 
-5.39095e+00  2.45117e+00  7.90791e+00 
-5.73642e+00  2.60795e+00  7.78498e+00 
-6.08153e+00  2.76452e+00  7.65457e+00 
-6.42610e+00  2.92073e+00  7.51668e+00 
-6.77024e+00  3.07669e+00  7.37143e+00 
-7.11380e+00  3.23226e+00  7.21879e+00 
-7.45689e+00  3.38754e+00  7.05890e+00 
-7.79934e+00  3.54239e+00  6.89176e+00 
-8.14128e+00  3.69691e+00  6.71752e+00 
-8.48257e+00  3.85097e+00  6.53618e+00 
-8.82331e+00  4.00469e+00  6.34792e+00 
-9.16337e+00  4.15792e+00  6.15274e+00 
-9.50288e+00  4.31079e+00  5.95082e+00 
-9.84171e+00  4.46316e+00  5.74219e+00 
-1.01800e+01  4.61518e+00  5.52703e+00 
-1.05176e+01  4.76671e+00  5.30537e+00 
-1.08547e+01  4.91790e+00  5.07742e+00 
-1.11913e+01  5.06863e+00  4.84319e+00 
-1.15273e+01  5.21907e+00  4.60290e+00 
-1.18629e+01  5.36910e+00  4.35655e+00 
-1.21981e+01  5.51890e+00  4.10437e+00 
-1.25328e+01  5.66838e+00  3.84634e+00 
-1.28674e+01  5.81771e+00  3.58268e+00 
-1.32016e+01  5.96682e+00  3.31337e+00 
-1.35358e+01  6.11590e+00  3.03861e+00 
-1.38699e+01  6.26490e+00  2.75834e+00 
-1.42041e+01  6.41400e+00  2.47275e+00 
-1.45384e+01  6.56316e+00  2.18175e+00 
-1.48730e+01  6.71260e+00  1.88550e+00 
-1.52079e+01  6.86227e+00  1.58386e+00 
-1.55434e+01  7.01239e+00  1.27696e+00 
-1.58795e+01  7.16293e+00  9.64633e-01 
-1.62163e+01  7.31410e+00  6.46960e-01 
-1.65540e+01  7.46588e+00  3.23692e-01 
-1.68927e+01  7.66311e+00  1.91021e-01 
 1.64181e+01 -7.44786e+00  1.93457e-01 
 1.60877e+01 -7.25547e+00  3.27852e-01 
 1.57582e+01 -7.10728e+00  6.55204e-01 
 1.54293e+01 -6.95956e+00  9.76449e-01 
 1.51011e+01 -6.81240e+00  1.29184e+00 
 1.47734e+01 -6.66558e+00  1.60128e+00 
 1.44462e+01 -6.51917e+00  1.90497e+00 
 1.41193e+01 -6.37298e+00  2.20279e+00 
 1.37928e+01 -6.22706e+00  2.49489e+00 
 1.34664e+01 -6.08123e+00  2.78114e+00 
 1.31401e+01 -5.93556e+00  3.06165e+00 
 1.28139e+01 -5.78985e+00  3.33626e+00 
 1.24876e+01 -5.64418e+00  3.60508e+00 
 1.21612e+01 -5.49837e+00  3.86792e+00 
 1.18347e+01 -5.35251e+00  4.12486e+00 
 1.15080e+01 -5.20643e+00  4.37570e+00 
 1.11810e+01 -5.06021e+00  4.62051e+00 
 1.08536e+01 -4.91370e+00  4.85908e+00 
 1.05260e+01 -4.76698e+00  5.09146e+00 
 1.01979e+01 -4.61993e+00  5.31745e+00 
 9.86949e+00 -4.47263e+00  5.53708e+00 
 9.54056e+00 -4.32494e+00  5.75015e+00 
 9.21124e+00 -4.17699e+00  5.95670e+00 
 8.88138e+00 -4.02863e+00  6.15653e+00 
 8.55112e+00 -3.87999e+00  6.34966e+00 
 8.22030e+00 -3.73094e+00  6.53591e+00 
 7.88907e+00 -3.58161e+00  6.71531e+00 
 7.55729e+00 -3.43187e+00  6.88769e+00 
 7.22510e+00 -3.28185e+00  7.05305e+00 
 6.89238e+00 -3.13145e+00  7.21127e+00 
 6.55927e+00 -2.98079e+00  7.36234e+00 
 6.22565e+00 -2.82976e+00  7.50613e+00 
 5.89167e+00 -2.67850e+00  7.64267e+00 
 5.55722e+00 -2.52690e+00  7.77184e+00 
 5.22244e+00 -2.37510e+00  7.89364e+00 
 4.88723e+00 -2.22298e+00  8.00799e+00 
 4.55174e+00 -2.07070e+00  8.11489e+00 
 4.21586e+00 -1.91814e+00  8.21426e+00 
 3.87974e+00 -1.76544e+00  8.30612e+00 
 3.54327e+00 -1.61249e+00  8.39038e+00 
 3.20662e+00 -1.45945e+00  8.46708e+00 
 2.86967e+00 -1.30619e+00  8.53615e+00 
 2.53258e+00 -1.15286e+00  8.59760e+00 
 2.19524e+00 -9.99348e-01  8.65140e+00 
 1.85781e+00 -8.45801e-01  8.69754e+00 
 1.52018e+00 -6.92105e-01  8.73600e+00 
 1.18251e+00 -5.38404e-01  8.76678e+00 
 8.44682e-01 -3.84587e-01  8.78988e+00 
 5.06864e-01 -2.30794e-01  8.80528e+00 
 1.68942e-01 -7.69153e-02  8.81298e+00 
-1.68942e-01  7.69153e-02  8.81298e+00 
-5.06864e-01  2.30794e-01  8.80528e+00 
-8.44682e-01  3.84587e-01  8.78988e+00 
-1.18251e+00  5.38404e-01  8.76678e+00 
-1.52018e+00  6.92105e-01  8.73600e+00 
-1.85781e+00  8.45801e-01  8.69754e+00 
-2.19524e+00  9.99348e-01  8.65140e+00 
-2.53258e+00  1.15286e+00  8.59760e+00 
-2.86967e+00  1.30619e+00  8.53615e+00 
-3.20662e+00  1.45945e+00  8.46708e+00 
-3.54327e+00  1.61249e+00  8.39038e+00 
-3.87974e+00  1.76544e+00  8.30612e+00 
-4.21586e+00  1.91814e+00  8.21426e+00 
-4.55174e+00  2.07070e+00  8.11489e+00 
-4.88723e+00  2.22298e+00  8.00799e+00 
-5.22244e+00  2.37510e+00  7.89364e+00 
-5.55722e+00  2.52690e+00  7.77184e+00 
-5.89167e+00  2.67850e+00  7.64267e+00 
-6.22565e+00  2.82976e+00  7.50613e+00 
-6.55927e+00  2.98079e+00  7.36234e+00 
-6.89238e+00  3.13145e+00  7.21127e+00 
-7.22510e+00  3.28185e+00  7.05305e+00 
-7.55729e+00  3.43187e+00  6.88769e+00 
-7.88907e+00  3.58161e+00  6.71531e+00 
-8.22030e+00  3.73094e+00  6.53591e+00 
-8.55112e+00  3.87999e+00  6.34966e+00 
-8.88138e+00  4.02863e+00  6.15653e+00 
-9.21124e+00  4.17699e+00  5.95670e+00 
-9.54056e+00  4.32494e+00  5.75015e+00 
-9.86949e+00  4.47263e+00  5.53708e+00 
-1.01979e+01  4.61993e+00  5.31745e+00 
-1.05260e+01  4.76698e+00  5.09146e+00 
-1.08536e+01  4.91370e+00  4.85908e+00 
-1.11810e+01  5.06021e+00  4.62051e+00 
-1.15080e+01  5.20643e+00  4.37570e+00 
-1.18347e+01  5.35251e+00  4.12486e+00 
-1.21612e+01  5.49837e+00  3.86792e+00 
-1.24876e+01  5.64418e+00  3.60508e+00 
-1.28139e+01  5.78985e+00  3.33626e+00 
-1.31401e+01  5.93556e+00  3.06165e+00 
-1.34664e+01  6.08123e+00  2.78114e+00 
-1.37928e+01  6.22706e+00  2.49489e+00 
-1.41193e+01  6.37298e+00  2.20279e+00 
-1.44462e+01  6.51917e+00  1.90497e+00 
-1.47734e+01  6.66558e+00  1.60128e+00 
-1.51011e+01  6.81240e+00  1.29184e+00 
-1.54293e+01  6.95956e+00  9.76449e-01 
-1.57582e+01  7.10728e+00  6.55204e-01 
-1.60877e+01  7.25547e+00  3.27852e-01 
-1.64181e+01  7.44786e+00  1.93457e-01 
 1.59372e+01 -7.22977e+00  1.95425e-01 
 1.56158e+01 -7.04258e+00  3.31201e-01 
 1.52951e+01 -6.89826e+00  6.61836e-01 
 1.49749e+01 -6.75432e+00  9.86003e-01 
 1.46552e+01 -6.61084e+00  1.30395e+00 
 1.43359e+01 -6.46763e+00  1.61557e+00 
 1.40171e+01 -6.32479e+00  1.92107e+00 
 1.36986e+01 -6.18212e+00  2.22034e+00 
 1.33803e+01 -6.03972e+00  2.51354e+00 
 1.30622e+01 -5.89740e+00  2.80053e+00 
 1.27443e+01 -5.75524e+00  3.08147e+00 
 1.24264e+01 -5.61309e+00  3.35620e+00 
 1.21086e+01 -5.47101e+00  3.62484e+00 
 1.17907e+01 -5.32885e+00  3.88724e+00 
 1.14728e+01 -5.18668e+00  4.14350e+00 
 1.11547e+01 -5.04436e+00  4.39344e+00 
 1.08365e+01 -4.90197e+00  4.63714e+00 
 1.05181e+01 -4.75936e+00  4.87445e+00 
 1.01994e+01 -4.61663e+00  5.10541e+00 
 9.88046e+00 -4.47364e+00  5.32987e+00 
 9.56126e+00 -4.33048e+00  5.54787e+00 
 9.24169e+00 -4.18702e+00  5.75924e+00 
 8.92184e+00 -4.04336e+00  5.96403e+00 
 8.60157e+00 -3.89937e+00  6.16207e+00 
 8.28101e+00 -3.75518e+00  6.35339e+00 
 7.96001e+00 -3.61064e+00  6.53785e+00 
 7.63869e+00 -3.46588e+00  6.71546e+00 
 7.31694e+00 -3.32078e+00  6.88609e+00 
 6.99486e+00 -3.17545e+00  7.04975e+00 
 6.67235e+00 -3.02979e+00  7.20631e+00 
 6.34952e+00 -2.88391e+00  7.35579e+00 
 6.02627e+00 -2.73771e+00  7.49807e+00 
 5.70274e+00 -2.59131e+00  7.63317e+00 
 5.37879e+00 -2.44460e+00  7.76097e+00 
 5.05458e+00 -2.29771e+00  7.88150e+00 
 4.72999e+00 -2.15053e+00  7.99465e+00 
 4.40516e+00 -2.00320e+00  8.10045e+00 
 4.07999e+00 -1.85561e+00  8.19880e+00 
 3.75462e+00 -1.70790e+00  8.28973e+00 
 3.42894e+00 -1.55994e+00  8.37316e+00 
 3.10310e+00 -1.41189e+00  8.44910e+00 
 2.77699e+00 -1.26363e+00  8.51749e+00 
 2.45075e+00 -1.11531e+00  8.57835e+00 
 2.12429e+00 -9.66804e-01  8.63163e+00 
 1.79775e+00 -8.18263e-01  8.67734e+00 
 1.47103e+00 -6.69576e-01  8.71544e+00 
 1.14426e+00 -5.20881e-01  8.74594e+00 
 8.17362e-01 -3.72071e-01  8.76881e+00 
 4.90469e-01 -2.23284e-01  8.78407e+00 
 1.63477e-01 -7.44126e-02  8.79170e+00 
-1.63477e-01  7.44126e-02  8.79170e+00 
-4.90469e-01  2.23284e-01  8.78407e+00 
-8.17362e-01  3.72071e-01  8.76881e+00 
-1.14426e+00  5.20881e-01  8.74594e+00 
-1.47103e+00  6.69576e-01  8.71544e+00 
-1.79775e+00  8.18263e-01  8.67734e+00 
-2.12429e+00  9.66804e-01  8.63163e+00 
-2.45075e+00  1.11531e+00  8.57835e+00 
-2.77699e+00  1.26363e+00  8.51749e+00 
-3.10310e+00  1.41189e+00  8.44910e+00 
-3.42894e+00  1.55994e+00  8.37316e+00 
-3.75462e+00  1.70790e+00  8.28973e+00 
-4.07999e+00  1.85561e+00  8.19880e+00 
-4.40516e+00  2.00320e+00  8.10045e+00 
-4.72999e+00  2.15053e+00  7.99465e+00 
-5.05458e+00  2.29771e+00  7.88150e+00 
-5.37879e+00  2.44460e+00  7.76097e+00 
-5.70274e+00  2.59131e+00  7.63317e+00 
-6.02627e+00  2.73771e+00  7.49807e+00 
-6.34952e+00  2.88391e+00  7.35579e+00 
-6.67235e+00  3.02979e+00  7.20631e+00 
-6.99486e+00  3.17545e+00  7.04975e+00 
-7.31694e+00  3.32078e+00  6.88609e+00 
-7.63869e+00  3.46588e+00  6.71546e+00 
-7.96001e+00  3.61064e+00  6.53785e+00 
-8.28101e+00  3.75518e+00  6.35339e+00 
-8.60157e+00  3.89937e+00  6.16207e+00 
-8.92184e+00  4.04336e+00  5.96403e+00 
-9.24169e+00  4.18702e+00  5.75924e+00 
-9.56126e+00  4.33048e+00  5.54787e+00 
-9.88046e+00  4.47364e+00  5.32987e+00 
-1.01994e+01  4.61663e+00  5.10541e+00 
-1.05181e+01  4.75936e+00  4.87445e+00 
-1.08365e+01  4.90197e+00  4.63714e+00 
-1.11547e+01  5.04436e+00  4.39344e+00 
-1.14728e+01  5.18668e+00  4.14350e+00 
-1.17907e+01  5.32885e+00  3.88724e+00 
-1.21086e+01  5.47101e+00  3.62484e+00 
-1.24264e+01  5.61309e+00  3.35620e+00 
-1.27443e+01  5.75524e+00  3.08147e+00 
-1.30622e+01  5.89740e+00  2.80053e+00 
-1.33803e+01  6.03972e+00  2.51354e+00 
-1.36986e+01  6.18212e+00  2.22034e+00 
-1.40171e+01  6.32479e+00  1.92107e+00 
-1.43359e+01  6.46763e+00  1.61557e+00 
-1.46552e+01  6.61084e+00  1.30395e+00 
-1.49749e+01  6.75432e+00  9.86003e-01 
-1.52951e+01  6.89826e+00  6.61836e-01 
-1.56158e+01  7.04258e+00  3.31201e-01 
-1.59372e+01  7.22977e+00  1.95425e-01 
 1.54516e+01 -7.00947e+00  1.96939e-01 
 1.51396e+01 -6.82773e+00  3.33783e-01 
 1.48280e+01 -6.68750e+00  6.66985e-01 
 1.45169e+01 -6.54755e+00  9.93482e-01 
 1.42063e+01 -6.40798e+00  1.31350e+00 
 1.38959e+01 -6.26863e+00  1.62693e+00 
 1.35860e+01 -6.12958e+00  1.93397e+00 
 1.32762e+01 -5.99068e+00  2.23450e+00 
 1.29667e+01 -5.85201e+00  2.52870e+00 
 1.26574e+01 -5.71342e+00  2.81643e+00 
 1.23482e+01 -5.57498e+00  3.09785e+00 
 1.20391e+01 -5.43656e+00  3.37282e+00 
 1.17301e+01 -5.29823e+00  3.64147e+00 
 1.14210e+01 -5.15984e+00  3.90366e+00 
 1.11120e+01 -5.02149e+00  4.15950e+00 
 1.08028e+01 -4.88302e+00  4.40884e+00 
 1.04936e+01 -4.74453e+00  4.65177e+00 
 1.01842e+01 -4.60587e+00  4.88815e+00 
 9.87474e+00 -4.46715e+00  5.11806e+00 
 9.56501e+00 -4.32822e+00  5.34134e+00 
 9.25513e+00 -4.18919e+00  5.55806e+00 
 8.94497e+00 -4.04992e+00  5.76807e+00 
 8.63462e+00 -3.91051e+00  5.97142e+00 
 8.32396e+00 -3.77084e+00  6.16798e+00 
 8.01308e+00 -3.63101e+00  6.35779e+00 
 7.70185e+00 -3.49091e+00  6.54071e+00 
 7.39040e+00 -3.35064e+00  6.71677e+00 
 7.07859e+00 -3.21008e+00  6.88586e+00 
 6.76655e+00 -3.06936e+00  7.04799e+00 
 6.45414e+00 -2.92835e+00  7.20305e+00 
 6.14151e+00 -2.78717e+00  7.35107e+00 
 5.82852e+00 -2.64570e+00  7.49193e+00 
 5.51531e+00 -2.50408e+00  7.62565e+00 
 5.20175e+00 -2.36219e+00  7.75215e+00 
 4.88799e+00 -2.22015e+00  7.87142e+00 
 4.57391e+00 -2.07786e+00  7.98339e+00 
 4.25964e+00 -1.93544e+00  8.08808e+00 
 3.94507e+00 -1.79279e+00  8.18539e+00 
 3.63035e+00 -1.65003e+00  8.27535e+00 
 3.31535e+00 -1.50705e+00  8.35789e+00 
 3.00023e+00 -1.36399e+00  8.43302e+00 
 2.68487e+00 -1.22074e+00  8.50069e+00 
 2.36941e+00 -1.07743e+00  8.56090e+00 
 2.05375e+00 -9.33962e-01  8.61362e+00 
 1.73803e+00 -7.90459e-01  8.65884e+00 
 1.42214e+00 -6.46819e-01  8.69654e+00 
 1.10623e+00 -5.03175e-01  8.72671e+00 
 7.90186e-01 -3.59422e-01  8.74935e+00 
 4.74159e-01 -2.15693e-01  8.76444e+00 
 1.58041e-01 -7.18824e-02  8.77199e+00 
-1.58041e-01  7.18824e-02  8.77199e+00 
-4.74159e-01  2.15693e-01  8.76444e+00 
-7.90186e-01  3.59422e-01  8.74935e+00 
-1.10623e+00  5.03175e-01  8.72671e+00 
-1.42214e+00  6.46819e-01  8.69654e+00 
-1.73803e+00  7.90459e-01  8.65884e+00 
-2.05375e+00  9.33962e-01  8.61362e+00 
-2.36941e+00  1.07743e+00  8.56090e+00 
-2.68487e+00  1.22074e+00  8.50069e+00 
-3.00023e+00  1.36399e+00  8.43302e+00 
-3.31535e+00  1.50705e+00  8.35789e+00 
-3.63035e+00  1.65003e+00  8.27535e+00 
-3.94507e+00  1.79279e+00  8.18539e+00 
-4.25964e+00  1.93544e+00  8.08808e+00 
-4.57391e+00  2.07786e+00  7.98339e+00 
-4.88799e+00  2.22015e+00  7.87142e+00 
-5.20175e+00  2.36219e+00  7.75215e+00 
-5.51531e+00  2.50408e+00  7.62565e+00 
-5.82852e+00  2.64570e+00  7.49193e+00 
-6.14151e+00  2.78717e+00  7.35107e+00 
-6.45414e+00  2.92835e+00  7.20305e+00 
-6.76655e+00  3.06936e+00  7.04799e+00 
-7.07859e+00  3.21008e+00  6.88586e+00 
-7.39040e+00  3.35064e+00  6.71677e+00 
-7.70185e+00  3.49091e+00  6.54071e+00 
-8.01308e+00  3.63101e+00  6.35779e+00 
-8.32396e+00  3.77084e+00  6.16798e+00 
-8.63462e+00  3.91051e+00  5.97142e+00 
-8.94497e+00  4.04992e+00  5.76807e+00 
-9.25513e+00  4.18919e+00  5.55806e+00 
-9.56501e+00  4.32822e+00  5.34134e+00 
-9.87474e+00  4.46715e+00  5.11806e+00 
-1.01842e+01  4.60587e+00  4.88815e+00 
-1.04936e+01  4.74453e+00  4.65177e+00 
-1.08028e+01  4.88302e+00  4.40884e+00 
-1.11120e+01  5.02149e+00  4.15950e+00 
-1.14210e+01  5.15984e+00  3.90366e+00 
-1.17301e+01  5.29823e+00  3.64147e+00 
-1.20391e+01  5.43656e+00  3.37282e+00 
-1.23482e+01  5.57498e+00  3.09785e+00 
-1.26574e+01  5.71342e+00  2.81643e+00 
-1.29667e+01  5.85201e+00  2.52870e+00 
-1.32762e+01  5.99068e+00  2.23450e+00 
-1.35860e+01  6.12958e+00  1.93397e+00 
-1.38959e+01  6.26863e+00  1.62693e+00 
-1.42063e+01  6.40798e+00  1.31350e+00 
-1.45169e+01  6.54755e+00  9.93482e-01 
-1.48280e+01  6.68750e+00  6.66985e-01 
-1.51396e+01  6.82773e+00  3.33783e-01 
-1.54516e+01  7.00947e+00  1.96939e-01 
 1.49623e+01 -6.78747e+00  1.98152e-01 
 1.46599e+01 -6.61134e+00  3.35837e-01 
 1.43579e+01 -6.47535e+00  6.71050e-01 
 1.40562e+01 -6.33957e+00  9.99380e-01 
 1.37549e+01 -6.20409e+00  1.32105e+00 
 1.34538e+01 -6.06878e+00  1.63593e+00 
 1.31530e+01 -5.93372e+00  1.94423e+00 
 1.28524e+01 -5.79877e+00  2.24583e+00 
 1.25520e+01 -5.66402e+00  2.54088e+00 
 1.22518e+01 -5.52933e+00  2.82928e+00 
 1.19517e+01 -5.39479e+00  3.11117e+00 
 1.16517e+01 -5.26026e+00  3.38642e+00 
 1.13517e+01 -5.12583e+00  3.65517e+00 
 1.10518e+01 -4.99135e+00  3.91729e+00 
 1.07519e+01 -4.85693e+00  4.17288e+00 
 1.04519e+01 -4.72242e+00  4.42183e+00 
 1.01519e+01 -4.58792e+00  4.66423e+00 
 9.85176e+00 -4.45329e+00  4.89994e+00 
 9.55159e+00 -4.31863e+00  5.12906e+00 
 9.25123e+00 -4.18381e+00  5.35145e+00 
 8.95079e+00 -4.04893e+00  5.56718e+00 
 8.65013e+00 -3.91385e+00  5.77612e+00 
 8.34935e+00 -3.77870e+00  5.97834e+00 
 8.04832e+00 -3.64333e+00  6.17371e+00 
 7.74715e+00 -3.50785e+00  6.36228e+00 
 7.44571e+00 -3.37215e+00  6.54393e+00 
 7.14411e+00 -3.23633e+00  6.71871e+00 
 6.84222e+00 -3.10027e+00  6.88650e+00 
 6.54017e+00 -2.96409e+00  7.04733e+00 
 6.23783e+00 -2.82767e+00  7.20110e+00 
 5.93531e+00 -2.69113e+00  7.34785e+00 
 5.63251e+00 -2.55435e+00  7.48746e+00 
 5.32955e+00 -2.41744e+00  7.61997e+00 
 5.02630e+00 -2.28031e+00  7.74529e+00 
 4.72290e+00 -2.14307e+00  7.86344e+00 
 4.41923e+00 -2.00560e+00  7.97433e+00 
 4.11542e+00 -1.86804e+00  8.07799e+00 
 3.81136e+00 -1.73027e+00  8.17434e+00 
 3.50718e+00 -1.59241e+00  8.26340e+00 
 3.20277e+00 -1.45437e+00  8.34510e+00 
 2.89826e+00 -1.31627e+00  8.41947e+00 
 2.59355e+00 -1.17799e+00  8.48644e+00 
 2.28877e+00 -1.03968e+00  8.54603e+00 
 1.98381e+00 -9.01212e-01  8.59820e+00 
 1.67882e+00 -7.62726e-01  8.64295e+00 
 1.37367e+00 -6.24115e-01  8.68025e+00 
 1.06851e+00 -4.85507e-01  8.71011e+00 
 7.63240e-01 -3.46798e-01  8.73251e+00 
 4.57987e-01 -2.08116e-01  8.74745e+00 
 1.52650e-01 -6.93570e-02  8.75492e+00 
-1.52650e-01  6.93570e-02  8.75492e+00 
-4.57987e-01  2.08116e-01  8.74745e+00 
-7.63240e-01  3.46798e-01  8.73251e+00 
-1.06851e+00  4.85507e-01  8.71011e+00 
-1.37367e+00  6.24115e-01  8.68025e+00 
-1.67882e+00  7.62726e-01  8.64295e+00 
-1.98381e+00  9.01212e-01  8.59820e+00 
-2.28877e+00  1.03968e+00  8.54603e+00 
-2.59355e+00  1.17799e+00  8.48644e+00 
-2.89826e+00  1.31627e+00  8.41947e+00 
-3.20277e+00  1.45437e+00  8.34510e+00 
-3.50718e+00  1.59241e+00  8.26340e+00 
-3.81136e+00  1.73027e+00  8.17434e+00 
-4.11542e+00  1.86804e+00  8.07799e+00 
-4.41923e+00  2.00560e+00  7.97433e+00 
-4.72290e+00  2.14307e+00  7.86344e+00 
-5.02630e+00  2.28031e+00  7.74529e+00 
-5.32955e+00  2.41744e+00  7.61997e+00 
-5.63251e+00  2.55435e+00  7.48746e+00 
-5.93531e+00  2.69113e+00  7.34785e+00 
-6.23783e+00  2.82767e+00  7.20110e+00 
-6.54017e+00  2.96409e+00  7.04733e+00 
-6.84222e+00  3.10027e+00  6.88650e+00 
-7.14411e+00  3.23633e+00  6.71871e+00 
-7.44571e+00  3.37215e+00  6.54393e+00 
-7.74715e+00  3.50785e+00  6.36228e+00 
-8.04832e+00  3.64333e+00  6.17371e+00 
-8.34935e+00  3.77870e+00  5.97834e+00 
-8.65013e+00  3.91385e+00  5.77612e+00 
-8.95079e+00  4.04893e+00  5.56718e+00 
-9.25123e+00  4.18381e+00  5.35145e+00 
-9.55159e+00  4.31863e+00  5.12906e+00 
-9.85176e+00  4.45329e+00  4.89994e+00 
-1.01519e+01  4.58792e+00  4.66423e+00 
-1.04519e+01  4.72242e+00  4.42183e+00 
-1.07519e+01  4.85693e+00  4.17288e+00 
-1.10518e+01  4.99135e+00  3.91729e+00 
-1.13517e+01  5.12583e+00  3.65517e+00 
-1.16517e+01  5.26026e+00  3.38642e+00 
-1.19517e+01  5.39479e+00  3.11117e+00 
-1.22518e+01  5.52933e+00  2.82928e+00 
-1.25520e+01  5.66402e+00  2.54088e+00 
-1.28524e+01  5.79877e+00  2.24583e+00 
-1.31530e+01  5.93372e+00  1.94423e+00 
-1.34538e+01  6.06878e+00  1.63593e+00 
-1.37549e+01  6.20409e+00  1.32105e+00 
-1.40562e+01  6.33957e+00  9.99380e-01 
-1.43579e+01  6.47535e+00  6.71050e-01 
-1.46599e+01  6.61134e+00  3.35837e-01 
-1.49623e+01  6.78747e+00  1.98152e-01 
 1.44701e+01 -6.56418e+00  1.99084e-01 
 1.41775e+01 -6.39377e+00  3.37410e-01 
 1.38853e+01 -6.26213e+00  6.74160e-01 
 1.35933e+01 -6.13064e+00  1.00390e+00 
 1.33015e+01 -5.99939e+00  1.32685e+00 
 1.30100e+01 -5.86825e+00  1.64288e+00 
 1.27187e+01 -5.73732e+00  1.95219e+00 
 1.24275e+01 -5.60647e+00  2.25464e+00 
 1.21365e+01 -5.47580e+00  2.55041e+00 
 1.18456e+01 -5.34516e+00  2.83937e+00 
 1.15548e+01 -5.21466e+00  3.12168e+00 
 1.12641e+01 -5.08416e+00  3.39721e+00 
 1.09735e+01 -4.95375e+00  3.66609e+00 
 1.06829e+01 -4.82332e+00  3.92821e+00 
 1.03923e+01 -4.69294e+00  4.18368e+00 
 1.01017e+01 -4.56249e+00  4.43237e+00 
 9.81110e+00 -4.43207e+00  4.67440e+00 
 9.52040e+00 -4.30154e+00  4.90964e+00 
 9.22968e+00 -4.17102e+00  5.13818e+00 
 8.93883e+00 -4.04036e+00  5.35990e+00 
 8.64794e+00 -3.90968e+00  5.57488e+00 
 8.35687e+00 -3.77884e+00  5.78301e+00 
 8.06574e+00 -3.64796e+00  5.98434e+00 
 7.77441e+00 -3.51690e+00  6.17878e+00 
 7.48299e+00 -3.38578e+00  6.36637e+00 
 7.19136e+00 -3.25447e+00  6.54701e+00 
 6.89962e+00 -3.12308e+00  6.72074e+00 
 6.60766e+00 -2.99150e+00  6.88747e+00 
 6.31558e+00 -2.85984e+00  7.04724e+00 
 6.02327e+00 -2.72798e+00  7.19995e+00 
 5.73084e+00 -2.59603e+00  7.34563e+00 
 5.43819e+00 -2.46389e+00  7.48420e+00 
 5.14541e+00 -2.33165e+00  7.61569e+00 
 4.85241e+00 -2.19923e+00  7.74001e+00 
 4.55929e+00 -2.06672e+00  7.85719e+00 
 4.26596e+00 -1.93403e+00  7.96715e+00 
 3.97252e+00 -1.80127e+00  8.06992e+00 
 3.67888e+00 -1.66834e+00  8.16543e+00 
 3.38516e+00 -1.53534e+00  8.25371e+00 
 3.09124e+00 -1.40218e+00  8.33468e+00 
 2.79726e+00 -1.26898e+00  8.40837e+00 
 2.50310e+00 -1.13563e+00  8.47473e+00 
 2.20890e+00 -1.00226e+00  8.53376e+00 
 1.91455e+00 -8.68749e-01  8.58544e+00 
 1.62017e+00 -7.35233e-01  8.62977e+00 
 1.32566e+00 -6.01606e-01  8.66672e+00 
 1.03116e+00 -4.67989e-01  8.69630e+00 
 7.36552e-01 -3.34281e-01  8.71848e+00 
 4.41970e-01 -2.00602e-01  8.73328e+00 
 1.47311e-01 -6.68529e-02  8.74068e+00 
-1.47311e-01  6.68529e-02  8.74068e+00 
-4.41970e-01  2.00602e-01  8.73328e+00 
-7.36552e-01  3.34281e-01  8.71848e+00 
-1.03116e+00  4.67989e-01  8.69630e+00 
-1.32566e+00  6.01606e-01  8.66672e+00 
-1.62017e+00  7.35233e-01  8.62977e+00 
-1.91455e+00  8.68749e-01  8.58544e+00 
-2.20890e+00  1.00226e+00  8.53376e+00 
-2.50310e+00  1.13563e+00  8.47473e+00 
-2.79726e+00  1.26898e+00  8.40837e+00 
-3.09124e+00  1.40218e+00  8.33468e+00 
-3.38516e+00  1.53534e+00  8.25371e+00 
-3.67888e+00  1.66834e+00  8.16543e+00 
-3.97252e+00  1.80127e+00  8.06992e+00 
-4.26596e+00  1.93403e+00  7.96715e+00 
-4.55929e+00  2.06672e+00  7.85719e+00 
-4.85241e+00  2.19923e+00  7.74001e+00 
-5.14541e+00  2.33165e+00  7.61569e+00 
-5.43819e+00  2.46389e+00  7.48420e+00 
-5.73084e+00  2.59603e+00  7.34563e+00 
-6.02327e+00  2.72798e+00  7.19995e+00 
-6.31558e+00  2.85984e+00  7.04724e+00 
-6.60766e+00  2.99150e+00  6.88747e+00 
-6.89962e+00  3.12308e+00  6.72074e+00 
-7.19136e+00  3.25447e+00  6.54701e+00 
-7.48299e+00  3.38578e+00  6.36637e+00 
-7.77441e+00  3.51690e+00  6.17878e+00 
-8.06574e+00  3.64796e+00  5.98434e+00 
-8.35687e+00  3.77884e+00  5.78301e+00 
-8.64794e+00  3.90968e+00  5.57488e+00 
-8.93883e+00  4.04036e+00  5.35990e+00 
-9.22968e+00  4.17102e+00  5.13818e+00 
-9.52040e+00  4.30154e+00  4.90964e+00 
-9.81110e+00  4.43207e+00  4.67440e+00 
-1.01017e+01  4.56249e+00  4.43237e+00 
-1.03923e+01  4.69294e+00  4.18368e+00 
-1.06829e+01  4.82332e+00  3.92821e+00 
-1.09735e+01  4.95375e+00  3.66609e+00 
-1.12641e+01  5.08416e+00  3.39721e+00 
-1.15548e+01  5.21466e+00  3.12168e+00 
-1.18456e+01  5.34516e+00  2.83937e+00 
-1.21365e+01  5.47580e+00  2.55041e+00 
-1.24275e+01  5.60647e+00  2.25464e+00 
-1.27187e+01  5.73732e+00  1.95219e+00 
-1.30100e+01  5.86825e+00  1.64288e+00 
-1.33015e+01  5.99939e+00  1.32685e+00 
-1.35933e+01  6.13064e+00  1.00390e+00 
-1.38853e+01  6.26213e+00  6.74160e-01 
-1.41775e+01  6.39377e+00  3.37410e-01 
-1.44701e+01  6.56418e+00  1.99084e-01 
 1.39759e+01 -6.33994e+00  1.99746e-01 
 1.36932e+01 -6.17533e+00  3.38538e-01 
 1.34109e+01 -6.04811e+00  6.76419e-01 
 1.31287e+01 -5.92098e+00  1.00722e+00 
 1.28467e+01 -5.79405e+00  1.33115e+00 
 1.25648e+01 -5.66720e+00  1.64806e+00 
 1.22832e+01 -5.54052e+00  1.95815e+00 
 1.20016e+01 -5.41388e+00  2.26128e+00 
 1.17202e+01 -5.28739e+00  2.55762e+00 
 1.14388e+01 -5.16093e+00  2.84704e+00 
 1.11576e+01 -5.03458e+00  3.12970e+00 
 1.08764e+01 -4.90822e+00  3.40548e+00 
 1.05953e+01 -4.78196e+00  3.67450e+00 
 1.03142e+01 -4.65566e+00  3.93665e+00 
 1.00332e+01 -4.52943e+00  4.19206e+00 
 9.75209e+00 -4.40313e+00  4.44059e+00 
 9.47104e+00 -4.27688e+00  4.68237e+00 
 9.18990e+00 -4.15054e+00  4.91727e+00 
 8.90878e+00 -4.02421e+00  5.14539e+00 
 8.62754e+00 -3.89778e+00  5.36662e+00 
 8.34630e+00 -3.77134e+00  5.58105e+00 
 8.06491e+00 -3.64478e+00  5.78855e+00 
 7.78350e+00 -3.51820e+00  5.98922e+00 
 7.50193e+00 -3.39148e+00  6.18293e+00 
 7.22031e+00 -3.26473e+00  6.36977e+00 
 6.93852e+00 -3.13782e+00  6.54961e+00 
 6.65667e+00 -3.01087e+00  6.72254e+00 
 6.37464e+00 -2.88376e+00  6.88843e+00 
 6.09254e+00 -2.75660e+00  7.04736e+00 
 5.81026e+00 -2.62928e+00  7.19921e+00 
 5.52789e+00 -2.50190e+00  7.34405e+00 
 5.24535e+00 -2.37436e+00  7.48177e+00 
 4.96272e+00 -2.24677e+00  7.61243e+00 
 4.67991e+00 -2.11901e+00  7.73593e+00 
 4.39703e+00 -1.99121e+00  7.85233e+00 
 4.11397e+00 -1.86324e+00  7.96153e+00 
 3.83085e+00 -1.73524e+00  8.06357e+00 
 3.54756e+00 -1.60708e+00  8.15839e+00 
 3.26421e+00 -1.47889e+00  8.24601e+00 
 2.98071e+00 -1.35057e+00  8.32637e+00 
 2.69716e+00 -1.22222e+00  8.39949e+00 
 2.41347e+00 -1.09374e+00  8.46533e+00 
 2.12976e+00 -9.65248e-01  8.52391e+00 
 1.84591e+00 -8.36645e-01  8.57518e+00 
 1.56206e+00 -7.08045e-01  8.61915e+00 
 1.27810e+00 -5.79347e-01  8.65580e+00 
 9.94152e-01 -4.50665e-01  8.68514e+00 
 7.10112e-01 -3.21902e-01  8.70714e+00 
 4.26103e-01 -1.93172e-01  8.72181e+00 
 1.42022e-01 -6.43764e-02  8.72915e+00 
-1.42022e-01  6.43764e-02  8.72915e+00 
-4.26103e-01  1.93172e-01  8.72181e+00 
-7.10112e-01  3.21902e-01  8.70714e+00 
-9.94152e-01  4.50665e-01  8.68514e+00 
-1.27810e+00  5.79347e-01  8.65580e+00 
-1.56206e+00  7.08045e-01  8.61915e+00 
-1.84591e+00  8.36645e-01  8.57518e+00 
-2.12976e+00  9.65248e-01  8.52391e+00 
-2.41347e+00  1.09374e+00  8.46533e+00 
-2.69716e+00  1.22222e+00  8.39949e+00 
-2.98071e+00  1.35057e+00  8.32637e+00 
-3.26421e+00  1.47889e+00  8.24601e+00 
-3.54756e+00  1.60708e+00  8.15839e+00 
-3.83085e+00  1.73524e+00  8.06357e+00 
-4.11397e+00  1.86324e+00  7.96153e+00 
-4.39703e+00  1.99121e+00  7.85233e+00 
-4.67991e+00  2.11901e+00  7.73593e+00 
-4.96272e+00  2.24677e+00  7.61243e+00 
-5.24535e+00  2.37436e+00  7.48177e+00 
-5.52789e+00  2.50190e+00  7.34405e+00 
-5.81026e+00  2.62928e+00  7.19921e+00 
-6.09254e+00  2.75660e+00  7.04736e+00 
-6.37464e+00  2.88376e+00  6.88843e+00 
-6.65667e+00  3.01087e+00  6.72254e+00 
-6.93852e+00  3.13782e+00  6.54961e+00 
-7.22031e+00  3.26473e+00  6.36977e+00 
-7.50193e+00  3.39148e+00  6.18293e+00 
-7.78350e+00  3.51820e+00  5.98922e+00 
-8.06491e+00  3.64478e+00  5.78855e+00 
-8.34630e+00  3.77134e+00  5.58105e+00 
-8.62754e+00  3.89778e+00  5.36662e+00 
-8.90878e+00  4.02421e+00  5.14539e+00 
-9.18990e+00  4.15054e+00  4.91727e+00 
-9.47104e+00  4.27688e+00  4.68237e+00 
-9.75209e+00  4.40313e+00  4.44059e+00 
-1.00332e+01  4.52943e+00  4.19206e+00 
-1.03142e+01  4.65566e+00  3.93665e+00 
-1.05953e+01  4.78196e+00  3.67450e+00 
-1.08764e+01  4.90822e+00  3.40548e+00 
-1.11576e+01  5.03458e+00  3.12970e+00 
-1.14388e+01  5.16093e+00  2.84704e+00 
-1.17202e+01  5.28739e+00  2.55762e+00 
-1.20016e+01  5.41388e+00  2.26128e+00 
-1.22832e+01  5.54052e+00  1.95815e+00 
-1.25648e+01  5.66720e+00  1.64806e+00 
-1.28467e+01  5.79405e+00  1.33115e+00 
-1.31287e+01  5.92098e+00  1.00722e+00 
-1.34109e+01  6.04811e+00  6.76419e-01 
-1.36932e+01  6.17533e+00  3.38538e-01 
-1.39759e+01  6.33994e+00  1.99746e-01 
 1.34801e+01 -6.11499e+00  2.00264e-01 
 1.32075e+01 -5.95622e+00  3.39409e-01 
 1.29351e+01 -5.83347e+00  6.78137e-01 
 1.26628e+01 -5.71078e+00  1.00973e+00 
 1.23907e+01 -5.58825e+00  1.33438e+00 
 1.21187e+01 -5.46575e+00  1.65196e+00 
 1.18468e+01 -5.34340e+00  1.96263e+00 
 1.15750e+01 -5.22107e+00  2.26628e+00 
 1.13033e+01 -5.09886e+00  2.56305e+00 
 1.10317e+01 -4.97665e+00  2.85284e+00 
 1.07601e+01 -4.85455e+00  3.13578e+00 
 1.04886e+01 -4.73243e+00  3.41176e+00 
 1.02172e+01 -4.61039e+00  3.68091e+00 
 9.94571e+00 -4.48832e+00  3.94310e+00 
 9.67432e+00 -4.36631e+00  4.19848e+00 
 9.40289e+00 -4.24425e+00  4.44691e+00 
 9.13150e+00 -4.12223e+00  4.68852e+00 
 8.86004e+00 -4.00014e+00  4.92319e+00 
 8.58861e+00 -3.87807e+00  5.15101e+00 
 8.31709e+00 -3.75592e+00  5.37189e+00 
 8.04557e+00 -3.63378e+00  5.58591e+00 
 7.77395e+00 -3.51154e+00  5.79296e+00 
 7.50232e+00 -3.38930e+00  5.99312e+00 
 7.23057e+00 -3.26694e+00  6.18630e+00 
 6.95879e+00 -3.14457e+00  6.37257e+00 
 6.68689e+00 -3.02208e+00  6.55182e+00 
 6.41495e+00 -2.89957e+00  6.72412e+00 
 6.14287e+00 -2.77693e+00  6.88938e+00 
 5.87075e+00 -2.65427e+00  7.04766e+00 
 5.59849e+00 -2.53147e+00  7.19886e+00 
 5.32618e+00 -2.40865e+00  7.34304e+00 
 5.05373e+00 -2.28570e+00  7.48012e+00 
 4.78123e+00 -2.16271e+00  7.61013e+00 
 4.50858e+00 -2.03960e+00  7.73300e+00 
 4.23590e+00 -1.91646e+00  7.84878e+00 
 3.96307e+00 -1.79319e+00  7.95738e+00 
 3.69021e+00 -1.66990e+00  8.05885e+00 
 3.41720e+00 -1.54648e+00  8.15312e+00 
 3.14417e+00 -1.42306e+00  8.24022e+00 
 2.87101e+00 -1.29951e+00  8.32010e+00 
 2.59784e+00 -1.17596e+00  8.39278e+00 
 2.32454e+00 -1.05231e+00  8.45821e+00 
 2.05124e+00 -9.28650e-01  8.51641e+00 
 1.77783e+00 -8.04899e-01  8.56735e+00 
 1.50442e+00 -6.81160e-01  8.61104e+00 
 1.23092e+00 -5.57336e-01  8.64745e+00 
 9.57445e-01 -4.33536e-01  8.67660e+00 
 6.83887e-01 -3.09663e-01  8.69845e+00 
 4.10364e-01 -1.85826e-01  8.71303e+00 
 1.36776e-01 -6.19279e-02  8.72032e+00 
-1.36776e-01  6.19279e-02  8.72032e+00 
-4.10364e-01  1.85826e-01  8.71303e+00 
-6.83887e-01  3.09663e-01  8.69845e+00 
-9.57445e-01  4.33536e-01  8.67660e+00 
-1.23092e+00  5.57336e-01  8.64745e+00 
-1.50442e+00  6.81160e-01  8.61104e+00 
-1.77783e+00  8.04899e-01  8.56735e+00 
-2.05124e+00  9.28650e-01  8.51641e+00 
-2.32454e+00  1.05231e+00  8.45821e+00 
-2.59784e+00  1.17596e+00  8.39278e+00 
-2.87101e+00  1.29951e+00  8.32010e+00 
-3.14417e+00  1.42306e+00  8.24022e+00 
-3.41720e+00  1.54648e+00  8.15312e+00 
-3.69021e+00  1.66990e+00  8.05885e+00 
-3.96307e+00  1.79319e+00  7.95738e+00 
-4.23590e+00  1.91646e+00  7.84878e+00 
-4.50858e+00  2.03960e+00  7.73300e+00 
-4.78123e+00  2.16271e+00  7.61013e+00 
-5.05373e+00  2.28570e+00  7.48012e+00 
-5.32618e+00  2.40865e+00  7.34304e+00 
-5.59849e+00  2.53147e+00  7.19886e+00 
-5.87075e+00  2.65427e+00  7.04766e+00 
-6.14287e+00  2.77693e+00  6.88938e+00 
-6.41495e+00  2.89957e+00  6.72412e+00 
-6.68689e+00  3.02208e+00  6.55182e+00 
-6.95879e+00  3.14457e+00  6.37257e+00 
-7.23057e+00  3.26694e+00  6.18630e+00 
-7.50232e+00  3.38930e+00  5.99312e+00 
-7.77395e+00  3.51154e+00  5.79296e+00 
-8.04557e+00  3.63378e+00  5.58591e+00 
-8.31709e+00  3.75592e+00  5.37189e+00 
-8.58861e+00  3.87807e+00  5.15101e+00 
-8.86004e+00  4.00014e+00  4.92319e+00 
-9.13150e+00  4.12223e+00  4.68852e+00 
-9.40289e+00  4.24425e+00  4.44691e+00 
-9.67432e+00  4.36631e+00  4.19848e+00 
-9.94571e+00  4.48832e+00  3.94310e+00 
-1.02172e+01  4.61039e+00  3.68091e+00 
-1.04886e+01  4.73243e+00  3.41176e+00 
-1.07601e+01  4.85455e+00  3.13578e+00 
-1.10317e+01  4.97665e+00  2.85284e+00 
-1.13033e+01  5.09886e+00  2.56305e+00 
-1.15750e+01  5.22107e+00  2.26628e+00 
-1.18468e+01  5.34340e+00  1.96263e+00 
-1.21187e+01  5.46575e+00  1.65196e+00 
-1.23907e+01  5.58825e+00  1.33438e+00 
-1.26628e+01  5.71078e+00  1.00973e+00 
-1.29351e+01  5.83347e+00  6.78137e-01 
-1.32075e+01  5.95622e+00  3.39409e-01 
-1.34801e+01  6.11499e+00  2.00264e-01 
 1.29831e+01 -5.88954e+00  2.00637e-01 
 1.27206e+01 -5.73664e+00  3.40032e-01 
 1.24583e+01 -5.61840e+00  6.79364e-01 
 1.21960e+01 -5.50019e+00  1.01152e+00 
 1.19339e+01 -5.38210e+00  1.33669e+00 
 1.16718e+01 -5.26402e+00  1.65474e+00 
 1.14098e+01 -5.14605e+00  1.96584e+00 
 1.11478e+01 -5.02809e+00  2.26985e+00 
 1.08860e+01 -4.91022e+00  2.56695e+00 
 1.06241e+01 -4.79235e+00  2.85700e+00 
 1.03624e+01 -4.67456e+00  3.14015e+00 
 1.01007e+01 -4.55675e+00  3.41628e+00 
 9.83899e+00 -4.43900e+00  3.68553e+00 
 9.57729e+00 -4.32122e+00  3.94777e+00 
 9.31566e+00 -4.20350e+00  4.20314e+00 
 9.05398e+00 -4.08573e+00  4.45151e+00 
 8.79234e+00 -3.96800e+00  4.69300e+00 
 8.53065e+00 -3.85022e+00  4.92751e+00 
 8.26899e+00 -3.73246e+00  5.15513e+00 
 8.00726e+00 -3.61463e+00  5.37575e+00 
 7.74554e+00 -3.49682e+00  5.58948e+00 
 7.48374e+00 -3.37893e+00  5.79621e+00 
 7.22195e+00 -3.26106e+00  5.99602e+00 
 6.96006e+00 -3.14309e+00  6.18882e+00 
 6.69817e+00 -3.02513e+00  6.37467e+00 
 6.43618e+00 -2.90706e+00  6.55349e+00 
 6.17418e+00 -2.78900e+00  6.72535e+00 
 5.91206e+00 -2.67084e+00  6.89015e+00 
 5.64994e+00 -2.55267e+00  7.04796e+00 
 5.38770e+00 -2.43440e+00  7.19868e+00 
 5.12544e+00 -2.31612e+00  7.34238e+00 
 4.86307e+00 -2.19774e+00  7.47898e+00 
 4.60068e+00 -2.07935e+00  7.60852e+00 
 4.33817e+00 -1.96085e+00  7.73092e+00 
 4.07565e+00 -1.84235e+00  7.84624e+00 
 3.81302e+00 -1.72375e+00  7.95440e+00 
 3.55038e+00 -1.60514e+00  8.05545e+00 
 3.28762e+00 -1.48644e+00  8.14931e+00 
 3.02486e+00 -1.36773e+00  8.23603e+00 
 2.76200e+00 -1.24894e+00  8.31555e+00 
 2.49913e+00 -1.13015e+00  8.38789e+00 
 2.23617e+00 -1.01127e+00  8.45301e+00 
 1.97322e+00 -8.92404e-01  8.51094e+00 
 1.71018e+00 -7.73460e-01  8.56164e+00 
 1.44716e+00 -6.54537e-01  8.60511e+00 
 1.18406e+00 -5.35541e-01  8.64135e+00 
 9.20981e-01 -4.16575e-01  8.67034e+00 
 6.57836e-01 -2.97544e-01  8.69209e+00 
 3.94731e-01 -1.78552e-01  8.70660e+00 
 1.31565e-01 -5.95035e-02  8.71385e+00 
-1.31565e-01  5.95035e-02  8.71385e+00 
-3.94731e-01  1.78552e-01  8.70660e+00 
-6.57836e-01  2.97544e-01  8.69209e+00 
-9.20981e-01  4.16575e-01  8.67034e+00 
-1.18406e+00  5.35541e-01  8.64135e+00 
-1.44716e+00  6.54537e-01  8.60511e+00 
-1.71018e+00  7.73460e-01  8.56164e+00 
-1.97322e+00  8.92404e-01  8.51094e+00 
-2.23617e+00  1.01127e+00  8.45301e+00 
-2.49913e+00  1.13015e+00  8.38789e+00 
-2.76200e+00  1.24894e+00  8.31555e+00 
-3.02486e+00  1.36773e+00  8.23603e+00 
-3.28762e+00  1.48644e+00  8.14931e+00 
-3.55038e+00  1.60514e+00  8.05545e+00 
-3.81302e+00  1.72375e+00  7.95440e+00 
-4.07565e+00  1.84235e+00  7.84624e+00 
-4.33817e+00  1.96085e+00  7.73092e+00 
-4.60068e+00  2.07935e+00  7.60852e+00 
-4.86307e+00  2.19774e+00  7.47898e+00 
-5.12544e+00  2.31612e+00  7.34238e+00 
-5.38770e+00  2.43440e+00  7.19868e+00 
-5.64994e+00  2.55267e+00  7.04796e+00 
-5.91206e+00  2.67084e+00  6.89015e+00 
-6.17418e+00  2.78900e+00  6.72535e+00 
-6.43618e+00  2.90706e+00  6.55349e+00 
-6.69817e+00  3.02513e+00  6.37467e+00 
-6.96006e+00  3.14309e+00  6.18882e+00 
-7.22195e+00  3.26106e+00  5.99602e+00 
-7.48374e+00  3.37893e+00  5.79621e+00 
-7.74554e+00  3.49682e+00  5.58948e+00 
-8.00726e+00  3.61463e+00  5.37575e+00 
-8.26899e+00  3.73246e+00  5.15513e+00 
-8.53065e+00  3.85022e+00  4.92751e+00 
-8.79234e+00  3.96800e+00  4.69300e+00 
-9.05398e+00  4.08573e+00  4.45151e+00 
-9.31566e+00  4.20350e+00  4.20314e+00 
-9.57729e+00  4.32122e+00  3.94777e+00 
-9.83899e+00  4.43900e+00  3.68553e+00 
-1.01007e+01  4.55675e+00  3.41628e+00 
-1.03624e+01  4.67456e+00  3.14015e+00 
-1.06241e+01  4.79235e+00  2.85700e+00 
-1.08860e+01  4.91022e+00  2.56695e+00 
-1.11478e+01  5.02809e+00  2.26985e+00 
-1.14098e+01  5.14605e+00  1.96584e+00 
-1.16718e+01  5.26402e+00  1.65474e+00 
-1.19339e+01  5.38210e+00  1.33669e+00 
-1.21960e+01  5.50019e+00  1.01152e+00 
-1.24583e+01  5.61840e+00  6.79364e-01 
-1.27206e+01  5.73664e+00  3.40032e-01 
-1.29831e+01  5.88954e+00  2.00637e-01 
 1.24854e+01 -5.66374e+00  2.00851e-01 
 1.22331e+01 -5.51674e+00  3.40401e-01 
 1.19808e+01 -5.40304e+00  6.80115e-01 
 1.17286e+01 -5.28933e+00  1.01264e+00 
 1.14765e+01 -5.17571e+00  1.33815e+00 
 1.12243e+01 -5.06209e+00  1.65652e+00 
 1.09723e+01 -4.94855e+00  1.96790e+00 
 1.07203e+01 -4.83499e+00  2.27217e+00 
 1.04684e+01 -4.72152e+00  2.56948e+00 
 1.02164e+01 -4.60802e+00  2.85971e+00 
 9.96455e+00 -4.49459e+00  3.14300e+00 
 9.71265e+00 -4.38113e+00  3.41923e+00 
 9.46082e+00 -4.26773e+00  3.68855e+00 
 9.20895e+00 -4.15429e+00  3.95082e+00 
 8.95714e+00 -4.04090e+00  4.20618e+00 
 8.70528e+00 -3.92747e+00  4.45451e+00 
 8.45347e+00 -3.81407e+00  4.69593e+00 
 8.20160e+00 -3.70063e+00  4.93032e+00 
 7.94977e+00 -3.58721e+00  5.15781e+00 
 7.69788e+00 -3.47374e+00  5.37827e+00 
 7.44601e+00 -3.36030e+00  5.59181e+00 
 7.19408e+00 -3.24678e+00  5.79832e+00 
 6.94216e+00 -3.13330e+00  5.99790e+00 
 6.69017e+00 -3.01973e+00  6.19044e+00 
 6.43819e+00 -2.90619e+00  6.37602e+00 
 6.18613e+00 -2.79257e+00  6.55456e+00 
 5.93408e+00 -2.67897e+00  6.72611e+00 
 5.68195e+00 -2.56528e+00  6.89061e+00 
 5.42982e+00 -2.45161e+00  7.04810e+00 
 5.17761e+00 -2.33786e+00  7.19850e+00 
 4.92540e+00 -2.22412e+00  7.34188e+00 
 4.67310e+00 -2.11030e+00  7.47816e+00 
 4.42081e+00 -1.99649e+00  7.60738e+00 
 4.16843e+00 -1.88260e+00  7.72947e+00 
 3.91605e+00 -1.76872e+00  7.84449e+00 
 3.66359e+00 -1.65476e+00  7.95235e+00 
 3.41114e+00 -1.54082e+00  8.05311e+00 
 3.15860e+00 -1.42679e+00  8.14670e+00 
 2.90608e+00 -1.31279e+00  8.23316e+00 
 2.65347e+00 -1.19871e+00  8.31244e+00 
 2.40088e+00 -1.08465e+00  8.38456e+00 
 2.14822e+00 -9.70523e-01  8.44947e+00 
 1.89557e+00 -8.56420e-01  8.50722e+00 
 1.64286e+00 -7.42249e-01  8.55774e+00 
 1.39017e+00 -6.28109e-01  8.60108e+00 
 1.13741e+00 -5.13907e-01  8.63719e+00 
 8.84695e-01 -3.99740e-01  8.66609e+00 
 6.31914e-01 -2.85516e-01  8.68777e+00 
 3.79174e-01 -1.71332e-01  8.70222e+00 
 1.26379e-01 -5.70972e-02  8.70945e+00 
-1.26379e-01  5.70972e-02  8.70945e+00 
-3.79174e-01  1.71332e-01  8.70222e+00 
-6.31914e-01  2.85516e-01  8.68777e+00 
-8.84695e-01  3.99740e-01  8.66609e+00 
-1.13741e+00  5.13907e-01  8.63719e+00 
-1.39017e+00  6.28109e-01  8.60108e+00 
-1.64286e+00  7.42249e-01  8.55774e+00 
-1.89557e+00  8.56420e-01  8.50722e+00 
-2.14822e+00  9.70523e-01  8.44947e+00 
-2.40088e+00  1.08465e+00  8.38456e+00 
-2.65347e+00  1.19871e+00  8.31244e+00 
-2.90608e+00  1.31279e+00  8.23316e+00 
-3.15860e+00  1.42679e+00  8.14670e+00 
-3.41114e+00  1.54082e+00  8.05311e+00 
-3.66359e+00  1.65476e+00  7.95235e+00 
-3.91605e+00  1.76872e+00  7.84449e+00 
-4.16843e+00  1.88260e+00  7.72947e+00 
-4.42081e+00  1.99649e+00  7.60738e+00 
-4.67310e+00  2.11030e+00  7.47816e+00 
-4.92540e+00  2.22412e+00  7.34188e+00 
-5.17761e+00  2.33786e+00  7.19850e+00 
-5.42982e+00  2.45161e+00  7.04810e+00 
-5.68195e+00  2.56528e+00  6.89061e+00 
-5.93408e+00  2.67897e+00  6.72611e+00 
-6.18613e+00  2.79257e+00  6.55456e+00 
-6.43819e+00  2.90619e+00  6.37602e+00 
-6.69017e+00  3.01973e+00  6.19044e+00 
-6.94216e+00  3.13330e+00  5.99790e+00 
-7.19408e+00  3.24678e+00  5.79832e+00 
-7.44601e+00  3.36030e+00  5.59181e+00 
-7.69788e+00  3.47374e+00  5.37827e+00 
-7.94977e+00  3.58721e+00  5.15781e+00 
-8.20160e+00  3.70063e+00  4.93032e+00 
-8.45347e+00  3.81407e+00  4.69593e+00 
-8.70528e+00  3.92747e+00  4.45451e+00 
-8.95714e+00  4.04090e+00  4.20618e+00 
-9.20895e+00  4.15429e+00  3.95082e+00 
-9.46082e+00  4.26773e+00  3.68855e+00 
-9.71265e+00  4.38113e+00  3.41923e+00 
-9.96455e+00  4.49459e+00  3.14300e+00 
-1.02164e+01  4.60802e+00  2.85971e+00 
-1.04684e+01  4.72152e+00  2.56948e+00 
-1.07203e+01  4.83499e+00  2.27217e+00 
-1.09723e+01  4.94855e+00  1.96790e+00 
-1.12243e+01  5.06209e+00  1.65652e+00 
-1.14765e+01  5.17571e+00  1.33815e+00 
-1.17286e+01  5.28933e+00  1.01264e+00 
-1.19808e+01  5.40304e+00  6.80115e-01 
-1.22331e+01  5.51674e+00  3.40401e-01 
-1.24854e+01  5.66374e+00  2.00851e-01 
 1.19872e+01 -5.43772e+00  2.00998e-01 
 1.17450e+01 -5.29664e+00  3.40646e-01 
 1.15029e+01 -5.18747e+00  6.80593e-01 
 1.12608e+01 -5.07829e+00  1.01333e+00 
 1.10187e+01 -4.96917e+00  1.33904e+00 
 1.07766e+01 -4.86002e+00  1.65758e+00 
 1.05346e+01 -4.75094e+00  1.96912e+00 
 1.02925e+01 -4.64183e+00  2.27352e+00 
 1.00505e+01 -4.53277e+00  2.57095e+00 
 9.80853e+00 -4.42368e+00  2.86127e+00 
 9.56657e+00 -4.31464e+00  3.14464e+00 
 9.32457e+00 -4.20556e+00  3.42093e+00 
 9.08262e+00 -4.09653e+00  3.69027e+00 
 8.84063e+00 -3.98746e+00  3.95255e+00 
 8.59869e+00 -3.87844e+00  4.20790e+00 
 8.35670e+00 -3.76936e+00  4.45621e+00 
 8.11475e+00 -3.66033e+00  4.69758e+00 
 7.87274e+00 -3.55124e+00  4.93191e+00 
 7.63078e+00 -3.44220e+00  5.15932e+00 
 7.38876e+00 -3.33310e+00  5.37969e+00 
 7.14677e+00 -3.22404e+00  5.59312e+00 
 6.90473e+00 -3.11492e+00  5.79951e+00 
 6.66271e+00 -3.00583e+00  5.99895e+00 
 6.42064e+00 -2.89668e+00  6.19135e+00 
 6.17859e+00 -2.78757e+00  6.37678e+00 
 5.93648e+00 -2.67840e+00  6.55516e+00 
 5.69439e+00 -2.56925e+00  6.72655e+00 
 5.45224e+00 -2.46005e+00  6.89087e+00 
 5.21012e+00 -2.35088e+00  7.04819e+00 
 4.96793e+00 -2.24164e+00  7.19843e+00 
 4.72577e+00 -2.13244e+00  7.34163e+00 
 4.48354e+00 -2.02317e+00  7.47773e+00 
 4.24134e+00 -1.91393e+00  7.60678e+00 
 3.99908e+00 -1.80464e+00  7.72871e+00 
 3.75684e+00 -1.69537e+00  7.84356e+00 
 3.51453e+00 -1.58604e+00  7.95127e+00 
 3.27226e+00 -1.47675e+00  8.05187e+00 
 3.02992e+00 -1.36740e+00  8.14532e+00 
 2.78761e+00 -1.25807e+00  8.23164e+00 
 2.54524e+00 -1.14870e+00  8.31079e+00 
 2.30290e+00 -1.03935e+00  8.38279e+00 
 2.06051e+00 -9.29954e-01  8.44760e+00 
 1.81815e+00 -8.20592e-01  8.50524e+00 
 1.57573e+00 -7.11175e-01  8.55568e+00 
 1.33335e+00 -6.01797e-01  8.59894e+00 
 1.09091e+00 -4.92368e-01  8.63499e+00 
 8.48514e-01 -3.82979e-01  8.66384e+00 
 6.06066e-01 -2.73540e-01  8.68548e+00 
 3.63663e-01 -1.64145e-01  8.69991e+00 
 1.21209e-01 -5.47017e-02  8.70712e+00 
-1.21209e-01  5.47017e-02  8.70712e+00 
-3.63663e-01  1.64145e-01  8.69991e+00 
-6.06066e-01  2.73540e-01  8.68548e+00 
-8.48514e-01  3.82979e-01  8.66384e+00 
-1.09091e+00  4.92368e-01  8.63499e+00 
-1.33335e+00  6.01797e-01  8.59894e+00 
-1.57573e+00  7.11175e-01  8.55568e+00 
-1.81815e+00  8.20592e-01  8.50524e+00 
-2.06051e+00  9.29954e-01  8.44760e+00 
-2.30290e+00  1.03935e+00  8.38279e+00 
-2.54524e+00  1.14870e+00  8.31079e+00 
-2.78761e+00  1.25807e+00  8.23164e+00 
-3.02992e+00  1.36740e+00  8.14532e+00 
-3.27226e+00  1.47675e+00  8.05187e+00 
-3.51453e+00  1.58604e+00  7.95127e+00 
-3.75684e+00  1.69537e+00  7.84356e+00 
-3.99908e+00  1.80464e+00  7.72871e+00 
-4.24134e+00  1.91393e+00  7.60678e+00 
-4.48354e+00  2.02317e+00  7.47773e+00 
-4.72577e+00  2.13244e+00  7.34163e+00 
-4.96793e+00  2.24164e+00  7.19843e+00 
-5.21012e+00  2.35088e+00  7.04819e+00 
-5.45224e+00  2.46005e+00  6.89087e+00 
-5.69439e+00  2.56925e+00  6.72655e+00 
-5.93648e+00  2.67840e+00  6.55516e+00 
-6.17859e+00  2.78757e+00  6.37678e+00 
-6.42064e+00  2.89668e+00  6.19135e+00 
-6.66271e+00  3.00583e+00  5.99895e+00 
-6.90473e+00  3.11492e+00  5.79951e+00 
-7.14677e+00  3.22404e+00  5.59312e+00 
-7.38876e+00  3.33310e+00  5.37969e+00 
-7.63078e+00  3.44220e+00  5.15932e+00 
-7.87274e+00  3.55124e+00  4.93191e+00 
-8.11475e+00  3.66033e+00  4.69758e+00 
-8.35670e+00  3.76936e+00  4.45621e+00 
-8.59869e+00  3.87844e+00  4.20790e+00 
-8.84063e+00  3.98746e+00  3.95255e+00 
-9.08262e+00  4.09653e+00  3.69027e+00 
-9.32457e+00  4.20556e+00  3.42093e+00 
-9.56657e+00  4.31464e+00  3.14464e+00 
-9.80853e+00  4.42368e+00  2.86127e+00 
-1.00505e+01  4.53277e+00  2.57095e+00 
-1.02925e+01  4.64183e+00  2.27352e+00 
-1.05346e+01  4.75094e+00  1.96912e+00 
-1.07766e+01  4.86002e+00  1.65758e+00 
-1.10187e+01  4.96917e+00  1.33904e+00 
-1.12608e+01  5.07829e+00  1.01333e+00 
-1.15029e+01  5.18747e+00  6.80593e-01 
-1.17450e+01  5.29664e+00  3.40646e-01 
-1.19872e+01  5.43772e+00  2.00998e-01 
 1.14888e+01 -5.21159e+00  2.01053e-01 
 1.12567e+01 -5.07643e+00  3.40736e-01 
 1.10248e+01 -4.97182e+00  6.80761e-01 
 1.07927e+01 -4.86717e+00  1.01356e+00 
 1.05607e+01 -4.76256e+00  1.33933e+00 
 1.03287e+01 -4.65791e+00  1.65791e+00 
 1.00967e+01 -4.55329e+00  1.96949e+00 
 9.86465e+00 -4.44863e+00  2.27392e+00 
 9.63264e+00 -4.34400e+00  2.57137e+00 
 9.40058e+00 -4.23933e+00  2.86170e+00 
 9.16855e+00 -4.13470e+00  3.14508e+00 
 8.93648e+00 -4.03001e+00  3.42136e+00 
 8.70443e+00 -3.92537e+00  3.69070e+00 
 8.47234e+00 -3.82067e+00  3.95297e+00 
 8.24028e+00 -3.71601e+00  4.20830e+00 
 8.00817e+00 -3.61131e+00  4.45658e+00 
 7.77610e+00 -3.50665e+00  4.69793e+00 
 7.54398e+00 -3.40193e+00  4.93224e+00 
 7.31189e+00 -3.29726e+00  5.15961e+00 
 7.07976e+00 -3.19254e+00  5.37995e+00 
 6.84766e+00 -3.08786e+00  5.59334e+00 
 6.61551e+00 -2.98314e+00  5.79970e+00 
 6.38341e+00 -2.87845e+00  5.99910e+00 
 6.15125e+00 -2.77373e+00  6.19146e+00 
 5.91914e+00 -2.66905e+00  6.37686e+00 
 5.68698e+00 -2.56432e+00  6.55520e+00 
 5.45486e+00 -2.45964e+00  6.72655e+00 
 5.22270e+00 -2.35491e+00  6.89084e+00 
 4.99058e+00 -2.25023e+00  7.04813e+00 
 4.75842e+00 -2.14551e+00  7.19833e+00 
 4.52630e+00 -2.04084e+00  7.34150e+00 
 4.29414e+00 -1.93613e+00  7.47758e+00 
 4.06203e+00 -1.83146e+00  7.60660e+00 
 3.82987e+00 -1.72675e+00  7.72850e+00 
 3.59776e+00 -1.62210e+00  7.84332e+00 
 3.36560e+00 -1.51740e+00  7.95101e+00 
 3.13350e+00 -1.41275e+00  8.05160e+00 
 2.90135e+00 -1.30806e+00  8.14503e+00 
 2.66925e+00 -1.20341e+00  8.23133e+00 
 2.43711e+00 -1.09873e+00  8.31046e+00 
 2.20501e+00 -9.94099e-01  8.38245e+00 
 1.97288e+00 -8.89425e-01  8.44725e+00 
 1.74079e+00 -7.84799e-01  8.50488e+00 
 1.50866e+00 -6.80132e-01  8.55531e+00 
 1.27658e+00 -5.75512e-01  8.59856e+00 
 1.04445e+00 -4.70850e-01  8.63461e+00 
 8.12369e-01 -3.66235e-01  8.66345e+00 
 5.80244e-01 -2.61577e-01  8.68509e+00 
 3.48167e-01 -1.56964e-01  8.69951e+00 
 1.16044e-01 -5.23084e-02  8.70673e+00 
-1.16044e-01  5.23084e-02  8.70673e+00 
-3.48167e-01  1.56964e-01  8.69951e+00 
-5.80244e-01  2.61577e-01  8.68509e+00 
-8.12369e-01  3.66235e-01  8.66345e+00 
-1.04445e+00  4.70850e-01  8.63461e+00 
-1.27658e+00  5.75512e-01  8.59856e+00 
-1.50866e+00  6.80132e-01  8.55531e+00 
-1.74079e+00  7.84799e-01  8.50488e+00 
-1.97288e+00  8.89425e-01  8.44725e+00 
-2.20501e+00  9.94099e-01  8.38245e+00 
-2.43711e+00  1.09873e+00  8.31046e+00 
-2.66925e+00  1.20341e+00  8.23133e+00 
-2.90135e+00  1.30806e+00  8.14503e+00 
-3.13350e+00  1.41275e+00  8.05160e+00 
-3.36560e+00  1.51740e+00  7.95101e+00 
-3.59776e+00  1.62210e+00  7.84332e+00 
-3.82987e+00  1.72675e+00  7.72850e+00 
-4.06203e+00  1.83146e+00  7.60660e+00 
-4.29414e+00  1.93613e+00  7.47758e+00 
-4.52630e+00  2.04084e+00  7.34150e+00 
-4.75842e+00  2.14551e+00  7.19833e+00 
-4.99058e+00  2.25023e+00  7.04813e+00 
-5.22270e+00  2.35491e+00  6.89084e+00 
-5.45486e+00  2.45964e+00  6.72655e+00 
-5.68698e+00  2.56432e+00  6.55520e+00 
-5.91914e+00  2.66905e+00  6.37686e+00 
-6.15125e+00  2.77373e+00  6.19146e+00 
-6.38341e+00  2.87845e+00  5.99910e+00 
-6.61551e+00  2.98314e+00  5.79970e+00 
-6.84766e+00  3.08786e+00  5.59334e+00 
-7.07976e+00  3.19254e+00  5.37995e+00 
-7.31189e+00  3.29726e+00  5.15961e+00 
-7.54398e+00  3.40193e+00  4.93224e+00 
-7.77610e+00  3.50665e+00  4.69793e+00 
-8.00817e+00  3.61131e+00  4.45658e+00 
-8.24028e+00  3.71601e+00  4.20830e+00 
-8.47234e+00  3.82067e+00  3.95297e+00 
-8.70443e+00  3.92537e+00  3.69070e+00 
-8.93648e+00  4.03001e+00  3.42136e+00 
-9.16855e+00  4.13470e+00  3.14508e+00 
-9.40058e+00  4.23933e+00  2.86170e+00 
-9.63264e+00  4.34400e+00  2.57137e+00 
-9.86465e+00  4.44863e+00  2.27392e+00 
-1.00967e+01  4.55329e+00  1.96949e+00 
-1.03287e+01  4.65791e+00  1.65791e+00 
-1.05607e+01  4.76256e+00  1.33933e+00 
-1.07927e+01  4.86717e+00  1.01356e+00 
-1.10248e+01  4.97182e+00  6.80761e-01 
-1.12567e+01  5.07643e+00  3.40736e-01 
-1.14888e+01  5.21159e+00  2.01053e-01 
 1.09904e+01 -4.98546e+00  2.00981e-01 
 1.07685e+01 -4.85623e+00  3.40623e-01 
 1.05467e+01 -4.75618e+00  6.80554e-01 
 1.03248e+01 -4.65606e+00  1.01327e+00 
 1.01028e+01 -4.55596e+00  1.33894e+00 
 9.88086e+00 -4.45580e+00  1.65744e+00 
 9.65888e+00 -4.35565e+00  1.96893e+00 
 9.43683e+00 -4.25543e+00  2.27328e+00 
 9.21479e+00 -4.15523e+00  2.57065e+00 
 8.99268e+00 -4.05497e+00  2.86092e+00 
 8.77059e+00 -3.95473e+00  3.14423e+00 
 8.54842e+00 -3.85444e+00  3.42045e+00 
 8.32628e+00 -3.75417e+00  3.68974e+00 
 8.10407e+00 -3.65384e+00  3.95198e+00 
 7.88190e+00 -3.55355e+00  4.20728e+00 
 7.65966e+00 -3.45320e+00  4.45555e+00 
 7.43746e+00 -3.35290e+00  4.69689e+00 
 7.21520e+00 -3.25255e+00  4.93120e+00 
 6.99299e+00 -3.15224e+00  5.15859e+00 
 6.77072e+00 -3.05189e+00  5.37895e+00 
 6.54851e+00 -2.95158e+00  5.59239e+00 
 6.32625e+00 -2.85125e+00  5.79879e+00 
 6.10404e+00 -2.75096e+00  5.99826e+00 
 5.88180e+00 -2.65065e+00  6.19069e+00 
 5.65961e+00 -2.55039e+00  6.37616e+00 
 5.43740e+00 -2.45010e+00  6.55459e+00 
 5.21524e+00 -2.34987e+00  6.72604e+00 
 4.99306e+00 -2.24962e+00  6.89043e+00 
 4.77094e+00 -2.14944e+00  7.04782e+00 
 4.54879e+00 -2.04923e+00  7.19814e+00 
 4.32672e+00 -1.94909e+00  7.34143e+00 
 4.10462e+00 -1.84892e+00  7.47762e+00 
 3.88259e+00 -1.74883e+00  7.60676e+00 
 3.66054e+00 -1.64871e+00  7.72878e+00 
 3.43856e+00 -1.54866e+00  7.84373e+00 
 3.21656e+00 -1.44860e+00  7.95153e+00 
 2.99462e+00 -1.34860e+00  8.05224e+00 
 2.77267e+00 -1.24858e+00  8.14578e+00 
 2.55078e+00 -1.14862e+00  8.23219e+00 
 2.32887e+00 -1.04864e+00  8.31143e+00 
 2.10703e+00 -9.48728e-01  8.38351e+00 
 1.88516e+00 -8.48789e-01  8.44840e+00 
 1.66335e+00 -7.48909e-01  8.50612e+00 
 1.44152e+00 -6.49003e-01  8.55662e+00 
 1.21974e+00 -5.49153e-01  8.59994e+00 
 9.97936e-01 -4.49272e-01  8.63603e+00 
 7.76182e-01 -3.49442e-01  8.66492e+00 
 5.54393e-01 -2.49579e-01  8.68659e+00 
 3.32653e-01 -1.49763e-01  8.70104e+00 
 1.10873e-01 -4.99083e-02  8.70827e+00 
-1.10873e-01  4.99083e-02  8.70827e+00 
-3.32653e-01  1.49763e-01  8.70104e+00 
-5.54393e-01  2.49579e-01  8.68659e+00 
-7.76182e-01  3.49442e-01  8.66492e+00 
-9.97936e-01  4.49272e-01  8.63603e+00 
-1.21974e+00  5.49153e-01  8.59994e+00 
-1.44152e+00  6.49003e-01  8.55662e+00 
-1.66335e+00  7.48909e-01  8.50612e+00 
-1.88516e+00  8.48789e-01  8.44840e+00 
-2.10703e+00  9.48728e-01  8.38351e+00 
-2.32887e+00  1.04864e+00  8.31143e+00 
-2.55078e+00  1.14862e+00  8.23219e+00 
-2.77267e+00  1.24858e+00  8.14578e+00 
-2.99462e+00  1.34860e+00  8.05224e+00 
-3.21656e+00  1.44860e+00  7.95153e+00 
-3.43856e+00  1.54866e+00  7.84373e+00 
-3.66054e+00  1.64871e+00  7.72878e+00 
-3.88259e+00  1.74883e+00  7.60676e+00 
-4.10462e+00  1.84892e+00  7.47762e+00 
-4.32672e+00  1.94909e+00  7.34143e+00 
-4.54879e+00  2.04923e+00  7.19814e+00 
-4.77094e+00  2.14944e+00  7.04782e+00 
-4.99306e+00  2.24962e+00  6.89043e+00 
-5.21524e+00  2.34987e+00  6.72604e+00 
-5.43740e+00  2.45010e+00  6.55459e+00 
-5.65961e+00  2.55039e+00  6.37616e+00 
-5.88180e+00  2.65065e+00  6.19069e+00 
-6.10404e+00  2.75096e+00  5.99826e+00 
-6.32625e+00  2.85125e+00  5.79879e+00 
-6.54851e+00  2.95158e+00  5.59239e+00 
-6.77072e+00  3.05189e+00  5.37895e+00 
-6.99299e+00  3.15224e+00  5.15859e+00 
-7.21520e+00  3.25255e+00  4.93120e+00 
-7.43746e+00  3.35290e+00  4.69689e+00 
-7.65966e+00  3.45320e+00  4.45555e+00 
-7.88190e+00  3.55355e+00  4.20728e+00 
-8.10407e+00  3.65384e+00  3.95198e+00 
-8.32628e+00  3.75417e+00  3.68974e+00 
-8.54842e+00  3.85444e+00  3.42045e+00 
-8.77059e+00  3.95473e+00  3.14423e+00 
-8.99268e+00  4.05497e+00  2.86092e+00 
-9.21479e+00  4.15523e+00  2.57065e+00 
-9.43683e+00  4.25543e+00  2.27328e+00 
-9.65888e+00  4.35565e+00  1.96893e+00 
-9.88086e+00  4.45580e+00  1.65744e+00 
-1.01028e+01  4.55596e+00  1.33894e+00 
-1.03248e+01  4.65606e+00  1.01327e+00 
-1.05467e+01  4.75618e+00  6.80554e-01 
-1.07685e+01  4.85623e+00  3.40623e-01 
-1.09904e+01  4.98546e+00  2.00981e-01 
 1.04922e+01 -4.75943e+00  2.00836e-01 
 1.02805e+01 -4.63613e+00  3.40380e-01 
 1.00688e+01 -4.54064e+00  6.80065e-01 
 9.85699e+00 -4.44505e+00  1.01253e+00 
 9.64516e+00 -4.34945e+00  1.33797e+00 
 9.43321e+00 -4.25376e+00  1.65623e+00 
 9.22124e+00 -4.15806e+00  1.96750e+00 
 9.00917e+00 -4.06227e+00  2.27165e+00 
 8.79708e+00 -3.96648e+00  2.56884e+00 
 8.58489e+00 -3.87061e+00  2.85894e+00 
 8.37270e+00 -3.77475e+00  3.14210e+00 
 8.16042e+00 -3.67881e+00  3.41821e+00 
 7.94814e+00 -3.58289e+00  3.68741e+00 
 7.73579e+00 -3.48691e+00  3.94958e+00 
 7.52346e+00 -3.39095e+00  4.20484e+00 
 7.31106e+00 -3.29494e+00  4.45310e+00 
 7.09869e+00 -3.19896e+00  4.69445e+00 
 6.88627e+00 -3.10295e+00  4.92881e+00 
 6.67389e+00 -3.00697e+00  5.15627e+00 
 6.46147e+00 -2.91097e+00  5.37672e+00 
 6.24910e+00 -2.81502e+00  5.59028e+00 
 6.03671e+00 -2.71905e+00  5.79683e+00 
 5.82437e+00 -2.62313e+00  5.99646e+00 
 5.61202e+00 -2.52721e+00  6.18907e+00 
 5.39973e+00 -2.43136e+00  6.37476e+00 
 5.18744e+00 -2.33550e+00  6.55341e+00 
 4.97522e+00 -2.23971e+00  6.72510e+00 
 4.76301e+00 -2.14393e+00  6.88974e+00 
 4.55087e+00 -2.04823e+00  7.04740e+00 
 4.33874e+00 -1.95253e+00  7.19798e+00 
 4.12670e+00 -1.85691e+00  7.34155e+00 
 3.91467e+00 -1.76130e+00  7.47802e+00 
 3.70272e+00 -1.66578e+00  7.60745e+00 
 3.49078e+00 -1.57026e+00  7.72975e+00 
 3.27894e+00 -1.47484e+00  7.84498e+00 
 3.06710e+00 -1.37941e+00  7.95306e+00 
 2.85535e+00 -1.28408e+00  8.05403e+00 
 2.64361e+00 -1.18874e+00  8.14783e+00 
 2.43196e+00 -1.09349e+00  8.23449e+00 
 2.22030e+00 -9.98239e-01  8.31396e+00 
 2.00873e+00 -9.03066e-01  8.38626e+00 
 1.79716e+00 -8.07888e-01  8.45135e+00 
 1.58566e+00 -7.12782e-01  8.50925e+00 
 1.37416e+00 -6.17665e-01  8.55992e+00 
 1.16272e+00 -5.22614e-01  8.60337e+00 
 9.51264e-01 -4.27545e-01  8.63959e+00 
 7.39871e-01 -3.32534e-01  8.66858e+00 
 5.28451e-01 -2.37497e-01  8.69032e+00 
 3.17085e-01 -1.42511e-01  8.70482e+00 
 1.05684e-01 -4.74912e-02  8.71207e+00 
-1.05684e-01  4.74912e-02  8.71207e+00 
-3.17085e-01  1.42511e-01  8.70482e+00 
-5.28451e-01  2.37497e-01  8.69032e+00 
-7.39871e-01  3.32534e-01  8.66858e+00 
-9.51264e-01  4.27545e-01  8.63959e+00 
-1.16272e+00  5.22614e-01  8.60337e+00 
-1.37416e+00  6.17665e-01  8.55992e+00 
-1.58566e+00  7.12782e-01  8.50925e+00 
-1.79716e+00  8.07888e-01  8.45135e+00 
-2.00873e+00  9.03066e-01  8.38626e+00 
-2.22030e+00  9.98239e-01  8.31396e+00 
-2.43196e+00  1.09349e+00  8.23449e+00 
-2.64361e+00  1.18874e+00  8.14783e+00 
-2.85535e+00  1.28408e+00  8.05403e+00 
-3.06710e+00  1.37941e+00  7.95306e+00 
-3.27894e+00  1.47484e+00  7.84498e+00 
-3.49078e+00  1.57026e+00  7.72975e+00 
-3.70272e+00  1.66578e+00  7.60745e+00 
-3.91467e+00  1.76130e+00  7.47802e+00 
-4.12670e+00  1.85691e+00  7.34155e+00 
-4.33874e+00  1.95253e+00  7.19798e+00 
-4.55087e+00  2.04823e+00  7.04740e+00 
-4.76301e+00  2.14393e+00  6.88974e+00 
-4.97522e+00  2.23971e+00  6.72510e+00 
-5.18744e+00  2.33550e+00  6.55341e+00 
-5.39973e+00  2.43136e+00  6.37476e+00 
-5.61202e+00  2.52721e+00  6.18907e+00 
-5.82437e+00  2.62313e+00  5.99646e+00 
-6.03671e+00  2.71905e+00  5.79683e+00 
-6.24910e+00  2.81502e+00  5.59028e+00 
-6.46147e+00  2.91097e+00  5.37672e+00 
-6.67389e+00  3.00697e+00  5.15627e+00 
-6.88627e+00  3.10295e+00  4.92881e+00 
-7.09869e+00  3.19896e+00  4.69445e+00 
-7.31106e+00  3.29494e+00  4.45310e+00 
-7.52346e+00  3.39095e+00  4.20484e+00 
-7.73579e+00  3.48691e+00  3.94958e+00 
-7.94814e+00  3.58289e+00  3.68741e+00 
-8.16042e+00  3.67881e+00  3.41821e+00 
-8.37270e+00  3.77475e+00  3.14210e+00 
-8.58489e+00  3.87061e+00  2.85894e+00 
-8.79708e+00  3.96648e+00  2.56884e+00 
-9.00917e+00  4.06227e+00  2.27165e+00 
-9.22124e+00  4.15806e+00  1.96750e+00 
-9.43321e+00  4.25376e+00  1.65623e+00 
-9.64516e+00  4.34945e+00  1.33797e+00 
-9.85699e+00  4.44505e+00  1.01253e+00 
-1.00688e+01  4.54064e+00  6.80065e-01 
-1.02805e+01  4.63613e+00  3.40380e-01 
-1.04922e+01  4.75943e+00  2.00836e-01 
 9.99447e+00 -4.53363e+00  2.00571e-01 
 9.79299e+00 -4.41625e+00  3.39933e-01 
 9.59143e+00 -4.32531e+00  6.79171e-01 
 9.38971e+00 -4.23424e+00  1.01120e+00 
 9.18792e+00 -4.14312e+00  1.33620e+00 
 8.98599e+00 -4.05188e+00  1.65407e+00 
 8.78398e+00 -3.96060e+00  1.96496e+00 
 8.58184e+00 -3.86921e+00  2.26876e+00 
 8.37965e+00 -3.77778e+00  2.56564e+00 
 8.17733e+00 -3.68626e+00  2.85547e+00 
 7.97498e+00 -3.59472e+00  3.13840e+00 
 7.77253e+00 -3.50310e+00  3.41432e+00 
 7.57006e+00 -3.41148e+00  3.68338e+00 
 7.36750e+00 -3.31979e+00  3.94545e+00 
 7.16495e+00 -3.22811e+00  4.20066e+00 
 6.96232e+00 -3.13639e+00  4.44891e+00 
 6.75972e+00 -3.04469e+00  4.69031e+00 
 6.55707e+00 -2.95296e+00  4.92476e+00 
 6.35447e+00 -2.86128e+00  5.15235e+00 
 6.15183e+00 -2.76958e+00  5.37298e+00 
 5.94926e+00 -2.67794e+00  5.58675e+00 
 5.74667e+00 -2.58629e+00  5.79356e+00 
 5.54415e+00 -2.49472e+00  5.99348e+00 
 5.34164e+00 -2.40316e+00  6.18643e+00 
 5.13922e+00 -2.31168e+00  6.37246e+00 
 4.93682e+00 -2.22022e+00  6.55150e+00 
 4.73452e+00 -2.12887e+00  6.72360e+00 
 4.53224e+00 -2.03753e+00  6.88866e+00 
 4.33008e+00 -1.94630e+00  7.04676e+00 
 4.12795e+00 -1.85511e+00  7.19780e+00 
 3.92593e+00 -1.76402e+00  7.34184e+00 
 3.72396e+00 -1.67297e+00  7.47878e+00 
 3.52210e+00 -1.58203e+00  7.60868e+00 
 3.32029e+00 -1.49113e+00  7.73145e+00 
 3.11859e+00 -1.40033e+00  7.84714e+00 
 2.91694e+00 -1.30958e+00  7.95568e+00 
 2.71540e+00 -1.21893e+00  8.05709e+00 
 2.51390e+00 -1.12831e+00  8.15131e+00 
 2.31252e+00 -1.03780e+00  8.23838e+00 
 2.11116e+00 -9.47310e-01  8.31823e+00 
 1.90990e+00 -8.56919e-01  8.39088e+00 
 1.70867e+00 -7.66544e-01  8.45630e+00 
 1.50753e+00 -6.76258e-01  8.51450e+00 
 1.30640e+00 -5.85978e-01  8.56543e+00 
 1.10536e+00 -4.95776e-01  8.60912e+00 
 9.04317e-01 -4.05571e-01  8.64553e+00 
 7.03343e-01 -3.15432e-01  8.67468e+00 
 5.02354e-01 -2.25277e-01  8.69654e+00 
 3.01423e-01 -1.35176e-01  8.71111e+00 
 1.00463e-01 -4.50463e-02  8.71840e+00 
-1.00463e-01  4.50463e-02  8.71840e+00 
-3.01423e-01  1.35176e-01  8.71111e+00 
-5.02354e-01  2.25277e-01  8.69654e+00 
-7.03343e-01  3.15432e-01  8.67468e+00 
-9.04317e-01  4.05571e-01  8.64553e+00 
-1.10536e+00  4.95776e-01  8.60912e+00 
-1.30640e+00  5.85978e-01  8.56543e+00 
-1.50753e+00  6.76258e-01  8.51450e+00 
-1.70867e+00  7.66544e-01  8.45630e+00 
-1.90990e+00  8.56919e-01  8.39088e+00 
-2.11116e+00  9.47310e-01  8.31823e+00 
-2.31252e+00  1.03780e+00  8.23838e+00 
-2.51390e+00  1.12831e+00  8.15131e+00 
-2.71540e+00  1.21893e+00  8.05709e+00 
-2.91694e+00  1.30958e+00  7.95568e+00 
-3.11859e+00  1.40033e+00  7.84714e+00 
-3.32029e+00  1.49113e+00  7.73145e+00 
-3.52210e+00  1.58203e+00  7.60868e+00 
-3.72396e+00  1.67297e+00  7.47878e+00 
-3.92593e+00  1.76402e+00  7.34184e+00 
-4.12795e+00  1.85511e+00  7.19780e+00 
-4.33008e+00  1.94630e+00  7.04676e+00 
-4.53224e+00  2.03753e+00  6.88866e+00 
-4.73452e+00  2.12887e+00  6.72360e+00 
-4.93682e+00  2.22022e+00  6.55150e+00 
-5.13922e+00  2.31168e+00  6.37246e+00 
-5.34164e+00  2.40316e+00  6.18643e+00 
-5.54415e+00  2.49472e+00  5.99348e+00 
-5.74667e+00  2.58629e+00  5.79356e+00 
-5.94926e+00  2.67794e+00  5.58675e+00 
-6.15183e+00  2.76958e+00  5.37298e+00 
-6.35447e+00  2.86128e+00  5.15235e+00 
-6.55707e+00  2.95296e+00  4.92476e+00 
-6.75972e+00  3.04469e+00  4.69031e+00 
-6.96232e+00  3.13639e+00  4.44891e+00 
-7.16495e+00  3.22811e+00  4.20066e+00 
-7.36750e+00  3.31979e+00  3.94545e+00 
-7.57006e+00  3.41148e+00  3.68338e+00 
-7.77253e+00  3.50310e+00  3.41432e+00 
-7.97498e+00  3.59472e+00  3.13840e+00 
-8.17733e+00  3.68626e+00  2.85547e+00 
-8.37965e+00  3.77778e+00  2.56564e+00 
-8.58184e+00  3.86921e+00  2.26876e+00 
-8.78398e+00  3.96060e+00  1.96496e+00 
-8.98599e+00  4.05188e+00  1.65407e+00 
-9.18792e+00  4.14312e+00  1.33620e+00 
-9.38971e+00  4.23424e+00  1.01120e+00 
-9.59143e+00  4.32531e+00  6.79171e-01 
-9.79299e+00  4.41625e+00  3.39933e-01 
-9.99447e+00  4.53363e+00  2.00571e-01 
 9.49766e+00 -4.30821e+00  2.00123e-01 
 9.30635e+00 -4.19676e+00  3.39187e-01 
 9.11491e+00 -4.11035e+00  6.77707e-01 
 8.92324e+00 -4.02376e+00  1.00904e+00 
 8.73145e+00 -3.93708e+00  1.33340e+00 
 8.53946e+00 -3.85025e+00  1.65064e+00 
 8.34735e+00 -3.76333e+00  1.96097e+00 
 8.15507e+00 -3.67627e+00  2.26425e+00 
 7.96269e+00 -3.58915e+00  2.56067e+00 
 7.77015e+00 -3.50191e+00  2.85010e+00 
 7.57755e+00 -3.41463e+00  3.13270e+00 
 7.38482e+00 -3.32725e+00  3.40836e+00 
 7.19205e+00 -3.23985e+00  3.67721e+00 
 6.99918e+00 -3.15238e+00  3.93915e+00 
 6.80631e+00 -3.06491e+00  4.19432e+00 
 6.61336e+00 -2.97739e+00  4.44258e+00 
 6.42043e+00 -2.88991e+00  4.68406e+00 
 6.22745e+00 -2.80239e+00  4.91866e+00 
 6.03453e+00 -2.71493e+00  5.14647e+00 
 5.84159e+00 -2.62747e+00  5.36738e+00 
 5.64872e+00 -2.54008e+00  5.58150e+00 
 5.45586e+00 -2.45271e+00  5.78870e+00 
 5.26310e+00 -2.36543e+00  5.98907e+00 
 5.07037e+00 -2.27818e+00  6.18251e+00 
 4.87776e+00 -2.19105e+00  6.36909e+00 
 4.68520e+00 -2.10396e+00  6.54870e+00 
 4.49277e+00 -2.01700e+00  6.72141e+00 
 4.30040e+00 -1.93010e+00  6.88712e+00 
 4.10818e+00 -1.84334e+00  7.04588e+00 
 3.91603e+00 -1.75664e+00  7.19760e+00 
 3.72404e+00 -1.67008e+00  7.34232e+00 
 3.53212e+00 -1.58360e+00  7.47996e+00 
 3.34036e+00 -1.49726e+00  7.61055e+00 
 3.14869e+00 -1.41099e+00  7.73402e+00 
 2.95717e+00 -1.32486e+00  7.85038e+00 
 2.76573e+00 -1.23880e+00  7.95958e+00 
 2.57444e+00 -1.15288e+00  8.06164e+00 
 2.38323e+00 -1.06702e+00  8.15648e+00 
 2.19216e+00 -9.81298e-01  8.24413e+00 
 2.00115e+00 -8.95626e-01  8.32454e+00 
 1.81028e+00 -8.10075e-01  8.39771e+00 
 1.61946e+00 -7.24566e-01  8.46360e+00 
 1.42875e+00 -6.39164e-01  8.52223e+00 
 1.23808e+00 -5.53791e-01  8.57355e+00 
 1.04752e+00 -4.68511e-01  8.61757e+00 
 8.56966e-01 -3.83244e-01  8.65427e+00 
 6.66499e-01 -2.98053e-01  8.68364e+00 
 4.76030e-01 -2.12857e-01  8.70567e+00 
 2.85625e-01 -1.27720e-01  8.72037e+00 
 9.51970e-02 -4.25613e-02  8.72771e+00 
-9.51970e-02  4.25613e-02  8.72771e+00 
-2.85625e-01  1.27720e-01  8.72037e+00 
-4.76030e-01  2.12857e-01  8.70567e+00 
-6.66499e-01  2.98053e-01  8.68364e+00 
-8.56966e-01  3.83244e-01  8.65427e+00 
-1.04752e+00  4.68511e-01  8.61757e+00 
-1.23808e+00  5.53791e-01  8.57355e+00 
-1.42875e+00  6.39164e-01  8.52223e+00 
-1.61946e+00  7.24566e-01  8.46360e+00 
-1.81028e+00  8.10075e-01  8.39771e+00 
-2.00115e+00  8.95626e-01  8.32454e+00 
-2.19216e+00  9.81298e-01  8.24413e+00 
-2.38323e+00  1.06702e+00  8.15648e+00 
-2.57444e+00  1.15288e+00  8.06164e+00 
-2.76573e+00  1.23880e+00  7.95958e+00 
-2.95717e+00  1.32486e+00  7.85038e+00 
-3.14869e+00  1.41099e+00  7.73402e+00 
-3.34036e+00  1.49726e+00  7.61055e+00 
-3.53212e+00  1.58360e+00  7.47996e+00 
-3.72404e+00  1.67008e+00  7.34232e+00 
-3.91603e+00  1.75664e+00  7.19760e+00 
-4.10818e+00  1.84334e+00  7.04588e+00 
-4.30040e+00  1.93010e+00  6.88712e+00 
-4.49277e+00  2.01700e+00  6.72141e+00 
-4.68520e+00  2.10396e+00  6.54870e+00 
-4.87776e+00  2.19105e+00  6.36909e+00 
-5.07037e+00  2.27818e+00  6.18251e+00 
-5.26310e+00  2.36543e+00  5.98907e+00 
-5.45586e+00  2.45271e+00  5.78870e+00 
-5.64872e+00  2.54008e+00  5.58150e+00 
-5.84159e+00  2.62747e+00  5.36738e+00 
-6.03453e+00  2.71493e+00  5.14647e+00 
-6.22745e+00  2.80239e+00  4.91866e+00 
-6.42043e+00  2.88991e+00  4.68406e+00 
-6.61336e+00  2.97739e+00  4.44258e+00 
-6.80631e+00  3.06491e+00  4.19432e+00 
-6.99918e+00  3.15238e+00  3.93915e+00 
-7.19205e+00  3.23985e+00  3.67721e+00 
-7.38482e+00  3.32725e+00  3.40836e+00 
-7.57755e+00  3.41463e+00  3.13270e+00 
-7.77015e+00  3.50191e+00  2.85010e+00 
-7.96269e+00  3.58915e+00  2.56067e+00 
-8.15507e+00  3.67627e+00  2.26425e+00 
-8.34735e+00  3.76333e+00  1.96097e+00 
-8.53946e+00  3.85025e+00  1.65064e+00 
-8.73145e+00  3.93708e+00  1.33340e+00 
-8.92324e+00  4.02376e+00  1.00904e+00 
-9.11491e+00  4.11035e+00  6.77707e-01 
-9.30635e+00  4.19676e+00  3.39187e-01 
-9.49766e+00  4.30821e+00  2.00123e-01 
 9.00214e+00 -4.08338e+00  1.99501e-01 
 8.82098e+00 -3.97783e+00  3.38142e-01 
 8.63959e+00 -3.89591e+00  6.75627e-01 
 8.45792e+00 -3.81377e+00  1.00597e+00 
 8.27605e+00 -3.73148e+00  1.32937e+00 
 8.09391e+00 -3.64899e+00  1.64574e+00 
 7.91159e+00 -3.56636e+00  1.95526e+00 
 7.72904e+00 -3.48355e+00  2.25781e+00 
 7.54635e+00 -3.40065e+00  2.55358e+00 
 7.36346e+00 -3.31759e+00  2.84246e+00 
 7.18047e+00 -3.23446e+00  3.12461e+00 
 6.99732e+00 -3.15121e+00  3.39991e+00 
 6.81411e+00 -3.06793e+00  3.66851e+00 
 6.63078e+00 -2.98457e+00  3.93029e+00 
 6.44743e+00 -2.90121e+00  4.18540e+00 
 6.26401e+00 -2.81779e+00  4.43371e+00 
 6.08061e+00 -2.73442e+00  4.67534e+00 
 5.89718e+00 -2.65102e+00  4.91018e+00 
 5.71381e+00 -2.56769e+00  5.13832e+00 
 5.53044e+00 -2.48438e+00  5.35965e+00 
 5.34717e+00 -2.40116e+00  5.57427e+00 
 5.16394e+00 -2.31799e+00  5.78205e+00 
 4.98083e+00 -2.23494e+00  5.98308e+00 
 4.79780e+00 -2.15196e+00  6.17723e+00 
 4.61491e+00 -2.06912e+00  6.36458e+00 
 4.43213e+00 -1.98636e+00  6.54502e+00 
 4.24952e+00 -1.90377e+00  6.71859e+00 
 4.06702e+00 -1.82128e+00  6.88520e+00 
 3.88471e+00 -1.73897e+00  7.04489e+00 
 3.70253e+00 -1.65676e+00  7.19756e+00 
 3.52055e+00 -1.57474e+00  7.34324e+00 
 3.33870e+00 -1.49283e+00  7.48185e+00 
 3.15705e+00 -1.41111e+00  7.61340e+00 
 2.97554e+00 -1.32951e+00  7.73782e+00 
 2.79424e+00 -1.24808e+00  7.85513e+00 
 2.61306e+00 -1.16677e+00  7.96524e+00 
 2.43208e+00 -1.08563e+00  8.06818e+00 
 2.25122e+00 -1.00460e+00  8.16387e+00 
 2.07054e+00 -9.23723e-01  8.25233e+00 
 1.88997e+00 -8.42941e-01  8.33350e+00 
 1.70957e+00 -7.62308e-01  8.40738e+00 
 1.52925e+00 -6.81748e-01  8.47392e+00 
 1.34908e+00 -6.01320e-01  8.53314e+00 
 1.16898e+00 -5.20945e-01  8.58498e+00 
 9.88997e-01 -4.40682e-01  8.62946e+00 
 8.09058e-01 -3.60451e-01  8.66654e+00 
 6.29218e-01 -2.80309e-01  8.69622e+00 
 4.49392e-01 -2.00176e-01  8.71849e+00 
 2.69637e-01 -1.20107e-01  8.73334e+00 
 8.98677e-02 -4.00237e-02  8.74077e+00 
-8.98677e-02  4.00237e-02  8.74077e+00 
-2.69637e-01  1.20107e-01  8.73334e+00 
-4.49392e-01  2.00176e-01  8.71849e+00 
-6.29218e-01  2.80309e-01  8.69622e+00 
-8.09058e-01  3.60451e-01  8.66654e+00 
-9.88997e-01  4.40682e-01  8.62946e+00 
-1.16898e+00  5.20945e-01  8.58498e+00 
-1.34908e+00  6.01320e-01  8.53314e+00 
-1.52925e+00  6.81748e-01  8.47392e+00 
-1.70957e+00  7.62308e-01  8.40738e+00 
-1.88997e+00  8.42941e-01  8.33350e+00 
-2.07054e+00  9.23723e-01  8.25233e+00 
-2.25122e+00  1.00460e+00  8.16387e+00 
-2.43208e+00  1.08563e+00  8.06818e+00 
-2.61306e+00  1.16677e+00  7.96524e+00 
-2.79424e+00  1.24808e+00  7.85513e+00 
-2.97554e+00  1.32951e+00  7.73782e+00 
-3.15705e+00  1.41111e+00  7.61340e+00 
-3.33870e+00  1.49283e+00  7.48185e+00 
-3.52055e+00  1.57474e+00  7.34324e+00 
-3.70253e+00  1.65676e+00  7.19756e+00 
-3.88471e+00  1.73897e+00  7.04489e+00 
-4.06702e+00  1.82128e+00  6.88520e+00 
-4.24952e+00  1.90377e+00  6.71859e+00 
-4.43213e+00  1.98636e+00  6.54502e+00 
-4.61491e+00  2.06912e+00  6.36458e+00 
-4.79780e+00  2.15196e+00  6.17723e+00 
-4.98083e+00  2.23494e+00  5.98308e+00 
-5.16394e+00  2.31799e+00  5.78205e+00 
-5.34717e+00  2.40116e+00  5.57427e+00 
-5.53044e+00  2.48438e+00  5.35965e+00 
-5.71381e+00  2.56769e+00  5.13832e+00 
-5.89718e+00  2.65102e+00  4.91018e+00 
-6.08061e+00  2.73442e+00  4.67534e+00 
-6.26401e+00  2.81779e+00  4.43371e+00 
-6.44743e+00  2.90121e+00  4.18540e+00 
-6.63078e+00  2.98457e+00  3.93029e+00 
-6.81411e+00  3.06793e+00  3.66851e+00 
-6.99732e+00  3.15121e+00  3.39991e+00 
-7.18047e+00  3.23446e+00  3.12461e+00 
-7.36346e+00  3.31759e+00  2.84246e+00 
-7.54635e+00  3.40065e+00  2.55358e+00 
-7.72904e+00  3.48355e+00  2.25781e+00 
-7.91159e+00  3.56636e+00  1.95526e+00 
-8.09391e+00  3.64899e+00  1.64574e+00 
-8.27605e+00  3.73148e+00  1.32937e+00 
-8.45792e+00  3.81377e+00  1.00597e+00 
-8.63959e+00  3.89591e+00  6.75627e-01 
-8.82098e+00  3.97783e+00  3.38142e-01 
-9.00214e+00  4.08338e+00  1.99501e-01 
 8.50851e+00 -3.85939e+00  1.98618e-01 
 8.33745e+00 -3.75971e+00  3.36656e-01 
 8.16605e+00 -3.68225e+00  6.72672e-01 
 7.99427e+00 -3.60449e+00  1.00161e+00 
 7.82218e+00 -3.52650e+00  1.32369e+00 
 7.64975e+00 -3.44825e+00  1.63884e+00 
 7.47706e+00 -3.36980e+00  1.94724e+00 
 7.30408e+00 -3.29112e+00  2.24880e+00 
 7.13089e+00 -3.21230e+00  2.54371e+00 
 6.95745e+00 -3.13329e+00  2.83185e+00 
 6.78387e+00 -3.05418e+00  3.11339e+00 
 6.61010e+00 -2.97492e+00  3.38823e+00 
 6.43624e+00 -2.89562e+00  3.65652e+00 
 6.26225e+00 -2.81622e+00  3.91813e+00 
 6.08823e+00 -2.73682e+00  4.17320e+00 
 5.91414e+00 -2.65738e+00  4.42162e+00 
 5.74008e+00 -2.57798e+00  4.66349e+00 
 5.56601e+00 -2.49858e+00  4.89869e+00 
 5.39201e+00 -2.41926e+00  5.12732e+00 
 5.21806e+00 -2.33999e+00  5.34926e+00 
 5.04423e+00 -2.26085e+00  5.56460e+00 
 4.87048e+00 -2.18178e+00  5.77319e+00 
 4.69691e+00 -2.10288e+00  5.97513e+00 
 4.52346e+00 -2.02409e+00  6.17027e+00 
 4.35021e+00 -1.94549e+00  6.35869e+00 
 4.17712e+00 -1.86702e+00  6.54026e+00 
 4.00427e+00 -1.78876e+00  6.71502e+00 
 3.83158e+00 -1.71066e+00  6.88285e+00 
 3.65916e+00 -1.63278e+00  7.04380e+00 
 3.48692e+00 -1.55507e+00  7.19775e+00 
 3.31495e+00 -1.47760e+00  7.34473e+00 
 3.14318e+00 -1.40029e+00  7.48463e+00 
 2.97167e+00 -1.32322e+00  7.61748e+00 
 2.80037e+00 -1.24632e+00  7.74317e+00 
 2.62933e+00 -1.16965e+00  7.86173e+00 
 2.45848e+00 -1.09315e+00  7.97305e+00 
 2.28788e+00 -1.01686e+00  8.07717e+00 
 2.11746e+00 -9.40726e-01  8.17398e+00 
 1.94728e+00 -8.64796e-01  8.26350e+00 
 1.77725e+00 -7.88996e-01  8.34567e+00 
 1.60743e+00 -7.13382e-01  8.42048e+00 
 1.43775e+00 -6.37878e-01  8.48788e+00 
 1.26825e+00 -5.62534e-01  8.54787e+00 
 1.09885e+00 -4.87274e-01  8.60040e+00 
 9.29609e-01 -4.12148e-01  8.64547e+00 
 7.60433e-01 -3.37077e-01  8.68305e+00 
 5.91375e-01 -2.62110e-01  8.71314e+00 
 4.22350e-01 -1.87168e-01  8.73571e+00 
 2.53406e-01 -1.12298e-01  8.75076e+00 
 8.44571e-02 -3.74204e-02  8.75829e+00 
-8.44571e-02  3.74204e-02  8.75829e+00 
-2.53406e-01  1.12298e-01  8.75076e+00 
-4.22350e-01  1.87168e-01  8.73571e+00 
-5.91375e-01  2.62110e-01  8.71314e+00 
-7.60433e-01  3.37077e-01  8.68305e+00 
-9.29609e-01  4.12148e-01  8.64547e+00 
-1.09885e+00  4.87274e-01  8.60040e+00 
-1.26825e+00  5.62534e-01  8.54787e+00 
-1.43775e+00  6.37878e-01  8.48788e+00 
-1.60743e+00  7.13382e-01  8.42048e+00 
-1.77725e+00  7.88996e-01  8.34567e+00 
-1.94728e+00  8.64796e-01  8.26350e+00 
-2.11746e+00  9.40726e-01  8.17398e+00 
-2.28788e+00  1.01686e+00  8.07717e+00 
-2.45848e+00  1.09315e+00  7.97305e+00 
-2.62933e+00  1.16965e+00  7.86173e+00 
-2.80037e+00  1.24632e+00  7.74317e+00 
-2.97167e+00  1.32322e+00  7.61748e+00 
-3.14318e+00  1.40029e+00  7.48463e+00 
-3.31495e+00  1.47760e+00  7.34473e+00 
-3.48692e+00  1.55507e+00  7.19775e+00 
-3.65916e+00  1.63278e+00  7.04380e+00 
-3.83158e+00  1.71066e+00  6.88285e+00 
-4.00427e+00  1.78876e+00  6.71502e+00 
-4.17712e+00  1.86702e+00  6.54026e+00 
-4.35021e+00  1.94549e+00  6.35869e+00 
-4.52346e+00  2.02409e+00  6.17027e+00 
-4.69691e+00  2.10288e+00  5.97513e+00 
-4.87048e+00  2.18178e+00  5.77319e+00 
-5.04423e+00  2.26085e+00  5.56460e+00 
-5.21806e+00  2.33999e+00  5.34926e+00 
-5.39201e+00  2.41926e+00  5.12732e+00 
-5.56601e+00  2.49858e+00  4.89869e+00 
-5.74008e+00  2.57798e+00  4.66349e+00 
-5.91414e+00  2.65738e+00  4.42162e+00 
-6.08823e+00  2.73682e+00  4.17320e+00 
-6.26225e+00  2.81622e+00  3.91813e+00 
-6.43624e+00  2.89562e+00  3.65652e+00 
-6.61010e+00  2.97492e+00  3.38823e+00 
-6.78387e+00  3.05418e+00  3.11339e+00 
-6.95745e+00  3.13329e+00  2.83185e+00 
-7.13089e+00  3.21230e+00  2.54371e+00 
-7.30408e+00  3.29112e+00  2.24880e+00 
-7.47706e+00  3.36980e+00  1.94724e+00 
-7.64975e+00  3.44825e+00  1.63884e+00 
-7.82218e+00  3.52650e+00  1.32369e+00 
-7.99427e+00  3.60449e+00  1.00161e+00 
-8.16605e+00  3.68225e+00  6.72672e-01 
-8.33745e+00  3.75971e+00  3.36656e-01 
-8.50851e+00  3.85939e+00  1.98618e-01 
 8.01760e+00 -3.63662e+00  1.97367e-01 
 7.85653e+00 -3.54275e+00  3.34555e-01 
 7.69499e+00 -3.46967e+00  6.68519e-01 
 7.53293e+00 -3.39618e+00  9.95516e-01 
 7.37044e+00 -3.32238e+00  1.31580e+00 
 7.20751e+00 -3.24822e+00  1.62929e+00 
 7.04422e+00 -3.17380e+00  1.93620e+00 
 6.88055e+00 -3.09909e+00  2.23643e+00 
 6.71660e+00 -3.02418e+00  2.53020e+00 
 6.55235e+00 -2.94903e+00  2.81738e+00 
 6.38789e+00 -2.87375e+00  3.09817e+00 
 6.22322e+00 -2.79830e+00  3.37244e+00 
 6.05844e+00 -2.72278e+00  3.64036e+00 
 5.89351e+00 -2.64717e+00  3.90179e+00 
 5.72855e+00 -2.57155e+00  4.15688e+00 
 5.56354e+00 -2.49590e+00  4.40549e+00 
 5.39856e+00 -2.42031e+00  4.64773e+00 
 5.23361e+00 -2.34475e+00  4.88348e+00 
 5.06877e+00 -2.26930e+00  5.11282e+00 
 4.90401e+00 -2.19394e+00  5.33562e+00 
 4.73944e+00 -2.11875e+00  5.55196e+00 
 4.57501e+00 -2.04368e+00  5.76168e+00 
 4.41081e+00 -1.96883e+00  5.96486e+00 
 4.24681e+00 -1.89415e+00  6.16136e+00 
 4.08309e+00 -1.81972e+00  6.35121e+00 
 3.91960e+00 -1.74549e+00  6.53429e+00 
 3.75642e+00 -1.67153e+00  6.71063e+00 
 3.59350e+00 -1.59780e+00  6.88009e+00 
 3.43092e+00 -1.52435e+00  7.04271e+00 
 3.26861e+00 -1.45115e+00  7.19834e+00 
 3.10665e+00 -1.37824e+00  7.34702e+00 
 2.94498e+00 -1.30557e+00  7.48861e+00 
 2.78366e+00 -1.23320e+00  7.62314e+00 
 2.62261e+00 -1.16106e+00  7.75048e+00 
 2.46191e+00 -1.08922e+00  7.87065e+00 
 2.30148e+00 -1.01760e+00  7.98354e+00 
 2.14137e+00 -9.46261e-01  8.08916e+00 
 1.98151e+00 -8.75125e-01  8.18741e+00 
 1.82194e+00 -8.04243e-01  8.27830e+00 
 1.66260e+00 -7.33543e-01  8.36174e+00 
 1.50353e+00 -6.63071e-01  8.43774e+00 
 1.34464e+00 -5.92751e-01  8.50622e+00 
 1.18598e+00 -5.22627e-01  8.56719e+00 
 1.02747e+00 -4.52622e-01  8.62059e+00 
 8.69140e-01 -3.82777e-01  8.66642e+00 
 7.10916e-01 -3.13013e-01  8.70463e+00 
 5.52834e-01 -2.43372e-01  8.73523e+00 
 3.94807e-01 -1.73773e-01  8.75819e+00 
 2.36873e-01 -1.04256e-01  8.77350e+00 
 7.89458e-02 -3.47395e-02  8.78116e+00 
-7.89458e-02  3.47395e-02  8.78116e+00 
-2.36873e-01  1.04256e-01  8.77350e+00 
-3.94807e-01  1.73773e-01  8.75819e+00 
-5.52834e-01  2.43372e-01  8.73523e+00 
-7.10916e-01  3.13013e-01  8.70463e+00 
-8.69140e-01  3.82777e-01  8.66642e+00 
-1.02747e+00  4.52622e-01  8.62059e+00 
-1.18598e+00  5.22627e-01  8.56719e+00 
-1.34464e+00  5.92751e-01  8.50622e+00 
-1.50353e+00  6.63071e-01  8.43774e+00 
-1.66260e+00  7.33543e-01  8.36174e+00 
-1.82194e+00  8.04243e-01  8.27830e+00 
-1.98151e+00  8.75125e-01  8.18741e+00 
-2.14137e+00  9.46261e-01  8.08916e+00 
-2.30148e+00  1.01760e+00  7.98354e+00 
-2.46191e+00  1.08922e+00  7.87065e+00 
-2.62261e+00  1.16106e+00  7.75048e+00 
-2.78366e+00  1.23320e+00  7.62314e+00 
-2.94498e+00  1.30557e+00  7.48861e+00 
-3.10665e+00  1.37824e+00  7.34702e+00 
-3.26861e+00  1.45115e+00  7.19834e+00 
-3.43092e+00  1.52435e+00  7.04271e+00 
-3.59350e+00  1.59780e+00  6.88009e+00 
-3.75642e+00  1.67153e+00  6.71063e+00 
-3.91960e+00  1.74549e+00  6.53429e+00 
-4.08309e+00  1.81972e+00  6.35121e+00 
-4.24681e+00  1.89415e+00  6.16136e+00 
-4.41081e+00  1.96883e+00  5.96486e+00 
-4.57501e+00  2.04368e+00  5.76168e+00 
-4.73944e+00  2.11875e+00  5.55196e+00 
-4.90401e+00  2.19394e+00  5.33562e+00 
-5.06877e+00  2.26930e+00  5.11282e+00 
-5.23361e+00  2.34475e+00  4.88348e+00 
-5.39856e+00  2.42031e+00  4.64773e+00 
-5.56354e+00  2.49590e+00  4.40549e+00 
-5.72855e+00  2.57155e+00  4.15688e+00 
-5.89351e+00  2.64717e+00  3.90179e+00 
-6.05844e+00  2.72278e+00  3.64036e+00 
-6.22322e+00  2.79830e+00  3.37244e+00 
-6.38789e+00  2.87375e+00  3.09817e+00 
-6.55235e+00  2.94903e+00  2.81738e+00 
-6.71660e+00  3.02418e+00  2.53020e+00 
-6.88055e+00  3.09909e+00  2.23643e+00 
-7.04422e+00  3.17380e+00  1.93620e+00 
-7.20751e+00  3.24822e+00  1.62929e+00 
-7.37044e+00  3.32238e+00  1.31580e+00 
-7.53293e+00  3.39618e+00  9.95516e-01 
-7.69499e+00  3.46967e+00  6.68519e-01 
-7.85653e+00  3.54275e+00  3.34555e-01 
-8.01760e+00  3.63662e+00  1.97367e-01 
 7.53041e+00 -3.41553e+00  1.95690e-01 
 7.37918e+00 -3.32737e+00  3.31726e-01 
 7.22727e+00 -3.25855e+00  6.62901e-01 
 7.07469e+00 -3.18920e+00  9.87281e-01 
 6.92153e+00 -3.11941e+00  1.30514e+00 
 6.76778e+00 -3.04917e+00  1.61643e+00 
 6.61356e+00 -2.97857e+00  1.92137e+00 
 6.45886e+00 -2.90760e+00  2.21989e+00 
 6.30379e+00 -2.83636e+00  2.51218e+00 
 6.14835e+00 -2.76484e+00  2.79817e+00 
 5.99266e+00 -2.69314e+00  3.07802e+00 
 5.83671e+00 -2.62126e+00  3.35162e+00 
 5.68063e+00 -2.54929e+00  3.61912e+00 
 5.52440e+00 -2.47722e+00  3.88041e+00 
 5.36815e+00 -2.40516e+00  4.13560e+00 
 5.21187e+00 -2.33309e+00  4.38456e+00 
 5.05567e+00 -2.26110e+00  4.62739e+00 
 4.89953e+00 -2.18919e+00  4.86393e+00 
 4.74356e+00 -2.11744e+00  5.09428e+00 
 4.58775e+00 -2.04583e+00  5.31828e+00 
 4.43220e+00 -1.97444e+00  5.53599e+00 
 4.27687e+00 -1.90326e+00  5.74725e+00 
 4.12187e+00 -1.83236e+00  5.95210e+00 
 3.96716e+00 -1.76171e+00  6.15039e+00 
 3.81283e+00 -1.69138e+00  6.34215e+00 
 3.65884e+00 -1.62134e+00  6.52722e+00 
 3.50526e+00 -1.55165e+00  6.70562e+00 
 3.35205e+00 -1.48227e+00  6.87720e+00 
 3.19929e+00 -1.41327e+00  7.04196e+00 
 3.04691e+00 -1.34458e+00  7.19976e+00 
 2.89498e+00 -1.27628e+00  7.35061e+00 
 2.74345e+00 -1.20830e+00  7.49436e+00 
 2.59237e+00 -1.14070e+00  7.63101e+00 
 2.44167e+00 -1.07341e+00  7.76044e+00 
 2.29141e+00 -1.00648e+00  7.88264e+00 
 2.14151e+00 -9.39853e-01  7.99750e+00 
 1.99203e+00 -8.73566e-01  8.10500e+00 
 1.84288e+00 -8.07551e-01  8.20504e+00 
 1.69410e+00 -7.41849e-01  8.29762e+00 
 1.54562e+00 -6.76385e-01  8.38265e+00 
 1.39748e+00 -6.11198e-01  8.46011e+00 
 1.24958e+00 -5.46212e-01  8.52993e+00 
 1.10197e+00 -4.81463e-01  8.59210e+00 
 9.54555e-01 -4.16870e-01  8.64657e+00 
 8.07371e-01 -3.52470e-01  8.69332e+00 
 6.60328e-01 -2.88180e-01  8.73232e+00 
 5.13455e-01 -2.24032e-01  8.76354e+00 
 3.66663e-01 -1.59947e-01  8.78697e+00 
 2.19979e-01 -9.59543e-02  8.80260e+00 
 7.33138e-02 -3.19721e-02  8.81042e+00 
-7.33138e-02  3.19721e-02  8.81042e+00 
-2.19979e-01  9.59543e-02  8.80260e+00 
-3.66663e-01  1.59947e-01  8.78697e+00 
-5.13455e-01  2.24032e-01  8.76354e+00 
-6.60328e-01  2.88180e-01  8.73232e+00 
-8.07371e-01  3.52470e-01  8.69332e+00 
-9.54555e-01  4.16870e-01  8.64657e+00 
-1.10197e+00  4.81463e-01  8.59210e+00 
-1.24958e+00  5.46212e-01  8.52993e+00 
-1.39748e+00  6.11198e-01  8.46011e+00 
-1.54562e+00  6.76385e-01  8.38265e+00 
-1.69410e+00  7.41849e-01  8.29762e+00 
-1.84288e+00  8.07551e-01  8.20504e+00 
-1.99203e+00  8.73566e-01  8.10500e+00 
-2.14151e+00  9.39853e-01  7.99750e+00 
-2.29141e+00  1.00648e+00  7.88264e+00 
-2.44167e+00  1.07341e+00  7.76044e+00 
-2.59237e+00  1.14070e+00  7.63101e+00 
-2.74345e+00  1.20830e+00  7.49436e+00 
-2.89498e+00  1.27628e+00  7.35061e+00 
-3.04691e+00  1.34458e+00  7.19976e+00 
-3.19929e+00  1.41327e+00  7.04196e+00 
-3.35205e+00  1.48227e+00  6.87720e+00 
-3.50526e+00  1.55165e+00  6.70562e+00 
-3.65884e+00  1.62134e+00  6.52722e+00 
-3.81283e+00  1.69138e+00  6.34215e+00 
-3.96716e+00  1.76171e+00  6.15039e+00 
-4.12187e+00  1.83236e+00  5.95210e+00 
-4.27687e+00  1.90326e+00  5.74725e+00 
-4.43220e+00  1.97444e+00  5.53599e+00 
-4.58775e+00  2.04583e+00  5.31828e+00 
-4.74356e+00  2.11744e+00  5.09428e+00 
-4.89953e+00  2.18919e+00  4.86393e+00 
-5.05567e+00  2.26110e+00  4.62739e+00 
-5.21187e+00  2.33309e+00  4.38456e+00 
-5.36815e+00  2.40516e+00  4.13560e+00 
-5.52440e+00  2.47722e+00  3.88041e+00 
-5.68063e+00  2.54929e+00  3.61912e+00 
-5.83671e+00  2.62126e+00  3.35162e+00 
-5.99266e+00  2.69314e+00  3.07802e+00 
-6.14835e+00  2.76484e+00  2.79817e+00 
-6.30379e+00  2.83636e+00  2.51218e+00 
-6.45886e+00  2.90760e+00  2.21989e+00 
-6.61356e+00  2.97857e+00  1.92137e+00 
-6.76778e+00  3.04917e+00  1.61643e+00 
-6.92153e+00  3.11941e+00  1.30514e+00 
-7.07469e+00  3.18920e+00  9.87281e-01 
-7.22727e+00  3.25855e+00  6.62901e-01 
-7.37918e+00  3.32737e+00  3.31726e-01 
-7.53041e+00  3.41553e+00  1.95690e-01 
 7.04834e+00 -3.19676e+00  1.93435e-01 
 6.90667e+00 -3.11416e+00  3.27915e-01 
 6.76410e+00 -3.04942e+00  6.55335e-01 
 6.62062e+00 -2.98400e+00  9.76220e-01 
 6.47638e+00 -2.91799e+00  1.29088e+00 
 6.33138e+00 -2.85140e+00  1.59929e+00 
 6.18576e+00 -2.78434e+00  1.90168e+00 
 6.03954e+00 -2.71681e+00  2.19800e+00 
 5.89286e+00 -2.64894e+00  2.48845e+00 
 5.74573e+00 -2.58074e+00  2.77296e+00 
 5.59829e+00 -2.51231e+00  3.05169e+00 
 5.45058e+00 -2.44368e+00  3.32454e+00 
 5.30271e+00 -2.37496e+00  3.59164e+00 
 5.15472e+00 -2.30615e+00  3.85287e+00 
 5.00673e+00 -2.23737e+00  4.10833e+00 
 4.85876e+00 -2.16862e+00  4.35787e+00 
 4.71092e+00 -2.10001e+00  4.60158e+00 
 4.56323e+00 -2.03152e+00  4.83928e+00 
 4.41580e+00 -1.96327e+00  5.07105e+00 
 4.26863e+00 -1.89523e+00  5.29670e+00 
 4.12182e+00 -1.82751e+00  5.51627e+00 
 3.97536e+00 -1.76009e+00  5.72958e+00 
 3.82935e+00 -1.69303e+00  5.93665e+00 
 3.68376e+00 -1.62633e+00  6.13729e+00 
 3.53868e+00 -1.56006e+00  6.33153e+00 
 3.39408e+00 -1.49417e+00  6.51916e+00 
 3.25003e+00 -1.42874e+00  6.70020e+00 
 3.10649e+00 -1.36373e+00  6.87446e+00 
 2.96354e+00 -1.29919e+00  7.04193e+00 
 2.82111e+00 -1.23507e+00  7.20245e+00 
 2.67926e+00 -1.17144e+00  7.35601e+00 
 2.53794e+00 -1.10822e+00  7.50243e+00 
 2.39720e+00 -1.04548e+00  7.64172e+00 
 2.25696e+00 -9.83136e-01  7.77371e+00 
 2.11728e+00 -9.21242e-01  7.89839e+00 
 1.97807e+00 -8.59728e-01  8.01564e+00 
 1.83938e+00 -7.98631e-01  8.12542e+00 
 1.70113e+00 -7.37878e-01  8.22763e+00 
 1.56334e+00 -6.77503e-01  8.32225e+00 
 1.42594e+00 -6.17429e-01  8.40917e+00 
 1.28895e+00 -5.57687e-01  8.48838e+00 
 1.15229e+00 -4.98198e-01  8.55980e+00 
 1.01597e+00 -4.38989e-01  8.62342e+00 
 8.79904e-01 -3.79980e-01  8.67915e+00 
 7.44118e-01 -3.21195e-01  8.72700e+00 
 6.08519e-01 -2.62552e-01  8.76691e+00 
 4.73122e-01 -2.04074e-01  8.79888e+00 
 3.37835e-01 -1.45679e-01  8.82287e+00 
 2.02674e-01 -8.73869e-02  8.83887e+00 
 6.75446e-02 -2.91160e-02  8.84687e+00 
-6.75446e-02  2.91160e-02  8.84687e+00 
-2.02674e-01  8.73869e-02  8.83887e+00 
-3.37835e-01  1.45679e-01  8.82287e+00 
-4.73122e-01  2.04074e-01  8.79888e+00 
-6.08519e-01  2.62552e-01  8.76691e+00 
-7.44118e-01  3.21195e-01  8.72700e+00 
-8.79904e-01  3.79980e-01  8.67915e+00 
-1.01597e+00  4.38989e-01  8.62342e+00 
-1.15229e+00  4.98198e-01  8.55980e+00 
-1.28895e+00  5.57687e-01  8.48838e+00 
-1.42594e+00  6.17429e-01  8.40917e+00 
-1.56334e+00  6.77503e-01  8.32225e+00 
-1.70113e+00  7.37878e-01  8.22763e+00 
-1.83938e+00  7.98631e-01  8.12542e+00 
-1.97807e+00  8.59728e-01  8.01564e+00 
-2.11728e+00  9.21242e-01  7.89839e+00 
-2.25696e+00  9.83136e-01  7.77371e+00 
-2.39720e+00  1.04548e+00  7.64172e+00 
-2.53794e+00  1.10822e+00  7.50243e+00 
-2.67926e+00  1.17144e+00  7.35601e+00 
-2.82111e+00  1.23507e+00  7.20245e+00 
-2.96354e+00  1.29919e+00  7.04193e+00 
-3.10649e+00  1.36373e+00  6.87446e+00 
-3.25003e+00  1.42874e+00  6.70020e+00 
-3.39408e+00  1.49417e+00  6.51916e+00 
-3.53868e+00  1.56006e+00  6.33153e+00 
-3.68376e+00  1.62633e+00  6.13729e+00 
-3.82935e+00  1.69303e+00  5.93665e+00 
-3.97536e+00  1.76009e+00  5.72958e+00 
-4.12182e+00  1.82751e+00  5.51627e+00 
-4.26863e+00  1.89523e+00  5.29670e+00 
-4.41580e+00  1.96327e+00  5.07105e+00 
-4.56323e+00  2.03152e+00  4.83928e+00 
-4.71092e+00  2.10001e+00  4.60158e+00 
-4.85876e+00  2.16862e+00  4.35787e+00 
-5.00673e+00  2.23737e+00  4.10833e+00 
-5.15472e+00  2.30615e+00  3.85287e+00 
-5.30271e+00  2.37496e+00  3.59164e+00 
-5.45058e+00  2.44368e+00  3.32454e+00 
-5.59829e+00  2.51231e+00  3.05169e+00 
-5.74573e+00  2.58074e+00  2.77296e+00 
-5.89286e+00  2.64894e+00  2.48845e+00 
-6.03954e+00  2.71681e+00  2.19800e+00 
-6.18576e+00  2.78434e+00  1.90168e+00 
-6.33138e+00  2.85140e+00  1.59929e+00 
-6.47638e+00  2.91799e+00  1.29088e+00 
-6.62062e+00  2.98400e+00  9.76220e-01 
-6.76410e+00  3.04942e+00  6.55335e-01 
-6.90667e+00  3.11416e+00  3.27915e-01 
-7.04834e+00  3.19676e+00  1.93435e-01 
 6.57322e+00 -2.98114e+00  1.90419e-01 
 6.44071e+00 -2.90384e+00  3.22815e-01 
 6.30697e+00 -2.84295e+00  6.45230e-01 
 6.17207e+00 -2.78116e+00  9.61511e-01 
 6.03615e+00 -2.71859e+00  1.27200e+00 
 5.89928e+00 -2.65529e+00  1.57670e+00 
 5.76162e+00 -2.59139e+00  1.87586e+00 
 5.62321e+00 -2.52692e+00  2.16944e+00 
 5.48424e+00 -2.46202e+00  2.45765e+00 
 5.34475e+00 -2.39673e+00  2.74040e+00 
 5.20491e+00 -2.33120e+00  3.01787e+00 
 5.06478e+00 -2.26544e+00  3.28993e+00 
 4.92452e+00 -2.19960e+00  3.55672e+00 
 4.78416e+00 -2.13371e+00  3.81807e+00 
 4.64387e+00 -2.06789e+00  4.07407e+00 
 4.50368e+00 -2.00217e+00  4.32456e+00 
 4.36373e+00 -1.93666e+00  4.56958e+00 
 4.22404e+00 -1.87137e+00  4.80894e+00 
 4.08475e+00 -1.80641e+00  5.04267e+00 
 3.94586e+00 -1.74178e+00  5.27057e+00 
 3.80749e+00 -1.67758e+00  5.49262e+00 
 3.66964e+00 -1.61379e+00  5.70863e+00 
 3.53240e+00 -1.55051e+00  5.91859e+00 
 3.39576e+00 -1.48771e+00  6.12227e+00 
 3.25981e+00 -1.42546e+00  6.31965e+00 
 3.12452e+00 -1.36373e+00  6.51053e+00 
 2.98996e+00 -1.30258e+00  6.69486e+00 
 2.85608e+00 -1.24198e+00  6.87245e+00 
 2.72296e+00 -1.18197e+00  7.04327e+00 
 2.59053e+00 -1.12251e+00  7.20711e+00 
 2.45885e+00 -1.06364e+00  7.36395e+00 
 2.32786e+00 -1.00530e+00  7.51360e+00 
 2.19759e+00 -9.47531e-01  7.65603e+00 
 2.06798e+00 -8.90271e-01  7.79107e+00 
 1.93906e+00 -8.33550e-01  7.91870e+00 
 1.81074e+00 -7.77297e-01  8.03875e+00 
 1.68306e+00 -7.21541e-01  8.15121e+00 
 1.55594e+00 -6.66206e-01  8.25594e+00 
 1.42938e+00 -6.11316e-01  8.35292e+00 
 1.30331e+00 -5.56793e-01  8.44203e+00 
 1.17773e+00 -5.02656e-01  8.52326e+00 
 1.05256e+00 -4.48827e-01  8.59651e+00 
 9.27805e-01 -3.95320e-01  8.66176e+00 
 8.03373e-01 -3.42055e-01  8.71894e+00 
 6.79269e-01 -2.89046e-01  8.76803e+00 
 5.55400e-01 -2.36211e-01  8.80899e+00 
 4.31767e-01 -1.83561e-01  8.84179e+00 
 3.08276e-01 -1.31014e-01  8.86641e+00 
 1.84929e-01 -7.85824e-02  8.88284e+00 
 6.16290e-02 -2.61810e-02  8.89105e+00 
-6.16290e-02  2.61810e-02  8.89105e+00 
-1.84929e-01  7.85824e-02  8.88284e+00 
-3.08276e-01  1.31014e-01  8.86641e+00 
-4.31767e-01  1.83561e-01  8.84179e+00 
-5.55400e-01  2.36211e-01  8.80899e+00 
-6.79269e-01  2.89046e-01  8.76803e+00 
-8.03373e-01  3.42055e-01  8.71894e+00 
-9.27805e-01  3.95320e-01  8.66176e+00 
-1.05256e+00  4.48827e-01  8.59651e+00 
-1.17773e+00  5.02656e-01  8.52326e+00 
-1.30331e+00  5.56793e-01  8.44203e+00 
-1.42938e+00  6.11316e-01  8.35292e+00 
-1.55594e+00  6.66206e-01  8.25594e+00 
-1.68306e+00  7.21541e-01  8.15121e+00 
-1.81074e+00  7.77297e-01  8.03875e+00 
-1.93906e+00  8.33550e-01  7.91870e+00 
-2.06798e+00  8.90271e-01  7.79107e+00 
-2.19759e+00  9.47531e-01  7.65603e+00 
-2.32786e+00  1.00530e+00  7.51360e+00 
-2.45885e+00  1.06364e+00  7.36395e+00 
-2.59053e+00  1.12251e+00  7.20711e+00 
-2.72296e+00  1.18197e+00  7.04327e+00 
-2.85608e+00  1.24198e+00  6.87245e+00 
-2.98996e+00  1.30258e+00  6.69486e+00 
-3.12452e+00  1.36373e+00  6.51053e+00 
-3.25981e+00  1.42546e+00  6.31965e+00 
-3.39576e+00  1.48771e+00  6.12227e+00 
-3.53240e+00  1.55051e+00  5.91859e+00 
-3.66964e+00  1.61379e+00  5.70863e+00 
-3.80749e+00  1.67758e+00  5.49262e+00 
-3.94586e+00  1.74178e+00  5.27057e+00 
-4.08475e+00  1.80641e+00  5.04267e+00 
-4.22404e+00  1.87137e+00  4.80894e+00 
-4.36373e+00  1.93666e+00  4.56958e+00 
-4.50368e+00  2.00217e+00  4.32456e+00 
-4.64387e+00  2.06789e+00  4.07407e+00 
-4.78416e+00  2.13371e+00  3.81807e+00 
-4.92452e+00  2.19960e+00  3.55672e+00 
-5.06478e+00  2.26544e+00  3.28993e+00 
-5.20491e+00  2.33120e+00  3.01787e+00 
-5.34475e+00  2.39673e+00  2.74040e+00 
-5.48424e+00  2.46202e+00  2.45765e+00 
-5.62321e+00  2.52692e+00  2.16944e+00 
-5.76162e+00  2.59139e+00  1.87586e+00 
-5.89928e+00  2.65529e+00  1.57670e+00 
-6.03615e+00  2.71859e+00  1.27200e+00 
-6.17207e+00  2.78116e+00  9.61511e-01 
-6.30697e+00  2.84295e+00  6.45230e-01 
-6.44071e+00  2.90384e+00  3.22815e-01 
-6.57322e+00  2.98114e+00  1.90419e-01 
 6.10736e+00 -2.76974e+00  1.86488e-01 
 5.98337e+00 -2.69737e+00  3.16149e-01 
 5.85774e+00 -2.63995e+00  6.32005e-01 
 5.73062e+00 -2.58138e+00  9.42314e-01 
 5.60219e+00 -2.52181e+00  1.24747e+00 
 5.47258e+00 -2.46132e+00  1.54748e+00 
 5.34197e+00 -2.40008e+00  1.84263e+00 
 5.21048e+00 -2.33815e+00  2.13288e+00 
 5.07832e+00 -2.27572e+00  2.41843e+00 
 4.94558e+00 -2.21286e+00  2.69921e+00 
 4.81248e+00 -2.14973e+00  2.97534e+00 
 4.67911e+00 -2.08639e+00  3.24671e+00 
 4.54566e+00 -2.02302e+00  3.51339e+00 
 4.41220e+00 -1.95965e+00  3.77520e+00 
 4.27893e+00 -1.89644e+00  4.03221e+00 
 4.14590e+00 -1.83343e+00  4.28418e+00 
 4.01327e+00 -1.77075e+00  4.53114e+00 
 3.88109e+00 -1.70843e+00  4.77284e+00 
 3.74950e+00 -1.64658e+00  5.00927e+00 
 3.61853e+00 -1.58522e+00  5.24017e+00 
 3.48829e+00 -1.52443e+00  5.46551e+00 
 3.35879e+00 -1.46423e+00  5.68502e+00 
 3.23014e+00 -1.40469e+00  5.89866e+00 
 3.10232e+00 -1.34578e+00  6.10616e+00 
 2.97542e+00 -1.28759e+00  6.30746e+00 
 2.84940e+00 -1.23008e+00  6.50232e+00 
 2.72433e+00 -1.17330e+00  6.69068e+00 
 2.60017e+00 -1.11721e+00  6.87228e+00 
 2.47697e+00 -1.06186e+00  7.04709e+00 
 2.35467e+00 -1.00718e+00  7.21485e+00 
 2.23331e+00 -9.53225e-01  7.37554e+00 
 2.11282e+00 -8.99917e-01  7.52893e+00 
 1.99322e+00 -8.47289e-01  7.67498e+00 
 1.87445e+00 -7.95271e-01  7.81350e+00 
 1.75652e+00 -7.43884e-01  7.94445e+00 
 1.63934e+00 -6.93054e-01  8.06766e+00 
 1.52293e+00 -6.42797e-01  8.18310e+00 
 1.40720e+00 -5.93035e-01  8.29063e+00 
 1.29214e+00 -5.43780e-01  8.39021e+00 
 1.17767e+00 -4.94952e-01  8.48173e+00 
 1.06379e+00 -4.46560e-01  8.56515e+00 
 9.50400e-01 -3.98522e-01  8.64039e+00 
 8.37495e-01 -3.50844e-01  8.70741e+00 
 7.24979e-01 -3.03444e-01  8.76614e+00 
 6.12843e-01 -2.56327e-01  8.81658e+00 
 5.00990e-01 -2.09409e-01  8.85865e+00 
 3.89409e-01 -1.62695e-01  8.89234e+00 
 2.78001e-01 -1.16101e-01  8.91763e+00 
 1.66755e-01 -6.96291e-02  8.93451e+00 
 5.55701e-02 -2.31965e-02  8.94294e+00 
-5.55701e-02  2.31965e-02  8.94294e+00 
-1.66755e-01  6.96291e-02  8.93451e+00 
-2.78001e-01  1.16101e-01  8.91763e+00 
-3.89409e-01  1.62695e-01  8.89234e+00 
-5.00990e-01  2.09409e-01  8.85865e+00 
-6.12843e-01  2.56327e-01  8.81658e+00 
-7.24979e-01  3.03444e-01  8.76614e+00 
-8.37495e-01  3.50844e-01  8.70741e+00 
-9.50400e-01  3.98522e-01  8.64039e+00 
-1.06379e+00  4.46560e-01  8.56515e+00 
-1.17767e+00  4.94952e-01  8.48173e+00 
-1.29214e+00  5.43780e-01  8.39021e+00 
-1.40720e+00  5.93035e-01  8.29063e+00 
-1.52293e+00  6.42797e-01  8.18310e+00 
-1.63934e+00  6.93054e-01  8.06766e+00 
-1.75652e+00  7.43884e-01  7.94445e+00 
-1.87445e+00  7.95271e-01  7.81350e+00 
-1.99322e+00  8.47289e-01  7.67498e+00 
-2.11282e+00  8.99917e-01  7.52893e+00 
-2.23331e+00  9.53225e-01  7.37554e+00 
-2.35467e+00  1.00718e+00  7.21485e+00 
-2.47697e+00  1.06186e+00  7.04709e+00 
-2.60017e+00  1.11721e+00  6.87228e+00 
-2.72433e+00  1.17330e+00  6.69068e+00 
-2.84940e+00  1.23008e+00  6.50232e+00 
-2.97542e+00  1.28759e+00  6.30746e+00 
-3.10232e+00  1.34578e+00  6.10616e+00 
-3.23014e+00  1.40469e+00  5.89866e+00 
-3.35879e+00  1.46423e+00  5.68502e+00 
-3.48829e+00  1.52443e+00  5.46551e+00 
-3.61853e+00  1.58522e+00  5.24017e+00 
-3.74950e+00  1.64658e+00  5.00927e+00 
-3.88109e+00  1.70843e+00  4.77284e+00 
-4.01327e+00  1.77075e+00  4.53114e+00 
-4.14590e+00  1.83343e+00  4.28418e+00 
-4.27893e+00  1.89644e+00  4.03221e+00 
-4.41220e+00  1.95965e+00  3.77520e+00 
-4.54566e+00  2.02302e+00  3.51339e+00 
-4.67911e+00  2.08639e+00  3.24671e+00 
-4.81248e+00  2.14973e+00  2.97534e+00 
-4.94558e+00  2.21286e+00  2.69921e+00 
-5.07832e+00  2.27572e+00  2.41843e+00 
-5.21048e+00  2.33815e+00  2.13288e+00 
-5.34197e+00  2.40008e+00  1.84263e+00 
-5.47258e+00  2.46132e+00  1.54748e+00 
-5.60219e+00  2.52181e+00  1.24747e+00 
-5.73062e+00  2.58138e+00  9.42314e-01 
-5.85774e+00  2.63995e+00  6.32005e-01 
-5.98337e+00  2.69737e+00  3.16149e-01 
-6.10736e+00  2.76974e+00  1.86488e-01 
 5.65378e+00 -2.56396e+00  1.81405e-01 
 5.53733e+00 -2.49594e+00  3.07508e-01 
 5.41875e+00 -2.44147e+00  6.14862e-01 
 5.29826e+00 -2.38553e+00  9.17537e-01 
 5.17614e+00 -2.32834e+00  1.21597e+00 
 5.05255e+00 -2.27001e+00  1.51019e+00 
 4.92777e+00 -2.21077e+00  1.80050e+00 
 4.80198e+00 -2.15075e+00  2.08684e+00 
 4.67543e+00 -2.09015e+00  2.36942e+00 
 4.54830e+00 -2.02911e+00  2.64811e+00 
 4.42083e+00 -1.96782e+00  2.92302e+00 
 4.29318e+00 -1.90638e+00  3.19397e+00 
 4.16558e+00 -1.84500e+00  3.46100e+00 
 4.03815e+00 -1.78375e+00  3.72388e+00 
 3.91110e+00 -1.72280e+00  3.98259e+00 
 3.78453e+00 -1.66221e+00  4.23686e+00 
 3.65861e+00 -1.60213e+00  4.48663e+00 
 3.53341e+00 -1.54261e+00  4.73159e+00 
 3.40909e+00 -1.48376e+00  4.97167e+00 
 3.28569e+00 -1.42559e+00  5.20654e+00 
 3.16331e+00 -1.36822e+00  5.43611e+00 
 3.04199e+00 -1.31163e+00  5.66006e+00 
 2.92181e+00 -1.25590e+00  5.87829e+00 
 2.80276e+00 -1.20101e+00  6.09048e+00 
 2.68491e+00 -1.14702e+00  6.29652e+00 
 2.56823e+00 -1.09389e+00  6.49613e+00 
 2.45277e+00 -1.04166e+00  6.68920e+00 
 2.33847e+00 -9.90283e-01  6.87545e+00 
 2.22538e+00 -9.39785e-01  7.05480e+00 
 2.11342e+00 -8.90105e-01  7.22700e+00 
 2.00261e+00 -8.41263e-01  7.39197e+00 
 1.89288e+00 -7.93188e-01  7.54948e+00 
 1.78423e+00 -7.45892e-01  7.69947e+00 
 1.67658e+00 -6.99301e-01  7.84174e+00 
 1.56992e+00 -6.53419e-01  7.97623e+00 
 1.46417e+00 -6.08169e-01  8.10278e+00 
 1.35932e+00 -5.63553e-01  8.22133e+00 
 1.25526e+00 -5.19489e-01  8.33175e+00 
 1.15199e+00 -4.75978e-01  8.43400e+00 
 1.04941e+00 -4.32936e-01  8.52796e+00 
 9.47496e-01 -3.90363e-01  8.61360e+00 
 8.46155e-01 -3.48175e-01  8.69082e+00 
 7.45363e-01 -3.06370e-01  8.75961e+00 
 6.45020e-01 -2.64865e-01  8.81989e+00 
 5.45105e-01 -2.23657e-01  8.87163e+00 
 4.45514e-01 -1.82664e-01  8.91480e+00 
 3.46227e-01 -1.41882e-01  8.94937e+00 
 2.47140e-01 -1.01230e-01  8.97531e+00 
 1.48230e-01 -6.07038e-02  8.99262e+00 
 4.93945e-02 -2.02217e-02  9.00128e+00 
-4.93945e-02  2.02217e-02  9.00128e+00 
-1.48230e-01  6.07038e-02  8.99262e+00 
-2.47140e-01  1.01230e-01  8.97531e+00 
-3.46227e-01  1.41882e-01  8.94937e+00 
-4.45514e-01  1.82664e-01  8.91480e+00 
-5.45105e-01  2.23657e-01  8.87163e+00 
-6.45020e-01  2.64865e-01  8.81989e+00 
-7.45363e-01  3.06370e-01  8.75961e+00 
-8.46155e-01  3.48175e-01  8.69082e+00 
-9.47496e-01  3.90363e-01  8.61360e+00 
-1.04941e+00  4.32936e-01  8.52796e+00 
-1.15199e+00  4.75978e-01  8.43400e+00 
-1.25526e+00  5.19489e-01  8.33175e+00 
-1.35932e+00  5.63553e-01  8.22133e+00 
-1.46417e+00  6.08169e-01  8.10278e+00 
-1.56992e+00  6.53419e-01  7.97623e+00 
-1.67658e+00  6.99301e-01  7.84174e+00 
-1.78423e+00  7.45892e-01  7.69947e+00 
-1.89288e+00  7.93188e-01  7.54948e+00 
-2.00261e+00  8.41263e-01  7.39197e+00 
-2.11342e+00  8.90105e-01  7.22700e+00 
-2.22538e+00  9.39785e-01  7.05480e+00 
-2.33847e+00  9.90283e-01  6.87545e+00 
-2.45277e+00  1.04166e+00  6.68920e+00 
-2.56823e+00  1.09389e+00  6.49613e+00 
-2.68491e+00  1.14702e+00  6.29652e+00 
-2.80276e+00  1.20101e+00  6.09048e+00 
-2.92181e+00  1.25590e+00  5.87829e+00 
-3.04199e+00  1.31163e+00  5.66006e+00 
-3.16331e+00  1.36822e+00  5.43611e+00 
-3.28569e+00  1.42559e+00  5.20654e+00 
-3.40909e+00  1.48376e+00  4.97167e+00 
-3.53341e+00  1.54261e+00  4.73159e+00 
-3.65861e+00  1.60213e+00  4.48663e+00 
-3.78453e+00  1.66221e+00  4.23686e+00 
-3.91110e+00  1.72280e+00  3.98259e+00 
-4.03815e+00  1.78375e+00  3.72388e+00 
-4.16558e+00  1.84500e+00  3.46100e+00 
-4.29318e+00  1.90638e+00  3.19397e+00 
-4.42083e+00  1.96782e+00  2.92302e+00 
-4.54830e+00  2.02911e+00  2.64811e+00 
-4.67543e+00  2.09015e+00  2.36942e+00 
-4.80198e+00  2.15075e+00  2.08684e+00 
-4.92777e+00  2.21077e+00  1.80050e+00 
-5.05255e+00  2.27001e+00  1.51019e+00 
-5.17614e+00  2.32834e+00  1.21597e+00 
-5.29826e+00  2.38553e+00  9.17537e-01 
-5.41875e+00  2.44147e+00  6.14862e-01 
-5.53733e+00  2.49594e+00  3.07508e-01 
-5.65378e+00  2.56396e+00  1.81405e-01 
 5.21630e+00 -2.36556e+00  1.74908e-01 
 5.10594e+00 -2.30104e+00  2.96437e-01 
 4.99282e+00 -2.24876e+00  5.92920e-01 
 4.87732e+00 -2.19464e+00  8.86002e-01 
 4.75981e+00 -2.13896e+00  1.17616e+00 
 4.64056e+00 -2.08194e+00  1.46344e+00 
 4.51993e+00 -2.02386e+00  1.74812e+00 
 4.39819e+00 -1.96492e+00  2.03012e+00 
 4.27570e+00 -1.90539e+00  2.30960e+00 
 4.15269e+00 -1.84545e+00  2.58638e+00 
 4.02948e+00 -1.78536e+00  2.86049e+00 
 3.90630e+00 -1.72528e+00  3.13168e+00 
 3.78341e+00 -1.66542e+00  3.39990e+00 
 3.66100e+00 -1.60590e+00  3.66482e+00 
 3.53931e+00 -1.54692e+00  3.92632e+00 
 3.41846e+00 -1.48856e+00  4.18404e+00 
 3.29865e+00 -1.43098e+00  4.43782e+00 
 3.17997e+00 -1.37422e+00  4.68725e+00 
 3.06257e+00 -1.31841e+00  4.93218e+00 
 2.94649e+00 -1.26356e+00  5.17218e+00 
 2.83186e+00 -1.20977e+00  5.40709e+00 
 2.71866e+00 -1.15701e+00  5.63651e+00 
 2.60700e+00 -1.10535e+00  5.86027e+00 
 2.49684e+00 -1.05477e+00  6.07798e+00 
 2.38822e+00 -1.00528e+00  6.28951e+00 
 2.28111e+00 -9.56854e-01  6.49449e+00 
 2.17552e+00 -9.09498e-01  6.69281e+00 
 2.07140e+00 -8.63149e-01  6.88414e+00 
 1.96873e+00 -8.17815e-01  7.06837e+00 
 1.86745e+00 -7.73421e-01  7.24523e+00 
 1.76755e+00 -7.29966e-01  7.41463e+00 
 1.66892e+00 -6.87367e-01  7.57633e+00 
 1.57156e+00 -6.45619e-01  7.73025e+00 
 1.47537e+00 -6.04637e-01  7.87620e+00 
 1.38032e+00 -5.64410e-01  8.01412e+00 
 1.28630e+00 -5.24855e-01  8.14383e+00 
 1.19330e+00 -4.85958e-01  8.26530e+00 
 1.10120e+00 -4.47637e-01  8.37839e+00 
 1.00998e+00 -4.09878e-01  8.48307e+00 
 9.19522e-01 -3.72599e-01  8.57921e+00 
 8.29801e-01 -3.35789e-01  8.66682e+00 
 7.40711e-01 -2.99367e-01  8.74578e+00 
 6.52218e-01 -2.63321e-01  8.81609e+00 
 5.64219e-01 -2.27574e-01  8.87769e+00 
 4.76678e-01 -1.92115e-01  8.93055e+00 
 3.89494e-01 -1.56868e-01  8.97464e+00 
 3.02632e-01 -1.21825e-01  9.00994e+00 
 2.15990e-01 -8.69078e-02  9.03643e+00 
 1.29534e-01 -5.21109e-02  9.05410e+00 
 4.31624e-02 -1.73583e-02  9.06294e+00 
-4.31624e-02  1.73583e-02  9.06294e+00 
-1.29534e-01  5.21109e-02  9.05410e+00 
-2.15990e-01  8.69078e-02  9.03643e+00 
-3.02632e-01  1.21825e-01  9.00994e+00 
-3.89494e-01  1.56868e-01  8.97464e+00 
-4.76678e-01  1.92115e-01  8.93055e+00 
-5.64219e-01  2.27574e-01  8.87769e+00 
-6.52218e-01  2.63321e-01  8.81609e+00 
-7.40711e-01  2.99367e-01  8.74578e+00 
-8.29801e-01  3.35789e-01  8.66682e+00 
-9.19522e-01  3.72599e-01  8.57921e+00 
-1.00998e+00  4.09878e-01  8.48307e+00 
-1.10120e+00  4.47637e-01  8.37839e+00 
-1.19330e+00  4.85958e-01  8.26530e+00 
-1.28630e+00  5.24855e-01  8.14383e+00 
-1.38032e+00  5.64410e-01  8.01412e+00 
-1.47537e+00  6.04637e-01  7.87620e+00 
-1.57156e+00  6.45619e-01  7.73025e+00 
-1.66892e+00  6.87367e-01  7.57633e+00 
-1.76755e+00  7.29966e-01  7.41463e+00 
-1.86745e+00  7.73421e-01  7.24523e+00 
-1.96873e+00  8.17815e-01  7.06837e+00 
-2.07140e+00  8.63149e-01  6.88414e+00 
-2.17552e+00  9.09498e-01  6.69281e+00 
-2.28111e+00  9.56854e-01  6.49449e+00 
-2.38822e+00  1.00528e+00  6.28951e+00 
-2.49684e+00  1.05477e+00  6.07798e+00 
-2.60700e+00  1.10535e+00  5.86027e+00 
-2.71866e+00  1.15701e+00  5.63651e+00 
-2.83186e+00  1.20977e+00  5.40709e+00 
-2.94649e+00  1.26356e+00  5.17218e+00 
-3.06257e+00  1.31841e+00  4.93218e+00 
-3.17997e+00  1.37422e+00  4.68725e+00 
-3.29865e+00  1.43098e+00  4.43782e+00 
-3.41846e+00  1.48856e+00  4.18404e+00 
-3.53931e+00  1.54692e+00  3.92632e+00 
-3.66100e+00  1.60590e+00  3.66482e+00 
-3.78341e+00  1.66542e+00  3.39990e+00 
-3.90630e+00  1.72528e+00  3.13168e+00 
-4.02948e+00  1.78536e+00  2.86049e+00 
-4.15269e+00  1.84545e+00  2.58638e+00 
-4.27570e+00  1.90539e+00  2.30960e+00 
-4.39819e+00  1.96492e+00  2.03012e+00 
-4.51993e+00  2.02386e+00  1.74812e+00 
-4.64056e+00  2.08194e+00  1.46344e+00 
-4.75981e+00  2.13896e+00  1.17616e+00 
-4.87732e+00  2.19464e+00  8.86002e-01 
-4.99282e+00  2.24876e+00  5.92920e-01 
-5.10594e+00  2.30104e+00  2.96437e-01 
-5.21630e+00  2.36556e+00  1.74908e-01 
 4.79965e+00 -2.17679e+00  1.66785e-01 
 4.69318e+00 -2.11447e+00  2.82542e-01 
 4.58321e+00 -2.06328e+00  5.65368e-01 
 4.47032e+00 -2.00983e+00  8.46669e-01 
 4.35503e+00 -1.95453e+00  1.12694e+00 
 4.23776e+00 -1.89768e+00  1.40621e+00 
 4.11900e+00 -1.83967e+00  1.68472e+00 
 3.99916e+00 -1.78081e+00  1.96231e+00 
 3.87870e+00 -1.72145e+00  2.23904e+00 
 3.75796e+00 -1.66184e+00  2.51461e+00 
 3.63735e+00 -1.60231e+00  2.78894e+00 
 3.51717e+00 -1.54306e+00  3.06162e+00 
 3.39775e+00 -1.48436e+00  3.33245e+00 
 3.27931e+00 -1.42635e+00  3.60095e+00 
 3.16214e+00 -1.36926e+00  3.86686e+00 
 3.04638e+00 -1.31316e+00  4.12964e+00 
 2.93224e+00 -1.25823e+00  4.38902e+00 
 2.81980e+00 -1.20450e+00  4.64445e+00 
 2.70920e+00 -1.15208e+00  4.89563e+00 
 2.60049e+00 -1.10097e+00  5.14204e+00 
 2.49373e+00 -1.05123e+00  5.38342e+00 
 2.38892e+00 -1.00282e+00  5.61926e+00 
 2.28611e+00 -9.55781e-01  5.84933e+00 
 2.18523e+00 -9.10045e-01  6.07319e+00 
 2.08630e+00 -8.65618e-01  6.29062e+00 
 1.98923e+00 -8.22420e-01  6.50125e+00 
 1.89402e+00 -7.80438e-01  6.70491e+00 
 1.80057e+00 -7.39584e-01  6.90127e+00 
 1.70884e+00 -6.99834e-01  7.09020e+00 
 1.61873e+00 -6.61095e-01  7.27142e+00 
 1.53019e+00 -6.23338e-01  7.44483e+00 
 1.44311e+00 -5.86468e-01  7.61021e+00 
 1.35745e+00 -5.50456e-01  7.76749e+00 
 1.27308e+00 -5.15208e-01  7.91648e+00 
 1.18996e+00 -4.80697e-01  8.05713e+00 
 1.10798e+00 -4.46834e-01  8.18930e+00 
 1.02708e+00 -4.13593e-01  8.31296e+00 
 9.47143e-01 -3.80888e-01  8.42799e+00 
 8.68131e-01 -3.48700e-01  8.53437e+00 
 7.89930e-01 -3.16948e-01  8.63201e+00 
 7.12492e-01 -2.85614e-01  8.72091e+00 
 6.35712e-01 -2.54623e-01  8.80098e+00 
 5.59543e-01 -2.23962e-01  8.87225e+00 
 4.83884e-01 -1.93558e-01  8.93464e+00 
 4.08691e-01 -1.63402e-01  8.98816e+00 
 3.33863e-01 -1.33426e-01  9.03278e+00 
 2.59359e-01 -1.03621e-01  9.06850e+00 
 1.85080e-01 -7.39232e-02  9.09529e+00 
 1.10986e-01 -4.43259e-02  9.11316e+00 
 3.69804e-02 -1.47652e-02  9.12209e+00 
-3.69804e-02  1.47652e-02  9.12209e+00 
-1.10986e-01  4.43259e-02  9.11316e+00 
-1.85080e-01  7.39232e-02  9.09529e+00 
-2.59359e-01  1.03621e-01  9.06850e+00 
-3.33863e-01  1.33426e-01  9.03278e+00 
-4.08691e-01  1.63402e-01  8.98816e+00 
-4.83884e-01  1.93558e-01  8.93464e+00 
-5.59543e-01  2.23962e-01  8.87225e+00 
-6.35712e-01  2.54623e-01  8.80098e+00 
-7.12492e-01  2.85614e-01  8.72091e+00 
-7.89930e-01  3.16948e-01  8.63201e+00 
-8.68131e-01  3.48700e-01  8.53437e+00 
-9.47143e-01  3.80888e-01  8.42799e+00 
-1.02708e+00  4.13593e-01  8.31296e+00 
-1.10798e+00  4.46834e-01  8.18930e+00 
-1.18996e+00  4.80697e-01  8.05713e+00 
-1.27308e+00  5.15208e-01  7.91648e+00 
-1.35745e+00  5.50456e-01  7.76749e+00 
-1.44311e+00  5.86468e-01  7.61021e+00 
-1.53019e+00  6.23338e-01  7.44483e+00 
-1.61873e+00  6.61095e-01  7.27142e+00 
-1.70884e+00  6.99834e-01  7.09020e+00 
-1.80057e+00  7.39584e-01  6.90127e+00 
-1.89402e+00  7.80438e-01  6.70491e+00 
-1.98923e+00  8.22420e-01  6.50125e+00 
-2.08630e+00  8.65618e-01  6.29062e+00 
-2.18523e+00  9.10045e-01  6.07319e+00 
-2.28611e+00  9.55781e-01  5.84933e+00 
-2.38892e+00  1.00282e+00  5.61926e+00 
-2.49373e+00  1.05123e+00  5.38342e+00 
-2.60049e+00  1.10097e+00  5.14204e+00 
-2.70920e+00  1.15208e+00  4.89563e+00 
-2.81980e+00  1.20450e+00  4.64445e+00 
-2.93224e+00  1.25823e+00  4.38902e+00 
-3.04638e+00  1.31316e+00  4.12964e+00 
-3.16214e+00  1.36926e+00  3.86686e+00 
-3.27931e+00  1.42635e+00  3.60095e+00 
-3.39775e+00  1.48436e+00  3.33245e+00 
-3.51717e+00  1.54306e+00  3.06162e+00 
-3.63735e+00  1.60231e+00  2.78894e+00 
-3.75796e+00  1.66184e+00  2.51461e+00 
-3.87870e+00  1.72145e+00  2.23904e+00 
-3.99916e+00  1.78081e+00  1.96231e+00 
-4.11900e+00  1.83967e+00  1.68472e+00 
-4.23776e+00  1.89768e+00  1.40621e+00 
-4.35503e+00  1.95453e+00  1.12694e+00 
-4.47032e+00  2.00983e+00  8.46669e-01 
-4.58321e+00  2.06328e+00  5.65368e-01 
-4.69318e+00  2.11447e+00  2.82542e-01 
-4.79965e+00  2.17679e+00  1.66785e-01 
 4.40969e+00 -2.00042e+00  1.56833e-01 
 4.30382e+00 -1.93838e+00  2.65423e-01 
 4.19357e+00 -1.88668e+00  5.31440e-01 
 4.07984e+00 -1.83230e+00  7.98686e-01 
 3.96339e+00 -1.77579e+00  1.06765e+00 
 3.84485e+00 -1.71764e+00  1.33829e+00 
 3.72491e+00 -1.65837e+00  1.61070e+00 
 3.60415e+00 -1.59841e+00  1.88459e+00 
 3.48318e+00 -1.53825e+00  2.15980e+00 
 3.36248e+00 -1.47822e+00  2.43583e+00 
 3.24258e+00 -1.41872e+00  2.71236e+00 
 3.12385e+00 -1.36002e+00  2.98871e+00 
 3.00668e+00 -1.30241e+00  3.26447e+00 
 2.89134e+00 -1.24607e+00  3.53889e+00 
 2.77811e+00 -1.19120e+00  3.81148e+00 
 2.66714e+00 -1.13790e+00  4.08148e+00 
 2.55863e+00 -1.08628e+00  4.34842e+00 
 2.45261e+00 -1.03637e+00  4.61155e+00 
 2.34920e+00 -9.88212e-01  4.87045e+00 
 2.24836e+00 -9.41769e-01  5.12443e+00 
 2.15013e+00 -8.97047e-01  5.37312e+00 
 2.05443e+00 -8.53961e-01  5.61593e+00 
 1.96125e+00 -8.12484e-01  5.85256e+00 
 1.87047e+00 -7.72507e-01  6.08252e+00 
 1.78205e+00 -7.33983e-01  6.30557e+00 
 1.69584e+00 -6.96791e-01  6.52130e+00 
 1.61179e+00 -6.60874e-01  6.72955e+00 
 1.52974e+00 -6.26109e-01  6.92999e+00 
 1.44963e+00 -5.92438e-01  7.12250e+00 
 1.37130e+00 -5.59740e-01  7.30683e+00 
 1.29468e+00 -5.27961e-01  7.48291e+00 
 1.21963e+00 -4.96990e-01  7.65054e+00 
 1.14606e+00 -4.66776e-01  7.80968e+00 
 1.07385e+00 -4.37219e-01  7.96019e+00 
 1.00291e+00 -4.08277e-01  8.10206e+00 
 9.33129e-01 -3.79859e-01  8.23516e+00 
 8.64428e-01 -3.51933e-01  8.35951e+00 
 7.96690e-01 -3.24417e-01  8.47503e+00 
 7.29855e-01 -2.97288e-01  8.58173e+00 
 6.63811e-01 -2.70473e-01  8.67954e+00 
 5.98502e-01 -2.43955e-01  8.76850e+00 
 5.33825e-01 -2.17672e-01  8.84856e+00 
 4.69728e-01 -1.91613e-01  8.91974e+00 
 4.06113e-01 -1.65721e-01  8.98202e+00 
 3.42934e-01 -1.39991e-01  9.03540e+00 
 2.80099e-01 -1.14372e-01  9.07988e+00 
 2.17564e-01 -8.88629e-02  9.11547e+00 
 1.55240e-01 -6.34164e-02  9.14216e+00 
 9.30866e-02 -3.80343e-02  9.15995e+00 
 3.10153e-02 -1.26710e-02  9.16885e+00 
-3.10153e-02  1.26710e-02  9.16885e+00 
-9.30866e-02  3.80343e-02  9.15995e+00 
-1.55240e-01  6.34164e-02  9.14216e+00 
-2.17564e-01  8.88629e-02  9.11547e+00 
-2.80099e-01  1.14372e-01  9.07988e+00 
-3.42934e-01  1.39991e-01  9.03540e+00 
-4.06113e-01  1.65721e-01  8.98202e+00 
-4.69728e-01  1.91613e-01  8.91974e+00 
-5.33825e-01  2.17672e-01  8.84856e+00 
-5.98502e-01  2.43955e-01  8.76850e+00 
-6.63811e-01  2.70473e-01  8.67954e+00 
-7.29855e-01  2.97288e-01  8.58173e+00 
-7.96690e-01  3.24417e-01  8.47503e+00 
-8.64428e-01  3.51933e-01  8.35951e+00 
-9.33129e-01  3.79859e-01  8.23516e+00 
-1.00291e+00  4.08277e-01  8.10206e+00 
-1.07385e+00  4.37219e-01  7.96019e+00 
-1.14606e+00  4.66776e-01  7.80968e+00 
-1.21963e+00  4.96990e-01  7.65054e+00 
-1.29468e+00  5.27961e-01  7.48291e+00 
-1.37130e+00  5.59740e-01  7.30683e+00 
-1.44963e+00  5.92438e-01  7.12250e+00 
-1.52974e+00  6.26109e-01  6.92999e+00 
-1.61179e+00  6.60874e-01  6.72955e+00 
-1.69584e+00  6.96791e-01  6.52130e+00 
-1.78205e+00  7.33983e-01  6.30557e+00 
-1.87047e+00  7.72507e-01  6.08252e+00 
-1.96125e+00  8.12484e-01  5.85256e+00 
-2.05443e+00  8.53961e-01  5.61593e+00 
-2.15013e+00  8.97047e-01  5.37312e+00 
-2.24836e+00  9.41769e-01  5.12443e+00 
-2.34920e+00  9.88212e-01  4.87045e+00 
-2.45261e+00  1.03637e+00  4.61155e+00 
-2.55863e+00  1.08628e+00  4.34842e+00 
-2.66714e+00  1.13790e+00  4.08148e+00 
-2.77811e+00  1.19120e+00  3.81148e+00 
-2.89134e+00  1.24607e+00  3.53889e+00 
-3.00668e+00  1.30241e+00  3.26447e+00 
-3.12385e+00  1.36002e+00  2.98871e+00 
-3.24258e+00  1.41872e+00  2.71236e+00 
-3.36248e+00  1.47822e+00  2.43583e+00 
-3.48318e+00  1.53825e+00  2.15980e+00 
-3.60415e+00  1.59841e+00  1.88459e+00 
-3.72491e+00  1.65837e+00  1.61070e+00 
-3.84485e+00  1.71764e+00  1.33829e+00 
-3.96339e+00  1.77579e+00  1.06765e+00 
-4.07984e+00  1.83230e+00  7.98686e-01 
-4.19357e+00  1.88668e+00  5.31440e-01 
-4.30382e+00  1.93838e+00  2.65423e-01 
-4.40969e+00  2.00042e+00  1.56833e-01 
 4.05352e+00 -1.83986e+00  1.44982e-01 
 3.94325e+00 -1.77520e+00  2.44921e-01 
 3.82758e+00 -1.72064e+00  4.90783e-01 
 3.70800e+00 -1.66306e+00  7.42033e-01 
 3.58557e+00 -1.60323e+00  9.99009e-01 
 3.46127e+00 -1.54188e+00  1.26146e+00 
 3.33607e+00 -1.47975e+00  1.52923e+00 
 3.21081e+00 -1.41745e+00  1.80166e+00 
 3.08630e+00 -1.35561e+00  2.07824e+00 
 2.96319e+00 -1.29469e+00  2.35804e+00 
 2.84211e+00 -1.23515e+00  2.64031e+00 
 2.72350e+00 -1.17729e+00  2.92398e+00 
 2.60781e+00 -1.12143e+00  3.20821e+00 
 2.49527e+00 -1.06772e+00  3.49186e+00 
 2.38614e+00 -1.01631e+00  3.77411e+00 
 2.28049e+00 -9.67216e-01  4.05387e+00 
 2.17842e+00 -9.20492e-01  4.33041e+00 
 2.07989e+00 -8.76056e-01  4.60277e+00 
 1.98488e+00 -8.33866e-01  4.87034e+00 
 1.89327e+00 -7.93784e-01  5.13232e+00 
 1.80497e+00 -7.55720e-01  5.38824e+00 
 1.71980e+00 -7.19505e-01  5.63747e+00 
 1.63764e+00 -6.85025e-01  5.87966e+00 
 1.55831e+00 -6.52102e-01  6.11432e+00 
 1.48164e+00 -6.20617e-01  6.34125e+00 
 1.40745e+00 -5.90398e-01  6.56005e+00 
 1.33560e+00 -5.61335e-01  6.77062e+00 
 1.26588e+00 -5.33267e-01  6.97268e+00 
 1.19817e+00 -5.06099e-01  7.16617e+00 
 1.13228e+00 -4.79691e-01  7.35091e+00 
 1.06809e+00 -4.53961e-01  7.52689e+00 
 1.00544e+00 -4.28791e-01  7.69398e+00 
 9.44227e-01 -4.04117e-01  7.85222e+00 
 8.84291e-01 -3.79838e-01  8.00151e+00 
 8.25546e-01 -3.55909e-01  8.14190e+00 
 7.67858e-01 -3.32246e-01  8.27335e+00 
 7.11147e-01 -3.08819e-01  8.39591e+00 
 6.55297e-01 -2.85561e-01  8.50956e+00 
 6.00241e-01 -2.62453e-01  8.61435e+00 
 5.45872e-01 -2.39443e-01  8.71027e+00 
 4.92136e-01 -2.16523e-01  8.79738e+00 
 4.38936e-01 -1.93651e-01  8.87567e+00 
 3.86225e-01 -1.70830e-01  8.94521e+00 
 3.33918e-01 -1.48025e-01  9.00598e+00 
 2.81972e-01 -1.25246e-01  9.05803e+00 
 2.30309e-01 -1.02466e-01  9.10137e+00 
 1.78893e-01 -7.97001e-02  9.13603e+00 
 1.27648e-01 -5.69253e-02  9.16200e+00 
 7.65423e-02 -3.41597e-02  9.17931e+00 
 2.55031e-02 -1.13838e-02  9.18797e+00 
-2.55031e-02  1.13838e-02  9.18797e+00 
-7.65423e-02  3.41597e-02  9.17931e+00 
-1.27648e-01  5.69253e-02  9.16200e+00 
-1.78893e-01  7.97001e-02  9.13603e+00 
-2.30309e-01  1.02466e-01  9.10137e+00 
-2.81972e-01  1.25246e-01  9.05803e+00 
-3.33918e-01  1.48025e-01  9.00598e+00 
-3.86225e-01  1.70830e-01  8.94521e+00 
-4.38936e-01  1.93651e-01  8.87567e+00 
-4.92136e-01  2.16523e-01  8.79738e+00 
-5.45872e-01  2.39443e-01  8.71027e+00 
-6.00241e-01  2.62453e-01  8.61435e+00 
-6.55297e-01  2.85561e-01  8.50956e+00 
-7.11147e-01  3.08819e-01  8.39591e+00 
-7.67858e-01  3.32246e-01  8.27335e+00 
-8.25546e-01  3.55909e-01  8.14190e+00 
-8.84291e-01  3.79838e-01  8.00151e+00 
-9.44227e-01  4.04117e-01  7.85222e+00 
-1.00544e+00  4.28791e-01  7.69398e+00 
-1.06809e+00  4.53961e-01  7.52689e+00 
-1.13228e+00  4.79691e-01  7.35091e+00 
-1.19817e+00  5.06099e-01  7.16617e+00 
-1.26588e+00  5.33267e-01  6.97268e+00 
-1.33560e+00  5.61335e-01  6.77062e+00 
-1.40745e+00  5.90398e-01  6.56005e+00 
-1.48164e+00  6.20617e-01  6.34125e+00 
-1.55831e+00  6.52102e-01  6.11432e+00 
-1.63764e+00  6.85025e-01  5.87966e+00 
-1.71980e+00  7.19505e-01  5.63747e+00 
-1.80497e+00  7.55720e-01  5.38824e+00 
-1.89327e+00  7.93784e-01  5.13232e+00 
-1.98488e+00  8.33866e-01  4.87034e+00 
-2.07989e+00  8.76056e-01  4.60277e+00 
-2.17842e+00  9.20492e-01  4.33041e+00 
-2.28049e+00  9.67216e-01  4.05387e+00 
-2.38614e+00  1.01631e+00  3.77411e+00 
-2.49527e+00  1.06772e+00  3.49186e+00 
-2.60781e+00  1.12143e+00  3.20821e+00 
-2.72350e+00  1.17729e+00  2.92398e+00 
-2.84211e+00  1.23515e+00  2.64031e+00 
-2.96319e+00  1.29469e+00  2.35804e+00 
-3.08630e+00  1.35561e+00  2.07824e+00 
-3.21081e+00  1.41745e+00  1.80166e+00 
-3.33607e+00  1.47975e+00  1.52923e+00 
-3.46127e+00  1.54188e+00  1.26146e+00 
-3.58557e+00  1.60323e+00  9.99009e-01 
-3.70800e+00  1.66306e+00  7.42033e-01 
-3.82758e+00  1.72064e+00  4.90783e-01 
-3.94325e+00  1.77520e+00  2.44921e-01 
-4.05352e+00  1.83986e+00  1.44982e-01 
 3.73951e+00 -1.69935e+00  1.31732e-01 
 3.61691e+00 -1.62741e+00  2.21428e-01 
 3.48813e+00 -1.56660e+00  4.44380e-01 
 3.35516e+00 -1.50256e+00  6.78881e-01 
 3.21986e+00 -1.43654e+00  9.25038e-01 
 3.08365e+00 -1.36967e+00  1.18221e+00 
 2.94795e+00 -1.30300e+00  1.44954e+00 
 2.81391e+00 -1.23737e+00  1.72569e+00 
 2.68262e+00 -1.17357e+00  2.00941e+00 
 2.55490e+00 -1.11216e+00  2.29901e+00 
 2.43146e+00 -1.05367e+00  2.59300e+00 
 2.31274e+00 -9.98344e-01  2.88956e+00 
 2.19906e+00 -9.46414e-01  3.18720e+00 
 2.09054e+00 -8.97888e-01  3.48420e+00 
 1.98724e+00 -8.52759e-01  3.77928e+00 
 1.88902e+00 -8.10859e-01  4.07098e+00 
 1.79576e+00 -7.72041e-01  4.35828e+00 
 1.70721e+00 -7.36043e-01  4.64005e+00 
 1.62314e+00 -7.02649e-01  4.91556e+00 
 1.54324e+00 -6.71564e-01  5.18398e+00 
 1.46724e+00 -6.42555e-01  5.44483e+00 
 1.39483e+00 -6.15332e-01  5.69754e+00 
 1.32574e+00 -5.89674e-01  5.94183e+00 
 1.25965e+00 -5.65322e-01  6.17733e+00 
 1.19634e+00 -5.42083e-01  6.40391e+00 
 1.13552e+00 -5.19735e-01  6.62134e+00 
 1.07697e+00 -4.98121e-01  6.82961e+00 
 1.02045e+00 -4.77058e-01  7.02859e+00 
 9.65788e-01 -4.56425e-01  7.21832e+00 
 9.12765e-01 -4.36077e-01  7.39875e+00 
 8.61235e-01 -4.15926e-01  7.56998e+00 
 8.11018e-01 -3.95862e-01  7.73200e+00 
 7.61994e-01 -3.75823e-01  7.88492e+00 
 7.14014e-01 -3.55730e-01  8.02875e+00 
 6.66980e-01 -3.35546e-01  8.16363e+00 
 6.20767e-01 -3.15214e-01  8.28958e+00 
 5.75298e-01 -2.94719e-01  8.40674e+00 
 5.30469e-01 -2.74025e-01  8.51513e+00 
 4.86220e-01 -2.53130e-01  8.61487e+00 
 4.42461e-01 -2.32015e-01  8.70600e+00 
 3.99148e-01 -2.10694e-01  8.78862e+00 
 3.56204e-01 -1.89156e-01  8.86278e+00 
 3.13593e-01 -1.67426e-01  8.92855e+00 
 2.71251e-01 -1.45504e-01  8.98597e+00 
 2.29150e-01 -1.23422e-01  9.03510e+00 
 1.87231e-01 -1.01187e-01  9.07597e+00 
 1.45474e-01 -7.88356e-02  9.10863e+00 
 1.03825e-01 -5.63795e-02  9.13310e+00 
 6.22661e-02 -3.38594e-02  9.14940e+00 
 2.07479e-02 -1.12893e-02  9.15755e+00 
-2.07479e-02  1.12893e-02  9.15755e+00 
-6.22661e-02  3.38594e-02  9.14940e+00 
-1.03825e-01  5.63795e-02  9.13310e+00 
-1.45474e-01  7.88356e-02  9.10863e+00 
-1.87231e-01  1.01187e-01  9.07597e+00 
-2.29150e-01  1.23422e-01  9.03510e+00 
-2.71251e-01  1.45504e-01  8.98597e+00 
-3.13593e-01  1.67426e-01  8.92855e+00 
-3.56204e-01  1.89156e-01  8.86278e+00 
-3.99148e-01  2.10694e-01  8.78862e+00 
-4.42461e-01  2.32015e-01  8.70600e+00 
-4.86220e-01  2.53130e-01  8.61487e+00 
-5.30469e-01  2.74025e-01  8.51513e+00 
-5.75298e-01  2.94719e-01  8.40674e+00 
-6.20767e-01  3.15214e-01  8.28958e+00 
-6.66980e-01  3.35546e-01  8.16363e+00 
-7.14014e-01  3.55730e-01  8.02875e+00 
-7.61994e-01  3.75823e-01  7.88492e+00 
-8.11018e-01  3.95862e-01  7.73200e+00 
-8.61235e-01  4.15926e-01  7.56998e+00 
-9.12765e-01  4.36077e-01  7.39875e+00 
-9.65788e-01  4.56425e-01  7.21832e+00 
-1.02045e+00  4.77058e-01  7.02859e+00 
-1.07697e+00  4.98121e-01  6.82961e+00 
-1.13552e+00  5.19735e-01  6.62134e+00 
-1.19634e+00  5.42083e-01  6.40391e+00 
-1.25965e+00  5.65322e-01  6.17733e+00 
-1.32574e+00  5.89674e-01  5.94183e+00 
-1.39483e+00  6.15332e-01  5.69754e+00 
-1.46724e+00  6.42555e-01  5.44483e+00 
-1.54324e+00  6.71564e-01  5.18398e+00 
-1.62314e+00  7.02649e-01  4.91556e+00 
-1.70721e+00  7.36043e-01  4.64005e+00 
-1.79576e+00  7.72041e-01  4.35828e+00 
-1.88902e+00  8.10859e-01  4.07098e+00 
-1.98724e+00  8.52759e-01  3.77928e+00 
-2.09054e+00  8.97888e-01  3.48420e+00 
-2.19906e+00  9.46414e-01  3.18720e+00 
-2.31274e+00  9.98344e-01  2.88956e+00 
-2.43146e+00  1.05367e+00  2.59300e+00 
-2.55490e+00  1.11216e+00  2.29901e+00 
-2.68262e+00  1.17357e+00  2.00941e+00 
-2.81391e+00  1.23737e+00  1.72569e+00 
-2.94795e+00  1.30300e+00  1.44954e+00 
-3.08365e+00  1.36967e+00  1.18221e+00 
-3.21986e+00  1.43654e+00  9.25038e-01 
-3.35516e+00  1.50256e+00  6.78881e-01 
-3.48813e+00  1.56660e+00  4.44380e-01 
-3.61691e+00  1.62741e+00  2.21428e-01 
-3.73951e+00  1.69935e+00  1.31732e-01 
 3.47654e+00 -1.58323e+00  1.17977e-01 
 3.32978e+00 -1.49757e+00  1.97505e-01 
 3.17493e+00 -1.42474e+00  3.95930e-01 
 3.01751e+00 -1.34953e+00  6.16206e-01 
 2.85948e+00 -1.27379e+00  8.57488e-01 
 2.70310e+00 -1.19895e+00  1.11739e+00 
 2.55051e+00 -1.12651e+00  1.39391e+00 
 2.40341e+00 -1.05768e+00  1.68436e+00 
 2.26318e+00 -9.93481e-01  1.98599e+00 
 2.13062e+00 -9.34454e-01  2.29560e+00 
 2.00625e+00 -8.80929e-01  2.61030e+00 
 1.89012e+00 -8.32861e-01  2.92707e+00 
 1.78212e+00 -7.90084e-01  3.24350e+00 
 1.68190e+00 -7.52199e-01  3.55720e+00 
 1.58901e+00 -7.18791e-01  3.86644e+00 
 1.50291e+00 -6.89323e-01  4.16953e+00 
 1.42306e+00 -6.63305e-01  4.46538e+00 
 1.34886e+00 -6.40191e-01  4.75289e+00 
 1.27976e+00 -6.19517e-01  5.03147e+00 
 1.21521e+00 -6.00796e-01  5.30047e+00 
 1.15474e+00 -5.83632e-01  5.55965e+00 
 1.09784e+00 -5.67625e-01  5.80867e+00 
 1.04411e+00 -5.52458e-01  6.04752e+00 
 9.93154e-01 -5.37819e-01  6.27607e+00 
 9.44635e-01 -5.23472e-01  6.49443e+00 
 8.98223e-01 -5.09183e-01  6.70262e+00 
 8.53659e-01 -4.94784e-01  6.90081e+00 
 8.10678e-01 -4.80109e-01  7.08910e+00 
 7.69081e-01 -4.65047e-01  7.26769e+00 
 7.28658e-01 -4.49487e-01  7.43671e+00 
 6.89260e-01 -4.33364e-01  7.59639e+00 
 6.50722e-01 -4.16609e-01  7.74686e+00 
 6.12933e-01 -3.99193e-01  7.88834e+00 
 5.75765e-01 -3.81080e-01  8.02096e+00 
 5.39137e-01 -3.62269e-01  8.14492e+00 
 5.02951e-01 -3.42751e-01  8.26034e+00 
 4.67150e-01 -3.22543e-01  8.36742e+00 
 4.31657e-01 -3.01657e-01  8.46626e+00 
 3.96433e-01 -2.80126e-01  8.55701e+00 
 3.61419e-01 -2.57975e-01  8.63977e+00 
 3.26590e-01 -2.35250e-01  8.71467e+00 
 2.91901e-01 -2.11986e-01  8.78180e+00 
 2.57337e-01 -1.88237e-01  8.84126e+00 
 2.22860e-01 -1.64047e-01  8.89310e+00 
 1.88467e-01 -1.39475e-01  8.93742e+00 
 1.54125e-01 -1.14570e-01  8.97426e+00 
 1.19835e-01 -8.93968e-02  9.00368e+00 
 8.55718e-02 -6.40064e-02  9.02571e+00 
 5.13375e-02 -3.84672e-02  9.04037e+00 
 1.71094e-02 -1.28317e-02  9.04771e+00 
-1.71094e-02  1.28317e-02  9.04771e+00 
-5.13375e-02  3.84672e-02  9.04037e+00 
-8.55718e-02  6.40064e-02  9.02571e+00 
-1.19835e-01  8.93968e-02  9.00368e+00 
-1.54125e-01  1.14570e-01  8.97426e+00 
-1.88467e-01  1.39475e-01  8.93742e+00 
-2.22860e-01  1.64047e-01  8.89310e+00 
-2.57337e-01  1.88237e-01  8.84126e+00 
-2.91901e-01  2.11986e-01  8.78180e+00 
-3.26590e-01  2.35250e-01  8.71467e+00 
-3.61419e-01  2.57975e-01  8.63977e+00 
-3.96433e-01  2.80126e-01  8.55701e+00 
-4.31657e-01  3.01657e-01  8.46626e+00 
-4.67150e-01  3.22543e-01  8.36742e+00 
-5.02951e-01  3.42751e-01  8.26034e+00 
-5.39137e-01  3.62269e-01  8.14492e+00 
-5.75765e-01  3.81080e-01  8.02096e+00 
-6.12933e-01  3.99193e-01  7.88834e+00 
-6.50722e-01  4.16609e-01  7.74686e+00 
-6.89260e-01  4.33364e-01  7.59639e+00 
-7.28658e-01  4.49487e-01  7.43671e+00 
-7.69081e-01  4.65047e-01  7.26769e+00 
-8.10678e-01  4.80109e-01  7.08910e+00 
-8.53659e-01  4.94784e-01  6.90081e+00 
-8.98223e-01  5.09183e-01  6.70262e+00 
-9.44635e-01  5.23472e-01  6.49443e+00 
-9.93154e-01  5.37819e-01  6.27607e+00 
-1.04411e+00  5.52458e-01  6.04752e+00 
-1.09784e+00  5.67625e-01  5.80867e+00 
-1.15474e+00  5.83632e-01  5.55965e+00 
-1.21521e+00  6.00796e-01  5.30047e+00 
-1.27976e+00  6.19517e-01  5.03147e+00 
-1.34886e+00  6.40191e-01  4.75289e+00 
-1.42306e+00  6.63305e-01  4.46538e+00 
-1.50291e+00  6.89323e-01  4.16953e+00 
-1.58901e+00  7.18791e-01  3.86644e+00 
-1.68190e+00  7.52199e-01  3.55720e+00 
-1.78212e+00  7.90084e-01  3.24350e+00 
-1.89012e+00  8.32861e-01  2.92707e+00 
-2.00625e+00  8.80929e-01  2.61030e+00 
-2.13062e+00  9.34454e-01  2.29560e+00 
-2.26318e+00  9.93481e-01  1.98599e+00 
-2.40341e+00  1.05768e+00  1.68436e+00 
-2.55051e+00  1.12651e+00  1.39391e+00 
-2.70310e+00  1.19895e+00  1.11739e+00 
-2.85948e+00  1.27379e+00  8.57488e-01 
-3.01751e+00  1.34953e+00  6.16206e-01 
-3.17493e+00  1.42474e+00  3.95930e-01 
-3.32978e+00  1.49757e+00  1.97505e-01 
-3.47654e+00  1.58323e+00  1.17977e-01 
 3.27616e+00 -1.50047e+00  1.11267e-01 
 3.07952e+00 -1.38417e+00  1.76721e-01 
 2.88133e+00 -1.29240e+00  3.57323e-01 
 2.68112e+00 -1.20012e+00  5.75754e-01 
 2.48529e+00 -1.10982e+00  8.26960e-01 
 2.29837e+00 -1.02487e+00  1.10847e+00 
 2.12382e+00 -9.48039e-01  1.41518e+00 
 1.96343e+00 -8.80783e-01  1.74057e+00 
 1.81788e+00 -8.23650e-01  2.07828e+00 
 1.68689e+00 -7.76306e-01  2.42215e+00 
 1.56973e+00 -7.38036e-01  2.76727e+00 
 1.46522e+00 -7.07754e-01  3.10936e+00 
 1.37216e+00 -6.84344e-01  3.44540e+00 
 1.28921e+00 -6.66595e-01  3.77285e+00 
 1.21514e+00 -6.53424e-01  4.09017e+00 
 1.14874e+00 -6.43772e-01  4.39609e+00 
 1.08897e+00 -6.36748e-01  4.69001e+00 
 1.03481e+00 -6.31524e-01  4.97144e+00 
 9.85445e-01 -6.27430e-01  5.24035e+00 
 9.40086e-01 -6.23862e-01  5.49668e+00 
 8.98099e-01 -6.20348e-01  5.74072e+00 
 8.58898e-01 -6.16473e-01  5.97264e+00 
 8.22015e-01 -6.11923e-01  6.19284e+00 
 7.87013e-01 -6.06428e-01  6.40164e+00 
 7.53555e-01 -5.99797e-01  6.59945e+00 
 7.21324e-01 -5.91868e-01  6.78662e+00 
 6.90081e-01 -5.82538e-01  6.96356e+00 
 6.59598e-01 -5.71724e-01  7.13062e+00 
 6.29710e-01 -5.59386e-01  7.28817e+00 
 6.00254e-01 -5.45496e-01  7.43652e+00 
 5.71120e-01 -5.30060e-01  7.57602e+00 
 5.42193e-01 -5.13089e-01  7.70693e+00 
 5.13404e-01 -4.94619e-01  7.82954e+00 
 4.84672e-01 -4.74689e-01  7.94410e+00 
 4.55958e-01 -4.53356e-01  8.05085e+00 
 4.27207e-01 -4.30676e-01  8.14998e+00 
 3.98401e-01 -4.06721e-01  8.24172e+00 
 3.69503e-01 -3.81560e-01  8.32622e+00 
 3.40511e-01 -3.55275e-01  8.40365e+00 
 3.11402e-01 -3.27943e-01  8.47415e+00 
 2.82184e-01 -2.99651e-01  8.53785e+00 
 2.52845e-01 -2.70482e-01  8.59487e+00 
 2.23400e-01 -2.40528e-01  8.64531e+00 
 1.93844e-01 -2.09875e-01  8.68926e+00 
 1.64198e-01 -1.78618e-01  8.72679e+00 
 1.34462e-01 -1.46845e-01  8.75797e+00 
 1.04661e-01 -1.14652e-01  8.78284e+00 
 7.47967e-02 -8.21286e-02  8.80147e+00 
 4.48974e-02 -4.93722e-02  8.81387e+00 
 1.49671e-02 -1.64731e-02  8.82006e+00 
-1.49671e-02  1.64731e-02  8.82006e+00 
-4.48974e-02  4.93722e-02  8.81387e+00 
-7.47967e-02  8.21286e-02  8.80147e+00 
-1.04661e-01  1.14652e-01  8.78284e+00 
-1.34462e-01  1.46845e-01  8.75797e+00 
-1.64198e-01  1.78618e-01  8.72679e+00 
-1.93844e-01  2.09875e-01  8.68926e+00 
-2.23400e-01  2.40528e-01  8.64531e+00 
-2.52845e-01  2.70482e-01  8.59487e+00 
-2.82184e-01  2.99651e-01  8.53785e+00 
-3.11402e-01  3.27943e-01  8.47415e+00 
-3.40511e-01  3.55275e-01  8.40365e+00 
-3.69503e-01  3.81560e-01  8.32622e+00 
-3.98401e-01  4.06721e-01  8.24172e+00 
-4.27207e-01  4.30676e-01  8.14998e+00 
-4.55958e-01  4.53356e-01  8.05085e+00 
-4.84672e-01  4.74689e-01  7.94410e+00 
-5.13404e-01  4.94619e-01  7.82954e+00 
-5.42193e-01  5.13089e-01  7.70693e+00 
-5.71120e-01  5.30060e-01  7.57602e+00 
-6.00254e-01  5.45496e-01  7.43652e+00 
-6.29710e-01  5.59386e-01  7.28817e+00 
-6.59598e-01  5.71724e-01  7.13062e+00 
-6.90081e-01  5.82538e-01  6.96356e+00 
-7.21324e-01  5.91868e-01  6.78662e+00 
-7.53555e-01  5.99797e-01  6.59945e+00 
-7.87013e-01  6.06428e-01  6.40164e+00 
-8.22015e-01  6.11923e-01  6.19284e+00 
-8.58898e-01  6.16473e-01  5.97264e+00 
-8.98099e-01  6.20348e-01  5.74072e+00 
-9.40086e-01  6.23862e-01  5.49668e+00 
-9.85445e-01  6.27430e-01  5.24035e+00 
-1.03481e+00  6.31524e-01  4.97144e+00 
-1.08897e+00  6.36748e-01  4.69001e+00 
-1.14874e+00  6.43772e-01  4.39609e+00 
-1.21514e+00  6.53424e-01  4.09017e+00 
-1.28921e+00  6.66595e-01  3.77285e+00 
-1.37216e+00  6.84344e-01  3.44540e+00 
-1.46522e+00  7.07754e-01  3.10936e+00 
-1.56973e+00  7.38036e-01  2.76727e+00 
-1.68689e+00  7.76306e-01  2.42215e+00 
-1.81788e+00  8.23650e-01  2.07828e+00 
-1.96343e+00  8.80783e-01  1.74057e+00 
-2.12382e+00  9.48039e-01  1.41518e+00 
-2.29837e+00  1.02487e+00  1.10847e+00 
-2.48529e+00  1.10982e+00  8.26960e-01 
-2.68112e+00  1.20012e+00  5.75754e-01 
-2.88133e+00  1.29240e+00  3.57323e-01 
-3.07952e+00  1.38417e+00  1.76721e-01 
-3.27616e+00  1.50047e+00  1.11267e-01 
 3.12876e+00 -1.43752e+00  1.07269e-01 
 2.86450e+00 -1.29124e+00  1.91140e-01 
 2.57234e+00 -1.16201e+00  3.71266e-01 
 2.29636e+00 -1.03667e+00  6.11737e-01 
 2.04741e+00 -9.27799e-01  9.17333e-01 
 1.83018e+00 -8.40788e-01  1.26870e+00 
 1.64455e+00 -7.76070e-01  1.64765e+00 
 1.48797e+00 -7.31565e-01  2.03858e+00 
 1.35702e+00 -7.04257e-01  2.43019e+00 
 1.24795e+00 -6.90770e-01  2.81432e+00 
 1.15727e+00 -6.87985e-01  3.18590e+00 
 1.08174e+00 -6.93049e-01  3.54161e+00 
 1.01861e+00 -7.03586e-01  3.87989e+00 
 9.65484e-01 -7.17572e-01  4.19991e+00 
 9.20377e-01 -7.33405e-01  4.50176e+00 
 8.81606e-01 -7.49772e-01  4.78579e+00 
 8.47818e-01 -7.65672e-01  5.05274e+00 
 8.17868e-01 -7.80311e-01  5.30341e+00 
 7.90857e-01 -7.93108e-01  5.53876e+00 
 7.66022e-01 -8.03621e-01  5.75967e+00 
 7.42778e-01 -8.11548e-01  5.96707e+00 
 7.20626e-01 -8.16678e-01  6.16180e+00 
 6.99192e-01 -8.18884e-01  6.34470e+00 
 6.78155e-01 -8.18099e-01  6.51649e+00 
 6.57284e-01 -8.14308e-01  6.67787e+00 
 6.36377e-01 -8.07533e-01  6.82947e+00 
 6.15297e-01 -7.97823e-01  6.97186e+00 
 5.93920e-01 -7.85255e-01  7.10555e+00 
 5.72173e-01 -7.69916e-01  7.23099e+00 
 5.49984e-01 -7.51911e-01  7.34862e+00 
 5.27323e-01 -7.31351e-01  7.45879e+00 
 5.04152e-01 -7.08356e-01  7.56186e+00 
 4.80467e-01 -6.83048e-01  7.65811e+00 
 4.56254e-01 -6.55556e-01  7.74782e+00 
 4.31529e-01 -6.26004e-01  7.83122e+00 
 4.06291e-01 -5.94526e-01  7.90854e+00 
 3.80569e-01 -5.61246e-01  7.97996e+00 
 3.54372e-01 -5.26298e-01  8.04566e+00 
 3.27737e-01 -4.89807e-01  8.10579e+00 
 3.00681e-01 -4.51905e-01  8.16048e+00 
 2.73245e-01 -4.12714e-01  8.20984e+00 
 2.45449e-01 -3.72364e-01  8.25400e+00 
 2.17340e-01 -3.30977e-01  8.29303e+00 
 1.88941e-01 -2.88681e-01  8.32702e+00 
 1.60300e-01 -2.45596e-01  8.35604e+00 
 1.31442e-01 -2.01848e-01  8.38013e+00 
 1.02416e-01 -1.57554e-01  8.39935e+00 
 7.32492e-02 -1.12841e-01  8.41374e+00 
 4.39910e-02 -6.78247e-02  8.42331e+00 
 1.46687e-02 -2.26294e-02  8.42809e+00 
-1.46687e-02  2.26294e-02  8.42809e+00 
-4.39910e-02  6.78247e-02  8.42331e+00 
-7.32492e-02  1.12841e-01  8.41374e+00 
-1.02416e-01  1.57554e-01  8.39935e+00 
-1.31442e-01  2.01848e-01  8.38013e+00 
-1.60300e-01  2.45596e-01  8.35604e+00 
-1.88941e-01  2.88681e-01  8.32702e+00 
-2.17340e-01  3.30977e-01  8.29303e+00 
-2.45449e-01  3.72364e-01  8.25400e+00 
-2.73245e-01  4.12714e-01  8.20984e+00 
-3.00681e-01  4.51905e-01  8.16048e+00 
-3.27737e-01  4.89807e-01  8.10579e+00 
-3.54372e-01  5.26298e-01  8.04566e+00 
-3.80569e-01  5.61246e-01  7.97996e+00 
-4.06291e-01  5.94526e-01  7.90854e+00 
-4.31529e-01  6.26004e-01  7.83122e+00 
-4.56254e-01  6.55556e-01  7.74782e+00 
-4.80467e-01  6.83048e-01  7.65811e+00 
-5.04152e-01  7.08356e-01  7.56186e+00 
-5.27323e-01  7.31351e-01  7.45879e+00 
-5.49984e-01  7.51911e-01  7.34862e+00 
-5.72173e-01  7.69916e-01  7.23099e+00 
-5.93920e-01  7.85255e-01  7.10555e+00 
-6.15297e-01  7.97823e-01  6.97186e+00 
-6.36377e-01  8.07533e-01  6.82947e+00 
-6.57284e-01  8.14308e-01  6.67787e+00 
-6.78155e-01  8.18099e-01  6.51649e+00 
-6.99192e-01  8.18884e-01  6.34470e+00 
-7.20626e-01  8.16678e-01  6.16180e+00 
-7.42778e-01  8.11548e-01  5.96707e+00 
-7.66022e-01  8.03621e-01  5.75967e+00 
-7.90857e-01  7.93108e-01  5.53876e+00 
-8.17868e-01  7.80311e-01  5.30341e+00 
-8.47818e-01  7.65672e-01  5.05274e+00 
-8.81606e-01  7.49772e-01  4.78579e+00 
-9.20377e-01  7.33405e-01  4.50176e+00 
-9.65484e-01  7.17572e-01  4.19991e+00 
-1.01861e+00  7.03586e-01  3.87989e+00 
-1.08174e+00  6.93049e-01  3.54161e+00 
-1.15727e+00  6.87985e-01  3.18590e+00 
-1.24795e+00  6.90770e-01  2.81432e+00 
-1.35702e+00  7.04257e-01  2.43019e+00 
-1.48797e+00  7.31565e-01  2.03858e+00 
-1.64455e+00  7.76070e-01  1.64765e+00 
-1.83018e+00  8.40788e-01  1.26870e+00 
-2.04741e+00  9.27799e-01  9.17333e-01 
-2.29636e+00  1.03667e+00  6.11737e-01 
-2.57234e+00  1.16201e+00  3.71266e-01 
-2.86450e+00  1.29124e+00  1.91140e-01 
-3.12876e+00  1.43752e+00  1.07269e-01 
 3.09173e+00 -1.50687e+00  2.86885e-01 
 2.54261e+00 -1.16486e+00  3.01884e-01 
 2.10122e+00 -9.49608e-01  5.33992e-01 
 1.75839e+00 -8.08627e-01  9.47726e-01 
 1.49902e+00 -7.32786e-01  1.42709e+00 
 1.30525e+00 -7.04934e-01  1.91939e+00 
 1.16188e+00 -7.11363e-01  2.39686e+00 
 1.05651e+00 -7.40600e-01  2.84563e+00 
 9.79510e-01 -7.84062e-01  3.26042e+00 
 9.23441e-01 -8.35312e-01  3.64008e+00 
 8.82690e-01 -8.89760e-01  3.98602e+00 
 8.52955e-01 -9.44108e-01  4.30061e+00 
 8.31041e-01 -9.96105e-01  4.58674e+00 
 8.14503e-01 -1.04421e+00  4.84731e+00 
 8.01543e-01 -1.08745e+00  5.08511e+00 
 7.90787e-01 -1.12521e+00  5.30269e+00 
 7.81243e-01 -1.15720e+00  5.50231e+00 
 7.72149e-01 -1.18328e+00  5.68601e+00 
 7.62973e-01 -1.20347e+00  5.85551e+00 
 7.53306e-01 -1.21789e+00  6.01235e+00 
 7.42877e-01 -1.22671e+00  6.15780e+00 
 7.31478e-01 -1.23014e+00  6.29303e+00 
 7.18989e-01 -1.22841e+00  6.41897e+00 
 7.05316e-01 -1.22178e+00  6.53649e+00 
 6.90424e-01 -1.21050e+00  6.64625e+00 
 6.74284e-01 -1.19481e+00  6.74892e+00 
 6.56909e-01 -1.17497e+00  6.84498e+00 
 6.38306e-01 -1.15121e+00  6.93493e+00 
 6.18516e-01 -1.12376e+00  7.01913e+00 
 5.97565e-01 -1.09286e+00  7.09796e+00 
 5.75508e-01 -1.05872e+00  7.17168e+00 
 5.52380e-01 -1.02154e+00  7.24059e+00 
 5.28247e-01 -9.81518e-01  7.30488e+00 
 5.03149e-01 -9.38856e-01  7.36479e+00 
 4.77152e-01 -8.93731e-01  7.42045e+00 
 4.50300e-01 -8.46326e-01  7.47205e+00 
 4.22662e-01 -7.96808e-01  7.51970e+00 
 3.94280e-01 -7.45350e-01  7.56354e+00 
 3.65225e-01 -6.92107e-01  7.60365e+00 
 3.35538e-01 -6.37244e-01  7.64014e+00 
 3.05289e-01 -5.80906e-01  7.67308e+00 
 2.74520e-01 -5.23251e-01  7.70256e+00 
 2.43300e-01 -4.64419e-01  7.72860e+00 
 2.11669e-01 -4.04560e-01  7.75130e+00 
 1.79697e-01 -3.43810e-01  7.77066e+00 
 1.47422e-01 -2.82316e-01  7.78675e+00 
 1.14914e-01 -2.20207e-01  7.79958e+00 
 8.22124e-02 -1.57630e-01  7.80919e+00 
 4.93838e-02 -9.47119e-02  7.81558e+00 
 1.64685e-02 -3.15953e-02  7.81878e+00 
-1.64685e-02  3.15953e-02  7.81878e+00 
-4.93838e-02  9.47119e-02  7.81558e+00 
-8.22124e-02  1.57630e-01  7.80919e+00 
-1.14914e-01  2.20207e-01  7.79958e+00 
-1.47422e-01  2.82316e-01  7.78675e+00 
-1.79697e-01  3.43810e-01  7.77066e+00 
-2.11669e-01  4.04560e-01  7.75130e+00 
-2.43300e-01  4.64419e-01  7.72860e+00 
-2.74520e-01  5.23251e-01  7.70256e+00 
-3.05289e-01  5.80906e-01  7.67308e+00 
-3.35538e-01  6.37244e-01  7.64014e+00 
-3.65225e-01  6.92107e-01  7.60365e+00 
-3.94280e-01  7.45350e-01  7.56354e+00 
-4.22662e-01  7.96808e-01  7.51970e+00 
-4.50300e-01  8.46326e-01  7.47205e+00 
-4.77152e-01  8.93731e-01  7.42045e+00 
-5.03149e-01  9.38856e-01  7.36479e+00 
-5.28247e-01  9.81518e-01  7.30488e+00 
-5.52380e-01  1.02154e+00  7.24059e+00 
-5.75508e-01  1.05872e+00  7.17168e+00 
-5.97565e-01  1.09286e+00  7.09796e+00 
-6.18516e-01  1.12376e+00  7.01913e+00 
-6.38306e-01  1.15121e+00  6.93493e+00 
-6.56909e-01  1.17497e+00  6.84498e+00 
-6.74284e-01  1.19481e+00  6.74892e+00 
-6.90424e-01  1.21050e+00  6.64625e+00 
-7.05316e-01  1.22178e+00  6.53649e+00 
-7.18989e-01  1.22841e+00  6.41897e+00 
-7.31478e-01  1.23014e+00  6.29303e+00 
-7.42877e-01  1.22671e+00  6.15780e+00 
-7.53306e-01  1.21789e+00  6.01235e+00 
-7.62973e-01  1.20347e+00  5.85551e+00 
-7.72149e-01  1.18328e+00  5.68601e+00 
-7.81243e-01  1.15720e+00  5.50231e+00 
-7.90787e-01  1.12521e+00  5.30269e+00 
-8.01543e-01  1.08745e+00  5.08511e+00 
-8.14503e-01  1.04421e+00  4.84731e+00 
-8.31041e-01  9.96105e-01  4.58674e+00 
-8.52955e-01  9.44108e-01  4.30061e+00 
-8.82690e-01  8.89760e-01  3.98602e+00 
-9.23441e-01  8.35312e-01  3.64008e+00 
-9.79510e-01  7.84062e-01  3.26042e+00 
-1.05651e+00  7.40600e-01  2.84563e+00 
-1.16188e+00  7.11363e-01  2.39686e+00 
-1.30525e+00  7.04934e-01  1.91939e+00 
-1.49902e+00  7.32786e-01  1.42709e+00 
-1.75839e+00  8.08627e-01  9.47726e-01 
-2.10122e+00  9.49608e-01  5.33992e-01 
-2.54261e+00  1.16486e+00  3.01884e-01 
-3.09173e+00  1.50687e+00  2.86885e-01 
 2.45346e+00 -1.12920e+00  3.65665e-01 
 1.81832e+00 -7.64195e-01  7.85854e-01 
 1.44751e+00 -7.07616e-01  1.64063e+00 
 1.22721e+00 -7.81974e-01  2.40359e+00 
 1.09679e+00 -9.03730e-01  3.03220e+00 
 1.02157e+00 -1.04444e+00  3.54724e+00 
 9.80510e-01 -1.18611e+00  3.96877e+00 
 9.60476e-01 -1.31982e+00  4.31602e+00 
 9.53102e-01 -1.44104e+00  4.60450e+00 
 9.52970e-01 -1.54798e+00  4.84676e+00 
 9.56552e-01 -1.64018e+00  5.05234e+00 
 9.61546e-01 -1.71809e+00  5.22887e+00 
 9.66453e-01 -1.78241e+00  5.38202e+00 
 9.70315e-01 -1.83416e+00  5.51645e+00 
 9.72528e-01 -1.87428e+00  5.63550e+00 
 9.72734e-01 -1.90378e+00  5.74205e+00 
 9.70731e-01 -1.92352e+00  5.83810e+00 
 9.66430e-01 -1.93438e+00  5.92545e+00 
 9.59809e-01 -1.93707e+00  6.00531e+00 
 9.50896e-01 -1.93231e+00  6.07884e+00 
 9.39747e-01 -1.92065e+00  6.14678e+00 
 9.26438e-01 -1.90268e+00  6.20991e+00 
 9.11055e-01 -1.87884e+00  6.26867e+00 
 8.93688e-01 -1.84961e+00  6.32360e+00 
 8.74437e-01 -1.81534e+00  6.37496e+00 
 8.53391e-01 -1.77642e+00  6.42316e+00 
 8.30649e-01 -1.73314e+00  6.46834e+00 
 8.06297e-01 -1.68584e+00  6.51080e+00 
 7.80431e-01 -1.63475e+00  6.55064e+00 
 7.53132e-01 -1.58015e+00  6.58807e+00 
 7.24489e-01 -1.52226e+00  6.62315e+00 
 6.94577e-01 -1.46133e+00  6.65605e+00 
 6.63483e-01 -1.39753e+00  6.68681e+00 
 6.31274e-01 -1.33109e+00  6.71556e+00 
 5.98033e-01 -1.26218e+00  6.74232e+00 
 5.63824e-01 -1.19100e+00  6.76719e+00 
 5.28726e-01 -1.11770e+00  6.79019e+00 
 4.92796e-01 -1.04247e+00  6.81140e+00 
 4.56114e-01 -9.65453e-01  6.83083e+00 
 4.18732e-01 -8.86822e-01  6.84854e+00 
 3.80727e-01 -8.06711e-01  6.86454e+00 
 3.42150e-01 -7.25290e-01  6.87888e+00 
 3.03075e-01 -6.42686e-01  6.89156e+00 
 2.63551e-01 -5.59062e-01  6.90262e+00 
 2.23652e-01 -4.74541e-01  6.91207e+00 
 1.83422e-01 -3.89280e-01  6.91992e+00 
 1.42938e-01 -3.03401e-01  6.92619e+00 
 1.02241e-01 -2.17056e-01  6.93088e+00 
 6.14063e-02 -1.30367e-01  6.93401e+00 
 2.04764e-02 -4.34816e-02  6.93556e+00 
-2.04764e-02  4.34816e-02  6.93556e+00 
-6.14063e-02  1.30367e-01  6.93401e+00 
-1.02241e-01  2.17056e-01  6.93088e+00 
-1.42938e-01  3.03401e-01  6.92619e+00 
-1.83422e-01  3.89280e-01  6.91992e+00 
-2.23652e-01  4.74541e-01  6.91207e+00 
-2.63551e-01  5.59062e-01  6.90262e+00 
-3.03075e-01  6.42686e-01  6.89156e+00 
-3.42150e-01  7.25290e-01  6.87888e+00 
-3.80727e-01  8.06711e-01  6.86454e+00 
-4.18732e-01  8.86822e-01  6.84854e+00 
-4.56114e-01  9.65453e-01  6.83083e+00 
-4.92796e-01  1.04247e+00  6.81140e+00 
-5.28726e-01  1.11770e+00  6.79019e+00 
-5.63824e-01  1.19100e+00  6.76719e+00 
-5.98033e-01  1.26218e+00  6.74232e+00 
-6.31274e-01  1.33109e+00  6.71556e+00 
-6.63483e-01  1.39753e+00  6.68681e+00 
-6.94577e-01  1.46133e+00  6.65605e+00 
-7.24489e-01  1.52226e+00  6.62315e+00 
-7.53132e-01  1.58015e+00  6.58807e+00 
-7.80431e-01  1.63475e+00  6.55064e+00 
-8.06297e-01  1.68584e+00  6.51080e+00 
-8.30649e-01  1.73314e+00  6.46834e+00 
-8.53391e-01  1.77642e+00  6.42316e+00 
-8.74437e-01  1.81534e+00  6.37496e+00 
-8.93688e-01  1.84961e+00  6.32360e+00 
-9.11055e-01  1.87884e+00  6.26867e+00 
-9.26438e-01  1.90268e+00  6.20991e+00 
-9.39747e-01  1.92065e+00  6.14678e+00 
-9.50896e-01  1.93231e+00  6.07884e+00 
-9.59809e-01  1.93707e+00  6.00531e+00 
-9.66430e-01  1.93438e+00  5.92545e+00 
-9.70731e-01  1.92352e+00  5.83810e+00 
-9.72734e-01  1.90378e+00  5.74205e+00 
-9.72528e-01  1.87428e+00  5.63550e+00 
-9.70315e-01  1.83416e+00  5.51645e+00 
-9.66453e-01  1.78241e+00  5.38202e+00 
-9.61546e-01  1.71809e+00  5.22887e+00 
-9.56552e-01  1.64018e+00  5.05234e+00 
-9.52970e-01  1.54798e+00  4.84676e+00 
-9.53102e-01  1.44104e+00  4.60450e+00 
-9.60476e-01  1.31982e+00  4.31602e+00 
-9.80510e-01  1.18611e+00  3.96877e+00 
-1.02157e+00  1.04444e+00  3.54724e+00 
-1.09679e+00  9.03730e-01  3.03220e+00 
-1.22721e+00  7.81974e-01  2.40359e+00 
-1.44751e+00  7.07616e-01  1.64063e+00 
-1.81832e+00  7.64195e-01  7.85854e-01 
-2.45346e+00  1.12920e+00  3.65665e-01 
 1.92502e+00 -1.72493e+00  3.90743e-01 
 1.49100e+00 -1.80301e+00  1.41961e+00 
 1.31285e+00 -2.28283e+00  2.91695e+00 
 1.23708e+00 -2.59332e+00  3.80088e+00 
 1.20930e+00 -2.81405e+00  4.38698e+00 
 1.20403e+00 -2.96649e+00  4.78560e+00 
 1.20907e+00 -3.07104e+00  5.06520e+00 
 1.21811e+00 -3.14066e+00  5.26673e+00 
 1.22785e+00 -3.18488e+00  5.41547e+00 
 1.23646e+00 -3.20976e+00  5.52835e+00 
 1.24301e+00 -3.21993e+00  5.61607e+00 
 1.24698e+00 -3.21822e+00  5.68632e+00 
 1.24817e+00 -3.20697e+00  5.74387e+00 
 1.24649e+00 -3.18747e+00  5.79246e+00 
 1.24198e+00 -3.16101e+00  5.83423e+00 
 1.23470e+00 -3.12819e+00  5.87111e+00 
 1.22475e+00 -3.08978e+00  5.90406e+00 
 1.21223e+00 -3.04605e+00  5.93410e+00 
 1.19728e+00 -2.99753e+00  5.96166e+00 
 1.18000e+00 -2.94435e+00  5.98733e+00 
 1.16051e+00 -2.88691e+00  6.01125e+00 
 1.13891e+00 -2.82528e+00  6.03380e+00 
 1.11533e+00 -2.75979e+00  6.05500e+00 
 1.08985e+00 -2.69051e+00  6.07511e+00 
 1.06258e+00 -2.61770e+00  6.09410e+00 
 1.03361e+00 -2.54144e+00  6.11216e+00 
 1.00303e+00 -2.46196e+00  6.12922e+00 
 9.70918e-01 -2.37934e+00  6.14545e+00 
 9.37371e-01 -2.29381e+00  6.16077e+00 
 9.02454e-01 -2.20543e+00  6.17531e+00 
 8.66258e-01 -2.11442e+00  6.18901e+00 
 8.28844e-01 -2.02085e+00  6.20196e+00 
 7.90298e-01 -1.92493e+00  6.21411e+00 
 7.50677e-01 -1.82674e+00  6.22555e+00 
 7.10064e-01 -1.72646e+00  6.23623e+00 
 6.68512e-01 -1.62419e+00  6.24621e+00 
 6.26101e-01 -1.52010e+00  6.25546e+00 
 5.82881e-01 -1.41428e+00  6.26402e+00 
 5.38931e-01 -1.30690e+00  6.27188e+00 
 4.94298e-01 -1.19805e+00  6.27908e+00 
 4.49058e-01 -1.08791e+00  6.28558e+00 
 4.03258e-01 -9.76562e-01  6.29143e+00 
 3.56972e-01 -8.64163e-01  6.29660e+00 
 3.10245e-01 -7.50824e-01  6.30112e+00 
 2.63150e-01 -6.36679e-01  6.30499e+00 
 2.15731e-01 -5.21850e-01  6.30821e+00 
 1.68062e-01 -4.06461e-01  6.31078e+00 
 1.20185e-01 -2.90641e-01  6.31270e+00 
 7.21714e-02 -1.74507e-01  6.31399e+00 
 2.40649e-02 -5.81944e-02  6.31462e+00 
-2.40649e-02  5.81944e-02  6.31462e+00 
-7.21714e-02  1.74507e-01  6.31399e+00 
-1.20185e-01  2.90641e-01  6.31270e+00 
-1.68062e-01  4.06461e-01  6.31078e+00 
-2.15731e-01  5.21850e-01  6.30821e+00 
-2.63150e-01  6.36679e-01  6.30499e+00 
-3.10245e-01  7.50824e-01  6.30112e+00 
-3.56972e-01  8.64163e-01  6.29660e+00 
-4.03258e-01  9.76562e-01  6.29143e+00 
-4.49058e-01  1.08791e+00  6.28558e+00 
-4.94298e-01  1.19805e+00  6.27908e+00 
-5.38931e-01  1.30690e+00  6.27188e+00 
-5.82881e-01  1.41428e+00  6.26402e+00 
-6.26101e-01  1.52010e+00  6.25546e+00 
-6.68512e-01  1.62419e+00  6.24621e+00 
-7.10064e-01  1.72646e+00  6.23623e+00 
-7.50677e-01  1.82674e+00  6.22555e+00 
-7.90298e-01  1.92493e+00  6.21411e+00 
-8.28844e-01  2.02085e+00  6.20196e+00 
-8.66258e-01  2.11442e+00  6.18901e+00 
-9.02454e-01  2.20543e+00  6.17531e+00 
-9.37371e-01  2.29381e+00  6.16077e+00 
-9.70918e-01  2.37934e+00  6.14545e+00 
-1.00303e+00  2.46196e+00  6.12922e+00 
-1.03361e+00  2.54144e+00  6.11216e+00 
-1.06258e+00  2.61770e+00  6.09410e+00 
-1.08985e+00  2.69051e+00  6.07511e+00 
-1.11533e+00  2.75979e+00  6.05500e+00 
-1.13891e+00  2.82528e+00  6.03380e+00 
-1.16051e+00  2.88691e+00  6.01125e+00 
-1.18000e+00  2.94435e+00  5.98733e+00 
-1.19728e+00  2.99753e+00  5.96166e+00 
-1.21223e+00  3.04605e+00  5.93410e+00 
-1.22475e+00  3.08978e+00  5.90406e+00 
-1.23470e+00  3.12819e+00  5.87111e+00 
-1.24198e+00  3.16101e+00  5.83423e+00 
-1.24649e+00  3.18747e+00  5.79246e+00 
-1.24817e+00  3.20697e+00  5.74387e+00 
-1.24698e+00  3.21822e+00  5.68632e+00 
-1.24301e+00  3.21993e+00  5.61607e+00 
-1.23646e+00  3.20976e+00  5.52835e+00 
-1.22785e+00  3.18488e+00  5.41547e+00 
-1.21811e+00  3.14066e+00  5.26673e+00 
-1.20907e+00  3.07104e+00  5.06520e+00 
-1.20403e+00  2.96649e+00  4.78560e+00 
-1.20930e+00  2.81405e+00  4.38698e+00 
-1.23708e+00  2.59332e+00  3.80088e+00 
-1.31285e+00  2.28283e+00  2.91695e+00 
-1.49100e+00  1.80301e+00  1.41961e+00 
-1.92502e+00  1.72493e+00  3.90743e-01 
 3.19627e+01 -6.89392e+00  1.86286e+01 
 2.65924e+01 -5.93435e+00  1.88727e+01 
 2.32863e+01 -4.82576e+00  1.75368e+01 
 2.10906e+01 -4.00926e+00  1.60404e+01 
 1.94933e+01 -3.38194e+00  1.46239e+01 
 1.82521e+01 -2.89297e+00  1.33395e+01 
 1.72380e+01 -2.50521e+00  1.21934e+01 
 1.63770e+01 -2.19261e+00  1.11737e+01 
 1.56242e+01 -1.93690e+00  1.02650e+01 
 1.49504e+01 -1.72478e+00  9.45161e+00 
 1.43364e+01 -1.54665e+00  8.72038e+00 
 1.37685e+01 -1.39531e+00  8.05972e+00 
 1.32372e+01 -1.26541e+00  7.46025e+00 
 1.27352e+01 -1.15282e+00  6.91391e+00 
 1.22574e+01 -1.05441e+00  6.41428e+00 
 1.17995e+01 -9.67683e-01  5.95573e+00 
 1.13586e+01 -8.90714e-01  5.53377e+00 
 1.09319e+01 -8.21933e-01  5.14441e+00 
 1.05177e+01 -7.60111e-01  4.78445e+00 
 1.01141e+01 -7.04216e-01  4.45096e+00 
 9.72002e+00 -6.53433e-01  4.14160e+00 
 9.33418e+00 -6.07061e-01  3.85418e+00 
 8.95575e+00 -5.64538e-01  3.58694e+00 
 8.58386e+00 -5.25374e-01  3.33821e+00 
 8.21792e+00 -4.89171e-01  3.10663e+00 
 7.85727e+00 -4.55575e-01  2.89091e+00 
 7.50148e+00 -4.24296e-01  2.68999e+00 
 7.15003e+00 -3.95070e-01  2.50283e+00 
 6.80260e+00 -3.67682e-01  2.32861e+00 
 6.45877e+00 -3.41930e-01  2.16650e+00 
 6.11828e+00 -3.17650e-01  2.01584e+00 
 5.78080e+00 -2.94686e-01  1.87595e+00 
 5.44612e+00 -2.72907e-01  1.74629e+00 
 5.11394e+00 -2.52190e-01  1.62634e+00 
 4.78411e+00 -2.32431e-01  1.51565e+00 
 4.45635e+00 -2.13530e-01  1.41378e+00 
 4.13056e+00 -1.95401e-01  1.32039e+00 
 3.80648e+00 -1.77960e-01  1.23512e+00 
 3.48401e+00 -1.61138e-01  1.15769e+00 
 3.16293e+00 -1.44862e-01  1.08782e+00 
 2.84315e+00 -1.29073e-01  1.02528e+00 
 2.52447e+00 -1.13708e-01  9.69847e-01 
 2.20681e+00 -9.87159e-02  9.21357e-01 
 1.88997e+00 -8.40397e-02  8.79636e-01 
 1.57390e+00 -6.96334e-02  8.44562e-01 
 1.25839e+00 -5.54457e-02  8.16011e-01 
 9.43391e-01 -4.14341e-02  7.93901e-01 
 6.28717e-01 -2.75505e-02  7.78155e-01 
 3.14311e-01 -1.37544e-02  7.68729e-01 
-2.28520e-12  1.28813e-13  7.65613e-01 
-3.14311e-01  1.37544e-02  7.68729e-01 
-6.28717e-01  2.75505e-02  7.78155e-01 
-9.43391e-01  4.14341e-02  7.93901e-01 
-1.25839e+00  5.54457e-02  8.16011e-01 
-1.57390e+00  6.96334e-02  8.44562e-01 
-1.88997e+00  8.40397e-02  8.79636e-01 
-2.20681e+00  9.87159e-02  9.21357e-01 
-2.52447e+00  1.13708e-01  9.69847e-01 
-2.84315e+00  1.29073e-01  1.02528e+00 
-3.16293e+00  1.44862e-01  1.08782e+00 
-3.48401e+00  1.61138e-01  1.15769e+00 
-3.80648e+00  1.77960e-01  1.23512e+00 
-4.13056e+00  1.95401e-01  1.32039e+00 
-4.45635e+00  2.13530e-01  1.41378e+00 
-4.78411e+00  2.32431e-01  1.51565e+00 
-5.11394e+00  2.52190e-01  1.62634e+00 
-5.44612e+00  2.72907e-01  1.74629e+00 
-5.78080e+00  2.94686e-01  1.87595e+00 
-6.11828e+00  3.17650e-01  2.01584e+00 
-6.45877e+00  3.41930e-01  2.16650e+00 
-6.80260e+00  3.67682e-01  2.32861e+00 
-7.15003e+00  3.95070e-01  2.50283e+00 
-7.50148e+00  4.24296e-01  2.68999e+00 
-7.85727e+00  4.55575e-01  2.89091e+00 
-8.21792e+00  4.89171e-01  3.10663e+00 
-8.58386e+00  5.25374e-01  3.33821e+00 
-8.95575e+00  5.64538e-01  3.58694e+00 
-9.33418e+00  6.07061e-01  3.85418e+00 
-9.72002e+00  6.53433e-01  4.14160e+00 
-1.01141e+01  7.04216e-01  4.45096e+00 
-1.05177e+01  7.60111e-01  4.78445e+00 
-1.09319e+01  8.21933e-01  5.14441e+00 
-1.13586e+01  8.90714e-01  5.53377e+00 
-1.17995e+01  9.67683e-01  5.95573e+00 
-1.22574e+01  1.05441e+00  6.41428e+00 
-1.27352e+01  1.15282e+00  6.91391e+00 
-1.32372e+01  1.26541e+00  7.46025e+00 
-1.37685e+01  1.39531e+00  8.05972e+00 
-1.43364e+01  1.54665e+00  8.72038e+00 
-1.49504e+01  1.72478e+00  9.45161e+00 
-1.56242e+01  1.93690e+00  1.02650e+01 
-1.63770e+01  2.19261e+00  1.11737e+01 
-1.72380e+01  2.50521e+00  1.21934e+01 
-1.82521e+01  2.89297e+00  1.33395e+01 
-1.94933e+01  3.38194e+00  1.46239e+01 
-2.10906e+01  4.00926e+00  1.60404e+01 
-2.32863e+01  4.82576e+00  1.75368e+01 
-2.65924e+01  5.93435e+00  1.88727e+01 
-3.19627e+01  6.89392e+00  1.86286e+01 
 2.32264e+01 -1.22214e+01 -3.60790e+00 
 2.51113e+01 -1.10750e+01  3.57143e+00 
 2.48390e+01 -9.98638e+00  6.95271e+00 
 2.38178e+01 -8.91674e+00  8.94808e+00 
 2.26181e+01 -7.96116e+00  1.00257e+01 
 2.14297e+01 -7.12299e+00  1.05416e+01 
 2.03150e+01 -6.39473e+00  1.07057e+01 
 1.92881e+01 -5.76271e+00  1.06504e+01 
 1.83460e+01 -5.21338e+00  1.04591e+01 
 1.74801e+01 -4.73408e+00  1.01856e+01 
 1.66808e+01 -4.31415e+00  9.86447e+00 
 1.59388e+01 -3.94433e+00  9.51854e+00 
 1.52461e+01 -3.61711e+00  9.16266e+00 
 1.45957e+01 -3.32607e+00  8.80651e+00 
 1.39818e+01 -3.06602e+00  8.45642e+00 
 1.33994e+01 -2.83249e+00  8.11633e+00 
 1.28444e+01 -2.62188e+00  7.78874e+00 
 1.23132e+01 -2.43106e+00  7.47502e+00 
 1.18030e+01 -2.25751e+00  7.17592e+00 
 1.13112e+01 -2.09899e+00  6.89163e+00 
 1.08357e+01 -1.95369e+00  6.62214e+00 
 1.03746e+01 -1.81999e+00  6.36712e+00 
 9.92640e+00 -1.69656e+00  6.12623e+00 
 9.48971e+00 -1.58222e+00  5.89896e+00 
 9.06340e+00 -1.47597e+00  5.68483e+00 
 8.64636e+00 -1.37693e+00  5.48328e+00 
 8.23777e+00 -1.28433e+00  5.29383e+00 
 7.83674e+00 -1.19750e+00  5.11593e+00 
 7.44264e+00 -1.11586e+00  4.94913e+00 
 7.05475e+00 -1.03888e+00  4.79293e+00 
 6.67259e+00 -9.66092e-01  4.64691e+00 
 6.29557e+00 -8.97082e-01  4.51063e+00 
 5.92329e+00 -8.31488e-01  4.38373e+00 
 5.55526e+00 -7.68963e-01  4.26584e+00 
 5.19116e+00 -7.09216e-01  4.15663e+00 
 4.83056e+00 -6.51961e-01  4.05579e+00 
 4.47321e+00 -5.96957e-01  3.96306e+00 
 4.11872e+00 -5.43965e-01  3.87815e+00 
 3.76687e+00 -4.92781e-01  3.80086e+00 
 3.41733e+00 -4.43198e-01  3.73095e+00 
 3.06991e+00 -3.95044e-01  3.66826e+00 
 2.72431e+00 -3.48137e-01  3.61259e+00 
 2.38035e+00 -3.02324e-01  3.56383e+00 
 2.03775e+00 -2.57443e-01  3.52181e+00 
 1.69637e+00 -2.13357e-01  3.48645e+00 
 1.35592e+00 -1.69916e-01  3.45764e+00 
 1.01629e+00 -1.26994e-01  3.43531e+00 
 6.77192e-01 -8.44496e-02  3.41940e+00 
 3.38513e-01 -4.21632e-02  3.40988e+00 
-2.49998e-12  3.48197e-13  3.40671e+00 
-3.38513e-01  4.21632e-02  3.40988e+00 
-6.77192e-01  8.44496e-02  3.41940e+00 
-1.01629e+00  1.26994e-01  3.43531e+00 
-1.35592e+00  1.69916e-01  3.45764e+00 
-1.69637e+00  2.13357e-01  3.48645e+00 
-2.03775e+00  2.57443e-01  3.52181e+00 
-2.38035e+00  3.02324e-01  3.56383e+00 
-2.72431e+00  3.48137e-01  3.61259e+00 
-3.06991e+00  3.95044e-01  3.66826e+00 
-3.41733e+00  4.43198e-01  3.73095e+00 
-3.76687e+00  4.92781e-01  3.80086e+00 
-4.11872e+00  5.43965e-01  3.87815e+00 
-4.47321e+00  5.96957e-01  3.96306e+00 
-4.83056e+00  6.51961e-01  4.05579e+00 
-5.19116e+00  7.09216e-01  4.15663e+00 
-5.55526e+00  7.68963e-01  4.26584e+00 
-5.92329e+00  8.31488e-01  4.38373e+00 
-6.29557e+00  8.97082e-01  4.51063e+00 
-6.67259e+00  9.66092e-01  4.64691e+00 
-7.05475e+00  1.03888e+00  4.79293e+00 
-7.44264e+00  1.11586e+00  4.94913e+00 
-7.83674e+00  1.19750e+00  5.11593e+00 
-8.23777e+00  1.28433e+00  5.29383e+00 
-8.64636e+00  1.37693e+00  5.48328e+00 
-9.06340e+00  1.47597e+00  5.68483e+00 
-9.48971e+00  1.58222e+00  5.89896e+00 
-9.92640e+00  1.69656e+00  6.12623e+00 
-1.03746e+01  1.81999e+00  6.36712e+00 
-1.08357e+01  1.95369e+00  6.62214e+00 
-1.13112e+01  2.09899e+00  6.89163e+00 
-1.18030e+01  2.25751e+00  7.17592e+00 
-1.23132e+01  2.43106e+00  7.47502e+00 
-1.28444e+01  2.62188e+00  7.78874e+00 
-1.33994e+01  2.83249e+00  8.11633e+00 
-1.39818e+01  3.06602e+00  8.45642e+00 
-1.45957e+01  3.32607e+00  8.80651e+00 
-1.52461e+01  3.61711e+00  9.16266e+00 
-1.59388e+01  3.94433e+00  9.51854e+00 
-1.66808e+01  4.31415e+00  9.86447e+00 
-1.74801e+01  4.73408e+00  1.01856e+01 
-1.83460e+01  5.21338e+00  1.04591e+01 
-1.92881e+01  5.76271e+00  1.06504e+01 
-2.03150e+01  6.39473e+00  1.07057e+01 
-2.14297e+01  7.12299e+00  1.05416e+01 
-2.26181e+01  7.96116e+00  1.00257e+01 
-2.38178e+01  8.91674e+00  8.94808e+00 
-2.48390e+01  9.98638e+00  6.95271e+00 
-2.51113e+01  1.10750e+01  3.57143e+00 
-2.32264e+01  1.22214e+01 -3.60790e+00 
 2.18343e+01 -9.89305e+00 -4.81803e-01 
 2.17888e+01 -1.01498e+01  1.68810e-01 
 2.20002e+01 -1.00261e+01  1.64406e+00 
 2.19405e+01 -9.68767e+00  3.13158e+00 
 2.16043e+01 -9.22323e+00  4.44484e+00 
 2.10785e+01 -8.70193e+00  5.50620e+00 
 2.04407e+01 -8.16406e+00  6.32438e+00 
 1.97447e+01 -7.63348e+00  6.93164e+00 
 1.90256e+01 -7.12371e+00  7.36499e+00 
 1.83044e+01 -6.64149e+00  7.65901e+00 
 1.75938e+01 -6.18990e+00  7.84311e+00 
 1.69006e+01 -5.76941e+00  7.94159e+00 
 1.62285e+01 -5.37937e+00  7.97396e+00 
 1.55788e+01 -5.01815e+00  7.95579e+00 
 1.49517e+01 -4.68396e+00  7.89941e+00 
 1.43465e+01 -4.37466e+00  7.81453e+00 
 1.37624e+01 -4.08829e+00  7.70882e+00 
 1.31979e+01 -3.82279e+00  7.58826e+00 
 1.26518e+01 -3.57636e+00  7.45759e+00 
 1.21228e+01 -3.34721e+00  7.32048e+00 
 1.16095e+01 -3.13382e+00  7.17986e+00 
 1.11106e+01 -2.93467e+00  7.03795e+00 
 1.06251e+01 -2.74850e+00  6.89653e+00 
 1.01518e+01 -2.57407e+00  6.75695e+00 
 9.68972e+00 -2.41034e+00  6.62029e+00 
 9.23795e+00 -2.25630e+00  6.48732e+00 
 8.79569e+00 -2.11111e+00  6.35869e+00 
 8.36208e+00 -1.97393e+00  6.23482e+00 
 7.93648e+00 -1.84407e+00  6.11609e+00 
 7.51816e+00 -1.72084e+00  6.00272e+00 
 7.10660e+00 -1.60367e+00  5.89489e+00 
 6.70115e+00 -1.49200e+00  5.79271e+00 
 6.30137e+00 -1.38534e+00  5.69625e+00 
 5.90672e+00 -1.28323e+00  5.60554e+00 
 5.51683e+00 -1.18526e+00  5.52060e+00 
 5.13119e+00 -1.09102e+00  5.44140e+00 
 4.74951e+00 -1.00018e+00  5.36793e+00 
 4.37135e+00 -9.12390e-01  5.30014e+00 
 3.99642e+00 -8.27353e-01  5.23801e+00 
 3.62434e+00 -7.44762e-01  5.18147e+00 
 3.25487e+00 -6.64364e-01  5.13049e+00 
 2.88764e+00 -5.85882e-01  5.08501e+00 
 2.52245e+00 -5.09090e-01  5.04501e+00 
 2.15894e+00 -4.33737e-01  5.01042e+00 
 1.79693e+00 -3.59616e-01  4.98123e+00 
 1.43610e+00 -2.86496e-01  4.95738e+00 
 1.07626e+00 -2.14183e-01  4.93887e+00 
 7.17094e-01 -1.42457e-01  4.92566e+00 
 3.58442e-01 -7.11329e-02  4.91774e+00 
-2.60818e-12  4.74237e-13  4.91510e+00 
-3.58442e-01  7.11329e-02  4.91774e+00 
-7.17094e-01  1.42457e-01  4.92566e+00 
-1.07626e+00  2.14183e-01  4.93887e+00 
-1.43610e+00  2.86496e-01  4.95738e+00 
-1.79693e+00  3.59616e-01  4.98123e+00 
-2.15894e+00  4.33737e-01  5.01042e+00 
-2.52245e+00  5.09090e-01  5.04501e+00 
-2.88764e+00  5.85882e-01  5.08501e+00 
-3.25487e+00  6.64364e-01  5.13049e+00 
-3.62434e+00  7.44762e-01  5.18147e+00 
-3.99642e+00  8.27353e-01  5.23801e+00 
-4.37135e+00  9.12390e-01  5.30014e+00 
-4.74951e+00  1.00018e+00  5.36793e+00 
-5.13119e+00  1.09102e+00  5.44140e+00 
-5.51683e+00  1.18526e+00  5.52060e+00 
-5.90672e+00  1.28323e+00  5.60554e+00 
-6.30137e+00  1.38534e+00  5.69625e+00 
-6.70115e+00  1.49200e+00  5.79271e+00 
-7.10660e+00  1.60367e+00  5.89489e+00 
-7.51816e+00  1.72084e+00  6.00272e+00 
-7.93648e+00  1.84407e+00  6.11609e+00 
-8.36208e+00  1.97393e+00  6.23482e+00 
-8.79569e+00  2.11111e+00  6.35869e+00 
-9.23795e+00  2.25630e+00  6.48732e+00 
-9.68972e+00  2.41034e+00  6.62029e+00 
-1.01518e+01  2.57407e+00  6.75695e+00 
-1.06251e+01  2.74850e+00  6.89653e+00 
-1.11106e+01  2.93467e+00  7.03795e+00 
-1.16095e+01  3.13382e+00  7.17986e+00 
-1.21228e+01  3.34721e+00  7.32048e+00 
-1.26518e+01  3.57636e+00  7.45759e+00 
-1.31979e+01  3.82279e+00  7.58826e+00 
-1.37624e+01  4.08829e+00  7.70882e+00 
-1.43465e+01  4.37466e+00  7.81453e+00 
-1.49517e+01  4.68396e+00  7.89941e+00 
-1.55788e+01  5.01815e+00  7.95579e+00 
-1.62285e+01  5.37937e+00  7.97396e+00 
-1.69006e+01  5.76941e+00  7.94159e+00 
-1.75938e+01  6.18990e+00  7.84311e+00 
-1.83044e+01  6.64149e+00  7.65901e+00 
-1.90256e+01  7.12371e+00  7.36499e+00 
-1.97447e+01  7.63348e+00  6.93164e+00 
-2.04407e+01  8.16406e+00  6.32438e+00 
-2.10785e+01  8.70193e+00  5.50620e+00 
-2.16043e+01  9.22323e+00  4.44484e+00 
-2.19405e+01  9.68767e+00  3.13158e+00 
-2.20002e+01  1.00261e+01  1.64406e+00 
-2.17888e+01  1.01498e+01  1.68810e-01 
-2.18343e+01  9.89305e+00 -4.81803e-01 
 2.12372e+01 -9.63458e+00 -2.19826e-01 
 2.10959e+01 -9.53460e+00  4.53198e-01 
 2.08735e+01 -9.45240e+00  9.70771e-01 
 2.06639e+01 -9.31352e+00  1.63463e+00 
 2.04121e+01 -9.10705e+00  2.37160e+00 
 2.00898e+01 -8.84008e+00  3.11780e+00 
 1.96949e+01 -8.52779e+00  3.82290e+00 
 1.92381e+01 -8.18516e+00  4.45973e+00 
 1.87340e+01 -7.82516e+00  5.01643e+00 
 1.81965e+01 -7.45780e+00  5.49137e+00 
 1.76378e+01 -7.09071e+00  5.88830e+00 
 1.70669e+01 -6.72921e+00  6.21403e+00 
 1.64913e+01 -6.37712e+00  6.47638e+00 
 1.59160e+01 -6.03680e+00  6.68343e+00 
 1.53449e+01 -5.70980e+00  6.84283e+00 
 1.47806e+01 -5.39685e+00  6.96167e+00 
 1.42247e+01 -5.09829e+00  7.04620e+00 
 1.36784e+01 -4.81399e+00  7.10200e+00 
 1.31424e+01 -4.54369e+00  7.13390e+00 
 1.26167e+01 -4.28683e+00  7.14607e+00 
 1.21016e+01 -4.04289e+00  7.14209e+00 
 1.15968e+01 -3.81116e+00  7.12501e+00 
 1.11020e+01 -3.59101e+00  7.09745e+00 
 1.06168e+01 -3.38168e+00  7.06162e+00 
 1.01409e+01 -3.18254e+00  7.01941e+00 
 9.67370e+00 -2.99287e+00  6.97240e+00 
 9.21486e+00 -2.81207e+00  6.92194e+00 
 8.76378e+00 -2.63947e+00  6.86917e+00 
 8.32011e+00 -2.47452e+00  6.81506e+00 
 7.88327e+00 -2.31662e+00  6.76041e+00 
 7.45290e+00 -2.16528e+00  6.70592e+00 
 7.02848e+00 -2.01995e+00  6.65215e+00 
 6.60967e+00 -1.88021e+00  6.59960e+00 
 6.19598e+00 -1.74556e+00  6.54867e+00 
 5.78709e+00 -1.61563e+00  6.49970e+00 
 5.38256e+00 -1.48998e+00  6.45298e+00 
 4.98211e+00 -1.36826e+00  6.40877e+00 
 4.58530e+00 -1.25009e+00  6.36724e+00 
 4.19188e+00 -1.13517e+00  6.32858e+00 
 3.80145e+00 -1.02313e+00  6.29292e+00 
 3.41378e+00 -9.13696e-01  6.26038e+00 
 3.02850e+00 -8.06552e-01  6.23105e+00 
 2.64538e+00 -7.01436e-01  6.20502e+00 
 2.26408e+00 -5.98051e-01  6.18235e+00 
 1.88437e+00 -4.96155e-01  6.16309e+00 
 1.50594e+00 -3.95470e-01  6.14727e+00 
 1.12857e+00 -2.95765e-01  6.13494e+00 
 7.51936e-01 -1.96773e-01  6.12612e+00 
 3.75854e-01 -9.82703e-02  6.12082e+00 
-2.68934e-12  5.03624e-13  6.11905e+00 
-3.75854e-01  9.82703e-02  6.12082e+00 
-7.51936e-01  1.96773e-01  6.12612e+00 
-1.12857e+00  2.95765e-01  6.13494e+00 
-1.50594e+00  3.95470e-01  6.14727e+00 
-1.88437e+00  4.96155e-01  6.16309e+00 
-2.26408e+00  5.98051e-01  6.18235e+00 
-2.64538e+00  7.01436e-01  6.20502e+00 
-3.02850e+00  8.06552e-01  6.23105e+00 
-3.41378e+00  9.13696e-01  6.26038e+00 
-3.80145e+00  1.02313e+00  6.29292e+00 
-4.19188e+00  1.13517e+00  6.32858e+00 
-4.58530e+00  1.25009e+00  6.36724e+00 
-4.98211e+00  1.36826e+00  6.40877e+00 
-5.38256e+00  1.48998e+00  6.45298e+00 
-5.78709e+00  1.61563e+00  6.49970e+00 
-6.19598e+00  1.74556e+00  6.54867e+00 
-6.60967e+00  1.88021e+00  6.59960e+00 
-7.02848e+00  2.01995e+00  6.65215e+00 
-7.45290e+00  2.16528e+00  6.70592e+00 
-7.88327e+00  2.31662e+00  6.76041e+00 
-8.32011e+00  2.47452e+00  6.81506e+00 
-8.76378e+00  2.63947e+00  6.86917e+00 
-9.21486e+00  2.81207e+00  6.92194e+00 
-9.67370e+00  2.99287e+00  6.97240e+00 
-1.01409e+01  3.18254e+00  7.01941e+00 
-1.06168e+01  3.38168e+00  7.06162e+00 
-1.11020e+01  3.59101e+00  7.09745e+00 
-1.15968e+01  3.81116e+00  7.12501e+00 
-1.21016e+01  4.04289e+00  7.14209e+00 
-1.26167e+01  4.28683e+00  7.14607e+00 
-1.31424e+01  4.54369e+00  7.13390e+00 
-1.36784e+01  4.81399e+00  7.10200e+00 
-1.42247e+01  5.09829e+00  7.04620e+00 
-1.47806e+01  5.39685e+00  6.96167e+00 
-1.53449e+01  5.70980e+00  6.84283e+00 
-1.59160e+01  6.03680e+00  6.68343e+00 
-1.64913e+01  6.37712e+00  6.47638e+00 
-1.70669e+01  6.72921e+00  6.21403e+00 
-1.76378e+01  7.09071e+00  5.88830e+00 
-1.81965e+01  7.45780e+00  5.49137e+00 
-1.87340e+01  7.82516e+00  5.01643e+00 
-1.92381e+01  8.18516e+00  4.45973e+00 
-1.96949e+01  8.52779e+00  3.82290e+00 
-2.00898e+01  8.84008e+00  3.11780e+00 
-2.04121e+01  9.10705e+00  2.37160e+00 
-2.06639e+01  9.31352e+00  1.63463e+00 
-2.08735e+01  9.45240e+00  9.70771e-01 
-2.10959e+01  9.53460e+00  4.53198e-01 
-2.12372e+01  9.63458e+00 -2.19826e-01 
 2.07287e+01 -9.34952e+00 -8.96460e-02 
 2.04927e+01 -9.26589e+00  3.54467e-01 
 2.02427e+01 -9.13945e+00  7.76479e-01 
 1.99617e+01 -8.99803e+00  1.22121e+00 
 1.96607e+01 -8.83574e+00  1.69807e+00 
 1.93370e+01 -8.64860e+00  2.19896e+00 
 1.89861e+01 -8.43590e+00  2.70958e+00 
 1.86053e+01 -8.19989e+00  3.21399e+00 
 1.81953e+01 -7.94457e+00  3.69860e+00 
 1.77591e+01 -7.67444e+00  4.15377e+00 
 1.73009e+01 -7.39409e+00  4.57333e+00 
 1.68251e+01 -7.10753e+00  4.95431e+00 
 1.63362e+01 -6.81836e+00  5.29583e+00 
 1.58382e+01 -6.52941e+00  5.59876e+00 
 1.53345e+01 -6.24309e+00  5.86487e+00 
 1.48278e+01 -5.96114e+00  6.09668e+00 
 1.43207e+01 -5.68498e+00  6.29691e+00 
 1.38149e+01 -5.41554e+00  6.46852e+00 
 1.33118e+01 -5.15357e+00  6.61436e+00 
 1.28126e+01 -4.89943e+00  6.73725e+00 
 1.23180e+01 -4.65343e+00  6.83978e+00 
 1.18287e+01 -4.41557e+00  6.92441e+00 
 1.13450e+01 -4.18588e+00  6.99333e+00 
 1.08671e+01 -3.96415e+00  7.04860e+00 
 1.03952e+01 -3.75025e+00  7.09203e+00 
 9.92930e+00 -3.54385e+00  7.12526e+00 
 9.46931e+00 -3.34471e+00  7.14975e+00 
 9.01507e+00 -3.15246e+00  7.16680e+00 
 8.56648e+00 -2.96680e+00  7.17758e+00 
 8.12328e+00 -2.78736e+00  7.18312e+00 
 7.68531e+00 -2.61381e+00  7.18430e+00 
 7.25224e+00 -2.44576e+00  7.18195e+00 
 6.82391e+00 -2.28290e+00  7.17676e+00 
 6.39997e+00 -2.12485e+00  7.16936e+00 
 5.98023e+00 -1.97131e+00  7.16029e+00 
 5.56432e+00 -1.82192e+00  7.15002e+00 
 5.15207e+00 -1.67637e+00  7.13899e+00 
 4.74312e+00 -1.53433e+00  7.12756e+00 
 4.33727e+00 -1.39552e+00  7.11604e+00 
 3.93418e+00 -1.25961e+00  7.10472e+00 
 3.53366e+00 -1.12634e+00  7.09383e+00 
 3.13536e+00 -9.95401e-01  7.08359e+00 
 2.73911e+00 -8.66536e-01  7.07417e+00 
 2.34457e+00 -7.39450e-01  7.06572e+00 
 1.95155e+00 -6.13904e-01  7.05838e+00 
 1.55974e+00 -4.89610e-01  7.05223e+00 
 1.16896e+00 -3.66335e-01  7.04736e+00 
 7.78881e-01 -2.43801e-01  7.04385e+00 
 3.89332e-01 -1.21780e-01  7.04172e+00 
-2.74076e-12  5.21208e-13  7.04100e+00 
-3.89332e-01  1.21780e-01  7.04172e+00 
-7.78881e-01  2.43801e-01  7.04385e+00 
-1.16896e+00  3.66335e-01  7.04736e+00 
-1.55974e+00  4.89610e-01  7.05223e+00 
-1.95155e+00  6.13904e-01  7.05838e+00 
-2.34457e+00  7.39450e-01  7.06572e+00 
-2.73911e+00  8.66536e-01  7.07417e+00 
-3.13536e+00  9.95401e-01  7.08359e+00 
-3.53366e+00  1.12634e+00  7.09383e+00 
-3.93418e+00  1.25961e+00  7.10472e+00 
-4.33727e+00  1.39552e+00  7.11604e+00 
-4.74312e+00  1.53433e+00  7.12756e+00 
-5.15207e+00  1.67637e+00  7.13899e+00 
-5.56432e+00  1.82192e+00  7.15002e+00 
-5.98023e+00  1.97131e+00  7.16029e+00 
-6.39997e+00  2.12485e+00  7.16936e+00 
-6.82391e+00  2.28290e+00  7.17676e+00 
-7.25224e+00  2.44576e+00  7.18195e+00 
-7.68531e+00  2.61381e+00  7.18430e+00 
-8.12328e+00  2.78736e+00  7.18312e+00 
-8.56648e+00  2.96680e+00  7.17758e+00 
-9.01507e+00  3.15246e+00  7.16680e+00 
-9.46931e+00  3.34471e+00  7.14975e+00 
-9.92930e+00  3.54385e+00  7.12526e+00 
-1.03952e+01  3.75025e+00  7.09203e+00 
-1.08671e+01  3.96415e+00  7.04860e+00 
-1.13450e+01  4.18588e+00  6.99333e+00 
-1.18287e+01  4.41557e+00  6.92441e+00 
-1.23180e+01  4.65343e+00  6.83978e+00 
-1.28126e+01  4.89943e+00  6.73725e+00 
-1.33118e+01  5.15357e+00  6.61436e+00 
-1.38149e+01  5.41554e+00  6.46852e+00 
-1.43207e+01  5.68498e+00  6.29691e+00 
-1.48278e+01  5.96114e+00  6.09668e+00 
-1.53345e+01  6.24309e+00  5.86487e+00 
-1.58382e+01  6.52941e+00  5.59876e+00 
-1.63362e+01  6.81836e+00  5.29583e+00 
-1.68251e+01  7.10753e+00  4.95431e+00 
-1.73009e+01  7.39409e+00  4.57333e+00 
-1.77591e+01  7.67444e+00  4.15377e+00 
-1.81953e+01  7.94457e+00  3.69860e+00 
-1.86053e+01  8.19989e+00  3.21399e+00 
-1.89861e+01  8.43590e+00  2.70958e+00 
-1.93370e+01  8.64860e+00  2.19896e+00 
-1.96607e+01  8.83574e+00  1.69807e+00 
-1.99617e+01  8.99803e+00  1.22121e+00 
-2.02427e+01  9.13945e+00  7.76479e-01 
-2.04927e+01  9.26589e+00  3.54467e-01 
-2.07287e+01  9.34952e+00 -8.96460e-02 
 2.03161e+01 -9.14984e+00 -2.85914e-02 
 2.00227e+01 -9.03774e+00  3.54440e-01 
 1.97220e+01 -8.90274e+00  6.86084e-01 
 1.94135e+01 -8.75742e+00  1.04681e+00 
 1.90923e+01 -8.60141e+00  1.42683e+00 
 1.87574e+01 -8.43384e+00  1.82120e+00 
 1.84083e+01 -8.25394e+00  2.22483e+00 
 1.80443e+01 -8.06142e+00  2.63222e+00 
 1.76649e+01 -7.85676e+00  3.03722e+00 
 1.72701e+01 -7.64104e+00  3.43406e+00 
 1.68607e+01 -7.41585e+00  3.81755e+00 
 1.64379e+01 -7.18296e+00  4.18373e+00 
 1.60036e+01 -6.94431e+00  4.52959e+00 
 1.55595e+01 -6.70167e+00  4.85331e+00 
 1.51076e+01 -6.45679e+00  5.15382e+00 
 1.46496e+01 -6.21113e+00  5.43090e+00 
 1.41873e+01 -5.96607e+00  5.68478e+00 
 1.37222e+01 -5.72265e+00  5.91623e+00 
 1.32556e+01 -5.48186e+00  6.12619e+00 
 1.27886e+01 -5.24438e+00  6.31589e+00 
 1.23222e+01 -5.01084e+00  6.48660e+00 
 1.18571e+01 -4.78164e+00  6.63971e+00 
 1.13942e+01 -4.55715e+00  6.77657e+00 
 1.09337e+01 -4.33751e+00  6.89854e+00 
 1.04761e+01 -4.12292e+00  7.00690e+00 
 1.00218e+01 -3.91338e+00  7.10293e+00 
 9.57083e+00 -3.70891e+00  7.18775e+00 
 9.12340e+00 -3.50942e+00  7.26250e+00 
 8.67962e+00 -3.31483e+00  7.32816e+00 
 8.23941e+00 -3.12499e+00  7.38569e+00 
 7.80284e+00 -2.93975e+00  7.43594e+00 
 7.36975e+00 -2.75891e+00  7.47971e+00 
 6.94014e+00 -2.58229e+00  7.51771e+00 
 6.51380e+00 -2.40964e+00  7.55059e+00 
 6.09067e+00 -2.24079e+00  7.57895e+00 
 5.67053e+00 -2.07546e+00  7.60332e+00 
 5.25329e+00 -1.91346e+00  7.62418e+00 
 4.83868e+00 -1.75451e+00  7.64197e+00 
 4.42660e+00 -1.59842e+00  7.65705e+00 
 4.01677e+00 -1.44490e+00  7.66978e+00 
 3.60909e+00 -1.29374e+00  7.68046e+00 
 3.20325e+00 -1.14469e+00  7.68935e+00 
 2.79915e+00 -9.97527e-01  7.69668e+00 
 2.39649e+00 -8.51986e-01  7.70265e+00 
 1.99515e+00 -7.07861e-01  7.70743e+00 
 1.59482e+00 -5.64887e-01  7.71115e+00 
 1.19539e+00 -4.22858e-01  7.71393e+00 
 7.96556e-01 -2.81512e-01  7.71586e+00 
 3.98186e-01 -1.40645e-01  7.71699e+00 
-2.86741e-12  4.69443e-13  7.71736e+00 
-3.98186e-01  1.40645e-01  7.71699e+00 
-7.96556e-01  2.81512e-01  7.71586e+00 
-1.19539e+00  4.22858e-01  7.71393e+00 
-1.59482e+00  5.64887e-01  7.71115e+00 
-1.99515e+00  7.07861e-01  7.70743e+00 
-2.39649e+00  8.51986e-01  7.70265e+00 
-2.79915e+00  9.97527e-01  7.69668e+00 
-3.20325e+00  1.14469e+00  7.68935e+00 
-3.60909e+00  1.29374e+00  7.68046e+00 
-4.01677e+00  1.44490e+00  7.66978e+00 
-4.42660e+00  1.59842e+00  7.65705e+00 
-4.83868e+00  1.75451e+00  7.64197e+00 
-5.25329e+00  1.91346e+00  7.62418e+00 
-5.67053e+00  2.07546e+00  7.60332e+00 
-6.09067e+00  2.24079e+00  7.57895e+00 
-6.51380e+00  2.40964e+00  7.55059e+00 
-6.94014e+00  2.58229e+00  7.51771e+00 
-7.36975e+00  2.75891e+00  7.47971e+00 
-7.80284e+00  2.93975e+00  7.43594e+00 
-8.23941e+00  3.12499e+00  7.38569e+00 
-8.67962e+00  3.31483e+00  7.32816e+00 
-9.12340e+00  3.50942e+00  7.26250e+00 
-9.57083e+00  3.70891e+00  7.18775e+00 
-1.00218e+01  3.91338e+00  7.10293e+00 
-1.04761e+01  4.12292e+00  7.00690e+00 
-1.09337e+01  4.33751e+00  6.89854e+00 
-1.13942e+01  4.55715e+00  6.77657e+00 
-1.18571e+01  4.78164e+00  6.63971e+00 
-1.23222e+01  5.01084e+00  6.48660e+00 
-1.27886e+01  5.24438e+00  6.31589e+00 
-1.32556e+01  5.48186e+00  6.12619e+00 
-1.37222e+01  5.72265e+00  5.91623e+00 
-1.41873e+01  5.96607e+00  5.68478e+00 
-1.46496e+01  6.21113e+00  5.43090e+00 
-1.51076e+01  6.45679e+00  5.15382e+00 
-1.55595e+01  6.70167e+00  4.85331e+00 
-1.60036e+01  6.94431e+00  4.52959e+00 
-1.64379e+01  7.18296e+00  4.18373e+00 
-1.68607e+01  7.41585e+00  3.81755e+00 
-1.72701e+01  7.64104e+00  3.43406e+00 
-1.76649e+01  7.85676e+00  3.03722e+00 
-1.80443e+01  8.06142e+00  2.63222e+00 
-1.84083e+01  8.25394e+00  2.22483e+00 
-1.87574e+01  8.43384e+00  1.82120e+00 
-1.90923e+01  8.60141e+00  1.42683e+00 
-1.94135e+01  8.75742e+00  1.04681e+00 
-1.97220e+01  8.90274e+00  6.86084e-01 
-2.00227e+01  9.03774e+00  3.54440e-01 
-2.03161e+01  9.14984e+00 -2.85914e-02 
 1.99270e+01 -8.96648e+00  7.07198e-03 
 1.96008e+01 -8.84302e+00  3.69810e-01 
 1.92722e+01 -8.69590e+00  6.72072e-01 
 1.89398e+01 -8.54547e+00  9.89577e-01 
 1.86025e+01 -8.39006e+00  1.32073e+00 
 1.82584e+01 -8.22870e+00  1.66234e+00 
 1.79067e+01 -8.06083e+00  2.01110e+00 
 1.75466e+01 -7.88605e+00  2.36391e+00 
 1.71776e+01 -7.70427e+00  2.71756e+00 
 1.67997e+01 -7.51560e+00  3.06903e+00 
 1.64128e+01 -7.32045e+00  3.41527e+00 
 1.60171e+01 -7.11938e+00  3.75362e+00 
 1.56133e+01 -6.91320e+00  4.08162e+00 
 1.52019e+01 -6.70272e+00  4.39738e+00 
 1.47838e+01 -6.48889e+00  4.69929e+00 
 1.43599e+01 -6.27257e+00  4.98632e+00 
 1.39311e+01 -6.05469e+00  5.25771e+00 
 1.34984e+01 -5.83601e+00  5.51314e+00 
 1.30627e+01 -5.61733e+00  5.75248e+00 
 1.26246e+01 -5.39925e+00  5.97595e+00 
 1.21851e+01 -5.18241e+00  6.18385e+00 
 1.17448e+01 -4.96724e+00  6.37672e+00 
 1.13044e+01 -4.75420e+00  6.55512e+00 
 1.08642e+01 -4.54358e+00  6.71975e+00 
 1.04247e+01 -4.33569e+00  6.87131e+00 
 9.98643e+00 -4.13069e+00  7.01056e+00 
 9.54958e+00 -3.92876e+00  7.13822e+00 
 9.11436e+00 -3.72996e+00  7.25507e+00 
 8.68103e+00 -3.53437e+00  7.36179e+00 
 8.24966e+00 -3.34196e+00  7.45912e+00 
 7.82041e+00 -3.15276e+00  7.54769e+00 
 7.39327e+00 -2.96668e+00  7.62816e+00 
 6.96833e+00 -2.78366e+00  7.70112e+00 
 6.54551e+00 -2.60358e+00  7.76713e+00 
 6.12485e+00 -2.42637e+00  7.82670e+00 
 5.70623e+00 -2.25184e+00  7.88033e+00 
 5.28963e+00 -2.07990e+00  7.92844e+00 
 4.87491e+00 -1.91036e+00  7.97146e+00 
 4.46202e+00 -1.74309e+00  8.00975e+00 
 4.05078e+00 -1.57788e+00  8.04364e+00 
 3.64113e+00 -1.41459e+00  8.07343e+00 
 3.23286e+00 -1.25302e+00  8.09940e+00 
 2.82592e+00 -1.09300e+00  8.12177e+00 
 2.42006e+00 -9.34317e-01  8.14075e+00 
 2.01523e+00 -7.76818e-01  8.15652e+00 
 1.61117e+00 -6.20276e-01  8.16923e+00 
 1.20782e+00 -4.64530e-01  8.17899e+00 
 8.04917e-01 -3.09354e-01  8.18590e+00 
 4.02390e-01 -1.54585e-01  8.19001e+00 
-2.79912e-12  3.44751e-13  8.19138e+00 
-4.02390e-01  1.54585e-01  8.19001e+00 
-8.04917e-01  3.09354e-01  8.18590e+00 
-1.20782e+00  4.64530e-01  8.17899e+00 
-1.61117e+00  6.20276e-01  8.16923e+00 
-2.01523e+00  7.76818e-01  8.15652e+00 
-2.42006e+00  9.34317e-01  8.14075e+00 
-2.82592e+00  1.09300e+00  8.12177e+00 
-3.23286e+00  1.25302e+00  8.09940e+00 
-3.64113e+00  1.41459e+00  8.07343e+00 
-4.05078e+00  1.57788e+00  8.04364e+00 
-4.46202e+00  1.74309e+00  8.00975e+00 
-4.87491e+00  1.91036e+00  7.97146e+00 
-5.28963e+00  2.07990e+00  7.92844e+00 
-5.70623e+00  2.25184e+00  7.88033e+00 
-6.12485e+00  2.42637e+00  7.82670e+00 
-6.54551e+00  2.60358e+00  7.76713e+00 
-6.96833e+00  2.78366e+00  7.70112e+00 
-7.39327e+00  2.96668e+00  7.62816e+00 
-7.82041e+00  3.15276e+00  7.54769e+00 
-8.24966e+00  3.34196e+00  7.45912e+00 
-8.68103e+00  3.53437e+00  7.36179e+00 
-9.11436e+00  3.72996e+00  7.25507e+00 
-9.54958e+00  3.92876e+00  7.13822e+00 
-9.98643e+00  4.13069e+00  7.01056e+00 
-1.04247e+01  4.33569e+00  6.87131e+00 
-1.08642e+01  4.54358e+00  6.71975e+00 
-1.13044e+01  4.75420e+00  6.55512e+00 
-1.17448e+01  4.96724e+00  6.37672e+00 
-1.21851e+01  5.18241e+00  6.18385e+00 
-1.26246e+01  5.39925e+00  5.97595e+00 
-1.30627e+01  5.61733e+00  5.75248e+00 
-1.34984e+01  5.83601e+00  5.51314e+00 
-1.39311e+01  6.05469e+00  5.25771e+00 
-1.43599e+01  6.27257e+00  4.98632e+00 
-1.47838e+01  6.48889e+00  4.69929e+00 
-1.52019e+01  6.70272e+00  4.39738e+00 
-1.56133e+01  6.91320e+00  4.08162e+00 
-1.60171e+01  7.11938e+00  3.75362e+00 
-1.64128e+01  7.32045e+00  3.41527e+00 
-1.67997e+01  7.51560e+00  3.06903e+00 
-1.71776e+01  7.70427e+00  2.71756e+00 
-1.75466e+01  7.88605e+00  2.36391e+00 
-1.79067e+01  8.06083e+00  2.01110e+00 
-1.82584e+01  8.22870e+00  1.66234e+00 
-1.86025e+01  8.39006e+00  1.32073e+00 
-1.89398e+01  8.54547e+00  9.89577e-01 
-1.92722e+01  8.69590e+00  6.72072e-01 
-1.96008e+01  8.84302e+00  3.69810e-01 
-1.99270e+01  8.96648e+00  7.07198e-03 
 1.95391e+01 -8.78811e+00  3.01697e-02 
 1.91939e+01 -8.65703e+00  3.92563e-01 
 1.88487e+01 -8.50325e+00  6.84502e-01 
 1.85025e+01 -8.34827e+00  9.85438e-01 
 1.81542e+01 -8.19132e+00  1.29394e+00 
 1.78028e+01 -8.03164e+00  1.60870e+00 
 1.74477e+01 -7.86864e+00  1.92800e+00 
 1.70881e+01 -7.70189e+00  2.25012e+00 
 1.67235e+01 -7.53115e+00  2.57313e+00 
 1.63536e+01 -7.35627e+00  2.89528e+00 
 1.59782e+01 -7.17729e+00  3.21471e+00 
 1.55973e+01 -6.99430e+00  3.52975e+00 
 1.52109e+01 -6.80760e+00  3.83875e+00 
 1.48193e+01 -6.61748e+00  4.14033e+00 
 1.44227e+01 -6.42439e+00  4.43314e+00 
 1.40215e+01 -6.22873e+00  4.71619e+00 
 1.36161e+01 -6.03104e+00  4.98856e+00 
 1.32071e+01 -5.83175e+00  5.24965e+00 
 1.27949e+01 -5.63139e+00  5.49892e+00 
 1.23800e+01 -5.43036e+00  5.73616e+00 
 1.19630e+01 -5.22916e+00  5.96116e+00 
 1.15443e+01 -5.02811e+00  6.17398e+00 
 1.11243e+01 -4.82763e+00  6.37469e+00 
 1.07034e+01 -4.62797e+00  6.56353e+00 
 1.02821e+01 -4.42947e+00  6.74075e+00 
 9.86057e+00 -4.23229e+00  6.90671e+00 
 9.43922e+00 -4.03667e+00  7.06176e+00 
 9.01822e+00 -3.84273e+00  7.20635e+00 
 8.59784e+00 -3.65062e+00  7.34088e+00 
 8.17820e+00 -3.46039e+00  7.46580e+00 
 7.75952e+00 -3.27212e+00  7.58153e+00 
 7.34182e+00 -3.08582e+00  7.68853e+00 
 6.92527e+00 -2.90152e+00  7.78720e+00 
 6.50985e+00 -2.71917e+00  7.87798e+00 
 6.09567e+00 -2.53877e+00  7.96123e+00 
 5.68266e+00 -2.36021e+00  8.03736e+00 
 5.27090e+00 -2.18349e+00  8.10668e+00 
 4.86028e+00 -2.00846e+00  8.16956e+00 
 4.45083e+00 -1.83507e+00  8.22628e+00 
 4.04244e+00 -1.66319e+00  8.27713e+00 
 3.63510e+00 -1.49273e+00  8.32236e+00 
 3.22867e+00 -1.32354e+00  8.36222e+00 
 2.82314e+00 -1.15552e+00  8.39691e+00 
 2.41835e+00 -9.88512e-01  8.42660e+00 
 2.01426e+00 -8.22400e-01  8.45146e+00 
 1.61070e+00 -6.57014e-01  8.47162e+00 
 1.20763e+00 -4.92242e-01  8.48719e+00 
 8.04879e-01 -3.27904e-01  8.49825e+00 
 4.02396e-01 -1.63883e-01  8.50486e+00 
-2.39972e-12 -2.59534e-13  8.50706e+00 
-4.02396e-01  1.63883e-01  8.50486e+00 
-8.04879e-01  3.27904e-01  8.49825e+00 
-1.20763e+00  4.92242e-01  8.48719e+00 
-1.61070e+00  6.57014e-01  8.47162e+00 
-2.01426e+00  8.22400e-01  8.45146e+00 
-2.41835e+00  9.88512e-01  8.42660e+00 
-2.82314e+00  1.15552e+00  8.39691e+00 
-3.22867e+00  1.32354e+00  8.36222e+00 
-3.63510e+00  1.49273e+00  8.32236e+00 
-4.04244e+00  1.66319e+00  8.27713e+00 
-4.45083e+00  1.83507e+00  8.22628e+00 
-4.86028e+00  2.00846e+00  8.16956e+00 
-5.27090e+00  2.18349e+00  8.10668e+00 
-5.68266e+00  2.36021e+00  8.03736e+00 
-6.09567e+00  2.53877e+00  7.96123e+00 
-6.50985e+00  2.71917e+00  7.87798e+00 
-6.92527e+00  2.90152e+00  7.78720e+00 
-7.34182e+00  3.08582e+00  7.68853e+00 
-7.75952e+00  3.27212e+00  7.58153e+00 
-8.17820e+00  3.46039e+00  7.46580e+00 
-8.59784e+00  3.65062e+00  7.34088e+00 
-9.01822e+00  3.84273e+00  7.20635e+00 
-9.43922e+00  4.03667e+00  7.06176e+00 
-9.86057e+00  4.23229e+00  6.90671e+00 
-1.02821e+01  4.42947e+00  6.74075e+00 
-1.07034e+01  4.62797e+00  6.56353e+00 
-1.11243e+01  4.82763e+00  6.37469e+00 
-1.15443e+01  5.02811e+00  6.17398e+00 
-1.19630e+01  5.22916e+00  5.96116e+00 
-1.23800e+01  5.43036e+00  5.73616e+00 
-1.27949e+01  5.63139e+00  5.49892e+00 
-1.32071e+01  5.83175e+00  5.24965e+00 
-1.36161e+01  6.03104e+00  4.98856e+00 
-1.40215e+01  6.22873e+00  4.71619e+00 
-1.44227e+01  6.42439e+00  4.43314e+00 
-1.48193e+01  6.61748e+00  4.14033e+00 
-1.52109e+01  6.80760e+00  3.83875e+00 
-1.55973e+01  6.99430e+00  3.52975e+00 
-1.59782e+01  7.17729e+00  3.21471e+00 
-1.63536e+01  7.35627e+00  2.89528e+00 
-1.67235e+01  7.53115e+00  2.57313e+00 
-1.70881e+01  7.70189e+00  2.25012e+00 
-1.74477e+01  7.86864e+00  1.92800e+00 
-1.78028e+01  8.03164e+00  1.60870e+00 
-1.81542e+01  8.19132e+00  1.29394e+00 
-1.85025e+01  8.34827e+00  9.85438e-01 
-1.88487e+01  8.50325e+00  6.84502e-01 
-1.91939e+01  8.65703e+00  3.92563e-01 
-1.95391e+01  8.78811e+00  3.01697e-02 
 1.91417e+01 -8.60731e+00  4.60191e-02 
 1.87867e+01 -8.47225e+00  4.16410e-01 
 1.84327e+01 -8.31456e+00  7.08043e-01 
 1.80790e+01 -8.15693e+00  1.00392e+00 
 1.77248e+01 -7.99876e+00  1.30340e+00 
 1.73695e+01 -7.83948e+00  1.60575e+00 
 1.70125e+01 -7.67869e+00  1.91004e+00 
 1.66532e+01 -7.51597e+00  2.21535e+00 
 1.62913e+01 -7.35107e+00  2.52058e+00 
 1.59263e+01 -7.18375e+00  2.82468e+00 
 1.55580e+01 -7.01394e+00  3.12650e+00 
 1.51863e+01 -6.84155e+00  3.42501e+00 
 1.48111e+01 -6.66665e+00  3.71910e+00 
 1.44323e+01 -6.48930e+00  4.00785e+00 
 1.40500e+01 -6.30969e+00  4.29026e+00 
 1.36644e+01 -6.12797e+00  4.56558e+00 
 1.32757e+01 -5.94441e+00  4.83302e+00 
 1.28839e+01 -5.75922e+00  5.09200e+00 
 1.24894e+01 -5.57271e+00  5.34197e+00 
 1.20925e+01 -5.38512e+00  5.58255e+00 
 1.16934e+01 -5.19675e+00  5.81340e+00 
 1.12925e+01 -5.00785e+00  6.03435e+00 
 1.08899e+01 -4.81869e+00  6.24522e+00 
 1.04860e+01 -4.62947e+00  6.44602e+00 
 1.00811e+01 -4.44046e+00  6.63673e+00 
 9.67532e+00 -4.25180e+00  6.81745e+00 
 9.26901e+00 -4.06372e+00  6.98830e+00 
 8.86229e+00 -3.87631e+00  7.14945e+00 
 8.45542e+00 -3.68976e+00  7.30109e+00 
 8.04849e+00 -3.50412e+00  7.44347e+00 
 7.64172e+00 -3.31952e+00  7.57680e+00 
 7.23516e+00 -3.13598e+00  7.70136e+00 
 6.82899e+00 -2.95358e+00  7.81738e+00 
 6.42320e+00 -2.77232e+00  7.92516e+00 
 6.01796e+00 -2.59224e+00  8.02492e+00 
 5.61321e+00 -2.41330e+00  8.11694e+00 
 5.20908e+00 -2.23551e+00  8.20145e+00 
 4.80550e+00 -2.05881e+00  8.27871e+00 
 4.40255e+00 -1.88318e+00  8.34891e+00 
 4.00014e+00 -1.70853e+00  8.41229e+00 
 3.59834e+00 -1.53485e+00  8.46902e+00 
 3.19703e+00 -1.36201e+00  8.51929e+00 
 2.79626e+00 -1.18998e+00  8.56326e+00 
 2.39589e+00 -1.01863e+00  8.60108e+00 
 1.99596e+00 -8.47914e-01  8.63287e+00 
 1.59633e+00 -6.77695e-01  8.65873e+00 
 1.19702e+00 -5.07910e-01  8.67875e+00 
 7.97880e-01 -3.38423e-01  8.69301e+00 
 3.98919e-01 -1.69165e-01  8.70154e+00 
-2.26488e-12 -8.51258e-13  8.70438e+00 
-3.98919e-01  1.69165e-01  8.70154e+00 
-7.97880e-01  3.38423e-01  8.69301e+00 
-1.19702e+00  5.07910e-01  8.67875e+00 
-1.59633e+00  6.77695e-01  8.65873e+00 
-1.99596e+00  8.47914e-01  8.63287e+00 
-2.39589e+00  1.01863e+00  8.60108e+00 
-2.79626e+00  1.18998e+00  8.56326e+00 
-3.19703e+00  1.36201e+00  8.51929e+00 
-3.59834e+00  1.53485e+00  8.46902e+00 
-4.00014e+00  1.70853e+00  8.41229e+00 
-4.40255e+00  1.88318e+00  8.34891e+00 
-4.80550e+00  2.05881e+00  8.27871e+00 
-5.20908e+00  2.23551e+00  8.20145e+00 
-5.61321e+00  2.41330e+00  8.11694e+00 
-6.01796e+00  2.59224e+00  8.02492e+00 
-6.42320e+00  2.77232e+00  7.92516e+00 
-6.82899e+00  2.95358e+00  7.81738e+00 
-7.23516e+00  3.13598e+00  7.70136e+00 
-7.64172e+00  3.31952e+00  7.57680e+00 
-8.04849e+00  3.50412e+00  7.44347e+00 
-8.45542e+00  3.68976e+00  7.30109e+00 
-8.86229e+00  3.87631e+00  7.14945e+00 
-9.26901e+00  4.06372e+00  6.98830e+00 
-9.67532e+00  4.25180e+00  6.81745e+00 
-1.00811e+01  4.44046e+00  6.63673e+00 
-1.04860e+01  4.62947e+00  6.44602e+00 
-1.08899e+01  4.81869e+00  6.24522e+00 
-1.12925e+01  5.00785e+00  6.03435e+00 
-1.16934e+01  5.19675e+00  5.81340e+00 
-1.20925e+01  5.38512e+00  5.58255e+00 
-1.24894e+01  5.57271e+00  5.34197e+00 
-1.28839e+01  5.75922e+00  5.09200e+00 
-1.32757e+01  5.94441e+00  4.83302e+00 
-1.36644e+01  6.12797e+00  4.56558e+00 
-1.40500e+01  6.30969e+00  4.29026e+00 
-1.44323e+01  6.48930e+00  4.00785e+00 
-1.48111e+01  6.66665e+00  3.71910e+00 
-1.51863e+01  6.84155e+00  3.42501e+00 
-1.55580e+01  7.01394e+00  3.12650e+00 
-1.59263e+01  7.18375e+00  2.82468e+00 
-1.62913e+01  7.35107e+00  2.52058e+00 
-1.66532e+01  7.51597e+00  2.21535e+00 
-1.70125e+01  7.67869e+00  1.91004e+00 
-1.73695e+01  7.83948e+00  1.60575e+00 
-1.77248e+01  7.99876e+00  1.30340e+00 
-1.80790e+01  8.15693e+00  1.00392e+00 
-1.84327e+01  8.31456e+00  7.08043e-01 
-1.87867e+01  8.47225e+00  4.16410e-01 
-1.91417e+01  8.60731e+00  4.60191e-02 
 1.87309e+01 -8.42151e+00  5.72637e-02 
 1.83722e+01 -8.28476e+00  4.38665e-01 
 1.80149e+01 -8.12546e+00  7.34369e-01 
 1.76584e+01 -7.96674e+00  1.03105e+00 
 1.73024e+01 -7.80821e+00  1.32836e+00 
 1.69461e+01 -7.64943e+00  1.62599e+00 
 1.65893e+01 -7.49010e+00  1.92341e+00 
 1.62315e+01 -7.32988e+00  2.22014e+00 
 1.58724e+01 -7.16856e+00  2.51553e+00 
 1.55116e+01 -7.00589e+00  2.80899e+00 
 1.51489e+01 -6.84176e+00  3.09980e+00 
 1.47842e+01 -6.67603e+00  3.38733e+00 
 1.44172e+01 -6.50868e+00  3.67084e+00 
 1.40479e+01 -6.33966e+00  3.94973e+00 
 1.36762e+01 -6.16903e+00  4.22331e+00 
 1.33022e+01 -5.99681e+00  4.49104e+00 
 1.29259e+01 -5.82313e+00  4.75230e+00 
 1.25473e+01 -5.64806e+00  5.00664e+00 
 1.21666e+01 -5.47178e+00  5.25358e+00 
 1.17838e+01 -5.29439e+00  5.49277e+00 
 1.13992e+01 -5.11609e+00  5.72384e+00 
 1.10128e+01 -4.93699e+00  5.94657e+00 
 1.06250e+01 -4.75730e+00  6.16071e+00 
 1.02357e+01 -4.57713e+00  6.36614e+00 
 9.84518e+00 -4.39668e+00  6.56272e+00 
 9.45361e+00 -4.21605e+00  6.75044e+00 
 9.06119e+00 -4.03541e+00  6.92922e+00 
 8.66798e+00 -3.85485e+00  7.09915e+00 
 8.27422e+00 -3.67451e+00  7.26022e+00 
 7.87996e+00 -3.49446e+00  7.41255e+00 
 7.48539e+00 -3.31480e+00  7.55620e+00 
 7.09054e+00 -3.13558e+00  7.69133e+00 
 6.69560e+00 -2.95689e+00  7.81804e+00 
 6.30056e+00 -2.77874e+00  7.93649e+00 
 5.90557e+00 -2.60119e+00  8.04680e+00 
 5.51063e+00 -2.42423e+00  8.14914e+00 
 5.11584e+00 -2.24790e+00  8.24365e+00 
 4.72118e+00 -2.07217e+00  8.33048e+00 
 4.32675e+00 -1.89705e+00  8.40977e+00 
 3.93248e+00 -1.72251e+00  8.48168e+00 
 3.53846e+00 -1.54853e+00  8.54630e+00 
 3.14462e+00 -1.37505e+00  8.60379e+00 
 2.75104e+00 -1.20207e+00  8.65423e+00 
 2.35760e+00 -1.02951e+00  8.69774e+00 
 1.96439e+00 -8.57334e-01  8.73440e+00 
 1.57130e+00 -6.85465e-01  8.76429e+00 
 1.17837e+00 -5.13874e-01  8.78748e+00 
 7.85509e-01 -3.42465e-01  8.80400e+00 
 3.92752e-01 -1.71205e-01  8.81390e+00 
-2.23767e-12 -1.08417e-12  8.81720e+00 
-3.92752e-01  1.71205e-01  8.81390e+00 
-7.85509e-01  3.42465e-01  8.80400e+00 
-1.17837e+00  5.13874e-01  8.78748e+00 
-1.57130e+00  6.85465e-01  8.76429e+00 
-1.96439e+00  8.57334e-01  8.73440e+00 
-2.35760e+00  1.02951e+00  8.69774e+00 
-2.75104e+00  1.20207e+00  8.65423e+00 
-3.14462e+00  1.37505e+00  8.60379e+00 
-3.53846e+00  1.54853e+00  8.54630e+00 
-3.93248e+00  1.72251e+00  8.48168e+00 
-4.32675e+00  1.89705e+00  8.40977e+00 
-4.72118e+00  2.07217e+00  8.33048e+00 
-5.11584e+00  2.24790e+00  8.24365e+00 
-5.51063e+00  2.42423e+00  8.14914e+00 
-5.90557e+00  2.60119e+00  8.04680e+00 
-6.30056e+00  2.77874e+00  7.93649e+00 
-6.69560e+00  2.95689e+00  7.81804e+00 
-7.09054e+00  3.13558e+00  7.69133e+00 
-7.48539e+00  3.31480e+00  7.55620e+00 
-7.87996e+00  3.49446e+00  7.41255e+00 
-8.27422e+00  3.67451e+00  7.26022e+00 
-8.66798e+00  3.85485e+00  7.09915e+00 
-9.06119e+00  4.03541e+00  6.92922e+00 
-9.45361e+00  4.21605e+00  6.75044e+00 
-9.84518e+00  4.39668e+00  6.56272e+00 
-1.02357e+01  4.57713e+00  6.36614e+00 
-1.06250e+01  4.75730e+00  6.16071e+00 
-1.10128e+01  4.93699e+00  5.94657e+00 
-1.13992e+01  5.11609e+00  5.72384e+00 
-1.17838e+01  5.29439e+00  5.49277e+00 
-1.21666e+01  5.47178e+00  5.25358e+00 
-1.25473e+01  5.64806e+00  5.00664e+00 
-1.29259e+01  5.82313e+00  4.75230e+00 
-1.33022e+01  5.99681e+00  4.49104e+00 
-1.36762e+01  6.16903e+00  4.22331e+00 
-1.40479e+01  6.33966e+00  3.94973e+00 
-1.44172e+01  6.50868e+00  3.67084e+00 
-1.47842e+01  6.67603e+00  3.38733e+00 
-1.51489e+01  6.84176e+00  3.09980e+00 
-1.55116e+01  7.00589e+00  2.80899e+00 
-1.58724e+01  7.16856e+00  2.51553e+00 
-1.62315e+01  7.32988e+00  2.22014e+00 
-1.65893e+01  7.49010e+00  1.92341e+00 
-1.69461e+01  7.64943e+00  1.62599e+00 
-1.73024e+01  7.80821e+00  1.32836e+00 
-1.76584e+01  7.96674e+00  1.03105e+00 
-1.80149e+01  8.12546e+00  7.34369e-01 
-1.83722e+01  8.28476e+00  4.38665e-01 
-1.87309e+01  8.42151e+00  5.72637e-02 
 1.83059e+01 -8.22994e+00  6.55261e-02 
 1.79477e+01 -8.09316e+00  4.58323e-01 
 1.75910e+01 -7.93389e+00  7.59773e-01 
 1.72353e+01 -7.77541e+00  1.05987e+00 
 1.68804e+01 -7.61744e+00  1.35846e+00 
 1.65258e+01 -7.45966e+00  1.65542e+00 
 1.61713e+01 -7.30183e+00  1.95047e+00 
 1.58164e+01 -7.14370e+00  2.24338e+00 
 1.54610e+01 -6.98509e+00  2.53376e+00 
 1.51047e+01 -6.82579e+00  2.82129e+00 
 1.47474e+01 -6.66568e+00  3.10551e+00 
 1.43889e+01 -6.50461e+00  3.38607e+00 
 1.40291e+01 -6.34254e+00  3.66246e+00 
 1.36677e+01 -6.17936e+00  3.93431e+00 
 1.33048e+01 -6.01508e+00  4.20114e+00 
 1.29403e+01 -5.84965e+00  4.46257e+00 
 1.25741e+01 -5.68314e+00  4.71816e+00 
 1.22063e+01 -5.51554e+00  4.96758e+00 
 1.18369e+01 -5.34693e+00  5.21043e+00 
 1.14659e+01 -5.17736e+00  5.44645e+00 
 1.10934e+01 -5.00692e+00  5.67528e+00 
 1.07195e+01 -4.83567e+00  5.89674e+00 
 1.03442e+01 -4.66375e+00  6.11056e+00 
 9.96759e+00 -4.49120e+00  6.31661e+00 
 9.58987e+00 -4.31816e+00  6.51468e+00 
 9.21105e+00 -4.14469e+00  6.70471e+00 
 8.83131e+00 -3.97091e+00  6.88657e+00 
 8.45066e+00 -3.79688e+00  7.06025e+00 
 8.06930e+00 -3.62272e+00  7.22566e+00 
 7.68723e+00 -3.44846e+00  7.38285e+00 
 7.30462e+00 -3.27422e+00  7.53177e+00 
 6.92149e+00 -3.10001e+00  7.67250e+00 
 6.53799e+00 -2.92593e+00  7.80504e+00 
 6.15411e+00 -2.75199e+00  7.92947e+00 
 5.77000e+00 -2.57825e+00  8.04583e+00 
 5.38564e+00 -2.40473e+00  8.15422e+00 
 5.00116e+00 -2.23146e+00  8.25468e+00 
 4.61652e+00 -2.05844e+00  8.34731e+00 
 4.23184e+00 -1.88571e+00  8.43217e+00 
 3.84707e+00 -1.71323e+00  8.50936e+00 
 3.46232e+00 -1.54103e+00  8.57894e+00 
 3.07752e+00 -1.36907e+00  8.64098e+00 
 2.69278e+00 -1.19737e+00  8.69555e+00 
 2.30801e+00 -1.02587e+00  8.74272e+00 
 1.92331e+00 -8.54581e-01  8.78252e+00 
 1.53859e+00 -6.83447e-01  8.81503e+00 
 1.15393e+00 -5.12468e-01  8.84027e+00 
 7.69262e-01 -3.41579e-01  8.85828e+00 
 3.84641e-01 -1.70778e-01  8.86907e+00 
-1.79757e-12 -1.80342e-12  8.87267e+00 
-3.84641e-01  1.70778e-01  8.86907e+00 
-7.69262e-01  3.41579e-01  8.85828e+00 
-1.15393e+00  5.12468e-01  8.84027e+00 
-1.53859e+00  6.83447e-01  8.81503e+00 
-1.92331e+00  8.54581e-01  8.78252e+00 
-2.30801e+00  1.02587e+00  8.74272e+00 
-2.69278e+00  1.19737e+00  8.69555e+00 
-3.07752e+00  1.36907e+00  8.64098e+00 
-3.46232e+00  1.54103e+00  8.57894e+00 
-3.84707e+00  1.71323e+00  8.50936e+00 
-4.23184e+00  1.88571e+00  8.43217e+00 
-4.61652e+00  2.05844e+00  8.34731e+00 
-5.00116e+00  2.23146e+00  8.25468e+00 
-5.38564e+00  2.40473e+00  8.15422e+00 
-5.77000e+00  2.57825e+00  8.04583e+00 
-6.15411e+00  2.75199e+00  7.92947e+00 
-6.53799e+00  2.92593e+00  7.80504e+00 
-6.92149e+00  3.10001e+00  7.67250e+00 
-7.30462e+00  3.27422e+00  7.53177e+00 
-7.68723e+00  3.44846e+00  7.38285e+00 
-8.06930e+00  3.62272e+00  7.22566e+00 
-8.45066e+00  3.79688e+00  7.06025e+00 
-8.83131e+00  3.97091e+00  6.88657e+00 
-9.21105e+00  4.14469e+00  6.70471e+00 
-9.58987e+00  4.31816e+00  6.51468e+00 
-9.96759e+00  4.49120e+00  6.31661e+00 
-1.03442e+01  4.66375e+00  6.11056e+00 
-1.07195e+01  4.83567e+00  5.89674e+00 
-1.10934e+01  5.00692e+00  5.67528e+00 
-1.14659e+01  5.17736e+00  5.44645e+00 
-1.18369e+01  5.34693e+00  5.21043e+00 
-1.22063e+01  5.51554e+00  4.96758e+00 
-1.25741e+01  5.68314e+00  4.71816e+00 
-1.29403e+01  5.84965e+00  4.46257e+00 
-1.33048e+01  6.01508e+00  4.20114e+00 
-1.36677e+01  6.17936e+00  3.93431e+00 
-1.40291e+01  6.34254e+00  3.66246e+00 
-1.43889e+01  6.50461e+00  3.38607e+00 
-1.47474e+01  6.66568e+00  3.10551e+00 
-1.51047e+01  6.82579e+00  2.82129e+00 
-1.54610e+01  6.98509e+00  2.53376e+00 
-1.58164e+01  7.14370e+00  2.24338e+00 
-1.61713e+01  7.30183e+00  1.95047e+00 
-1.65258e+01  7.45966e+00  1.65542e+00 
-1.68804e+01  7.61744e+00  1.35846e+00 
-1.72353e+01  7.77541e+00  1.05987e+00 
-1.75910e+01  7.93389e+00  7.59773e-01 
-1.79477e+01  8.09316e+00  4.58323e-01 
-1.83059e+01  8.22994e+00  6.55261e-02 
 1.78678e+01 -8.03278e+00  7.15948e-02 
 1.75131e+01 -7.89710e+00  4.74987e-01 
 1.71597e+01 -7.73909e+00  7.82484e-01 
 1.68074e+01 -7.58190e+00  1.08697e+00 
 1.64559e+01 -7.42533e+00  1.38837e+00 
 1.61050e+01 -7.26914e+00  1.68669e+00 
 1.57544e+01 -7.11317e+00  1.98178e+00 
 1.54039e+01 -6.95720e+00  2.27355e+00 
 1.50532e+01 -6.80111e+00  2.56176e+00 
 1.47022e+01 -6.64470e+00  2.84627e+00 
 1.43507e+01 -6.48790e+00  3.12678e+00 
 1.39985e+01 -6.33055e+00  3.40309e+00 
 1.36456e+01 -6.17259e+00  3.67487e+00 
 1.32917e+01 -6.01393e+00  3.94190e+00 
 1.29368e+01 -5.85454e+00  4.20383e+00 
 1.25808e+01 -5.69435e+00  4.46043e+00 
 1.22237e+01 -5.53338e+00  4.71137e+00 
 1.18653e+01 -5.37158e+00  4.95642e+00 
 1.15059e+01 -5.20900e+00  5.19527e+00 
 1.11452e+01 -5.04563e+00  5.42773e+00 
 1.07834e+01 -4.88153e+00  5.65351e+00 
 1.04204e+01 -4.71670e+00  5.87245e+00 
 1.00563e+01 -4.55123e+00  6.08432e+00 
 9.69107e+00 -4.38513e+00  6.28898e+00 
 9.32488e+00 -4.21849e+00  6.48623e+00 
 8.95769e+00 -4.05133e+00  6.67600e+00 
 8.58962e+00 -3.88374e+00  6.85813e+00 
 8.22068e+00 -3.71576e+00  7.03257e+00 
 7.85100e+00 -3.54747e+00  7.19921e+00 
 7.48057e+00 -3.37888e+00  7.35803e+00 
 7.10953e+00 -3.21009e+00  7.50895e+00 
 6.73786e+00 -3.04112e+00  7.65199e+00 
 6.36570e+00 -2.87203e+00  7.78709e+00 
 5.99304e+00 -2.70284e+00  7.91429e+00 
 5.62000e+00 -2.53361e+00  8.03357e+00 
 5.24655e+00 -2.36435e+00  8.14497e+00 
 4.87283e+00 -2.19511e+00  8.24847e+00 
 4.49880e+00 -2.02589e+00  8.34415e+00 
 4.12456e+00 -1.85672e+00  8.43199e+00 
 3.75010e+00 -1.68760e+00  8.51206e+00 
 3.37550e+00 -1.51856e+00  8.58437e+00 
 3.00072e+00 -1.34958e+00  8.64897e+00 
 2.62586e+00 -1.18069e+00  8.70587e+00 
 2.25088e+00 -1.01186e+00  8.75512e+00 
 1.87585e+00 -8.43106e-01  8.79674e+00 
 1.50073e+00 -6.74399e-01  8.83077e+00 
 1.12560e+00 -5.05760e-01  8.85720e+00 
 7.50402e-01 -3.37144e-01  8.87607e+00 
 3.75220e-01 -1.68571e-01  8.88739e+00 
-1.79668e-12 -2.35223e-12  8.89116e+00 
-3.75220e-01  1.68571e-01  8.88739e+00 
-7.50402e-01  3.37144e-01  8.87607e+00 
-1.12560e+00  5.05760e-01  8.85720e+00 
-1.50073e+00  6.74399e-01  8.83077e+00 
-1.87585e+00  8.43106e-01  8.79674e+00 
-2.25088e+00  1.01186e+00  8.75512e+00 
-2.62586e+00  1.18069e+00  8.70587e+00 
-3.00072e+00  1.34958e+00  8.64897e+00 
-3.37550e+00  1.51856e+00  8.58437e+00 
-3.75010e+00  1.68760e+00  8.51206e+00 
-4.12456e+00  1.85672e+00  8.43199e+00 
-4.49880e+00  2.02589e+00  8.34415e+00 
-4.87283e+00  2.19511e+00  8.24847e+00 
-5.24655e+00  2.36435e+00  8.14497e+00 
-5.62000e+00  2.53361e+00  8.03357e+00 
-5.99304e+00  2.70284e+00  7.91429e+00 
-6.36570e+00  2.87203e+00  7.78709e+00 
-6.73786e+00  3.04112e+00  7.65199e+00 
-7.10953e+00  3.21009e+00  7.50895e+00 
-7.48057e+00  3.37888e+00  7.35803e+00 
-7.85100e+00  3.54747e+00  7.19921e+00 
-8.22068e+00  3.71576e+00  7.03257e+00 
-8.58962e+00  3.88374e+00  6.85813e+00 
-8.95769e+00  4.05133e+00  6.67600e+00 
-9.32488e+00  4.21849e+00  6.48623e+00 
-9.69107e+00  4.38513e+00  6.28898e+00 
-1.00563e+01  4.55123e+00  6.08432e+00 
-1.04204e+01  4.71670e+00  5.87245e+00 
-1.07834e+01  4.88153e+00  5.65351e+00 
-1.11452e+01  5.04563e+00  5.42773e+00 
-1.15059e+01  5.20900e+00  5.19527e+00 
-1.18653e+01  5.37158e+00  4.95642e+00 
-1.22237e+01  5.53338e+00  4.71137e+00 
-1.25808e+01  5.69435e+00  4.46043e+00 
-1.29368e+01  5.85454e+00  4.20383e+00 
-1.32917e+01  6.01393e+00  3.94190e+00 
-1.36456e+01  6.17259e+00  3.67487e+00 
-1.39985e+01  6.33055e+00  3.40309e+00 
-1.43507e+01  6.48790e+00  3.12678e+00 
-1.47022e+01  6.64470e+00  2.84627e+00 
-1.50532e+01  6.80111e+00  2.56176e+00 
-1.54039e+01  6.95720e+00  2.27355e+00 
-1.57544e+01  7.11317e+00  1.98178e+00 
-1.61050e+01  7.26914e+00  1.68669e+00 
-1.64559e+01  7.42533e+00  1.38837e+00 
-1.68074e+01  7.58190e+00  1.08697e+00 
-1.71597e+01  7.73909e+00  7.82484e-01 
-1.75131e+01  7.89710e+00  4.74987e-01 
-1.78678e+01  8.03278e+00  7.15948e-02 
 1.74181e+01 -7.83059e+00  7.60250e-02 
 1.70689e+01 -7.69682e+00  4.88726e-01 
 1.67208e+01 -7.54097e+00  8.01889e-01 
 1.63737e+01 -7.38588e+00  1.11085e+00 
 1.60275e+01 -7.23142e+00  1.41557e+00 
 1.56818e+01 -7.07740e+00  1.71613e+00 
 1.53367e+01 -6.92371e+00  2.01244e+00 
 1.49917e+01 -6.77018e+00  2.30450e+00 
 1.46469e+01 -6.61671e+00  2.59217e+00 
 1.43019e+01 -6.46315e+00  2.87540e+00 
 1.39568e+01 -6.30942e+00  3.15399e+00 
 1.36114e+01 -6.15541e+00  3.42784e+00 
 1.32655e+01 -6.00106e+00  3.69674e+00 
 1.29190e+01 -5.84627e+00  3.96056e+00 
 1.25720e+01 -5.69101e+00  4.21906e+00 
 1.22242e+01 -5.53520e+00  4.47209e+00 
 1.18756e+01 -5.37885e+00  4.71941e+00 
 1.15262e+01 -5.22189e+00  4.96088e+00 
 1.11760e+01 -5.06434e+00  5.19626e+00 
 1.08248e+01 -4.90616e+00  5.42541e+00 
 1.04729e+01 -4.74740e+00  5.64809e+00 
 1.01199e+01 -4.58803e+00  5.86420e+00 
 9.76618e+00 -4.42810e+00  6.07353e+00 
 9.41151e+00 -4.26760e+00  6.27597e+00 
 9.05602e+00 -4.10659e+00  6.47135e+00 
 8.69967e+00 -3.94507e+00  6.65957e+00 
 8.34257e+00 -3.78310e+00  6.84050e+00 
 7.98467e+00 -3.62069e+00  7.01408e+00 
 7.62609e+00 -3.45790e+00  7.18017e+00 
 7.26681e+00 -3.29475e+00  7.33875e+00 
 6.90692e+00 -3.13129e+00  7.48971e+00 
 6.54640e+00 -2.96754e+00  7.63305e+00 
 6.18538e+00 -2.80356e+00  7.76867e+00 
 5.82381e+00 -2.63934e+00  7.89659e+00 
 5.46182e+00 -2.47495e+00  8.01675e+00 
 5.09936e+00 -2.31039e+00  8.12916e+00 
 4.73657e+00 -2.14571e+00  8.23378e+00 
 4.37339e+00 -1.98091e+00  8.33063e+00 
 4.00994e+00 -1.81603e+00  8.41969e+00 
 3.64618e+00 -1.65107e+00  8.50098e+00 
 3.28222e+00 -1.48607e+00  8.57448e+00 
 2.91801e+00 -1.32101e+00  8.64022e+00 
 2.55365e+00 -1.15593e+00  8.69819e+00 
 2.18910e+00 -9.90821e-01  8.74842e+00 
 1.82446e+00 -8.25707e-01  8.79090e+00 
 1.45968e+00 -6.60567e-01  8.82564e+00 
 1.09484e+00 -4.95437e-01  8.85265e+00 
 7.29915e-01 -3.30286e-01  8.87195e+00 
 3.64981e-01 -1.65150e-01  8.88352e+00 
-1.59623e-12 -2.79060e-12  8.88738e+00 
-3.64981e-01  1.65150e-01  8.88352e+00 
-7.29915e-01  3.30286e-01  8.87195e+00 
-1.09484e+00  4.95437e-01  8.85265e+00 
-1.45968e+00  6.60567e-01  8.82564e+00 
-1.82446e+00  8.25707e-01  8.79090e+00 
-2.18910e+00  9.90821e-01  8.74842e+00 
-2.55365e+00  1.15593e+00  8.69819e+00 
-2.91801e+00  1.32101e+00  8.64022e+00 
-3.28222e+00  1.48607e+00  8.57448e+00 
-3.64618e+00  1.65107e+00  8.50098e+00 
-4.00994e+00  1.81603e+00  8.41969e+00 
-4.37339e+00  1.98091e+00  8.33063e+00 
-4.73657e+00  2.14571e+00  8.23378e+00 
-5.09936e+00  2.31039e+00  8.12916e+00 
-5.46182e+00  2.47495e+00  8.01675e+00 
-5.82381e+00  2.63934e+00  7.89659e+00 
-6.18538e+00  2.80356e+00  7.76867e+00 
-6.54640e+00  2.96754e+00  7.63305e+00 
-6.90692e+00  3.13129e+00  7.48971e+00 
-7.26681e+00  3.29475e+00  7.33875e+00 
-7.62609e+00  3.45790e+00  7.18017e+00 
-7.98467e+00  3.62069e+00  7.01408e+00 
-8.34257e+00  3.78310e+00  6.84050e+00 
-8.69967e+00  3.94507e+00  6.65957e+00 
-9.05602e+00  4.10659e+00  6.47135e+00 
-9.41151e+00  4.26760e+00  6.27597e+00 
-9.76618e+00  4.42810e+00  6.07353e+00 
-1.01199e+01  4.58803e+00  5.86420e+00 
-1.04729e+01  4.74740e+00  5.64809e+00 
-1.08248e+01  4.90616e+00  5.42541e+00 
-1.11760e+01  5.06434e+00  5.19626e+00 
-1.15262e+01  5.22189e+00  4.96088e+00 
-1.18756e+01  5.37885e+00  4.71941e+00 
-1.22242e+01  5.53520e+00  4.47209e+00 
-1.25720e+01  5.69101e+00  4.21906e+00 
-1.29190e+01  5.84627e+00  3.96056e+00 
-1.32655e+01  6.00106e+00  3.69674e+00 
-1.36114e+01  6.15541e+00  3.42784e+00 
-1.39568e+01  6.30942e+00  3.15399e+00 
-1.43019e+01  6.46315e+00  2.87540e+00 
-1.46469e+01  6.61671e+00  2.59217e+00 
-1.49917e+01  6.77018e+00  2.30450e+00 
-1.53367e+01  6.92371e+00  2.01244e+00 
-1.56818e+01  7.07740e+00  1.71613e+00 
-1.60275e+01  7.23142e+00  1.41557e+00 
-1.63737e+01  7.38588e+00  1.11085e+00 
-1.67208e+01  7.54097e+00  8.01889e-01 
-1.70689e+01  7.69682e+00  4.88726e-01 
-1.74181e+01  7.83059e+00  7.60250e-02 
 1.69586e+01 -7.62408e+00  7.93737e-02 
 1.66163e+01 -7.49282e+00  4.99901e-01 
 1.62750e+01 -7.33980e+00  8.18045e-01 
 1.59345e+01 -7.18744e+00  1.13113e+00 
 1.55948e+01 -7.03566e+00  1.43914e+00 
 1.52557e+01 -6.88431e+00  1.74218e+00 
 1.49171e+01 -6.73332e+00  2.04021e+00 
 1.45787e+01 -6.58254e+00  2.33327e+00 
 1.42406e+01 -6.43193e+00  2.62126e+00 
 1.39025e+01 -6.28134e+00  2.90421e+00 
 1.35644e+01 -6.13073e+00  3.18196e+00 
 1.32262e+01 -5.97999e+00  3.45451e+00 
 1.28878e+01 -5.82907e+00  3.72168e+00 
 1.25490e+01 -5.67789e+00  3.98342e+00 
 1.22099e+01 -5.52641e+00  4.23956e+00 
 1.18703e+01 -5.37457e+00  4.49003e+00 
 1.15302e+01 -5.22235e+00  4.73463e+00 
 1.11895e+01 -5.06969e+00  4.97329e+00 
 1.08482e+01 -4.91660e+00  5.20581e+00 
 1.05063e+01 -4.76304e+00  5.43211e+00 
 1.01637e+01 -4.60901e+00  5.65202e+00 
 9.82046e+00 -4.45449e+00  5.86543e+00 
 9.47653e+00 -4.29951e+00  6.07219e+00 
 9.13188e+00 -4.14405e+00  6.27221e+00 
 8.78659e+00 -3.98814e+00  6.46535e+00 
 8.44058e+00 -3.83176e+00  6.65153e+00 
 8.09395e+00 -3.67498e+00  6.83061e+00 
 7.74664e+00 -3.51776e+00  7.00254e+00 
 7.39874e+00 -3.36018e+00  7.16721e+00 
 7.05021e+00 -3.20221e+00  7.32457e+00 
 6.70114e+00 -3.04391e+00  7.47451e+00 
 6.35149e+00 -2.88529e+00  7.61702e+00 
 6.00136e+00 -2.72638e+00  7.75200e+00 
 5.65072e+00 -2.56719e+00  7.87944e+00 
 5.29966e+00 -2.40776e+00  7.99926e+00 
 4.94814e+00 -2.24810e+00  8.11147e+00 
 4.59627e+00 -2.08826e+00  8.21601e+00 
 4.24401e+00 -1.92822e+00  8.31288e+00 
 3.89146e+00 -1.76803e+00  8.40203e+00 
 3.53858e+00 -1.60769e+00  8.48348e+00 
 3.18547e+00 -1.44725e+00  8.55718e+00 
 2.83209e+00 -1.28668e+00  8.62315e+00 
 2.47854e+00 -1.12604e+00  8.68136e+00 
 2.12477e+00 -9.65301e-01  8.73182e+00 
 1.77089e+00 -8.04517e-01  8.77452e+00 
 1.41685e+00 -6.43666e-01  8.80946e+00 
 1.06274e+00 -4.82791e-01  8.83664e+00 
 7.08518e-01 -3.21870e-01  8.85605e+00 
 3.54284e-01 -1.60946e-01  8.86770e+00 
-1.07418e-12 -3.69722e-12  8.87158e+00 
-3.54284e-01  1.60946e-01  8.86770e+00 
-7.08518e-01  3.21870e-01  8.85605e+00 
-1.06274e+00  4.82791e-01  8.83664e+00 
-1.41685e+00  6.43666e-01  8.80946e+00 
-1.77089e+00  8.04517e-01  8.77452e+00 
-2.12477e+00  9.65301e-01  8.73182e+00 
-2.47854e+00  1.12604e+00  8.68136e+00 
-2.83209e+00  1.28668e+00  8.62315e+00 
-3.18547e+00  1.44725e+00  8.55718e+00 
-3.53858e+00  1.60769e+00  8.48348e+00 
-3.89146e+00  1.76803e+00  8.40203e+00 
-4.24401e+00  1.92822e+00  8.31288e+00 
-4.59627e+00  2.08826e+00  8.21601e+00 
-4.94814e+00  2.24810e+00  8.11147e+00 
-5.29966e+00  2.40776e+00  7.99926e+00 
-5.65072e+00  2.56719e+00  7.87944e+00 
-6.00136e+00  2.72638e+00  7.75200e+00 
-6.35149e+00  2.88529e+00  7.61702e+00 
-6.70114e+00  3.04391e+00  7.47451e+00 
-7.05021e+00  3.20221e+00  7.32457e+00 
-7.39874e+00  3.36018e+00  7.16721e+00 
-7.74664e+00  3.51776e+00  7.00254e+00 
-8.09395e+00  3.67498e+00  6.83061e+00 
-8.44058e+00  3.83176e+00  6.65153e+00 
-8.78659e+00  3.98814e+00  6.46535e+00 
-9.13188e+00  4.14405e+00  6.27221e+00 
-9.47653e+00  4.29951e+00  6.07219e+00 
-9.82046e+00  4.45449e+00  5.86543e+00 
-1.01637e+01  4.60901e+00  5.65202e+00 
-1.05063e+01  4.76304e+00  5.43211e+00 
-1.08482e+01  4.91660e+00  5.20581e+00 
-1.11895e+01  5.06969e+00  4.97329e+00 
-1.15302e+01  5.22235e+00  4.73463e+00 
-1.18703e+01  5.37457e+00  4.49003e+00 
-1.22099e+01  5.52641e+00  4.23956e+00 
-1.25490e+01  5.67789e+00  3.98342e+00 
-1.28878e+01  5.82907e+00  3.72168e+00 
-1.32262e+01  5.97999e+00  3.45451e+00 
-1.35644e+01  6.13073e+00  3.18196e+00 
-1.39025e+01  6.28134e+00  2.90421e+00 
-1.42406e+01  6.43193e+00  2.62126e+00 
-1.45787e+01  6.58254e+00  2.33327e+00 
-1.49171e+01  6.73332e+00  2.04021e+00 
-1.52557e+01  6.88431e+00  1.74218e+00 
-1.55948e+01  7.03566e+00  1.43914e+00 
-1.59345e+01  7.18744e+00  1.13113e+00 
-1.62750e+01  7.33980e+00  8.18045e-01 
-1.66163e+01  7.49282e+00  4.99901e-01 
-1.69586e+01  7.62408e+00  7.93737e-02 
 1.64911e+01 -7.41399e+00  8.18242e-02 
 1.61567e+01 -7.28565e+00  5.08774e-01 
 1.58232e+01 -7.13595e+00  8.31135e-01 
 1.54903e+01 -6.98679e+00  1.14782e+00 
 1.51582e+01 -6.83815e+00  1.45883e+00 
 1.48265e+01 -6.68989e+00  1.76427e+00 
 1.44952e+01 -6.54197e+00  2.06412e+00 
 1.41643e+01 -6.39429e+00  2.35844e+00 
 1.38337e+01 -6.24680e+00  2.64718e+00 
 1.35032e+01 -6.09939e+00  2.93037e+00 
 1.31727e+01 -5.95203e+00  3.20793e+00 
 1.28423e+01 -5.80464e+00  3.47986e+00 
 1.25117e+01 -5.65716e+00  3.74606e+00 
 1.21810e+01 -5.50954e+00  4.00650e+00 
 1.18501e+01 -5.36174e+00  4.26106e+00 
 1.15188e+01 -5.21370e+00  4.50971e+00 
 1.11873e+01 -5.06541e+00  4.75231e+00 
 1.08553e+01 -4.91680e+00  4.98881e+00 
 1.05229e+01 -4.76788e+00  5.21907e+00 
 1.01901e+01 -4.61860e+00  5.44304e+00 
 9.85677e+00 -4.46898e+00  5.66058e+00 
 9.52294e+00 -4.31896e+00  5.87163e+00 
 9.18861e+00 -4.16858e+00  6.07604e+00 
 8.85372e+00 -4.01780e+00  6.27377e+00 
 8.51833e+00 -3.86664e+00  6.46469e+00 
 8.18237e+00 -3.71510e+00  6.64874e+00 
 7.84590e+00 -3.56319e+00  6.82581e+00 
 7.50888e+00 -3.41090e+00  6.99585e+00 
 7.17137e+00 -3.25827e+00  7.15874e+00 
 6.83332e+00 -3.10528e+00  7.31446e+00 
 6.49481e+00 -2.95198e+00  7.46290e+00 
 6.15580e+00 -2.79836e+00  7.60404e+00 
 5.81637e+00 -2.64445e+00  7.73779e+00 
 5.47647e+00 -2.49026e+00  7.86413e+00 
 5.13620e+00 -2.33582e+00  7.98298e+00 
 4.79551e+00 -2.18112e+00  8.09434e+00 
 4.45449e+00 -2.02622e+00  8.19813e+00 
 4.11311e+00 -1.87110e+00  8.29436e+00 
 3.77145e+00 -1.71581e+00  8.38296e+00 
 3.42947e+00 -1.56034e+00  8.46395e+00 
 3.08727e+00 -1.40473e+00  8.53727e+00 
 2.74480e+00 -1.24897e+00  8.60292e+00 
 2.40216e+00 -1.09310e+00  8.66087e+00 
 2.05931e+00 -9.37124e-01  8.71113e+00 
 1.71634e+00 -7.81074e-01  8.75367e+00 
 1.37321e+00 -6.24937e-01  8.78849e+00 
 1.03001e+00 -4.68758e-01  8.81558e+00 
 6.86703e-01 -3.12522e-01  8.83493e+00 
 3.43377e-01 -1.56274e-01  8.84654e+00 
-1.33874e-12 -3.39559e-12  8.85041e+00 
-3.43377e-01  1.56274e-01  8.84654e+00 
-6.86703e-01  3.12522e-01  8.83493e+00 
-1.03001e+00  4.68758e-01  8.81558e+00 
-1.37321e+00  6.24937e-01  8.78849e+00 
-1.71634e+00  7.81074e-01  8.75367e+00 
-2.05931e+00  9.37124e-01  8.71113e+00 
-2.40216e+00  1.09310e+00  8.66087e+00 
-2.74480e+00  1.24897e+00  8.60292e+00 
-3.08727e+00  1.40473e+00  8.53727e+00 
-3.42947e+00  1.56034e+00  8.46395e+00 
-3.77145e+00  1.71581e+00  8.38296e+00 
-4.11311e+00  1.87110e+00  8.29436e+00 
-4.45449e+00  2.02622e+00  8.19813e+00 
-4.79551e+00  2.18112e+00  8.09434e+00 
-5.13620e+00  2.33582e+00  7.98298e+00 
-5.47647e+00  2.49026e+00  7.86413e+00 
-5.81637e+00  2.64445e+00  7.73779e+00 
-6.15580e+00  2.79836e+00  7.60404e+00 
-6.49481e+00  2.95198e+00  7.46290e+00 
-6.83332e+00  3.10528e+00  7.31446e+00 
-7.17137e+00  3.25827e+00  7.15874e+00 
-7.50888e+00  3.41090e+00  6.99585e+00 
-7.84590e+00  3.56319e+00  6.82581e+00 
-8.18237e+00  3.71510e+00  6.64874e+00 
-8.51833e+00  3.86664e+00  6.46469e+00 
-8.85372e+00  4.01780e+00  6.27377e+00 
-9.18861e+00  4.16858e+00  6.07604e+00 
-9.52294e+00  4.31896e+00  5.87163e+00 
-9.85677e+00  4.46898e+00  5.66058e+00 
-1.01901e+01  4.61860e+00  5.44304e+00 
-1.05229e+01  4.76788e+00  5.21907e+00 
-1.08553e+01  4.91680e+00  4.98881e+00 
-1.11873e+01  5.06541e+00  4.75231e+00 
-1.15188e+01  5.21370e+00  4.50971e+00 
-1.18501e+01  5.36174e+00  4.26106e+00 
-1.21810e+01  5.50954e+00  4.00650e+00 
-1.25117e+01  5.65716e+00  3.74606e+00 
-1.28423e+01  5.80464e+00  3.47986e+00 
-1.31727e+01  5.95203e+00  3.20793e+00 
-1.35032e+01  6.09939e+00  2.93037e+00 
-1.38337e+01  6.24680e+00  2.64718e+00 
-1.41643e+01  6.39429e+00  2.35844e+00 
-1.44952e+01  6.54197e+00  2.06412e+00 
-1.48265e+01  6.68989e+00  1.76427e+00 
-1.51582e+01  6.83815e+00  1.45883e+00 
-1.54903e+01  6.98679e+00  1.14782e+00 
-1.58232e+01  7.13595e+00  8.31135e-01 
-1.61567e+01  7.28565e+00  5.08774e-01 
-1.64911e+01  7.41399e+00  8.18242e-02 
 1.60171e+01 -7.20099e+00  8.35666e-02 
 1.56914e+01 -7.07587e+00  5.15699e-01 
 1.53663e+01 -6.92984e+00  8.41523e-01 
 1.50418e+01 -6.78426e+00  1.16123e+00 
 1.47179e+01 -6.63910e+00  1.47482e+00 
 1.43944e+01 -6.49427e+00  1.78241e+00 
 1.40713e+01 -6.34976e+00  2.08397e+00 
 1.37484e+01 -6.20546e+00  2.37959e+00 
 1.34259e+01 -6.06135e+00  2.66921e+00 
 1.31035e+01 -5.91735e+00  2.95291e+00 
 1.27812e+01 -5.77343e+00  3.23061e+00 
 1.24590e+01 -5.62952e+00  3.50235e+00 
 1.21367e+01 -5.48560e+00  3.76804e+00 
 1.18144e+01 -5.34160e+00  4.02769e+00 
 1.14919e+01 -5.19750e+00  4.28121e+00 
 1.11693e+01 -5.05324e+00  4.52859e+00 
 1.08465e+01 -4.90882e+00  4.76973e+00 
 1.05233e+01 -4.76417e+00  5.00462e+00 
 1.02000e+01 -4.61930e+00  5.23313e+00 
 9.87623e+00 -4.47417e+00  5.45524e+00 
 9.55218e+00 -4.32877e+00  5.67084e+00 
 9.22773e+00 -4.18308e+00  5.87990e+00 
 8.90292e+00 -4.03709e+00  6.08230e+00 
 8.57768e+00 -3.89079e+00  6.27802e+00 
 8.25206e+00 -3.74419e+00  6.46693e+00 
 7.92598e+00 -3.59726e+00  6.64900e+00 
 7.59951e+00 -3.45003e+00  6.82414e+00 
 7.27259e+00 -3.30248e+00  6.99230e+00 
 6.94528e+00 -3.15463e+00  7.15340e+00 
 6.61753e+00 -3.00648e+00  7.30739e+00 
 6.28940e+00 -2.85804e+00  7.45420e+00 
 5.96084e+00 -2.70931e+00  7.59380e+00 
 5.63194e+00 -2.56032e+00  7.72610e+00 
 5.30264e+00 -2.41106e+00  7.85110e+00 
 4.97301e+00 -2.26158e+00  7.96870e+00 
 4.64302e+00 -2.11184e+00  8.07891e+00 
 4.31275e+00 -1.96191e+00  8.18166e+00 
 3.98215e+00 -1.81176e+00  8.27694e+00 
 3.65130e+00 -1.66144e+00  8.36468e+00 
 3.32017e+00 -1.51093e+00  8.44490e+00 
 2.98884e+00 -1.36028e+00  8.51754e+00 
 2.65727e+00 -1.20948e+00  8.58260e+00 
 2.32554e+00 -1.05857e+00  8.64003e+00 
 1.99361e+00 -9.07542e-01  8.68985e+00 
 1.66157e+00 -7.56433e-01  8.73203e+00 
 1.32939e+00 -6.05231e-01  8.76655e+00 
 9.97137e-01 -4.53984e-01  8.79341e+00 
 6.64784e-01 -3.02675e-01  8.81261e+00 
 3.32416e-01 -1.51351e-01  8.82412e+00 
-1.60376e-12 -3.35387e-12  8.82796e+00 
-3.32416e-01  1.51351e-01  8.82412e+00 
-6.64784e-01  3.02675e-01  8.81261e+00 
-9.97137e-01  4.53984e-01  8.79341e+00 
-1.32939e+00  6.05231e-01  8.76655e+00 
-1.66157e+00  7.56433e-01  8.73203e+00 
-1.99361e+00  9.07542e-01  8.68985e+00 
-2.32554e+00  1.05857e+00  8.64003e+00 
-2.65727e+00  1.20948e+00  8.58260e+00 
-2.98884e+00  1.36028e+00  8.51754e+00 
-3.32017e+00  1.51093e+00  8.44490e+00 
-3.65130e+00  1.66144e+00  8.36468e+00 
-3.98215e+00  1.81176e+00  8.27694e+00 
-4.31275e+00  1.96191e+00  8.18166e+00 
-4.64302e+00  2.11184e+00  8.07891e+00 
-4.97301e+00  2.26158e+00  7.96870e+00 
-5.30264e+00  2.41106e+00  7.85110e+00 
-5.63194e+00  2.56032e+00  7.72610e+00 
-5.96084e+00  2.70931e+00  7.59380e+00 
-6.28940e+00  2.85804e+00  7.45420e+00 
-6.61753e+00  3.00648e+00  7.30739e+00 
-6.94528e+00  3.15463e+00  7.15340e+00 
-7.27259e+00  3.30248e+00  6.99230e+00 
-7.59951e+00  3.45003e+00  6.82414e+00 
-7.92598e+00  3.59726e+00  6.64900e+00 
-8.25206e+00  3.74419e+00  6.46693e+00 
-8.57768e+00  3.89079e+00  6.27802e+00 
-8.90292e+00  4.03709e+00  6.08230e+00 
-9.22773e+00  4.18308e+00  5.87990e+00 
-9.55218e+00  4.32877e+00  5.67084e+00 
-9.87623e+00  4.47417e+00  5.45524e+00 
-1.02000e+01  4.61930e+00  5.23313e+00 
-1.05233e+01  4.76417e+00  5.00462e+00 
-1.08465e+01  4.90882e+00  4.76973e+00 
-1.11693e+01  5.05324e+00  4.52859e+00 
-1.14919e+01  5.19750e+00  4.28121e+00 
-1.18144e+01  5.34160e+00  4.02769e+00 
-1.21367e+01  5.48560e+00  3.76804e+00 
-1.24590e+01  5.62952e+00  3.50235e+00 
-1.27812e+01  5.77343e+00  3.23061e+00 
-1.31035e+01  5.91735e+00  2.95291e+00 
-1.34259e+01  6.06135e+00  2.66921e+00 
-1.37484e+01  6.20546e+00  2.37959e+00 
-1.40713e+01  6.34976e+00  2.08397e+00 
-1.43944e+01  6.49427e+00  1.78241e+00 
-1.47179e+01  6.63910e+00  1.47482e+00 
-1.50418e+01  6.78426e+00  1.16123e+00 
-1.53663e+01  6.92984e+00  8.41523e-01 
-1.56914e+01  7.07587e+00  5.15699e-01 
-1.60171e+01  7.20099e+00  8.35666e-02 
 1.55379e+01 -6.98567e+00  8.49033e-02 
 1.52213e+01 -6.86400e+00  5.21101e-01 
 1.49053e+01 -6.72190e+00  8.49701e-01 
 1.45897e+01 -6.58016e+00  1.17188e+00 
 1.42745e+01 -6.43876e+00  1.48762e+00 
 1.39597e+01 -6.29764e+00  1.79704e+00 
 1.36453e+01 -6.15679e+00  2.10011e+00 
 1.33311e+01 -6.01612e+00  2.39692e+00 
 1.30171e+01 -5.87563e+00  2.68744e+00 
 1.27033e+01 -5.73525e+00  2.97173e+00 
 1.23896e+01 -5.59497e+00  3.24973e+00 
 1.20760e+01 -5.45472e+00  3.52151e+00 
 1.17624e+01 -5.31449e+00  3.78697e+00 
 1.14488e+01 -5.17421e+00  4.04617e+00 
 1.11351e+01 -5.03389e+00  4.29902e+00 
 1.08213e+01 -4.89347e+00  4.54553e+00 
 1.05074e+01 -4.75294e+00  4.78563e+00 
 1.01933e+01 -4.61226e+00  5.01931e+00 
 9.87908e+00 -4.47142e+00  5.24648e+00 
 9.56457e+00 -4.33038e+00  5.46715e+00 
 9.24983e+00 -4.18916e+00  5.68121e+00 
 8.93480e+00 -4.04770e+00  5.88866e+00 
 8.61951e+00 -3.90603e+00  6.08939e+00 
 8.30389e+00 -3.76410e+00  6.28340e+00 
 7.98798e+00 -3.62194e+00  6.47059e+00 
 7.67172e+00 -3.47952e+00  6.65094e+00 
 7.35517e+00 -3.33685e+00  6.82435e+00 
 7.03825e+00 -3.19392e+00  6.99082e+00 
 6.72104e+00 -3.05074e+00  7.15025e+00 
 6.40346e+00 -2.90730e+00  7.30263e+00 
 6.08559e+00 -2.76363e+00  7.44788e+00 
 5.76737e+00 -2.61970e+00  7.58597e+00 
 5.44886e+00 -2.47555e+00  7.71683e+00 
 5.13002e+00 -2.33116e+00  7.84046e+00 
 4.81093e+00 -2.18657e+00  7.95678e+00 
 4.49152e+00 -2.04176e+00  8.06578e+00 
 4.17187e+00 -1.89676e+00  8.16740e+00 
 3.85195e+00 -1.75158e+00  8.26163e+00 
 3.53182e+00 -1.60623e+00  8.34842e+00 
 3.21144e+00 -1.46071e+00  8.42776e+00 
 2.89090e+00 -1.31506e+00  8.49961e+00 
 2.57014e+00 -1.16927e+00  8.56397e+00 
 2.24925e+00 -1.02338e+00  8.62079e+00 
 1.92818e+00 -8.77365e-01  8.67008e+00 
 1.60702e+00 -7.31279e-01  8.71180e+00 
 1.28573e+00 -5.85106e-01  8.74596e+00 
 9.64384e-01 -4.38887e-01  8.77254e+00 
 6.42944e-01 -2.92610e-01  8.79153e+00 
 3.21495e-01 -1.46318e-01  8.80292e+00 
-3.87023e-13 -5.31047e-12  8.80672e+00 
-3.21495e-01  1.46318e-01  8.80292e+00 
-6.42944e-01  2.92610e-01  8.79153e+00 
-9.64384e-01  4.38887e-01  8.77254e+00 
-1.28573e+00  5.85106e-01  8.74596e+00 
-1.60702e+00  7.31279e-01  8.71180e+00 
-1.92818e+00  8.77365e-01  8.67008e+00 
-2.24925e+00  1.02338e+00  8.62079e+00 
-2.57014e+00  1.16927e+00  8.56397e+00 
-2.89090e+00  1.31506e+00  8.49961e+00 
-3.21144e+00  1.46071e+00  8.42776e+00 
-3.53182e+00  1.60623e+00  8.34842e+00 
-3.85195e+00  1.75158e+00  8.26163e+00 
-4.17187e+00  1.89676e+00  8.16740e+00 
-4.49152e+00  2.04176e+00  8.06578e+00 
-4.81093e+00  2.18657e+00  7.95678e+00 
-5.13002e+00  2.33116e+00  7.84046e+00 
-5.44886e+00  2.47555e+00  7.71683e+00 
-5.76737e+00  2.61970e+00  7.58597e+00 
-6.08559e+00  2.76363e+00  7.44788e+00 
-6.40346e+00  2.90730e+00  7.30263e+00 
-6.72104e+00  3.05074e+00  7.15025e+00 
-7.03825e+00  3.19392e+00  6.99082e+00 
-7.35517e+00  3.33685e+00  6.82435e+00 
-7.67172e+00  3.47952e+00  6.65094e+00 
-7.98798e+00  3.62194e+00  6.47059e+00 
-8.30389e+00  3.76410e+00  6.28340e+00 
-8.61951e+00  3.90603e+00  6.08939e+00 
-8.93480e+00  4.04770e+00  5.88866e+00 
-9.24983e+00  4.18916e+00  5.68121e+00 
-9.56457e+00  4.33038e+00  5.46715e+00 
-9.87908e+00  4.47142e+00  5.24648e+00 
-1.01933e+01  4.61226e+00  5.01931e+00 
-1.05074e+01  4.75294e+00  4.78563e+00 
-1.08213e+01  4.89347e+00  4.54553e+00 
-1.11351e+01  5.03389e+00  4.29902e+00 
-1.14488e+01  5.17421e+00  4.04617e+00 
-1.17624e+01  5.31449e+00  3.78697e+00 
-1.20760e+01  5.45472e+00  3.52151e+00 
-1.23896e+01  5.59497e+00  3.24973e+00 
-1.27033e+01  5.73525e+00  2.97173e+00 
-1.30171e+01  5.87563e+00  2.68744e+00 
-1.33311e+01  6.01612e+00  2.39692e+00 
-1.36453e+01  6.15679e+00  2.10011e+00 
-1.39597e+01  6.29764e+00  1.79704e+00 
-1.42745e+01  6.43876e+00  1.48762e+00 
-1.45897e+01  6.58016e+00  1.17188e+00 
-1.49053e+01  6.72190e+00  8.49701e-01 
-1.52213e+01  6.86400e+00  5.21101e-01 
-1.55379e+01  6.98567e+00  8.49033e-02 
 1.50548e+01 -6.76856e+00  8.58504e-02 
 1.47477e+01 -6.65046e+00  5.25206e-01 
 1.44410e+01 -6.51248e+00  8.55996e-01 
 1.41346e+01 -6.37478e+00  1.18015e+00 
 1.38287e+01 -6.23736e+00  1.49763e+00 
 1.35230e+01 -6.10016e+00  1.80857e+00 
 1.32176e+01 -5.96318e+00  2.11292e+00 
 1.29124e+01 -5.82636e+00  2.41078e+00 
 1.26074e+01 -5.68969e+00  2.70211e+00 
 1.23025e+01 -5.55312e+00  2.98698e+00 
 1.19978e+01 -5.41665e+00  3.26535e+00 
 1.16931e+01 -5.28021e+00  3.53727e+00 
 1.13885e+01 -5.14382e+00  3.80269e+00 
 1.10839e+01 -5.00740e+00  4.06164e+00 
 1.07793e+01 -4.87097e+00  4.31406e+00 
 1.04746e+01 -4.73447e+00  4.55998e+00 
 1.01698e+01 -4.59791e+00  4.79934e+00 
 9.86496e+00 -4.46124e+00  5.03214e+00 
 9.55997e+00 -4.32446e+00  5.25831e+00 
 9.25479e+00 -4.18754e+00  5.47787e+00 
 8.94947e+00 -4.05048e+00  5.69073e+00 
 8.64393e+00 -3.91325e+00  5.89689e+00 
 8.33821e+00 -3.77585e+00  6.09629e+00 
 8.03223e+00 -3.63826e+00  6.28890e+00 
 7.72605e+00 -3.50049e+00  6.47466e+00 
 7.41960e+00 -3.36251e+00  6.65356e+00 
 7.11293e+00 -3.22434e+00  6.82552e+00 
 6.80597e+00 -3.08595e+00  6.99053e+00 
 6.49879e+00 -2.94738e+00  7.14851e+00 
 6.19132e+00 -2.80858e+00  7.29947e+00 
 5.88362e+00 -2.66959e+00  7.44332e+00 
 5.57564e+00 -2.53040e+00  7.58005e+00 
 5.26745e+00 -2.39101e+00  7.70961e+00 
 4.95897e+00 -2.25143e+00  7.83197e+00 
 4.65030e+00 -2.11168e+00  7.94709e+00 
 4.34136e+00 -1.97174e+00  8.05495e+00 
 4.03225e+00 -1.83164e+00  8.15549e+00 
 3.72289e+00 -1.69137e+00  8.24872e+00 
 3.41338e+00 -1.55097e+00  8.33457e+00 
 3.10365e+00 -1.41042e+00  8.41306e+00 
 2.79379e+00 -1.26975e+00  8.48413e+00 
 2.48374e+00 -1.12896e+00  8.54778e+00 
 2.17359e+00 -9.88074e-01  8.60398e+00 
 1.86329e+00 -8.47085e-01  8.65273e+00 
 1.55292e+00 -7.06032e-01  8.69400e+00 
 1.24243e+00 -5.64899e-01  8.72778e+00 
 9.31894e-01 -4.23726e-01  8.75406e+00 
 6.21279e-01 -2.82501e-01  8.77284e+00 
 3.10660e-01 -1.41262e-01  8.78411e+00 
-3.85877e-13 -5.28546e-12  8.78787e+00 
-3.10660e-01  1.41262e-01  8.78411e+00 
-6.21279e-01  2.82501e-01  8.77284e+00 
-9.31894e-01  4.23726e-01  8.75406e+00 
-1.24243e+00  5.64899e-01  8.72778e+00 
-1.55292e+00  7.06032e-01  8.69400e+00 
-1.86329e+00  8.47085e-01  8.65273e+00 
-2.17359e+00  9.88074e-01  8.60398e+00 
-2.48374e+00  1.12896e+00  8.54778e+00 
-2.79379e+00  1.26975e+00  8.48413e+00 
-3.10365e+00  1.41042e+00  8.41306e+00 
-3.41338e+00  1.55097e+00  8.33457e+00 
-3.72289e+00  1.69137e+00  8.24872e+00 
-4.03225e+00  1.83164e+00  8.15549e+00 
-4.34136e+00  1.97174e+00  8.05495e+00 
-4.65030e+00  2.11168e+00  7.94709e+00 
-4.95897e+00  2.25143e+00  7.83197e+00 
-5.26745e+00  2.39101e+00  7.70961e+00 
-5.57564e+00  2.53040e+00  7.58005e+00 
-5.88362e+00  2.66959e+00  7.44332e+00 
-6.19132e+00  2.80858e+00  7.29947e+00 
-6.49879e+00  2.94738e+00  7.14851e+00 
-6.80597e+00  3.08595e+00  6.99053e+00 
-7.11293e+00  3.22434e+00  6.82552e+00 
-7.41960e+00  3.36251e+00  6.65356e+00 
-7.72605e+00  3.50049e+00  6.47466e+00 
-8.03223e+00  3.63826e+00  6.28890e+00 
-8.33821e+00  3.77585e+00  6.09629e+00 
-8.64393e+00  3.91325e+00  5.89689e+00 
-8.94947e+00  4.05048e+00  5.69073e+00 
-9.25479e+00  4.18754e+00  5.47787e+00 
-9.55997e+00  4.32446e+00  5.25831e+00 
-9.86496e+00  4.46124e+00  5.03214e+00 
-1.01698e+01  4.59791e+00  4.79934e+00 
-1.04746e+01  4.73447e+00  4.55998e+00 
-1.07793e+01  4.87097e+00  4.31406e+00 
-1.10839e+01  5.00740e+00  4.06164e+00 
-1.13885e+01  5.14382e+00  3.80269e+00 
-1.16931e+01  5.28021e+00  3.53727e+00 
-1.19978e+01  5.41665e+00  3.26535e+00 
-1.23025e+01  5.55312e+00  2.98698e+00 
-1.26074e+01  5.68969e+00  2.70211e+00 
-1.29124e+01  5.82636e+00  2.41078e+00 
-1.32176e+01  5.96318e+00  2.11292e+00 
-1.35230e+01  6.10016e+00  1.80857e+00 
-1.38287e+01  6.23736e+00  1.49763e+00 
-1.41346e+01  6.37478e+00  1.18015e+00 
-1.44410e+01  6.51248e+00  8.55996e-01 
-1.47477e+01  6.65046e+00  5.25206e-01 
-1.50548e+01  6.76856e+00  8.58504e-02 
 1.45686e+01 -6.55004e+00  8.64798e-02 
 1.42712e+01 -6.43563e+00  5.28270e-01 
 1.39741e+01 -6.30191e+00  8.60757e-01 
 1.36773e+01 -6.16840e+00  1.18645e+00 
 1.33808e+01 -6.03512e+00  1.50532e+00 
 1.30845e+01 -5.90200e+00  1.81747e+00 
 1.27884e+01 -5.76906e+00  2.12286e+00 
 1.24925e+01 -5.63625e+00  2.42160e+00 
 1.21968e+01 -5.50357e+00  2.71362e+00 
 1.19012e+01 -5.37098e+00  2.99903e+00 
 1.16057e+01 -5.23847e+00  3.27775e+00 
 1.13103e+01 -5.10599e+00  3.54987e+00 
 1.10149e+01 -4.97356e+00  3.81531e+00 
 1.07195e+01 -4.84113e+00  4.07415e+00 
 1.04242e+01 -4.70870e+00  4.32631e+00 
 1.01288e+01 -4.57622e+00  4.57184e+00 
 9.83339e+00 -4.44371e+00  4.81066e+00 
 9.53788e+00 -4.31112e+00  5.04283e+00 
 9.24231e+00 -4.17846e+00  5.26826e+00 
 8.94661e+00 -4.04569e+00  5.48697e+00 
 8.65081e+00 -3.91283e+00  5.69891e+00 
 8.35484e+00 -3.77984e+00  5.90408e+00 
 8.05876e+00 -3.64673e+00  6.10242e+00 
 7.76248e+00 -3.51347e+00  6.29393e+00 
 7.46606e+00 -3.38007e+00  6.47854e+00 
 7.16942e+00 -3.24651e+00  6.65626e+00 
 6.87264e+00 -3.11281e+00  6.82703e+00 
 6.57562e+00 -2.97893e+00  6.99083e+00 
 6.27845e+00 -2.84491e+00  7.14761e+00 
 5.98104e+00 -2.71070e+00  7.29736e+00 
 5.68347e+00 -2.57636e+00  7.44003e+00 
 5.38568e+00 -2.44183e+00  7.57560e+00 
 5.08771e+00 -2.30717e+00  7.70402e+00 
 4.78953e+00 -2.17233e+00  7.82529e+00 
 4.49120e+00 -2.03736e+00  7.93936e+00 
 4.19265e+00 -1.90224e+00  8.04621e+00 
 3.89396e+00 -1.76698e+00  8.14580e+00 
 3.59509e+00 -1.63159e+00  8.23813e+00 
 3.29608e+00 -1.49608e+00  8.32314e+00 
 2.99690e+00 -1.36045e+00  8.40085e+00 
 2.69762e+00 -1.22472e+00  8.47122e+00 
 2.39819e+00 -1.08889e+00  8.53423e+00 
 2.09868e+00 -9.52977e-01  8.58986e+00 
 1.79904e+00 -8.16976e-01  8.63811e+00 
 1.49934e+00 -6.80922e-01  8.67895e+00 
 1.19954e+00 -5.44800e-01  8.71239e+00 
 8.99722e-01 -4.08645e-01  8.73840e+00 
 5.99826e-01 -2.72443e-01  8.75699e+00 
 2.99931e-01 -1.36232e-01  8.76814e+00 
-1.52333e-12 -4.09425e-12  8.77186e+00 
-2.99931e-01  1.36232e-01  8.76814e+00 
-5.99826e-01  2.72443e-01  8.75699e+00 
-8.99722e-01  4.08645e-01  8.73840e+00 
-1.19954e+00  5.44800e-01  8.71239e+00 
-1.49934e+00  6.80922e-01  8.67895e+00 
-1.79904e+00  8.16976e-01  8.63811e+00 
-2.09868e+00  9.52977e-01  8.58986e+00 
-2.39819e+00  1.08889e+00  8.53423e+00 
-2.69762e+00  1.22472e+00  8.47122e+00 
-2.99690e+00  1.36045e+00  8.40085e+00 
-3.29608e+00  1.49608e+00  8.32314e+00 
-3.59509e+00  1.63159e+00  8.23813e+00 
-3.89396e+00  1.76698e+00  8.14580e+00 
-4.19265e+00  1.90224e+00  8.04621e+00 
-4.49120e+00  2.03736e+00  7.93936e+00 
-4.78953e+00  2.17233e+00  7.82529e+00 
-5.08771e+00  2.30717e+00  7.70402e+00 
-5.38568e+00  2.44183e+00  7.57560e+00 
-5.68347e+00  2.57636e+00  7.44003e+00 
-5.98104e+00  2.71070e+00  7.29736e+00 
-6.27845e+00  2.84491e+00  7.14761e+00 
-6.57562e+00  2.97893e+00  6.99083e+00 
-6.87264e+00  3.11281e+00  6.82703e+00 
-7.16942e+00  3.24651e+00  6.65626e+00 
-7.46606e+00  3.38007e+00  6.47854e+00 
-7.76248e+00  3.51347e+00  6.29393e+00 
-8.05876e+00  3.64673e+00  6.10242e+00 
-8.35484e+00  3.77984e+00  5.90408e+00 
-8.65081e+00  3.91283e+00  5.69891e+00 
-8.94661e+00  4.04569e+00  5.48697e+00 
-9.24231e+00  4.17846e+00  5.26826e+00 
-9.53788e+00  4.31112e+00  5.04283e+00 
-9.83339e+00  4.44371e+00  4.81066e+00 
-1.01288e+01  4.57622e+00  4.57184e+00 
-1.04242e+01  4.70870e+00  4.32631e+00 
-1.07195e+01  4.84113e+00  4.07415e+00 
-1.10149e+01  4.97356e+00  3.81531e+00 
-1.13103e+01  5.10599e+00  3.54987e+00 
-1.16057e+01  5.23847e+00  3.27775e+00 
-1.19012e+01  5.37098e+00  2.99903e+00 
-1.21968e+01  5.50357e+00  2.71362e+00 
-1.24925e+01  5.63625e+00  2.42160e+00 
-1.27884e+01  5.76906e+00  2.12286e+00 
-1.30845e+01  5.90200e+00  1.81747e+00 
-1.33808e+01  6.03512e+00  1.50532e+00 
-1.36773e+01  6.16840e+00  1.18645e+00 
-1.39741e+01  6.30191e+00  8.60757e-01 
-1.42712e+01  6.43563e+00  5.28270e-01 
-1.45686e+01  6.55004e+00  8.64798e-02 
 1.40800e+01 -6.33046e+00  8.69888e-02 
 1.37925e+01 -6.21982e+00  5.30592e-01 
 1.35052e+01 -6.09046e+00  8.64363e-01 
 1.32182e+01 -5.96125e+00  1.19124e+00 
 1.29313e+01 -5.83222e+00  1.51118e+00 
 1.26446e+01 -5.70331e+00  1.82428e+00 
 1.23582e+01 -5.57455e+00  2.13050e+00 
 1.20718e+01 -5.44588e+00  2.42994e+00 
 1.17856e+01 -5.31732e+00  2.72254e+00 
 1.14994e+01 -5.18883e+00  3.00839e+00 
 1.12134e+01 -5.06041e+00  3.28744e+00 
 1.09274e+01 -4.93202e+00  3.55975e+00 
 1.06415e+01 -4.80368e+00  3.82527e+00 
 1.03555e+01 -4.67533e+00  4.08407e+00 
 1.00697e+01 -4.54700e+00  4.33607e+00 
 9.78373e+00 -4.41864e+00  4.58133e+00 
 9.49781e+00 -4.29026e+00  4.81980e+00 
 9.21182e+00 -4.16183e+00  5.05150e+00 
 8.92580e+00 -4.03335e+00  5.27639e+00 
 8.63969e+00 -3.90479e+00  5.49448e+00 
 8.35351e+00 -3.77617e+00  5.70572e+00 
 8.06721e+00 -3.64745e+00  5.91013e+00 
 7.78083e+00 -3.51864e+00  6.10765e+00 
 7.49431e+00 -3.38972e+00  6.29830e+00 
 7.20769e+00 -3.26071e+00  6.48202e+00 
 6.92091e+00 -3.13156e+00  6.65881e+00 
 6.63402e+00 -3.00231e+00  6.82862e+00 
 6.34695e+00 -2.87293e+00  6.99146e+00 
 6.05977e+00 -2.74343e+00  7.14726e+00 
 5.77242e+00 -2.61380e+00  7.29604e+00 
 5.48494e+00 -2.48405e+00  7.43774e+00 
 5.19729e+00 -2.35417e+00  7.57236e+00 
 4.90951e+00 -2.22417e+00  7.69985e+00 
 4.62157e+00 -2.09404e+00  7.82021e+00 
 4.33351e+00 -1.96381e+00  7.93340e+00 
 4.04528e+00 -1.83345e+00  8.03940e+00 
 3.75695e+00 -1.70299e+00  8.13819e+00 
 3.46846e+00 -1.57241e+00  8.22976e+00 
 3.17989e+00 -1.44175e+00  8.31407e+00 
 2.89117e+00 -1.31099e+00  8.39111e+00 
 2.60237e+00 -1.18015e+00  8.46087e+00 
 2.31346e+00 -1.04922e+00  8.52333e+00 
 2.02448e+00 -9.18228e-01  8.57847e+00 
 1.73540e+00 -7.87165e-01  8.62629e+00 
 1.44628e+00 -6.56060e-01  8.66677e+00 
 1.15708e+00 -5.24897e-01  8.69991e+00 
 8.67864e-01 -3.93711e-01  8.72568e+00 
 5.78583e-01 -2.62484e-01  8.74410e+00 
 2.89308e-01 -1.31252e-01  8.75515e+00 
-5.63531e-13 -5.92258e-12  8.75883e+00 
-2.89308e-01  1.31252e-01  8.75515e+00 
-5.78583e-01  2.62484e-01  8.74410e+00 
-8.67864e-01  3.93711e-01  8.72568e+00 
-1.15708e+00  5.24897e-01  8.69991e+00 
-1.44628e+00  6.56060e-01  8.66677e+00 
-1.73540e+00  7.87165e-01  8.62629e+00 
-2.02448e+00  9.18228e-01  8.57847e+00 
-2.31346e+00  1.04922e+00  8.52333e+00 
-2.60237e+00  1.18015e+00  8.46087e+00 
-2.89117e+00  1.31099e+00  8.39111e+00 
-3.17989e+00  1.44175e+00  8.31407e+00 
-3.46846e+00  1.57241e+00  8.22976e+00 
-3.75695e+00  1.70299e+00  8.13819e+00 
-4.04528e+00  1.83345e+00  8.03940e+00 
-4.33351e+00  1.96381e+00  7.93340e+00 
-4.62157e+00  2.09404e+00  7.82021e+00 
-4.90951e+00  2.22417e+00  7.69985e+00 
-5.19729e+00  2.35417e+00  7.57236e+00 
-5.48494e+00  2.48405e+00  7.43774e+00 
-5.77242e+00  2.61380e+00  7.29604e+00 
-6.05977e+00  2.74343e+00  7.14726e+00 
-6.34695e+00  2.87293e+00  6.99146e+00 
-6.63402e+00  3.00231e+00  6.82862e+00 
-6.92091e+00  3.13156e+00  6.65881e+00 
-7.20769e+00  3.26071e+00  6.48202e+00 
-7.49431e+00  3.38972e+00  6.29830e+00 
-7.78083e+00  3.51864e+00  6.10765e+00 
-8.06721e+00  3.64745e+00  5.91013e+00 
-8.35351e+00  3.77617e+00  5.70572e+00 
-8.63969e+00  3.90479e+00  5.49448e+00 
-8.92580e+00  4.03335e+00  5.27639e+00 
-9.21182e+00  4.16183e+00  5.05150e+00 
-9.49781e+00  4.29026e+00  4.81980e+00 
-9.78373e+00  4.41864e+00  4.58133e+00 
-1.00697e+01  4.54700e+00  4.33607e+00 
-1.03555e+01  4.67533e+00  4.08407e+00 
-1.06415e+01  4.80368e+00  3.82527e+00 
-1.09274e+01  4.93202e+00  3.55975e+00 
-1.12134e+01  5.06041e+00  3.28744e+00 
-1.14994e+01  5.18883e+00  3.00839e+00 
-1.17856e+01  5.31732e+00  2.72254e+00 
-1.20718e+01  5.44588e+00  2.42994e+00 
-1.23582e+01  5.57455e+00  2.13050e+00 
-1.26446e+01  5.70331e+00  1.82428e+00 
-1.29313e+01  5.83222e+00  1.51118e+00 
-1.32182e+01  5.96125e+00  1.19124e+00 
-1.35052e+01  6.09046e+00  8.64363e-01 
-1.37925e+01  6.21982e+00  5.30592e-01 
-1.40800e+01  6.33046e+00  8.69888e-02 
 1.35898e+01 -6.11010e+00  8.73272e-02 
 1.33122e+01 -6.00327e+00  5.32270e-01 
 1.30349e+01 -5.87833e+00  8.67005e-01 
 1.27577e+01 -5.75351e+00  1.19477e+00 
 1.24806e+01 -5.62881e+00  1.51552e+00 
 1.22037e+01 -5.50421e+00  1.82935e+00 
 1.19270e+01 -5.37971e+00  2.13622e+00 
 1.16503e+01 -5.25529e+00  2.43621e+00 
 1.13737e+01 -5.13096e+00  2.72927e+00 
 1.10972e+01 -5.00667e+00  3.01548e+00 
 1.08208e+01 -4.88245e+00  3.29480e+00 
 1.05444e+01 -4.75825e+00  3.56729e+00 
 1.02681e+01 -4.63409e+00  3.83290e+00 
 9.99177e+00 -4.50993e+00  4.09168e+00 
 9.71549e+00 -4.38578e+00  4.34360e+00 
 9.43919e+00 -4.26162e+00  4.58869e+00 
 9.16290e+00 -4.13745e+00  4.82690e+00 
 8.88655e+00 -4.01324e+00  5.05828e+00 
 8.61019e+00 -3.88900e+00  5.28277e+00 
 8.33376e+00 -3.76471e+00  5.50041e+00 
 8.05730e+00 -3.64037e+00  5.71113e+00 
 7.78075e+00 -3.51596e+00  5.91498e+00 
 7.50414e+00 -3.39149e+00  6.11189e+00 
 7.22743e+00 -3.26693e+00  6.30188e+00 
 6.95065e+00 -3.14231e+00  6.48491e+00 
 6.67376e+00 -3.01759e+00  6.66099e+00 
 6.39678e+00 -2.89279e+00  6.83007e+00 
 6.11968e+00 -2.76789e+00  6.99216e+00 
 5.84250e+00 -2.64291e+00  7.14720e+00 
 5.56518e+00 -2.51783e+00  7.29522e+00 
 5.28778e+00 -2.39266e+00  7.43616e+00 
 5.01025e+00 -2.26739e+00  7.57002e+00 
 4.73263e+00 -2.14203e+00  7.69677e+00 
 4.45487e+00 -2.01657e+00  7.81641e+00 
 4.17704e+00 -1.89103e+00  7.92889e+00 
 3.89908e+00 -1.76539e+00  8.03422e+00 
 3.62104e+00 -1.63968e+00  8.13236e+00 
 3.34288e+00 -1.51388e+00  8.22332e+00 
 3.06466e+00 -1.38801e+00  8.30705e+00 
 2.78633e+00 -1.26206e+00  8.38356e+00 
 2.50794e+00 -1.13606e+00  8.45282e+00 
 2.22946e+00 -1.00998e+00  8.51484e+00 
 1.95094e+00 -8.83864e-01  8.56958e+00 
 1.67233e+00 -7.57684e-01  8.61705e+00 
 1.39370e+00 -6.31474e-01  8.65722e+00 
 1.11500e+00 -5.05217e-01  8.69011e+00 
 8.36291e-01 -3.78943e-01  8.71569e+00 
 5.57530e-01 -2.52636e-01  8.73397e+00 
 2.78780e-01 -1.26326e-01  8.74494e+00 
 1.71398e-13 -7.39934e-12  8.74860e+00 
-2.78780e-01  1.26326e-01  8.74494e+00 
-5.57530e-01  2.52636e-01  8.73397e+00 
-8.36291e-01  3.78943e-01  8.71569e+00 
-1.11500e+00  5.05217e-01  8.69011e+00 
-1.39370e+00  6.31474e-01  8.65722e+00 
-1.67233e+00  7.57684e-01  8.61705e+00 
-1.95094e+00  8.83864e-01  8.56958e+00 
-2.22946e+00  1.00998e+00  8.51484e+00 
-2.50794e+00  1.13606e+00  8.45282e+00 
-2.78633e+00  1.26206e+00  8.38356e+00 
-3.06466e+00  1.38801e+00  8.30705e+00 
-3.34288e+00  1.51388e+00  8.22332e+00 
-3.62104e+00  1.63968e+00  8.13236e+00 
-3.89908e+00  1.76539e+00  8.03422e+00 
-4.17704e+00  1.89103e+00  7.92889e+00 
-4.45487e+00  2.01657e+00  7.81641e+00 
-4.73263e+00  2.14203e+00  7.69677e+00 
-5.01025e+00  2.26739e+00  7.57002e+00 
-5.28778e+00  2.39266e+00  7.43616e+00 
-5.56518e+00  2.51783e+00  7.29522e+00 
-5.84250e+00  2.64291e+00  7.14720e+00 
-6.11968e+00  2.76789e+00  6.99216e+00 
-6.39678e+00  2.89279e+00  6.83007e+00 
-6.67376e+00  3.01759e+00  6.66099e+00 
-6.95065e+00  3.14231e+00  6.48491e+00 
-7.22743e+00  3.26693e+00  6.30188e+00 
-7.50414e+00  3.39149e+00  6.11189e+00 
-7.78075e+00  3.51596e+00  5.91498e+00 
-8.05730e+00  3.64037e+00  5.71113e+00 
-8.33376e+00  3.76471e+00  5.50041e+00 
-8.61019e+00  3.88900e+00  5.28277e+00 
-8.88655e+00  4.01324e+00  5.05828e+00 
-9.16290e+00  4.13745e+00  4.82690e+00 
-9.43919e+00  4.26162e+00  4.58869e+00 
-9.71549e+00  4.38578e+00  4.34360e+00 
-9.99177e+00  4.50993e+00  4.09168e+00 
-1.02681e+01  4.63409e+00  3.83290e+00 
-1.05444e+01  4.75825e+00  3.56729e+00 
-1.08208e+01  4.88245e+00  3.29480e+00 
-1.10972e+01  5.00667e+00  3.01548e+00 
-1.13737e+01  5.13096e+00  2.72927e+00 
-1.16503e+01  5.25529e+00  2.43621e+00 
-1.19270e+01  5.37971e+00  2.13622e+00 
-1.22037e+01  5.50421e+00  1.82935e+00 
-1.24806e+01  5.62881e+00  1.51552e+00 
-1.27577e+01  5.75351e+00  1.19477e+00 
-1.30349e+01  5.87833e+00  8.67005e-01 
-1.33122e+01  6.00327e+00  5.32270e-01 
-1.35898e+01  6.11010e+00  8.73272e-02 
 1.30982e+01 -5.88916e+00  8.75188e-02 
 1.28308e+01 -5.78617e+00  5.33445e-01 
 1.25634e+01 -5.66571e+00  8.68877e-01 
 1.22962e+01 -5.54532e+00  1.19729e+00 
 1.20291e+01 -5.42503e+00  1.51863e+00 
 1.17620e+01 -5.30480e+00  1.83300e+00 
 1.14951e+01 -5.18465e+00  2.14034e+00 
 1.12282e+01 -5.06455e+00  2.44074e+00 
 1.09614e+01 -4.94452e+00  2.73415e+00 
 1.06947e+01 -4.82452e+00  3.02064e+00 
 1.04280e+01 -4.70457e+00  3.30017e+00 
 1.01614e+01 -4.58464e+00  3.57280e+00 
 9.89479e+00 -4.46474e+00  3.83849e+00 
 9.62819e+00 -4.34484e+00  4.09729e+00 
 9.36163e+00 -4.22495e+00  4.34915e+00 
 9.09505e+00 -4.10505e+00  4.59413e+00 
 8.82848e+00 -3.98515e+00  4.83217e+00 
 8.56188e+00 -3.86522e+00  5.06332e+00 
 8.29527e+00 -3.74528e+00  5.28753e+00 
 8.02861e+00 -3.62529e+00  5.50484e+00 
 7.76194e+00 -3.50527e+00  5.71519e+00 
 7.49519e+00 -3.38520e+00  5.91863e+00 
 7.22842e+00 -3.26510e+00  6.11509e+00 
 6.96156e+00 -3.14493e+00  6.30461e+00 
 6.69467e+00 -3.02471e+00  6.48713e+00 
 6.42768e+00 -2.90443e+00  6.66268e+00 
 6.16065e+00 -2.78409e+00  6.83121e+00 
 5.89352e+00 -2.66368e+00  6.99274e+00 
 5.62635e+00 -2.54321e+00  7.14722e+00 
 5.35907e+00 -2.42266e+00  7.29467e+00 
 5.09173e+00 -2.30206e+00  7.43503e+00 
 4.82430e+00 -2.18137e+00  7.56833e+00 
 4.55681e+00 -2.06063e+00  7.69452e+00 
 4.28922e+00 -1.93981e+00  7.81361e+00 
 4.02157e+00 -1.81894e+00  7.92555e+00 
 3.75383e+00 -1.69799e+00  8.03037e+00 
 3.48604e+00 -1.57699e+00  8.12801e+00 
 3.21816e+00 -1.45593e+00  8.21850e+00 
 2.95024e+00 -1.33481e+00  8.30179e+00 
 2.68223e+00 -1.21364e+00  8.37789e+00 
 2.41419e+00 -1.09242e+00  8.44677e+00 
 2.14607e+00 -9.71154e-01  8.50844e+00 
 1.87793e+00 -8.49856e-01  8.56287e+00 
 1.60972e+00 -7.28510e-01  8.61007e+00 
 1.34150e+00 -6.07145e-01  8.65001e+00 
 1.07323e+00 -4.85743e-01  8.68271e+00 
 8.04956e-01 -3.64331e-01  8.70814e+00 
 5.36637e-01 -2.42891e-01  8.72631e+00 
 2.68331e-01 -1.21453e-01  8.73721e+00 
-3.15492e-13 -7.31081e-12  8.74085e+00 
-2.68331e-01  1.21453e-01  8.73721e+00 
-5.36637e-01  2.42891e-01  8.72631e+00 
-8.04956e-01  3.64331e-01  8.70814e+00 
-1.07323e+00  4.85743e-01  8.68271e+00 
-1.34150e+00  6.07145e-01  8.65001e+00 
-1.60972e+00  7.28510e-01  8.61007e+00 
-1.87793e+00  8.49856e-01  8.56287e+00 
-2.14607e+00  9.71154e-01  8.50844e+00 
-2.41419e+00  1.09242e+00  8.44677e+00 
-2.68223e+00  1.21364e+00  8.37789e+00 
-2.95024e+00  1.33481e+00  8.30179e+00 
-3.21816e+00  1.45593e+00  8.21850e+00 
-3.48604e+00  1.57699e+00  8.12801e+00 
-3.75383e+00  1.69799e+00  8.03037e+00 
-4.02157e+00  1.81894e+00  7.92555e+00 
-4.28922e+00  1.93981e+00  7.81361e+00 
-4.55681e+00  2.06063e+00  7.69452e+00 
-4.82430e+00  2.18137e+00  7.56833e+00 
-5.09173e+00  2.30206e+00  7.43503e+00 
-5.35907e+00  2.42266e+00  7.29467e+00 
-5.62635e+00  2.54321e+00  7.14722e+00 
-5.89352e+00  2.66368e+00  6.99274e+00 
-6.16065e+00  2.78409e+00  6.83121e+00 
-6.42768e+00  2.90443e+00  6.66268e+00 
-6.69467e+00  3.02471e+00  6.48713e+00 
-6.96156e+00  3.14493e+00  6.30461e+00 
-7.22842e+00  3.26510e+00  6.11509e+00 
-7.49519e+00  3.38520e+00  5.91863e+00 
-7.76194e+00  3.50527e+00  5.71519e+00 
-8.02861e+00  3.62529e+00  5.50484e+00 
-8.29527e+00  3.74528e+00  5.28753e+00 
-8.56188e+00  3.86522e+00  5.06332e+00 
-8.82848e+00  3.98515e+00  4.83217e+00 
-9.09505e+00  4.10505e+00  4.59413e+00 
-9.36163e+00  4.22495e+00  4.34915e+00 
-9.62819e+00  4.34484e+00  4.09729e+00 
-9.89479e+00  4.46474e+00  3.83849e+00 
-1.01614e+01  4.58464e+00  3.57280e+00 
-1.04280e+01  4.70457e+00  3.30017e+00 
-1.06947e+01  4.82452e+00  3.02064e+00 
-1.09614e+01  4.94452e+00  2.73415e+00 
-1.12282e+01  5.06455e+00  2.44074e+00 
-1.14951e+01  5.18465e+00  2.14034e+00 
-1.17620e+01  5.30480e+00  1.83300e+00 
-1.20291e+01  5.42503e+00  1.51863e+00 
-1.22962e+01  5.54532e+00  1.19729e+00 
-1.25634e+01  5.66571e+00  8.68877e-01 
-1.28308e+01  5.78617e+00  5.33445e-01 
-1.30982e+01  5.88916e+00  8.75188e-02 
 1.26058e+01 -5.66781e+00  8.77052e-02 
 1.23484e+01 -5.56870e+00  5.34292e-01 
 1.20912e+01 -5.45274e+00  8.70201e-01 
 1.18339e+01 -5.33682e+00  1.19906e+00 
 1.15768e+01 -5.22098e+00  1.52081e+00 
 1.13197e+01 -5.10517e+00  1.83555e+00 
 1.10627e+01 -4.98942e+00  2.14323e+00 
 1.08057e+01 -4.87370e+00  2.44391e+00 
 1.05488e+01 -4.75803e+00  2.73757e+00 
 1.02919e+01 -4.64237e+00  3.02426e+00 
 1.00351e+01 -4.52676e+00  3.30394e+00 
 9.77829e+00 -4.41115e+00  3.57667e+00 
 9.52151e+00 -4.29556e+00  3.84242e+00 
 9.26472e+00 -4.17998e+00  4.10123e+00 
 9.00796e+00 -4.06440e+00  4.35306e+00 
 8.75118e+00 -3.94882e+00  4.59797e+00 
 8.49441e+00 -3.83323e+00  4.83590e+00 
 8.23762e+00 -3.71763e+00  5.06690e+00 
 7.98083e+00 -3.60201e+00  5.29092e+00 
 7.72400e+00 -3.48637e+00  5.50800e+00 
 7.46716e+00 -3.37071e+00  5.71810e+00 
 7.21027e+00 -3.25502e+00  5.92125e+00 
 6.95338e+00 -3.13930e+00  6.11740e+00 
 6.69642e+00 -3.02353e+00  6.30659e+00 
 6.43944e+00 -2.90774e+00  6.48876e+00 
 6.18239e+00 -2.79190e+00  6.66394e+00 
 5.92532e+00 -2.67603e+00  6.83209e+00 
 5.66818e+00 -2.56010e+00  6.99323e+00 
 5.41101e+00 -2.44414e+00  7.14730e+00 
 5.15377e+00 -2.32812e+00  7.29435e+00 
 4.89650e+00 -2.21207e+00  7.43431e+00 
 4.63915e+00 -2.09597e+00  7.56720e+00 
 4.38178e+00 -1.97983e+00  7.69300e+00 
 4.12433e+00 -1.86363e+00  7.81169e+00 
 3.86685e+00 -1.74740e+00  7.92326e+00 
 3.60930e+00 -1.63111e+00  8.02771e+00 
 3.35173e+00 -1.51480e+00  8.12500e+00 
 3.09408e+00 -1.39843e+00  8.21515e+00 
 2.83642e+00 -1.28204e+00  8.29813e+00 
 2.57869e+00 -1.16561e+00  8.37393e+00 
 2.32094e+00 -1.04915e+00  8.44255e+00 
 2.06314e+00 -9.32650e-01  8.50397e+00 
 1.80533e+00 -8.16135e-01  8.55818e+00 
 1.54747e+00 -6.99585e-01  8.60518e+00 
 1.28961e+00 -5.83025e-01  8.64496e+00 
 1.03170e+00 -4.66436e-01  8.67752e+00 
 7.73801e-01 -3.49844e-01  8.70284e+00 
 5.15864e-01 -2.33231e-01  8.72094e+00 
 2.57944e-01 -1.16622e-01  8.73179e+00 
 1.06377e-12 -9.69987e-12  8.73541e+00 
-2.57944e-01  1.16622e-01  8.73179e+00 
-5.15864e-01  2.33231e-01  8.72094e+00 
-7.73801e-01  3.49844e-01  8.70284e+00 
-1.03170e+00  4.66436e-01  8.67752e+00 
-1.28961e+00  5.83025e-01  8.64496e+00 
-1.54747e+00  6.99585e-01  8.60518e+00 
-1.80533e+00  8.16135e-01  8.55818e+00 
-2.06314e+00  9.32650e-01  8.50397e+00 
-2.32094e+00  1.04915e+00  8.44255e+00 
-2.57869e+00  1.16561e+00  8.37393e+00 
-2.83642e+00  1.28204e+00  8.29813e+00 
-3.09408e+00  1.39843e+00  8.21515e+00 
-3.35173e+00  1.51480e+00  8.12500e+00 
-3.60930e+00  1.63111e+00  8.02771e+00 
-3.86685e+00  1.74740e+00  7.92326e+00 
-4.12433e+00  1.86363e+00  7.81169e+00 
-4.38178e+00  1.97983e+00  7.69300e+00 
-4.63915e+00  2.09597e+00  7.56720e+00 
-4.89650e+00  2.21207e+00  7.43431e+00 
-5.15377e+00  2.32812e+00  7.29435e+00 
-5.41101e+00  2.44414e+00  7.14730e+00 
-5.66818e+00  2.56010e+00  6.99323e+00 
-5.92532e+00  2.67603e+00  6.83209e+00 
-6.18239e+00  2.79190e+00  6.66394e+00 
-6.43944e+00  2.90774e+00  6.48876e+00 
-6.69642e+00  3.02353e+00  6.30659e+00 
-6.95338e+00  3.13930e+00  6.11740e+00 
-7.21027e+00  3.25502e+00  5.92125e+00 
-7.46716e+00  3.37071e+00  5.71810e+00 
-7.72400e+00  3.48637e+00  5.50800e+00 
-7.98083e+00  3.60201e+00  5.29092e+00 
-8.23762e+00  3.71763e+00  5.06690e+00 
-8.49441e+00  3.83323e+00  4.83590e+00 
-8.75118e+00  3.94882e+00  4.59797e+00 
-9.00796e+00  4.06440e+00  4.35306e+00 
-9.26472e+00  4.17998e+00  4.10123e+00 
-9.52151e+00  4.29556e+00  3.84242e+00 
-9.77829e+00  4.41115e+00  3.57667e+00 
-1.00351e+01  4.52676e+00  3.30394e+00 
-1.02919e+01  4.64237e+00  3.02426e+00 
-1.05488e+01  4.75803e+00  2.73757e+00 
-1.08057e+01  4.87370e+00  2.44391e+00 
-1.10627e+01  4.98942e+00  2.14323e+00 
-1.13197e+01  5.10517e+00  1.83555e+00 
-1.15768e+01  5.22098e+00  1.52081e+00 
-1.18339e+01  5.33682e+00  1.19906e+00 
-1.20912e+01  5.45274e+00  8.70201e-01 
-1.23484e+01  5.56870e+00  5.34292e-01 
-1.26058e+01  5.66781e+00  8.77052e-02 
 1.21128e+01 -5.44619e+00  8.78084e-02 
 1.18656e+01 -5.35097e+00  5.34810e-01 
 1.16184e+01 -5.23953e+00  8.71023e-01 
 1.13712e+01 -5.12812e+00  1.20016e+00 
 1.11241e+01 -5.01675e+00  1.52218e+00 
 1.08770e+01 -4.90539e+00  1.83715e+00 
 1.06300e+01 -4.79408e+00  2.14503e+00 
 1.03830e+01 -4.68277e+00  2.44590e+00 
 1.01360e+01 -4.57150e+00  2.73971e+00 
 9.88904e+00 -4.46023e+00  3.02652e+00 
 9.64210e+00 -4.34898e+00  3.30629e+00 
 9.39516e+00 -4.23774e+00  3.57909e+00 
 9.14825e+00 -4.12651e+00  3.84487e+00 
 8.90132e+00 -4.01527e+00  4.10369e+00 
 8.65441e+00 -3.90404e+00  4.35550e+00 
 8.40749e+00 -3.79280e+00  4.60036e+00 
 8.16058e+00 -3.68157e+00  4.83821e+00 
 7.91364e+00 -3.57032e+00  5.06912e+00 
 7.66671e+00 -3.45907e+00  5.29302e+00 
 7.41975e+00 -3.34779e+00  5.50996e+00 
 7.17279e+00 -3.23651e+00  5.71990e+00 
 6.92580e+00 -3.12520e+00  5.92287e+00 
 6.67880e+00 -3.01389e+00  6.11883e+00 
 6.43176e+00 -2.90254e+00  6.30781e+00 
 6.18472e+00 -2.79119e+00  6.48976e+00 
 5.93763e+00 -2.67979e+00  6.66471e+00 
 5.69053e+00 -2.56839e+00  6.83262e+00 
 5.44339e+00 -2.45695e+00  6.99352e+00 
 5.19624e+00 -2.34550e+00  7.14735e+00 
 4.94903e+00 -2.23401e+00  7.29414e+00 
 4.70182e+00 -2.12251e+00  7.43385e+00 
 4.45455e+00 -2.01097e+00  7.56650e+00 
 4.20728e+00 -1.89942e+00  7.69205e+00 
 3.95996e+00 -1.78783e+00  7.81051e+00 
 3.71263e+00 -1.67623e+00  7.92184e+00 
 3.46525e+00 -1.56459e+00  8.02606e+00 
 3.21787e+00 -1.45294e+00  8.12314e+00 
 2.97044e+00 -1.34126e+00  8.21308e+00 
 2.72300e+00 -1.22957e+00  8.29586e+00 
 2.47552e+00 -1.11785e+00  8.37149e+00 
 2.22805e+00 -1.00612e+00  8.43993e+00 
 1.98052e+00 -8.94368e-01  8.50120e+00 
 1.73301e+00 -7.82610e-01  8.55528e+00 
 1.48546e+00 -6.70828e-01  8.60216e+00 
 1.23791e+00 -5.59046e-01  8.64184e+00 
 9.90333e-01 -4.47243e-01  8.67431e+00 
 7.42769e-01 -3.35444e-01  8.69957e+00 
 4.95173e-01 -2.23628e-01  8.71762e+00 
 2.47597e-01 -1.11819e-01  8.72845e+00 
 1.55703e-12 -1.10763e-11  8.73206e+00 
-2.47597e-01  1.11819e-01  8.72845e+00 
-4.95173e-01  2.23628e-01  8.71762e+00 
-7.42769e-01  3.35444e-01  8.69957e+00 
-9.90333e-01  4.47243e-01  8.67431e+00 
-1.23791e+00  5.59046e-01  8.64184e+00 
-1.48546e+00  6.70828e-01  8.60216e+00 
-1.73301e+00  7.82610e-01  8.55528e+00 
-1.98052e+00  8.94368e-01  8.50120e+00 
-2.22805e+00  1.00612e+00  8.43993e+00 
-2.47552e+00  1.11785e+00  8.37149e+00 
-2.72300e+00  1.22957e+00  8.29586e+00 
-2.97044e+00  1.34126e+00  8.21308e+00 
-3.21787e+00  1.45294e+00  8.12314e+00 
-3.46525e+00  1.56459e+00  8.02606e+00 
-3.71263e+00  1.67623e+00  7.92184e+00 
-3.95996e+00  1.78783e+00  7.81051e+00 
-4.20728e+00  1.89942e+00  7.69205e+00 
-4.45455e+00  2.01097e+00  7.56650e+00 
-4.70182e+00  2.12251e+00  7.43385e+00 
-4.94903e+00  2.23401e+00  7.29414e+00 
-5.19624e+00  2.34550e+00  7.14735e+00 
-5.44339e+00  2.45695e+00  6.99352e+00 
-5.69053e+00  2.56839e+00  6.83262e+00 
-5.93763e+00  2.67979e+00  6.66471e+00 
-6.18472e+00  2.79119e+00  6.48976e+00 
-6.43176e+00  2.90254e+00  6.30781e+00 
-6.67880e+00  3.01389e+00  6.11883e+00 
-6.92580e+00  3.12520e+00  5.92287e+00 
-7.17279e+00  3.23651e+00  5.71990e+00 
-7.41975e+00  3.34779e+00  5.50996e+00 
-7.66671e+00  3.45907e+00  5.29302e+00 
-7.91364e+00  3.57032e+00  5.06912e+00 
-8.16058e+00  3.68157e+00  4.83821e+00 
-8.40749e+00  3.79280e+00  4.60036e+00 
-8.65441e+00  3.90404e+00  4.35550e+00 
-8.90132e+00  4.01527e+00  4.10369e+00 
-9.14825e+00  4.12651e+00  3.84487e+00 
-9.39516e+00  4.23774e+00  3.57909e+00 
-9.64210e+00  4.34898e+00  3.30629e+00 
-9.88904e+00  4.46023e+00  3.02652e+00 
-1.01360e+01  4.57150e+00  2.73971e+00 
-1.03830e+01  4.68277e+00  2.44590e+00 
-1.06300e+01  4.79408e+00  2.14503e+00 
-1.08770e+01  4.90539e+00  1.83715e+00 
-1.11241e+01  5.01675e+00  1.52218e+00 
-1.13712e+01  5.12812e+00  1.20016e+00 
-1.16184e+01  5.23953e+00  8.71023e-01 
-1.18656e+01  5.35097e+00  5.34810e-01 
-1.21128e+01  5.44619e+00  8.78084e-02 
 1.16195e+01 -5.22441e+00  8.78314e-02 
 1.13824e+01 -5.13308e+00  5.35049e-01 
 1.11453e+01 -5.02619e+00  8.71408e-01 
 1.09083e+01 -4.91929e+00  1.20068e+00 
 1.06712e+01 -4.81242e+00  1.52281e+00 
 1.04342e+01 -4.70554e+00  1.83789e+00 
 1.01971e+01 -4.59867e+00  2.14586e+00 
 9.96010e+00 -4.49180e+00  2.44680e+00 
 9.72309e+00 -4.38495e+00  2.74066e+00 
 9.48606e+00 -4.27808e+00  3.02752e+00 
 9.24905e+00 -4.17123e+00  3.30733e+00 
 9.01202e+00 -4.06436e+00  3.58015e+00 
 8.77501e+00 -3.95751e+00  3.84593e+00 
 8.53797e+00 -3.85064e+00  4.10475e+00 
 8.30095e+00 -3.74378e+00  4.35654e+00 
 8.06391e+00 -3.63690e+00  4.60136e+00 
 7.82688e+00 -3.53004e+00  4.83918e+00 
 7.58983e+00 -3.42315e+00  5.07003e+00 
 7.35278e+00 -3.31627e+00  5.29387e+00 
 7.11571e+00 -3.20938e+00  5.51074e+00 
 6.87865e+00 -3.10249e+00  5.72060e+00 
 6.64156e+00 -2.99558e+00  5.92349e+00 
 6.40449e+00 -2.88867e+00  6.11936e+00 
 6.16738e+00 -2.78175e+00  6.30824e+00 
 5.93028e+00 -2.67483e+00  6.49010e+00 
 5.69315e+00 -2.56790e+00  6.66495e+00 
 5.45604e+00 -2.46096e+00  6.83276e+00 
 5.21889e+00 -2.35401e+00  6.99355e+00 
 4.98175e+00 -2.24707e+00  7.14728e+00 
 4.74459e+00 -2.14010e+00  7.29396e+00 
 4.50743e+00 -2.03314e+00  7.43357e+00 
 4.27025e+00 -1.92617e+00  7.56612e+00 
 4.03307e+00 -1.81920e+00  7.69156e+00 
 3.79587e+00 -1.71221e+00  7.80992e+00 
 3.55868e+00 -1.60523e+00  7.92116e+00 
 3.32146e+00 -1.49823e+00  8.02529e+00 
 3.08425e+00 -1.39124e+00  8.12229e+00 
 2.84702e+00 -1.28423e+00  8.21215e+00 
 2.60980e+00 -1.17723e+00  8.29485e+00 
 2.37256e+00 -1.07021e+00  8.37041e+00 
 2.13533e+00 -9.63207e-01  8.43879e+00 
 1.89807e+00 -8.56187e-01  8.50000e+00 
 1.66083e+00 -7.49174e-01  8.55402e+00 
 1.42357e+00 -6.42148e-01  8.60086e+00 
 1.18632e+00 -5.35132e-01  8.64050e+00 
 9.49049e-01 -4.28102e-01  8.67294e+00 
 7.11799e-01 -3.21083e-01  8.69817e+00 
 4.74524e-01 -2.14051e-01  8.71620e+00 
 2.37271e-01 -1.07030e-01  8.72702e+00 
 1.86664e-13 -1.00360e-11  8.73062e+00 
-2.37271e-01  1.07030e-01  8.72702e+00 
-4.74524e-01  2.14051e-01  8.71620e+00 
-7.11799e-01  3.21083e-01  8.69817e+00 
-9.49049e-01  4.28102e-01  8.67294e+00 
-1.18632e+00  5.35132e-01  8.64050e+00 
-1.42357e+00  6.42148e-01  8.60086e+00 
-1.66083e+00  7.49174e-01  8.55402e+00 
-1.89807e+00  8.56187e-01  8.50000e+00 
-2.13533e+00  9.63207e-01  8.43879e+00 
-2.37256e+00  1.07021e+00  8.37041e+00 
-2.60980e+00  1.17723e+00  8.29485e+00 
-2.84702e+00  1.28423e+00  8.21215e+00 
-3.08425e+00  1.39124e+00  8.12229e+00 
-3.32146e+00  1.49823e+00  8.02529e+00 
-3.55868e+00  1.60523e+00  7.92116e+00 
-3.79587e+00  1.71221e+00  7.80992e+00 
-4.03307e+00  1.81920e+00  7.69156e+00 
-4.27025e+00  1.92617e+00  7.56612e+00 
-4.50743e+00  2.03314e+00  7.43357e+00 
-4.74459e+00  2.14010e+00  7.29396e+00 
-4.98175e+00  2.24707e+00  7.14728e+00 
-5.21889e+00  2.35401e+00  6.99355e+00 
-5.45604e+00  2.46096e+00  6.83276e+00 
-5.69315e+00  2.56790e+00  6.66495e+00 
-5.93028e+00  2.67483e+00  6.49010e+00 
-6.16738e+00  2.78175e+00  6.30824e+00 
-6.40449e+00  2.88867e+00  6.11936e+00 
-6.64156e+00  2.99558e+00  5.92349e+00 
-6.87865e+00  3.10249e+00  5.72060e+00 
-7.11571e+00  3.20938e+00  5.51074e+00 
-7.35278e+00  3.31627e+00  5.29387e+00 
-7.58983e+00  3.42315e+00  5.07003e+00 
-7.82688e+00  3.53004e+00  4.83918e+00 
-8.06391e+00  3.63690e+00  4.60136e+00 
-8.30095e+00  3.74378e+00  4.35654e+00 
-8.53797e+00  3.85064e+00  4.10475e+00 
-8.77501e+00  3.95751e+00  3.84593e+00 
-9.01202e+00  4.06436e+00  3.58015e+00 
-9.24905e+00  4.17123e+00  3.30733e+00 
-9.48606e+00  4.27808e+00  3.02752e+00 
-9.72309e+00  4.38495e+00  2.74066e+00 
-9.96010e+00  4.49180e+00  2.44680e+00 
-1.01971e+01  4.59867e+00  2.14586e+00 
-1.04342e+01  4.70554e+00  1.83789e+00 
-1.06712e+01  4.81242e+00  1.52281e+00 
-1.09083e+01  4.91929e+00  1.20068e+00 
-1.11453e+01  5.02619e+00  8.71408e-01 
-1.13824e+01  5.13308e+00  5.35049e-01 
-1.16195e+01  5.22441e+00  8.78314e-02 
 1.11260e+01 -5.00259e+00  8.78804e-02 
 1.08991e+01 -4.91516e+00  5.35091e-01 
 1.06722e+01 -4.81281e+00  8.71438e-01 
 1.04452e+01 -4.71044e+00  1.20069e+00 
 1.02182e+01 -4.60806e+00  1.52281e+00 
 9.99122e+00 -4.50566e+00  1.83786e+00 
 9.76422e+00 -4.40325e+00  2.14580e+00 
 9.53717e+00 -4.30082e+00  2.44671e+00 
 9.31013e+00 -4.19838e+00  2.74055e+00 
 9.08305e+00 -4.09593e+00  3.02738e+00 
 8.85598e+00 -3.99347e+00  3.30715e+00 
 8.62887e+00 -3.89099e+00  3.57995e+00 
 8.40177e+00 -3.78851e+00  3.84570e+00 
 8.17463e+00 -3.68601e+00  4.10449e+00 
 7.94751e+00 -3.58352e+00  4.35626e+00 
 7.72035e+00 -3.48101e+00  4.60107e+00 
 7.49321e+00 -3.37850e+00  4.83887e+00 
 7.26604e+00 -3.27599e+00  5.06970e+00 
 7.03888e+00 -3.17348e+00  5.29354e+00 
 6.81170e+00 -3.07096e+00  5.51041e+00 
 6.58454e+00 -2.96846e+00  5.72027e+00 
 6.35736e+00 -2.86594e+00  5.92317e+00 
 6.13020e+00 -2.76345e+00  6.11905e+00 
 5.90302e+00 -2.66094e+00  6.30795e+00 
 5.67587e+00 -2.55846e+00  6.48983e+00 
 5.44870e+00 -2.45598e+00  6.66471e+00 
 5.22157e+00 -2.35351e+00  6.83254e+00 
 4.99441e+00 -2.25104e+00  6.99336e+00 
 4.76729e+00 -2.14860e+00  7.14713e+00 
 4.54016e+00 -2.04616e+00  7.29386e+00 
 4.31306e+00 -1.94374e+00  7.43350e+00 
 4.08595e+00 -1.84133e+00  7.56609e+00 
 3.85887e+00 -1.73894e+00  7.69158e+00 
 3.63178e+00 -1.63655e+00  7.80999e+00 
 3.40473e+00 -1.53419e+00  7.92127e+00 
 3.17767e+00 -1.43183e+00  8.02545e+00 
 2.95064e+00 -1.32949e+00  8.12249e+00 
 2.72360e+00 -1.22716e+00  8.21240e+00 
 2.49660e+00 -1.12485e+00  8.29515e+00 
 2.26959e+00 -1.02254e+00  8.37074e+00 
 2.04260e+00 -9.20259e-01  8.43916e+00 
 1.81561e+00 -8.17974e-01  8.50041e+00 
 1.58865e+00 -7.15710e-01  8.55446e+00 
 1.36167e+00 -6.13444e-01  8.60133e+00 
 1.13473e+00 -5.11196e-01  8.64099e+00 
 9.07763e-01 -4.08944e-01  8.67346e+00 
 6.80827e-01 -3.06708e-01  8.69871e+00 
 4.53873e-01 -2.04465e-01  8.71675e+00 
 2.26945e-01 -1.02236e-01  8.72757e+00 
 1.06517e-12 -1.00747e-11  8.73118e+00 
-2.26945e-01  1.02236e-01  8.72757e+00 
-4.53873e-01  2.04465e-01  8.71675e+00 
-6.80827e-01  3.06708e-01  8.69871e+00 
-9.07763e-01  4.08944e-01  8.67346e+00 
-1.13473e+00  5.11196e-01  8.64099e+00 
-1.36167e+00  6.13444e-01  8.60133e+00 
-1.58865e+00  7.15710e-01  8.55446e+00 
-1.81561e+00  8.17974e-01  8.50041e+00 
-2.04260e+00  9.20259e-01  8.43916e+00 
-2.26959e+00  1.02254e+00  8.37074e+00 
-2.49660e+00  1.12485e+00  8.29515e+00 
-2.72360e+00  1.22716e+00  8.21240e+00 
-2.95064e+00  1.32949e+00  8.12249e+00 
-3.17767e+00  1.43183e+00  8.02545e+00 
-3.40473e+00  1.53419e+00  7.92127e+00 
-3.63178e+00  1.63655e+00  7.80999e+00 
-3.85887e+00  1.73894e+00  7.69158e+00 
-4.08595e+00  1.84133e+00  7.56609e+00 
-4.31306e+00  1.94374e+00  7.43350e+00 
-4.54016e+00  2.04616e+00  7.29386e+00 
-4.76729e+00  2.14860e+00  7.14713e+00 
-4.99441e+00  2.25104e+00  6.99336e+00 
-5.22157e+00  2.35351e+00  6.83254e+00 
-5.44870e+00  2.45598e+00  6.66471e+00 
-5.67587e+00  2.55846e+00  6.48983e+00 
-5.90302e+00  2.66094e+00  6.30795e+00 
-6.13020e+00  2.76345e+00  6.11905e+00 
-6.35736e+00  2.86594e+00  5.92317e+00 
-6.58454e+00  2.96846e+00  5.72027e+00 
-6.81170e+00  3.07096e+00  5.51041e+00 
-7.03888e+00  3.17348e+00  5.29354e+00 
-7.26604e+00  3.27599e+00  5.06970e+00 
-7.49321e+00  3.37850e+00  4.83887e+00 
-7.72035e+00  3.48101e+00  4.60107e+00 
-7.94751e+00  3.58352e+00  4.35626e+00 
-8.17463e+00  3.68601e+00  4.10449e+00 
-8.40177e+00  3.78851e+00  3.84570e+00 
-8.62887e+00  3.89099e+00  3.57995e+00 
-8.85598e+00  3.99347e+00  3.30715e+00 
-9.08305e+00  4.09593e+00  3.02738e+00 
-9.31013e+00  4.19838e+00  2.74055e+00 
-9.53717e+00  4.30082e+00  2.44671e+00 
-9.76422e+00  4.40325e+00  2.14580e+00 
-9.99122e+00  4.50566e+00  1.83786e+00 
-1.02182e+01  4.60806e+00  1.52281e+00 
-1.04452e+01  4.71044e+00  1.20069e+00 
-1.06722e+01  4.81281e+00  8.71438e-01 
-1.08991e+01  4.91516e+00  5.35091e-01 
-1.11260e+01  5.00259e+00  8.78804e-02 
 1.06327e+01 -4.78082e+00  8.78636e-02 
 1.04159e+01 -4.69729e+00  5.34856e-01 
 1.01991e+01 -4.59949e+00  8.71038e-01 
 9.98226e+00 -4.50163e+00  1.20013e+00 
 9.76536e+00 -4.40375e+00  1.52208e+00 
 9.54839e+00 -4.30581e+00  1.83698e+00 
 9.33139e+00 -4.20785e+00  2.14478e+00 
 9.11433e+00 -4.10985e+00  2.44556e+00 
 8.89726e+00 -4.01183e+00  2.73927e+00 
 8.68012e+00 -3.91376e+00  3.02598e+00 
 8.46296e+00 -3.81568e+00  3.30566e+00 
 8.24576e+00 -3.71757e+00  3.57838e+00 
 8.02855e+00 -3.61945e+00  3.84407e+00 
 7.81129e+00 -3.52131e+00  4.10282e+00 
 7.59404e+00 -3.42316e+00  4.35456e+00 
 7.37675e+00 -3.32500e+00  4.59936e+00 
 7.15947e+00 -3.22684e+00  4.83717e+00 
 6.94216e+00 -3.12867e+00  5.06804e+00 
 6.72488e+00 -3.03051e+00  5.29192e+00 
 6.50757e+00 -2.93236e+00  5.50887e+00 
 6.29029e+00 -2.83422e+00  5.71881e+00 
 6.07299e+00 -2.73609e+00  5.92181e+00 
 5.85574e+00 -2.63799e+00  6.11781e+00 
 5.63847e+00 -2.53989e+00  6.30685e+00 
 5.42125e+00 -2.44183e+00  6.48887e+00 
 5.20403e+00 -2.34379e+00  6.66390e+00 
 4.98686e+00 -2.24578e+00  6.83191e+00 
 4.76969e+00 -2.14779e+00  6.99291e+00 
 4.55258e+00 -2.04985e+00  7.14686e+00 
 4.33547e+00 -1.95193e+00  7.29378e+00 
 4.11842e+00 -1.85405e+00  7.43363e+00 
 3.90139e+00 -1.75620e+00  7.56641e+00 
 3.68441e+00 -1.65839e+00  7.69210e+00 
 3.46744e+00 -1.56061e+00  7.81071e+00 
 3.25053e+00 -1.46287e+00  7.92219e+00 
 3.03363e+00 -1.36516e+00  8.02656e+00 
 2.81679e+00 -1.26749e+00  8.12379e+00 
 2.59996e+00 -1.16985e+00  8.21388e+00 
 2.38318e+00 -1.07224e+00  8.29679e+00 
 2.16641e+00 -9.74661e-01  8.37255e+00 
 1.94969e+00 -8.77115e-01  8.44112e+00 
 1.73298e+00 -7.79585e-01  8.50251e+00 
 1.51631e+00 -6.82087e-01  8.55668e+00 
 1.29965e+00 -5.84602e-01  8.60366e+00 
 1.08302e+00 -4.87144e-01  8.64342e+00 
 8.66386e-01 -3.89692e-01  8.67596e+00 
 6.49787e-01 -2.92262e-01  8.70127e+00 
 4.33177e-01 -1.94832e-01  8.71936e+00 
 2.16595e-01 -9.74180e-02  8.73021e+00 
 1.17666e-12 -1.06471e-11  8.73383e+00 
-2.16595e-01  9.74180e-02  8.73021e+00 
-4.33177e-01  1.94832e-01  8.71936e+00 
-6.49787e-01  2.92262e-01  8.70127e+00 
-8.66386e-01  3.89692e-01  8.67596e+00 
-1.08302e+00  4.87144e-01  8.64342e+00 
-1.29965e+00  5.84602e-01  8.60366e+00 
-1.51631e+00  6.82087e-01  8.55668e+00 
-1.73298e+00  7.79585e-01  8.50251e+00 
-1.94969e+00  8.77115e-01  8.44112e+00 
-2.16641e+00  9.74661e-01  8.37255e+00 
-2.38318e+00  1.07224e+00  8.29679e+00 
-2.59996e+00  1.16985e+00  8.21388e+00 
-2.81679e+00  1.26749e+00  8.12379e+00 
-3.03363e+00  1.36516e+00  8.02656e+00 
-3.25053e+00  1.46287e+00  7.92219e+00 
-3.46744e+00  1.56061e+00  7.81071e+00 
-3.68441e+00  1.65839e+00  7.69210e+00 
-3.90139e+00  1.75620e+00  7.56641e+00 
-4.11842e+00  1.85405e+00  7.43363e+00 
-4.33547e+00  1.95193e+00  7.29378e+00 
-4.55258e+00  2.04985e+00  7.14686e+00 
-4.76969e+00  2.14779e+00  6.99291e+00 
-4.98686e+00  2.24578e+00  6.83191e+00 
-5.20403e+00  2.34379e+00  6.66390e+00 
-5.42125e+00  2.44183e+00  6.48887e+00 
-5.63847e+00  2.53989e+00  6.30685e+00 
-5.85574e+00  2.63799e+00  6.11781e+00 
-6.07299e+00  2.73609e+00  5.92181e+00 
-6.29029e+00  2.83422e+00  5.71881e+00 
-6.50757e+00  2.93236e+00  5.50887e+00 
-6.72488e+00  3.03051e+00  5.29192e+00 
-6.94216e+00  3.12867e+00  5.06804e+00 
-7.15947e+00  3.22684e+00  4.83717e+00 
-7.37675e+00  3.32500e+00  4.59936e+00 
-7.59404e+00  3.42316e+00  4.35456e+00 
-7.81129e+00  3.52131e+00  4.10282e+00 
-8.02855e+00  3.61945e+00  3.84407e+00 
-8.24576e+00  3.71757e+00  3.57838e+00 
-8.46296e+00  3.81568e+00  3.30566e+00 
-8.68012e+00  3.91376e+00  3.02598e+00 
-8.89726e+00  4.01183e+00  2.73927e+00 
-9.11433e+00  4.10985e+00  2.44556e+00 
-9.33139e+00  4.20785e+00  2.14478e+00 
-9.54839e+00  4.30581e+00  1.83698e+00 
-9.76536e+00  4.40375e+00  1.52208e+00 
-9.98226e+00  4.50163e+00  1.20013e+00 
-1.01991e+01  4.59949e+00  8.71038e-01 
-1.04159e+01  4.69729e+00  5.34856e-01 
-1.06327e+01  4.78082e+00  8.78636e-02 
 1.01397e+01 -4.55921e+00  8.77711e-02 
 9.93312e+00 -4.47958e+00  5.34315e-01 
 9.72644e+00 -4.38631e+00  8.70148e-01 
 9.51966e+00 -4.29296e+00  1.19890e+00 
 9.31281e+00 -4.19955e+00  1.52053e+00 
 9.10586e+00 -4.10607e+00  1.83512e+00 
 8.89884e+00 -4.01254e+00  2.14263e+00 
 8.69174e+00 -3.91893e+00  2.44314e+00 
 8.48458e+00 -3.82529e+00  2.73662e+00 
 8.27735e+00 -3.73158e+00  3.02313e+00 
 8.07007e+00 -3.63785e+00  3.30264e+00 
 7.86273e+00 -3.54407e+00  3.57522e+00 
 7.65536e+00 -3.45027e+00  3.84081e+00 
 7.44794e+00 -3.35643e+00  4.09949e+00 
 7.24051e+00 -3.26259e+00  4.35121e+00 
 7.03304e+00 -3.16874e+00  4.59601e+00 
 6.82557e+00 -3.07489e+00  4.83387e+00 
 6.61808e+00 -2.98103e+00  5.06482e+00 
 6.41061e+00 -2.88719e+00  5.28882e+00 
 6.20314e+00 -2.79336e+00  5.50591e+00 
 5.99569e+00 -2.69957e+00  5.71604e+00 
 5.78825e+00 -2.60579e+00  5.91925e+00 
 5.58086e+00 -2.51205e+00  6.11549e+00 
 5.37348e+00 -2.41834e+00  6.30479e+00 
 5.16616e+00 -2.32468e+00  6.48710e+00 
 4.95886e+00 -2.23106e+00  6.66245e+00 
 4.75163e+00 -2.13750e+00  6.83079e+00 
 4.54444e+00 -2.04398e+00  6.99213e+00 
 4.33732e+00 -1.95053e+00  7.14644e+00 
 4.13023e+00 -1.85713e+00  7.29372e+00 
 3.92323e+00 -1.76379e+00  7.43394e+00 
 3.71626e+00 -1.67051e+00  7.56710e+00 
 3.50938e+00 -1.57729e+00  7.69316e+00 
 3.30254e+00 -1.48413e+00  7.81214e+00 
 3.09579e+00 -1.39103e+00  7.92399e+00 
 2.88907e+00 -1.29799e+00  8.02872e+00 
 2.68243e+00 -1.20501e+00  8.12629e+00 
 2.47583e+00 -1.11207e+00  8.21671e+00 
 2.26931e+00 -1.01920e+00  8.29994e+00 
 2.06282e+00 -9.26373e-01  8.37600e+00 
 1.85640e+00 -8.33599e-01  8.44484e+00 
 1.65000e+00 -7.40859e-01  8.50648e+00 
 1.44366e+00 -6.48166e-01  8.56088e+00 
 1.23735e+00 -5.55500e-01  8.60806e+00 
 1.03108e+00 -4.62873e-01  8.64799e+00 
 8.24822e-01 -3.70263e-01  8.68067e+00 
 6.18606e-01 -2.77683e-01  8.70609e+00 
 4.12386e-01 -1.85109e-01  8.72426e+00 
 2.06198e-01 -9.25555e-02  8.73516e+00 
 1.17212e-12 -1.02253e-11  8.73879e+00 
-2.06198e-01  9.25555e-02  8.73516e+00 
-4.12386e-01  1.85109e-01  8.72426e+00 
-6.18606e-01  2.77683e-01  8.70609e+00 
-8.24822e-01  3.70263e-01  8.68067e+00 
-1.03108e+00  4.62873e-01  8.64799e+00 
-1.23735e+00  5.55500e-01  8.60806e+00 
-1.44366e+00  6.48166e-01  8.56088e+00 
-1.65000e+00  7.40859e-01  8.50648e+00 
-1.85640e+00  8.33599e-01  8.44484e+00 
-2.06282e+00  9.26373e-01  8.37600e+00 
-2.26931e+00  1.01920e+00  8.29994e+00 
-2.47583e+00  1.11207e+00  8.21671e+00 
-2.68243e+00  1.20501e+00  8.12629e+00 
-2.88907e+00  1.29799e+00  8.02872e+00 
-3.09579e+00  1.39103e+00  7.92399e+00 
-3.30254e+00  1.48413e+00  7.81214e+00 
-3.50938e+00  1.57729e+00  7.69316e+00 
-3.71626e+00  1.67051e+00  7.56710e+00 
-3.92323e+00  1.76379e+00  7.43394e+00 
-4.13023e+00  1.85713e+00  7.29372e+00 
-4.33732e+00  1.95053e+00  7.14644e+00 
-4.54444e+00  2.04398e+00  6.99213e+00 
-4.75163e+00  2.13750e+00  6.83079e+00 
-4.95886e+00  2.23106e+00  6.66245e+00 
-5.16616e+00  2.32468e+00  6.48710e+00 
-5.37348e+00  2.41834e+00  6.30479e+00 
-5.58086e+00  2.51205e+00  6.11549e+00 
-5.78825e+00  2.60579e+00  5.91925e+00 
-5.99569e+00  2.69957e+00  5.71604e+00 
-6.20314e+00  2.79336e+00  5.50591e+00 
-6.41061e+00  2.88719e+00  5.28882e+00 
-6.61808e+00  2.98103e+00  5.06482e+00 
-6.82557e+00  3.07489e+00  4.83387e+00 
-7.03304e+00  3.16874e+00  4.59601e+00 
-7.24051e+00  3.26259e+00  4.35121e+00 
-7.44794e+00  3.35643e+00  4.09949e+00 
-7.65536e+00  3.45027e+00  3.84081e+00 
-7.86273e+00  3.54407e+00  3.57522e+00 
-8.07007e+00  3.63785e+00  3.30264e+00 
-8.27735e+00  3.73158e+00  3.02313e+00 
-8.48458e+00  3.82529e+00  2.73662e+00 
-8.69174e+00  3.91893e+00  2.44314e+00 
-8.89884e+00  4.01254e+00  2.14263e+00 
-9.10586e+00  4.10607e+00  1.83512e+00 
-9.31281e+00  4.19955e+00  1.52053e+00 
-9.51966e+00  4.29296e+00  1.19890e+00 
-9.72644e+00  4.38631e+00  8.70148e-01 
-9.93312e+00  4.47958e+00  5.34315e-01 
-1.01397e+01  4.55921e+00  8.77711e-02 
 9.64736e+00 -4.33790e+00  8.76760e-02 
 9.45093e+00 -4.26217e+00  5.33449e-01 
 9.25436e+00 -4.17342e+00  8.68706e-01 
 9.05764e+00 -4.08455e+00  1.19690e+00 
 8.86080e+00 -3.99559e+00  1.51800e+00 
 8.66382e+00 -3.90651e+00  1.83210e+00 
 8.46673e+00 -3.81736e+00  2.13916e+00 
 8.26952e+00 -3.72810e+00  2.43926e+00 
 8.07222e+00 -3.63878e+00  2.73238e+00 
 7.87481e+00 -3.54938e+00  3.01858e+00 
 7.67734e+00 -3.45993e+00  3.29784e+00 
 7.47978e+00 -3.37042e+00  3.57021e+00 
 7.28218e+00 -3.28087e+00  3.83566e+00 
 7.08451e+00 -3.19129e+00  4.09426e+00 
 6.88682e+00 -3.10170e+00  4.34594e+00 
 6.68909e+00 -3.01209e+00  4.59079e+00 
 6.49136e+00 -2.92248e+00  4.82873e+00 
 6.29361e+00 -2.83288e+00  5.05983e+00 
 6.09590e+00 -2.74331e+00  5.28403e+00 
 5.89818e+00 -2.65375e+00  5.50137e+00 
 5.70051e+00 -2.56424e+00  5.71180e+00 
 5.50286e+00 -2.47477e+00  5.91536e+00 
 5.30527e+00 -2.38536e+00  6.11198e+00 
 5.10773e+00 -2.29600e+00  6.30171e+00 
 4.91027e+00 -2.20672e+00  6.48448e+00 
 4.71285e+00 -2.11750e+00  6.66032e+00 
 4.51554e+00 -2.02837e+00  6.82918e+00 
 4.31829e+00 -1.93930e+00  6.99106e+00 
 4.12114e+00 -1.85034e+00  7.14592e+00 
 3.92407e+00 -1.76145e+00  7.29378e+00 
 3.72711e+00 -1.67266e+00  7.43457e+00 
 3.53022e+00 -1.58395e+00  7.56832e+00 
 3.33345e+00 -1.49534e+00  7.69496e+00 
 3.13675e+00 -1.40681e+00  7.81451e+00 
 2.94017e+00 -1.31838e+00  7.92692e+00 
 2.74366e+00 -1.23003e+00  8.03220e+00 
 2.54726e+00 -1.14178e+00  8.13030e+00 
 2.35093e+00 -1.05360e+00  8.22123e+00 
 2.15471e+00 -9.65500e-01  8.30495e+00 
 1.95854e+00 -8.77471e-01  8.38145e+00 
 1.76247e+00 -7.89519e-01  8.45071e+00 
 1.56645e+00 -7.01623e-01  8.51273e+00 
 1.37051e+00 -6.13792e-01  8.56748e+00 
 1.17461e+00 -5.26005e-01  8.61496e+00 
 9.78774e-01 -4.38272e-01  8.65515e+00 
 7.82960e-01 -3.50567e-01  8.68805e+00 
 5.87199e-01 -2.62902e-01  8.71364e+00 
 3.91444e-01 -1.75251e-01  8.73193e+00 
 1.95725e-01 -8.76251e-02  8.74290e+00 
 3.97076e-12 -1.31195e-11  8.74656e+00 
-1.95725e-01  8.76251e-02  8.74290e+00 
-3.91444e-01  1.75251e-01  8.73193e+00 
-5.87199e-01  2.62902e-01  8.71364e+00 
-7.82960e-01  3.50567e-01  8.68805e+00 
-9.78774e-01  4.38272e-01  8.65515e+00 
-1.17461e+00  5.26005e-01  8.61496e+00 
-1.37051e+00  6.13792e-01  8.56748e+00 
-1.56645e+00  7.01623e-01  8.51273e+00 
-1.76247e+00  7.89519e-01  8.45071e+00 
-1.95854e+00  8.77471e-01  8.38145e+00 
-2.15471e+00  9.65500e-01  8.30495e+00 
-2.35093e+00  1.05360e+00  8.22123e+00 
-2.54726e+00  1.14178e+00  8.13030e+00 
-2.74366e+00  1.23003e+00  8.03220e+00 
-2.94017e+00  1.31838e+00  7.92692e+00 
-3.13675e+00  1.40681e+00  7.81451e+00 
-3.33345e+00  1.49534e+00  7.69496e+00 
-3.53022e+00  1.58395e+00  7.56832e+00 
-3.72711e+00  1.67266e+00  7.43457e+00 
-3.92407e+00  1.76145e+00  7.29378e+00 
-4.12114e+00  1.85034e+00  7.14592e+00 
-4.31829e+00  1.93930e+00  6.99106e+00 
-4.51554e+00  2.02837e+00  6.82918e+00 
-4.71285e+00  2.11750e+00  6.66032e+00 
-4.91027e+00  2.20672e+00  6.48448e+00 
-5.10773e+00  2.29600e+00  6.30171e+00 
-5.30527e+00  2.38536e+00  6.11198e+00 
-5.50286e+00  2.47477e+00  5.91536e+00 
-5.70051e+00  2.56424e+00  5.71180e+00 
-5.89818e+00  2.65375e+00  5.50137e+00 
-6.09590e+00  2.74331e+00  5.28403e+00 
-6.29361e+00  2.83288e+00  5.05983e+00 
-6.49136e+00  2.92248e+00  4.82873e+00 
-6.68909e+00  3.01209e+00  4.59079e+00 
-6.88682e+00  3.10170e+00  4.34594e+00 
-7.08451e+00  3.19129e+00  4.09426e+00 
-7.28218e+00  3.28087e+00  3.83566e+00 
-7.47978e+00  3.37042e+00  3.57021e+00 
-7.67734e+00  3.45993e+00  3.29784e+00 
-7.87481e+00  3.54938e+00  3.01858e+00 
-8.07222e+00  3.63878e+00  2.73238e+00 
-8.26952e+00  3.72810e+00  2.43926e+00 
-8.46673e+00  3.81736e+00  2.13916e+00 
-8.66382e+00  3.90651e+00  1.83210e+00 
-8.86080e+00  3.99559e+00  1.51800e+00 
-9.05764e+00  4.08455e+00  1.19690e+00 
-9.25436e+00  4.17342e+00  8.68706e-01 
-9.45093e+00  4.26217e+00  5.33449e-01 
-9.64736e+00  4.33790e+00  8.76760e-02 
 9.15605e+00 -4.11708e+00  8.74699e-02 
 8.96974e+00 -4.04521e+00  5.32084e-01 
 8.78324e+00 -3.96096e+00  8.66485e-01 
 8.59652e+00 -3.87653e+00  1.19387e+00 
 8.40963e+00 -3.79196e+00  1.51419e+00 
 8.22253e+00 -3.70723e+00  1.82757e+00 
 8.03529e+00 -3.62238e+00  2.13398e+00 
 7.84787e+00 -3.53741e+00  2.43350e+00 
 7.66033e+00 -3.45233e+00  2.72610e+00 
 7.47264e+00 -3.36714e+00  3.01186e+00 
 7.28486e+00 -3.28189e+00  3.29076e+00 
 7.09696e+00 -3.19656e+00  3.56287e+00 
 6.90900e+00 -3.11118e+00  3.82813e+00 
 6.72097e+00 -3.02576e+00  4.08662e+00 
 6.53290e+00 -2.94032e+00  4.33830e+00 
 6.34479e+00 -2.85487e+00  4.58321e+00 
 6.15669e+00 -2.76943e+00  4.82131e+00 
 5.96858e+00 -2.68400e+00  5.05264e+00 
 5.78050e+00 -2.59861e+00  5.27715e+00 
 5.59244e+00 -2.51326e+00  5.49487e+00 
 5.40445e+00 -2.42798e+00  5.70575e+00 
 5.21651e+00 -2.34275e+00  5.90983e+00 
 5.02866e+00 -2.25762e+00  6.10703e+00 
 4.84088e+00 -2.17256e+00  6.29739e+00 
 4.65321e+00 -2.08761e+00  6.48084e+00 
 4.46563e+00 -2.00276e+00  6.65739e+00 
 4.27819e+00 -1.91803e+00  6.82700e+00 
 4.09085e+00 -1.83341e+00  6.98967e+00 
 3.90366e+00 -1.74891e+00  7.14533e+00 
 3.71658e+00 -1.66454e+00  7.29401e+00 
 3.52966e+00 -1.58030e+00  7.43563e+00 
 3.34285e+00 -1.49618e+00  7.57020e+00 
 3.15620e+00 -1.41220e+00  7.69767e+00 
 2.96968e+00 -1.32834e+00  7.81804e+00 
 2.78330e+00 -1.24462e+00  7.93125e+00 
 2.59705e+00 -1.16100e+00  8.03731e+00 
 2.41094e+00 -1.07752e+00  8.13616e+00 
 2.22494e+00 -9.94145e-01  8.22780e+00 
 2.03908e+00 -9.10887e-01  8.31220e+00 
 1.85331e+00 -8.27724e-01  8.38934e+00 
 1.66767e+00 -7.44666e-01  8.45919e+00 
 1.48210e+00 -6.61688e-01  8.52175e+00 
 1.29665e+00 -5.78799e-01  8.57698e+00 
 1.11125e+00 -4.95973e-01  8.62489e+00 
 9.25945e-01 -4.13217e-01  8.66544e+00 
 7.40677e-01 -3.30506e-01  8.69864e+00 
 5.55474e-01 -2.47846e-01  8.72447e+00 
 3.70289e-01 -1.65209e-01  8.74293e+00 
 1.85145e-01 -8.26022e-02  8.75400e+00 
 3.51279e-12 -1.39996e-11  8.75770e+00 
-1.85145e-01  8.26022e-02  8.75400e+00 
-3.70289e-01  1.65209e-01  8.74293e+00 
-5.55474e-01  2.47846e-01  8.72447e+00 
-7.40677e-01  3.30506e-01  8.69864e+00 
-9.25945e-01  4.13217e-01  8.66544e+00 
-1.11125e+00  4.95973e-01  8.62489e+00 
-1.29665e+00  5.78799e-01  8.57698e+00 
-1.48210e+00  6.61688e-01  8.52175e+00 
-1.66767e+00  7.44666e-01  8.45919e+00 
-1.85331e+00  8.27724e-01  8.38934e+00 
-2.03908e+00  9.10887e-01  8.31220e+00 
-2.22494e+00  9.94145e-01  8.22780e+00 
-2.41094e+00  1.07752e+00  8.13616e+00 
-2.59705e+00  1.16100e+00  8.03731e+00 
-2.78330e+00  1.24462e+00  7.93125e+00 
-2.96968e+00  1.32834e+00  7.81804e+00 
-3.15620e+00  1.41220e+00  7.69767e+00 
-3.34285e+00  1.49618e+00  7.57020e+00 
-3.52966e+00  1.58030e+00  7.43563e+00 
-3.71658e+00  1.66454e+00  7.29401e+00 
-3.90366e+00  1.74891e+00  7.14533e+00 
-4.09085e+00  1.83341e+00  6.98967e+00 
-4.27819e+00  1.91803e+00  6.82700e+00 
-4.46563e+00  2.00276e+00  6.65739e+00 
-4.65321e+00  2.08761e+00  6.48084e+00 
-4.84088e+00  2.17256e+00  6.29739e+00 
-5.02866e+00  2.25762e+00  6.10703e+00 
-5.21651e+00  2.34275e+00  5.90983e+00 
-5.40445e+00  2.42798e+00  5.70575e+00 
-5.59244e+00  2.51326e+00  5.49487e+00 
-5.78050e+00  2.59861e+00  5.27715e+00 
-5.96858e+00  2.68400e+00  5.05264e+00 
-6.15669e+00  2.76943e+00  4.82131e+00 
-6.34479e+00  2.85487e+00  4.58321e+00 
-6.53290e+00  2.94032e+00  4.33830e+00 
-6.72097e+00  3.02576e+00  4.08662e+00 
-6.90900e+00  3.11118e+00  3.82813e+00 
-7.09696e+00  3.19656e+00  3.56287e+00 
-7.28486e+00  3.28189e+00  3.29076e+00 
-7.47264e+00  3.36714e+00  3.01186e+00 
-7.66033e+00  3.45233e+00  2.72610e+00 
-7.84787e+00  3.53741e+00  2.43350e+00 
-8.03529e+00  3.62238e+00  2.13398e+00 
-8.22253e+00  3.70723e+00  1.82757e+00 
-8.40963e+00  3.79196e+00  1.51419e+00 
-8.59652e+00  3.87653e+00  1.19387e+00 
-8.78324e+00  3.96096e+00  8.66485e-01 
-8.96974e+00  4.04521e+00  5.32084e-01 
-9.15605e+00  4.11708e+00  8.74699e-02 
 8.66624e+00 -3.89695e+00  8.71204e-02 
 8.49002e+00 -3.82893e+00  5.30072e-01 
 8.31352e+00 -3.74911e+00  8.63244e-01 
 8.13672e+00 -3.66906e+00  1.18946e+00 
 7.95967e+00 -3.58881e+00  1.50869e+00 
 7.78235e+00 -3.50835e+00  1.82107e+00 
 7.60482e+00 -3.42771e+00  2.12656e+00 
 7.42705e+00 -3.34690e+00  2.42527e+00 
 7.24911e+00 -3.26596e+00  2.71717e+00 
 7.07098e+00 -3.18487e+00  3.00235e+00 
 6.89272e+00 -3.10369e+00  3.28078e+00 
 6.71432e+00 -3.02242e+00  3.55253e+00 
 6.53584e+00 -2.94108e+00  3.81757e+00 
 6.35727e+00 -2.85970e+00  4.07595e+00 
 6.17866e+00 -2.77829e+00  4.32764e+00 
 6.00001e+00 -2.69688e+00  4.57268e+00 
 5.82137e+00 -2.61549e+00  4.81103e+00 
 5.64274e+00 -2.53412e+00  5.04271e+00 
 5.46416e+00 -2.45282e+00  5.26768e+00 
 5.28563e+00 -2.37158e+00  5.48596e+00 
 5.10719e+00 -2.29043e+00  5.69750e+00 
 4.92884e+00 -2.20938e+00  5.90231e+00 
 4.75061e+00 -2.12845e+00  6.10033e+00 
 4.57251e+00 -2.04764e+00  6.29157e+00 
 4.39456e+00 -1.96698e+00  6.47597e+00 
 4.21675e+00 -1.88646e+00  6.65353e+00 
 4.03912e+00 -1.80610e+00  6.82418e+00 
 3.86166e+00 -1.72590e+00  6.98793e+00 
 3.68439e+00 -1.64588e+00  7.14470e+00 
 3.50729e+00 -1.56602e+00  7.29450e+00 
 3.33041e+00 -1.48635e+00  7.43725e+00 
 3.15370e+00 -1.40684e+00  7.57296e+00 
 2.97720e+00 -1.32752e+00  7.70156e+00 
 2.80087e+00 -1.24837e+00  7.82303e+00 
 2.62476e+00 -1.16940e+00  7.93733e+00 
 2.44881e+00 -1.09058e+00  8.04443e+00 
 2.27306e+00 -1.01194e+00  8.14430e+00 
 2.09747e+00 -9.33443e-01  8.23690e+00 
 1.92206e+00 -8.55101e-01  8.32221e+00 
 1.74679e+00 -7.76891e-01  8.40021e+00 
 1.57168e+00 -6.98818e-01  8.47085e+00 
 1.39669e+00 -6.20856e-01  8.53412e+00 
 1.22184e+00 -5.43010e-01  8.59000e+00 
 1.04708e+00 -4.65251e-01  8.63848e+00 
 8.72424e-01 -3.87583e-01  8.67952e+00 
 6.97835e-01 -3.09978e-01  8.71312e+00 
 5.23327e-01 -2.32437e-01  8.73927e+00 
 3.48851e-01 -1.54931e-01  8.75795e+00 
 1.74424e-01 -7.74611e-02  8.76916e+00 
 1.49086e-12 -1.17757e-11  8.77290e+00 
-1.74424e-01  7.74611e-02  8.76916e+00 
-3.48851e-01  1.54931e-01  8.75795e+00 
-5.23327e-01  2.32437e-01  8.73927e+00 
-6.97835e-01  3.09978e-01  8.71312e+00 
-8.72424e-01  3.87583e-01  8.67952e+00 
-1.04708e+00  4.65251e-01  8.63848e+00 
-1.22184e+00  5.43010e-01  8.59000e+00 
-1.39669e+00  6.20856e-01  8.53412e+00 
-1.57168e+00  6.98818e-01  8.47085e+00 
-1.74679e+00  7.76891e-01  8.40021e+00 
-1.92206e+00  8.55101e-01  8.32221e+00 
-2.09747e+00  9.33443e-01  8.23690e+00 
-2.27306e+00  1.01194e+00  8.14430e+00 
-2.44881e+00  1.09058e+00  8.04443e+00 
-2.62476e+00  1.16940e+00  7.93733e+00 
-2.80087e+00  1.24837e+00  7.82303e+00 
-2.97720e+00  1.32752e+00  7.70156e+00 
-3.15370e+00  1.40684e+00  7.57296e+00 
-3.33041e+00  1.48635e+00  7.43725e+00 
-3.50729e+00  1.56602e+00  7.29450e+00 
-3.68439e+00  1.64588e+00  7.14470e+00 
-3.86166e+00  1.72590e+00  6.98793e+00 
-4.03912e+00  1.80610e+00  6.82418e+00 
-4.21675e+00  1.88646e+00  6.65353e+00 
-4.39456e+00  1.96698e+00  6.47597e+00 
-4.57251e+00  2.04764e+00  6.29157e+00 
-4.75061e+00  2.12845e+00  6.10033e+00 
-4.92884e+00  2.20938e+00  5.90231e+00 
-5.10719e+00  2.29043e+00  5.69750e+00 
-5.28563e+00  2.37158e+00  5.48596e+00 
-5.46416e+00  2.45282e+00  5.26768e+00 
-5.64274e+00  2.53412e+00  5.04271e+00 
-5.82137e+00  2.61549e+00  4.81103e+00 
-6.00001e+00  2.69688e+00  4.57268e+00 
-6.17866e+00  2.77829e+00  4.32764e+00 
-6.35727e+00  2.85970e+00  4.07595e+00 
-6.53584e+00  2.94108e+00  3.81757e+00 
-6.71432e+00  3.02242e+00  3.55253e+00 
-6.89272e+00  3.10369e+00  3.28078e+00 
-7.07098e+00  3.18487e+00  3.00235e+00 
-7.24911e+00  3.26596e+00  2.71717e+00 
-7.42705e+00  3.34690e+00  2.42527e+00 
-7.60482e+00  3.42771e+00  2.12656e+00 
-7.78235e+00  3.50835e+00  1.82107e+00 
-7.95967e+00  3.58881e+00  1.50869e+00 
-8.13672e+00  3.66906e+00  1.18946e+00 
-8.31352e+00  3.74911e+00  8.63244e-01 
-8.49002e+00  3.82893e+00  5.30072e-01 
-8.66624e+00  3.89695e+00  8.71204e-02 
 8.17857e+00 -3.67783e+00  8.66512e-02 
 8.01236e+00 -3.61360e+00  5.27243e-01 
 7.84576e+00 -3.53816e+00  8.58696e-01 
 7.67874e+00 -3.46239e+00  1.18329e+00 
 7.51138e+00 -3.38635e+00  1.50103e+00 
 7.34365e+00 -3.31002e+00  1.81203e+00 
 7.17563e+00 -3.23346e+00  2.11629e+00 
 7.00731e+00 -3.15667e+00  2.41391e+00 
 6.83875e+00 -3.07970e+00  2.70489e+00 
 6.66996e+00 -3.00256e+00  2.98930e+00 
 6.50099e+00 -2.92529e+00  3.26713e+00 
 6.33186e+00 -2.84790e+00  3.53846e+00 
 6.16262e+00 -2.77044e+00  3.80323e+00 
 5.99328e+00 -2.69293e+00  4.06152e+00 
 5.82391e+00 -2.61540e+00  4.31328e+00 
 5.65450e+00 -2.53788e+00  4.55855e+00 
 5.48512e+00 -2.46039e+00  4.79727e+00 
 5.31576e+00 -2.38295e+00  5.02948e+00 
 5.14649e+00 -2.30561e+00  5.25512e+00 
 4.97731e+00 -2.22836e+00  5.47420e+00 
 4.80827e+00 -2.15125e+00  5.68666e+00 
 4.63936e+00 -2.07427e+00  5.89249e+00 
 4.47063e+00 -1.99747e+00  6.09164e+00 
 4.30208e+00 -1.92084e+00  6.28410e+00 
 4.13375e+00 -1.84441e+00  6.46979e+00 
 3.96563e+00 -1.76818e+00  6.64870e+00 
 3.79776e+00 -1.69217e+00  6.82076e+00 
 3.63013e+00 -1.61637e+00  6.98596e+00 
 3.46276e+00 -1.54082e+00  7.14422e+00 
 3.29563e+00 -1.46549e+00  7.29551e+00 
 3.12879e+00 -1.39040e+00  7.43977e+00 
 2.96220e+00 -1.31555e+00  7.57698e+00 
 2.79588e+00 -1.24093e+00  7.70705e+00 
 2.62982e+00 -1.16654e+00  7.82999e+00 
 2.46403e+00 -1.09239e+00  7.94570e+00 
 2.29847e+00 -1.01845e+00  8.05418e+00 
 2.13318e+00 -9.44727e-01  8.15537e+00 
 1.96810e+00 -8.71203e-01  8.24923e+00 
 1.80326e+00 -7.97880e-01  8.33572e+00 
 1.63862e+00 -7.24731e-01  8.41483e+00 
 1.47418e+00 -6.51758e-01  8.48649e+00 
 1.30991e+00 -5.78933e-01  8.55070e+00 
 1.14581e+00 -5.06255e-01  8.60741e+00 
 9.81843e-01 -4.33693e-01  8.65662e+00 
 8.18016e-01 -3.61247e-01  8.69828e+00 
 6.54277e-01 -2.88884e-01  8.73241e+00 
 4.90640e-01 -2.16601e-01  8.75896e+00 
 3.27051e-01 -1.44367e-01  8.77793e+00 
 1.63521e-01 -7.21769e-02  8.78932e+00 
 2.57712e-12 -1.58615e-11  8.79312e+00 
-1.63521e-01  7.21769e-02  8.78932e+00 
-3.27051e-01  1.44367e-01  8.77793e+00 
-4.90640e-01  2.16601e-01  8.75896e+00 
-6.54277e-01  2.88884e-01  8.73241e+00 
-8.18016e-01  3.61247e-01  8.69828e+00 
-9.81843e-01  4.33693e-01  8.65662e+00 
-1.14581e+00  5.06255e-01  8.60741e+00 
-1.30991e+00  5.78933e-01  8.55070e+00 
-1.47418e+00  6.51758e-01  8.48649e+00 
-1.63862e+00  7.24731e-01  8.41483e+00 
-1.80326e+00  7.97880e-01  8.33572e+00 
-1.96810e+00  8.71203e-01  8.24923e+00 
-2.13318e+00  9.44727e-01  8.15537e+00 
-2.29847e+00  1.01845e+00  8.05418e+00 
-2.46403e+00  1.09239e+00  7.94570e+00 
-2.62982e+00  1.16654e+00  7.82999e+00 
-2.79588e+00  1.24093e+00  7.70705e+00 
-2.96220e+00  1.31555e+00  7.57698e+00 
-3.12879e+00  1.39040e+00  7.43977e+00 
-3.29563e+00  1.46549e+00  7.29551e+00 
-3.46276e+00  1.54082e+00  7.14422e+00 
-3.63013e+00  1.61637e+00  6.98596e+00 
-3.79776e+00  1.69217e+00  6.82076e+00 
-3.96563e+00  1.76818e+00  6.64870e+00 
-4.13375e+00  1.84441e+00  6.46979e+00 
-4.30208e+00  1.92084e+00  6.28410e+00 
-4.47063e+00  1.99747e+00  6.09164e+00 
-4.63936e+00  2.07427e+00  5.89249e+00 
-4.80827e+00  2.15125e+00  5.68666e+00 
-4.97731e+00  2.22836e+00  5.47420e+00 
-5.14649e+00  2.30561e+00  5.25512e+00 
-5.31576e+00  2.38295e+00  5.02948e+00 
-5.48512e+00  2.46039e+00  4.79727e+00 
-5.65450e+00  2.53788e+00  4.55855e+00 
-5.82391e+00  2.61540e+00  4.31328e+00 
-5.99328e+00  2.69293e+00  4.06152e+00 
-6.16262e+00  2.77044e+00  3.80323e+00 
-6.33186e+00  2.84790e+00  3.53846e+00 
-6.50099e+00  2.92529e+00  3.26713e+00 
-6.66996e+00  3.00256e+00  2.98930e+00 
-6.83875e+00  3.07970e+00  2.70489e+00 
-7.00731e+00  3.15667e+00  2.41391e+00 
-7.17563e+00  3.23346e+00  2.11629e+00 
-7.34365e+00  3.31002e+00  1.81203e+00 
-7.51138e+00  3.38635e+00  1.50103e+00 
-7.67874e+00  3.46239e+00  1.18329e+00 
-7.84576e+00  3.53816e+00  8.58696e-01 
-8.01236e+00  3.61360e+00  5.27243e-01 
-8.17857e+00  3.67783e+00  8.66512e-02 
 7.69394e+00 -3.46010e+00  8.59123e-02 
 7.53759e+00 -3.39960e+00  5.23247e-01 
 7.38070e+00 -3.32842e+00  8.52353e-01 
 7.22327e+00 -3.25680e+00  1.17476e+00 
 7.06535e+00 -3.18481e+00  1.49048e+00 
 6.90697e+00 -3.11245e+00  1.79965e+00 
 6.74819e+00 -3.03978e+00  2.10228e+00 
 6.58902e+00 -2.96681e+00  2.39849e+00 
 6.42954e+00 -2.89361e+00  2.68828e+00 
 6.26977e+00 -2.82019e+00  2.97173e+00 
 6.10979e+00 -2.74661e+00  3.24883e+00 
 5.94960e+00 -2.67290e+00  3.51965e+00 
 5.78930e+00 -2.59911e+00  3.78415e+00 
 5.62889e+00 -2.52526e+00  4.04238e+00 
 5.46845e+00 -2.45141e+00  4.29431e+00 
 5.30799e+00 -2.37758e+00  4.53995e+00 
 5.14759e+00 -2.30382e+00  4.77925e+00 
 4.98726e+00 -2.23015e+00  5.01224e+00 
 4.82706e+00 -2.15661e+00  5.23882e+00 
 4.66700e+00 -2.08322e+00  5.45901e+00 
 4.50715e+00 -2.01001e+00  5.67273e+00 
 4.34750e+00 -1.93701e+00  5.87998e+00 
 4.18812e+00 -1.86424e+00  6.08065e+00 
 4.02899e+00 -1.79171e+00  6.27474e+00 
 3.87017e+00 -1.71946e+00  6.46215e+00 
 3.71165e+00 -1.64748e+00  6.64287e+00 
 3.55347e+00 -1.57579e+00  6.81679e+00 
 3.39561e+00 -1.50440e+00  6.98389e+00 
 3.23812e+00 -1.43331e+00  7.14408e+00 
 3.08096e+00 -1.36253e+00  7.29732e+00 
 2.92418e+00 -1.29207e+00  7.44353e+00 
 2.76774e+00 -1.22191e+00  7.58267e+00 
 2.61167e+00 -1.15207e+00  7.71465e+00 
 2.45594e+00 -1.08252e+00  7.83945e+00 
 2.30057e+00 -1.01327e+00  7.95698e+00 
 2.14552e+00 -9.44298e-01  8.06721e+00 
 1.99080e+00 -8.75608e-01  8.17006e+00 
 1.83638e+00 -8.07171e-01  8.26552e+00 
 1.68226e+00 -7.38989e-01  8.35351e+00 
 1.52840e+00 -6.71031e-01  8.43400e+00 
 1.37481e+00 -6.03295e-01  8.50695e+00 
 1.22144e+00 -5.35748e-01  8.57233e+00 
 1.06829e+00 -4.68385e-01  8.63008e+00 
 9.15317e-01 -4.01172e-01  8.68021e+00 
 7.62519e-01 -3.34102e-01  8.72266e+00 
 6.09843e-01 -2.67140e-01  8.75743e+00 
 4.57292e-01 -2.00276e-01  8.78448e+00 
 3.04809e-01 -1.33476e-01  8.80382e+00 
 1.52396e-01 -6.67288e-02  8.81543e+00 
 2.07966e-12 -1.57236e-11  8.81930e+00 
-1.52396e-01  6.67288e-02  8.81543e+00 
-3.04809e-01  1.33476e-01  8.80382e+00 
-4.57292e-01  2.00276e-01  8.78448e+00 
-6.09843e-01  2.67140e-01  8.75743e+00 
-7.62519e-01  3.34102e-01  8.72266e+00 
-9.15317e-01  4.01172e-01  8.68021e+00 
-1.06829e+00  4.68385e-01  8.63008e+00 
-1.22144e+00  5.35748e-01  8.57233e+00 
-1.37481e+00  6.03295e-01  8.50695e+00 
-1.52840e+00  6.71031e-01  8.43400e+00 
-1.68226e+00  7.38989e-01  8.35351e+00 
-1.83638e+00  8.07171e-01  8.26552e+00 
-1.99080e+00  8.75608e-01  8.17006e+00 
-2.14552e+00  9.44298e-01  8.06721e+00 
-2.30057e+00  1.01327e+00  7.95698e+00 
-2.45594e+00  1.08252e+00  7.83945e+00 
-2.61167e+00  1.15207e+00  7.71465e+00 
-2.76774e+00  1.22191e+00  7.58267e+00 
-2.92418e+00  1.29207e+00  7.44353e+00 
-3.08096e+00  1.36253e+00  7.29732e+00 
-3.23812e+00  1.43331e+00  7.14408e+00 
-3.39561e+00  1.50440e+00  6.98389e+00 
-3.55347e+00  1.57579e+00  6.81679e+00 
-3.71165e+00  1.64748e+00  6.64287e+00 
-3.87017e+00  1.71946e+00  6.46215e+00 
-4.02899e+00  1.79171e+00  6.27474e+00 
-4.18812e+00  1.86424e+00  6.08065e+00 
-4.34750e+00  1.93701e+00  5.87998e+00 
-4.50715e+00  2.01001e+00  5.67273e+00 
-4.66700e+00  2.08322e+00  5.45901e+00 
-4.82706e+00  2.15661e+00  5.23882e+00 
-4.98726e+00  2.23015e+00  5.01224e+00 
-5.14759e+00  2.30382e+00  4.77925e+00 
-5.30799e+00  2.37758e+00  4.53995e+00 
-5.46845e+00  2.45141e+00  4.29431e+00 
-5.62889e+00  2.52526e+00  4.04238e+00 
-5.78930e+00  2.59911e+00  3.78415e+00 
-5.94960e+00  2.67290e+00  3.51965e+00 
-6.10979e+00  2.74661e+00  3.24883e+00 
-6.26977e+00  2.82019e+00  2.97173e+00 
-6.42954e+00  2.89361e+00  2.68828e+00 
-6.58902e+00  2.96681e+00  2.39849e+00 
-6.74819e+00  3.03978e+00  2.10228e+00 
-6.90697e+00  3.11245e+00  1.79965e+00 
-7.06535e+00  3.18481e+00  1.49048e+00 
-7.22327e+00  3.25680e+00  1.17476e+00 
-7.38070e+00  3.32842e+00  8.52353e-01 
-7.53759e+00  3.39960e+00  5.23247e-01 
-7.69394e+00  3.46010e+00  8.59123e-02 
 7.21347e+00 -3.24428e+00  8.48131e-02 
 7.06677e+00 -3.18739e+00  5.17721e-01 
 6.91933e+00 -3.12031e+00  8.43658e-01 
 6.77117e+00 -3.05266e+00  1.16313e+00 
 6.62237e+00 -2.98451e+00  1.47617e+00 
 6.47296e+00 -2.91588e+00  1.78295e+00 
 6.32303e+00 -2.84684e+00  2.08347e+00 
 6.17262e+00 -2.77743e+00  2.37788e+00 
 6.02181e+00 -2.70772e+00  2.66616e+00 
 5.87064e+00 -2.63775e+00  2.94843e+00 
 5.71921e+00 -2.56760e+00  3.22466e+00 
 5.56756e+00 -2.49729e+00  3.49492e+00 
 5.41577e+00 -2.42690e+00  3.75917e+00 
 5.26389e+00 -2.35646e+00  4.01745e+00 
 5.11199e+00 -2.28605e+00  4.26970e+00 
 4.96012e+00 -2.21568e+00  4.51596e+00 
 4.80836e+00 -2.14543e+00  4.75612e+00 
 4.65673e+00 -2.07533e+00  4.99021e+00 
 4.50531e+00 -2.00542e+00  5.21812e+00 
 4.35411e+00 -1.93573e+00  5.43985e+00 
 4.20320e+00 -1.86630e+00  5.65529e+00 
 4.05261e+00 -1.79715e+00  5.86442e+00 
 3.90238e+00 -1.72833e+00  6.06713e+00 
 3.75252e+00 -1.65984e+00  6.26338e+00 
 3.60308e+00 -1.59171e+00  6.45305e+00 
 3.45406e+00 -1.52394e+00  6.63611e+00 
 3.30550e+00 -1.45657e+00  6.81243e+00 
 3.15738e+00 -1.38958e+00  6.98198e+00 
 3.00975e+00 -1.32300e+00  7.14464e+00 
 2.86258e+00 -1.25681e+00  7.30035e+00 
 2.71590e+00 -1.19103e+00  7.44902e+00 
 2.56968e+00 -1.12565e+00  7.59059e+00 
 2.42394e+00 -1.06065e+00  7.72496e+00 
 2.27865e+00 -9.96040e-01  7.85209e+00 
 2.13382e+00 -9.31804e-01  7.97187e+00 
 1.98941e+00 -8.67920e-01  8.08426e+00 
 1.84543e+00 -8.04387e-01  8.18918e+00 
 1.70183e+00 -7.41174e-01  8.28659e+00 
 1.55863e+00 -6.78274e-01  8.37641e+00 
 1.41576e+00 -6.15656e-01  8.45861e+00 
 1.27322e+00 -5.53310e-01  8.53312e+00 
 1.13098e+00 -4.91200e-01  8.59992e+00 
 9.89009e-01 -4.29315e-01  8.65895e+00 
 8.47266e-01 -3.67616e-01  8.71018e+00 
 7.05742e-01 -3.06091e-01  8.75358e+00 
 5.64378e-01 -2.44700e-01  8.78912e+00 
 4.23167e-01 -1.83428e-01  8.81679e+00 
 2.82047e-01 -1.22235e-01  8.83657e+00 
 1.41011e-01 -6.11058e-02  8.84844e+00 
 1.40154e-12 -1.47617e-11  8.85239e+00 
-1.41011e-01  6.11058e-02  8.84844e+00 
-2.82047e-01  1.22235e-01  8.83657e+00 
-4.23167e-01  1.83428e-01  8.81679e+00 
-5.64378e-01  2.44700e-01  8.78912e+00 
-7.05742e-01  3.06091e-01  8.75358e+00 
-8.47266e-01  3.67616e-01  8.71018e+00 
-9.89009e-01  4.29315e-01  8.65895e+00 
-1.13098e+00  4.91200e-01  8.59992e+00 
-1.27322e+00  5.53310e-01  8.53312e+00 
-1.41576e+00  6.15656e-01  8.45861e+00 
-1.55863e+00  6.78274e-01  8.37641e+00 
-1.70183e+00  7.41174e-01  8.28659e+00 
-1.84543e+00  8.04387e-01  8.18918e+00 
-1.98941e+00  8.67920e-01  8.08426e+00 
-2.13382e+00  9.31804e-01  7.97187e+00 
-2.27865e+00  9.96040e-01  7.85209e+00 
-2.42394e+00  1.06065e+00  7.72496e+00 
-2.56968e+00  1.12565e+00  7.59059e+00 
-2.71590e+00  1.19103e+00  7.44902e+00 
-2.86258e+00  1.25681e+00  7.30035e+00 
-3.00975e+00  1.32300e+00  7.14464e+00 
-3.15738e+00  1.38958e+00  6.98198e+00 
-3.30550e+00  1.45657e+00  6.81243e+00 
-3.45406e+00  1.52394e+00  6.63611e+00 
-3.60308e+00  1.59171e+00  6.45305e+00 
-3.75252e+00  1.65984e+00  6.26338e+00 
-3.90238e+00  1.72833e+00  6.06713e+00 
-4.05261e+00  1.79715e+00  5.86442e+00 
-4.20320e+00  1.86630e+00  5.65529e+00 
-4.35411e+00  1.93573e+00  5.43985e+00 
-4.50531e+00  2.00542e+00  5.21812e+00 
-4.65673e+00  2.07533e+00  4.99021e+00 
-4.80836e+00  2.14543e+00  4.75612e+00 
-4.96012e+00  2.21568e+00  4.51596e+00 
-5.11199e+00  2.28605e+00  4.26970e+00 
-5.26389e+00  2.35646e+00  4.01745e+00 
-5.41577e+00  2.42690e+00  3.75917e+00 
-5.56756e+00  2.49729e+00  3.49492e+00 
-5.71921e+00  2.56760e+00  3.22466e+00 
-5.87064e+00  2.63775e+00  2.94843e+00 
-6.02181e+00  2.70772e+00  2.66616e+00 
-6.17262e+00  2.77743e+00  2.37788e+00 
-6.32303e+00  2.84684e+00  2.08347e+00 
-6.47296e+00  2.91588e+00  1.78295e+00 
-6.62237e+00  2.98451e+00  1.47617e+00 
-6.77117e+00  3.05266e+00  1.16313e+00 
-6.91933e+00  3.12031e+00  8.43658e-01 
-7.06677e+00  3.18739e+00  5.17721e-01 
-7.21347e+00  3.24428e+00  8.48131e-02 
 6.73862e+00 -3.03106e+00  8.32780e-02 
 6.60123e+00 -2.97762e+00  5.10213e-01 
 6.46285e+00 -2.91441e+00  8.31930e-01 
 6.32352e+00 -2.85046e+00  1.14754e+00 
 6.18335e+00 -2.78584e+00  1.45709e+00 
 6.04240e+00 -2.72062e+00  1.76077e+00 
 5.90078e+00 -2.65488e+00  2.05862e+00 
 5.75856e+00 -2.58868e+00  2.35077e+00 
 5.61585e+00 -2.52211e+00  2.63723e+00 
 5.47272e+00 -2.45524e+00  2.91810e+00 
 5.32929e+00 -2.38815e+00  3.19335e+00 
 5.18562e+00 -2.32091e+00  3.46305e+00 
 5.04182e+00 -2.25360e+00  3.72713e+00 
 4.89795e+00 -2.18626e+00  3.98565e+00 
 4.75413e+00 -2.11900e+00  4.23850e+00 
 4.61039e+00 -2.05184e+00  4.48570e+00 
 4.46684e+00 -1.98487e+00  4.72713e+00 
 4.32352e+00 -1.91811e+00  4.96279e+00 
 4.18051e+00 -1.85165e+00  5.19255e+00 
 4.03786e+00 -1.78550e+00  5.41637e+00 
 3.89563e+00 -1.71972e+00  5.63412e+00 
 3.75385e+00 -1.65432e+00  5.84575e+00 
 3.61257e+00 -1.58937e+00  6.05112e+00 
 3.47182e+00 -1.52486e+00  6.25017e+00 
 3.33164e+00 -1.46082e+00  6.44274e+00 
 3.19204e+00 -1.39727e+00  6.62879e+00 
 3.05305e+00 -1.33423e+00  6.80816e+00 
 2.91466e+00 -1.27168e+00  6.98078e+00 
 2.77690e+00 -1.20966e+00  7.14652e+00 
 2.63976e+00 -1.14813e+00  7.30530e+00 
 2.50325e+00 -1.08712e+00  7.45700e+00 
 2.36735e+00 -1.02660e+00  7.60155e+00 
 2.23206e+00 -9.66581e-01  7.73883e+00 
 2.09735e+00 -9.07025e-01  7.86877e+00 
 1.96323e+00 -8.47934e-01  7.99126e+00 
 1.82965e+00 -7.89277e-01  8.10625e+00 
 1.69660e+00 -7.31046e-01  8.21363e+00 
 1.56405e+00 -6.73207e-01  8.31337e+00 
 1.43198e+00 -6.15745e-01  8.40536e+00 
 1.30034e+00 -5.58625e-01  8.48957e+00 
 1.16912e+00 -5.01830e-01  8.56592e+00 
 1.03825e+00 -4.45320e-01  8.63438e+00 
 9.07731e-01 -3.89077e-01  8.69489e+00 
 7.77493e-01 -3.33058e-01  8.74742e+00 
 6.47523e-01 -2.77244e-01  8.79192e+00 
 5.17754e-01 -2.21591e-01  8.82837e+00 
 3.88170e-01 -1.66078e-01  8.85675e+00 
 2.58702e-01 -1.10660e-01  8.87703e+00 
 1.29334e-01 -5.53153e-02  8.88921e+00 
 3.88632e-12 -1.81140e-11  8.89326e+00 
-1.29334e-01  5.53153e-02  8.88921e+00 
-2.58702e-01  1.10660e-01  8.87703e+00 
-3.88170e-01  1.66078e-01  8.85675e+00 
-5.17754e-01  2.21591e-01  8.82837e+00 
-6.47523e-01  2.77244e-01  8.79192e+00 
-7.77493e-01  3.33058e-01  8.74742e+00 
-9.07731e-01  3.89077e-01  8.69489e+00 
-1.03825e+00  4.45320e-01  8.63438e+00 
-1.16912e+00  5.01830e-01  8.56592e+00 
-1.30034e+00  5.58625e-01  8.48957e+00 
-1.43198e+00  6.15745e-01  8.40536e+00 
-1.56405e+00  6.73207e-01  8.31337e+00 
-1.69660e+00  7.31046e-01  8.21363e+00 
-1.82965e+00  7.89277e-01  8.10625e+00 
-1.96323e+00  8.47934e-01  7.99126e+00 
-2.09735e+00  9.07025e-01  7.86877e+00 
-2.23206e+00  9.66581e-01  7.73883e+00 
-2.36735e+00  1.02660e+00  7.60155e+00 
-2.50325e+00  1.08712e+00  7.45700e+00 
-2.63976e+00  1.14813e+00  7.30530e+00 
-2.77690e+00  1.20966e+00  7.14652e+00 
-2.91466e+00  1.27168e+00  6.98078e+00 
-3.05305e+00  1.33423e+00  6.80816e+00 
-3.19204e+00  1.39727e+00  6.62879e+00 
-3.33164e+00  1.46082e+00  6.44274e+00 
-3.47182e+00  1.52486e+00  6.25017e+00 
-3.61257e+00  1.58937e+00  6.05112e+00 
-3.75385e+00  1.65432e+00  5.84575e+00 
-3.89563e+00  1.71972e+00  5.63412e+00 
-4.03786e+00  1.78550e+00  5.41637e+00 
-4.18051e+00  1.85165e+00  5.19255e+00 
-4.32352e+00  1.91811e+00  4.96279e+00 
-4.46684e+00  1.98487e+00  4.72713e+00 
-4.61039e+00  2.05184e+00  4.48570e+00 
-4.75413e+00  2.11900e+00  4.23850e+00 
-4.89795e+00  2.18626e+00  3.98565e+00 
-5.04182e+00  2.25360e+00  3.72713e+00 
-5.18562e+00  2.32091e+00  3.46305e+00 
-5.32929e+00  2.38815e+00  3.19335e+00 
-5.47272e+00  2.45524e+00  2.91810e+00 
-5.61585e+00  2.52211e+00  2.63723e+00 
-5.75856e+00  2.58868e+00  2.35077e+00 
-5.90078e+00  2.65488e+00  2.05862e+00 
-6.04240e+00  2.72062e+00  1.76077e+00 
-6.18335e+00  2.78584e+00  1.45709e+00 
-6.32352e+00  2.85046e+00  1.14754e+00 
-6.46285e+00  2.91441e+00  8.31930e-01 
-6.60123e+00  2.97762e+00  5.10213e-01 
-6.73862e+00  3.03106e+00  8.32780e-02 
 6.27139e+00 -2.82131e+00  8.10468e-02 
 6.14276e+00 -2.77106e+00  5.00044e-01 
 6.01284e+00 -2.71140e+00  8.16226e-01 
 5.88169e+00 -2.65077e+00  1.12682e+00 
 5.74945e+00 -2.58928e+00  1.43190e+00 
 5.61623e+00 -2.52704e+00  1.73168e+00 
 5.48218e+00 -2.46415e+00  2.02620e+00 
 5.34740e+00 -2.40071e+00  2.31561e+00 
 5.21204e+00 -2.33684e+00  2.59991e+00 
 5.07620e+00 -2.27263e+00  2.87921e+00 
 4.94004e+00 -2.20819e+00  3.15345e+00 
 4.80364e+00 -2.14360e+00  3.42268e+00 
 4.66716e+00 -2.07898e+00  3.68683e+00 
 4.53067e+00 -2.01441e+00  3.94590e+00 
 4.39431e+00 -1.94997e+00  4.19977e+00 
 4.25815e+00 -1.88573e+00  4.44842e+00 
 4.12231e+00 -1.82178e+00  4.69171e+00 
 3.98685e+00 -1.75817e+00  4.92958e+00 
 3.85187e+00 -1.69497e+00  5.16186e+00 
 3.71741e+00 -1.63222e+00  5.38850e+00 
 3.58356e+00 -1.56998e+00  5.60930e+00 
 3.45034e+00 -1.50827e+00  5.82420e+00 
 3.31783e+00 -1.44714e+00  6.03299e+00 
 3.18604e+00 -1.38660e+00  6.23560e+00 
 3.05503e+00 -1.32669e+00  6.43183e+00 
 2.92478e+00 -1.26739e+00  6.62160e+00 
 2.79535e+00 -1.20874e+00  6.80472e+00 
 2.66671e+00 -1.15073e+00  6.98111e+00 
 2.53889e+00 -1.09336e+00  7.15058e+00 
 2.41186e+00 -1.03661e+00  7.31305e+00 
 2.28565e+00 -9.80499e-01  7.46837e+00 
 2.16021e+00 -9.24988e-01  7.61645e+00 
 2.03555e+00 -8.70074e-01  7.75714e+00 
 1.91162e+00 -8.15726e-01  7.89037e+00 
 1.78841e+00 -7.61932e-01  8.01601e+00 
 1.66589e+00 -7.08657e-01  8.13400e+00 
 1.54403e+00 -6.55884e-01  8.24421e+00 
 1.42277e+00 -6.03572e-01  8.34659e+00 
 1.30210e+00 -5.51702e-01  8.44105e+00 
 1.18196e+00 -5.00230e-01  8.52753e+00 
 1.06233e+00 -4.49135e-01  8.60595e+00 
 9.43132e-01 -3.98370e-01  8.67627e+00 
 8.24350e-01 -3.47911e-01  8.73844e+00 
 7.05912e-01 -2.97712e-01  8.79241e+00 
 5.87793e-01 -2.47745e-01  8.83813e+00 
 4.69919e-01 -1.97964e-01  8.87559e+00 
 3.52263e-01 -1.48341e-01  8.90475e+00 
 2.34750e-01 -9.88280e-02  8.92559e+00 
 1.17354e-01 -4.93966e-02  8.93810e+00 
 4.07450e-12 -2.15850e-11  8.94228e+00 
-1.17354e-01  4.93966e-02  8.93810e+00 
-2.34750e-01  9.88280e-02  8.92559e+00 
-3.52263e-01  1.48341e-01  8.90475e+00 
-4.69919e-01  1.97964e-01  8.87559e+00 
-5.87793e-01  2.47745e-01  8.83813e+00 
-7.05912e-01  2.97712e-01  8.79241e+00 
-8.24350e-01  3.47911e-01  8.73844e+00 
-9.43132e-01  3.98370e-01  8.67627e+00 
-1.06233e+00  4.49135e-01  8.60595e+00 
-1.18196e+00  5.00230e-01  8.52753e+00 
-1.30210e+00  5.51702e-01  8.44105e+00 
-1.42277e+00  6.03572e-01  8.34659e+00 
-1.54403e+00  6.55884e-01  8.24421e+00 
-1.66589e+00  7.08657e-01  8.13400e+00 
-1.78841e+00  7.61932e-01  8.01601e+00 
-1.91162e+00  8.15726e-01  7.89037e+00 
-2.03555e+00  8.70074e-01  7.75714e+00 
-2.16021e+00  9.24988e-01  7.61645e+00 
-2.28565e+00  9.80499e-01  7.46837e+00 
-2.41186e+00  1.03661e+00  7.31305e+00 
-2.53889e+00  1.09336e+00  7.15058e+00 
-2.66671e+00  1.15073e+00  6.98111e+00 
-2.79535e+00  1.20874e+00  6.80472e+00 
-2.92478e+00  1.26739e+00  6.62160e+00 
-3.05503e+00  1.32669e+00  6.43183e+00 
-3.18604e+00  1.38660e+00  6.23560e+00 
-3.31783e+00  1.44714e+00  6.03299e+00 
-3.45034e+00  1.50827e+00  5.82420e+00 
-3.58356e+00  1.56998e+00  5.60930e+00 
-3.71741e+00  1.63222e+00  5.38850e+00 
-3.85187e+00  1.69497e+00  5.16186e+00 
-3.98685e+00  1.75817e+00  4.92958e+00 
-4.12231e+00  1.82178e+00  4.69171e+00 
-4.25815e+00  1.88573e+00  4.44842e+00 
-4.39431e+00  1.94997e+00  4.19977e+00 
-4.53067e+00  2.01441e+00  3.94590e+00 
-4.66716e+00  2.07898e+00  3.68683e+00 
-4.80364e+00  2.14360e+00  3.42268e+00 
-4.94004e+00  2.20819e+00  3.15345e+00 
-5.07620e+00  2.27263e+00  2.87921e+00 
-5.21204e+00  2.33684e+00  2.59991e+00 
-5.34740e+00  2.40071e+00  2.31561e+00 
-5.48218e+00  2.46415e+00  2.02620e+00 
-5.61623e+00  2.52704e+00  1.73168e+00 
-5.74945e+00  2.58928e+00  1.43190e+00 
-5.88169e+00  2.65077e+00  1.12682e+00 
-6.01284e+00  2.71140e+00  8.16226e-01 
-6.14276e+00  2.77106e+00  5.00044e-01 
-6.27139e+00  2.82131e+00  8.10468e-02 
 5.81423e+00 -2.61614e+00  7.78728e-02 
 5.69357e+00 -2.56873e+00  4.86446e-01 
 5.57123e+00 -2.51213e+00  7.95455e-01 
 5.44733e+00 -2.45430e+00  1.09963e+00 
 5.32205e+00 -2.39540e+00  1.39908e+00 
 5.19556e+00 -2.33557e+00  1.69403e+00 
 5.06806e+00 -2.27496e+00  1.98453e+00 
 4.93970e+00 -2.21370e+00  2.27073e+00 
 4.81068e+00 -2.15197e+00  2.55262e+00 
 4.68116e+00 -2.08987e+00  2.83028e+00 
 4.55133e+00 -2.02757e+00  3.10362e+00 
 4.42132e+00 -1.96518e+00  3.37267e+00 
 4.29131e+00 -1.90284e+00  3.63729e+00 
 4.16143e+00 -1.84064e+00  3.89746e+00 
 4.03183e+00 -1.77870e+00  4.15301e+00 
 3.90261e+00 -1.71710e+00  4.40385e+00 
 3.77391e+00 -1.65596e+00  4.64980e+00 
 3.64581e+00 -1.59531e+00  4.89073e+00 
 3.51843e+00 -1.53526e+00  5.12644e+00 
 3.39181e+00 -1.47583e+00  5.35680e+00 
 3.26606e+00 -1.41710e+00  5.58158e+00 
 3.14120e+00 -1.35908e+00  5.80065e+00 
 3.01730e+00 -1.30182e+00  6.01376e+00 
 2.89438e+00 -1.24533e+00  6.22079e+00 
 2.77249e+00 -1.18962e+00  6.42151e+00 
 2.65161e+00 -1.13471e+00  6.61579e+00 
 2.53179e+00 -1.08060e+00  6.80340e+00 
 2.41300e+00 -1.02727e+00  6.98423e+00 
 2.29526e+00 -9.74720e-01  7.15808e+00 
 2.17852e+00 -9.22931e-01  7.32482e+00 
 2.06279e+00 -8.71889e-01  7.48428e+00 
 1.94803e+00 -8.21562e-01  7.63636e+00 
 1.83423e+00 -7.71933e-01  7.78089e+00 
 1.72133e+00 -7.22963e-01  7.91778e+00 
 1.60931e+00 -6.74630e-01  8.04690e+00 
 1.49811e+00 -6.26890e-01  8.16816e+00 
 1.38771e+00 -5.79719e-01  8.28144e+00 
 1.27804e+00 -5.33069e-01  8.38667e+00 
 1.16906e+00 -4.86913e-01  8.48376e+00 
 1.06072e+00 -4.41203e-01  8.57266e+00 
 9.52963e-01 -3.95908e-01  8.65327e+00 
 8.45726e-01 -3.50978e-01  8.72555e+00 
 7.38973e-01 -3.06384e-01  8.78944e+00 
 6.32624e-01 -2.62074e-01  8.84491e+00 
 5.26643e-01 -2.18017e-01  8.89191e+00 
 4.20950e-01 -1.74163e-01  8.93041e+00 
 3.15507e-01 -1.30479e-01  8.96037e+00 
 2.10234e-01 -8.69149e-02  8.98180e+00 
 1.05091e-01 -4.34383e-02  8.99465e+00 
 2.12157e-12 -2.10205e-11  8.99894e+00 
-1.05091e-01  4.34383e-02  8.99465e+00 
-2.10234e-01  8.69149e-02  8.98180e+00 
-3.15507e-01  1.30479e-01  8.96037e+00 
-4.20950e-01  1.74163e-01  8.93041e+00 
-5.26643e-01  2.18017e-01  8.89191e+00 
-6.32624e-01  2.62074e-01  8.84491e+00 
-7.38973e-01  3.06384e-01  8.78944e+00 
-8.45726e-01  3.50978e-01  8.72555e+00 
-9.52963e-01  3.95908e-01  8.65327e+00 
-1.06072e+00  4.41203e-01  8.57266e+00 
-1.16906e+00  4.86913e-01  8.48376e+00 
-1.27804e+00  5.33069e-01  8.38667e+00 
-1.38771e+00  5.79719e-01  8.28144e+00 
-1.49811e+00  6.26890e-01  8.16816e+00 
-1.60931e+00  6.74630e-01  8.04690e+00 
-1.72133e+00  7.22963e-01  7.91778e+00 
-1.83423e+00  7.71933e-01  7.78089e+00 
-1.94803e+00  8.21562e-01  7.63636e+00 
-2.06279e+00  8.71889e-01  7.48428e+00 
-2.17852e+00  9.22931e-01  7.32482e+00 
-2.29526e+00  9.74720e-01  7.15808e+00 
-2.41300e+00  1.02727e+00  6.98423e+00 
-2.53179e+00  1.08060e+00  6.80340e+00 
-2.65161e+00  1.13471e+00  6.61579e+00 
-2.77249e+00  1.18962e+00  6.42151e+00 
-2.89438e+00  1.24533e+00  6.22079e+00 
-3.01730e+00  1.30182e+00  6.01376e+00 
-3.14120e+00  1.35908e+00  5.80065e+00 
-3.26606e+00  1.41710e+00  5.58158e+00 
-3.39181e+00  1.47583e+00  5.35680e+00 
-3.51843e+00  1.53526e+00  5.12644e+00 
-3.64581e+00  1.59531e+00  4.89073e+00 
-3.77391e+00  1.65596e+00  4.64980e+00 
-3.90261e+00  1.71710e+00  4.40385e+00 
-4.03183e+00  1.77870e+00  4.15301e+00 
-4.16143e+00  1.84064e+00  3.89746e+00 
-4.29131e+00  1.90284e+00  3.63729e+00 
-4.42132e+00  1.96518e+00  3.37267e+00 
-4.55133e+00  2.02757e+00  3.10362e+00 
-4.68116e+00  2.08987e+00  2.83028e+00 
-4.81068e+00  2.15197e+00  2.55262e+00 
-4.93970e+00  2.21370e+00  2.27073e+00 
-5.06806e+00  2.27496e+00  1.98453e+00 
-5.19556e+00  2.33557e+00  1.69403e+00 
-5.32205e+00  2.39540e+00  1.39908e+00 
-5.44733e+00  2.45430e+00  1.09963e+00 
-5.57123e+00  2.51213e+00  7.95455e-01 
-5.69357e+00  2.56873e+00  4.86446e-01 
-5.81423e+00  2.61614e+00  7.78728e-02 
 5.37026e+00 -2.41697e+00  7.34422e-02 
 5.25639e+00 -2.37186e+00  4.68468e-01 
 5.14037e+00 -2.31766e+00  7.68317e-01 
 5.02238e+00 -2.26192e+00  1.06444e+00 
 4.90269e+00 -2.20486e+00  1.35696e+00 
 4.78153e+00 -2.14668e+00  1.64611e+00 
 4.65920e+00 -2.08760e+00  1.93194e+00 
 4.53590e+00 -2.02781e+00  2.21458e+00 
 4.41191e+00 -1.96753e+00  2.49397e+00 
 4.28745e+00 -1.90693e+00  2.77014e+00 
 4.16277e+00 -1.84620e+00  3.04298e+00 
 4.03804e+00 -1.78550e+00  3.31242e+00 
 3.91351e+00 -1.72500e+00  3.57828e+00 
 3.78932e+00 -1.66482e+00  3.84043e+00 
 3.66568e+00 -1.60510e+00  4.09863e+00 
 3.54271e+00 -1.54595e+00  4.35273e+00 
 3.42056e+00 -1.48747e+00  4.60244e+00 
 3.29934e+00 -1.42973e+00  4.84758e+00 
 3.17916e+00 -1.37281e+00  5.08785e+00 
 3.06010e+00 -1.31676e+00  5.32306e+00 
 2.94224e+00 -1.26164e+00  5.55289e+00 
 2.82561e+00 -1.20746e+00  5.77716e+00 
 2.71028e+00 -1.15425e+00  5.99557e+00 
 2.59625e+00 -1.10201e+00  6.20792e+00 
 2.48357e+00 -1.05076e+00  6.41395e+00 
 2.37220e+00 -1.00047e+00  6.61347e+00 
 2.26218e+00 -9.51152e-01  6.80623e+00 
 2.15345e+00 -9.02763e-01  6.99208e+00 
 2.04603e+00 -8.55292e-01  7.17078e+00 
 1.93985e+00 -8.08700e-01  7.34219e+00 
 1.83490e+00 -7.62961e-01  7.50613e+00 
 1.73113e+00 -7.18032e-01  7.66246e+00 
 1.62850e+00 -6.73881e-01  7.81102e+00 
 1.52693e+00 -6.30460e-01  7.95171e+00 
 1.42641e+00 -5.87735e-01  8.08438e+00 
 1.32685e+00 -5.45654e-01  8.20895e+00 
 1.22822e+00 -5.04182e-01  8.32529e+00 
 1.13042e+00 -4.63266e-01  8.43335e+00 
 1.03343e+00 -4.22870e-01  8.53302e+00 
 9.37154e-01 -3.82941e-01  8.62425e+00 
 8.41549e-01 -3.43443e-01  8.70696e+00 
 7.46531e-01 -3.04325e-01  8.78111e+00 
 6.52054e-01 -2.65549e-01  8.84664e+00 
 5.58034e-01 -2.27066e-01  8.90351e+00 
 4.64422e-01 -1.88839e-01  8.95169e+00 
 3.71134e-01 -1.50818e-01  8.99115e+00 
 2.78121e-01 -1.12969e-01  9.02187e+00 
 1.85299e-01 -7.52416e-02  9.04382e+00 
 9.26197e-02 -3.76013e-02  9.05700e+00 
 5.09281e-12 -2.34020e-11  9.06139e+00 
-9.26197e-02  3.76013e-02  9.05700e+00 
-1.85299e-01  7.52416e-02  9.04382e+00 
-2.78121e-01  1.12969e-01  9.02187e+00 
-3.71134e-01  1.50818e-01  8.99115e+00 
-4.64422e-01  1.88839e-01  8.95169e+00 
-5.58034e-01  2.27066e-01  8.90351e+00 
-6.52054e-01  2.65549e-01  8.84664e+00 
-7.46531e-01  3.04325e-01  8.78111e+00 
-8.41549e-01  3.43443e-01  8.70696e+00 
-9.37154e-01  3.82941e-01  8.62425e+00 
-1.03343e+00  4.22870e-01  8.53302e+00 
-1.13042e+00  4.63266e-01  8.43335e+00 
-1.22822e+00  5.04182e-01  8.32529e+00 
-1.32685e+00  5.45654e-01  8.20895e+00 
-1.42641e+00  5.87735e-01  8.08438e+00 
-1.52693e+00  6.30460e-01  7.95171e+00 
-1.62850e+00  6.73881e-01  7.81102e+00 
-1.73113e+00  7.18032e-01  7.66246e+00 
-1.83490e+00  7.62961e-01  7.50613e+00 
-1.93985e+00  8.08700e-01  7.34219e+00 
-2.04603e+00  8.55292e-01  7.17078e+00 
-2.15345e+00  9.02763e-01  6.99208e+00 
-2.26218e+00  9.51152e-01  6.80623e+00 
-2.37220e+00  1.00047e+00  6.61347e+00 
-2.48357e+00  1.05076e+00  6.41395e+00 
-2.59625e+00  1.10201e+00  6.20792e+00 
-2.71028e+00  1.15425e+00  5.99557e+00 
-2.82561e+00  1.20746e+00  5.77716e+00 
-2.94224e+00  1.26164e+00  5.55289e+00 
-3.06010e+00  1.31676e+00  5.32306e+00 
-3.17916e+00  1.37281e+00  5.08785e+00 
-3.29934e+00  1.42973e+00  4.84758e+00 
-3.42056e+00  1.48747e+00  4.60244e+00 
-3.54271e+00  1.54595e+00  4.35273e+00 
-3.66568e+00  1.60510e+00  4.09863e+00 
-3.78932e+00  1.66482e+00  3.84043e+00 
-3.91351e+00  1.72500e+00  3.57828e+00 
-4.03804e+00  1.78550e+00  3.31242e+00 
-4.16277e+00  1.84620e+00  3.04298e+00 
-4.28745e+00  1.90693e+00  2.77014e+00 
-4.41191e+00  1.96753e+00  2.49397e+00 
-4.53590e+00  2.02781e+00  2.21458e+00 
-4.65920e+00  2.08760e+00  1.93194e+00 
-4.78153e+00  2.14668e+00  1.64611e+00 
-4.90269e+00  2.20486e+00  1.35696e+00 
-5.02238e+00  2.26192e+00  1.06444e+00 
-5.14037e+00  2.31766e+00  7.68317e-01 
-5.25639e+00  2.37186e+00  4.68468e-01 
-5.37026e+00  2.41697e+00  7.34422e-02 
 4.94346e+00 -2.22555e+00  6.71766e-02 
 4.83460e+00 -2.18196e+00  4.44837e-01 
 4.72304e+00 -2.12920e+00  7.33205e-01 
 4.60905e+00 -2.07455e+00  1.01945e+00 
 4.49302e+00 -2.01833e+00  1.30370e+00 
 4.37529e+00 -1.96082e+00  1.58617e+00 
 4.25625e+00 -1.90234e+00  1.86688e+00 
 4.13623e+00 -1.84315e+00  2.14589e+00 
 4.01558e+00 -1.78354e+00  2.42309e+00 
 3.89460e+00 -1.72374e+00  2.69840e+00 
 3.77361e+00 -1.66400e+00  2.97161e+00 
 3.65287e+00 -1.60451e+00  3.24253e+00 
 3.53266e+00 -1.54549e+00  3.51087e+00 
 3.41318e+00 -1.48709e+00  3.77639e+00 
 3.29466e+00 -1.42946e+00  4.03870e+00 
 3.17725e+00 -1.37272e+00  4.29754e+00 
 3.06113e+00 -1.31698e+00  4.55251e+00 
 2.94639e+00 -1.26230e+00  4.80330e+00 
 2.83318e+00 -1.20876e+00  5.04952e+00 
 2.72153e+00 -1.15638e+00  5.29086e+00 
 2.61155e+00 -1.10522e+00  5.52693e+00 
 2.50323e+00 -1.05526e+00  5.75746e+00 
 2.39663e+00 -1.00651e+00  5.98208e+00 
 2.29173e+00 -9.58955e-01  6.20054e+00 
 2.18854e+00 -9.12578e-01  6.41251e+00 
 2.08702e+00 -8.67340e-01  6.61778e+00 
 1.98715e+00 -8.23211e-01  6.81605e+00 
 1.88888e+00 -7.80142e-01  7.00715e+00 
 1.79218e+00 -7.38093e-01  7.19083e+00 
 1.69697e+00 -6.97008e-01  7.36693e+00 
 1.60320e+00 -6.56842e-01  7.53525e+00 
 1.51081e+00 -6.17534e-01  7.69567e+00 
 1.41972e+00 -5.79040e-01  7.84802e+00 
 1.32987e+00 -5.41297e-01  7.99219e+00 
 1.24118e+00 -5.04259e-01  8.12806e+00 
 1.15358e+00 -4.67867e-01  8.25554e+00 
 1.06699e+00 -4.32077e-01  8.37453e+00 
 9.81342e-01 -3.96830e-01  8.48498e+00 
 8.96564e-01 -3.62085e-01  8.58679e+00 
 8.12567e-01 -3.27786e-01  8.67992e+00 
 7.29294e-01 -2.93895e-01  8.76431e+00 
 6.46655e-01 -2.60359e-01  8.83993e+00 
 5.64592e-01 -2.27141e-01  8.90673e+00 
 4.83017e-01 -1.94194e-01  8.96468e+00 
 4.01873e-01 -1.61481e-01  9.01376e+00 
 3.21074e-01 -1.28956e-01  9.05394e+00 
 2.40564e-01 -9.65863e-02  9.08521e+00 
 1.60256e-01 -6.43269e-02  9.10756e+00 
 8.00959e-02 -3.21459e-02  9.12096e+00 
 5.70864e-12 -2.29361e-11  9.12543e+00 
-8.00959e-02  3.21459e-02  9.12096e+00 
-1.60256e-01  6.43269e-02  9.10756e+00 
-2.40564e-01  9.65863e-02  9.08521e+00 
-3.21074e-01  1.28956e-01  9.05394e+00 
-4.01873e-01  1.61481e-01  9.01376e+00 
-4.83017e-01  1.94194e-01  8.96468e+00 
-5.64592e-01  2.27141e-01  8.90673e+00 
-6.46655e-01  2.60359e-01  8.83993e+00 
-7.29294e-01  2.93895e-01  8.76431e+00 
-8.12567e-01  3.27786e-01  8.67992e+00 
-8.96564e-01  3.62085e-01  8.58679e+00 
-9.81342e-01  3.96830e-01  8.48498e+00 
-1.06699e+00  4.32077e-01  8.37453e+00 
-1.15358e+00  4.67867e-01  8.25554e+00 
-1.24118e+00  5.04259e-01  8.12806e+00 
-1.32987e+00  5.41297e-01  7.99219e+00 
-1.41972e+00  5.79040e-01  7.84802e+00 
-1.51081e+00  6.17534e-01  7.69567e+00 
-1.60320e+00  6.56842e-01  7.53525e+00 
-1.69697e+00  6.97008e-01  7.36693e+00 
-1.79218e+00  7.38093e-01  7.19083e+00 
-1.88888e+00  7.80142e-01  7.00715e+00 
-1.98715e+00  8.23211e-01  6.81605e+00 
-2.08702e+00  8.67340e-01  6.61778e+00 
-2.18854e+00  9.12578e-01  6.41251e+00 
-2.29173e+00  9.58955e-01  6.20054e+00 
-2.39663e+00  1.00651e+00  5.98208e+00 
-2.50323e+00  1.05526e+00  5.75746e+00 
-2.61155e+00  1.10522e+00  5.52693e+00 
-2.72153e+00  1.15638e+00  5.29086e+00 
-2.83318e+00  1.20876e+00  5.04952e+00 
-2.94639e+00  1.26230e+00  4.80330e+00 
-3.06113e+00  1.31698e+00  4.55251e+00 
-3.17725e+00  1.37272e+00  4.29754e+00 
-3.29466e+00  1.42946e+00  4.03870e+00 
-3.41318e+00  1.48709e+00  3.77639e+00 
-3.53266e+00  1.54549e+00  3.51087e+00 
-3.65287e+00  1.60451e+00  3.24253e+00 
-3.77361e+00  1.66400e+00  2.97161e+00 
-3.89460e+00  1.72374e+00  2.69840e+00 
-4.01558e+00  1.78354e+00  2.42309e+00 
-4.13623e+00  1.84315e+00  2.14589e+00 
-4.25625e+00  1.90234e+00  1.86688e+00 
-4.37529e+00  1.96082e+00  1.58617e+00 
-4.49302e+00  2.01833e+00  1.30370e+00 
-4.60905e+00  2.07455e+00  1.01945e+00 
-4.72304e+00  2.12920e+00  7.33205e-01 
-4.83460e+00  2.18196e+00  4.44837e-01 
-4.94346e+00  2.22555e+00  6.71766e-02 
 4.53865e+00 -2.04398e+00  5.83399e-02 
 4.43218e+00 -2.00079e+00  4.14065e-01 
 4.32239e+00 -1.94811e+00  6.88343e-01 
 4.20968e+00 -1.89318e+00  9.62828e-01 
 4.09462e+00 -1.83646e+00  1.23763e+00 
 3.97770e+00 -1.77837e+00  1.51289e+00 
 3.85947e+00 -1.71934e+00  1.78855e+00 
 3.74038e+00 -1.65974e+00  2.06452e+00 
 3.62091e+00 -1.59994e+00  2.34056e+00 
 3.50148e+00 -1.54026e+00  2.61641e+00 
 3.38250e+00 -1.48102e+00  2.89168e+00 
 3.26429e+00 -1.42245e+00  3.16599e+00 
 3.14719e+00 -1.36479e+00  3.43885e+00 
 3.03145e+00 -1.30821e+00  3.70982e+00 
 2.91733e+00 -1.25288e+00  3.97833e+00 
 2.80498e+00 -1.19890e+00  4.24392e+00 
 2.69459e+00 -1.14637e+00  4.50603e+00 
 2.58625e+00 -1.09532e+00  4.76420e+00 
 2.48006e+00 -1.04580e+00  5.01788e+00 
 2.37606e+00 -9.97800e-01  5.26667e+00 
 2.27428e+00 -9.51324e-01  5.51005e+00 
 2.17471e+00 -9.06330e-01  5.74767e+00 
 2.07735e+00 -8.62784e-01  5.97910e+00 
 1.98213e+00 -8.20625e-01  6.20403e+00 
 1.88904e+00 -7.79799e-01  6.42209e+00 
 1.79797e+00 -7.40232e-01  6.63303e+00 
 1.70888e+00 -7.01861e-01  6.83656e+00 
 1.62168e+00 -6.64604e-01  7.03247e+00 
 1.53628e+00 -6.28395e-01  7.22054e+00 
 1.45258e+00 -5.93152e-01  7.40061e+00 
 1.37051e+00 -5.58811e-01  7.57250e+00 
 1.28996e+00 -5.25293e-01  7.73609e+00 
 1.21084e+00 -4.92536e-01  7.89124e+00 
 1.13305e+00 -4.60468e-01  8.03788e+00 
 1.05651e+00 -4.29034e-01  8.17590e+00 
 9.81109e-01 -3.98166e-01  8.30524e+00 
 9.06781e-01 -3.67817e-01  8.42582e+00 
 8.33419e-01 -3.37926e-01  8.53763e+00 
 7.60954e-01 -3.08450e-01  8.64058e+00 
 6.89286e-01 -2.79337e-01  8.73467e+00 
 6.18350e-01 -2.50550e-01  8.81985e+00 
 5.48051e-01 -2.22042e-01  8.89612e+00 
 4.78328e-01 -1.93780e-01  8.96344e+00 
 4.09090e-01 -1.65725e-01  9.02181e+00 
 3.40278e-01 -1.37847e-01  9.07121e+00 
 2.71806e-01 -1.10109e-01  9.11165e+00 
 2.03618e-01 -8.24858e-02  9.14310e+00 
 1.35628e-01 -5.49436e-02  9.16557e+00 
 6.77824e-02 -2.74591e-02  9.17905e+00 
 2.83351e-12 -1.83244e-11  9.18354e+00 
-6.77824e-02  2.74591e-02  9.17905e+00 
-1.35628e-01  5.49436e-02  9.16557e+00 
-2.03618e-01  8.24858e-02  9.14310e+00 
-2.71806e-01  1.10109e-01  9.11165e+00 
-3.40278e-01  1.37847e-01  9.07121e+00 
-4.09090e-01  1.65725e-01  9.02181e+00 
-4.78328e-01  1.93780e-01  8.96344e+00 
-5.48051e-01  2.22042e-01  8.89612e+00 
-6.18350e-01  2.50550e-01  8.81985e+00 
-6.89286e-01  2.79337e-01  8.73467e+00 
-7.60954e-01  3.08450e-01  8.64058e+00 
-8.33419e-01  3.37926e-01  8.53763e+00 
-9.06781e-01  3.67817e-01  8.42582e+00 
-9.81109e-01  3.98166e-01  8.30524e+00 
-1.05651e+00  4.29034e-01  8.17590e+00 
-1.13305e+00  4.60468e-01  8.03788e+00 
-1.21084e+00  4.92536e-01  7.89124e+00 
-1.28996e+00  5.25293e-01  7.73609e+00 
-1.37051e+00  5.58811e-01  7.57250e+00 
-1.45258e+00  5.93152e-01  7.40061e+00 
-1.53628e+00  6.28395e-01  7.22054e+00 
-1.62168e+00  6.64604e-01  7.03247e+00 
-1.70888e+00  7.01861e-01  6.83656e+00 
-1.79797e+00  7.40232e-01  6.63303e+00 
-1.88904e+00  7.79799e-01  6.42209e+00 
-1.98213e+00  8.20625e-01  6.20403e+00 
-2.07735e+00  8.62784e-01  5.97910e+00 
-2.17471e+00  9.06330e-01  5.74767e+00 
-2.27428e+00  9.51324e-01  5.51005e+00 
-2.37606e+00  9.97800e-01  5.26667e+00 
-2.48006e+00  1.04580e+00  5.01788e+00 
-2.58625e+00  1.09532e+00  4.76420e+00 
-2.69459e+00  1.14637e+00  4.50603e+00 
-2.80498e+00  1.19890e+00  4.24392e+00 
-2.91733e+00  1.25288e+00  3.97833e+00 
-3.03145e+00  1.30821e+00  3.70982e+00 
-3.14719e+00  1.36479e+00  3.43885e+00 
-3.26429e+00  1.42245e+00  3.16599e+00 
-3.38250e+00  1.48102e+00  2.89168e+00 
-3.50148e+00  1.54026e+00  2.61641e+00 
-3.62091e+00  1.59994e+00  2.34056e+00 
-3.74038e+00  1.65974e+00  2.06452e+00 
-3.85947e+00  1.71934e+00  1.78855e+00 
-3.97770e+00  1.77837e+00  1.51289e+00 
-4.09462e+00  1.83646e+00  1.23763e+00 
-4.20968e+00  1.89318e+00  9.62828e-01 
-4.32239e+00  1.94811e+00  6.88343e-01 
-4.43218e+00  2.00079e+00  4.14065e-01 
-4.53865e+00  2.04398e+00  5.83399e-02 
 4.16160e+00 -1.87480e+00  4.58252e-02 
 4.05362e+00 -1.83033e+00  3.74305e-01 
 3.94166e+00 -1.77577e+00  6.31810e-01 
 3.82635e+00 -1.71867e+00  8.92960e-01 
 3.70849e+00 -1.65969e+00  1.15775e+00 
 3.58882e+00 -1.59944e+00  1.42616e+00 
 3.46809e+00 -1.53851e+00  1.69793e+00 
 3.34695e+00 -1.47744e+00  1.97272e+00 
 3.22605e+00 -1.41669e+00  2.24997e+00 
 3.10593e+00 -1.35669e+00  2.52916e+00 
 2.98711e+00 -1.29780e+00  2.80952e+00 
 2.86999e+00 -1.24030e+00  3.09039e+00 
 2.75496e+00 -1.18443e+00  3.37091e+00 
 2.64230e+00 -1.13036e+00  3.65036e+00 
 2.53225e+00 -1.07821e+00  3.92788e+00 
 2.42497e+00 -1.02804e+00  4.20275e+00 
 2.32058e+00 -9.79887e-01  4.47416e+00 
 2.21913e+00 -9.33729e-01  4.74147e+00 
 2.12065e+00 -8.89531e-01  5.00397e+00 
 2.02511e+00 -8.47218e-01  5.26112e+00 
 1.93248e+00 -8.06714e-01  5.51232e+00 
 1.84265e+00 -7.67912e-01  5.75713e+00 
 1.75555e+00 -7.30713e-01  5.99509e+00 
 1.67106e+00 -6.94995e-01  6.22586e+00 
 1.58907e+00 -6.60651e-01  6.44907e+00 
 1.50943e+00 -6.27559e-01  6.66449e+00 
 1.43202e+00 -5.95613e-01  6.87183e+00 
 1.35671e+00 -5.64697e-01  7.07094e+00 
 1.28336e+00 -5.34714e-01  7.26161e+00 
 1.21183e+00 -5.05559e-01  7.44375e+00 
 1.14201e+00 -4.77146e-01  7.61720e+00 
 1.07375e+00 -4.49384e-01  7.78193e+00 
 1.00696e+00 -4.22200e-01  7.93782e+00 
 9.41495e-01 -3.95516e-01  8.08486e+00 
 8.77265e-01 -3.69272e-01  8.22298e+00 
 8.14150e-01 -3.43404e-01  8.35219e+00 
 7.52062e-01 -3.17863e-01  8.47244e+00 
 6.90894e-01 -2.92599e-01  8.58376e+00 
 6.30567e-01 -2.67573e-01  8.68612e+00 
 5.70983e-01 -2.42744e-01  8.77954e+00 
 5.12072e-01 -2.18085e-01  8.86401e+00 
 4.53745e-01 -1.93561e-01  8.93956e+00 
 3.95938e-01 -1.69154e-01  9.00618e+00 
 3.38570e-01 -1.44837e-01  9.06390e+00 
 2.81582e-01 -1.20596e-01  9.11271e+00 
 2.24898e-01 -9.64115e-02  9.15264e+00 
 1.68464e-01 -7.22732e-02  9.18368e+00 
 1.12206e-01 -4.81642e-02  9.20585e+00 
 5.60750e-02 -2.40780e-02  9.21915e+00 
 7.74945e-12 -2.42722e-11  9.22358e+00 
-5.60750e-02  2.40780e-02  9.21915e+00 
-1.12206e-01  4.81642e-02  9.20585e+00 
-1.68464e-01  7.22732e-02  9.18368e+00 
-2.24898e-01  9.64115e-02  9.15264e+00 
-2.81582e-01  1.20596e-01  9.11271e+00 
-3.38570e-01  1.44837e-01  9.06390e+00 
-3.95938e-01  1.69154e-01  9.00618e+00 
-4.53745e-01  1.93561e-01  8.93956e+00 
-5.12072e-01  2.18085e-01  8.86401e+00 
-5.70983e-01  2.42744e-01  8.77954e+00 
-6.30567e-01  2.67573e-01  8.68612e+00 
-6.90894e-01  2.92599e-01  8.58376e+00 
-7.52062e-01  3.17863e-01  8.47244e+00 
-8.14150e-01  3.43404e-01  8.35219e+00 
-8.77265e-01  3.69272e-01  8.22298e+00 
-9.41495e-01  3.95516e-01  8.08486e+00 
-1.00696e+00  4.22200e-01  7.93782e+00 
-1.07375e+00  4.49384e-01  7.78193e+00 
-1.14201e+00  4.77146e-01  7.61720e+00 
-1.21183e+00  5.05559e-01  7.44375e+00 
-1.28336e+00  5.34714e-01  7.26161e+00 
-1.35671e+00  5.64697e-01  7.07094e+00 
-1.43202e+00  5.95613e-01  6.87183e+00 
-1.50943e+00  6.27559e-01  6.66449e+00 
-1.58907e+00  6.60651e-01  6.44907e+00 
-1.67106e+00  6.94995e-01  6.22586e+00 
-1.75555e+00  7.30713e-01  5.99509e+00 
-1.84265e+00  7.67912e-01  5.75713e+00 
-1.93248e+00  8.06714e-01  5.51232e+00 
-2.02511e+00  8.47218e-01  5.26112e+00 
-2.12065e+00  8.89531e-01  5.00397e+00 
-2.21913e+00  9.33729e-01  4.74147e+00 
-2.32058e+00  9.79887e-01  4.47416e+00 
-2.42497e+00  1.02804e+00  4.20275e+00 
-2.53225e+00  1.07821e+00  3.92788e+00 
-2.64230e+00  1.13036e+00  3.65036e+00 
-2.75496e+00  1.18443e+00  3.37091e+00 
-2.86999e+00  1.24030e+00  3.09039e+00 
-2.98711e+00  1.29780e+00  2.80952e+00 
-3.10593e+00  1.35669e+00  2.52916e+00 
-3.22605e+00  1.41669e+00  2.24997e+00 
-3.34695e+00  1.47744e+00  1.97272e+00 
-3.46809e+00  1.53851e+00  1.69793e+00 
-3.58882e+00  1.59944e+00  1.42616e+00 
-3.70849e+00  1.65969e+00  1.15775e+00 
-3.82635e+00  1.71867e+00  8.92960e-01 
-3.94166e+00  1.77577e+00  6.31810e-01 
-4.05362e+00  1.83033e+00  3.74305e-01 
-4.16160e+00  1.87480e+00  4.58252e-02 
 3.81912e+00 -1.72083e+00  2.77017e-02 
 3.70372e+00 -1.67256e+00  3.23153e-01 
 3.58379e+00 -1.61332e+00  5.61682e-01 
 3.46027e+00 -1.55141e+00  8.08929e-01 
 3.33432e+00 -1.48787e+00  1.06471e+00 
 3.20706e+00 -1.42359e+00  1.32861e+00 
 3.07955e+00 -1.35940e+00  1.59990e+00 
 2.95269e+00 -1.29600e+00  1.87774e+00 
 2.82735e+00 -1.23402e+00  2.16102e+00 
 2.70422e+00 -1.17393e+00  2.44864e+00 
 2.58392e+00 -1.11615e+00  2.73927e+00 
 2.46691e+00 -1.06093e+00  3.03167e+00 
 2.35360e+00 -1.00846e+00  3.32446e+00 
 2.24420e+00 -9.58790e-01  3.61644e+00 
 2.13890e+00 -9.11942e-01  3.90633e+00 
 2.03774e+00 -8.67840e-01  4.19310e+00 
 1.94072e+00 -8.26379e-01  4.47566e+00 
 1.84774e+00 -7.87402e-01  4.75318e+00 
 1.75871e+00 -7.50742e-01  5.02481e+00 
 1.67343e+00 -7.16204e-01  5.28993e+00 
 1.59175e+00 -6.83598e-01  5.54791e+00 
 1.51344e+00 -6.52720e-01  5.79831e+00 
 1.43830e+00 -6.23381e-01  6.04069e+00 
 1.36611e+00 -5.95391e-01  6.27478e+00 
 1.29666e+00 -5.68577e-01  6.50026e+00 
 1.22972e+00 -5.42769e-01  6.71700e+00 
 1.16512e+00 -5.17819e-01  6.92479e+00 
 1.10264e+00 -4.93584e-01  7.12358e+00 
 1.04212e+00 -4.69942e-01  7.31325e+00 
 9.83358e-01 -4.46776e-01  7.49381e+00 
 9.26216e-01 -4.23989e-01  7.66519e+00 
 8.70529e-01 -4.01492e-01  7.82744e+00 
 8.16169e-01 -3.79209e-01  7.98053e+00 
 7.62995e-01 -3.57074e-01  8.12454e+00 
 7.10900e-01 -3.35033e-01  8.25947e+00 
 6.59761e-01 -3.13038e-01  8.38539e+00 
 6.09490e-01 -2.91053e-01  8.50233e+00 
 5.59981e-01 -2.69046e-01  8.61036e+00 
 5.11159e-01 -2.46996e-01  8.70951e+00 
 4.62936e-01 -2.24884e-01  8.79985e+00 
 4.15247e-01 -2.02702e-01  8.88141e+00 
 3.68015e-01 -1.80440e-01  8.95426e+00 
 3.21188e-01 -1.58101e-01  9.01842e+00 
 2.74696e-01 -1.35682e-01  9.07395e+00 
 2.28493e-01 -1.13192e-01  9.12087e+00 
 1.82519e-01 -9.06357e-02  9.15922e+00 
 1.36734e-01 -6.80274e-02  9.18902e+00 
 9.10791e-02 -4.53748e-02  9.21029e+00 
 4.55189e-02 -2.26955e-02  9.22305e+00 
 9.46466e-12 -3.00647e-11  9.22730e+00 
-4.55189e-02  2.26955e-02  9.22305e+00 
-9.10791e-02  4.53748e-02  9.21029e+00 
-1.36734e-01  6.80274e-02  9.18902e+00 
-1.82519e-01  9.06357e-02  9.15922e+00 
-2.28493e-01  1.13192e-01  9.12087e+00 
-2.74696e-01  1.35682e-01  9.07395e+00 
-3.21188e-01  1.58101e-01  9.01842e+00 
-3.68015e-01  1.80440e-01  8.95426e+00 
-4.15247e-01  2.02702e-01  8.88141e+00 
-4.62936e-01  2.24884e-01  8.79985e+00 
-5.11159e-01  2.46996e-01  8.70951e+00 
-5.59981e-01  2.69046e-01  8.61036e+00 
-6.09490e-01  2.91053e-01  8.50233e+00 
-6.59761e-01  3.13038e-01  8.38539e+00 
-7.10900e-01  3.35033e-01  8.25947e+00 
-7.62995e-01  3.57074e-01  8.12454e+00 
-8.16169e-01  3.79209e-01  7.98053e+00 
-8.70529e-01  4.01492e-01  7.82744e+00 
-9.26216e-01  4.23989e-01  7.66519e+00 
-9.83358e-01  4.46776e-01  7.49381e+00 
-1.04212e+00  4.69942e-01  7.31325e+00 
-1.10264e+00  4.93584e-01  7.12358e+00 
-1.16512e+00  5.17819e-01  6.92479e+00 
-1.22972e+00  5.42769e-01  6.71700e+00 
-1.29666e+00  5.68577e-01  6.50026e+00 
-1.36611e+00  5.95391e-01  6.27478e+00 
-1.43830e+00  6.23381e-01  6.04069e+00 
-1.51344e+00  6.52720e-01  5.79831e+00 
-1.59175e+00  6.83598e-01  5.54791e+00 
-1.67343e+00  7.16204e-01  5.28993e+00 
-1.75871e+00  7.50742e-01  5.02481e+00 
-1.84774e+00  7.87402e-01  4.75318e+00 
-1.94072e+00  8.26379e-01  4.47566e+00 
-2.03774e+00  8.67840e-01  4.19310e+00 
-2.13890e+00  9.11942e-01  3.90633e+00 
-2.24420e+00  9.58790e-01  3.61644e+00 
-2.35360e+00  1.00846e+00  3.32446e+00 
-2.46691e+00  1.06093e+00  3.03167e+00 
-2.58392e+00  1.11615e+00  2.73927e+00 
-2.70422e+00  1.17393e+00  2.44864e+00 
-2.82735e+00  1.23402e+00  2.16102e+00 
-2.95269e+00  1.29600e+00  1.87774e+00 
-3.07955e+00  1.35940e+00  1.59990e+00 
-3.20706e+00  1.42359e+00  1.32861e+00 
-3.33432e+00  1.48787e+00  1.06471e+00 
-3.46027e+00  1.55141e+00  8.08929e-01 
-3.58379e+00  1.61332e+00  5.61682e-01 
-3.70372e+00  1.67256e+00  3.23153e-01 
-3.81912e+00  1.72083e+00  2.77017e-02 
 3.51871e+00 -1.58498e+00  6.22697e-04 
 3.38682e+00 -1.52917e+00  2.57558e-01 
 3.25024e+00 -1.46094e+00  4.76403e-01 
 3.11019e+00 -1.39064e+00  7.12149e-01 
 2.96875e+00 -1.31974e+00  9.63523e-01 
 2.82749e+00 -1.24952e+00  1.22931e+00 
 2.68787e+00 -1.18113e+00  1.50793e+00 
 2.55111e+00 -1.11554e+00  1.79756e+00 
 2.41836e+00 -1.05346e+00  2.09601e+00 
 2.29049e+00 -9.95396e-01  2.40101e+00 
 2.16819e+00 -9.41600e-01  2.71016e+00 
 2.05186e+00 -8.92133e-01  3.02125e+00 
 1.94173e+00 -8.46916e-01  3.33211e+00 
 1.83780e+00 -8.05736e-01  3.64091e+00 
 1.73996e+00 -7.68316e-01  3.94593e+00 
 1.64798e+00 -7.34313e-01  4.24583e+00 
 1.56157e+00 -7.03371e-01  4.53938e+00 
 1.48036e+00 -6.75113e-01  4.82567e+00 
 1.40399e+00 -6.49175e-01  5.10387e+00 
 1.33204e+00 -6.25204e-01  5.37346e+00 
 1.26415e+00 -6.02872e-01  5.63393e+00 
 1.19993e+00 -5.81870e-01  5.88501e+00 
 1.13904e+00 -5.61924e-01  6.12641e+00 
 1.08111e+00 -5.42782e-01  6.35807e+00 
 1.02586e+00 -5.24224e-01  6.57985e+00 
 9.72975e-01 -5.06055e-01  6.79179e+00 
 9.22210e-01 -4.88108e-01  6.99388e+00 
 8.73311e-01 -4.70237e-01  7.18622e+00 
 8.26071e-01 -4.52321e-01  7.36886e+00 
 7.80285e-01 -4.34258e-01  7.54194e+00 
 7.35787e-01 -4.15965e-01  7.70554e+00 
 6.92411e-01 -3.97375e-01  7.85982e+00 
 6.50025e-01 -3.78437e-01  8.00489e+00 
 6.08496e-01 -3.59113e-01  8.14089e+00 
 5.67723e-01 -3.39377e-01  8.26793e+00 
 5.27599e-01 -3.19212e-01  8.38616e+00 
 4.88046e-01 -2.98615e-01  8.49567e+00 
 4.48979e-01 -2.77586e-01  8.59661e+00 
 4.10338e-01 -2.56136e-01  8.68906e+00 
 3.72056e-01 -2.34278e-01  8.77314e+00 
 3.34088e-01 -2.12038e-01  8.84892e+00 
 2.96379e-01 -1.89438e-01  8.91651e+00 
 2.58895e-01 -1.66512e-01  8.97596e+00 
 2.21592e-01 -1.43290e-01  9.02735e+00 
 1.84445e-01 -1.19813e-01  9.07074e+00 
 1.47415e-01 -9.61159e-02  9.10617e+00 
 1.10483e-01 -7.22444e-02  9.13368e+00 
 7.36162e-02 -4.82369e-02  9.15332e+00 
 3.67984e-02 -2.41419e-02  9.16509e+00 
 7.65046e-12 -2.93881e-11  9.16901e+00 
-3.67984e-02  2.41419e-02  9.16509e+00 
-7.36162e-02  4.82369e-02  9.15332e+00 
-1.10483e-01  7.22444e-02  9.13368e+00 
-1.47415e-01  9.61159e-02  9.10617e+00 
-1.84445e-01  1.19813e-01  9.07074e+00 
-2.21592e-01  1.43290e-01  9.02735e+00 
-2.58895e-01  1.66512e-01  8.97596e+00 
-2.96379e-01  1.89438e-01  8.91651e+00 
-3.34088e-01  2.12038e-01  8.84892e+00 
-3.72056e-01  2.34278e-01  8.77314e+00 
-4.10338e-01  2.56136e-01  8.68906e+00 
-4.48979e-01  2.77586e-01  8.59661e+00 
-4.88046e-01  2.98615e-01  8.49567e+00 
-5.27599e-01  3.19212e-01  8.38616e+00 
-5.67723e-01  3.39377e-01  8.26793e+00 
-6.08496e-01  3.59113e-01  8.14089e+00 
-6.50025e-01  3.78437e-01  8.00489e+00 
-6.92411e-01  3.97375e-01  7.85982e+00 
-7.35787e-01  4.15965e-01  7.70554e+00 
-7.80285e-01  4.34258e-01  7.54194e+00 
-8.26071e-01  4.52321e-01  7.36886e+00 
-8.73311e-01  4.70237e-01  7.18622e+00 
-9.22210e-01  4.88108e-01  6.99388e+00 
-9.72975e-01  5.06055e-01  6.79179e+00 
-1.02586e+00  5.24224e-01  6.57985e+00 
-1.08111e+00  5.42782e-01  6.35807e+00 
-1.13904e+00  5.61924e-01  6.12641e+00 
-1.19993e+00  5.81870e-01  5.88501e+00 
-1.26415e+00  6.02872e-01  5.63393e+00 
-1.33204e+00  6.25204e-01  5.37346e+00 
-1.40399e+00  6.49175e-01  5.10387e+00 
-1.48036e+00  6.75113e-01  4.82567e+00 
-1.56157e+00  7.03371e-01  4.53938e+00 
-1.64798e+00  7.34313e-01  4.24583e+00 
-1.73996e+00  7.68316e-01  3.94593e+00 
-1.83780e+00  8.05736e-01  3.64091e+00 
-1.94173e+00  8.46916e-01  3.33211e+00 
-2.05186e+00  8.92133e-01  3.02125e+00 
-2.16819e+00  9.41600e-01  2.71016e+00 
-2.29049e+00  9.95396e-01  2.40101e+00 
-2.41836e+00  1.05346e+00  2.09601e+00 
-2.55111e+00  1.11554e+00  1.79756e+00 
-2.68787e+00  1.18113e+00  1.50793e+00 
-2.82749e+00  1.24952e+00  1.22931e+00 
-2.96875e+00  1.31974e+00  9.63523e-01 
-3.11019e+00  1.39064e+00  7.12149e-01 
-3.25024e+00  1.46094e+00  4.76403e-01 
-3.38682e+00  1.52917e+00  2.57558e-01 
-3.51871e+00  1.58498e+00  6.22697e-04 
 3.26810e+00 -1.46998e+00 -4.22586e-02 
 3.10509e+00 -1.39966e+00  1.72563e-01 
 2.93774e+00 -1.31673e+00  3.77429e-01 
 2.76965e+00 -1.23328e+00  6.09919e-01 
 2.60253e+00 -1.15179e+00  8.68979e-01 
 2.43862e+00 -1.07455e+00  1.15217e+00 
 2.28037e+00 -1.00328e+00  1.45570e+00 
 2.12983e+00 -9.39027e-01  1.77498e+00 
 1.98848e+00 -8.82219e-01  2.10514e+00 
 1.85712e+00 -8.32798e-01  2.44161e+00 
 1.73603e+00 -7.90381e-01  2.78023e+00 
 1.62504e+00 -7.54355e-01  3.11757e+00 
 1.52371e+00 -7.23997e-01  3.45070e+00 
 1.43136e+00 -6.98526e-01  3.77741e+00 
 1.34726e+00 -6.77169e-01  4.09588e+00 
 1.27059e+00 -6.59182e-01  4.40490e+00 
 1.20057e+00 -6.43876e-01  4.70348e+00 
 1.13642e+00 -6.30628e-01  4.99106e+00 
 1.07743e+00 -6.18879e-01  5.26722e+00 
 1.02293e+00 -6.08145e-01  5.53183e+00 
 9.72323e-01 -5.98003e-01  5.78479e+00 
 9.25058e-01 -5.88095e-01  6.02622e+00 
 8.80666e-01 -5.78117e-01  6.25624e+00 
 8.38715e-01 -5.67820e-01  6.47509e+00 
 7.98841e-01 -5.56996e-01  6.68297e+00 
 7.60713e-01 -5.45482e-01  6.88020e+00 
 7.24057e-01 -5.33147e-01  7.06701e+00 
 6.88623e-01 -5.19893e-01  7.24372e+00 
 6.54208e-01 -5.05646e-01  7.41059e+00 
 6.20628e-01 -4.90358e-01  7.56792e+00 
 5.87734e-01 -4.74001e-01  7.71594e+00 
 5.55391e-01 -4.56560e-01  7.85495e+00 
 5.23496e-01 -4.38040e-01  7.98514e+00 
 4.91948e-01 -4.18455e-01  8.10678e+00 
 4.60677e-01 -3.97831e-01  8.22005e+00 
 4.29612e-01 -3.76202e-01  8.32517e+00 
 3.98706e-01 -3.53612e-01  8.42228e+00 
 3.67909e-01 -3.30107e-01  8.51159e+00 
 3.37194e-01 -3.05745e-01  8.59322e+00 
 3.06526e-01 -2.80580e-01  8.66732e+00 
 2.75890e-01 -2.54680e-01  8.73400e+00 
 2.45263e-01 -2.28107e-01  8.79339e+00 
 2.14641e-01 -2.00934e-01  8.84556e+00 
 1.84010e-01 -1.73227e-01  8.89062e+00 
 1.53371e-01 -1.45064e-01  8.92862e+00 
 1.22716e-01 -1.16514e-01  8.95963e+00 
 9.20516e-02 -8.76578e-02  8.98370e+00 
 6.13731e-02 -5.85668e-02  9.00087e+00 
 3.06898e-02 -2.93233e-02  9.01116e+00 
 1.45141e-11 -3.60975e-11  9.01459e+00 
-3.06898e-02  2.93233e-02  9.01116e+00 
-6.13731e-02  5.85668e-02  9.00087e+00 
-9.20516e-02  8.76578e-02  8.98370e+00 
-1.22716e-01  1.16514e-01  8.95963e+00 
-1.53371e-01  1.45064e-01  8.92862e+00 
-1.84010e-01  1.73227e-01  8.89062e+00 
-2.14641e-01  2.00934e-01  8.84556e+00 
-2.45263e-01  2.28107e-01  8.79339e+00 
-2.75890e-01  2.54680e-01  8.73400e+00 
-3.06526e-01  2.80580e-01  8.66732e+00 
-3.37194e-01  3.05745e-01  8.59322e+00 
-3.67909e-01  3.30107e-01  8.51159e+00 
-3.98706e-01  3.53612e-01  8.42228e+00 
-4.29612e-01  3.76202e-01  8.32517e+00 
-4.60677e-01  3.97831e-01  8.22005e+00 
-4.91948e-01  4.18455e-01  8.10678e+00 
-5.23496e-01  4.38040e-01  7.98514e+00 
-5.55391e-01  4.56560e-01  7.85495e+00 
-5.87734e-01  4.74001e-01  7.71594e+00 
-6.20628e-01  4.90358e-01  7.56792e+00 
-6.54208e-01  5.05646e-01  7.41059e+00 
-6.88623e-01  5.19893e-01  7.24372e+00 
-7.24057e-01  5.33147e-01  7.06701e+00 
-7.60713e-01  5.45482e-01  6.88020e+00 
-7.98841e-01  5.56996e-01  6.68297e+00 
-8.38715e-01  5.67820e-01  6.47509e+00 
-8.80666e-01  5.78117e-01  6.25624e+00 
-9.25058e-01  5.88095e-01  6.02622e+00 
-9.72323e-01  5.98003e-01  5.78479e+00 
-1.02293e+00  6.08145e-01  5.53183e+00 
-1.07743e+00  6.18879e-01  5.26722e+00 
-1.13642e+00  6.30628e-01  4.99106e+00 
-1.20057e+00  6.43876e-01  4.70348e+00 
-1.27059e+00  6.59182e-01  4.40490e+00 
-1.34726e+00  6.77169e-01  4.09588e+00 
-1.43136e+00  6.98526e-01  3.77741e+00 
-1.52371e+00  7.23997e-01  3.45070e+00 
-1.62504e+00  7.54355e-01  3.11757e+00 
-1.73603e+00  7.90381e-01  2.78023e+00 
-1.85712e+00  8.32798e-01  2.44161e+00 
-1.98848e+00  8.82219e-01  2.10514e+00 
-2.12983e+00  9.39027e-01  1.77498e+00 
-2.28037e+00  1.00328e+00  1.45570e+00 
-2.43862e+00  1.07455e+00  1.15217e+00 
-2.60253e+00  1.15179e+00  8.68979e-01 
-2.76965e+00  1.23328e+00  6.09919e-01 
-2.93774e+00  1.31673e+00  3.77429e-01 
-3.10509e+00  1.39966e+00  1.72563e-01 
-3.26810e+00  1.46998e+00 -4.22586e-02 
 3.07178e+00 -1.37312e+00 -1.18324e-01 
 2.85280e+00 -1.28228e+00  6.52207e-02 
 2.63789e+00 -1.17261e+00  2.64487e-01 
 2.42099e+00 -1.06836e+00  5.20270e-01 
 2.20981e+00 -9.75759e-01  8.25130e-01 
 2.01151e+00 -8.97624e-01  1.16746e+00 
 1.83063e+00 -8.34582e-01  1.53444e+00 
 1.66906e+00 -7.85803e-01  1.91479e+00 
 1.52688e+00 -7.49728e-01  2.29924e+00 
 1.40300e+00 -7.24461e-01  2.68086e+00 
 1.29574e+00 -7.08055e-01  3.05450e+00 
 1.20315e+00 -6.98655e-01  3.41672e+00 
 1.12326e+00 -6.94581e-01  3.76515e+00 
 1.05421e+00 -6.94363e-01  4.09852e+00 
 9.94272e-01 -6.96733e-01  4.41607e+00 
 9.41929e-01 -7.00640e-01  4.71768e+00 
 8.95860e-01 -7.05200e-01  5.00345e+00 
 8.54910e-01 -7.09706e-01  5.27381e+00 
 8.18114e-01 -7.13581e-01  5.52923e+00 
 7.84642e-01 -7.16379e-01  5.77038e+00 
 7.53810e-01 -7.17744e-01  5.99787e+00 
 7.25037e-01 -7.17419e-01  6.21241e+00 
 6.97849e-01 -7.15205e-01  6.41460e+00 
 6.71849e-01 -7.10972e-01  6.60512e+00 
 6.46717e-01 -7.04630e-01  6.78454e+00 
 6.22185e-01 -6.96135e-01  6.95345e+00 
 5.98042e-01 -6.85468e-01  7.11233e+00 
 5.74112e-01 -6.72645e-01  7.26171e+00 
 5.50262e-01 -6.57693e-01  7.40200e+00 
 5.26378e-01 -6.40663e-01  7.53363e+00 
 5.02379e-01 -6.21616e-01  7.65694e+00 
 4.78197e-01 -6.00624e-01  7.77230e+00 
 4.53790e-01 -5.77770e-01  7.87998e+00 
 4.29117e-01 -5.53140e-01  7.98028e+00 
 4.04163e-01 -5.26827e-01  8.07344e+00 
 3.78909e-01 -4.98928e-01  8.15968e+00 
 3.53356e-01 -4.69543e-01  8.23921e+00 
 3.27500e-01 -4.38772e-01  8.31220e+00 
 3.01356e-01 -4.06722e-01  8.37881e+00 
 2.74929e-01 -3.73494e-01  8.43920e+00 
 2.48241e-01 -3.39199e-01  8.49348e+00 
 2.21306e-01 -3.03937e-01  8.54177e+00 
 1.94151e-01 -2.67821e-01  8.58415e+00 
 1.66794e-01 -2.30952e-01  8.62073e+00 
 1.39267e-01 -1.93443e-01  8.65155e+00 
 1.11591e-01 -1.55396e-01  8.67670e+00 
 8.37989e-02 -1.16923e-01  8.69621e+00 
 5.59147e-02 -7.81258e-02  8.71012e+00 
 2.79735e-02 -3.91179e-02  8.71846e+00 
 1.31586e-11 -3.50141e-11  8.72123e+00 
-2.79735e-02  3.91179e-02  8.71846e+00 
-5.59147e-02  7.81258e-02  8.71012e+00 
-8.37989e-02  1.16923e-01  8.69621e+00 
-1.11591e-01  1.55396e-01  8.67670e+00 
-1.39267e-01  1.93443e-01  8.65155e+00 
-1.66794e-01  2.30952e-01  8.62073e+00 
-1.94151e-01  2.67821e-01  8.58415e+00 
-2.21306e-01  3.03937e-01  8.54177e+00 
-2.48241e-01  3.39199e-01  8.49348e+00 
-2.74929e-01  3.73494e-01  8.43920e+00 
-3.01356e-01  4.06722e-01  8.37881e+00 
-3.27500e-01  4.38772e-01  8.31220e+00 
-3.53356e-01  4.69543e-01  8.23921e+00 
-3.78909e-01  4.98928e-01  8.15968e+00 
-4.04163e-01  5.26827e-01  8.07344e+00 
-4.29117e-01  5.53140e-01  7.98028e+00 
-4.53790e-01  5.77770e-01  7.87998e+00 
-4.78197e-01  6.00624e-01  7.77230e+00 
-5.02379e-01  6.21616e-01  7.65694e+00 
-5.26378e-01  6.40663e-01  7.53363e+00 
-5.50262e-01  6.57693e-01  7.40200e+00 
-5.74112e-01  6.72645e-01  7.26171e+00 
-5.98042e-01  6.85468e-01  7.11233e+00 
-6.22185e-01  6.96135e-01  6.95345e+00 
-6.46717e-01  7.04630e-01  6.78454e+00 
-6.71849e-01  7.10972e-01  6.60512e+00 
-6.97849e-01  7.15205e-01  6.41460e+00 
-7.25037e-01  7.17419e-01  6.21241e+00 
-7.53810e-01  7.17744e-01  5.99787e+00 
-7.84642e-01  7.16379e-01  5.77038e+00 
-8.18114e-01  7.13581e-01  5.52923e+00 
-8.54910e-01  7.09706e-01  5.27381e+00 
-8.95860e-01  7.05200e-01  5.00345e+00 
-9.41929e-01  7.00640e-01  4.71768e+00 
-9.94272e-01  6.96733e-01  4.41607e+00 
-1.05421e+00  6.94363e-01  4.09852e+00 
-1.12326e+00  6.94581e-01  3.76515e+00 
-1.20315e+00  6.98655e-01  3.41672e+00 
-1.29574e+00  7.08055e-01  3.05450e+00 
-1.40300e+00  7.24461e-01  2.68086e+00 
-1.52688e+00  7.49728e-01  2.29924e+00 
-1.66906e+00  7.85803e-01  1.91479e+00 
-1.83063e+00  8.34582e-01  1.53444e+00 
-2.01151e+00  8.97624e-01  1.16746e+00 
-2.20981e+00  9.75759e-01  8.25130e-01 
-2.42099e+00  1.06836e+00  5.20270e-01 
-2.63789e+00  1.17261e+00  2.64487e-01 
-2.85280e+00  1.28228e+00  6.52207e-02 
-3.07178e+00  1.37312e+00 -1.18324e-01 
 2.93988e+00 -1.30174e+00 -2.80682e-01 
 2.63239e+00 -1.14053e+00 -1.47119e-01 
 2.29574e+00 -9.88691e-01  1.57219e-01 
 1.98172e+00 -8.77100e-01  5.64039e-01 
 1.71145e+00 -8.02942e-01  1.02601e+00 
 1.48858e+00 -7.60309e-01  1.50788e+00 
 1.30946e+00 -7.42390e-01  1.98678e+00 
 1.16779e+00 -7.42933e-01  2.44916e+00 
 1.05690e+00 -7.56599e-01  2.88742e+00 
 9.70666e-01 -7.79049e-01  3.29811e+00 
 9.03827e-01 -8.06828e-01  3.68008e+00 
 8.52003e-01 -8.37278e-01  4.03387e+00 
 8.11662e-01 -8.68350e-01  4.36072e+00 
 7.79959e-01 -8.98539e-01  4.66246e+00 
 7.54656e-01 -9.26715e-01  4.94098e+00 
 7.33982e-01 -9.52092e-01  5.19830e+00 
 7.16567e-01 -9.74105e-01  5.43627e+00 
 7.01337e-01 -9.92400e-01  5.65670e+00 
 6.87471e-01 -1.00675e+00  5.86117e+00 
 6.74335e-01 -1.01704e+00  6.05117e+00 
 6.61451e-01 -1.02324e+00  6.22797e+00 
 6.48455e-01 -1.02538e+00  6.39276e+00 
 6.35081e-01 -1.02353e+00  6.54651e+00 
 6.21131e-01 -1.01781e+00  6.69015e+00 
 6.06468e-01 -1.00832e+00  6.82444e+00 
 5.90993e-01 -9.95221e-01  6.95008e+00 
 5.74648e-01 -9.78660e-01  7.06767e+00 
 5.57394e-01 -9.58797e-01  7.17773e+00 
 5.39221e-01 -9.35794e-01  7.28073e+00 
 5.20125e-01 -9.09813e-01  7.37707e+00 
 5.00125e-01 -8.81020e-01  7.46710e+00 
 4.79239e-01 -8.49573e-01  7.55114e+00 
 4.57501e-01 -8.15636e-01  7.62946e+00 
 4.34943e-01 -7.79363e-01  7.70231e+00 
 4.11607e-01 -7.40912e-01  7.76989e+00 
 3.87533e-01 -7.00431e-01  7.83240e+00 
 3.62770e-01 -6.58074e-01  7.88999e+00 
 3.37359e-01 -6.13981e-01  7.94282e+00 
 3.11354e-01 -5.68303e-01  7.99101e+00 
 2.84797e-01 -5.21175e-01  8.03468e+00 
 2.57744e-01 -4.72741e-01  8.07391e+00 
 2.30238e-01 -4.23133e-01  8.10881e+00 
 2.02335e-01 -3.72492e-01  8.13944e+00 
 1.74078e-01 -3.20943e-01  8.16586e+00 
 1.45525e-01 -2.68628e-01  8.18813e+00 
 1.16718e-01 -2.15666e-01  8.20630e+00 
 8.77151e-02 -1.62198e-01  8.22039e+00 
 5.85587e-02 -1.08343e-01  8.23043e+00 
 2.93055e-02 -5.42369e-02  8.23645e+00 
 8.55303e-12 -2.95502e-11  8.23846e+00 
-2.93055e-02  5.42369e-02  8.23645e+00 
-5.85587e-02  1.08343e-01  8.23043e+00 
-8.77151e-02  1.62198e-01  8.22039e+00 
-1.16718e-01  2.15666e-01  8.20630e+00 
-1.45525e-01  2.68628e-01  8.18813e+00 
-1.74078e-01  3.20943e-01  8.16586e+00 
-2.02335e-01  3.72492e-01  8.13944e+00 
-2.30238e-01  4.23133e-01  8.10881e+00 
-2.57744e-01  4.72741e-01  8.07391e+00 
-2.84797e-01  5.21175e-01  8.03468e+00 
-3.11354e-01  5.68303e-01  7.99101e+00 
-3.37359e-01  6.13981e-01  7.94282e+00 
-3.62770e-01  6.58074e-01  7.88999e+00 
-3.87533e-01  7.00431e-01  7.83240e+00 
-4.11607e-01  7.40912e-01  7.76989e+00 
-4.34943e-01  7.79363e-01  7.70231e+00 
-4.57501e-01  8.15636e-01  7.62946e+00 
-4.79239e-01  8.49573e-01  7.55114e+00 
-5.00125e-01  8.81020e-01  7.46710e+00 
-5.20125e-01  9.09813e-01  7.37707e+00 
-5.39221e-01  9.35794e-01  7.28073e+00 
-5.57394e-01  9.58797e-01  7.17773e+00 
-5.74648e-01  9.78660e-01  7.06767e+00 
-5.90993e-01  9.95221e-01  6.95008e+00 
-6.06468e-01  1.00832e+00  6.82444e+00 
-6.21131e-01  1.01781e+00  6.69015e+00 
-6.35081e-01  1.02353e+00  6.54651e+00 
-6.48455e-01  1.02538e+00  6.39276e+00 
-6.61451e-01  1.02324e+00  6.22797e+00 
-6.74335e-01  1.01704e+00  6.05117e+00 
-6.87471e-01  1.00675e+00  5.86117e+00 
-7.01337e-01  9.92400e-01  5.65670e+00 
-7.16567e-01  9.74105e-01  5.43627e+00 
-7.33982e-01  9.52092e-01  5.19830e+00 
-7.54656e-01  9.26715e-01  4.94098e+00 
-7.79959e-01  8.98539e-01  4.66246e+00 
-8.11662e-01  8.68350e-01  4.36072e+00 
-8.52003e-01  8.37278e-01  4.03387e+00 
-9.03827e-01  8.06828e-01  3.68008e+00 
-9.70666e-01  7.79049e-01  3.29811e+00 
-1.05690e+00  7.56599e-01  2.88742e+00 
-1.16779e+00  7.42933e-01  2.44916e+00 
-1.30946e+00  7.42390e-01  1.98678e+00 
-1.48858e+00  7.60309e-01  1.50788e+00 
-1.71145e+00  8.02942e-01  1.02601e+00 
-1.98172e+00  8.77100e-01  5.64039e-01 
-2.29574e+00  9.88691e-01  1.57219e-01 
-2.63239e+00  1.14053e+00 -1.47119e-01 
-2.93988e+00  1.30174e+00 -2.80682e-01 
 2.87792e+00 -1.04897e+00 -1.00216e+00 
 2.13954e+00 -8.94820e-01 -1.56526e-01 
 1.62335e+00 -8.19406e-01  6.62618e-01 
 1.27839e+00 -8.14356e-01  1.43267e+00 
 1.05364e+00 -8.54422e-01  2.12633e+00 
 9.10733e-01 -9.19521e-01  2.73396e+00 
 8.22822e-01 -9.96888e-01  3.25974e+00 
 7.71439e-01 -1.07831e+00  3.71270e+00 
 7.44005e-01 -1.15847e+00  4.10283e+00 
 7.31913e-01 -1.23414e+00  4.43989e+00 
 7.29299e-01 -1.30334e+00  4.73242e+00 
 7.32155e-01 -1.36501e+00  4.98790e+00 
 7.37760e-01 -1.41860e+00  5.21248e+00 
 7.44272e-01 -1.46401e+00  5.41136e+00 
 7.50465e-01 -1.50130e+00  5.58871e+00 
 7.55534e-01 -1.53074e+00  5.74802e+00 
 7.58968e-01 -1.55262e+00  5.89204e+00 
 7.60456e-01 -1.56732e+00  6.02308e+00 
 7.59829e-01 -1.57523e+00  6.14297e+00 
 7.57012e-01 -1.57673e+00  6.25322e+00 
 7.51995e-01 -1.57220e+00  6.35503e+00 
 7.44809e-01 -1.56202e+00  6.44944e+00 
 7.35516e-01 -1.54651e+00  6.53723e+00 
 7.24192e-01 -1.52603e+00  6.61909e+00 
 7.10926e-01 -1.50086e+00  6.69557e+00 
 6.95811e-01 -1.47132e+00  6.76713e+00 
 6.78944e-01 -1.43767e+00  6.83416e+00 
 6.60418e-01 -1.40018e+00  6.89699e+00 
 6.40332e-01 -1.35908e+00  6.95588e+00 
 6.18774e-01 -1.31462e+00  7.01106e+00 
 5.95840e-01 -1.26700e+00  7.06273e+00 
 5.71610e-01 -1.21644e+00  7.11106e+00 
 5.46177e-01 -1.16315e+00  7.15618e+00 
 5.19614e-01 -1.10730e+00  7.19824e+00 
 4.92008e-01 -1.04908e+00  7.23733e+00 
 4.63429e-01 -9.88667e-01  7.27355e+00 
 4.33957e-01 -9.26234e-01  7.30698e+00 
 4.03658e-01 -8.61938e-01  7.33769e+00 
 3.72609e-01 -7.95946e-01  7.36574e+00 
 3.40872e-01 -7.28404e-01  7.39120e+00 
 3.08520e-01 -6.59474e-01  7.41410e+00 
 2.75612e-01 -5.89292e-01  7.43449e+00 
 2.42219e-01 -5.18015e-01  7.45240e+00 
 2.08398e-01 -4.45775e-01  7.46787e+00 
 1.74217e-01 -3.72723e-01  7.48091e+00 
 1.39732e-01 -2.98986e-01  7.49156e+00 
 1.05010e-01 -2.24715e-01  7.49982e+00 
 7.01048e-02 -1.50031e-01  7.50571e+00 
 3.50836e-02 -7.50857e-02  7.50924e+00 
 1.67619e-11 -4.08877e-11  7.51042e+00 
-3.50836e-02  7.50857e-02  7.50924e+00 
-7.01048e-02  1.50031e-01  7.50571e+00 
-1.05010e-01  2.24715e-01  7.49982e+00 
-1.39732e-01  2.98986e-01  7.49156e+00 
-1.74217e-01  3.72723e-01  7.48091e+00 
-2.08398e-01  4.45775e-01  7.46787e+00 
-2.42219e-01  5.18015e-01  7.45240e+00 
-2.75612e-01  5.89292e-01  7.43449e+00 
-3.08520e-01  6.59474e-01  7.41410e+00 
-3.40872e-01  7.28404e-01  7.39120e+00 
-3.72609e-01  7.95946e-01  7.36574e+00 
-4.03658e-01  8.61938e-01  7.33769e+00 
-4.33957e-01  9.26234e-01  7.30698e+00 
-4.63429e-01  9.88667e-01  7.27355e+00 
-4.92008e-01  1.04908e+00  7.23733e+00 
-5.19614e-01  1.10730e+00  7.19824e+00 
-5.46177e-01  1.16315e+00  7.15618e+00 
-5.71610e-01  1.21644e+00  7.11106e+00 
-5.95840e-01  1.26700e+00  7.06273e+00 
-6.18774e-01  1.31462e+00  7.01106e+00 
-6.40332e-01  1.35908e+00  6.95588e+00 
-6.60418e-01  1.40018e+00  6.89699e+00 
-6.78944e-01  1.43767e+00  6.83416e+00 
-6.95811e-01  1.47132e+00  6.76713e+00 
-7.10926e-01  1.50086e+00  6.69557e+00 
-7.24192e-01  1.52603e+00  6.61909e+00 
-7.35516e-01  1.54651e+00  6.53723e+00 
-7.44809e-01  1.56202e+00  6.44944e+00 
-7.51995e-01  1.57220e+00  6.35503e+00 
-7.57012e-01  1.57673e+00  6.25322e+00 
-7.59829e-01  1.57523e+00  6.14297e+00 
-7.60456e-01  1.56732e+00  6.02308e+00 
-7.58968e-01  1.55262e+00  5.89204e+00 
-7.55534e-01  1.53074e+00  5.74802e+00 
-7.50465e-01  1.50130e+00  5.58871e+00 
-7.44272e-01  1.46401e+00  5.41136e+00 
-7.37760e-01  1.41860e+00  5.21248e+00 
-7.32155e-01  1.36501e+00  4.98790e+00 
-7.29299e-01  1.30334e+00  4.73242e+00 
-7.31913e-01  1.23414e+00  4.43989e+00 
-7.44005e-01  1.15847e+00  4.10283e+00 
-7.71439e-01  1.07831e+00  3.71270e+00 
-8.22822e-01  9.96888e-01  3.25974e+00 
-9.10733e-01  9.19521e-01  2.73396e+00 
-1.05364e+00  8.54422e-01  2.12633e+00 
-1.27839e+00  8.14356e-01  1.43267e+00 
-1.62335e+00  8.19406e-01  6.62618e-01 
-2.13954e+00  8.94820e-01 -1.56526e-01 
-2.87792e+00  1.04897e+00 -1.00216e+00 
 1.40540e+00 -1.13819e+00  2.29771e+00 
 1.11732e+00 -1.45069e+00  3.87891e+00 
 1.02478e+00 -1.62771e+00  4.57629e+00 
 1.01294e+00 -1.79990e+00  5.03099e+00 
 1.03296e+00 -1.95209e+00  5.32531e+00 
 1.06398e+00 -2.08237e+00  5.51875e+00 
 1.09673e+00 -2.19148e+00  5.64739e+00 
 1.12703e+00 -2.28128e+00  5.73431e+00 
 1.15311e+00 -2.35381e+00  5.79419e+00 
 1.17431e+00 -2.41101e+00  5.83663e+00 
 1.19055e+00 -2.45462e+00  5.86777e+00 
 1.20198e+00 -2.48612e+00  5.89168e+00 
 1.20889e+00 -2.50683e+00  5.91095e+00 
 1.21161e+00 -2.51779e+00  5.92729e+00 
 1.21045e+00 -2.51998e+00  5.94176e+00 
 1.20571e+00 -2.51414e+00  5.95505e+00 
 1.19767e+00 -2.50099e+00  5.96758e+00 
 1.18659e+00 -2.48108e+00  5.97961e+00 
 1.17268e+00 -2.45495e+00  5.99127e+00 
 1.15615e+00 -2.42301e+00  6.00264e+00 
 1.13718e+00 -2.38570e+00  6.01376e+00 
 1.11593e+00 -2.34333e+00  6.02463e+00 
 1.09255e+00 -2.29627e+00  6.03525e+00 
 1.06718e+00 -2.24476e+00  6.04560e+00 
 1.03993e+00 -2.18911e+00  6.05565e+00 
 1.01091e+00 -2.12953e+00  6.06540e+00 
 9.80244e-01 -2.06629e+00  6.07482e+00 
 9.48015e-01 -1.99957e+00  6.08390e+00 
 9.14324e-01 -1.92960e+00  6.09261e+00 
 8.79253e-01 -1.85656e+00  6.10096e+00 
 8.42892e-01 -1.78066e+00  6.10893e+00 
 8.05314e-01 -1.70203e+00  6.11651e+00 
 7.66603e-01 -1.62090e+00  6.12370e+00 
 7.26825e-01 -1.53738e+00  6.13048e+00 
 6.86061e-01 -1.45167e+00  6.13686e+00 
 6.44373e-01 -1.36390e+00  6.14283e+00 
 6.01835e-01 -1.27424e+00  6.14839e+00 
 5.58507e-01 -1.18282e+00  6.15354e+00 
 5.14462e-01 -1.08981e+00  6.15828e+00 
 4.69755e-01 -9.95325e-01  6.16260e+00 
 4.24458e-01 -8.99527e-01  6.16652e+00 
 3.78624e-01 -8.02532e-01  6.17001e+00 
 3.32323e-01 -7.04500e-01  6.17310e+00 
 2.85606e-01 -6.05541e-01  6.17577e+00 
 2.38541e-01 -5.05812e-01  6.17803e+00 
 1.91181e-01 -4.05422e-01  6.17988e+00 
 1.43591e-01 -3.04524e-01  6.18132e+00 
 9.58226e-02 -2.03227e-01  6.18235e+00 
 4.79420e-02 -1.01682e-01  6.18296e+00 
 1.91310e-11 -4.40941e-11  6.18317e+00 
-4.79420e-02  1.01682e-01  6.18296e+00 
-9.58226e-02  2.03227e-01  6.18235e+00 
-1.43591e-01  3.04524e-01  6.18132e+00 
-1.91181e-01  4.05422e-01  6.17988e+00 
-2.38541e-01  5.05812e-01  6.17803e+00 
-2.85606e-01  6.05541e-01  6.17577e+00 
-3.32323e-01  7.04500e-01  6.17310e+00 
-3.78624e-01  8.02532e-01  6.17001e+00 
-4.24458e-01  8.99527e-01  6.16652e+00 
-4.69755e-01  9.95325e-01  6.16260e+00 
-5.14462e-01  1.08981e+00  6.15828e+00 
-5.58507e-01  1.18282e+00  6.15354e+00 
-6.01835e-01  1.27424e+00  6.14839e+00 
-6.44373e-01  1.36390e+00  6.14283e+00 
-6.86061e-01  1.45167e+00  6.13686e+00 
-7.26825e-01  1.53738e+00  6.13048e+00 
-7.66603e-01  1.62090e+00  6.12370e+00 
-8.05314e-01  1.70203e+00  6.11651e+00 
-8.42892e-01  1.78066e+00  6.10893e+00 
-8.79253e-01  1.85656e+00  6.10096e+00 
-9.14324e-01  1.92960e+00  6.09261e+00 
-9.48015e-01  1.99957e+00  6.08390e+00 
-9.80244e-01  2.06629e+00  6.07482e+00 
-1.01091e+00  2.12953e+00  6.06540e+00 
-1.03993e+00  2.18911e+00  6.05565e+00 
-1.06718e+00  2.24476e+00  6.04560e+00 
-1.09255e+00  2.29627e+00  6.03525e+00 
-1.11593e+00  2.34333e+00  6.02463e+00 
-1.13718e+00  2.38570e+00  6.01376e+00 
-1.15615e+00  2.42301e+00  6.00264e+00 
-1.17268e+00  2.45495e+00  5.99127e+00 
-1.18659e+00  2.48108e+00  5.97961e+00 
-1.19767e+00  2.50099e+00  5.96758e+00 
-1.20571e+00  2.51414e+00  5.95505e+00 
-1.21045e+00  2.51998e+00  5.94176e+00 
-1.21161e+00  2.51779e+00  5.92729e+00 
-1.20889e+00  2.50683e+00  5.91095e+00 
-1.20198e+00  2.48612e+00  5.89168e+00 
-1.19055e+00  2.45462e+00  5.86777e+00 
-1.17431e+00  2.41101e+00  5.83663e+00 
-1.15311e+00  2.35381e+00  5.79419e+00 
-1.12703e+00  2.28128e+00  5.73431e+00 
-1.09673e+00  2.19148e+00  5.64739e+00 
-1.06398e+00  2.08237e+00  5.51875e+00 
-1.03296e+00  1.95209e+00  5.32531e+00 
-1.01294e+00  1.79990e+00  5.03099e+00 
-1.02478e+00  1.62771e+00  4.57629e+00 
-1.11732e+00  1.45069e+00  3.87891e+00 
-1.40540e+00  1.13819e+00  2.29771e+00 </DataArray>
            <DataArray Name="stress" NumberOfComponents="3" format="ascii" type="Float64">
 3.98380e+01  1.60213e+01  8.60652e+00 
 3.38469e+01  1.58410e+01  8.78435e+00 
 2.98755e+01  1.35797e+01  7.62992e+00 
 2.72011e+01  1.23465e+01  6.90635e+00 
 2.52105e+01  1.14108e+01  6.24471e+00 
 2.36397e+01  1.06872e+01  5.68615e+00 
 2.23413e+01  1.00927e+01  5.20417e+00 
 2.12294e+01  9.58603e+00  4.78585e+00 
 2.02521e+01  9.14209e+00  4.41910e+00 
 1.93744e+01  8.74407e+00  4.09502e+00 
 1.85733e+01  8.38137e+00  3.80631e+00 
 1.78320e+01  8.04593e+00  3.54747e+00 
 1.71387e+01  7.73252e+00  3.31395e+00 
 1.64841e+01  7.43675e+00  3.10223e+00 
 1.58620e+01  7.15574e+00  2.90937e+00 
 1.52667e+01  6.88689e+00  2.73301e+00 
 1.46943e+01  6.62849e+00  2.57119e+00 
 1.41413e+01  6.37889e+00  2.42226e+00 
 1.36054e+01  6.13701e+00  2.28485e+00 
 1.30841e+01  5.90176e+00  2.15780e+00 
 1.25758e+01  5.67240e+00  2.04011e+00 
 1.20788e+01  5.44818e+00  1.93090e+00 
 1.15922e+01  5.22860e+00  1.82948e+00 
 1.11145e+01  5.01311e+00  1.73514e+00 
 1.06451e+01  4.80132e+00  1.64739e+00 
 1.01829e+01  4.59286e+00  1.56566e+00 
 9.72751e+00  4.38741e+00  1.48957e+00 
 9.27809e+00  4.18470e+00  1.41869e+00 
 8.83425e+00  3.98448e+00  1.35272e+00 
 8.39536e+00  3.78653e+00  1.29130e+00 
 7.96113e+00  3.59065e+00  1.23422e+00 
 7.53102e+00  3.39667e+00  1.18115e+00 
 7.10482e+00  3.20441e+00  1.13196e+00 
 6.68206e+00  3.01375e+00  1.08638e+00 
 6.26256e+00  2.82452e+00  1.04429e+00 
 5.84594e+00  2.63664e+00  1.00546e+00 
 5.43204e+00  2.44992e+00  9.69831e-01 
 5.02051e+00  2.26435e+00  9.37185e-01 
 4.61123e+00  2.07972e+00  9.07498e-01 
 4.20389e+00  1.89603e+00  8.80572e-01 
 3.79838e+00  1.71310e+00  8.56413e-01 
 3.39441e+00  1.53094e+00  8.34840e-01 
 2.99188e+00  1.34936e+00  8.15885e-01 
 2.59053e+00  1.16838e+00  7.99379e-01 
 2.19026e+00  9.87815e-01  7.85377e-01 
 1.79083e+00  8.07708e-01  7.73725e-01 
 1.39216e+00  6.27858e-01  7.64498e-01 
 9.93994e-01  4.48324e-01  7.57553e-01 
 5.96257e-01  2.68897e-01  7.52983e-01 
 1.98722e-01  8.96476e-02  7.50659e-01 
-1.98722e-01 -8.96476e-02  7.50659e-01 
-5.96257e-01 -2.68897e-01  7.52983e-01 
-9.93994e-01 -4.48324e-01  7.57553e-01 
-1.39216e+00 -6.27858e-01  7.64498e-01 
-1.79083e+00 -8.07708e-01  7.73725e-01 
-2.19026e+00 -9.87815e-01  7.85377e-01 
-2.59053e+00 -1.16838e+00  7.99379e-01 
-2.99188e+00 -1.34936e+00  8.15885e-01 
-3.39441e+00 -1.53094e+00  8.34840e-01 
-3.79838e+00 -1.71310e+00  8.56413e-01 
-4.20389e+00 -1.89603e+00  8.80572e-01 
-4.61123e+00 -2.07972e+00  9.07498e-01 
-5.02051e+00 -2.26435e+00  9.37185e-01 
-5.43204e+00 -2.44992e+00  9.69831e-01 
-5.84594e+00 -2.63664e+00  1.00546e+00 
-6.26256e+00 -2.82452e+00  1.04429e+00 
-6.68206e+00 -3.01375e+00  1.08638e+00 
-7.10482e+00 -3.20441e+00  1.13196e+00 
-7.53102e+00 -3.39667e+00  1.18115e+00 
-7.96113e+00 -3.59065e+00  1.23422e+00 
-8.39536e+00 -3.78653e+00  1.29130e+00 
-8.83425e+00 -3.98448e+00  1.35272e+00 
-9.27809e+00 -4.18470e+00  1.41869e+00 
-9.72751e+00 -4.38741e+00  1.48957e+00 
-1.01829e+01 -4.59286e+00  1.56566e+00 
-1.06451e+01 -4.80132e+00  1.64739e+00 
-1.11145e+01 -5.01311e+00  1.73514e+00 
-1.15922e+01 -5.22860e+00  1.82948e+00 
-1.20788e+01 -5.44818e+00  1.93090e+00 
-1.25758e+01 -5.67240e+00  2.04011e+00 
-1.30841e+01 -5.90176e+00  2.15780e+00 
-1.36054e+01 -6.13701e+00  2.28485e+00 
-1.41413e+01 -6.37889e+00  2.42226e+00 
-1.46943e+01 -6.62849e+00  2.57119e+00 
-1.52667e+01 -6.88689e+00  2.73301e+00 
-1.58620e+01 -7.15574e+00  2.90937e+00 
-1.64841e+01 -7.43675e+00  3.10223e+00 
-1.71387e+01 -7.73252e+00  3.31395e+00 
-1.78320e+01 -8.04593e+00  3.54747e+00 
-1.85733e+01 -8.38137e+00  3.80631e+00 
-1.93744e+01 -8.74407e+00  4.09502e+00 
-2.02521e+01 -9.14209e+00  4.41910e+00 
-2.12294e+01 -9.58603e+00  4.78585e+00 
-2.23413e+01 -1.00927e+01  5.20417e+00 
-2.36397e+01 -1.06872e+01  5.68615e+00 
-2.52105e+01 -1.14108e+01  6.24471e+00 
-2.72011e+01 -1.23465e+01  6.90635e+00 
-2.98755e+01 -1.35797e+01  7.62992e+00 
-3.38469e+01 -1.58410e+01  8.78435e+00 
-3.98380e+01 -1.60213e+01  8.60652e+00 
 2.76195e+01 -2.64683e+00 -1.75621e-01 
 2.65072e+01 -1.09997e+00  1.40467e+00 
 2.53731e+01  9.40165e-01  3.22970e+00 
 2.42208e+01  2.20457e+00  3.84682e+00 
 2.31549e+01  3.12944e+00  4.07953e+00 
 2.21694e+01  3.77532e+00  4.09937e+00 
 2.12593e+01  4.22652e+00  4.01702e+00 
 2.04143e+01  4.53632e+00  3.88300e+00 
 1.96253e+01  4.74225e+00  3.72427e+00 
 1.88838e+01  4.87129e+00  3.55587e+00 
 1.81830e+01  4.94214e+00  3.38582e+00 
 1.75169e+01  4.96889e+00  3.21900e+00 
 1.68808e+01  4.96136e+00  3.05777e+00 
 1.62706e+01  4.92731e+00  2.90370e+00 
 1.56831e+01  4.87215e+00  2.75724e+00 
 1.51152e+01  4.80037e+00  2.61875e+00 
 1.45649e+01  4.71506e+00  2.48801e+00 
 1.40298e+01  4.61897e+00  2.36496e+00 
 1.35085e+01  4.51390e+00  2.24915e+00 
 1.29993e+01  4.40164e+00  2.14038e+00 
 1.25012e+01  4.28323e+00  2.03816e+00 
 1.20128e+01  4.15989e+00  1.94225e+00 
 1.15334e+01  4.03225e+00  1.85219e+00 
 1.10620e+01  3.90117e+00  1.76775e+00 
 1.05980e+01  3.76700e+00  1.68853e+00 
 1.01406e+01  3.63039e+00  1.61432e+00 
 9.68928e+00  3.49153e+00  1.54476e+00 
 9.24352e+00  3.35091e+00  1.47967e+00 
 8.80291e+00  3.20863e+00  1.41876e+00 
 8.36694e+00  3.06509e+00  1.36187e+00 
 7.93530e+00  2.92030e+00  1.30875e+00 
 7.50756e+00  2.77459e+00  1.25926e+00 
 7.08347e+00  2.62794e+00  1.21319e+00 
 6.66267e+00  2.48062e+00  1.17044e+00 
 6.24496e+00  2.33259e+00  1.13082e+00 
 5.82999e+00  2.18408e+00  1.09425e+00 
 5.41761e+00  2.03502e+00  1.06058e+00 
 5.00752e+00  1.88562e+00  1.02972e+00 
 4.59956e+00  1.73580e+00  1.00156e+00 
 4.19348e+00  1.58574e+00  9.76044e-01 
 3.78914e+00  1.43535e+00  9.53070e-01 
 3.38629e+00  1.28482e+00  9.32582e-01 
 2.98483e+00  1.13403e+00  9.14514e-01 
 2.58450e+00  9.83146e-01  8.98818e-01 
 2.18522e+00  8.32065e-01  8.85445e-01 
 1.78675e+00  6.80951e-01  8.74358e-01 
 1.38900e+00  5.29681e-01  8.65528e-01 
 9.91756e-01  3.78419e-01  8.58924e-01 
 5.94920e-01  2.27042e-01  8.54536e-01 
 1.98277e-01  7.57098e-02  8.52339e-01 
-1.98277e-01 -7.57098e-02  8.52339e-01 
-5.94920e-01 -2.27042e-01  8.54536e-01 
-9.91756e-01 -3.78419e-01  8.58924e-01 
-1.38900e+00 -5.29681e-01  8.65528e-01 
-1.78675e+00 -6.80951e-01  8.74358e-01 
-2.18522e+00 -8.32065e-01  8.85445e-01 
-2.58450e+00 -9.83146e-01  8.98818e-01 
-2.98483e+00 -1.13403e+00  9.14514e-01 
-3.38629e+00 -1.28482e+00  9.32582e-01 
-3.78914e+00 -1.43535e+00  9.53070e-01 
-4.19348e+00 -1.58574e+00  9.76044e-01 
-4.59956e+00 -1.73580e+00  1.00156e+00 
-5.00752e+00 -1.88562e+00  1.02972e+00 
-5.41761e+00 -2.03502e+00  1.06058e+00 
-5.82999e+00 -2.18408e+00  1.09425e+00 
-6.24496e+00 -2.33259e+00  1.13082e+00 
-6.66267e+00 -2.48062e+00  1.17044e+00 
-7.08347e+00 -2.62794e+00  1.21319e+00 
-7.50756e+00 -2.77459e+00  1.25926e+00 
-7.93530e+00 -2.92030e+00  1.30875e+00 
-8.36694e+00 -3.06509e+00  1.36187e+00 
-8.80291e+00 -3.20863e+00  1.41876e+00 
-9.24352e+00 -3.35091e+00  1.47967e+00 
-9.68928e+00 -3.49153e+00  1.54476e+00 
-1.01406e+01 -3.63039e+00  1.61432e+00 
-1.05980e+01 -3.76700e+00  1.68853e+00 
-1.10620e+01 -3.90117e+00  1.76775e+00 
-1.15334e+01 -4.03225e+00  1.85219e+00 
-1.20128e+01 -4.15989e+00  1.94225e+00 
-1.25012e+01 -4.28323e+00  2.03816e+00 
-1.29993e+01 -4.40164e+00  2.14038e+00 
-1.35085e+01 -4.51390e+00  2.24915e+00 
-1.40298e+01 -4.61897e+00  2.36496e+00 
-1.45649e+01 -4.71506e+00  2.48801e+00 
-1.51152e+01 -4.80037e+00  2.61875e+00 
-1.56831e+01 -4.87215e+00  2.75724e+00 
-1.62706e+01 -4.92731e+00  2.90370e+00 
-1.68808e+01 -4.96136e+00  3.05777e+00 
-1.75169e+01 -4.96889e+00  3.21900e+00 
-1.81830e+01 -4.94214e+00  3.38582e+00 
-1.88838e+01 -4.87129e+00  3.55587e+00 
-1.96253e+01 -4.74225e+00  3.72427e+00 
-2.04143e+01 -4.53632e+00  3.88300e+00 
-2.12593e+01 -4.22652e+00  4.01702e+00 
-2.21694e+01 -3.77532e+00  4.09937e+00 
-2.31549e+01 -3.12944e+00  4.07953e+00 
-2.42208e+01 -2.20457e+00  3.84682e+00 
-2.53731e+01 -9.40165e-01  3.22970e+00 
-2.65072e+01  1.09997e+00  1.40467e+00 
-2.76195e+01  2.64683e+00 -1.75621e-01 
 2.28079e+01  9.05777e-01  6.49938e-01 
 2.37475e+01  2.18758e-01  4.70823e-01 
 2.35802e+01 -1.65193e-02  8.78595e-01 
 2.31558e+01  2.33162e-01  1.52312e+00 
 2.25673e+01  6.09564e-01  2.02877e+00 
 2.19077e+01  1.02559e+00  2.40012e+00 
 2.12196e+01  1.42338e+00  2.65203e+00 
 2.05263e+01  1.78125e+00  2.81231e+00 
 1.98404e+01  2.09102e+00  2.90430e+00 
 1.91679e+01  2.35236e+00  2.94650e+00 
 1.85121e+01  2.56782e+00  2.95261e+00 
 1.78737e+01  2.74176e+00  2.93300e+00 
 1.72529e+01  2.87850e+00  2.89508e+00 
 1.66490e+01  2.98264e+00  2.84454e+00 
 1.60614e+01  3.05808e+00  2.78536e+00 
 1.54888e+01  3.10866e+00  2.72072e+00 
 1.49304e+01  3.13740e+00  2.65274e+00 
 1.43851e+01  3.14730e+00  2.58321e+00 
 1.38518e+01  3.14062e+00  2.51326e+00 
 1.33298e+01  3.11962e+00  2.44389e+00 
 1.28180e+01  3.08596e+00  2.37569e+00 
 1.23158e+01  3.04136e+00  2.30923e+00 
 1.18223e+01  2.98701e+00  2.24476e+00 
 1.13369e+01  2.92423e+00  2.18262e+00 
 1.08590e+01  2.85389e+00  2.12288e+00 
 1.03880e+01  2.77699e+00  2.06574e+00 
 9.92341e+00  2.69417e+00  2.01118e+00 
 9.46464e+00  2.60623e+00  1.95930e+00 
 9.01136e+00  2.51360e+00  1.91003e+00 
 8.56307e+00  2.41694e+00  1.86343e+00 
 8.11946e+00  2.31656e+00  1.81940e+00 
 7.68009e+00  2.21299e+00  1.77798e+00 
 7.24473e+00  2.10645e+00  1.73905e+00 
 6.81296e+00  1.99739e+00  1.70264e+00 
 6.38459e+00  1.88594e+00  1.66864e+00 
 5.95926e+00  1.77249e+00  1.63705e+00 
 5.53679e+00  1.65714e+00  1.60779e+00 
 5.11685e+00  1.54021e+00  1.58084e+00 
 4.69930e+00  1.42176e+00  1.55612e+00 
 4.28383e+00  1.30209e+00  1.53363e+00 
 3.87030e+00  1.18121e+00  1.51329e+00 
 3.45844e+00  1.05940e+00  1.49511e+00 
 3.04812e+00  9.36666e-01  1.47902e+00 
 2.63907e+00  8.13252e-01  1.46501e+00 
 2.23120e+00  6.89138e-01  1.45305e+00 
 1.82423e+00  5.64569e-01  1.44312e+00 
 1.41807e+00  4.39509e-01  1.43519e+00 
 1.01247e+00  3.14194e-01  1.42926e+00 
 6.07332e-01  1.88581e-01  1.42531e+00 
 2.02410e-01  6.29005e-02  1.42334e+00 
-2.02410e-01 -6.29005e-02  1.42334e+00 
-6.07332e-01 -1.88581e-01  1.42531e+00 
-1.01247e+00 -3.14194e-01  1.42926e+00 
-1.41807e+00 -4.39509e-01  1.43519e+00 
-1.82423e+00 -5.64569e-01  1.44312e+00 
-2.23120e+00 -6.89138e-01  1.45305e+00 
-2.63907e+00 -8.13252e-01  1.46501e+00 
-3.04812e+00 -9.36666e-01  1.47902e+00 
-3.45844e+00 -1.05940e+00  1.49511e+00 
-3.87030e+00 -1.18121e+00  1.51329e+00 
-4.28383e+00 -1.30209e+00  1.53363e+00 
-4.69930e+00 -1.42176e+00  1.55612e+00 
-5.11685e+00 -1.54021e+00  1.58084e+00 
-5.53679e+00 -1.65714e+00  1.60779e+00 
-5.95926e+00 -1.77249e+00  1.63705e+00 
-6.38459e+00 -1.88594e+00  1.66864e+00 
-6.81296e+00 -1.99739e+00  1.70264e+00 
-7.24473e+00 -2.10645e+00  1.73905e+00 
-7.68009e+00 -2.21299e+00  1.77798e+00 
-8.11946e+00 -2.31656e+00  1.81940e+00 
-8.56307e+00 -2.41694e+00  1.86343e+00 
-9.01136e+00 -2.51360e+00  1.91003e+00 
-9.46464e+00 -2.60623e+00  1.95930e+00 
-9.92341e+00 -2.69417e+00  2.01118e+00 
-1.03880e+01 -2.77699e+00  2.06574e+00 
-1.08590e+01 -2.85389e+00  2.12288e+00 
-1.13369e+01 -2.92423e+00  2.18262e+00 
-1.18223e+01 -2.98701e+00  2.24476e+00 
-1.23158e+01 -3.04136e+00  2.30923e+00 
-1.28180e+01 -3.08596e+00  2.37569e+00 
-1.33298e+01 -3.11962e+00  2.44389e+00 
-1.38518e+01 -3.14062e+00  2.51326e+00 
-1.43851e+01 -3.14730e+00  2.58321e+00 
-1.49304e+01 -3.13740e+00  2.65274e+00 
-1.54888e+01 -3.10866e+00  2.72072e+00 
-1.60614e+01 -3.05808e+00  2.78536e+00 
-1.66490e+01 -2.98264e+00  2.84454e+00 
-1.72529e+01 -2.87850e+00  2.89508e+00 
-1.78737e+01 -2.74176e+00  2.93300e+00 
-1.85121e+01 -2.56782e+00  2.95261e+00 
-1.91679e+01 -2.35236e+00  2.94650e+00 
-1.98404e+01 -2.09102e+00  2.90430e+00 
-2.05263e+01 -1.78125e+00  2.81231e+00 
-2.12196e+01 -1.42338e+00  2.65203e+00 
-2.19077e+01 -1.02559e+00  2.40012e+00 
-2.25673e+01 -6.09564e-01  2.02877e+00 
-2.31558e+01 -2.33162e-01  1.52312e+00 
-2.35802e+01  1.65193e-02  8.78595e-01 
-2.37475e+01 -2.18758e-01  4.70823e-01 
-2.28079e+01 -9.05777e-01  6.49938e-01 
 2.17739e+01 -8.78847e-02  1.09852e-01 
 2.16629e+01  6.95005e-02  2.77656e-01 
 2.17284e+01  1.32400e-01  4.92848e-01 
 2.15934e+01  1.42242e-01  7.27868e-01 
 2.13289e+01  2.16522e-01  1.01672e+00 
 2.09587e+01  3.43577e-01  1.30507e+00 
 2.05147e+01  5.08418e-01  1.56933e+00 
 2.00205e+01  6.92754e-01  1.79708e+00 
 1.94941e+01  8.82440e-01  1.98573e+00 
 1.89481e+01  1.06765e+00  2.13712e+00 
 1.83919e+01  1.24177e+00  2.25523e+00 
 1.78314e+01  1.40103e+00  2.34460e+00 
 1.72712e+01  1.54319e+00  2.40970e+00 
 1.67141e+01  1.66752e+00  2.45468e+00 
 1.61621e+01  1.77384e+00  2.48306e+00 
 1.56163e+01  1.86277e+00  2.49799e+00 
 1.50777e+01  1.93497e+00  2.50201e+00 
 1.45464e+01  1.99155e+00  2.49736e+00 
 1.40228e+01  2.03343e+00  2.48579e+00 
 1.35067e+01  2.06184e+00  2.46887e+00 
 1.29980e+01  2.07771e+00  2.44779e+00 
 1.24965e+01  2.08219e+00  2.42362e+00 
 1.20020e+01  2.07612e+00  2.39716e+00 
 1.15141e+01  2.06055e+00  2.36916e+00 
 1.10326e+01  2.03617e+00  2.34015e+00 
 1.05570e+01  2.00391e+00  2.31063e+00 
 1.00871e+01  1.96432e+00  2.28095e+00 
 9.62245e+00  1.91821e+00  2.25148e+00 
 9.16290e+00  1.86602e+00  2.22242e+00 
 8.70800e+00  1.80845e+00  2.19404e+00 
 8.25756e+00  1.74585e+00  2.16646e+00 
 7.81119e+00  1.67881e+00  2.13986e+00 
 7.36870e+00  1.60762e+00  2.11431e+00 
 6.92973e+00  1.53278e+00  2.08995e+00 
 6.49412e+00  1.45451e+00  2.06682e+00 
 6.06153e+00  1.37327e+00  2.04500e+00 
 5.63180e+00  1.28922e+00  2.02450e+00 
 5.20462e+00  1.20277e+00  2.00541e+00 
 4.77985e+00  1.11403e+00  1.98771e+00 
 4.35720e+00  1.02337e+00  1.97145e+00 
 3.93653e+00  9.30882e-01  1.95664e+00 
 3.51756e+00  8.36903e-01  1.94329e+00 
 3.10018e+00  7.41493e-01  1.93140e+00 
 2.68411e+00  6.44969e-01  1.92100e+00 
 2.26924e+00  5.47373e-01  1.91207e+00 
 1.85531e+00  4.49004e-01  1.90463e+00 
 1.44222e+00  3.49890e-01  1.89868e+00 
 1.02970e+00  2.50321e-01  1.89421e+00 
 6.17667e-01  1.50314e-01  1.89123e+00 
 2.05852e-01  5.01529e-02  1.88975e+00 
-2.05852e-01 -5.01529e-02  1.88975e+00 
-6.17667e-01 -1.50314e-01  1.89123e+00 
-1.02970e+00 -2.50321e-01  1.89421e+00 
-1.44222e+00 -3.49890e-01  1.89868e+00 
-1.85531e+00 -4.49004e-01  1.90463e+00 
-2.26924e+00 -5.47373e-01  1.91207e+00 
-2.68411e+00 -6.44969e-01  1.92100e+00 
-3.10018e+00 -7.41493e-01  1.93140e+00 
-3.51756e+00 -8.36903e-01  1.94329e+00 
-3.93653e+00 -9.30882e-01  1.95664e+00 
-4.35720e+00 -1.02337e+00  1.97145e+00 
-4.77985e+00 -1.11403e+00  1.98771e+00 
-5.20462e+00 -1.20277e+00  2.00541e+00 
-5.63180e+00 -1.28922e+00  2.02450e+00 
-6.06153e+00 -1.37327e+00  2.04500e+00 
-6.49412e+00 -1.45451e+00  2.06682e+00 
-6.92973e+00 -1.53278e+00  2.08995e+00 
-7.36870e+00 -1.60762e+00  2.11431e+00 
-7.81119e+00 -1.67881e+00  2.13986e+00 
-8.25756e+00 -1.74585e+00  2.16646e+00 
-8.70800e+00 -1.80845e+00  2.19404e+00 
-9.16290e+00 -1.86602e+00  2.22242e+00 
-9.62245e+00 -1.91821e+00  2.25148e+00 
-1.00871e+01 -1.96432e+00  2.28095e+00 
-1.05570e+01 -2.00391e+00  2.31063e+00 
-1.10326e+01 -2.03617e+00  2.34015e+00 
-1.15141e+01 -2.06055e+00  2.36916e+00 
-1.20020e+01 -2.07612e+00  2.39716e+00 
-1.24965e+01 -2.08219e+00  2.42362e+00 
-1.29980e+01 -2.07771e+00  2.44779e+00 
-1.35067e+01 -2.06184e+00  2.46887e+00 
-1.40228e+01 -2.03343e+00  2.48579e+00 
-1.45464e+01 -1.99155e+00  2.49736e+00 
-1.50777e+01 -1.93497e+00  2.50201e+00 
-1.56163e+01 -1.86277e+00  2.49799e+00 
-1.61621e+01 -1.77384e+00  2.48306e+00 
-1.67141e+01 -1.66752e+00  2.45468e+00 
-1.72712e+01 -1.54319e+00  2.40970e+00 
-1.78314e+01 -1.40103e+00  2.34460e+00 
-1.83919e+01 -1.24177e+00  2.25523e+00 
-1.89481e+01 -1.06765e+00  2.13712e+00 
-1.94941e+01 -8.82440e-01  1.98573e+00 
-2.00205e+01 -6.92754e-01  1.79708e+00 
-2.05147e+01 -5.08418e-01  1.56933e+00 
-2.09587e+01 -3.43577e-01  1.30507e+00 
-2.13289e+01 -2.16522e-01  1.01672e+00 
-2.15934e+01 -1.42242e-01  7.27868e-01 
-2.17284e+01 -1.32400e-01  4.92848e-01 
-2.16629e+01 -6.95005e-02  2.77656e-01 
-2.17739e+01  8.78847e-02  1.09852e-01 
 2.10993e+01  7.56917e-03  1.04193e-01 
 2.09656e+01  8.82692e-03  1.46859e-01 
 2.07547e+01  2.58934e-02  3.03219e-01 
 2.05472e+01  6.43441e-02  4.75949e-01 
 2.02975e+01  1.01998e-01  6.54957e-01 
 2.00021e+01  1.52003e-01  8.44257e-01 
 1.96609e+01  2.17536e-01  1.03650e+00 
 1.92791e+01  2.98294e-01  1.22418e+00 
 1.88636e+01  3.90871e-01  1.40115e+00 
 1.84213e+01  4.91125e-01  1.56336e+00 
 1.79587e+01  5.94781e-01  1.70883e+00 
 1.74811e+01  6.98310e-01  1.83692e+00 
 1.69930e+01  7.98656e-01  1.94803e+00 
 1.64980e+01  8.93695e-01  2.04312e+00 
 1.59990e+01  9.81669e-01  2.12349e+00 
 1.54982e+01  1.06160e+00  2.19057e+00 
 1.49974e+01  1.13265e+00  2.24582e+00 
 1.44979e+01  1.19458e+00  2.29065e+00 
 1.40006e+01  1.24715e+00  2.32636e+00 
 1.35063e+01  1.29054e+00  2.35420e+00 
 1.30155e+01  1.32482e+00  2.37524e+00 
 1.25284e+01  1.35042e+00  2.39048e+00 
 1.20455e+01  1.36757e+00  2.40077e+00 
 1.15667e+01  1.37679e+00  2.40691e+00 
 1.10922e+01  1.37839e+00  2.40954e+00 
 1.06217e+01  1.37293e+00  2.40929e+00 
 1.01555e+01  1.36072e+00  2.40664e+00 
 9.69329e+00  1.34232e+00  2.40208e+00 
 9.23501e+00  1.31801e+00  2.39596e+00 
 8.78044e+00  1.28834e+00  2.38866e+00 
 8.32953e+00  1.25356e+00  2.38045e+00 
 7.88200e+00  1.21418e+00  2.37160e+00 
 7.43778e+00  1.17043e+00  2.36232e+00 
 6.99658e+00  1.12276e+00  2.35282e+00 
 6.55833e+00  1.07138e+00  2.34325e+00 
 6.12274e+00  1.01671e+00  2.33377e+00 
 5.68973e+00  9.58913e-01  2.32448e+00 
 5.25900e+00  8.98393e-01  2.31552e+00 
 4.83048e+00  8.35279e-01  2.30695e+00 
 4.40389e+00  7.69947e-01  2.29888e+00 
 3.97914e+00  7.02505e-01  2.29135e+00 
 3.55596e+00  6.33306e-01  2.28443e+00 
 3.13427e+00  5.62438e-01  2.27817e+00 
 2.71380e+00  4.90237e-01  2.27262e+00 
 2.29448e+00  4.16776e-01  2.26779e+00 
 1.87602e+00  3.42376e-01  2.26373e+00 
 1.45837e+00  2.67100e-01  2.26046e+00 
 1.04126e+00  1.91259e-01  2.25799e+00 
 6.24613e-01  1.14909e-01  2.25633e+00 
 2.08168e-01  3.83549e-02  2.25550e+00 
-2.08168e-01 -3.83549e-02  2.25550e+00 
-6.24613e-01 -1.14909e-01  2.25633e+00 
-1.04126e+00 -1.91259e-01  2.25799e+00 
-1.45837e+00 -2.67100e-01  2.26046e+00 
-1.87602e+00 -3.42376e-01  2.26373e+00 
-2.29448e+00 -4.16776e-01  2.26779e+00 
-2.71380e+00 -4.90237e-01  2.27262e+00 
-3.13427e+00 -5.62438e-01  2.27817e+00 
-3.55596e+00 -6.33306e-01  2.28443e+00 
-3.97914e+00 -7.02505e-01  2.29135e+00 
-4.40389e+00 -7.69947e-01  2.29888e+00 
-4.83048e+00 -8.35279e-01  2.30695e+00 
-5.25900e+00 -8.98393e-01  2.31552e+00 
-5.68973e+00 -9.58913e-01  2.32448e+00 
-6.12274e+00 -1.01671e+00  2.33377e+00 
-6.55833e+00 -1.07138e+00  2.34325e+00 
-6.99658e+00 -1.12276e+00  2.35282e+00 
-7.43778e+00 -1.17043e+00  2.36232e+00 
-7.88200e+00 -1.21418e+00  2.37160e+00 
-8.32953e+00 -1.25356e+00  2.38045e+00 
-8.78044e+00 -1.28834e+00  2.38866e+00 
-9.23501e+00 -1.31801e+00  2.39596e+00 
-9.69329e+00 -1.34232e+00  2.40208e+00 
-1.01555e+01 -1.36072e+00  2.40664e+00 
-1.06217e+01 -1.37293e+00  2.40929e+00 
-1.10922e+01 -1.37839e+00  2.40954e+00 
-1.15667e+01 -1.37679e+00  2.40691e+00 
-1.20455e+01 -1.36757e+00  2.40077e+00 
-1.25284e+01 -1.35042e+00  2.39048e+00 
-1.30155e+01 -1.32482e+00  2.37524e+00 
-1.35063e+01 -1.29054e+00  2.35420e+00 
-1.40006e+01 -1.24715e+00  2.32636e+00 
-1.44979e+01 -1.19458e+00  2.29065e+00 
-1.49974e+01 -1.13265e+00  2.24582e+00 
-1.54982e+01 -1.06160e+00  2.19057e+00 
-1.59990e+01 -9.81669e-01  2.12349e+00 
-1.64980e+01 -8.93695e-01  2.04312e+00 
-1.69930e+01 -7.98656e-01  1.94803e+00 
-1.74811e+01 -6.98310e-01  1.83692e+00 
-1.79587e+01 -5.94781e-01  1.70883e+00 
-1.84213e+01 -4.91125e-01  1.56336e+00 
-1.88636e+01 -3.90871e-01  1.40115e+00 
-1.92791e+01 -2.98294e-01  1.22418e+00 
-1.96609e+01 -2.17536e-01  1.03650e+00 
-2.00021e+01 -1.52003e-01  8.44257e-01 
-2.02975e+01 -1.01998e-01  6.54957e-01 
-2.05472e+01 -6.43441e-02  4.75949e-01 
-2.07547e+01 -2.58934e-02  3.03219e-01 
-2.09656e+01 -8.82692e-03  1.46859e-01 
-2.10993e+01 -7.56917e-03  1.04193e-01 
 2.06534e+01 -4.16037e-02  7.03723e-02 
 2.04141e+01  7.46661e-03  1.19178e-01 
 2.01570e+01  1.18020e-02  2.33669e-01 
 1.98785e+01  2.11834e-02  3.62099e-01 
 1.95869e+01  3.98655e-02  5.01001e-01 
 1.92771e+01  6.46409e-02  6.45565e-01 
 1.89473e+01  9.59229e-02  7.93903e-01 
 1.85963e+01  1.34115e-01  9.43360e-01 
 1.82246e+01  1.79064e-01  1.09129e+00 
 1.78337e+01  2.30080e-01  1.23501e+00 
 1.74259e+01  2.85811e-01  1.37239e+00 
 1.70035e+01  3.44816e-01  1.50178e+00 
 1.65692e+01  4.05405e-01  1.62216e+00 
 1.61251e+01  4.66167e-01  1.73292e+00 
 1.56734e+01  5.25639e-01  1.83394e+00 
 1.52161e+01  5.82775e-01  1.92532e+00 
 1.47547e+01  6.36511e-01  2.00741e+00 
 1.42905e+01  6.86213e-01  2.08071e+00 
 1.38249e+01  7.31196e-01  2.14578e+00 
 1.33587e+01  7.71171e-01  2.20325e+00 
 1.28927e+01  8.05746e-01  2.25374e+00 
 1.24274e+01  8.34889e-01  2.29790e+00 
 1.19635e+01  8.58413e-01  2.33632e+00 
 1.15013e+01  8.76461e-01  2.36960e+00 
 1.10411e+01  8.88983e-01  2.39825e+00 
 1.05831e+01  8.96230e-01  2.42281e+00 
 1.01274e+01  8.98237e-01  2.44371e+00 
 9.67422e+00  8.95322e-01  2.46141e+00 
 9.22356e+00  8.87565e-01  2.47626e+00 
 8.77536e+00  8.75320e-01  2.48864e+00 
 8.32972e+00  8.58690e-01  2.49886e+00 
 7.88648e+00  8.38042e-01  2.50720e+00 
 7.44569e+00  8.13490e-01  2.51392e+00 
 7.00716e+00  7.85401e-01  2.51926e+00 
 6.57091e+00  7.53888e-01  2.52341e+00 
 6.13672e+00  7.19312e-01  2.52657e+00 
 5.70459e+00  6.81780e-01  2.52889e+00 
 5.27429e+00  6.41645e-01  2.53053e+00 
 4.84580e+00  5.99005e-01  2.53160e+00 
 4.41889e+00  5.54201e-01  2.53224e+00 
 3.99353e+00  5.07322e-01  2.53253e+00 
 3.56947e+00  4.58700e-01  2.53256e+00 
 3.14668e+00  4.08414e-01  2.53241e+00 
 2.72491e+00  3.56788e-01  2.53215e+00 
 2.30413e+00  3.03892e-01  2.53182e+00 
 1.88410e+00  2.50041e-01  2.53149e+00 
 1.46476e+00  1.95303e-01  2.53117e+00 
 1.04588e+00  1.39985e-01  2.53091e+00 
 6.27406e-01  8.41492e-02  2.53073e+00 
 2.09101e-01  2.81011e-02  2.53063e+00 
-2.09101e-01 -2.81011e-02  2.53063e+00 
-6.27406e-01 -8.41492e-02  2.53073e+00 
-1.04588e+00 -1.39985e-01  2.53091e+00 
-1.46476e+00 -1.95303e-01  2.53117e+00 
-1.88410e+00 -2.50041e-01  2.53149e+00 
-2.30413e+00 -3.03892e-01  2.53182e+00 
-2.72491e+00 -3.56788e-01  2.53215e+00 
-3.14668e+00 -4.08414e-01  2.53241e+00 
-3.56947e+00 -4.58700e-01  2.53256e+00 
-3.99353e+00 -5.07322e-01  2.53253e+00 
-4.41889e+00 -5.54201e-01  2.53224e+00 
-4.84580e+00 -5.99005e-01  2.53160e+00 
-5.27429e+00 -6.41645e-01  2.53053e+00 
-5.70459e+00 -6.81780e-01  2.52889e+00 
-6.13672e+00 -7.19312e-01  2.52657e+00 
-6.57091e+00 -7.53888e-01  2.52341e+00 
-7.00716e+00 -7.85401e-01  2.51926e+00 
-7.44569e+00 -8.13490e-01  2.51392e+00 
-7.88648e+00 -8.38042e-01  2.50720e+00 
-8.32972e+00 -8.58690e-01  2.49886e+00 
-8.77536e+00 -8.75320e-01  2.48864e+00 
-9.22356e+00 -8.87565e-01  2.47626e+00 
-9.67422e+00 -8.95322e-01  2.46141e+00 
-1.01274e+01 -8.98237e-01  2.44371e+00 
-1.05831e+01 -8.96230e-01  2.42281e+00 
-1.10411e+01 -8.88983e-01  2.39825e+00 
-1.15013e+01 -8.76461e-01  2.36960e+00 
-1.19635e+01 -8.58413e-01  2.33632e+00 
-1.24274e+01 -8.34889e-01  2.29790e+00 
-1.28927e+01 -8.05746e-01  2.25374e+00 
-1.33587e+01 -7.71171e-01  2.20325e+00 
-1.38249e+01 -7.31196e-01  2.14578e+00 
-1.42905e+01 -6.86213e-01  2.08071e+00 
-1.47547e+01 -6.36511e-01  2.00741e+00 
-1.52161e+01 -5.82775e-01  1.92532e+00 
-1.56734e+01 -5.25639e-01  1.83394e+00 
-1.61251e+01 -4.66167e-01  1.73292e+00 
-1.65692e+01 -4.05405e-01  1.62216e+00 
-1.70035e+01 -3.44816e-01  1.50178e+00 
-1.74259e+01 -2.85811e-01  1.37239e+00 
-1.78337e+01 -2.30080e-01  1.23501e+00 
-1.82246e+01 -1.79064e-01  1.09129e+00 
-1.85963e+01 -1.34115e-01  9.43360e-01 
-1.89473e+01 -9.59229e-02  7.93903e-01 
-1.92771e+01 -6.46409e-02  6.45565e-01 
-1.95869e+01 -3.98655e-02  5.01001e-01 
-1.98785e+01 -2.11834e-02  3.62099e-01 
-2.01570e+01 -1.18020e-02  2.33669e-01 
-2.04141e+01 -7.46661e-03  1.19178e-01 
-2.06534e+01  4.16037e-02  7.03723e-02 
 2.02575e+01 -4.88022e-02  6.26726e-02 
 1.99756e+01  1.08705e-03  1.03377e-01 
 1.96678e+01  3.28958e-03  2.07033e-01 
 1.93562e+01  7.47790e-03  3.17573e-01 
 1.90362e+01  1.39257e-02  4.34251e-01 
 1.87074e+01  2.41952e-02  5.55935e-01 
 1.83687e+01  3.82845e-02  6.80973e-01 
 1.80191e+01  5.63278e-02  8.07817e-01 
 1.76584e+01  7.81904e-02  9.35094e-01 
 1.72863e+01  1.03789e-01  1.06136e+00 
 1.69033e+01  1.32698e-01  1.18536e+00 
 1.65098e+01  1.64500e-01  1.30588e+00 
 1.61071e+01  1.98465e-01  1.42197e+00 
 1.56959e+01  2.33973e-01  1.53281e+00 
 1.52775e+01  2.70181e-01  1.63788e+00 
 1.48529e+01  3.06463e-01  1.73678e+00 
 1.44233e+01  3.42033e-01  1.82935e+00 
 1.39894e+01  3.76380e-01  1.91551e+00 
 1.35524e+01  4.08855e-01  1.99536e+00 
 1.31129e+01  4.39112e-01  2.06904e+00 
 1.26717e+01  4.66660e-01  2.13680e+00 
 1.22294e+01  4.91314e-01  2.19889e+00 
 1.17866e+01  5.12728e-01  2.25564e+00 
 1.13436e+01  5.30853e-01  2.30736e+00 
 1.09009e+01  5.45464e-01  2.35438e+00 
 1.04588e+01  5.56621e-01  2.39704e+00 
 1.00175e+01  5.64188e-01  2.43565e+00 
 9.57727e+00  5.68306e-01  2.47054e+00 
 9.13826e+00  5.68907e-01  2.50200e+00 
 8.70051e+00  5.66187e-01  2.53032e+00 
 8.26421e+00  5.60126e-01  2.55575e+00 
 7.82931e+00  5.50958e-01  2.57856e+00 
 7.39595e+00  5.38694e-01  2.59897e+00 
 6.96401e+00  5.23593e-01  2.61721e+00 
 6.53360e+00  5.05685e-01  2.63345e+00 
 6.10458e+00  4.85246e-01  2.64790e+00 
 5.67700e+00  4.62316e-01  2.66071e+00 
 5.25071e+00  4.37179e-01  2.67203e+00 
 4.82574e+00  4.09882e-01  2.68200e+00 
 4.40191e+00  3.80713e-01  2.69074e+00 
 3.97923e+00  3.49723e-01  2.69835e+00 
 3.55753e+00  3.17198e-01  2.70495e+00 
 3.13680e+00  2.83191e-01  2.71060e+00 
 2.71684e+00  2.47989e-01  2.71539e+00 
 2.29766e+00  2.11642e-01  2.71939e+00 
 1.87903e+00  1.74437e-01  2.72263e+00 
 1.46097e+00  1.36424e-01  2.72518e+00 
 1.04325e+00  9.78864e-02  2.72706e+00 
 6.25860e-01  5.88751e-02  2.72829e+00 
 2.08590e-01  1.96727e-02  2.72891e+00 
-2.08590e-01 -1.96727e-02  2.72891e+00 
-6.25860e-01 -5.88751e-02  2.72829e+00 
-1.04325e+00 -9.78864e-02  2.72706e+00 
-1.46097e+00 -1.36424e-01  2.72518e+00 
-1.87903e+00 -1.74437e-01  2.72263e+00 
-2.29766e+00 -2.11642e-01  2.71939e+00 
-2.71684e+00 -2.47989e-01  2.71539e+00 
-3.13680e+00 -2.83191e-01  2.71060e+00 
-3.55753e+00 -3.17198e-01  2.70495e+00 
-3.97923e+00 -3.49723e-01  2.69835e+00 
-4.40191e+00 -3.80713e-01  2.69074e+00 
-4.82574e+00 -4.09882e-01  2.68200e+00 
-5.25071e+00 -4.37179e-01  2.67203e+00 
-5.67700e+00 -4.62316e-01  2.66071e+00 
-6.10458e+00 -4.85246e-01  2.64790e+00 
-6.53360e+00 -5.05685e-01  2.63345e+00 
-6.96401e+00 -5.23593e-01  2.61721e+00 
-7.39595e+00 -5.38694e-01  2.59897e+00 
-7.82931e+00 -5.50958e-01  2.57856e+00 
-8.26421e+00 -5.60126e-01  2.55575e+00 
-8.70051e+00 -5.66187e-01  2.53032e+00 
-9.13826e+00 -5.68907e-01  2.50200e+00 
-9.57727e+00 -5.68306e-01  2.47054e+00 
-1.00175e+01 -5.64188e-01  2.43565e+00 
-1.04588e+01 -5.56621e-01  2.39704e+00 
-1.09009e+01 -5.45464e-01  2.35438e+00 
-1.13436e+01 -5.30853e-01  2.30736e+00 
-1.17866e+01 -5.12728e-01  2.25564e+00 
-1.22294e+01 -4.91314e-01  2.19889e+00 
-1.26717e+01 -4.66660e-01  2.13680e+00 
-1.31129e+01 -4.39112e-01  2.06904e+00 
-1.35524e+01 -4.08855e-01  1.99536e+00 
-1.39894e+01 -3.76380e-01  1.91551e+00 
-1.44233e+01 -3.42033e-01  1.82935e+00 
-1.48529e+01 -3.06463e-01  1.73678e+00 
-1.52775e+01 -2.70181e-01  1.63788e+00 
-1.56959e+01 -2.33973e-01  1.53281e+00 
-1.61071e+01 -1.98465e-01  1.42197e+00 
-1.65098e+01 -1.64500e-01  1.30588e+00 
-1.69033e+01 -1.32698e-01  1.18536e+00 
-1.72863e+01 -1.03789e-01  1.06136e+00 
-1.76584e+01 -7.81904e-02  9.35094e-01 
-1.80191e+01 -5.63278e-02  8.07817e-01 
-1.83687e+01 -3.82845e-02  6.80973e-01 
-1.87074e+01 -2.41952e-02  5.55935e-01 
-1.90362e+01 -1.39257e-02  4.34251e-01 
-1.93562e+01 -7.47790e-03  3.17573e-01 
-1.96678e+01 -3.28958e-03  2.07033e-01 
-1.99756e+01 -1.08705e-03  1.03377e-01 
-2.02575e+01  4.88022e-02  6.26726e-02 
 1.98756e+01 -5.57638e-02  5.91606e-02 
 1.95664e+01 -3.56202e-04  9.91854e-02 
 1.92330e+01 -3.96894e-04  1.98154e-01 
 1.88975e+01  3.38578e-04  3.01519e-01 
 1.85592e+01  2.22887e-03  4.08599e-01 
 1.82167e+01  5.63339e-03  5.18655e-01 
 1.78692e+01  1.09133e-02  6.31057e-01 
 1.75159e+01  1.83855e-02  7.44933e-01 
 1.71565e+01  2.80728e-02  8.59506e-01 
 1.67905e+01  4.00634e-02  9.73896e-01 
 1.64179e+01  5.41847e-02  1.08737e+00 
 1.60386e+01  7.03613e-02  1.19912e+00 
 1.56531e+01  8.82619e-02  1.30853e+00 
 1.52614e+01  1.07677e-01  1.41493e+00 
 1.48641e+01  1.28161e-01  1.51787e+00 
 1.44617e+01  1.49433e-01  1.61687e+00 
 1.40548e+01  1.71002e-01  1.71166e+00 
 1.36438e+01  1.92582e-01  1.80198e+00 
 1.32295e+01  2.13700e-01  1.88770e+00 
 1.28121e+01  2.34114e-01  1.96874e+00 
 1.23924e+01  2.53408e-01  2.04511e+00 
 1.19707e+01  2.71411e-01  2.11684e+00 
 1.15475e+01  2.87777e-01  2.18404e+00 
 1.11231e+01  3.02416e-01  2.24681e+00 
 1.06981e+01  3.15056e-01  2.30533e+00 
 1.02724e+01  3.25680e-01  2.35974e+00 
 9.84669e+00  3.34084e-01  2.41024e+00 
 9.42089e+00  3.40316e-01  2.45701e+00 
 8.99536e+00  3.44229e-01  2.50024e+00 
 8.57014e+00  3.45925e-01  2.54013e+00 
 8.14548e+00  3.45303e-01  2.57686e+00 
 7.72137e+00  3.42508e-01  2.61062e+00 
 7.29801e+00  3.37474e-01  2.64158e+00 
 6.87533e+00  3.30378e-01  2.66990e+00 
 6.45348e+00  3.21183e-01  2.69575e+00 
 6.03239e+00  3.10089e-01  2.71928e+00 
 5.61216e+00  2.97078e-01  2.74063e+00 
 5.19268e+00  2.82370e-01  2.75993e+00 
 4.77404e+00  2.65961e-01  2.77729e+00 
 4.35610e+00  2.48081e-01  2.79283e+00 
 3.93893e+00  2.28738e-01  2.80665e+00 
 3.52238e+00  2.08170e-01  2.81884e+00 
 3.10649e+00  1.86393e-01  2.82947e+00 
 2.69110e+00  1.63649e-01  2.83862e+00 
 2.27626e+00  1.39960e-01  2.84635e+00 
 1.86178e+00  1.15572e-01  2.85272e+00 
 1.44771e+00  9.05087e-02  2.85776e+00 
 1.03386e+00  6.50186e-02  2.86151e+00 
 6.20264e-01  3.91274e-02  2.86399e+00 
 2.06730e-01  1.30845e-02  2.86523e+00 
-2.06730e-01 -1.30845e-02  2.86523e+00 
-6.20264e-01 -3.91274e-02  2.86399e+00 
-1.03386e+00 -6.50186e-02  2.86151e+00 
-1.44771e+00 -9.05087e-02  2.85776e+00 
-1.86178e+00 -1.15572e-01  2.85272e+00 
-2.27626e+00 -1.39960e-01  2.84635e+00 
-2.69110e+00 -1.63649e-01  2.83862e+00 
-3.10649e+00 -1.86393e-01  2.82947e+00 
-3.52238e+00 -2.08170e-01  2.81884e+00 
-3.93893e+00 -2.28738e-01  2.80665e+00 
-4.35610e+00 -2.48081e-01  2.79283e+00 
-4.77404e+00 -2.65961e-01  2.77729e+00 
-5.19268e+00 -2.82370e-01  2.75993e+00 
-5.61216e+00 -2.97078e-01  2.74063e+00 
-6.03239e+00 -3.10089e-01  2.71928e+00 
-6.45348e+00 -3.21183e-01  2.69575e+00 
-6.87533e+00 -3.30378e-01  2.66990e+00 
-7.29801e+00 -3.37474e-01  2.64158e+00 
-7.72137e+00 -3.42508e-01  2.61062e+00 
-8.14548e+00 -3.45303e-01  2.57686e+00 
-8.57014e+00 -3.45925e-01  2.54013e+00 
-8.99536e+00 -3.44229e-01  2.50024e+00 
-9.42089e+00 -3.40316e-01  2.45701e+00 
-9.84669e+00 -3.34084e-01  2.41024e+00 
-1.02724e+01 -3.25680e-01  2.35974e+00 
-1.06981e+01 -3.15056e-01  2.30533e+00 
-1.11231e+01 -3.02416e-01  2.24681e+00 
-1.15475e+01 -2.87777e-01  2.18404e+00 
-1.19707e+01 -2.71411e-01  2.11684e+00 
-1.23924e+01 -2.53408e-01  2.04511e+00 
-1.28121e+01 -2.34114e-01  1.96874e+00 
-1.32295e+01 -2.13700e-01  1.88770e+00 
-1.36438e+01 -1.92582e-01  1.80198e+00 
-1.40548e+01 -1.71002e-01  1.71166e+00 
-1.44617e+01 -1.49433e-01  1.61687e+00 
-1.48641e+01 -1.28161e-01  1.51787e+00 
-1.52614e+01 -1.07677e-01  1.41493e+00 
-1.56531e+01 -8.82619e-02  1.30853e+00 
-1.60386e+01 -7.03613e-02  1.19912e+00 
-1.64179e+01 -5.41847e-02  1.08737e+00 
-1.67905e+01 -4.00634e-02  9.73896e-01 
-1.71565e+01 -2.80728e-02  8.59506e-01 
-1.75159e+01 -1.83855e-02  7.44933e-01 
-1.78692e+01 -1.09133e-02  6.31057e-01 
-1.82167e+01 -5.63339e-03  5.18655e-01 
-1.85592e+01 -2.22887e-03  4.08599e-01 
-1.88975e+01 -3.38578e-04  3.01519e-01 
-1.92330e+01  3.96894e-04  1.98154e-01 
-1.95664e+01  3.56202e-04  9.91854e-02 
-1.98756e+01  5.57638e-02  5.91606e-02 
 1.94871e+01 -5.87677e-02  5.87754e-02 
 1.91635e+01 -1.17012e-03  9.88858e-02 
 1.88151e+01 -1.88219e-03  1.97809e-01 
 1.84666e+01 -2.62334e-03  2.98934e-01 
 1.81172e+01 -3.14196e-03  4.02063e-01 
 1.77661e+01 -3.00208e-03  5.06799e-01 
 1.74127e+01 -2.04907e-03  6.12791e-01 
 1.70563e+01  2.11394e-05  7.19558e-01 
 1.66965e+01  3.27422e-03  8.26688e-01 
 1.63331e+01  7.89010e-03  9.33648e-01 
 1.59657e+01  1.38099e-02  1.04001e+00 
 1.55942e+01  2.11003e-02  1.14524e+00 
 1.52186e+01  2.95979e-02  1.24895e+00 
 1.48390e+01  3.92806e-02  1.35067e+00 
 1.44554e+01  4.99042e-02  1.45007e+00 
 1.40679e+01  6.13836e-02  1.54674e+00 
 1.36770e+01  7.34226e-02  1.64046e+00 
 1.32827e+01  8.59038e-02  1.73094e+00 
 1.28855e+01  9.85098e-02  1.81802e+00 
 1.24855e+01  1.11121e-01  1.90151e+00 
 1.20832e+01  1.23426e-01  1.98137e+00 
 1.16788e+01  1.35325e-01  2.05748e+00 
 1.12726e+01  1.46532e-01  2.12986e+00 
 1.08648e+01  1.56982e-01  2.19849e+00 
 1.04559e+01  1.66425e-01  2.26342e+00 
 1.00458e+01  1.74836e-01  2.32469e+00 
 9.63509e+00  1.82005e-01  2.38240e+00 
 9.22369e+00  1.87950e-01  2.43661e+00 
 8.81193e+00  1.92498e-01  2.48744e+00 
 8.39986e+00  1.95708e-01  2.53499e+00 
 7.98773e+00  1.97441e-01  2.57937e+00 
 7.57554e+00  1.97791e-01  2.62068e+00 
 7.16350e+00  1.96650e-01  2.65907e+00 
 6.75158e+00  1.94142e-01  2.69462e+00 
 6.33996e+00  1.90184e-01  2.72746e+00 
 5.92857e+00  1.84925e-01  2.75768e+00 
 5.51758e+00  1.78303e-01  2.78541e+00 
 5.10688e+00  1.70485e-01  2.81073e+00 
 4.69662e+00  1.61428e-01  2.83374e+00 
 4.28667e+00  1.51313e-01  2.85451e+00 
 3.87714e+00  1.40110e-01  2.87315e+00 
 3.46792e+00  1.28012e-01  2.88971e+00 
 3.05908e+00  1.14999e-01  2.90426e+00 
 2.65051e+00  1.01272e-01  2.91686e+00 
 2.24227e+00  8.68195e-02  2.92757e+00 
 1.83421e+00  7.18478e-02  2.93642e+00 
 1.42642e+00  5.63505e-02  2.94346e+00 
 1.01873e+00  4.05380e-02  2.94871e+00 
 6.11218e-01  2.44076e-02  2.95220e+00 
 2.03720e-01  8.17164e-03  2.95394e+00 
-2.03720e-01 -8.17164e-03  2.95394e+00 
-6.11218e-01 -2.44076e-02  2.95220e+00 
-1.01873e+00 -4.05380e-02  2.94871e+00 
-1.42642e+00 -5.63505e-02  2.94346e+00 
-1.83421e+00 -7.18478e-02  2.93642e+00 
-2.24227e+00 -8.68195e-02  2.92757e+00 
-2.65051e+00 -1.01272e-01  2.91686e+00 
-3.05908e+00 -1.14999e-01  2.90426e+00 
-3.46792e+00 -1.28012e-01  2.88971e+00 
-3.87714e+00 -1.40110e-01  2.87315e+00 
-4.28667e+00 -1.51313e-01  2.85451e+00 
-4.69662e+00 -1.61428e-01  2.83374e+00 
-5.10688e+00 -1.70485e-01  2.81073e+00 
-5.51758e+00 -1.78303e-01  2.78541e+00 
-5.92857e+00 -1.84925e-01  2.75768e+00 
-6.33996e+00 -1.90184e-01  2.72746e+00 
-6.75158e+00 -1.94142e-01  2.69462e+00 
-7.16350e+00 -1.96650e-01  2.65907e+00 
-7.57554e+00 -1.97791e-01  2.62068e+00 
-7.98773e+00 -1.97441e-01  2.57937e+00 
-8.39986e+00 -1.95708e-01  2.53499e+00 
-8.81193e+00 -1.92498e-01  2.48744e+00 
-9.22369e+00 -1.87950e-01  2.43661e+00 
-9.63509e+00 -1.82005e-01  2.38240e+00 
-1.00458e+01 -1.74836e-01  2.32469e+00 
-1.04559e+01 -1.66425e-01  2.26342e+00 
-1.08648e+01 -1.56982e-01  2.19849e+00 
-1.12726e+01 -1.46532e-01  2.12986e+00 
-1.16788e+01 -1.35325e-01  2.05748e+00 
-1.20832e+01 -1.23426e-01  1.98137e+00 
-1.24855e+01 -1.11121e-01  1.90151e+00 
-1.28855e+01 -9.85098e-02  1.81802e+00 
-1.32827e+01 -8.59038e-02  1.73094e+00 
-1.36770e+01 -7.34226e-02  1.64046e+00 
-1.40679e+01 -6.13836e-02  1.54674e+00 
-1.44554e+01 -4.99042e-02  1.45007e+00 
-1.48390e+01 -3.92806e-02  1.35067e+00 
-1.52186e+01 -2.95979e-02  1.24895e+00 
-1.55942e+01 -2.11003e-02  1.14524e+00 
-1.59657e+01 -1.38099e-02  1.04001e+00 
-1.63331e+01 -7.89010e-03  9.33648e-01 
-1.66965e+01 -3.27422e-03  8.26688e-01 
-1.70563e+01 -2.11394e-05  7.19558e-01 
-1.74127e+01  2.04907e-03  6.12791e-01 
-1.77661e+01  3.00208e-03  5.06799e-01 
-1.81172e+01  3.14196e-03  4.02063e-01 
-1.84666e+01  2.62334e-03  2.98934e-01 
-1.88151e+01  1.88219e-03  1.97809e-01 
-1.91635e+01  1.17012e-03  9.88858e-02 
-1.94871e+01  5.87677e-02  5.87754e-02 
 1.90852e+01 -6.01644e-02  5.95823e-02 
 1.87548e+01 -1.38383e-03  1.00566e-01 
 1.83993e+01 -2.40408e-03  2.01137e-01 
 1.80445e+01 -3.75143e-03  3.02531e-01 
 1.76897e+01 -5.28467e-03  4.04672e-01 
 1.73345e+01 -6.68152e-03  5.07346e-01 
 1.69784e+01 -7.81902e-03  6.10398e-01 
 1.66209e+01 -8.43601e-03  7.13539e-01 
 1.62617e+01 -8.48217e-03  8.16559e-01 
 1.59005e+01 -7.76238e-03  9.19125e-01 
 1.55370e+01 -6.29599e-03  1.02100e+00 
 1.51710e+01 -3.95598e-03  1.12184e+00 
 1.48024e+01 -8.28979e-04  1.22140e+00 
 1.44312e+01  3.15156e-03  1.31935e+00 
 1.40573e+01  7.84228e-03  1.41548e+00 
 1.36808e+01  1.32623e-02  1.50949e+00 
 1.33017e+01  1.92255e-02  1.60119e+00 
 1.29200e+01  2.57189e-02  1.69034e+00 
 1.25361e+01  3.25293e-02  1.77681e+00 
 1.21499e+01  3.96279e-02  1.86041e+00 
 1.17616e+01  4.67901e-02  1.94106e+00 
 1.13715e+01  5.39857e-02  2.01862e+00 
 1.09797e+01  6.09924e-02  2.09306e+00 
 1.05863e+01  6.77906e-02  2.16430e+00 
 1.01916e+01  7.41702e-02  2.23234e+00 
 9.79570e+00  8.01299e-02  2.29714e+00 
 9.39881e+00  8.54786e-02  2.35875e+00 
 9.00099e+00  9.02380e-02  2.41716e+00 
 8.60250e+00  9.42390e-02  2.47243e+00 
 8.20334e+00  9.75278e-02  2.52458e+00 
 7.80377e+00  9.99583e-02  2.57369e+00 
 7.40376e+00  1.01601e-01  2.61979e+00 
 7.00352e+00  1.02331e-01  2.66296e+00 
 6.60303e+00  1.02242e-01  2.70327e+00 
 6.20246e+00  1.01230e-01  2.74078e+00 
 5.80177e+00  9.94064e-02  2.77555e+00 
 5.40113e+00  9.66865e-02  2.80767e+00 
 5.00045e+00  9.31995e-02  2.83718e+00 
 4.59989e+00  8.88745e-02  2.86416e+00 
 4.19935e+00  8.38555e-02  2.88866e+00 
 3.79897e+00  7.80842e-02  2.91074e+00 
 3.39865e+00  7.17159e-02  2.93046e+00 
 2.99850e+00  6.47028e-02  2.94787e+00 
 2.59840e+00  5.72090e-02  2.96299e+00 
 2.19847e+00  4.91947e-02  2.97589e+00 
 1.79858e+00  4.08305e-02  2.98658e+00 
 1.39883e+00  3.20824e-02  2.99510e+00 
 9.99091e-01  2.31256e-02  3.00147e+00 
 5.99460e-01  1.39300e-02  3.00571e+00 
 1.99805e-01  4.67319e-03  3.00783e+00 
-1.99805e-01 -4.67319e-03  3.00783e+00 
-5.99460e-01 -1.39300e-02  3.00571e+00 
-9.99091e-01 -2.31256e-02  3.00147e+00 
-1.39883e+00 -3.20824e-02  2.99510e+00 
-1.79858e+00 -4.08305e-02  2.98658e+00 
-2.19847e+00 -4.91947e-02  2.97589e+00 
-2.59840e+00 -5.72090e-02  2.96299e+00 
-2.99850e+00 -6.47028e-02  2.94787e+00 
-3.39865e+00 -7.17159e-02  2.93046e+00 
-3.79897e+00 -7.80842e-02  2.91074e+00 
-4.19935e+00 -8.38555e-02  2.88866e+00 
-4.59989e+00 -8.88745e-02  2.86416e+00 
-5.00045e+00 -9.31995e-02  2.83718e+00 
-5.40113e+00 -9.66865e-02  2.80767e+00 
-5.80177e+00 -9.94064e-02  2.77555e+00 
-6.20246e+00 -1.01230e-01  2.74078e+00 
-6.60303e+00 -1.02242e-01  2.70327e+00 
-7.00352e+00 -1.02331e-01  2.66296e+00 
-7.40376e+00 -1.01601e-01  2.61979e+00 
-7.80377e+00 -9.99583e-02  2.57369e+00 
-8.20334e+00 -9.75278e-02  2.52458e+00 
-8.60250e+00 -9.42390e-02  2.47243e+00 
-9.00099e+00 -9.02380e-02  2.41716e+00 
-9.39881e+00 -8.54786e-02  2.35875e+00 
-9.79570e+00 -8.01299e-02  2.29714e+00 
-1.01916e+01 -7.41702e-02  2.23234e+00 
-1.05863e+01 -6.77906e-02  2.16430e+00 
-1.09797e+01 -6.09924e-02  2.09306e+00 
-1.13715e+01 -5.39857e-02  2.01862e+00 
-1.17616e+01 -4.67901e-02  1.94106e+00 
-1.21499e+01 -3.96279e-02  1.86041e+00 
-1.25361e+01 -3.25293e-02  1.77681e+00 
-1.29200e+01 -2.57189e-02  1.69034e+00 
-1.33017e+01 -1.92255e-02  1.60119e+00 
-1.36808e+01 -1.32623e-02  1.50949e+00 
-1.40573e+01 -7.84228e-03  1.41548e+00 
-1.44312e+01 -3.15156e-03  1.31935e+00 
-1.48024e+01  8.28979e-04  1.22140e+00 
-1.51710e+01  3.95598e-03  1.12184e+00 
-1.55370e+01  6.29599e-03  1.02100e+00 
-1.59005e+01  7.76238e-03  9.19125e-01 
-1.62617e+01  8.48217e-03  8.16559e-01 
-1.66209e+01  8.43601e-03  7.13539e-01 
-1.69784e+01  7.81902e-03  6.10398e-01 
-1.73345e+01  6.68152e-03  5.07346e-01 
-1.76897e+01  5.28467e-03  4.04672e-01 
-1.80445e+01  3.75143e-03  3.02531e-01 
-1.83993e+01  2.40408e-03  2.01137e-01 
-1.87548e+01  1.38383e-03  1.00566e-01 
-1.90852e+01  6.01644e-02  5.95823e-02 
 1.86680e+01 -6.04307e-02  6.08876e-02 
 1.83358e+01 -1.37155e-03  1.02943e-01 
 1.79784e+01 -2.43825e-03  2.05862e-01 
 1.76220e+01 -3.95322e-03  3.08617e-01 
 1.72662e+01 -5.83854e-03  4.11228e-01 
 1.69105e+01 -7.83118e-03  5.13569e-01 
 1.65547e+01 -9.86523e-03  6.15589e-01 
 1.61983e+01 -1.17120e-02  7.17112e-01 
 1.58411e+01 -1.33426e-02  8.18043e-01 
 1.54829e+01 -1.45694e-02  9.18171e-01 
 1.51235e+01 -1.54054e-02  1.01737e+00 
 1.47626e+01 -1.57047e-02  1.11541e+00 
 1.44001e+01 -1.55222e-02  1.21216e+00 
 1.40359e+01 -1.47514e-02  1.30738e+00 
 1.36700e+01 -1.34856e-02  1.40095e+00 
 1.33023e+01 -1.16521e-02  1.49263e+00 
 1.29328e+01 -9.37630e-03  1.58231e+00 
 1.25614e+01 -6.61171e-03  1.66980e+00 
 1.21883e+01 -3.50740e-03  1.75499e+00 
 1.18135e+01 -3.43279e-05  1.83772e+00 
 1.14371e+01  3.64349e-03  1.91791e+00 
 1.10590e+01  7.54642e-03  1.99544e+00 
 1.06796e+01  1.15040e-02  2.07025e+00 
 1.02988e+01  1.55359e-02  2.14225e+00 
 9.91672e+00  1.94724e-02  2.21142e+00 
 9.53347e+00  2.33390e-02  2.27769e+00 
 9.14923e+00  2.69726e-02  2.34107e+00 
 8.76400e+00  3.04091e-02  2.40152e+00 
 8.37799e+00  3.34958e-02  2.45906e+00 
 7.99117e+00  3.62819e-02  2.51367e+00 
 7.60377e+00  3.86277e-02  2.56538e+00 
 7.21574e+00  4.05970e-02  2.61421e+00 
 6.82729e+00  4.20641e-02  2.66019e+00 
 6.43836e+00  4.31076e-02  2.70333e+00 
 6.04915e+00  4.36155e-02  2.74369e+00 
 5.65959e+00  4.36809e-02  2.78128e+00 
 5.26985e+00  4.32047e-02  2.81616e+00 
 4.87987e+00  4.22931e-02  2.84834e+00 
 4.48979e+00  4.08587e-02  2.87789e+00 
 4.09955e+00  3.90193e-02  2.90483e+00 
 3.70927e+00  3.66979e-02  2.92919e+00 
 3.31888e+00  3.40217e-02  2.95101e+00 
 2.92849e+00  3.09225e-02  2.97033e+00 
 2.53803e+00  2.75354e-02  2.98716e+00 
 2.14760e+00  2.37991e-02  3.00154e+00 
 1.75710e+00  1.98547e-02  3.01349e+00 
 1.36666e+00  1.56463e-02  3.02302e+00 
 9.76166e-01  1.13190e-02  3.03016e+00 
 5.85725e-01  6.82052e-03  3.03491e+00 
 1.95230e-01  2.29828e-03  3.03728e+00 
-1.95230e-01 -2.29828e-03  3.03728e+00 
-5.85725e-01 -6.82052e-03  3.03491e+00 
-9.76166e-01 -1.13190e-02  3.03016e+00 
-1.36666e+00 -1.56463e-02  3.02302e+00 
-1.75710e+00 -1.98547e-02  3.01349e+00 
-2.14760e+00 -2.37991e-02  3.00154e+00 
-2.53803e+00 -2.75354e-02  2.98716e+00 
-2.92849e+00 -3.09225e-02  2.97033e+00 
-3.31888e+00 -3.40217e-02  2.95101e+00 
-3.70927e+00 -3.66979e-02  2.92919e+00 
-4.09955e+00 -3.90193e-02  2.90483e+00 
-4.48979e+00 -4.08587e-02  2.87789e+00 
-4.87987e+00 -4.22931e-02  2.84834e+00 
-5.26985e+00 -4.32047e-02  2.81616e+00 
-5.65959e+00 -4.36809e-02  2.78128e+00 
-6.04915e+00 -4.36155e-02  2.74369e+00 
-6.43836e+00 -4.31076e-02  2.70333e+00 
-6.82729e+00 -4.20641e-02  2.66019e+00 
-7.21574e+00 -4.05970e-02  2.61421e+00 
-7.60377e+00 -3.86277e-02  2.56538e+00 
-7.99117e+00 -3.62819e-02  2.51367e+00 
-8.37799e+00 -3.34958e-02  2.45906e+00 
-8.76400e+00 -3.04091e-02  2.40152e+00 
-9.14923e+00 -2.69726e-02  2.34107e+00 
-9.53347e+00 -2.33390e-02  2.27769e+00 
-9.91672e+00 -1.94724e-02  2.21142e+00 
-1.02988e+01 -1.55359e-02  2.14225e+00 
-1.06796e+01 -1.15040e-02  2.07025e+00 
-1.10590e+01 -7.54642e-03  1.99544e+00 
-1.14371e+01 -3.64349e-03  1.91791e+00 
-1.18135e+01  3.43279e-05  1.83772e+00 
-1.21883e+01  3.50740e-03  1.75499e+00 
-1.25614e+01  6.61171e-03  1.66980e+00 
-1.29328e+01  9.37630e-03  1.58231e+00 
-1.33023e+01  1.16521e-02  1.49263e+00 
-1.36700e+01  1.34856e-02  1.40095e+00 
-1.40359e+01  1.47514e-02  1.30738e+00 
-1.44001e+01  1.55222e-02  1.21216e+00 
-1.47626e+01  1.57047e-02  1.11541e+00 
-1.51235e+01  1.54054e-02  1.01737e+00 
-1.54829e+01  1.45694e-02  9.18171e-01 
-1.58411e+01  1.33426e-02  8.18043e-01 
-1.61983e+01  1.17120e-02  7.17112e-01 
-1.65547e+01  9.86523e-03  6.15589e-01 
-1.69105e+01  7.83118e-03  5.13569e-01 
-1.72662e+01  5.83854e-03  4.11228e-01 
-1.76220e+01  3.95322e-03  3.08617e-01 
-1.79784e+01  2.43825e-03  2.05862e-01 
-1.83358e+01  1.37155e-03  1.02943e-01 
-1.86680e+01  6.04307e-02  6.08876e-02 
 1.82359e+01 -5.99958e-02  6.22851e-02 
 1.79054e+01 -1.23798e-03  1.05420e-01 
 1.75498e+01 -2.23584e-03  2.10788e-01 
 1.71952e+01 -3.69584e-03  3.15310e-01 
 1.68414e+01 -5.58750e-03  4.19042e-01 
 1.64879e+01 -7.69496e-03  5.21909e-01 
 1.61347e+01 -9.98952e-03  6.23915e-01 
 1.57814e+01 -1.22747e-02  7.24951e-01 
 1.54279e+01 -1.45434e-02  8.24987e-01 
 1.50739e+01 -1.66228e-02  9.23883e-01 
 1.47193e+01 -1.85311e-02  1.02159e+00 
 1.43638e+01 -2.01210e-02  1.11794e+00 
 1.40074e+01 -2.14373e-02  1.21287e+00 
 1.36500e+01 -2.23582e-02  1.30623e+00 
 1.32915e+01 -2.29539e-02  1.39792e+00 
 1.29317e+01 -2.31262e-02  1.48779e+00 
 1.25707e+01 -2.29678e-02  1.57577e+00 
 1.22084e+01 -2.24002e-02  1.66169e+00 
 1.18449e+01 -2.15350e-02  1.74551e+00 
 1.14801e+01 -2.03086e-02  1.82707e+00 
 1.11141e+01 -1.88464e-02  1.90632e+00 
 1.07468e+01 -1.70948e-02  1.98315e+00 
 1.03783e+01 -1.51879e-02  2.05752e+00 
 1.00087e+01 -1.30771e-02  2.12932e+00 
 9.63807e+00 -1.09003e-02  2.19854e+00 
 9.26637e+00 -8.60964e-03  2.26509e+00 
 8.89377e+00 -6.34258e-03  2.32897e+00 
 8.52023e+00 -4.04795e-03  2.39013e+00 
 8.14593e+00 -1.85974e-03  2.44855e+00 
 7.77082e+00  2.79277e-04  2.50422e+00 
 7.39508e+00  2.24115e-03  2.55713e+00 
 7.01867e+00  4.09099e-03  2.60727e+00 
 6.64174e+00  5.70842e-03  2.65465e+00 
 6.26426e+00  7.16742e-03  2.69927e+00 
 5.88638e+00  8.35598e-03  2.74115e+00 
 5.50805e+00  9.35727e-03  2.78029e+00 
 5.12942e+00  1.00678e-02  2.81672e+00 
 4.75043e+00  1.05795e-02  2.85044e+00 
 4.37123e+00  1.07973e-02  2.88148e+00 
 3.99174e+00  1.08212e-02  2.90984e+00 
 3.61211e+00  1.05636e-02  2.93557e+00 
 3.23225e+00  1.01318e-02  2.95866e+00 
 2.85231e+00  9.44456e-03  2.97913e+00 
 2.47219e+00  8.61547e-03  2.99701e+00 
 2.09203e+00  7.56855e-03  3.01230e+00 
 1.71174e+00  6.42216e-03  3.02503e+00 
 1.33144e+00  5.10452e-03  3.03520e+00 
 9.51041e-01  3.73733e-03  3.04281e+00 
 5.70662e-01  2.25171e-03  3.04788e+00 
 1.90211e-01  7.71307e-04  3.05042e+00 
-1.90211e-01 -7.71307e-04  3.05042e+00 
-5.70662e-01 -2.25171e-03  3.04788e+00 
-9.51041e-01 -3.73733e-03  3.04281e+00 
-1.33144e+00 -5.10452e-03  3.03520e+00 
-1.71174e+00 -6.42216e-03  3.02503e+00 
-2.09203e+00 -7.56855e-03  3.01230e+00 
-2.47219e+00 -8.61547e-03  2.99701e+00 
-2.85231e+00 -9.44456e-03  2.97913e+00 
-3.23225e+00 -1.01318e-02  2.95866e+00 
-3.61211e+00 -1.05636e-02  2.93557e+00 
-3.99174e+00 -1.08212e-02  2.90984e+00 
-4.37123e+00 -1.07973e-02  2.88148e+00 
-4.75043e+00 -1.05795e-02  2.85044e+00 
-5.12942e+00 -1.00678e-02  2.81672e+00 
-5.50805e+00 -9.35727e-03  2.78029e+00 
-5.88638e+00 -8.35598e-03  2.74115e+00 
-6.26426e+00 -7.16742e-03  2.69927e+00 
-6.64174e+00 -5.70842e-03  2.65465e+00 
-7.01867e+00 -4.09099e-03  2.60727e+00 
-7.39508e+00 -2.24115e-03  2.55713e+00 
-7.77082e+00 -2.79277e-04  2.50422e+00 
-8.14593e+00  1.85974e-03  2.44855e+00 
-8.52023e+00  4.04795e-03  2.39013e+00 
-8.89377e+00  6.34258e-03  2.32897e+00 
-9.26637e+00  8.60964e-03  2.26509e+00 
-9.63807e+00  1.09003e-02  2.19854e+00 
-1.00087e+01  1.30771e-02  2.12932e+00 
-1.03783e+01  1.51879e-02  2.05752e+00 
-1.07468e+01  1.70948e-02  1.98315e+00 
-1.11141e+01  1.88464e-02  1.90632e+00 
-1.14801e+01  2.03086e-02  1.82707e+00 
-1.18449e+01  2.15350e-02  1.74551e+00 
-1.22084e+01  2.24002e-02  1.66169e+00 
-1.25707e+01  2.29678e-02  1.57577e+00 
-1.29317e+01  2.31262e-02  1.48779e+00 
-1.32915e+01  2.29539e-02  1.39792e+00 
-1.36500e+01  2.23582e-02  1.30623e+00 
-1.40074e+01  2.14373e-02  1.21287e+00 
-1.43638e+01  2.01210e-02  1.11794e+00 
-1.47193e+01  1.85311e-02  1.02159e+00 
-1.50739e+01  1.66228e-02  9.23883e-01 
-1.54279e+01  1.45434e-02  8.24987e-01 
-1.57814e+01  1.22747e-02  7.24951e-01 
-1.61347e+01  9.98952e-03  6.23915e-01 
-1.64879e+01  7.69496e-03  5.21909e-01 
-1.68414e+01  5.58750e-03  4.19042e-01 
-1.71952e+01  3.69584e-03  3.15310e-01 
-1.75498e+01  2.23584e-03  2.10788e-01 
-1.79054e+01  1.23798e-03  1.05420e-01 
-1.82359e+01  5.99958e-02  6.22851e-02 
 1.77904e+01 -5.91103e-02  6.36305e-02 
 1.74641e+01 -1.06707e-03  1.07761e-01 
 1.71128e+01 -1.94625e-03  2.15431e-01 
 1.67624e+01 -3.25305e-03  3.21765e-01 
 1.64128e+01 -4.98801e-03  4.26840e-01 
 1.60637e+01 -6.96994e-03  5.30607e-01 
 1.57150e+01 -9.19890e-03  6.33105e-01 
 1.53665e+01 -1.15044e-02  7.34257e-01 
 1.50180e+01 -1.38987e-02  8.34076e-01 
 1.46693e+01 -1.62253e-02  9.32463e-01 
 1.43203e+01 -1.85113e-02  1.02941e+00 
 1.39710e+01 -2.06160e-02  1.12480e+00 
 1.36211e+01 -2.25831e-02  1.21862e+00 
 1.32706e+01 -2.42884e-02  1.31074e+00 
 1.29194e+01 -2.57923e-02  1.40112e+00 
 1.25674e+01 -2.69866e-02  1.48966e+00 
 1.22146e+01 -2.79471e-02  1.57629e+00 
 1.18609e+01 -2.85802e-02  1.66092e+00 
 1.15063e+01 -2.89755e-02  1.74349e+00 
 1.11508e+01 -2.90510e-02  1.82390e+00 
 1.07944e+01 -2.89079e-02  1.90211e+00 
 1.04370e+01 -2.84732e-02  1.97802e+00 
 1.00787e+01 -2.78563e-02  2.05160e+00 
 9.71949e+00 -2.69903e-02  2.12276e+00 
 9.35945e+00 -2.59901e-02  2.19149e+00 
 8.99851e+00 -2.47915e-02  2.25770e+00 
 8.63680e+00 -2.35122e-02  2.32139e+00 
 8.27428e+00 -2.20886e-02  2.38248e+00 
 7.91107e+00 -2.06382e-02  2.44099e+00 
 7.54712e+00 -1.90957e-02  2.49686e+00 
 7.18258e+00 -1.75768e-02  2.55009e+00 
 6.81738e+00 -1.60127e-02  2.60064e+00 
 6.45167e+00 -1.45157e-02  2.64853e+00 
 6.08540e+00 -1.30124e-02  2.69372e+00 
 5.71870e+00 -1.16107e-02  2.73624e+00 
 5.35152e+00 -1.02320e-02  2.77606e+00 
 4.98400e+00 -8.97936e-03  2.81320e+00 
 4.61608e+00 -7.76859e-03  2.84764e+00 
 4.24788e+00 -6.69772e-03  2.87940e+00 
 3.87935e+00 -5.67729e-03  2.90848e+00 
 3.51062e+00 -4.80044e-03  2.93490e+00 
 3.14162e+00 -3.97287e-03  2.95864e+00 
 2.77247e+00 -3.28330e-03  2.97973e+00 
 2.40311e+00 -2.63321e-03  2.99816e+00 
 2.03365e+00 -2.10758e-03  3.01395e+00 
 1.66403e+00 -1.60448e-03  3.02709e+00 
 1.29437e+00 -1.20595e-03  3.03760e+00 
 9.24578e-01 -8.07582e-04  3.04548e+00 
 5.54792e-01 -4.89345e-04  3.05073e+00 
 1.84923e-01 -1.45405e-04  3.05336e+00 
-1.84923e-01  1.45405e-04  3.05336e+00 
-5.54792e-01  4.89345e-04  3.05073e+00 
-9.24578e-01  8.07582e-04  3.04548e+00 
-1.29437e+00  1.20595e-03  3.03760e+00 
-1.66403e+00  1.60448e-03  3.02709e+00 
-2.03365e+00  2.10758e-03  3.01395e+00 
-2.40311e+00  2.63321e-03  2.99816e+00 
-2.77247e+00  3.28330e-03  2.97973e+00 
-3.14162e+00  3.97287e-03  2.95864e+00 
-3.51062e+00  4.80044e-03  2.93490e+00 
-3.87935e+00  5.67729e-03  2.90848e+00 
-4.24788e+00  6.69772e-03  2.87940e+00 
-4.61608e+00  7.76859e-03  2.84764e+00 
-4.98400e+00  8.97936e-03  2.81320e+00 
-5.35152e+00  1.02320e-02  2.77606e+00 
-5.71870e+00  1.16107e-02  2.73624e+00 
-6.08540e+00  1.30124e-02  2.69372e+00 
-6.45167e+00  1.45157e-02  2.64853e+00 
-6.81738e+00  1.60127e-02  2.60064e+00 
-7.18258e+00  1.75768e-02  2.55009e+00 
-7.54712e+00  1.90957e-02  2.49686e+00 
-7.91107e+00  2.06382e-02  2.44099e+00 
-8.27428e+00  2.20886e-02  2.38248e+00 
-8.63680e+00  2.35122e-02  2.32139e+00 
-8.99851e+00  2.47915e-02  2.25770e+00 
-9.35945e+00  2.59901e-02  2.19149e+00 
-9.71949e+00  2.69903e-02  2.12276e+00 
-1.00787e+01  2.78563e-02  2.05160e+00 
-1.04370e+01  2.84732e-02  1.97802e+00 
-1.07944e+01  2.89079e-02  1.90211e+00 
-1.11508e+01  2.90510e-02  1.82390e+00 
-1.15063e+01  2.89755e-02  1.74349e+00 
-1.18609e+01  2.85802e-02  1.66092e+00 
-1.22146e+01  2.79471e-02  1.57629e+00 
-1.25674e+01  2.69866e-02  1.48966e+00 
-1.29194e+01  2.57923e-02  1.40112e+00 
-1.32706e+01  2.42884e-02  1.31074e+00 
-1.36211e+01  2.25831e-02  1.21862e+00 
-1.39710e+01  2.06160e-02  1.12480e+00 
-1.43203e+01  1.85113e-02  1.02941e+00 
-1.46693e+01  1.62253e-02  9.32463e-01 
-1.50180e+01  1.38987e-02  8.34076e-01 
-1.53665e+01  1.15044e-02  7.34257e-01 
-1.57150e+01  9.19890e-03  6.33105e-01 
-1.60637e+01  6.96994e-03  5.30607e-01 
-1.64128e+01  4.98801e-03  4.26840e-01 
-1.67624e+01  3.25305e-03  3.21765e-01 
-1.71128e+01  1.94625e-03  2.15431e-01 
-1.74641e+01  1.06707e-03  1.07761e-01 
-1.77904e+01  5.91103e-02  6.36305e-02 
 1.73336e+01 -5.79254e-02  6.48257e-02 
 1.70131e+01 -8.92172e-04  1.09823e-01 
 1.66678e+01 -1.64093e-03  2.19518e-01 
 1.63234e+01 -2.75751e-03  3.27527e-01 
 1.59797e+01 -4.26642e-03  4.33939e-01 
 1.56365e+01 -6.01342e-03  5.38716e-01 
 1.52937e+01 -8.01971e-03  6.41914e-01 
 1.49512e+01 -1.01363e-02  7.43478e-01 
 1.46089e+01 -1.23909e-02  8.43441e-01 
 1.42665e+01 -1.46425e-02  9.41731e-01 
 1.39242e+01 -1.69273e-02  1.03837e+00 
 1.35816e+01 -1.91140e-02  1.13326e+00 
 1.32388e+01 -2.12491e-02  1.22642e+00 
 1.28956e+01 -2.32119e-02  1.31776e+00 
 1.25521e+01 -2.50597e-02  1.40726e+00 
 1.22079e+01 -2.66825e-02  1.49483e+00 
 1.18633e+01 -2.81483e-02  1.58046e+00 
 1.15181e+01 -2.93571e-02  1.66406e+00 
 1.11722e+01 -3.03870e-02  1.74560e+00 
 1.08257e+01 -3.11470e-02  1.82499e+00 
 1.04785e+01 -3.17238e-02  1.90222e+00 
 1.01306e+01 -3.20339e-02  1.97720e+00 
 9.78204e+00 -3.21711e-02  2.04992e+00 
 9.43273e+00 -3.20574e-02  2.12029e+00 
 9.08278e+00 -3.17921e-02  2.18831e+00 
 8.73209e+00 -3.13010e-02  2.25389e+00 
 8.38080e+00 -3.06869e-02  2.31704e+00 
 8.02880e+00 -2.98776e-02  2.37770e+00 
 7.67624e+00 -2.89778e-02  2.43585e+00 
 7.32303e+00 -2.79159e-02  2.49144e+00 
 6.96929e+00 -2.67969e-02  2.54448e+00 
 6.61497e+00 -2.55483e-02  2.59493e+00 
 6.26019e+00 -2.42742e-02  2.64278e+00 
 5.90487e+00 -2.29005e-02  2.68800e+00 
 5.54916e+00 -2.15294e-02  2.73059e+00 
 5.19298e+00 -2.00843e-02  2.77054e+00 
 4.83647e+00 -1.86650e-02  2.80784e+00 
 4.47955e+00 -1.71920e-02  2.84249e+00 
 4.12235e+00 -1.57626e-02  2.87447e+00 
 3.76481e+00 -1.42939e-02  2.90379e+00 
 3.40706e+00 -1.28805e-02  2.93044e+00 
 3.04901e+00 -1.14368e-02  2.95443e+00 
 2.69081e+00 -1.00546e-02  2.97575e+00 
 2.33238e+00 -8.64563e-03  2.99440e+00 
 1.97384e+00 -7.29941e-03  3.01039e+00 
 1.61511e+00 -5.92544e-03  3.02370e+00 
 1.25633e+00 -4.61141e-03  3.03436e+00 
 8.97419e-01 -3.26520e-03  3.04235e+00 
 5.38499e-01 -1.97315e-03  3.04767e+00 
 1.79492e-01 -6.42171e-04  3.05034e+00 
-1.79492e-01  6.42171e-04  3.05034e+00 
-5.38499e-01  1.97315e-03  3.04767e+00 
-8.97419e-01  3.26520e-03  3.04235e+00 
-1.25633e+00  4.61141e-03  3.03436e+00 
-1.61511e+00  5.92544e-03  3.02370e+00 
-1.97384e+00  7.29941e-03  3.01039e+00 
-2.33238e+00  8.64563e-03  2.99440e+00 
-2.69081e+00  1.00546e-02  2.97575e+00 
-3.04901e+00  1.14368e-02  2.95443e+00 
-3.40706e+00  1.28805e-02  2.93044e+00 
-3.76481e+00  1.42939e-02  2.90379e+00 
-4.12235e+00  1.57626e-02  2.87447e+00 
-4.47955e+00  1.71920e-02  2.84249e+00 
-4.83647e+00  1.86650e-02  2.80784e+00 
-5.19298e+00  2.00843e-02  2.77054e+00 
-5.54916e+00  2.15294e-02  2.73059e+00 
-5.90487e+00  2.29005e-02  2.68800e+00 
-6.26019e+00  2.42742e-02  2.64278e+00 
-6.61497e+00  2.55483e-02  2.59493e+00 
-6.96929e+00  2.67969e-02  2.54448e+00 
-7.32303e+00  2.79159e-02  2.49144e+00 
-7.67624e+00  2.89778e-02  2.43585e+00 
-8.02880e+00  2.98776e-02  2.37770e+00 
-8.38080e+00  3.06869e-02  2.31704e+00 
-8.73209e+00  3.13010e-02  2.25389e+00 
-9.08278e+00  3.17921e-02  2.18831e+00 
-9.43273e+00  3.20574e-02  2.12029e+00 
-9.78204e+00  3.21711e-02  2.04992e+00 
-1.01306e+01  3.20339e-02  1.97720e+00 
-1.04785e+01  3.17238e-02  1.90222e+00 
-1.08257e+01  3.11470e-02  1.82499e+00 
-1.11722e+01  3.03870e-02  1.74560e+00 
-1.15181e+01  2.93571e-02  1.66406e+00 
-1.18633e+01  2.81483e-02  1.58046e+00 
-1.22079e+01  2.66825e-02  1.49483e+00 
-1.25521e+01  2.50597e-02  1.40726e+00 
-1.28956e+01  2.32119e-02  1.31776e+00 
-1.32388e+01  2.12491e-02  1.22642e+00 
-1.35816e+01  1.91140e-02  1.13326e+00 
-1.39242e+01  1.69273e-02  1.03837e+00 
-1.42665e+01  1.46425e-02  9.41731e-01 
-1.46089e+01  1.23909e-02  8.43441e-01 
-1.49512e+01  1.01363e-02  7.43478e-01 
-1.52937e+01  8.01971e-03  6.41914e-01 
-1.56365e+01  6.01342e-03  5.38716e-01 
-1.59797e+01  4.26642e-03  4.33939e-01 
-1.63234e+01  2.75751e-03  3.27527e-01 
-1.66678e+01  1.64093e-03  2.19518e-01 
-1.70131e+01  8.92172e-04  1.09823e-01 
-1.73336e+01  5.79254e-02  6.48257e-02 
 1.68673e+01 -5.65416e-02  6.58257e-02 
 1.65537e+01 -7.21084e-04  1.11544e-01 
 1.62158e+01 -1.33855e-03  2.22942e-01 
 1.58786e+01 -2.26023e-03  3.32413e-01 
 1.55419e+01 -3.52628e-03  4.40042e-01 
 1.52058e+01 -5.00279e-03  5.45797e-01 
 1.48701e+01 -6.72611e-03  6.49742e-01 
 1.45346e+01 -8.56459e-03  7.51831e-01 
 1.41994e+01 -1.05577e-02  8.52111e-01 
 1.38643e+01 -1.25781e-02  9.50525e-01 
 1.35293e+01 -1.46701e-02  1.04711e+00 
 1.31942e+01 -1.67123e-02  1.14179e+00 
 1.28590e+01 -1.87553e-02  1.23459e+00 
 1.25236e+01 -2.06842e-02  1.32545e+00 
 1.21880e+01 -2.25566e-02  1.41436e+00 
 1.18520e+01 -2.42648e-02  1.50127e+00 
 1.15157e+01 -2.58735e-02  1.58616e+00 
 1.11790e+01 -2.72822e-02  1.66896e+00 
 1.08419e+01 -2.85625e-02  1.74968e+00 
 1.05043e+01 -2.96206e-02  1.82823e+00 
 1.01663e+01 -3.05347e-02  1.90462e+00 
 9.82770e+00 -3.12164e-02  1.97876e+00 
 9.48863e+00 -3.17500e-02  2.05065e+00 
 9.14898e+00 -3.20518e-02  2.12023e+00 
 8.80884e+00 -3.22107e-02  2.18749e+00 
 8.46813e+00 -3.21469e-02  2.25237e+00 
 8.12693e+00 -3.19526e-02  2.31486e+00 
 7.78517e+00 -3.15509e-02  2.37490e+00 
 7.44294e+00 -3.10363e-02  2.43250e+00 
 7.10017e+00 -3.03335e-02  2.48759e+00 
 6.75697e+00 -2.95385e-02  2.54019e+00 
 6.41326e+00 -2.85766e-02  2.59025e+00 
 6.06915e+00 -2.75444e-02  2.63777e+00 
 5.72457e+00 -2.63668e-02  2.68270e+00 
 5.37965e+00 -2.51405e-02  2.72507e+00 
 5.03430e+00 -2.37895e-02  2.76482e+00 
 4.68865e+00 -2.24097e-02  2.80197e+00 
 4.34262e+00 -2.09240e-02  2.83650e+00 
 3.99633e+00 -1.94272e-02  2.86840e+00 
 3.64972e+00 -1.78407e-02  2.89766e+00 
 3.30291e+00 -1.62581e-02  2.92428e+00 
 2.95582e+00 -1.45991e-02  2.94825e+00 
 2.60858e+00 -1.29560e-02  2.96956e+00 
 2.26110e+00 -1.12472e-02  2.98822e+00 
 1.91353e+00 -9.56375e-03  3.00421e+00 
 1.56577e+00 -7.82274e-03  3.01755e+00 
 1.21795e+00 -6.11410e-03  3.02822e+00 
 8.70007e-01 -4.35412e-03  3.03622e+00 
 5.22051e-01 -2.63194e-03  3.04155e+00 
 1.74010e-01 -8.63261e-04  3.04422e+00 
-1.74010e-01  8.63261e-04  3.04422e+00 
-5.22051e-01  2.63194e-03  3.04155e+00 
-8.70007e-01  4.35412e-03  3.03622e+00 
-1.21795e+00  6.11410e-03  3.02822e+00 
-1.56577e+00  7.82274e-03  3.01755e+00 
-1.91353e+00  9.56375e-03  3.00421e+00 
-2.26110e+00  1.12472e-02  2.98822e+00 
-2.60858e+00  1.29560e-02  2.96956e+00 
-2.95582e+00  1.45991e-02  2.94825e+00 
-3.30291e+00  1.62581e-02  2.92428e+00 
-3.64972e+00  1.78407e-02  2.89766e+00 
-3.99633e+00  1.94272e-02  2.86840e+00 
-4.34262e+00  2.09240e-02  2.83650e+00 
-4.68865e+00  2.24097e-02  2.80197e+00 
-5.03430e+00  2.37895e-02  2.76482e+00 
-5.37965e+00  2.51405e-02  2.72507e+00 
-5.72457e+00  2.63668e-02  2.68270e+00 
-6.06915e+00  2.75444e-02  2.63777e+00 
-6.41326e+00  2.85766e-02  2.59025e+00 
-6.75697e+00  2.95385e-02  2.54019e+00 
-7.10017e+00  3.03335e-02  2.48759e+00 
-7.44294e+00  3.10363e-02  2.43250e+00 
-7.78517e+00  3.15509e-02  2.37490e+00 
-8.12693e+00  3.19526e-02  2.31486e+00 
-8.46813e+00  3.21469e-02  2.25237e+00 
-8.80884e+00  3.22107e-02  2.18749e+00 
-9.14898e+00  3.20518e-02  2.12023e+00 
-9.48863e+00  3.17500e-02  2.05065e+00 
-9.82770e+00  3.12164e-02  1.97876e+00 
-1.01663e+01  3.05347e-02  1.90462e+00 
-1.05043e+01  2.96206e-02  1.82823e+00 
-1.08419e+01  2.85625e-02  1.74968e+00 
-1.11790e+01  2.72822e-02  1.66896e+00 
-1.15157e+01  2.58735e-02  1.58616e+00 
-1.18520e+01  2.42648e-02  1.50127e+00 
-1.21880e+01  2.25566e-02  1.41436e+00 
-1.25236e+01  2.06842e-02  1.32545e+00 
-1.28590e+01  1.87553e-02  1.23459e+00 
-1.31942e+01  1.67123e-02  1.14179e+00 
-1.35293e+01  1.46701e-02  1.04711e+00 
-1.38643e+01  1.25781e-02  9.50525e-01 
-1.41994e+01  1.05577e-02  8.52111e-01 
-1.45346e+01  8.56459e-03  7.51831e-01 
-1.48701e+01  6.72611e-03  6.49742e-01 
-1.52058e+01  5.00279e-03  5.45797e-01 
-1.55419e+01  3.52628e-03  4.40042e-01 
-1.58786e+01  2.26023e-03  3.32413e-01 
-1.62158e+01  1.33855e-03  2.22942e-01 
-1.65537e+01  7.21084e-04  1.11544e-01 
-1.68673e+01  5.65416e-02  6.58257e-02 
 1.63934e+01 -5.50385e-02  6.66652e-02 
 1.60875e+01 -5.74271e-04  1.12978e-01 
 1.57578e+01 -1.07385e-03  2.25783e-01 
 1.54286e+01 -1.81726e-03  3.36484e-01 
 1.50999e+01 -2.85430e-03  4.45168e-01 
 1.47717e+01 -4.06641e-03  5.51802e-01 
 1.44439e+01 -5.50063e-03  6.56453e-01 
 1.41163e+01 -7.03931e-03  7.59081e-01 
 1.37890e+01 -8.73078e-03  8.59739e-01 
 1.34618e+01 -1.04596e-02  9.58379e-01 
 1.31347e+01 -1.22767e-02  1.05504e+00 
 1.28076e+01 -1.40700e-02  1.14968e+00 
 1.24805e+01 -1.58941e-02  1.24231e+00 
 1.21534e+01 -1.76410e-02  1.33289e+00 
 1.18261e+01 -1.93698e-02  1.42143e+00 
 1.14986e+01 -2.09771e-02  1.50787e+00 
 1.11709e+01 -2.25268e-02  1.59223e+00 
 1.08429e+01 -2.39204e-02  1.67444e+00 
 1.05147e+01 -2.52267e-02  1.75452e+00 
 1.01861e+01 -2.63520e-02  1.83239e+00 
 9.85722e+00 -2.73697e-02  1.90808e+00 
 9.52791e+00 -2.81906e-02  1.98150e+00 
 9.19827e+00 -2.88927e-02  2.05268e+00 
 8.86819e+00 -2.93904e-02  2.12154e+00 
 8.53776e+00 -2.97656e-02  2.18809e+00 
 8.20686e+00 -2.99363e-02  2.25228e+00 
 7.87560e+00 -2.99872e-02  2.31410e+00 
 7.54389e+00 -2.98391e-02  2.37350e+00 
 7.21181e+00 -2.95794e-02  2.43048e+00 
 6.87929e+00 -2.91305e-02  2.48500e+00 
 6.54642e+00 -2.85819e-02  2.53706e+00 
 6.21313e+00 -2.78573e-02  2.58661e+00 
 5.87951e+00 -2.70472e-02  2.63367e+00 
 5.54550e+00 -2.60762e-02  2.67818e+00 
 5.21119e+00 -2.50356e-02  2.72015e+00 
 4.87651e+00 -2.38499e-02  2.75955e+00 
 4.54157e+00 -2.26108e-02  2.79639e+00 
 4.20631e+00 -2.12427e-02  2.83063e+00 
 3.87082e+00 -1.98371e-02  2.86229e+00 
 3.53504e+00 -1.83181e-02  2.89133e+00 
 3.19908e+00 -1.67768e-02  2.91776e+00 
 2.86286e+00 -1.51367e-02  2.94156e+00 
 2.52652e+00 -1.34885e-02  2.96273e+00 
 2.18996e+00 -1.17551e-02  2.98127e+00 
 1.85330e+00 -1.00268e-02  2.99717e+00 
 1.51648e+00 -8.22573e-03  3.01043e+00 
 1.17961e+00 -6.44177e-03  3.02103e+00 
 8.42615e-01 -4.59682e-03  3.02899e+00 
 5.05614e-01 -2.78024e-03  3.03430e+00 
 1.68531e-01 -9.13707e-04  3.03695e+00 
-1.68531e-01  9.13707e-04  3.03695e+00 
-5.05614e-01  2.78024e-03  3.03430e+00 
-8.42615e-01  4.59682e-03  3.02899e+00 
-1.17961e+00  6.44177e-03  3.02103e+00 
-1.51648e+00  8.22573e-03  3.01043e+00 
-1.85330e+00  1.00268e-02  2.99717e+00 
-2.18996e+00  1.17551e-02  2.98127e+00 
-2.52652e+00  1.34885e-02  2.96273e+00 
-2.86286e+00  1.51367e-02  2.94156e+00 
-3.19908e+00  1.67768e-02  2.91776e+00 
-3.53504e+00  1.83181e-02  2.89133e+00 
-3.87082e+00  1.98371e-02  2.86229e+00 
-4.20631e+00  2.12427e-02  2.83063e+00 
-4.54157e+00  2.26108e-02  2.79639e+00 
-4.87651e+00  2.38499e-02  2.75955e+00 
-5.21119e+00  2.50356e-02  2.72015e+00 
-5.54550e+00  2.60762e-02  2.67818e+00 
-5.87951e+00  2.70472e-02  2.63367e+00 
-6.21313e+00  2.78573e-02  2.58661e+00 
-6.54642e+00  2.85819e-02  2.53706e+00 
-6.87929e+00  2.91305e-02  2.48500e+00 
-7.21181e+00  2.95794e-02  2.43048e+00 
-7.54389e+00  2.98391e-02  2.37350e+00 
-7.87560e+00  2.99872e-02  2.31410e+00 
-8.20686e+00  2.99363e-02  2.25228e+00 
-8.53776e+00  2.97656e-02  2.18809e+00 
-8.86819e+00  2.93904e-02  2.12154e+00 
-9.19827e+00  2.88927e-02  2.05268e+00 
-9.52791e+00  2.81906e-02  1.98150e+00 
-9.85722e+00  2.73697e-02  1.90808e+00 
-1.01861e+01  2.63520e-02  1.83239e+00 
-1.05147e+01  2.52267e-02  1.75452e+00 
-1.08429e+01  2.39204e-02  1.67444e+00 
-1.11709e+01  2.25268e-02  1.59223e+00 
-1.14986e+01  2.09771e-02  1.50787e+00 
-1.18261e+01  1.93698e-02  1.42143e+00 
-1.21534e+01  1.76410e-02  1.33289e+00 
-1.24805e+01  1.58941e-02  1.24231e+00 
-1.28076e+01  1.40700e-02  1.14968e+00 
-1.31347e+01  1.22767e-02  1.05504e+00 
-1.34618e+01  1.04596e-02  9.58379e-01 
-1.37890e+01  8.73078e-03  8.59739e-01 
-1.41163e+01  7.03931e-03  7.59081e-01 
-1.44439e+01  5.50063e-03  6.56453e-01 
-1.47717e+01  4.06641e-03  5.51802e-01 
-1.50999e+01  2.85430e-03  4.45168e-01 
-1.54286e+01  1.81726e-03  3.36484e-01 
-1.57578e+01  1.07385e-03  2.25783e-01 
-1.60875e+01  5.74271e-04  1.12978e-01 
-1.63934e+01  5.50385e-02  6.66652e-02 
 1.59132e+01 -5.34542e-02  6.73435e-02 
 1.56157e+01 -4.52006e-04  1.14132e-01 
 1.52948e+01 -8.52374e-04  2.28069e-01 
 1.49743e+01 -1.43953e-03  3.39777e-01 
 1.46543e+01 -2.27145e-03  4.49340e-01 
 1.43346e+01 -3.24222e-03  5.56726e-01 
 1.40152e+01 -4.40637e-03  6.62002e-01 
 1.36961e+01 -5.65768e-03  7.65129e-01 
 1.33772e+01 -7.05077e-03  8.66165e-01 
 1.30585e+01 -8.48029e-03  9.65063e-01 
 1.27399e+01 -1.00021e-02  1.06187e+00 
 1.24213e+01 -1.15126e-02  1.15655e+00 
 1.21028e+01 -1.30697e-02  1.24912e+00 
 1.17842e+01 -1.45725e-02  1.33954e+00 
 1.14656e+01 -1.60815e-02  1.42785e+00 
 1.11469e+01 -1.74987e-02  1.51398e+00 
 1.08281e+01 -1.88879e-02  1.59796e+00 
 1.05090e+01 -2.01545e-02  1.67974e+00 
 1.01899e+01 -2.13656e-02  1.75933e+00 
 9.87042e+00 -2.24299e-02  1.83667e+00 
 9.55077e+00 -2.34181e-02  1.91180e+00 
 9.23082e+00 -2.42420e-02  1.98464e+00 
 8.91064e+00 -2.49757e-02  2.05520e+00 
 8.59012e+00 -2.55342e-02  2.12345e+00 
 8.26935e+00 -2.59944e-02  2.18938e+00 
 7.94822e+00 -2.62743e-02  2.25294e+00 
 7.62682e+00 -2.64535e-02  2.31415e+00 
 7.30506e+00 -2.64522e-02  2.37295e+00 
 6.98303e+00 -2.63524e-02  2.42934e+00 
 6.66063e+00 -2.60763e-02  2.48329e+00 
 6.33798e+00 -2.57077e-02  2.53481e+00 
 6.01497e+00 -2.51702e-02  2.58384e+00 
 5.69170e+00 -2.45493e-02  2.63039e+00 
 5.36811e+00 -2.37697e-02  2.67443e+00 
 5.04428e+00 -2.29178e-02  2.71596e+00 
 4.72014e+00 -2.19191e-02  2.75496e+00 
 4.39579e+00 -2.08608e-02  2.79142e+00 
 4.07115e+00 -1.96689e-02  2.82531e+00 
 3.74633e+00 -1.84309e-02  2.85664e+00 
 3.42126e+00 -1.70730e-02  2.88539e+00 
 3.09605e+00 -1.56831e-02  2.91156e+00 
 2.77061e+00 -1.41873e-02  2.93513e+00 
 2.44505e+00 -1.26736e-02  2.95610e+00 
 2.11931e+00 -1.10680e-02  2.97446e+00 
 1.79350e+00 -9.45862e-03  2.99021e+00 
 1.46753e+00 -7.77127e-03  3.00334e+00 
 1.14152e+00 -6.09391e-03  3.01385e+00 
 8.15405e-01 -4.35232e-03  3.02173e+00 
 4.89284e-01 -2.63438e-03  3.02699e+00 
 1.63088e-01 -8.65763e-04  3.02962e+00 
-1.63088e-01  8.65763e-04  3.02962e+00 
-4.89284e-01  2.63438e-03  3.02699e+00 
-8.15405e-01  4.35232e-03  3.02173e+00 
-1.14152e+00  6.09391e-03  3.01385e+00 
-1.46753e+00  7.77127e-03  3.00334e+00 
-1.79350e+00  9.45862e-03  2.99021e+00 
-2.11931e+00  1.10680e-02  2.97446e+00 
-2.44505e+00  1.26736e-02  2.95610e+00 
-2.77061e+00  1.41873e-02  2.93513e+00 
-3.09605e+00  1.56831e-02  2.91156e+00 
-3.42126e+00  1.70730e-02  2.88539e+00 
-3.74633e+00  1.84309e-02  2.85664e+00 
-4.07115e+00  1.96689e-02  2.82531e+00 
-4.39579e+00  2.08608e-02  2.79142e+00 
-4.72014e+00  2.19191e-02  2.75496e+00 
-5.04428e+00  2.29178e-02  2.71596e+00 
-5.36811e+00  2.37697e-02  2.67443e+00 
-5.69170e+00  2.45493e-02  2.63039e+00 
-6.01497e+00  2.51702e-02  2.58384e+00 
-6.33798e+00  2.57077e-02  2.53481e+00 
-6.66063e+00  2.60763e-02  2.48329e+00 
-6.98303e+00  2.63524e-02  2.42934e+00 
-7.30506e+00  2.64522e-02  2.37295e+00 
-7.62682e+00  2.64535e-02  2.31415e+00 
-7.94822e+00  2.62743e-02  2.25294e+00 
-8.26935e+00  2.59944e-02  2.18938e+00 
-8.59012e+00  2.55342e-02  2.12345e+00 
-8.91064e+00  2.49757e-02  2.05520e+00 
-9.23082e+00  2.42420e-02  1.98464e+00 
-9.55077e+00  2.34181e-02  1.91180e+00 
-9.87042e+00  2.24299e-02  1.83667e+00 
-1.01899e+01  2.13656e-02  1.75933e+00 
-1.05090e+01  2.01545e-02  1.67974e+00 
-1.08281e+01  1.88879e-02  1.59796e+00 
-1.11469e+01  1.74987e-02  1.51398e+00 
-1.14656e+01  1.60815e-02  1.42785e+00 
-1.17842e+01  1.45725e-02  1.33954e+00 
-1.21028e+01  1.30697e-02  1.24912e+00 
-1.24213e+01  1.15126e-02  1.15655e+00 
-1.27399e+01  1.00021e-02  1.06187e+00 
-1.30585e+01  8.48029e-03  9.65063e-01 
-1.33772e+01  7.05077e-03  8.66165e-01 
-1.36961e+01  5.65768e-03  7.65129e-01 
-1.40152e+01  4.40637e-03  6.62002e-01 
-1.43346e+01  3.24222e-03  5.56726e-01 
-1.46543e+01  2.27145e-03  4.49340e-01 
-1.49743e+01  1.43953e-03  3.39777e-01 
-1.52948e+01  8.52374e-04  2.28069e-01 
-1.56157e+01  4.52006e-04  1.14132e-01 
-1.59132e+01  5.34542e-02  6.73435e-02 
 1.54284e+01 -5.18156e-02  6.78650e-02 
 1.51395e+01 -3.43801e-04  1.15022e-01 
 1.48279e+01 -6.57266e-04  2.29843e-01 
 1.45165e+01 -1.11043e-03  3.42354e-01 
 1.42056e+01 -1.76558e-03  4.52631e-01 
 1.38949e+01 -2.52649e-03  5.60640e-01 
 1.35845e+01 -3.45246e-03  6.66445e-01 
 1.32743e+01 -4.44643e-03  7.70009e-01 
 1.29643e+01 -5.56726e-03  8.71388e-01 
 1.26544e+01 -6.71807e-03  9.70541e-01 
 1.23447e+01 -7.95812e-03  1.06752e+00 
 1.20350e+01 -9.19144e-03  1.16227e+00 
 1.17254e+01 -1.04784e-02  1.25485e+00 
 1.14158e+01 -1.17245e-02  1.34520e+00 
 1.11062e+01 -1.29917e-02  1.43336e+00 
 1.07965e+01 -1.41875e-02  1.51929e+00 
 1.04867e+01 -1.53760e-02  1.60300e+00 
 1.01769e+01 -1.64668e-02  1.68446e+00 
 9.86690e+00 -1.75263e-02  1.76368e+00 
 9.55675e+00 -1.84666e-02  1.84062e+00 
 9.24647e+00 -1.93564e-02  1.91531e+00 
 8.93597e+00 -2.01103e-02  1.98768e+00 
 8.62531e+00 -2.07995e-02  2.05775e+00 
 8.31439e+00 -2.13410e-02  2.12549e+00 
 8.00330e+00 -2.18083e-02  2.19089e+00 
 7.69193e+00 -2.21206e-02  2.25393e+00 
 7.38037e+00 -2.23537e-02  2.31460e+00 
 7.06853e+00 -2.24287e-02  2.37287e+00 
 6.75648e+00 -2.24234e-02  2.42874e+00 
 6.44415e+00 -2.22608e-02  2.48217e+00 
 6.13162e+00 -2.20203e-02  2.53318e+00 
 5.81881e+00 -2.16263e-02  2.58172e+00 
 5.50580e+00 -2.11598e-02  2.62780e+00 
 5.19252e+00 -2.05464e-02  2.67139e+00 
 4.87907e+00 -1.98684e-02  2.71249e+00 
 4.56535e+00 -1.90521e-02  2.75108e+00 
 4.25147e+00 -1.81808e-02  2.78715e+00 
 3.93735e+00 -1.71817e-02  2.82069e+00 
 3.62309e+00 -1.61386e-02  2.85169e+00 
 3.30862e+00 -1.49794e-02  2.88013e+00 
 2.99403e+00 -1.37884e-02  2.90602e+00 
 2.67925e+00 -1.24937e-02  2.92934e+00 
 2.36438e+00 -1.11800e-02  2.95009e+00 
 2.04935e+00 -9.77577e-03  2.96825e+00 
 1.73427e+00 -8.36596e-03  2.98384e+00 
 1.41905e+00 -6.87899e-03  2.99683e+00 
 1.10380e+00 -5.40010e-03  3.00722e+00 
 7.88452e-01 -3.85776e-03  3.01503e+00 
 4.73109e-01 -2.33730e-03  3.02023e+00 
 1.57696e-01 -7.67209e-04  3.02283e+00 
-1.57696e-01  7.67209e-04  3.02283e+00 
-4.73109e-01  2.33730e-03  3.02023e+00 
-7.88452e-01  3.85776e-03  3.01503e+00 
-1.10380e+00  5.40010e-03  3.00722e+00 
-1.41905e+00  6.87899e-03  2.99683e+00 
-1.73427e+00  8.36596e-03  2.98384e+00 
-2.04935e+00  9.77577e-03  2.96825e+00 
-2.36438e+00  1.11800e-02  2.95009e+00 
-2.67925e+00  1.24937e-02  2.92934e+00 
-2.99403e+00  1.37884e-02  2.90602e+00 
-3.30862e+00  1.49794e-02  2.88013e+00 
-3.62309e+00  1.61386e-02  2.85169e+00 
-3.93735e+00  1.71817e-02  2.82069e+00 
-4.25147e+00  1.81808e-02  2.78715e+00 
-4.56535e+00  1.90521e-02  2.75108e+00 
-4.87907e+00  1.98684e-02  2.71249e+00 
-5.19252e+00  2.05464e-02  2.67139e+00 
-5.50580e+00  2.11598e-02  2.62780e+00 
-5.81881e+00  2.16263e-02  2.58172e+00 
-6.13162e+00  2.20203e-02  2.53318e+00 
-6.44415e+00  2.22608e-02  2.48217e+00 
-6.75648e+00  2.24234e-02  2.42874e+00 
-7.06853e+00  2.24287e-02  2.37287e+00 
-7.38037e+00  2.23537e-02  2.31460e+00 
-7.69193e+00  2.21206e-02  2.25393e+00 
-8.00330e+00  2.18083e-02  2.19089e+00 
-8.31439e+00  2.13410e-02  2.12549e+00 
-8.62531e+00  2.07995e-02  2.05775e+00 
-8.93597e+00  2.01103e-02  1.98768e+00 
-9.24647e+00  1.93564e-02  1.91531e+00 
-9.55675e+00  1.84666e-02  1.84062e+00 
-9.86690e+00  1.75263e-02  1.76368e+00 
-1.01769e+01  1.64668e-02  1.68446e+00 
-1.04867e+01  1.53760e-02  1.60300e+00 
-1.07965e+01  1.41875e-02  1.51929e+00 
-1.11062e+01  1.29917e-02  1.43336e+00 
-1.14158e+01  1.17245e-02  1.34520e+00 
-1.17254e+01  1.04784e-02  1.25485e+00 
-1.20350e+01  9.19144e-03  1.16227e+00 
-1.23447e+01  7.95812e-03  1.06752e+00 
-1.26544e+01  6.71807e-03  9.70541e-01 
-1.29643e+01  5.56726e-03  8.71388e-01 
-1.32743e+01  4.44643e-03  7.70009e-01 
-1.35845e+01  3.45246e-03  6.66445e-01 
-1.38949e+01  2.52649e-03  5.60640e-01 
-1.42056e+01  1.76558e-03  4.52631e-01 
-1.45165e+01  1.11043e-03  3.42354e-01 
-1.48279e+01  6.57266e-04  2.29843e-01 
-1.51395e+01  3.43801e-04  1.15022e-01 
-1.54284e+01  5.18156e-02  6.78650e-02 
 1.49398e+01 -5.01541e-02  6.82831e-02 
 1.46599e+01 -2.60486e-04  1.15729e-01 
 1.43578e+01 -5.03744e-04  2.31244e-01 
 1.40559e+01 -8.48441e-04  3.44386e-01 
 1.37544e+01 -1.35831e-03  4.55232e-01 
 1.34530e+01 -1.94456e-03  5.63742e-01 
 1.31519e+01 -2.66931e-03  6.69982e-01 
 1.28509e+01 -3.44312e-03  7.73911e-01 
 1.25502e+01 -4.32751e-03  8.75588e-01 
 1.22495e+01 -5.23286e-03  9.74969e-01 
 1.19490e+01 -6.22066e-03  1.07211e+00 
 1.16485e+01 -7.20165e-03  1.16696e+00 
 1.13481e+01 -8.23780e-03  1.25957e+00 
 1.10477e+01 -9.24066e-03  1.34990e+00 
 1.07473e+01 -1.02732e-02  1.43798e+00 
 1.04469e+01 -1.12481e-02  1.52376e+00 
 1.01464e+01 -1.22296e-02  1.60729e+00 
 9.84590e+00 -1.31320e-02  1.68852e+00 
 9.54533e+00 -1.40210e-02  1.76747e+00 
 9.24462e+00 -1.48126e-02  1.84411e+00 
 8.94383e+00 -1.55742e-02  1.91845e+00 
 8.64287e+00 -1.62237e-02  1.99045e+00 
 8.34182e+00 -1.68301e-02  2.06014e+00 
 8.04057e+00 -1.73132e-02  2.12746e+00 
 7.73920e+00 -1.77439e-02  2.19244e+00 
 7.43762e+00 -1.80434e-02  2.25504e+00 
 7.13591e+00 -1.82847e-02  2.31527e+00 
 6.83398e+00 -1.83906e-02  2.37309e+00 
 6.53190e+00 -1.84356e-02  2.42851e+00 
 6.22960e+00 -1.83440e-02  2.48150e+00 
 5.92715e+00 -1.81919e-02  2.53207e+00 
 5.62448e+00 -1.79050e-02  2.58018e+00 
 5.32167e+00 -1.75604e-02  2.62584e+00 
 5.01863e+00 -1.70852e-02  2.66903e+00 
 4.71546e+00 -1.65576e-02  2.70974e+00 
 4.41209e+00 -1.59057e-02  2.74795e+00 
 4.10859e+00 -1.52087e-02  2.78367e+00 
 3.80489e+00 -1.43953e-02  2.81688e+00 
 3.50109e+00 -1.35457e-02  2.84757e+00 
 3.19711e+00 -1.25891e-02  2.87572e+00 
 2.89305e+00 -1.16065e-02  2.90135e+00 
 2.58882e+00 -1.05274e-02  2.92443e+00 
 2.28453e+00 -9.43340e-03  2.94496e+00 
 1.98011e+00 -8.25441e-03  2.96294e+00 
 1.67564e+00 -7.07224e-03  2.97836e+00 
 1.37106e+00 -5.81720e-03  2.99121e+00 
 1.06646e+00 -4.57131e-03  3.00150e+00 
 7.61773e-01 -3.26507e-03  3.00922e+00 
 4.57098e-01 -1.98067e-03  3.01437e+00 
 1.52359e-01 -6.48681e-04  3.01695e+00 
-1.52359e-01  6.48681e-04  3.01695e+00 
-4.57098e-01  1.98067e-03  3.01437e+00 
-7.61773e-01  3.26507e-03  3.00922e+00 
-1.06646e+00  4.57131e-03  3.00150e+00 
-1.37106e+00  5.81720e-03  2.99121e+00 
-1.67564e+00  7.07224e-03  2.97836e+00 
-1.98011e+00  8.25441e-03  2.96294e+00 
-2.28453e+00  9.43340e-03  2.94496e+00 
-2.58882e+00  1.05274e-02  2.92443e+00 
-2.89305e+00  1.16065e-02  2.90135e+00 
-3.19711e+00  1.25891e-02  2.87572e+00 
-3.50109e+00  1.35457e-02  2.84757e+00 
-3.80489e+00  1.43953e-02  2.81688e+00 
-4.10859e+00  1.52087e-02  2.78367e+00 
-4.41209e+00  1.59057e-02  2.74795e+00 
-4.71546e+00  1.65576e-02  2.70974e+00 
-5.01863e+00  1.70852e-02  2.66903e+00 
-5.32167e+00  1.75604e-02  2.62584e+00 
-5.62448e+00  1.79050e-02  2.58018e+00 
-5.92715e+00  1.81919e-02  2.53207e+00 
-6.22960e+00  1.83440e-02  2.48150e+00 
-6.53190e+00  1.84356e-02  2.42851e+00 
-6.83398e+00  1.83906e-02  2.37309e+00 
-7.13591e+00  1.82847e-02  2.31527e+00 
-7.43762e+00  1.80434e-02  2.25504e+00 
-7.73920e+00  1.77439e-02  2.19244e+00 
-8.04057e+00  1.73132e-02  2.12746e+00 
-8.34182e+00  1.68301e-02  2.06014e+00 
-8.64287e+00  1.62237e-02  1.99045e+00 
-8.94383e+00  1.55742e-02  1.91845e+00 
-9.24462e+00  1.48126e-02  1.84411e+00 
-9.54533e+00  1.40210e-02  1.76747e+00 
-9.84590e+00  1.31320e-02  1.68852e+00 
-1.01464e+01  1.22296e-02  1.60729e+00 
-1.04469e+01  1.12481e-02  1.52376e+00 
-1.07473e+01  1.02732e-02  1.43798e+00 
-1.10477e+01  9.24066e-03  1.34990e+00 
-1.13481e+01  8.23780e-03  1.25957e+00 
-1.16485e+01  7.20165e-03  1.16696e+00 
-1.19490e+01  6.22066e-03  1.07211e+00 
-1.22495e+01  5.23286e-03  9.74969e-01 
-1.25502e+01  4.32751e-03  8.75588e-01 
-1.28509e+01  3.44312e-03  7.73911e-01 
-1.31519e+01  2.66931e-03  6.69982e-01 
-1.34530e+01  1.94456e-03  5.63742e-01 
-1.37544e+01  1.35831e-03  4.55232e-01 
-1.40559e+01  8.48441e-04  3.44386e-01 
-1.43578e+01  5.03744e-04  2.31244e-01 
-1.46599e+01  2.60486e-04  1.15729e-01 
-1.49398e+01  5.01541e-02  6.82831e-02 
 1.44484e+01 -4.84746e-02  6.86045e-02 
 1.41776e+01 -1.96494e-04  1.16272e-01 
 1.38852e+01 -3.85708e-04  2.32316e-01 
 1.35931e+01 -6.42771e-04  3.45945e-01 
 1.33012e+01 -1.03347e-03  4.57233e-01 
 1.30094e+01 -1.47565e-03  5.66138e-01 
 1.27178e+01 -2.03300e-03  6.72724e-01 
 1.24264e+01 -2.62246e-03  7.76949e-01 
 1.21351e+01 -3.30694e-03  8.78871e-01 
 1.18439e+01 -4.00299e-03  9.78448e-01 
 1.15528e+01 -4.77327e-03  1.07573e+00 
 1.12617e+01 -5.53436e-03  1.17068e+00 
 1.09707e+01 -6.34908e-03  1.26334e+00 
 1.06797e+01 -7.13445e-03  1.35366e+00 
 1.03888e+01 -7.95379e-03  1.44170e+00 
 1.00978e+01 -8.72484e-03  1.52740e+00 
 9.80688e+00 -9.51175e-03  1.61080e+00 
 9.51585e+00 -1.02332e-02  1.69186e+00 
 9.22481e+00 -1.09545e-02  1.77062e+00 
 8.93367e+00 -1.15954e-02  1.84702e+00 
 8.64249e+00 -1.22224e-02  1.92110e+00 
 8.35118e+00 -1.27565e-02  1.99282e+00 
 8.05981e+00 -1.32656e-02  2.06220e+00 
 7.76830e+00 -1.36720e-02  2.12921e+00 
 7.47671e+00 -1.40449e-02  2.19385e+00 
 7.18496e+00 -1.43080e-02  2.25610e+00 
 6.89312e+00 -1.45318e-02  2.31597e+00 
 6.60110e+00 -1.46414e-02  2.37342e+00 
 6.30899e+00 -1.47084e-02  2.42848e+00 
 6.01670e+00 -1.46593e-02  2.48110e+00 
 5.72432e+00 -1.45670e-02  2.53130e+00 
 5.43175e+00 -1.43589e-02  2.57906e+00 
 5.13908e+00 -1.41091e-02  2.62437e+00 
 4.84624e+00 -1.37460e-02  2.66721e+00 
 4.55331e+00 -1.33449e-02  2.70759e+00 
 4.26020e+00 -1.28349e-02  2.74548e+00 
 3.96701e+00 -1.22921e-02  2.78090e+00 
 3.67366e+00 -1.16467e-02  2.81381e+00 
 3.38023e+00 -1.09753e-02  2.84423e+00 
 3.08666e+00 -1.02086e-02  2.87213e+00 
 2.79303e+00 -9.42413e-03  2.89752e+00 
 2.49926e+00 -8.55304e-03  2.92039e+00 
 2.20545e+00 -7.67323e-03  2.94074e+00 
 1.91153e+00 -6.71638e-03  2.95854e+00 
 1.61758e+00 -5.76074e-03  2.97382e+00 
 1.32354e+00 -4.73829e-03  2.98655e+00 
 1.02949e+00 -3.72760e-03  2.99674e+00 
 7.35357e-01 -2.66084e-03  3.00439e+00 
 4.41244e-01 -1.61676e-03  3.00949e+00 
 1.47074e-01 -5.27659e-04  3.01204e+00 
-1.47074e-01  5.27659e-04  3.01204e+00 
-4.41244e-01  1.61676e-03  3.00949e+00 
-7.35357e-01  2.66084e-03  3.00439e+00 
-1.02949e+00  3.72760e-03  2.99674e+00 
-1.32354e+00  4.73829e-03  2.98655e+00 
-1.61758e+00  5.76074e-03  2.97382e+00 
-1.91153e+00  6.71638e-03  2.95854e+00 
-2.20545e+00  7.67323e-03  2.94074e+00 
-2.49926e+00  8.55304e-03  2.92039e+00 
-2.79303e+00  9.42413e-03  2.89752e+00 
-3.08666e+00  1.02086e-02  2.87213e+00 
-3.38023e+00  1.09753e-02  2.84423e+00 
-3.67366e+00  1.16467e-02  2.81381e+00 
-3.96701e+00  1.22921e-02  2.78090e+00 
-4.26020e+00  1.28349e-02  2.74548e+00 
-4.55331e+00  1.33449e-02  2.70759e+00 
-4.84624e+00  1.37460e-02  2.66721e+00 
-5.13908e+00  1.41091e-02  2.62437e+00 
-5.43175e+00  1.43589e-02  2.57906e+00 
-5.72432e+00  1.45670e-02  2.53130e+00 
-6.01670e+00  1.46593e-02  2.48110e+00 
-6.30899e+00  1.47084e-02  2.42848e+00 
-6.60110e+00  1.46414e-02  2.37342e+00 
-6.89312e+00  1.45318e-02  2.31597e+00 
-7.18496e+00  1.43080e-02  2.25610e+00 
-7.47671e+00  1.40449e-02  2.19385e+00 
-7.76830e+00  1.36720e-02  2.12921e+00 
-8.05981e+00  1.32656e-02  2.06220e+00 
-8.35118e+00  1.27565e-02  1.99282e+00 
-8.64249e+00  1.22224e-02  1.92110e+00 
-8.93367e+00  1.15954e-02  1.84702e+00 
-9.22481e+00  1.09545e-02  1.77062e+00 
-9.51585e+00  1.02332e-02  1.69186e+00 
-9.80688e+00  9.51175e-03  1.61080e+00 
-1.00978e+01  8.72484e-03  1.52740e+00 
-1.03888e+01  7.95379e-03  1.44170e+00 
-1.06797e+01  7.13445e-03  1.35366e+00 
-1.09707e+01  6.34908e-03  1.26334e+00 
-1.12617e+01  5.53436e-03  1.17068e+00 
-1.15528e+01  4.77327e-03  1.07573e+00 
-1.18439e+01  4.00299e-03  9.78448e-01 
-1.21351e+01  3.30694e-03  8.78871e-01 
-1.24264e+01  2.62246e-03  7.76949e-01 
-1.27178e+01  2.03300e-03  6.72724e-01 
-1.30094e+01  1.47565e-03  5.66138e-01 
-1.33012e+01  1.03347e-03  4.57233e-01 
-1.35931e+01  6.42771e-04  3.45945e-01 
-1.38852e+01  3.85708e-04  2.32316e-01 
-1.41776e+01  1.96494e-04  1.16272e-01 
-1.44484e+01  4.84746e-02  6.86045e-02 
 1.39549e+01 -4.67814e-02  6.88326e-02 
 1.36933e+01 -1.39101e-04  1.16660e-01 
 1.34109e+01 -2.81665e-04  2.33094e-01 
 1.31286e+01 -4.66883e-04  3.47089e-01 
 1.28464e+01 -7.60409e-04  4.58713e-01 
 1.25644e+01 -1.08537e-03  5.67922e-01 
 1.22826e+01 -1.50572e-03  6.74778e-01 
 1.20008e+01 -1.94372e-03  7.79236e-01 
 1.17192e+01 -2.46263e-03  8.81355e-01 
 1.14376e+01 -2.98429e-03  9.81091e-01 
 1.11561e+01 -3.57165e-03  1.07850e+00 
 1.08746e+01 -4.14648e-03  1.17353e+00 
 1.05933e+01 -4.77171e-03  1.26623e+00 
 1.03119e+01 -5.36932e-03  1.35657e+00 
 1.00305e+01 -6.00252e-03  1.44458e+00 
 9.74919e+00 -6.59372e-03  1.53023e+00 
 9.46786e+00 -7.20663e-03  1.61354e+00 
 9.18646e+00 -7.76432e-03  1.69449e+00 
 8.90508e+00 -8.33118e-03  1.77310e+00 
 8.62362e+00 -8.83107e-03  1.84934e+00 
 8.34215e+00 -9.32923e-03  1.92323e+00 
 8.06057e+00 -9.75041e-03  1.99473e+00 
 7.77897e+00 -1.01608e-02  2.06388e+00 
 7.49725e+00 -1.04861e-02  2.13064e+00 
 7.21549e+00 -1.07935e-02  2.19502e+00 
 6.93361e+00 -1.10098e-02  2.25700e+00 
 6.65167e+00 -1.12031e-02  2.31659e+00 
 6.36959e+00 -1.13011e-02  2.37375e+00 
 6.08746e+00 -1.13731e-02  2.42852e+00 
 5.80518e+00 -1.13477e-02  2.48085e+00 
 5.52284e+00 -1.12952e-02  2.53076e+00 
 5.24036e+00 -1.11450e-02  2.57822e+00 
 4.95781e+00 -1.09683e-02  2.62324e+00 
 4.67512e+00 -1.06956e-02  2.66580e+00 
 4.39238e+00 -1.03987e-02  2.70591e+00 
 4.10949e+00 -1.00089e-02  2.74354e+00 
 3.82655e+00 -9.59876e-03  2.77871e+00 
 3.54348e+00 -9.10016e-03  2.81138e+00 
 3.26036e+00 -8.58645e-03  2.84157e+00 
 2.97712e+00 -7.99003e-03  2.86927e+00 
 2.69385e+00 -7.38479e-03  2.89447e+00 
 2.41046e+00 -6.70362e-03  2.91715e+00 
 2.12706e+00 -6.02087e-03  2.93734e+00 
 1.84355e+00 -5.26979e-03  2.95501e+00 
 1.56003e+00 -4.52514e-03  2.97016e+00 
 1.27643e+00 -3.72043e-03  2.98279e+00 
 9.92838e-01 -2.93070e-03  2.99290e+00 
 7.09175e-01 -2.08967e-03  3.00048e+00 
 4.25532e-01 -1.27254e-03  3.00554e+00 
 1.41836e-01 -4.13176e-04  3.00807e+00 
-1.41836e-01  4.13176e-04  3.00807e+00 
-4.25532e-01  1.27254e-03  3.00554e+00 
-7.09175e-01  2.08967e-03  3.00048e+00 
-9.92838e-01  2.93070e-03  2.99290e+00 
-1.27643e+00  3.72043e-03  2.98279e+00 
-1.56003e+00  4.52514e-03  2.97016e+00 
-1.84355e+00  5.26979e-03  2.95501e+00 
-2.12706e+00  6.02087e-03  2.93734e+00 
-2.41046e+00  6.70362e-03  2.91715e+00 
-2.69385e+00  7.38479e-03  2.89447e+00 
-2.97712e+00  7.99003e-03  2.86927e+00 
-3.26036e+00  8.58645e-03  2.84157e+00 
-3.54348e+00  9.10016e-03  2.81138e+00 
-3.82655e+00  9.59876e-03  2.77871e+00 
-4.10949e+00  1.00089e-02  2.74354e+00 
-4.39238e+00  1.03987e-02  2.70591e+00 
-4.67512e+00  1.06956e-02  2.66580e+00 
-4.95781e+00  1.09683e-02  2.62324e+00 
-5.24036e+00  1.11450e-02  2.57822e+00 
-5.52284e+00  1.12952e-02  2.53076e+00 
-5.80518e+00  1.13477e-02  2.48085e+00 
-6.08746e+00  1.13731e-02  2.42852e+00 
-6.36959e+00  1.13011e-02  2.37375e+00 
-6.65167e+00  1.12031e-02  2.31659e+00 
-6.93361e+00  1.10098e-02  2.25700e+00 
-7.21549e+00  1.07935e-02  2.19502e+00 
-7.49725e+00  1.04861e-02  2.13064e+00 
-7.77897e+00  1.01608e-02  2.06388e+00 
-8.06057e+00  9.75041e-03  1.99473e+00 
-8.34215e+00  9.32923e-03  1.92323e+00 
-8.62362e+00  8.83107e-03  1.84934e+00 
-8.90508e+00  8.33118e-03  1.77310e+00 
-9.18646e+00  7.76432e-03  1.69449e+00 
-9.46786e+00  7.20663e-03  1.61354e+00 
-9.74919e+00  6.59372e-03  1.53023e+00 
-1.00305e+01  6.00252e-03  1.44458e+00 
-1.03119e+01  5.36932e-03  1.35657e+00 
-1.05933e+01  4.77171e-03  1.26623e+00 
-1.08746e+01  4.14648e-03  1.17353e+00 
-1.11561e+01  3.57165e-03  1.07850e+00 
-1.14376e+01  2.98429e-03  9.81091e-01 
-1.17192e+01  2.46263e-03  8.81355e-01 
-1.20008e+01  1.94372e-03  7.79236e-01 
-1.22826e+01  1.50572e-03  6.74778e-01 
-1.25644e+01  1.08537e-03  5.67922e-01 
-1.28464e+01  7.60409e-04  4.58713e-01 
-1.31286e+01  4.66883e-04  3.47089e-01 
-1.34109e+01  2.81665e-04  2.33094e-01 
-1.36933e+01  1.39101e-04  1.16660e-01 
-1.39549e+01  4.67814e-02  6.88326e-02 
 1.34598e+01 -4.50906e-02  6.90111e-02 
 1.32075e+01 -9.84105e-05  1.16960e-01 
 1.29351e+01 -2.04972e-04  2.33686e-01 
 1.26627e+01 -3.34917e-04  3.47953e-01 
 1.23905e+01 -5.52209e-04  4.59828e-01 
 1.21184e+01 -7.84180e-04  5.69264e-01 
 1.18464e+01 -1.09429e-03  6.76323e-01 
 1.15744e+01 -1.40944e-03  7.80959e-01 
 1.13026e+01 -1.79260e-03  8.83229e-01 
 1.10308e+01 -2.17032e-03  9.83088e-01 
 1.07590e+01 -2.60526e-03  1.08059e+00 
 1.04873e+01 -3.02385e-03  1.17569e+00 
 1.02157e+01 -3.48866e-03  1.26844e+00 
 9.94401e+00 -3.92620e-03  1.35879e+00 
 9.67241e+00 -4.39916e-03  1.44680e+00 
 9.40077e+00 -4.83429e-03  1.53241e+00 
 9.12917e+00 -5.29461e-03  1.61566e+00 
 8.85753e+00 -5.70728e-03  1.69653e+00 
 8.58590e+00 -6.13577e-03  1.77504e+00 
 8.31421e+00 -6.50778e-03  1.85115e+00 
 8.04252e+00 -6.88733e-03  1.92490e+00 
 7.77076e+00 -7.20276e-03  1.99625e+00 
 7.49898e+00 -7.51877e-03  2.06523e+00 
 7.22712e+00 -7.76438e-03  2.13180e+00 
 6.95523e+00 -8.00499e-03  2.19599e+00 
 6.68325e+00 -8.17035e-03  2.25776e+00 
 6.41124e+00 -8.32662e-03  2.31713e+00 
 6.13912e+00 -8.40429e-03  2.37408e+00 
 5.86697e+00 -8.47024e-03  2.42862e+00 
 5.59471e+00 -8.45571e-03  2.48073e+00 
 5.32242e+00 -8.42831e-03  2.53041e+00 
 5.05001e+00 -8.31995e-03  2.57765e+00 
 4.77757e+00 -8.19898e-03  2.62245e+00 
 4.50501e+00 -7.99794e-03  2.66479e+00 
 4.23242e+00 -7.78582e-03  2.70469e+00 
 3.95972e+00 -7.49578e-03  2.74211e+00 
 3.68699e+00 -7.19738e-03  2.77708e+00 
 3.41415e+00 -6.82432e-03  2.80957e+00 
 3.14129e+00 -6.44669e-03  2.83958e+00 
 2.86833e+00 -5.99865e-03  2.86711e+00 
 2.59535e+00 -5.55074e-03  2.89215e+00 
 2.32228e+00 -5.03751e-03  2.91470e+00 
 2.04921e+00 -4.52991e-03  2.93476e+00 
 1.77605e+00 -3.96277e-03  2.95231e+00 
 1.50290e+00 -3.40736e-03  2.96736e+00 
 1.22967e+00 -2.79877e-03  2.97991e+00 
 9.56456e-01 -2.20848e-03  2.98995e+00 
 6.83183e-01 -1.57176e-03  2.99749e+00 
 4.09934e-01 -9.60257e-04  3.00251e+00 
 1.36637e-01 -3.09330e-04  3.00502e+00 
-1.36637e-01  3.09330e-04  3.00502e+00 
-4.09934e-01  9.60257e-04  3.00251e+00 
-6.83183e-01  1.57176e-03  2.99749e+00 
-9.56456e-01  2.20848e-03  2.98995e+00 
-1.22967e+00  2.79877e-03  2.97991e+00 
-1.50290e+00  3.40736e-03  2.96736e+00 
-1.77605e+00  3.96277e-03  2.95231e+00 
-2.04921e+00  4.52991e-03  2.93476e+00 
-2.32228e+00  5.03751e-03  2.91470e+00 
-2.59535e+00  5.55074e-03  2.89215e+00 
-2.86833e+00  5.99865e-03  2.86711e+00 
-3.14129e+00  6.44669e-03  2.83958e+00 
-3.41415e+00  6.82432e-03  2.80957e+00 
-3.68699e+00  7.19738e-03  2.77708e+00 
-3.95972e+00  7.49578e-03  2.74211e+00 
-4.23242e+00  7.78582e-03  2.70469e+00 
-4.50501e+00  7.99794e-03  2.66479e+00 
-4.77757e+00  8.19898e-03  2.62245e+00 
-5.05001e+00  8.31995e-03  2.57765e+00 
-5.32242e+00  8.42831e-03  2.53041e+00 
-5.59471e+00  8.45571e-03  2.48073e+00 
-5.86697e+00  8.47024e-03  2.42862e+00 
-6.13912e+00  8.40429e-03  2.37408e+00 
-6.41124e+00  8.32662e-03  2.31713e+00 
-6.68325e+00  8.17035e-03  2.25776e+00 
-6.95523e+00  8.00499e-03  2.19599e+00 
-7.22712e+00  7.76438e-03  2.13180e+00 
-7.49898e+00  7.51877e-03  2.06523e+00 
-7.77076e+00  7.20276e-03  1.99625e+00 
-8.04252e+00  6.88733e-03  1.92490e+00 
-8.31421e+00  6.50778e-03  1.85115e+00 
-8.58590e+00  6.13577e-03  1.77504e+00 
-8.85753e+00  5.70728e-03  1.69653e+00 
-9.12917e+00  5.29461e-03  1.61566e+00 
-9.40077e+00  4.83429e-03  1.53241e+00 
-9.67241e+00  4.39916e-03  1.44680e+00 
-9.94401e+00  3.92620e-03  1.35879e+00 
-1.02157e+01  3.48866e-03  1.26844e+00 
-1.04873e+01  3.02385e-03  1.17569e+00 
-1.07590e+01  2.60526e-03  1.08059e+00 
-1.10308e+01  2.17032e-03  9.83088e-01 
-1.13026e+01  1.79260e-03  8.83229e-01 
-1.15744e+01  1.40944e-03  7.80959e-01 
-1.18464e+01  1.09429e-03  6.76323e-01 
-1.21184e+01  7.84180e-04  5.69264e-01 
-1.23905e+01  5.52209e-04  4.59828e-01 
-1.26627e+01  3.34917e-04  3.47953e-01 
-1.29351e+01  2.04972e-04  2.33686e-01 
-1.32075e+01  9.84105e-05  1.16960e-01 
-1.34598e+01  4.50906e-02  6.90111e-02 
 1.29636e+01 -4.33969e-02  6.91395e-02 
 1.27207e+01 -6.83574e-05  1.17175e-01 
 1.24583e+01 -1.48282e-04  2.34109e-01 
 1.21960e+01 -2.33934e-04  3.48570e-01 
 1.19338e+01 -3.88898e-04  4.60623e-01 
 1.16716e+01 -5.44722e-04  5.70222e-01 
 1.14095e+01 -7.63984e-04  6.77427e-01 
 1.11475e+01 -9.77726e-04  7.82192e-01 
 1.08855e+01 -1.24808e-03  8.84572e-01 
 1.06235e+01 -1.50580e-03  9.84523e-01 
 1.03617e+01 -1.81276e-03  1.08210e+00 
 1.00998e+01 -2.09959e-03  1.17725e+00 
 9.83797e+00 -2.42809e-03  1.27003e+00 
 9.57613e+00 -2.72890e-03  1.36040e+00 
 9.31434e+00 -3.06390e-03  1.44840e+00 
 9.05252e+00 -3.36388e-03  1.53399e+00 
 8.79074e+00 -3.69090e-03  1.61721e+00 
 8.52892e+00 -3.97602e-03  1.69802e+00 
 8.26712e+00 -4.28161e-03  1.77646e+00 
 8.00527e+00 -4.53909e-03  1.85248e+00 
 7.74343e+00 -4.81118e-03  1.92614e+00 
 7.48153e+00 -5.02975e-03  1.99737e+00 
 7.21963e+00 -5.25796e-03  2.06623e+00 
 6.95766e+00 -5.42816e-03  2.13267e+00 
 6.69569e+00 -5.60399e-03  2.19671e+00 
 6.43364e+00 -5.71830e-03  2.25833e+00 
 6.17159e+00 -5.83527e-03  2.31756e+00 
 5.90945e+00 -5.88824e-03  2.37435e+00 
 5.64730e+00 -5.94191e-03  2.42873e+00 
 5.38506e+00 -5.93015e-03  2.48067e+00 
 5.12281e+00 -5.91817e-03  2.53019e+00 
 4.86047e+00 -5.84033e-03  2.57726e+00 
 4.59811e+00 -5.76233e-03  2.62189e+00 
 4.33567e+00 -5.61901e-03  2.66408e+00 
 4.07321e+00 -5.47655e-03  2.70381e+00 
 3.81067e+00 -5.27018e-03  2.74109e+00 
 3.54812e+00 -5.06653e-03  2.77591e+00 
 3.28548e+00 -4.80122e-03  2.80825e+00 
 3.02283e+00 -4.54125e-03  2.83814e+00 
 2.76011e+00 -4.22260e-03  2.86554e+00 
 2.49739e+00 -3.91258e-03  2.89047e+00 
 2.23459e+00 -3.54747e-03  2.91291e+00 
 1.97179e+00 -3.19487e-03  2.93287e+00 
 1.70893e+00 -2.79129e-03  2.95034e+00 
 1.44608e+00 -2.40455e-03  2.96532e+00 
 1.18317e+00 -1.97134e-03  2.97781e+00 
 9.20284e-01 -1.55966e-03  2.98780e+00 
 6.57342e-01 -1.10633e-03  2.99530e+00 
 3.94427e-01 -6.79480e-04  3.00029e+00 
 1.31468e-01 -2.15986e-04  3.00279e+00 
-1.31468e-01  2.15986e-04  3.00279e+00 
-3.94427e-01  6.79480e-04  3.00029e+00 
-6.57342e-01  1.10633e-03  2.99530e+00 
-9.20284e-01  1.55966e-03  2.98780e+00 
-1.18317e+00  1.97133e-03  2.97781e+00 
-1.44608e+00  2.40455e-03  2.96532e+00 
-1.70893e+00  2.79129e-03  2.95034e+00 
-1.97179e+00  3.19487e-03  2.93287e+00 
-2.23459e+00  3.54747e-03  2.91291e+00 
-2.49739e+00  3.91258e-03  2.89047e+00 
-2.76011e+00  4.22260e-03  2.86554e+00 
-3.02283e+00  4.54125e-03  2.83814e+00 
-3.28548e+00  4.80122e-03  2.80825e+00 
-3.54812e+00  5.06653e-03  2.77591e+00 
-3.81067e+00  5.27018e-03  2.74109e+00 
-4.07321e+00  5.47655e-03  2.70381e+00 
-4.33567e+00  5.61901e-03  2.66408e+00 
-4.59811e+00  5.76233e-03  2.62189e+00 
-4.86047e+00  5.84033e-03  2.57726e+00 
-5.12281e+00  5.91817e-03  2.53019e+00 
-5.38506e+00  5.93015e-03  2.48067e+00 
-5.64730e+00  5.94191e-03  2.42873e+00 
-5.90945e+00  5.88824e-03  2.37435e+00 
-6.17159e+00  5.83527e-03  2.31756e+00 
-6.43364e+00  5.71830e-03  2.25833e+00 
-6.69569e+00  5.60399e-03  2.19671e+00 
-6.95766e+00  5.42816e-03  2.13267e+00 
-7.21963e+00  5.25796e-03  2.06623e+00 
-7.48153e+00  5.02975e-03  1.99737e+00 
-7.74343e+00  4.81118e-03  1.92614e+00 
-8.00527e+00  4.53909e-03  1.85248e+00 
-8.26712e+00  4.28161e-03  1.77646e+00 
-8.52892e+00  3.97602e-03  1.69802e+00 
-8.79074e+00  3.69090e-03  1.61721e+00 
-9.05252e+00  3.36388e-03  1.53399e+00 
-9.31434e+00  3.06390e-03  1.44840e+00 
-9.57613e+00  2.72890e-03  1.36040e+00 
-9.83797e+00  2.42809e-03  1.27003e+00 
-1.00998e+01  2.09959e-03  1.17725e+00 
-1.03617e+01  1.81276e-03  1.08210e+00 
-1.06235e+01  1.50580e-03  9.84523e-01 
-1.08855e+01  1.24808e-03  8.84572e-01 
-1.11475e+01  9.77726e-04  7.82192e-01 
-1.14095e+01  7.63984e-04  6.77427e-01 
-1.16716e+01  5.44722e-04  5.70222e-01 
-1.19338e+01  3.88898e-04  4.60623e-01 
-1.21960e+01  2.33934e-04  3.48570e-01 
-1.24583e+01  1.48282e-04  2.34109e-01 
-1.27207e+01  6.83574e-05  1.17175e-01 
-1.29636e+01  4.33969e-02  6.91395e-02 
 1.24667e+01 -4.16974e-02  6.92134e-02 
 1.22331e+01 -3.69006e-05  1.17302e-01 
 1.19809e+01 -9.12891e-05  2.34368e-01 
 1.17286e+01 -1.38490e-04  3.48956e-01 
 1.14764e+01 -2.40309e-04  4.61128e-01 
 1.12243e+01 -3.31861e-04  5.70836e-01 
 1.09722e+01 -4.74247e-04  6.78138e-01 
 1.07201e+01 -6.02206e-04  7.82988e-01 
 1.04681e+01 -7.76577e-04  8.85442e-01 
 1.02161e+01 -9.31939e-04  9.85455e-01 
 9.96411e+00 -1.12901e-03  1.08308e+00 
 9.71213e+00 -1.30231e-03  1.17827e+00 
 9.46020e+00 -1.51255e-03  1.27107e+00 
 9.20825e+00 -1.69427e-03  1.36145e+00 
 8.95634e+00 -1.90823e-03  1.44945e+00 
 8.70440e+00 -2.08911e-03  1.53502e+00 
 8.45249e+00 -2.29779e-03  1.61822e+00 
 8.20055e+00 -2.46911e-03  1.69899e+00 
 7.94863e+00 -2.66416e-03  1.77738e+00 
 7.69666e+00 -2.81802e-03  1.85335e+00 
 7.44472e+00 -2.99199e-03  1.92694e+00 
 7.19272e+00 -3.12145e-03  1.99810e+00 
 6.94074e+00 -3.26797e-03  2.06688e+00 
 6.68870e+00 -3.36722e-03  2.13322e+00 
 6.43667e+00 -3.48110e-03  2.19718e+00 
 6.18458e+00 -3.54557e-03  2.25870e+00 
 5.93249e+00 -3.62285e-03  2.31782e+00 
 5.68034e+00 -3.64923e-03  2.37450e+00 
 5.42820e+00 -3.68725e-03  2.42877e+00 
 5.17599e+00 -3.67352e-03  2.48060e+00 
 4.92378e+00 -3.67089e-03  2.53001e+00 
 4.67150e+00 -3.61627e-03  2.57697e+00 
 4.41923e+00 -3.57283e-03  2.62150e+00 
 4.16689e+00 -3.47775e-03  2.66358e+00 
 3.91455e+00 -3.39450e-03  2.70321e+00 
 3.66215e+00 -3.26052e-03  2.74038e+00 
 3.40975e+00 -3.13952e-03  2.77510e+00 
 3.15729e+00 -2.96920e-03  2.80735e+00 
 2.90483e+00 -2.81351e-03  2.83715e+00 
 2.65231e+00 -2.61032e-03  2.86447e+00 
 2.39981e+00 -2.42381e-03  2.88932e+00 
 2.14724e+00 -2.19204e-03  2.91169e+00 
 1.89469e+00 -1.97932e-03  2.93159e+00 
 1.64209e+00 -1.72387e-03  2.94900e+00 
 1.38951e+00 -1.49016e-03  2.96393e+00 
 1.13687e+00 -1.21649e-03  2.97638e+00 
 8.84265e-01 -9.67446e-04  2.98634e+00 
 6.31611e-01 -6.81416e-04  2.99380e+00 
 3.78986e-01 -4.23040e-04  2.99879e+00 
 1.26321e-01 -1.30760e-04  3.00128e+00 
-1.26321e-01  1.30760e-04  3.00128e+00 
-3.78986e-01  4.23040e-04  2.99879e+00 
-6.31611e-01  6.81416e-04  2.99380e+00 
-8.84265e-01  9.67446e-04  2.98634e+00 
-1.13687e+00  1.21649e-03  2.97638e+00 
-1.38951e+00  1.49016e-03  2.96393e+00 
-1.64209e+00  1.72387e-03  2.94900e+00 
-1.89469e+00  1.97932e-03  2.93159e+00 
-2.14724e+00  2.19204e-03  2.91169e+00 
-2.39981e+00  2.42381e-03  2.88932e+00 
-2.65231e+00  2.61032e-03  2.86447e+00 
-2.90483e+00  2.81351e-03  2.83715e+00 
-3.15729e+00  2.96920e-03  2.80735e+00 
-3.40975e+00  3.13952e-03  2.77510e+00 
-3.66215e+00  3.26052e-03  2.74038e+00 
-3.91455e+00  3.39450e-03  2.70321e+00 
-4.16689e+00  3.47775e-03  2.66358e+00 
-4.41923e+00  3.57283e-03  2.62150e+00 
-4.67150e+00  3.61627e-03  2.57697e+00 
-4.92378e+00  3.67089e-03  2.53001e+00 
-5.17599e+00  3.67352e-03  2.48060e+00 
-5.42820e+00  3.68725e-03  2.42877e+00 
-5.68034e+00  3.64923e-03  2.37450e+00 
-5.93249e+00  3.62285e-03  2.31782e+00 
-6.18458e+00  3.54557e-03  2.25870e+00 
-6.43667e+00  3.48110e-03  2.19718e+00 
-6.68870e+00  3.36722e-03  2.13322e+00 
-6.94074e+00  3.26797e-03  2.06688e+00 
-7.19272e+00  3.12145e-03  1.99810e+00 
-7.44472e+00  2.99199e-03  1.92694e+00 
-7.69666e+00  2.81802e-03  1.85335e+00 
-7.94863e+00  2.66416e-03  1.77738e+00 
-8.20055e+00  2.46911e-03  1.69899e+00 
-8.45249e+00  2.29779e-03  1.61822e+00 
-8.70440e+00  2.08911e-03  1.53502e+00 
-8.95634e+00  1.90823e-03  1.44945e+00 
-9.20825e+00  1.69427e-03  1.36145e+00 
-9.46020e+00  1.51255e-03  1.27107e+00 
-9.71213e+00  1.30231e-03  1.17827e+00 
-9.96411e+00  1.12901e-03  1.08308e+00 
-1.02161e+01  9.31939e-04  9.85455e-01 
-1.04681e+01  7.76577e-04  8.85442e-01 
-1.07201e+01  6.02206e-04  7.82988e-01 
-1.09722e+01  4.74247e-04  6.78138e-01 
-1.12243e+01  3.31861e-04  5.70836e-01 
-1.14764e+01  2.40309e-04  4.61128e-01 
-1.17286e+01  1.38490e-04  3.48956e-01 
-1.19809e+01  9.12891e-05  2.34368e-01 
-1.22331e+01  3.69006e-05  1.17302e-01 
-1.24667e+01  4.16974e-02  6.92134e-02 
 1.19693e+01 -4.00036e-02  6.92639e-02 
 1.17451e+01 -1.46826e-05  1.17387e-01 
 1.15030e+01 -4.81691e-05  2.34532e-01 
 1.12608e+01 -6.38083e-05  3.49194e-01 
 1.10187e+01 -1.20699e-04  4.61433e-01 
 1.07766e+01 -1.57026e-04  5.71202e-01 
 1.05345e+01 -2.32194e-04  6.78558e-01 
 1.02925e+01 -2.84477e-04  7.83456e-01 
 1.00504e+01 -3.73286e-04  8.85950e-01 
 9.80840e+00 -4.36893e-04  9.85995e-01 
 9.56640e+00 -5.34704e-04  1.08364e+00 
 9.32436e+00 -6.05015e-04  1.17885e+00 
 9.08237e+00 -7.07265e-04  1.27167e+00 
 8.84034e+00 -7.79808e-04  1.36205e+00 
 8.59835e+00 -8.82152e-04  1.45004e+00 
 8.35633e+00 -9.52741e-04  1.53561e+00 
 8.11433e+00 -1.05118e-03  1.61879e+00 
 7.87230e+00 -1.11603e-03  1.69954e+00 
 7.63029e+00 -1.20701e-03  1.77790e+00 
 7.38824e+00 -1.26281e-03  1.85384e+00 
 7.14622e+00 -1.34330e-03  1.92739e+00 
 6.90415e+00 -1.38729e-03  1.99851e+00 
 6.66210e+00 -1.45480e-03  2.06724e+00 
 6.42001e+00 -1.48480e-03  2.13354e+00 
 6.17794e+00 -1.53743e-03  2.19744e+00 
 5.93582e+00 -1.55182e-03  2.25891e+00 
 5.69372e+00 -1.58826e-03  2.31797e+00 
 5.45157e+00 -1.58599e-03  2.37459e+00 
 5.20944e+00 -1.60547e-03  2.42881e+00 
 4.96725e+00 -1.58606e-03  2.48058e+00 
 4.72509e+00 -1.58834e-03  2.52993e+00 
 4.48288e+00 -1.55181e-03  2.57683e+00 
 4.24068e+00 -1.53715e-03  2.62130e+00 
 3.99843e+00 -1.48396e-03  2.66331e+00 
 3.75621e+00 -1.45304e-03  2.70289e+00 
 3.51393e+00 -1.38409e-03  2.74001e+00 
 3.27168e+00 -1.33799e-03  2.77468e+00 
 3.02937e+00 -1.25452e-03  2.80688e+00 
 2.78709e+00 -1.19464e-03  2.83662e+00 
 2.54476e+00 -1.09821e-03  2.86390e+00 
 2.30246e+00 -1.02624e-03  2.88871e+00 
 2.06011e+00 -9.18629e-04  2.91104e+00 
 1.81778e+00 -8.36472e-04  2.93091e+00 
 1.57541e+00 -7.19703e-04  2.94829e+00 
 1.33307e+00 -6.29446e-04  2.96319e+00 
 1.09069e+00 -5.05673e-04  2.97562e+00 
 8.48336e-01 -4.09538e-04  2.98556e+00 
 6.05944e-01 -2.81034e-04  2.99302e+00 
 3.63584e-01 -1.81337e-04  2.99799e+00 
 1.21187e-01 -5.04493e-05  3.00047e+00 
-1.21187e-01  5.04493e-05  3.00047e+00 
-3.63584e-01  1.81337e-04  2.99799e+00 
-6.05944e-01  2.81034e-04  2.99302e+00 
-8.48336e-01  4.09538e-04  2.98556e+00 
-1.09069e+00  5.05672e-04  2.97562e+00 
-1.33307e+00  6.29446e-04  2.96319e+00 
-1.57541e+00  7.19703e-04  2.94829e+00 
-1.81778e+00  8.36472e-04  2.93091e+00 
-2.06011e+00  9.18629e-04  2.91104e+00 
-2.30246e+00  1.02624e-03  2.88871e+00 
-2.54476e+00  1.09821e-03  2.86390e+00 
-2.78709e+00  1.19464e-03  2.83662e+00 
-3.02937e+00  1.25452e-03  2.80688e+00 
-3.27168e+00  1.33799e-03  2.77468e+00 
-3.51393e+00  1.38409e-03  2.74001e+00 
-3.75621e+00  1.45304e-03  2.70289e+00 
-3.99843e+00  1.48396e-03  2.66331e+00 
-4.24068e+00  1.53715e-03  2.62130e+00 
-4.48288e+00  1.55181e-03  2.57683e+00 
-4.72509e+00  1.58834e-03  2.52993e+00 
-4.96725e+00  1.58606e-03  2.48058e+00 
-5.20944e+00  1.60547e-03  2.42881e+00 
-5.45157e+00  1.58599e-03  2.37459e+00 
-5.69372e+00  1.58826e-03  2.31797e+00 
-5.93582e+00  1.55182e-03  2.25891e+00 
-6.17794e+00  1.53743e-03  2.19744e+00 
-6.42001e+00  1.48480e-03  2.13354e+00 
-6.66210e+00  1.45480e-03  2.06724e+00 
-6.90415e+00  1.38729e-03  1.99851e+00 
-7.14622e+00  1.34330e-03  1.92739e+00 
-7.38824e+00  1.26281e-03  1.85384e+00 
-7.63029e+00  1.20701e-03  1.77790e+00 
-7.87230e+00  1.11603e-03  1.69954e+00 
-8.11433e+00  1.05118e-03  1.61879e+00 
-8.35633e+00  9.52741e-04  1.53561e+00 
-8.59835e+00  8.82152e-04  1.45004e+00 
-8.84034e+00  7.79808e-04  1.36205e+00 
-9.08237e+00  7.07265e-04  1.27167e+00 
-9.32436e+00  6.05015e-04  1.17885e+00 
-9.56640e+00  5.34704e-04  1.08364e+00 
-9.80840e+00  4.36893e-04  9.85995e-01 
-1.00504e+01  3.73286e-04  8.85950e-01 
-1.02925e+01  2.84477e-04  7.83456e-01 
-1.05345e+01  2.32194e-04  6.78558e-01 
-1.07766e+01  1.57026e-04  5.71202e-01 
-1.10187e+01  1.20699e-04  4.61433e-01 
-1.12608e+01  6.38083e-05  3.49194e-01 
-1.15030e+01  4.81691e-05  2.34532e-01 
-1.17451e+01  1.46826e-05  1.17387e-01 
-1.19693e+01  4.00036e-02  6.92639e-02 
 1.14716e+01 -3.83072e-02  6.92828e-02 
 1.12568e+01  4.38043e-06  1.17417e-01 
 1.10248e+01 -1.13770e-05  2.34590e-01 
 1.07928e+01  2.97569e-06  3.49274e-01 
 1.05608e+01 -1.04801e-05  4.61532e-01 
 1.03288e+01  6.61500e-06  5.71316e-01 
 1.00968e+01 -3.50506e-06  6.78685e-01 
 9.86473e+00  1.74243e-05  7.83592e-01 
 9.63272e+00  1.15267e-05  8.86093e-01 
 9.40066e+00  3.69469e-05  9.86143e-01 
 9.16864e+00  3.56834e-05  1.08379e+00 
 8.93657e+00  6.57617e-05  1.17900e+00 
 8.70453e+00  6.90612e-05  1.27181e+00 
 8.47245e+00  1.03500e-04  1.36219e+00 
 8.24039e+00  1.10851e-04  1.45018e+00 
 8.00830e+00  1.48944e-04  1.53574e+00 
 7.77623e+00  1.59464e-04  1.61891e+00 
 7.54412e+00  2.00171e-04  1.69965e+00 
 7.31204e+00  2.12686e-04  1.77800e+00 
 7.07992e+00  2.54721e-04  1.85393e+00 
 6.84783e+00  2.67855e-04  1.92747e+00 
 6.61570e+00  3.09779e-04  1.99858e+00 
 6.38360e+00  3.22051e-04  2.06729e+00 
 6.15146e+00  3.62361e-04  2.13358e+00 
 5.91935e+00  3.72273e-04  2.19747e+00 
 5.68720e+00  4.09497e-04  2.25892e+00 
 5.45509e+00  4.15621e-04  2.31797e+00 
 5.22294e+00  4.48395e-04  2.37458e+00 
 4.99082e+00  4.49451e-04  2.42879e+00 
 4.75867e+00  4.76596e-04  2.48054e+00 
 4.52655e+00  4.71518e-04  2.52988e+00 
 4.29439e+00  4.92095e-04  2.57677e+00 
 4.06227e+00  4.80085e-04  2.62123e+00 
 3.83012e+00  4.93443e-04  2.66324e+00 
 3.59800e+00  4.74006e-04  2.70281e+00 
 3.36584e+00  4.79814e-04  2.73992e+00 
 3.13372e+00  4.52784e-04  2.77458e+00 
 2.90157e+00  4.51042e-04  2.80678e+00 
 2.66946e+00  4.16587e-04  2.83652e+00 
 2.43731e+00  4.07627e-04  2.86379e+00 
 2.20520e+00  3.66241e-04  2.88859e+00 
 1.97305e+00  3.50712e-04  2.91092e+00 
 1.74094e+00  3.03191e-04  2.93078e+00 
 1.50880e+00  2.82028e-04  2.94816e+00 
 1.27669e+00  2.29437e-04  2.96306e+00 
 1.04455e+00  2.03821e-04  2.97549e+00 
 8.12441e-01  1.47443e-04  2.98543e+00 
 5.80302e-01  1.18745e-04  2.99288e+00 
 3.48196e-01  6.00275e-05  2.99785e+00 
 1.16058e-01  2.97553e-05  3.00034e+00 
-1.16058e-01 -2.97554e-05  3.00034e+00 
-3.48196e-01 -6.00275e-05  2.99785e+00 
-5.80302e-01 -1.18745e-04  2.99288e+00 
-8.12441e-01 -1.47443e-04  2.98543e+00 
-1.04455e+00 -2.03821e-04  2.97549e+00 
-1.27669e+00 -2.29437e-04  2.96306e+00 
-1.50880e+00 -2.82028e-04  2.94816e+00 
-1.74094e+00 -3.03191e-04  2.93078e+00 
-1.97305e+00 -3.50712e-04  2.91092e+00 
-2.20520e+00 -3.66241e-04  2.88859e+00 
-2.43731e+00 -4.07627e-04  2.86379e+00 
-2.66946e+00 -4.16587e-04  2.83652e+00 
-2.90157e+00 -4.51042e-04  2.80678e+00 
-3.13372e+00 -4.52784e-04  2.77458e+00 
-3.36584e+00 -4.79814e-04  2.73992e+00 
-3.59800e+00 -4.74006e-04  2.70281e+00 
-3.83012e+00 -4.93443e-04  2.66324e+00 
-4.06227e+00 -4.80085e-04  2.62123e+00 
-4.29439e+00 -4.92095e-04  2.57677e+00 
-4.52655e+00 -4.71518e-04  2.52988e+00 
-4.75867e+00 -4.76596e-04  2.48054e+00 
-4.99082e+00 -4.49451e-04  2.42879e+00 
-5.22294e+00 -4.48395e-04  2.37458e+00 
-5.45509e+00 -4.15621e-04  2.31797e+00 
-5.68720e+00 -4.09497e-04  2.25892e+00 
-5.91935e+00 -3.72273e-04  2.19747e+00 
-6.15146e+00 -3.62361e-04  2.13358e+00 
-6.38360e+00 -3.22051e-04  2.06729e+00 
-6.61570e+00 -3.09779e-04  1.99858e+00 
-6.84783e+00 -2.67855e-04  1.92747e+00 
-7.07992e+00 -2.54721e-04  1.85393e+00 
-7.31204e+00 -2.12686e-04  1.77800e+00 
-7.54412e+00 -2.00171e-04  1.69965e+00 
-7.77623e+00 -1.59464e-04  1.61891e+00 
-8.00830e+00 -1.48944e-04  1.53574e+00 
-8.24039e+00 -1.10851e-04  1.45018e+00 
-8.47245e+00 -1.03500e-04  1.36219e+00 
-8.70453e+00 -6.90612e-05  1.27181e+00 
-8.93657e+00 -6.57617e-05  1.17900e+00 
-9.16864e+00 -3.56834e-05  1.08379e+00 
-9.40066e+00 -3.69469e-05  9.86143e-01 
-9.63272e+00 -1.15267e-05  8.86093e-01 
-9.86473e+00 -1.74243e-05  7.83592e-01 
-1.00968e+01  3.50506e-06  6.78685e-01 
-1.03288e+01 -6.61501e-06  5.71316e-01 
-1.05608e+01  1.04801e-05  4.61532e-01 
-1.07928e+01 -2.97569e-06  3.49274e-01 
-1.10248e+01  1.13770e-05  2.34590e-01 
-1.12568e+01 -4.38043e-06  1.17417e-01 
-1.14716e+01  3.83072e-02  6.92828e-02 
 1.09739e+01 -3.66030e-02  6.92580e-02 
 1.07686e+01  3.18315e-05  1.17379e-01 
 1.05468e+01  3.84209e-05  2.34519e-01 
 1.03249e+01  8.62958e-05  3.49172e-01 
 1.01030e+01  1.19662e-04  4.61400e-01 
 9.88102e+00  1.93651e-04  5.71154e-01 
 9.65907e+00  2.52314e-04  6.78494e-01 
 9.43706e+00  3.50510e-04  7.83373e-01 
 9.21505e+00  4.31954e-04  8.85847e-01 
 8.99299e+00  5.51192e-04  9.85872e-01 
 8.77094e+00  6.51634e-04  1.08350e+00 
 8.54884e+00  7.87572e-04  1.17869e+00 
 8.32675e+00  9.02183e-04  1.27149e+00 
 8.10461e+00  1.04958e-03  1.36185e+00 
 7.88248e+00  1.17279e-03  1.44983e+00 
 7.66031e+00  1.32581e-03  1.53538e+00 
 7.43816e+00  1.45158e-03  1.61855e+00 
 7.21598e+00  1.60409e-03  1.69929e+00 
 6.99381e+00  1.72624e-03  1.77765e+00 
 6.77162e+00  1.87207e-03  1.85359e+00 
 6.54945e+00  1.98453e-03  1.92714e+00 
 6.32725e+00  2.11775e-03  1.99826e+00 
 6.10508e+00  2.21480e-03  2.06700e+00 
 5.88289e+00  2.32996e-03  2.13331e+00 
 5.66074e+00  2.40644e-03  2.19722e+00 
 5.43856e+00  2.49873e-03  2.25871e+00 
 5.21643e+00  2.55026e-03  2.31779e+00 
 4.99427e+00  2.61573e-03  2.37444e+00 
 4.77216e+00  2.63881e-03  2.42868e+00 
 4.55003e+00  2.67444e-03  2.48048e+00 
 4.32795e+00  2.66657e-03  2.52986e+00 
 4.10585e+00  2.67041e-03  2.57679e+00 
 3.88380e+00  2.63017e-03  2.62129e+00 
 3.66174e+00  2.60135e-03  2.66334e+00 
 3.43972e+00  2.52842e-03  2.70295e+00 
 3.21769e+00  2.46716e-03  2.74010e+00 
 2.99571e+00  2.36232e-03  2.77480e+00 
 2.77371e+00  2.26994e-03  2.80704e+00 
 2.55176e+00  2.13501e-03  2.83681e+00 
 2.32980e+00  2.01382e-03  2.86412e+00 
 2.10788e+00  1.85160e-03  2.88896e+00 
 1.88594e+00  1.70487e-03  2.91132e+00 
 1.66405e+00  1.51905e-03  2.93121e+00 
 1.44214e+00  1.35083e-03  2.94861e+00 
 1.22027e+00  1.14584e-03  2.96354e+00 
 9.98377e-01  9.60899e-04  2.97598e+00 
 7.76522e-01  7.41764e-04  2.98593e+00 
 5.54643e-01  5.45372e-04  2.99340e+00 
 3.32799e-01  3.17572e-04  2.99838e+00 
 1.10926e-01  1.15364e-04  3.00087e+00 
-1.10926e-01 -1.15365e-04  3.00087e+00 
-3.32799e-01 -3.17572e-04  2.99838e+00 
-5.54643e-01 -5.45372e-04  2.99340e+00 
-7.76522e-01 -7.41764e-04  2.98593e+00 
-9.98377e-01 -9.60899e-04  2.97598e+00 
-1.22027e+00 -1.14584e-03  2.96354e+00 
-1.44214e+00 -1.35083e-03  2.94861e+00 
-1.66405e+00 -1.51905e-03  2.93121e+00 
-1.88594e+00 -1.70487e-03  2.91132e+00 
-2.10788e+00 -1.85160e-03  2.88896e+00 
-2.32980e+00 -2.01382e-03  2.86412e+00 
-2.55176e+00 -2.13501e-03  2.83681e+00 
-2.77371e+00 -2.26994e-03  2.80704e+00 
-2.99571e+00 -2.36232e-03  2.77480e+00 
-3.21769e+00 -2.46716e-03  2.74010e+00 
-3.43972e+00 -2.52842e-03  2.70295e+00 
-3.66174e+00 -2.60135e-03  2.66334e+00 
-3.88380e+00 -2.63017e-03  2.62129e+00 
-4.10585e+00 -2.67041e-03  2.57679e+00 
-4.32795e+00 -2.66657e-03  2.52986e+00 
-4.55003e+00 -2.67444e-03  2.48048e+00 
-4.77216e+00 -2.63881e-03  2.42868e+00 
-4.99427e+00 -2.61573e-03  2.37444e+00 
-5.21643e+00 -2.55026e-03  2.31779e+00 
-5.43856e+00 -2.49873e-03  2.25871e+00 
-5.66074e+00 -2.40644e-03  2.19722e+00 
-5.88289e+00 -2.32996e-03  2.13331e+00 
-6.10508e+00 -2.21480e-03  2.06700e+00 
-6.32725e+00 -2.11775e-03  1.99826e+00 
-6.54945e+00 -1.98453e-03  1.92714e+00 
-6.77162e+00 -1.87207e-03  1.85359e+00 
-6.99381e+00 -1.72624e-03  1.77765e+00 
-7.21598e+00 -1.60409e-03  1.69929e+00 
-7.43816e+00 -1.45158e-03  1.61855e+00 
-7.66031e+00 -1.32581e-03  1.53538e+00 
-7.88248e+00 -1.17279e-03  1.44983e+00 
-8.10461e+00 -1.04958e-03  1.36185e+00 
-8.32675e+00 -9.02183e-04  1.27149e+00 
-8.54884e+00 -7.87572e-04  1.17869e+00 
-8.77094e+00 -6.51634e-04  1.08350e+00 
-8.99299e+00 -5.51192e-04  9.85872e-01 
-9.21505e+00 -4.31954e-04  8.85847e-01 
-9.43706e+00 -3.50510e-04  7.83373e-01 
-9.65907e+00 -2.52314e-04  6.78494e-01 
-9.88102e+00 -1.93651e-04  5.71154e-01 
-1.01030e+01 -1.19662e-04  4.61400e-01 
-1.03249e+01 -8.62958e-05  3.49172e-01 
-1.05468e+01 -3.84209e-05  2.34519e-01 
-1.07686e+01 -3.18315e-05  1.17379e-01 
-1.09739e+01  3.66030e-02  6.92580e-02 
 1.04765e+01 -3.49012e-02  6.92082e-02 
 1.02806e+01  5.71775e-05  1.17295e-01 
 1.00689e+01  8.73556e-05  2.34351e-01 
 9.85714e+00  1.71538e-04  3.48918e-01 
 9.64534e+00  2.56543e-04  4.61063e-01 
 9.43345e+00  3.94371e-04  5.70737e-01 
 9.22154e+00  5.30711e-04  6.78002e-01 
 9.00955e+00  7.16797e-04  7.82811e-01 
 8.79754e+00  8.97666e-04  8.85221e-01 
 8.58546e+00  1.12404e-03  9.85190e-01 
 8.37336e+00  1.34048e-03  1.08277e+00 
 8.16120e+00  1.59733e-03  1.17792e+00 
 7.94903e+00  1.83885e-03  1.27068e+00 
 7.73680e+00  2.11514e-03  1.36102e+00 
 7.52458e+00  2.37025e-03  1.44899e+00 
 7.31231e+00  2.65421e-03  1.53454e+00 
 7.10006e+00  2.91098e-03  1.61771e+00 
 6.88776e+00  3.19061e-03  1.69847e+00 
 6.67549e+00  3.43714e-03  1.77685e+00 
 6.46319e+00  3.70077e-03  1.85282e+00 
 6.25092e+00  3.92566e-03  1.92641e+00 
 6.03863e+00  4.16227e-03  1.99759e+00 
 5.82638e+00  4.35504e-03  2.06638e+00 
 5.61411e+00  4.55475e-03  2.13275e+00 
 5.40189e+00  4.70616e-03  2.19674e+00 
 5.18967e+00  4.86046e-03  2.25830e+00 
 4.97750e+00  4.96283e-03  2.31747e+00 
 4.76532e+00  5.06489e-03  2.37420e+00 
 4.55321e+00  5.11227e-03  2.42853e+00 
 4.34110e+00  5.15708e-03  2.48042e+00 
 4.12905e+00  5.14545e-03  2.52990e+00 
 3.91701e+00  5.12996e-03  2.57693e+00 
 3.70503e+00  5.05725e-03  2.62153e+00 
 3.49305e+00  4.98040e-03  2.66367e+00 
 3.28115e+00  4.84654e-03  2.70338e+00 
 3.06925e+00  4.70925e-03  2.74062e+00 
 2.85741e+00  4.51613e-03  2.77542e+00 
 2.64558e+00  4.32121e-03  2.80774e+00 
 2.43381e+00  4.07256e-03  2.83761e+00 
 2.22204e+00  3.82462e-03  2.86499e+00 
 2.01034e+00  3.52586e-03  2.88991e+00 
 1.79863e+00  3.23110e-03  2.91234e+00 
 1.58698e+00  2.88917e-03  2.93229e+00 
 1.37532e+00  2.55519e-03  2.94975e+00 
 1.16371e+00  2.17829e-03  2.96472e+00 
 9.52089e-01  1.81386e-03  2.97720e+00 
 7.40512e-01  1.41124e-03  2.98719e+00 
 5.28918e-01  1.02599e-03  2.99468e+00 
 3.17361e-01  6.07639e-04  2.99968e+00 
 1.05780e-01  2.11835e-04  3.00218e+00 
-1.05780e-01 -2.11835e-04  3.00218e+00 
-3.17361e-01 -6.07639e-04  2.99968e+00 
-5.28918e-01 -1.02599e-03  2.99468e+00 
-7.40512e-01 -1.41124e-03  2.98719e+00 
-9.52089e-01 -1.81386e-03  2.97720e+00 
-1.16371e+00 -2.17829e-03  2.96472e+00 
-1.37532e+00 -2.55519e-03  2.94975e+00 
-1.58698e+00 -2.88917e-03  2.93229e+00 
-1.79863e+00 -3.23110e-03  2.91234e+00 
-2.01034e+00 -3.52586e-03  2.88991e+00 
-2.22204e+00 -3.82462e-03  2.86499e+00 
-2.43381e+00 -4.07256e-03  2.83761e+00 
-2.64558e+00 -4.32121e-03  2.80774e+00 
-2.85741e+00 -4.51613e-03  2.77542e+00 
-3.06925e+00 -4.70925e-03  2.74062e+00 
-3.28115e+00 -4.84654e-03  2.70338e+00 
-3.49305e+00 -4.98040e-03  2.66367e+00 
-3.70503e+00 -5.05725e-03  2.62153e+00 
-3.91701e+00 -5.12996e-03  2.57693e+00 
-4.12905e+00 -5.14545e-03  2.52990e+00 
-4.34110e+00 -5.15708e-03  2.48042e+00 
-4.55321e+00 -5.11227e-03  2.42853e+00 
-4.76532e+00 -5.06489e-03  2.37420e+00 
-4.97750e+00 -4.96283e-03  2.31747e+00 
-5.18967e+00 -4.86046e-03  2.25830e+00 
-5.40189e+00 -4.70616e-03  2.19674e+00 
-5.61411e+00 -4.55475e-03  2.13275e+00 
-5.82638e+00 -4.35504e-03  2.06638e+00 
-6.03863e+00 -4.16227e-03  1.99759e+00 
-6.25092e+00 -3.92566e-03  1.92641e+00 
-6.46319e+00 -3.70077e-03  1.85282e+00 
-6.67549e+00 -3.43714e-03  1.77685e+00 
-6.88776e+00 -3.19061e-03  1.69847e+00 
-7.10006e+00 -2.91098e-03  1.61771e+00 
-7.31231e+00 -2.65421e-03  1.53454e+00 
-7.52458e+00 -2.37025e-03  1.44899e+00 
-7.73680e+00 -2.11514e-03  1.36102e+00 
-7.94903e+00 -1.83885e-03  1.27068e+00 
-8.16120e+00 -1.59733e-03  1.17792e+00 
-8.37336e+00 -1.34048e-03  1.08277e+00 
-8.58546e+00 -1.12404e-03  9.85190e-01 
-8.79754e+00 -8.97666e-04  8.85221e-01 
-9.00955e+00 -7.16797e-04  7.82811e-01 
-9.22154e+00 -5.30711e-04  6.78002e-01 
-9.43345e+00 -3.94371e-04  5.70737e-01 
-9.64534e+00 -2.56543e-04  4.61063e-01 
-9.85714e+00 -1.71538e-04  3.48918e-01 
-1.00689e+01 -8.73556e-05  2.34351e-01 
-1.02806e+01 -5.71775e-05  1.17295e-01 
-1.04765e+01  3.49012e-02  6.92082e-02 
 9.97957e+00 -3.31930e-02  6.91169e-02 
 9.79310e+00  8.74158e-05  1.17141e-01 
 9.59156e+00  1.44757e-04  2.34042e-01 
 9.38990e+00  2.74097e-04  3.48458e-01 
 9.18818e+00  4.23200e-04  4.60456e-01 
 8.98634e+00  6.40220e-04  5.69991e-01 
 8.78444e+00  8.72045e-04  6.77125e-01 
 8.58243e+00  1.16595e-03  7.81815e-01 
 8.38037e+00  1.46798e-03  8.84119e-01 
 8.17821e+00  1.82472e-03  9.83993e-01 
 7.97602e+00  2.18158e-03  1.08149e+00 
 7.77375e+00  2.58466e-03  1.17658e+00 
 7.57146e+00  2.97893e-03  1.26929e+00 
 7.36909e+00  3.41021e-03  1.35960e+00 
 7.16672e+00  3.82325e-03  1.44755e+00 
 6.96429e+00  4.26380e-03  1.53310e+00 
 6.76188e+00  4.67657e-03  1.61628e+00 
 6.55942e+00  5.10744e-03  1.69707e+00 
 6.35699e+00  5.50125e-03  1.77550e+00 
 6.15454e+00  5.90418e-03  1.85153e+00 
 5.95212e+00  6.26138e-03  1.92520e+00 
 5.74969e+00  6.61944e-03  1.99646e+00 
 5.54732e+00  6.92400e-03  2.06535e+00 
 5.34494e+00  7.22217e-03  2.13184e+00 
 5.14262e+00  7.46016e-03  2.19595e+00 
 4.94032e+00  7.68572e-03  2.25765e+00 
 4.73809e+00  7.84573e-03  2.31695e+00 
 4.53588e+00  7.98863e-03  2.37383e+00 
 4.33374e+00  8.06202e-03  2.42831e+00 
 4.13164e+00  8.11510e-03  2.48036e+00 
 3.92961e+00  8.09619e-03  2.53000e+00 
 3.72762e+00  8.05528e-03  2.57719e+00 
 3.52571e+00  7.94146e-03  2.62195e+00 
 3.32383e+00  7.80545e-03  2.66426e+00 
 3.12204e+00  7.59710e-03  2.70413e+00 
 2.92028e+00  7.36785e-03  2.74153e+00 
 2.71861e+00  7.06828e-03  2.77647e+00 
 2.51697e+00  6.75051e-03  2.80894e+00 
 2.31540e+00  6.36577e-03  2.83894e+00 
 2.11386e+00  5.96681e-03  2.86646e+00 
 1.91240e+00  5.50547e-03  2.89150e+00 
 1.71095e+00  5.03503e-03  2.91404e+00 
 1.50958e+00  4.50785e-03  2.93410e+00 
 1.30821e+00  3.97767e-03  2.95165e+00 
 1.10690e+00  3.39728e-03  2.96670e+00 
 9.05595e-01  2.82078e-03  2.97925e+00 
 7.04341e-01  2.20131e-03  2.98929e+00 
 5.03077e-01  1.59321e-03  2.99683e+00 
 3.01854e-01  9.49842e-04  3.00185e+00 
 1.00611e-01  3.25716e-04  3.00436e+00 
-1.00611e-01 -3.25716e-04  3.00436e+00 
-3.01854e-01 -9.49842e-04  3.00185e+00 
-5.03077e-01 -1.59321e-03  2.99683e+00 
-7.04341e-01 -2.20131e-03  2.98929e+00 
-9.05595e-01 -2.82078e-03  2.97925e+00 
-1.10690e+00 -3.39728e-03  2.96670e+00 
-1.30821e+00 -3.97767e-03  2.95165e+00 
-1.50958e+00 -4.50785e-03  2.93410e+00 
-1.71095e+00 -5.03503e-03  2.91404e+00 
-1.91240e+00 -5.50547e-03  2.89150e+00 
-2.11386e+00 -5.96681e-03  2.86646e+00 
-2.31540e+00 -6.36577e-03  2.83894e+00 
-2.51697e+00 -6.75051e-03  2.80894e+00 
-2.71861e+00 -7.06828e-03  2.77647e+00 
-2.92028e+00 -7.36785e-03  2.74153e+00 
-3.12204e+00 -7.59710e-03  2.70413e+00 
-3.32383e+00 -7.80545e-03  2.66426e+00 
-3.52571e+00 -7.94146e-03  2.62195e+00 
-3.72762e+00 -8.05528e-03  2.57719e+00 
-3.92961e+00 -8.09619e-03  2.53000e+00 
-4.13164e+00 -8.11510e-03  2.48036e+00 
-4.33374e+00 -8.06202e-03  2.42831e+00 
-4.53588e+00 -7.98863e-03  2.37383e+00 
-4.73809e+00 -7.84573e-03  2.31695e+00 
-4.94032e+00 -7.68572e-03  2.25765e+00 
-5.14262e+00 -7.46016e-03  2.19595e+00 
-5.34494e+00 -7.22217e-03  2.13184e+00 
-5.54732e+00 -6.92400e-03  2.06535e+00 
-5.74969e+00 -6.61944e-03  1.99646e+00 
-5.95212e+00 -6.26138e-03  1.92520e+00 
-6.15454e+00 -5.90418e-03  1.85153e+00 
-6.35699e+00 -5.50125e-03  1.77550e+00 
-6.55942e+00 -5.10744e-03  1.69707e+00 
-6.76188e+00 -4.67657e-03  1.61628e+00 
-6.96429e+00 -4.26380e-03  1.53310e+00 
-7.16672e+00 -3.82325e-03  1.44755e+00 
-7.36909e+00 -3.41021e-03  1.35960e+00 
-7.57146e+00 -2.97893e-03  1.26929e+00 
-7.77375e+00 -2.58466e-03  1.17658e+00 
-7.97602e+00 -2.18158e-03  1.08149e+00 
-8.17821e+00 -1.82472e-03  9.83993e-01 
-8.38037e+00 -1.46798e-03  8.84119e-01 
-8.58243e+00 -1.16595e-03  7.81815e-01 
-8.78444e+00 -8.72045e-04  6.77125e-01 
-8.98634e+00 -6.40220e-04  5.69991e-01 
-9.18818e+00 -4.23200e-04  4.60456e-01 
-9.38990e+00 -2.74097e-04  3.48458e-01 
-9.59156e+00 -1.44757e-04  2.34042e-01 
-9.79310e+00 -8.74158e-05  1.17141e-01 
-9.97957e+00  3.31930e-02  6.91169e-02 
 9.48353e+00 -3.14731e-02  6.89623e-02 
 9.30648e+00  1.34710e-04  1.16884e-01 
 9.11507e+00  2.30983e-04  2.33538e-01 
 8.92350e+00  4.20736e-04  3.47716e-01 
 8.73181e+00  6.53119e-04  4.59488e-01 
 8.53996e+00  9.72184e-04  5.68811e-01 
 8.34801e+00  1.32571e-03  6.75750e-01 
 8.15592e+00  1.75660e-03  7.80262e-01 
 7.96374e+00  2.21150e-03  8.82407e-01 
 7.77144e+00  2.73236e-03  9.82144e-01 
 7.57908e+00  3.26498e-03  1.07953e+00 
 7.38661e+00  3.85071e-03  1.17452e+00 
 7.19410e+00  4.43478e-03  1.26717e+00 
 7.00151e+00  5.05826e-03  1.35743e+00 
 6.80891e+00  5.66613e-03  1.44536e+00 
 6.61624e+00  6.29944e-03  1.53091e+00 
 6.42358e+00  6.90325e-03  1.61413e+00 
 6.23089e+00  7.51884e-03  1.69497e+00 
 6.03822e+00  8.09157e-03  1.77347e+00 
 5.84554e+00  8.66320e-03  1.84960e+00 
 5.65290e+00  9.17964e-03  1.92338e+00 
 5.46027e+00  9.68333e-03  1.99479e+00 
 5.26770e+00  1.01209e-02  2.06383e+00 
 5.07516e+00  1.05355e-02  2.13049e+00 
 4.88270e+00  1.08748e-02  2.19479e+00 
 4.69027e+00  1.11829e-02  2.25668e+00 
 4.49794e+00  1.14082e-02  2.31620e+00 
 4.30566e+00  1.15961e-02  2.37330e+00 
 4.11348e+00  1.16960e-02  2.42801e+00 
 3.92136e+00  1.17542e-02  2.48029e+00 
 3.72935e+00  1.17212e-02  2.53016e+00 
 3.53740e+00  1.16445e-02  2.57759e+00 
 3.34556e+00  1.14758e-02  2.62260e+00 
 3.15379e+00  1.12633e-02  2.66514e+00 
 2.96213e+00  1.09600e-02  2.70524e+00 
 2.77054e+00  1.06150e-02  2.74287e+00 
 2.57905e+00  1.01823e-02  2.77804e+00 
 2.38763e+00  9.71205e-03  2.81072e+00 
 2.19631e+00  9.15894e-03  2.84093e+00 
 2.00503e+00  8.57416e-03  2.86864e+00 
 1.81386e+00  7.91311e-03  2.89385e+00 
 1.62273e+00  7.22773e-03  2.91656e+00 
 1.43168e+00  6.47414e-03  2.93676e+00 
 1.24066e+00  5.70489e-03  2.95445e+00 
 1.04972e+00  4.87667e-03  2.96962e+00 
 8.58795e-01  4.04249e-03  2.98226e+00 
 6.67928e-01  3.15951e-03  2.99238e+00 
 4.77062e-01  2.28109e-03  2.99997e+00 
 2.86242e-01  1.36468e-03  3.00504e+00 
 9.54069e-02  4.63848e-04  3.00757e+00 
-9.54069e-02 -4.63848e-04  3.00757e+00 
-2.86242e-01 -1.36468e-03  3.00504e+00 
-4.77062e-01 -2.28109e-03  2.99997e+00 
-6.67928e-01 -3.15951e-03  2.99238e+00 
-8.58795e-01 -4.04249e-03  2.98226e+00 
-1.04972e+00 -4.87667e-03  2.96962e+00 
-1.24066e+00 -5.70489e-03  2.95445e+00 
-1.43168e+00 -6.47414e-03  2.93676e+00 
-1.62273e+00 -7.22773e-03  2.91656e+00 
-1.81386e+00 -7.91311e-03  2.89385e+00 
-2.00503e+00 -8.57416e-03  2.86864e+00 
-2.19631e+00 -9.15894e-03  2.84093e+00 
-2.38763e+00 -9.71205e-03  2.81072e+00 
-2.57905e+00 -1.01823e-02  2.77804e+00 
-2.77054e+00 -1.06150e-02  2.74287e+00 
-2.96213e+00 -1.09600e-02  2.70524e+00 
-3.15379e+00 -1.12633e-02  2.66514e+00 
-3.34556e+00 -1.14758e-02  2.62260e+00 
-3.53740e+00 -1.16445e-02  2.57759e+00 
-3.72935e+00 -1.17212e-02  2.53016e+00 
-3.92136e+00 -1.17542e-02  2.48029e+00 
-4.11348e+00 -1.16960e-02  2.42801e+00 
-4.30566e+00 -1.15961e-02  2.37330e+00 
-4.49794e+00 -1.14082e-02  2.31620e+00 
-4.69027e+00 -1.11829e-02  2.25668e+00 
-4.88270e+00 -1.08748e-02  2.19479e+00 
-5.07516e+00 -1.05355e-02  2.13049e+00 
-5.26770e+00 -1.01209e-02  2.06383e+00 
-5.46027e+00 -9.68333e-03  1.99479e+00 
-5.65290e+00 -9.17964e-03  1.92338e+00 
-5.84554e+00 -8.66320e-03  1.84960e+00 
-6.03822e+00 -8.09157e-03  1.77347e+00 
-6.23089e+00 -7.51884e-03  1.69497e+00 
-6.42358e+00 -6.90325e-03  1.61413e+00 
-6.61624e+00 -6.29944e-03  1.53091e+00 
-6.80891e+00 -5.66613e-03  1.44536e+00 
-7.00151e+00 -5.05826e-03  1.35743e+00 
-7.19410e+00 -4.43478e-03  1.26717e+00 
-7.38661e+00 -3.85071e-03  1.17452e+00 
-7.57908e+00 -3.26498e-03  1.07953e+00 
-7.77144e+00 -2.73236e-03  9.82144e-01 
-7.96374e+00 -2.21150e-03  8.82407e-01 
-8.15592e+00 -1.75660e-03  7.80262e-01 
-8.34801e+00 -1.32571e-03  6.75750e-01 
-8.53996e+00 -9.72184e-04  5.68811e-01 
-8.73181e+00 -6.53119e-04  4.59488e-01 
-8.92350e+00 -4.20736e-04  3.47716e-01 
-9.11507e+00 -2.30983e-04  2.33538e-01 
-9.30648e+00 -1.34710e-04  1.16884e-01 
-9.48353e+00  3.14731e-02  6.89623e-02 
 8.98878e+00 -2.97523e-02  6.87479e-02 
 8.82113e+00  1.90084e-04  1.16524e-01 
 8.63981e+00  3.34884e-04  2.32821e-01 
 8.45826e+00  6.01446e-04  3.46656e-01 
 8.27653e+00  9.40173e-04  4.58102e-01 
 8.09459e+00  1.39053e-03  5.67122e-01 
 7.91250e+00  1.90041e-03  6.73781e-01 
 7.73023e+00  2.50756e-03  7.78042e-01 
 7.54783e+00  3.15834e-03  8.79965e-01 
 7.36527e+00  3.88935e-03  9.79512e-01 
 7.18261e+00  4.64591e-03  1.07674e+00 
 6.99983e+00  5.46391e-03  1.17161e+00 
 6.81699e+00  6.28811e-03  1.26417e+00 
 6.63405e+00  7.15413e-03  1.35438e+00 
 6.45109e+00  8.00655e-03  1.44229e+00 
 6.26806e+00  8.88113e-03  1.52786e+00 
 6.08504e+00  9.72266e-03  1.61112e+00 
 5.90199e+00  1.05674e-02  1.69205e+00 
 5.71897e+00  1.13607e-02  1.77067e+00 
 5.53595e+00  1.21395e-02  1.84694e+00 
 5.35300e+00  1.28501e-02  1.92089e+00 
 5.17007e+00  1.35305e-02  1.99250e+00 
 4.98724e+00  1.41280e-02  2.06177e+00 
 4.80445e+00  1.46818e-02  2.12867e+00 
 4.62178e+00  1.51404e-02  2.19323e+00 
 4.43917e+00  1.55446e-02  2.25541e+00 
 4.25669e+00  1.58441e-02  2.31523e+00 
 4.07430e+00  1.60810e-02  2.37264e+00 
 3.89204e+00  1.62066e-02  2.42767e+00 
 3.70989e+00  1.62646e-02  2.48028e+00 
 3.52788e+00  1.62076e-02  2.53048e+00 
 3.34597e+00  1.60806e-02  2.57824e+00 
 3.16422e+00  1.58379e-02  2.62358e+00 
 2.98257e+00  1.55259e-02  2.66645e+00 
 2.80107e+00  1.51001e-02  2.70688e+00 
 2.61967e+00  1.46083e-02  2.74482e+00 
 2.43841e+00  1.40075e-02  2.78030e+00 
 2.25725e+00  1.33464e-02  2.81327e+00 
 2.07623e+00  1.25833e-02  2.84375e+00 
 1.89529e+00  1.17680e-02  2.87172e+00 
 1.71448e+00  1.08598e-02  2.89718e+00 
 1.53373e+00  9.90956e-03  2.92011e+00 
 1.35309e+00  8.87736e-03  2.94052e+00 
 1.17251e+00  7.81483e-03  2.95839e+00 
 9.92018e-01  6.68283e-03  2.97371e+00 
 8.11560e-01  5.53358e-03  2.98649e+00 
 6.31175e-01  4.32848e-03  2.99672e+00 
 4.50802e-01  3.12020e-03  3.00439e+00 
 2.70482e-01  1.87052e-03  3.00951e+00 
 9.01535e-02  6.32357e-04  3.01207e+00 
-9.01535e-02 -6.32357e-04  3.01207e+00 
-2.70482e-01 -1.87052e-03  3.00951e+00 
-4.50802e-01 -3.12020e-03  3.00439e+00 
-6.31175e-01 -4.32848e-03  2.99672e+00 
-8.11560e-01 -5.53358e-03  2.98649e+00 
-9.92018e-01 -6.68283e-03  2.97371e+00 
-1.17251e+00 -7.81483e-03  2.95839e+00 
-1.35309e+00 -8.87736e-03  2.94052e+00 
-1.53373e+00 -9.90956e-03  2.92011e+00 
-1.71448e+00 -1.08598e-02  2.89718e+00 
-1.89529e+00 -1.17680e-02  2.87172e+00 
-2.07623e+00 -1.25833e-02  2.84375e+00 
-2.25725e+00 -1.33464e-02  2.81327e+00 
-2.43841e+00 -1.40075e-02  2.78030e+00 
-2.61967e+00 -1.46083e-02  2.74482e+00 
-2.80107e+00 -1.51001e-02  2.70688e+00 
-2.98257e+00 -1.55259e-02  2.66645e+00 
-3.16422e+00 -1.58379e-02  2.62358e+00 
-3.34597e+00 -1.60806e-02  2.57824e+00 
-3.52788e+00 -1.62076e-02  2.53048e+00 
-3.70989e+00 -1.62646e-02  2.48028e+00 
-3.89204e+00 -1.62066e-02  2.42767e+00 
-4.07430e+00 -1.60810e-02  2.37264e+00 
-4.25669e+00 -1.58441e-02  2.31523e+00 
-4.43917e+00 -1.55446e-02  2.25541e+00 
-4.62178e+00 -1.51404e-02  2.19323e+00 
-4.80445e+00 -1.46818e-02  2.12867e+00 
-4.98724e+00 -1.41280e-02  2.06177e+00 
-5.17007e+00 -1.35305e-02  1.99250e+00 
-5.35300e+00 -1.28501e-02  1.92089e+00 
-5.53595e+00 -1.21395e-02  1.84694e+00 
-5.71897e+00 -1.13607e-02  1.77067e+00 
-5.90199e+00 -1.05674e-02  1.69205e+00 
-6.08504e+00 -9.72266e-03  1.61112e+00 
-6.26806e+00 -8.88113e-03  1.52786e+00 
-6.45109e+00 -8.00655e-03  1.44229e+00 
-6.63405e+00 -7.15413e-03  1.35438e+00 
-6.81699e+00 -6.28811e-03  1.26417e+00 
-6.99983e+00 -5.46391e-03  1.17161e+00 
-7.18261e+00 -4.64591e-03  1.07674e+00 
-7.36527e+00 -3.88935e-03  9.79512e-01 
-7.54783e+00 -3.15834e-03  8.79965e-01 
-7.73023e+00 -2.50756e-03  7.78042e-01 
-7.91250e+00 -1.90041e-03  6.73781e-01 
-8.09459e+00 -1.39053e-03  5.67122e-01 
-8.27653e+00 -9.40173e-04  4.58102e-01 
-8.45826e+00 -6.01446e-04  3.46656e-01 
-8.63981e+00 -3.34884e-04  2.32821e-01 
-8.82113e+00 -1.90084e-04  1.16524e-01 
-8.98878e+00  2.97523e-02  6.87479e-02 
 8.49593e+00 -2.80236e-02  6.84438e-02 
 8.33762e+00  2.62890e-04  1.16012e-01 
 8.16632e+00  4.70143e-04  2.31803e-01 
 7.99470e+00  8.38428e-04  3.45154e-01 
 7.82283e+00  1.31727e-03  4.56145e-01 
 7.65068e+00  1.94018e-03  5.64744e-01 
 7.47831e+00  2.65398e-03  6.71019e-01 
 7.30570e+00  3.49022e-03  7.74937e-01 
 7.13292e+00  4.39394e-03  8.76561e-01 
 6.95993e+00  5.39535e-03  9.75854e-01 
 6.78682e+00  6.43833e-03  1.07288e+00 
 6.61355e+00  7.55237e-03  1.16759e+00 
 6.44020e+00  8.68079e-03  1.26004e+00 
 6.26673e+00  9.85295e-03  1.35019e+00 
 6.09324e+00  1.10122e-02  1.43809e+00 
 5.91968e+00  1.21882e-02  1.52369e+00 
 5.74613e+00  1.33248e-02  1.60704e+00 
 5.57256e+00  1.44527e-02  1.68809e+00 
 5.39905e+00  1.55165e-02  1.76688e+00 
 5.22555e+00  1.65482e-02  1.84336e+00 
 5.05215e+00  1.74937e-02  1.91756e+00 
 4.87881e+00  1.83864e-02  1.98944e+00 
 4.70559e+00  1.91739e-02  2.05903e+00 
 4.53246e+00  1.98913e-02  2.12628e+00 
 4.35948e+00  2.04880e-02  2.19121e+00 
 4.18662e+00  2.10009e-02  2.25377e+00 
 4.01394e+00  2.13814e-02  2.31399e+00 
 3.84138e+00  2.16682e-02  2.37183e+00 
 3.66902e+00  2.18148e-02  2.42729e+00 
 3.49680e+00  2.18618e-02  2.48034e+00 
 3.32479e+00  2.17646e-02  2.53099e+00 
 3.15292e+00  2.15657e-02  2.57920e+00 
 2.98126e+00  2.12223e-02  2.62498e+00 
 2.80976e+00  2.07789e-02  2.66830e+00 
 2.63845e+00  2.01944e-02  2.70915e+00 
 2.46729e+00  1.95148e-02  2.74751e+00 
 2.29633e+00  1.87008e-02  2.78339e+00 
 2.12550e+00  1.77999e-02  2.81675e+00 
 1.95485e+00  1.67743e-02  2.84760e+00 
 1.78433e+00  1.56727e-02  2.87592e+00 
 1.61396e+00  1.44586e-02  2.90170e+00 
 1.44370e+00  1.31820e-02  2.92492e+00 
 1.27358e+00  1.18072e-02  2.94559e+00 
 1.10354e+00  1.03854e-02  2.96370e+00 
 9.33621e-01  8.88184e-03  2.97923e+00 
 7.63752e-01  7.34815e-03  2.99218e+00 
 5.93973e-01  5.75035e-03  3.00255e+00 
 4.24220e-01  4.14063e-03  3.01033e+00 
 2.54529e-01  2.48544e-03  3.01551e+00 
 8.48353e-02  8.37270e-04  3.01811e+00 
-8.48353e-02 -8.37270e-04  3.01811e+00 
-2.54529e-01 -2.48544e-03  3.01551e+00 
-4.24220e-01 -4.14063e-03  3.01033e+00 
-5.93973e-01 -5.75035e-03  3.00255e+00 
-7.63752e-01 -7.34815e-03  2.99218e+00 
-9.33621e-01 -8.88184e-03  2.97923e+00 
-1.10354e+00 -1.03854e-02  2.96370e+00 
-1.27358e+00 -1.18072e-02  2.94559e+00 
-1.44370e+00 -1.31820e-02  2.92492e+00 
-1.61396e+00 -1.44586e-02  2.90170e+00 
-1.78433e+00 -1.56727e-02  2.87592e+00 
-1.95485e+00 -1.67743e-02  2.84760e+00 
-2.12550e+00 -1.77999e-02  2.81675e+00 
-2.29633e+00 -1.87008e-02  2.78339e+00 
-2.46729e+00 -1.95148e-02  2.74751e+00 
-2.63845e+00 -2.01944e-02  2.70915e+00 
-2.80976e+00 -2.07789e-02  2.66830e+00 
-2.98126e+00 -2.12223e-02  2.62498e+00 
-3.15292e+00 -2.15657e-02  2.57920e+00 
-3.32479e+00 -2.17646e-02  2.53099e+00 
-3.49680e+00 -2.18618e-02  2.48034e+00 
-3.66902e+00 -2.18148e-02  2.42729e+00 
-3.84138e+00 -2.16682e-02  2.37183e+00 
-4.01394e+00 -2.13814e-02  2.31399e+00 
-4.18662e+00 -2.10009e-02  2.25377e+00 
-4.35948e+00 -2.04880e-02  2.19121e+00 
-4.53246e+00 -1.98913e-02  2.12628e+00 
-4.70559e+00 -1.91739e-02  2.05903e+00 
-4.87881e+00 -1.83864e-02  1.98944e+00 
-5.05215e+00 -1.74937e-02  1.91756e+00 
-5.22555e+00 -1.65482e-02  1.84336e+00 
-5.39905e+00 -1.55165e-02  1.76688e+00 
-5.57256e+00 -1.44527e-02  1.68809e+00 
-5.74613e+00 -1.33248e-02  1.60704e+00 
-5.91968e+00 -1.21882e-02  1.52369e+00 
-6.09324e+00 -1.10122e-02  1.43809e+00 
-6.26673e+00 -9.85295e-03  1.35019e+00 
-6.44020e+00 -8.68079e-03  1.26004e+00 
-6.61355e+00 -7.55237e-03  1.16759e+00 
-6.78682e+00 -6.43833e-03  1.07288e+00 
-6.95993e+00 -5.39535e-03  9.75854e-01 
-7.13292e+00 -4.39394e-03  8.76561e-01 
-7.30570e+00 -3.49022e-03  7.74937e-01 
-7.47831e+00 -2.65398e-03  6.71019e-01 
-7.65068e+00 -1.94018e-03  5.64744e-01 
-7.82283e+00 -1.31727e-03  4.56145e-01 
-7.99470e+00 -8.38428e-04  3.45154e-01 
-8.16632e+00 -4.70143e-04  2.31803e-01 
-8.33762e+00 -2.62890e-04  1.16012e-01 
-8.49593e+00  2.80236e-02  6.84438e-02 
 8.00580e+00 -2.62849e-02  6.80128e-02 
 7.85676e+00  3.67409e-04  1.15288e-01 
 7.69534e+00  6.60801e-04  2.30371e-01 
 7.53351e+00  1.16519e-03  3.43055e-01 
 7.37132e+00  1.82865e-03  4.53425e-01 
 7.20877e+00  2.67745e-03  5.61452e-01 
 7.04592e+00  3.65606e-03  6.67213e-01 
 6.88276e+00  4.78847e-03  7.70675e-01 
 6.71936e+00  6.01702e-03  8.71906e-01 
 6.55571e+00  7.36422e-03  9.70871e-01 
 6.39190e+00  8.77116e-03  1.06763e+00 
 6.22789e+00  1.02597e-02  1.16214e+00 
 6.06379e+00  1.17705e-02  1.25447e+00 
 5.89956e+00  1.33256e-02  1.34456e+00 
 5.73530e+00  1.48660e-02  1.43246e+00 
 5.57098e+00  1.64145e-02  1.51813e+00 
 5.40668e+00  1.79132e-02  1.60161e+00 
 5.24239e+00  1.93862e-02  1.68285e+00 
 5.07817e+00  2.07771e-02  1.76188e+00 
 4.91402e+00  2.21120e-02  1.83866e+00 
 4.75000e+00  2.33365e-02  1.91320e+00 
 4.58608e+00  2.44787e-02  1.98548e+00 
 4.42234e+00  2.54865e-02  2.05549e+00 
 4.25874e+00  2.63906e-02  2.12320e+00 
 4.09536e+00  2.71413e-02  2.18863e+00 
 3.93215e+00  2.77717e-02  2.25172e+00 
 3.76918e+00  2.82348e-02  2.31248e+00 
 3.60641e+00  2.85663e-02  2.37088e+00 
 3.44389e+00  2.87216e-02  2.42692e+00 
 3.28160e+00  2.87391e-02  2.48055e+00 
 3.11956e+00  2.85767e-02  2.53178e+00 
 2.95775e+00  2.82751e-02  2.58058e+00 
 2.79621e+00  2.77945e-02  2.62693e+00 
 2.63489e+00  2.71780e-02  2.67082e+00 
 2.47383e+00  2.63879e-02  2.71223e+00 
 2.31298e+00  2.54694e-02  2.75113e+00 
 2.15238e+00  2.43868e-02  2.78752e+00 
 1.99198e+00  2.31869e-02  2.82138e+00 
 1.83180e+00  2.18359e-02  2.85270e+00 
 1.67181e+00  2.03821e-02  2.88146e+00 
 1.51201e+00  1.87934e-02  2.90765e+00 
 1.35237e+00  1.71192e-02  2.93124e+00 
 1.19290e+00  1.53287e-02  2.95225e+00 
 1.03355e+00  1.34724e-02  2.97066e+00 
 8.74341e-01  1.15204e-02  2.98645e+00 
 7.15216e-01  9.52409e-03  2.99962e+00 
 5.56199e-01  7.45436e-03  3.01016e+00 
 3.97228e-01  5.36317e-03  3.01807e+00 
 2.38328e-01  3.22186e-03  3.02335e+00 
 7.94346e-02  1.08272e-03  3.02599e+00 
-7.94346e-02 -1.08272e-03  3.02599e+00 
-2.38328e-01 -3.22186e-03  3.02335e+00 
-3.97228e-01 -5.36317e-03  3.01807e+00 
-5.56199e-01 -7.45436e-03  3.01016e+00 
-7.15216e-01 -9.52409e-03  2.99962e+00 
-8.74341e-01 -1.15204e-02  2.98645e+00 
-1.03355e+00 -1.34724e-02  2.97066e+00 
-1.19290e+00 -1.53287e-02  2.95225e+00 
-1.35237e+00 -1.71192e-02  2.93124e+00 
-1.51201e+00 -1.87934e-02  2.90765e+00 
-1.67181e+00 -2.03821e-02  2.88146e+00 
-1.83180e+00 -2.18359e-02  2.85270e+00 
-1.99198e+00 -2.31869e-02  2.82138e+00 
-2.15238e+00 -2.43868e-02  2.78752e+00 
-2.31298e+00 -2.54694e-02  2.75113e+00 
-2.47383e+00 -2.63879e-02  2.71223e+00 
-2.63489e+00 -2.71780e-02  2.67082e+00 
-2.79621e+00 -2.77945e-02  2.62693e+00 
-2.95775e+00 -2.82751e-02  2.58058e+00 
-3.11956e+00 -2.85767e-02  2.53178e+00 
-3.28160e+00 -2.87391e-02  2.48055e+00 
-3.44389e+00 -2.87216e-02  2.42692e+00 
-3.60641e+00 -2.85663e-02  2.37088e+00 
-3.76918e+00 -2.82348e-02  2.31248e+00 
-3.93215e+00 -2.77717e-02  2.25172e+00 
-4.09536e+00 -2.71413e-02  2.18863e+00 
-4.25874e+00 -2.63906e-02  2.12320e+00 
-4.42234e+00 -2.54865e-02  2.05549e+00 
-4.58608e+00 -2.44787e-02  1.98548e+00 
-4.75000e+00 -2.33365e-02  1.91320e+00 
-4.91402e+00 -2.21120e-02  1.83866e+00 
-5.07817e+00 -2.07771e-02  1.76188e+00 
-5.24239e+00 -1.93862e-02  1.68285e+00 
-5.40668e+00 -1.79132e-02  1.60161e+00 
-5.57098e+00 -1.64145e-02  1.51813e+00 
-5.73530e+00 -1.48660e-02  1.43246e+00 
-5.89956e+00 -1.33256e-02  1.34456e+00 
-6.06379e+00 -1.17705e-02  1.25447e+00 
-6.22789e+00 -1.02597e-02  1.16214e+00 
-6.39190e+00 -8.77116e-03  1.06763e+00 
-6.55571e+00 -7.36422e-03  9.70871e-01 
-6.71936e+00 -6.01702e-03  8.71906e-01 
-6.88276e+00 -4.78847e-03  7.70675e-01 
-7.04592e+00 -3.65606e-03  6.67213e-01 
-7.20877e+00 -2.67745e-03  5.61452e-01 
-7.37132e+00 -1.82865e-03  4.53425e-01 
-7.53351e+00 -1.16519e-03  3.43055e-01 
-7.69534e+00 -6.60801e-04  2.30371e-01 
-7.85676e+00 -3.67409e-04  1.15288e-01 
-8.00580e+00  2.62849e-02  6.80128e-02 
 7.51939e+00 -2.45523e-02  6.74349e-02 
 7.37945e+00  4.97879e-04  1.14313e-01 
 7.22773e+00  9.01316e-04  2.28436e-01 
 7.07545e+00  1.58089e-03  3.40217e-01 
 6.92270e+00  2.48170e-03  4.49753e-01 
 6.76946e+00  3.62100e-03  5.57022e-01 
 6.61584e+00  4.93873e-03  6.62104e-01 
 6.46181e+00  6.44931e-03  7.64973e-01 
 6.30748e+00  8.09031e-03  8.65698e-01 
 6.15284e+00  9.87465e-03  9.64249e-01 
 5.99799e+00  1.17388e-02  1.06068e+00 
 5.84293e+00  1.36952e-02  1.15497e+00 
 5.68774e+00  1.56805e-02  1.24715e+00 
 5.53243e+00  1.77078e-02  1.33719e+00 
 5.37708e+00  1.97146e-02  1.42513e+00 
 5.22170e+00  2.17158e-02  1.51092e+00 
 5.06637e+00  2.36504e-02  1.59460e+00 
 4.91108e+00  2.55357e-02  1.67611e+00 
 4.75592e+00  2.73133e-02  1.75549e+00 
 4.60087e+00  2.90031e-02  1.83268e+00 
 4.44601e+00  3.05497e-02  1.90770e+00 
 4.29132e+00  3.19761e-02  1.98050e+00 
 4.13689e+00  3.32302e-02  2.05109e+00 
 3.98268e+00  3.43383e-02  2.11943e+00 
 3.82875e+00  3.52516e-02  2.18551e+00 
 3.67510e+00  3.60000e-02  2.24928e+00 
 3.52176e+00  3.65380e-02  2.31076e+00 
 3.36872e+00  3.68989e-02  2.36988e+00 
 3.21601e+00  3.70404e-02  2.42666e+00 
 3.06362e+00  3.69989e-02  2.48104e+00 
 2.91157e+00  3.67356e-02  2.53302e+00 
 2.75984e+00  3.62895e-02  2.58256e+00 
 2.60845e+00  3.56248e-02  2.62965e+00 
 2.45738e+00  3.47832e-02  2.67425e+00 
 2.30664e+00  3.37315e-02  2.71636e+00 
 2.15619e+00  3.25138e-02  2.75594e+00 
 2.00607e+00  3.10990e-02  2.79298e+00 
 1.85621e+00  2.95334e-02  2.82746e+00 
 1.70664e+00  2.77879e-02  2.85936e+00 
 1.55732e+00  2.59106e-02  2.88866e+00 
 1.40825e+00  2.38738e-02  2.91535e+00 
 1.25939e+00  2.17272e-02  2.93941e+00 
 1.11075e+00  1.94445e-02  2.96084e+00 
 9.62263e-01  1.70763e-02  2.97961e+00 
 8.13960e-01  1.45977e-02  2.99572e+00 
 6.65771e-01  1.20599e-02  3.00916e+00 
 5.17715e-01  9.43880e-03  3.01992e+00 
 3.69726e-01  6.78627e-03  3.02799e+00 
 2.21820e-01  4.07872e-03  3.03338e+00 
 7.39314e-02  1.36833e-03  3.03607e+00 
-7.39314e-02 -1.36833e-03  3.03607e+00 
-2.21820e-01 -4.07872e-03  3.03338e+00 
-3.69726e-01 -6.78627e-03  3.02799e+00 
-5.17715e-01 -9.43880e-03  3.01992e+00 
-6.65771e-01 -1.20599e-02  3.00916e+00 
-8.13960e-01 -1.45977e-02  2.99572e+00 
-9.62263e-01 -1.70763e-02  2.97961e+00 
-1.11075e+00 -1.94445e-02  2.96084e+00 
-1.25939e+00 -2.17272e-02  2.93941e+00 
-1.40825e+00 -2.38738e-02  2.91535e+00 
-1.55732e+00 -2.59106e-02  2.88866e+00 
-1.70664e+00 -2.77879e-02  2.85936e+00 
-1.85621e+00 -2.95334e-02  2.82746e+00 
-2.00607e+00 -3.10990e-02  2.79298e+00 
-2.15619e+00 -3.25138e-02  2.75594e+00 
-2.30664e+00 -3.37315e-02  2.71636e+00 
-2.45738e+00 -3.47832e-02  2.67425e+00 
-2.60845e+00 -3.56248e-02  2.62965e+00 
-2.75984e+00 -3.62895e-02  2.58256e+00 
-2.91157e+00 -3.67356e-02  2.53302e+00 
-3.06362e+00 -3.69989e-02  2.48104e+00 
-3.21601e+00 -3.70404e-02  2.42666e+00 
-3.36872e+00 -3.68989e-02  2.36988e+00 
-3.52176e+00 -3.65380e-02  2.31076e+00 
-3.67510e+00 -3.60000e-02  2.24928e+00 
-3.82875e+00 -3.52516e-02  2.18551e+00 
-3.98268e+00 -3.43383e-02  2.11943e+00 
-4.13689e+00 -3.32302e-02  2.05109e+00 
-4.29132e+00 -3.19761e-02  1.98050e+00 
-4.44601e+00 -3.05497e-02  1.90770e+00 
-4.60087e+00 -2.90031e-02  1.83268e+00 
-4.75592e+00 -2.73133e-02  1.75549e+00 
-4.91108e+00 -2.55357e-02  1.67611e+00 
-5.06637e+00 -2.36504e-02  1.59460e+00 
-5.22170e+00 -2.17158e-02  1.51092e+00 
-5.37708e+00 -1.97146e-02  1.42513e+00 
-5.53243e+00 -1.77078e-02  1.33719e+00 
-5.68774e+00 -1.56805e-02  1.24715e+00 
-5.84293e+00 -1.36952e-02  1.15497e+00 
-5.99799e+00 -1.17388e-02  1.06068e+00 
-6.15284e+00 -9.87465e-03  9.64249e-01 
-6.30748e+00 -8.09031e-03  8.65698e-01 
-6.46181e+00 -6.44931e-03  7.64973e-01 
-6.61584e+00 -4.93873e-03  6.62104e-01 
-6.76946e+00 -3.62100e-03  5.57022e-01 
-6.92270e+00 -2.48170e-03  4.49753e-01 
-7.07545e+00 -1.58089e-03  3.40217e-01 
-7.22773e+00 -9.01316e-04  2.28436e-01 
-7.37945e+00 -4.97879e-04  1.14313e-01 
-7.51939e+00  2.45523e-02  6.74349e-02 
 7.03809e+00 -2.28282e-02  6.66578e-02 
 6.90702e+00  6.67543e-04  1.12999e-01 
 6.76469e+00  1.21229e-03  2.25828e-01 
 6.62162e+00  2.11844e-03  3.36405e-01 
 6.47793e+00  3.32447e-03  4.44838e-01 
 6.33361e+00  4.83544e-03  5.51114e-01 
 6.18878e+00  6.58386e-03  6.55318e-01 
 6.04345e+00  8.57187e-03  7.57430e-01 
 5.89774e+00  1.07296e-02  8.57521e-01 
 5.75166e+00  1.30580e-02  9.55563e-01 
 5.60532e+00  1.54865e-02  1.05161e+00 
 5.45874e+00  1.80164e-02  1.14564e+00 
 5.31203e+00  2.05779e-02  1.23768e+00 
 5.16521e+00  2.31741e-02  1.32770e+00 
 5.01837e+00  2.57371e-02  1.41573e+00 
 4.87154e+00  2.82728e-02  1.50172e+00 
 4.72481e+00  3.07164e-02  1.58570e+00 
 4.57818e+00  3.30774e-02  1.66762e+00 
 4.43175e+00  3.52947e-02  1.74748e+00 
 4.28552e+00  3.73821e-02  1.82524e+00 
 4.13956e+00  3.92828e-02  1.90091e+00 
 3.99388e+00  4.10148e-02  1.97441e+00 
 3.84855e+00  4.25261e-02  2.04577e+00 
 3.70355e+00  4.38392e-02  2.11491e+00 
 3.55895e+00  4.49067e-02  2.18184e+00 
 3.41473e+00  4.57554e-02  2.24650e+00 
 3.27095e+00  4.63425e-02  2.30889e+00 
 3.12758e+00  4.66990e-02  2.36894e+00 
 2.98466e+00  4.67861e-02  2.42665e+00 
 2.84216e+00  4.66390e-02  2.48197e+00 
 2.70012e+00  4.62225e-02  2.53488e+00 
 2.55851e+00  4.55753e-02  2.58534e+00 
 2.41736e+00  4.46656e-02  2.63334e+00 
 2.27661e+00  4.35351e-02  2.67882e+00 
 2.13630e+00  4.21551e-02  2.72179e+00 
 1.99638e+00  4.05697e-02  2.76219e+00 
 1.85687e+00  3.87529e-02  2.80002e+00 
 1.71771e+00  3.67507e-02  2.83524e+00 
 1.57893e+00  3.45394e-02  2.86785e+00 
 1.44046e+00  3.21667e-02  2.89780e+00 
 1.30231e+00  2.96106e-02  2.92510e+00 
 1.16443e+00  2.69202e-02  2.94971e+00 
 1.02683e+00  2.40746e-02  2.97163e+00 
 8.89436e-01  2.11244e-02  2.99084e+00 
 7.52263e-01  1.80495e-02  3.00732e+00 
 6.15243e-01  1.49011e-02  3.02108e+00 
 4.78384e-01  1.16602e-02  3.03209e+00 
 3.41616e-01  8.37825e-03  3.04036e+00 
 2.04947e-01  5.03677e-03  3.04587e+00 
 6.83062e-02  1.68765e-03  3.04863e+00 
-6.83062e-02 -1.68765e-03  3.04863e+00 
-2.04947e-01 -5.03678e-03  3.04587e+00 
-3.41616e-01 -8.37825e-03  3.04036e+00 
-4.78384e-01 -1.16602e-02  3.03209e+00 
-6.15243e-01 -1.49011e-02  3.02108e+00 
-7.52263e-01 -1.80495e-02  3.00732e+00 
-8.89436e-01 -2.11244e-02  2.99084e+00 
-1.02683e+00 -2.40746e-02  2.97163e+00 
-1.16443e+00 -2.69202e-02  2.94971e+00 
-1.30231e+00 -2.96106e-02  2.92510e+00 
-1.44046e+00 -3.21667e-02  2.89780e+00 
-1.57893e+00 -3.45394e-02  2.86785e+00 
-1.71771e+00 -3.67507e-02  2.83524e+00 
-1.85687e+00 -3.87529e-02  2.80002e+00 
-1.99638e+00 -4.05697e-02  2.76219e+00 
-2.13630e+00 -4.21551e-02  2.72179e+00 
-2.27661e+00 -4.35351e-02  2.67882e+00 
-2.41736e+00 -4.46656e-02  2.63334e+00 
-2.55851e+00 -4.55753e-02  2.58534e+00 
-2.70012e+00 -4.62225e-02  2.53488e+00 
-2.84216e+00 -4.66390e-02  2.48197e+00 
-2.98466e+00 -4.67861e-02  2.42665e+00 
-3.12758e+00 -4.66990e-02  2.36894e+00 
-3.27095e+00 -4.63425e-02  2.30889e+00 
-3.41473e+00 -4.57554e-02  2.24650e+00 
-3.55895e+00 -4.49067e-02  2.18184e+00 
-3.70355e+00 -4.38392e-02  2.11491e+00 
-3.84855e+00 -4.25261e-02  2.04577e+00 
-3.99388e+00 -4.10148e-02  1.97441e+00 
-4.13956e+00 -3.92828e-02  1.90091e+00 
-4.28552e+00 -3.73821e-02  1.82524e+00 
-4.43175e+00 -3.52947e-02  1.74748e+00 
-4.57818e+00 -3.30774e-02  1.66762e+00 
-4.72481e+00 -3.07164e-02  1.58570e+00 
-4.87154e+00 -2.82728e-02  1.50172e+00 
-5.01837e+00 -2.57371e-02  1.41573e+00 
-5.16521e+00 -2.31741e-02  1.32770e+00 
-5.31203e+00 -2.05779e-02  1.23768e+00 
-5.45874e+00 -1.80164e-02  1.14564e+00 
-5.60532e+00 -1.54865e-02  1.05161e+00 
-5.75166e+00 -1.30580e-02  9.55563e-01 
-5.89774e+00 -1.07296e-02  8.57521e-01 
-6.04345e+00 -8.57187e-03  7.57430e-01 
-6.18878e+00 -6.58386e-03  6.55318e-01 
-6.33361e+00 -4.83544e-03  5.51114e-01 
-6.47793e+00 -3.32447e-03  4.44838e-01 
-6.62162e+00 -2.11844e-03  3.36405e-01 
-6.76469e+00 -1.21229e-03  2.25828e-01 
-6.90702e+00 -6.67543e-04  1.12999e-01 
-7.03809e+00  2.28282e-02  6.66578e-02 
 6.56374e+00 -2.11249e-02  6.56184e-02 
 6.44116e+00  8.94036e-04  1.11242e-01 
 6.30775e+00  1.62335e-03  2.22346e-01 
 6.17338e+00  2.82063e-03  3.31337e-01 
 6.03819e+00  4.41454e-03  4.38333e-01 
 5.90221e+00  6.39421e-03  5.43331e-01 
 5.76557e+00  8.68081e-03  6.46422e-01 
 5.62833e+00  1.12607e-02  7.47589e-01 
 5.49062e+00  1.40531e-02  8.46906e-01 
 5.35248e+00  1.70440e-02  9.44343e-01 
 5.21404e+00  2.01526e-02  1.03996e+00 
 5.07536e+00  2.33667e-02  1.13371e+00 
 4.93655e+00  2.66077e-02  1.22564e+00 
 4.79766e+00  2.98668e-02  1.31571e+00 
 4.65881e+00  3.30693e-02  1.40393e+00 
 4.52004e+00  3.62108e-02  1.49024e+00 
 4.38145e+00  3.92219e-02  1.57468e+00 
 4.24306e+00  4.21037e-02  1.65716e+00 
 4.10498e+00  4.47925e-02  1.73771e+00 
 3.96722e+00  4.72956e-02  1.81624e+00 
 3.82987e+00  4.95555e-02  1.89276e+00 
 3.69293e+00  5.15858e-02  1.96720e+00 
 3.55648e+00  5.33352e-02  2.03955e+00 
 3.42051e+00  5.48233e-02  2.10973e+00 
 3.28509e+00  5.60051e-02  2.17775e+00 
 3.15020e+00  5.69058e-02  2.24353e+00 
 3.01590e+00  5.74859e-02  2.30705e+00 
 2.88216e+00  5.77760e-02  2.36825e+00 
 2.74902e+00  5.77417e-02  2.42711e+00 
 2.61645e+00  5.74181e-02  2.48357e+00 
 2.48447e+00  5.67751e-02  2.53762e+00 
 2.35306e+00  5.58517e-02  2.58919e+00 
 2.22224e+00  5.46217e-02  2.63827e+00 
 2.09195e+00  5.31272e-02  2.68480e+00 
 1.96223e+00  5.13452e-02  2.72878e+00 
 1.83300e+00  4.93204e-02  2.77015e+00 
 1.70429e+00  4.70321e-02  2.80891e+00 
 1.57603e+00  4.45272e-02  2.84500e+00 
 1.44823e+00  4.17870e-02  2.87842e+00 
 1.32084e+00  3.88597e-02  2.90912e+00 
 1.19385e+00  3.57283e-02  2.93711e+00 
 1.06720e+00  3.24421e-02  2.96236e+00 
 9.40883e-01  2.89853e-02  2.98484e+00 
 8.14837e-01  2.54079e-02  3.00455e+00 
 6.89058e-01  2.16948e-02  3.02146e+00 
 5.63474e-01  1.78967e-02  3.03558e+00 
 4.38083e-01  1.39990e-02  3.04688e+00 
 3.12812e-01  1.00528e-02  3.05537e+00 
 1.87656e-01  6.04381e-03  3.06103e+00 
 6.25418e-02  2.02318e-03  3.06386e+00 
-6.25418e-02 -2.02318e-03  3.06386e+00 
-1.87656e-01 -6.04381e-03  3.06103e+00 
-3.12812e-01 -1.00528e-02  3.05537e+00 
-4.38083e-01 -1.39990e-02  3.04688e+00 
-5.63474e-01 -1.78967e-02  3.03558e+00 
-6.89058e-01 -2.16948e-02  3.02146e+00 
-8.14837e-01 -2.54079e-02  3.00455e+00 
-9.40883e-01 -2.89853e-02  2.98484e+00 
-1.06720e+00 -3.24421e-02  2.96236e+00 
-1.19385e+00 -3.57283e-02  2.93711e+00 
-1.32084e+00 -3.88597e-02  2.90912e+00 
-1.44823e+00 -4.17870e-02  2.87842e+00 
-1.57603e+00 -4.45272e-02  2.84500e+00 
-1.70429e+00 -4.70321e-02  2.80891e+00 
-1.83300e+00 -4.93204e-02  2.77015e+00 
-1.96223e+00 -5.13452e-02  2.72878e+00 
-2.09195e+00 -5.31272e-02  2.68480e+00 
-2.22224e+00 -5.46217e-02  2.63827e+00 
-2.35306e+00 -5.58517e-02  2.58919e+00 
-2.48447e+00 -5.67751e-02  2.53762e+00 
-2.61645e+00 -5.74181e-02  2.48357e+00 
-2.74902e+00 -5.77417e-02  2.42711e+00 
-2.88216e+00 -5.77760e-02  2.36825e+00 
-3.01590e+00 -5.74859e-02  2.30705e+00 
-3.15020e+00 -5.69058e-02  2.24353e+00 
-3.28509e+00 -5.60051e-02  2.17775e+00 
-3.42051e+00 -5.48233e-02  2.10973e+00 
-3.55648e+00 -5.33352e-02  2.03955e+00 
-3.69293e+00 -5.15858e-02  1.96720e+00 
-3.82987e+00 -4.95555e-02  1.89276e+00 
-3.96722e+00 -4.72956e-02  1.81624e+00 
-4.10498e+00 -4.47925e-02  1.73771e+00 
-4.24306e+00 -4.21037e-02  1.65716e+00 
-4.38145e+00 -3.92219e-02  1.57468e+00 
-4.52004e+00 -3.62108e-02  1.49024e+00 
-4.65881e+00 -3.30693e-02  1.40393e+00 
-4.79766e+00 -2.98668e-02  1.31571e+00 
-4.93655e+00 -2.66077e-02  1.22564e+00 
-5.07536e+00 -2.33667e-02  1.13371e+00 
-5.21404e+00 -2.01526e-02  1.03996e+00 
-5.35248e+00 -1.70440e-02  9.44343e-01 
-5.49062e+00 -1.40531e-02  8.46906e-01 
-5.62833e+00 -1.12607e-02  7.47589e-01 
-5.76557e+00 -8.68081e-03  6.46422e-01 
-5.90221e+00 -6.39421e-03  5.43331e-01 
-6.03819e+00 -4.41454e-03  4.38333e-01 
-6.17338e+00 -2.82063e-03  3.31337e-01 
-6.30775e+00 -1.62335e-03  2.22346e-01 
-6.44116e+00 -8.94036e-04  1.11242e-01 
-6.56374e+00  2.11249e-02  6.56184e-02 
 6.09862e+00 -1.94805e-02  6.42639e-02 
 5.98394e+00  1.17593e-03  1.08945e-01 
 5.85874e+00  2.13582e-03  2.17789e-01 
 5.73232e+00  3.69638e-03  3.24721e-01 
 5.60484e+00  5.77132e-03  4.29877e-01 
 5.47637e+00  8.32853e-03  5.33261e-01 
 5.34709e+00  1.12723e-02  6.34970e-01 
 5.21709e+00  1.45682e-02  7.34989e-01 
 5.08652e+00  1.81196e-02  8.33393e-01 
 4.95549e+00  2.18935e-02  9.30147e-01 
 4.82415e+00  2.57951e-02  1.02530e+00 
 4.69258e+00  2.97956e-02  1.11881e+00 
 4.56093e+00  3.38051e-02  1.21071e+00 
 4.42928e+00  3.78007e-02  1.30094e+00 
 4.29776e+00  4.16994e-02  1.38950e+00 
 4.16644e+00  4.54859e-02  1.47633e+00 
 4.03543e+00  4.90854e-02  1.56143e+00 
 3.90479e+00  5.24912e-02  1.64472e+00 
 3.77462e+00  5.56370e-02  1.72619e+00 
 3.64495e+00  5.85250e-02  1.80576e+00 
 3.51587e+00  6.10980e-02  1.88341e+00 
 3.38739e+00  6.33665e-02  1.95906e+00 
 3.25960e+00  6.52820e-02  2.03268e+00 
 3.13250e+00  6.68630e-02  2.10418e+00 
 3.00614e+00  6.80687e-02  2.17355e+00 
 2.88050e+00  6.89249e-02  2.24070e+00 
 2.75565e+00  6.93977e-02  2.30561e+00 
 2.63154e+00  6.95188e-02  2.36819e+00 
 2.50822e+00  6.92603e-02  2.42843e+00 
 2.38565e+00  6.86590e-02  2.48624e+00 
 2.26385e+00  6.76916e-02  2.54161e+00 
 2.14277e+00  6.63990e-02  2.59447e+00 
 2.02244e+00  6.47617e-02  2.64480e+00 
 1.90280e+00  6.28234e-02  2.69253e+00 
 1.78385e+00  6.05678e-02  2.73766e+00 
 1.66553e+00  5.80406e-02  2.78012e+00 
 1.54785e+00  5.52275e-02  2.81990e+00 
 1.43073e+00  5.21759e-02  2.85695e+00 
 1.31419e+00  4.88727e-02  2.89127e+00 
 1.19814e+00  4.53663e-02  2.92280e+00 
 1.08258e+00  4.16449e-02  2.95155e+00 
 9.67434e-01  3.77570e-02  2.97748e+00 
 8.52694e-01  3.36914e-02  3.00057e+00 
 7.38286e-01  2.94972e-02  3.02081e+00 
 6.24196e-01  2.51634e-02  3.03819e+00 
 5.10346e-01  2.07389e-02  3.05269e+00 
 3.96724e-01  1.62133e-02  3.06430e+00 
 2.83250e-01  1.16353e-02  3.07302e+00 
 1.69910e-01  6.99447e-03  3.07883e+00 
 5.66256e-02  2.33971e-03  3.08174e+00 
-5.66256e-02 -2.33971e-03  3.08174e+00 
-1.69910e-01 -6.99447e-03  3.07883e+00 
-2.83250e-01 -1.16353e-02  3.07302e+00 
-3.96724e-01 -1.62133e-02  3.06430e+00 
-5.10346e-01 -2.07389e-02  3.05269e+00 
-6.24196e-01 -2.51634e-02  3.03819e+00 
-7.38286e-01 -2.94972e-02  3.02081e+00 
-8.52694e-01 -3.36914e-02  3.00057e+00 
-9.67434e-01 -3.77570e-02  2.97748e+00 
-1.08258e+00 -4.16449e-02  2.95155e+00 
-1.19814e+00 -4.53664e-02  2.92280e+00 
-1.31419e+00 -4.88727e-02  2.89127e+00 
-1.43073e+00 -5.21759e-02  2.85695e+00 
-1.54785e+00 -5.52275e-02  2.81990e+00 
-1.66553e+00 -5.80406e-02  2.78012e+00 
-1.78385e+00 -6.05678e-02  2.73766e+00 
-1.90280e+00 -6.28234e-02  2.69253e+00 
-2.02244e+00 -6.47617e-02  2.64480e+00 
-2.14277e+00 -6.63990e-02  2.59447e+00 
-2.26385e+00 -6.76916e-02  2.54161e+00 
-2.38565e+00 -6.86590e-02  2.48624e+00 
-2.50822e+00 -6.92603e-02  2.42843e+00 
-2.63154e+00 -6.95188e-02  2.36819e+00 
-2.75565e+00 -6.93977e-02  2.30561e+00 
-2.88050e+00 -6.89249e-02  2.24070e+00 
-3.00614e+00 -6.80687e-02  2.17355e+00 
-3.13250e+00 -6.68630e-02  2.10418e+00 
-3.25960e+00 -6.52820e-02  2.03268e+00 
-3.38739e+00 -6.33665e-02  1.95906e+00 
-3.51587e+00 -6.10980e-02  1.88341e+00 
-3.64495e+00 -5.85250e-02  1.80576e+00 
-3.77462e+00 -5.56370e-02  1.72619e+00 
-3.90479e+00 -5.24912e-02  1.64472e+00 
-4.03543e+00 -4.90854e-02  1.56143e+00 
-4.16644e+00 -4.54859e-02  1.47633e+00 
-4.29776e+00 -4.16994e-02  1.38950e+00 
-4.42928e+00 -3.78007e-02  1.30094e+00 
-4.56093e+00 -3.38051e-02  1.21071e+00 
-4.69258e+00 -2.97956e-02  1.11881e+00 
-4.82415e+00 -2.57951e-02  1.02530e+00 
-4.95549e+00 -2.18935e-02  9.30147e-01 
-5.08652e+00 -1.81196e-02  8.33393e-01 
-5.21709e+00 -1.45682e-02  7.34989e-01 
-5.34709e+00 -1.12723e-02  6.34970e-01 
-5.47637e+00 -8.32853e-03  5.33261e-01 
-5.60484e+00 -5.77132e-03  4.29877e-01 
-5.73232e+00 -3.69638e-03  3.24721e-01 
-5.85874e+00 -2.13582e-03  2.17789e-01 
-5.98394e+00 -1.17593e-03  1.08945e-01 
-6.09862e+00  1.94805e-02  6.42639e-02 
 5.64573e+00 -1.79325e-02  6.25123e-02 
 5.53806e+00  1.53025e-03  1.05967e-01 
 5.42004e+00  2.77594e-03  2.11881e-01 
 5.30046e+00  4.78489e-03  3.16183e-01 
 5.17953e+00  7.44732e-03  4.19022e-01 
 5.05741e+00  1.07019e-02  5.20413e-01 
 4.93431e+00  1.44281e-02  6.20452e-01 
 4.81038e+00  1.85643e-02  7.19127e-01 
 4.68583e+00  2.29916e-02  8.16502e-01 
 4.56080e+00  2.76529e-02  9.12538e-01 
 4.43549e+00  3.24350e-02  1.00727e+00 
 4.31003e+00  3.72889e-02  1.10064e+00 
 4.18460e+00  4.21105e-02  1.19266e+00 
 4.05931e+00  4.68617e-02  1.28325e+00 
 3.93433e+00  5.14499e-02  1.37240e+00 
 3.80974e+00  5.58492e-02  1.46002e+00 
 3.68568e+00  5.99798e-02  1.54609e+00 
 3.56222e+00  6.38287e-02  1.63050e+00 
 3.43948e+00  6.73292e-02  1.71324e+00 
 3.31749e+00  7.04806e-02  1.79417e+00 
 3.19636e+00  7.32288e-02  1.87328e+00 
 3.07610e+00  7.55848e-02  1.95046e+00 
 2.95678e+00  7.75057e-02  2.02566e+00 
 2.83841e+00  7.90126e-02  2.09878e+00 
 2.72104e+00  8.00723e-02  2.16978e+00 
 2.60465e+00  8.07144e-02  2.23857e+00 
 2.48927e+00  8.09137e-02  2.30510e+00 
 2.37488e+00  8.07064e-02  2.36928e+00 
 2.26150e+00  8.00736e-02  2.43109e+00 
 2.14908e+00  7.90562e-02  2.49043e+00 
 2.03764e+00  7.76401e-02  2.54727e+00 
 1.92711e+00  7.58696e-02  2.60155e+00 
 1.81749e+00  7.37337e-02  2.65324e+00 
 1.70873e+00  7.12787e-02  2.70226e+00 
 1.60082e+00  6.84958e-02  2.74861e+00 
 1.49369e+00  6.54322e-02  2.79222e+00 
 1.38732e+00  6.20802e-02  2.83307e+00 
 1.28164e+00  5.84875e-02  2.87112e+00 
 1.17664e+00  5.46465e-02  2.90636e+00 
 1.07224e+00  5.06048e-02  2.93873e+00 
 9.68407e-01  4.63550e-02  2.96825e+00 
 8.65076e-01  4.19438e-02  2.99486e+00 
 7.62218e-01  3.73636e-02  3.01856e+00 
 6.59754e-01  3.26606e-02  3.03933e+00 
 5.57657e-01  2.78267e-02  3.05716e+00 
 4.55848e-01  2.29073e-02  3.07204e+00 
 3.54299e-01  1.78939e-02  3.08395e+00 
 2.52928e-01  1.28315e-02  3.09289e+00 
 1.51708e-01  7.71137e-03  3.09886e+00 
 5.05574e-02  2.57795e-03  3.10184e+00 
-5.05574e-02 -2.57795e-03  3.10184e+00 
-1.51708e-01 -7.71137e-03  3.09886e+00 
-2.52928e-01 -1.28315e-02  3.09289e+00 
-3.54299e-01 -1.78939e-02  3.08395e+00 
-4.55848e-01 -2.29073e-02  3.07204e+00 
-5.57657e-01 -2.78267e-02  3.05716e+00 
-6.59754e-01 -3.26606e-02  3.03933e+00 
-7.62218e-01 -3.73636e-02  3.01856e+00 
-8.65076e-01 -4.19438e-02  2.99486e+00 
-9.68407e-01 -4.63550e-02  2.96825e+00 
-1.07224e+00 -5.06048e-02  2.93873e+00 
-1.17664e+00 -5.46465e-02  2.90636e+00 
-1.28164e+00 -5.84875e-02  2.87112e+00 
-1.38732e+00 -6.20802e-02  2.83307e+00 
-1.49369e+00 -6.54322e-02  2.79222e+00 
-1.60082e+00 -6.84958e-02  2.74861e+00 
-1.70873e+00 -7.12787e-02  2.70226e+00 
-1.81749e+00 -7.37337e-02  2.65324e+00 
-1.92711e+00 -7.58696e-02  2.60155e+00 
-2.03764e+00 -7.76401e-02  2.54727e+00 
-2.14908e+00 -7.90562e-02  2.49043e+00 
-2.26150e+00 -8.00736e-02  2.43109e+00 
-2.37488e+00 -8.07064e-02  2.36928e+00 
-2.48927e+00 -8.09137e-02  2.30510e+00 
-2.60465e+00 -8.07144e-02  2.23857e+00 
-2.72104e+00 -8.00723e-02  2.16978e+00 
-2.83841e+00 -7.90126e-02  2.09878e+00 
-2.95678e+00 -7.75057e-02  2.02566e+00 
-3.07610e+00 -7.55848e-02  1.95046e+00 
-3.19636e+00 -7.32288e-02  1.87328e+00 
-3.31749e+00 -7.04806e-02  1.79417e+00 
-3.43948e+00 -6.73292e-02  1.71324e+00 
-3.56222e+00 -6.38287e-02  1.63050e+00 
-3.68568e+00 -5.99798e-02  1.54609e+00 
-3.80974e+00 -5.58492e-02  1.46002e+00 
-3.93433e+00 -5.14499e-02  1.37240e+00 
-4.05931e+00 -4.68617e-02  1.28325e+00 
-4.18460e+00 -4.21105e-02  1.19266e+00 
-4.31003e+00 -3.72889e-02  1.10064e+00 
-4.43549e+00 -3.24350e-02  1.00727e+00 
-4.56080e+00 -2.76529e-02  9.12538e-01 
-4.68583e+00 -2.29916e-02  8.16502e-01 
-4.81038e+00 -1.85643e-02  7.19127e-01 
-4.93431e+00 -1.44281e-02  6.20452e-01 
-5.05741e+00 -1.07019e-02  5.20413e-01 
-5.17953e+00 -7.44732e-03  4.19022e-01 
-5.30046e+00 -4.78489e-03  3.16183e-01 
-5.42004e+00 -2.77594e-03  2.11881e-01 
-5.53806e+00 -1.53025e-03  1.05967e-01 
-5.64573e+00  1.79325e-02  6.25123e-02 
 5.20887e+00 -1.65466e-02  6.02734e-02 
 5.10687e+00  1.97601e-03  1.02152e-01 
 4.99447e+00  3.57349e-03  2.04320e-01 
 4.88012e+00  6.12519e-03  3.05316e-01 
 4.76412e+00  9.48690e-03  4.05304e-01 
 4.64670e+00  1.35570e-02  5.04301e-01 
 4.52816e+00  1.81797e-02  6.02401e-01 
 4.40871e+00  2.32573e-02  6.99579e-01 
 4.28864e+00  2.86402e-02  7.95888e-01 
 4.16816e+00  3.42411e-02  8.91265e-01 
 4.04751e+00  3.99228e-02  9.85726e-01 
 3.92689e+00  4.56132e-02  1.07918e+00 
 3.80652e+00  5.11919e-02  1.17161e+00 
 3.68655e+00  5.66047e-02  1.26290e+00 
 3.56718e+00  6.17503e-02  1.35301e+00 
 3.44851e+00  6.65942e-02  1.44182e+00 
 3.33072e+00  7.10548e-02  1.52927e+00 
 3.21387e+00  7.51166e-02  1.61523e+00 
 3.09809e+00  7.87169e-02  1.69963e+00 
 2.98343e+00  8.18580e-02  1.78233e+00 
 2.86998e+00  8.44941e-02  1.86328e+00 
 2.75776e+00  8.66423e-02  1.94234e+00 
 2.64683e+00  8.82714e-02  2.01945e+00 
 2.53717e+00  8.94105e-02  2.09447e+00 
 2.42884e+00  9.00396e-02  2.16736e+00 
 2.32180e+00  9.01970e-02  2.23800e+00 
 2.21607e+00  8.98710e-02  2.30634e+00 
 2.11159e+00  8.91060e-02  2.37227e+00 
 2.00838e+00  8.78959e-02  2.43576e+00 
 1.90638e+00  8.62888e-02  2.49671e+00 
 1.80557e+00  8.42819e-02  2.55508e+00 
 1.70588e+00  8.19248e-02  2.61080e+00 
 1.60730e+00  7.92165e-02  2.66384e+00 
 1.50975e+00  7.62064e-02  2.71414e+00 
 1.41320e+00  7.28936e-02  2.76166e+00 
 1.31758e+00  6.93267e-02  2.80636e+00 
 1.22285e+00  6.55040e-02  2.84822e+00 
 1.12893e+00  6.14722e-02  2.88719e+00 
 1.03579e+00  5.72283e-02  2.92326e+00 
 9.43347e-01  5.28172e-02  2.95640e+00 
 8.51559e-01  4.82341e-02  2.98658e+00 
 7.60343e-01  4.35217e-02  3.01380e+00 
 6.69664e-01  3.86737e-02  3.03803e+00 
 5.79434e-01  3.37308e-02  3.05925e+00 
 4.89618e-01  2.86851e-02  3.07747e+00 
 4.00129e-01  2.35758e-02  3.09266e+00 
 3.10929e-01  1.83936e-02  3.10483e+00 
 2.21934e-01  1.31765e-02  3.11395e+00 
 1.33104e-01  7.91438e-03  3.12004e+00 
 4.43553e-02  2.64435e-03  3.12309e+00 
-4.43553e-02 -2.64435e-03  3.12309e+00 
-1.33104e-01 -7.91438e-03  3.12004e+00 
-2.21934e-01 -1.31765e-02  3.11395e+00 
-3.10929e-01 -1.83936e-02  3.10483e+00 
-4.00129e-01 -2.35758e-02  3.09266e+00 
-4.89618e-01 -2.86851e-02  3.07747e+00 
-5.79434e-01 -3.37308e-02  3.05925e+00 
-6.69664e-01 -3.86737e-02  3.03803e+00 
-7.60343e-01 -4.35217e-02  3.01380e+00 
-8.51559e-01 -4.82341e-02  2.98658e+00 
-9.43347e-01 -5.28172e-02  2.95640e+00 
-1.03579e+00 -5.72283e-02  2.92326e+00 
-1.12893e+00 -6.14722e-02  2.88719e+00 
-1.22285e+00 -6.55040e-02  2.84822e+00 
-1.31758e+00 -6.93267e-02  2.80636e+00 
-1.41320e+00 -7.28936e-02  2.76166e+00 
-1.50975e+00 -7.62064e-02  2.71414e+00 
-1.60730e+00 -7.92165e-02  2.66384e+00 
-1.70588e+00 -8.19248e-02  2.61080e+00 
-1.80557e+00 -8.42819e-02  2.55508e+00 
-1.90638e+00 -8.62888e-02  2.49671e+00 
-2.00838e+00 -8.78959e-02  2.43576e+00 
-2.11159e+00 -8.91060e-02  2.37227e+00 
-2.21607e+00 -8.98710e-02  2.30634e+00 
-2.32180e+00 -9.01970e-02  2.23800e+00 
-2.42884e+00 -9.00396e-02  2.16736e+00 
-2.53717e+00 -8.94105e-02  2.09447e+00 
-2.64683e+00 -8.82714e-02  2.01945e+00 
-2.75776e+00 -8.66423e-02  1.94234e+00 
-2.86998e+00 -8.44941e-02  1.86328e+00 
-2.98343e+00 -8.18580e-02  1.78233e+00 
-3.09809e+00 -7.87169e-02  1.69963e+00 
-3.21387e+00 -7.51166e-02  1.61523e+00 
-3.33072e+00 -7.10548e-02  1.52927e+00 
-3.44851e+00 -6.65942e-02  1.44182e+00 
-3.56718e+00 -6.17503e-02  1.35301e+00 
-3.68655e+00 -5.66047e-02  1.26290e+00 
-3.80652e+00 -5.11919e-02  1.17161e+00 
-3.92689e+00 -4.56132e-02  1.07918e+00 
-4.04751e+00 -3.99228e-02  9.85726e-01 
-4.16816e+00 -3.42411e-02  8.91265e-01 
-4.28864e+00 -2.86402e-02  7.95888e-01 
-4.40871e+00 -2.32573e-02  6.99579e-01 
-4.52816e+00 -1.81797e-02  6.02401e-01 
-4.64670e+00 -1.35570e-02  5.04301e-01 
-4.76412e+00 -9.48690e-03  4.05304e-01 
-4.88012e+00 -6.12519e-03  3.05316e-01 
-4.99447e+00 -3.57349e-03  2.04320e-01 
-5.10687e+00 -1.97601e-03  1.02152e-01 
-5.20887e+00  1.65466e-02  6.02734e-02 
 4.79272e+00 -1.54431e-02  5.74742e-02 
 4.69435e+00  2.51114e-03  9.73639e-02 
 4.58528e+00  4.52459e-03  1.94826e-01 
 4.47383e+00  7.70767e-03  2.91762e-01 
 4.36041e+00  1.18656e-02  3.88343e-01 
 4.24538e+00  1.68410e-02  4.84582e-01 
 4.12915e+00  2.24267e-02  5.80554e-01 
 4.01203e+00  2.84766e-02  6.76212e-01 
 3.89442e+00  3.48003e-02  7.71573e-01 
 3.77660e+00  4.12727e-02  8.66536e-01 
 3.65890e+00  4.77272e-02  9.61070e-01 
 3.54158e+00  5.40666e-02  1.05503e+00 
 3.42490e+00  6.01533e-02  1.14836e+00 
 3.30907e+00  6.59206e-02  1.24089e+00 
 3.19430e+00  7.12622e-02  1.33252e+00 
 3.08074e+00  7.61417e-02  1.42307e+00 
 2.96855e+00  8.04827e-02  1.51246e+00 
 2.85782e+00  8.42767e-02  1.60048e+00 
 2.74867e+00  8.74742e-02  1.68703e+00 
 2.64113e+00  9.00902e-02  1.77195e+00 
 2.53528e+00  9.20974e-02  1.85513e+00 
 2.43112e+00  9.35288e-02  1.93640e+00 
 2.32868e+00  9.43738e-02  2.01568e+00 
 2.22794e+00  9.46784e-02  2.09282e+00 
 2.12890e+00  9.44434e-02  2.16775e+00 
 2.03151e+00  9.37225e-02  2.24033e+00 
 1.93576e+00  9.25233e-02  2.31051e+00 
 1.84158e+00  9.09031e-02  2.37818e+00 
 1.74893e+00  8.88726e-02  2.44328e+00 
 1.65774e+00  8.64894e-02  2.50573e+00 
 1.56798e+00  8.37644e-02  2.56549e+00 
 1.47954e+00  8.07531e-02  2.62248e+00 
 1.39239e+00  7.74649e-02  2.67668e+00 
 1.30644e+00  7.39516e-02  2.72802e+00 
 1.22164e+00  7.02196e-02  2.77649e+00 
 1.13789e+00  6.63166e-02  2.82203e+00 
 1.05515e+00  6.22452e-02  2.86465e+00 
 9.73328e-01  5.80485e-02  2.90428e+00 
 8.92366e-01  5.37253e-02  2.94094e+00 
 8.12174e-01  4.93142e-02  2.97459e+00 
 7.32705e-01  4.48101e-02  3.00522e+00 
 6.53866e-01  4.02477e-02  3.03282e+00 
 5.75610e-01  3.56185e-02  3.05738e+00 
 4.97847e-01  3.09535e-02  3.07888e+00 
 4.20528e-01  2.62415e-02  3.09732e+00 
 3.43566e-01  2.15106e-02  3.11270e+00 
 2.66913e-01  1.67473e-02  3.12500e+00 
 1.90483e-01  1.19778e-02  3.13424e+00 
 1.14228e-01  7.18701e-03  3.14039e+00 
 3.80629e-02  2.39985e-03  3.14347e+00 
-3.80629e-02 -2.39985e-03  3.14347e+00 
-1.14228e-01 -7.18701e-03  3.14039e+00 
-1.90483e-01 -1.19778e-02  3.13424e+00 
-2.66913e-01 -1.67473e-02  3.12500e+00 
-3.43566e-01 -2.15106e-02  3.11270e+00 
-4.20528e-01 -2.62415e-02  3.09732e+00 
-4.97847e-01 -3.09535e-02  3.07888e+00 
-5.75610e-01 -3.56185e-02  3.05738e+00 
-6.53866e-01 -4.02477e-02  3.03282e+00 
-7.32705e-01 -4.48101e-02  3.00522e+00 
-8.12174e-01 -4.93142e-02  2.97459e+00 
-8.92366e-01 -5.37253e-02  2.94094e+00 
-9.73328e-01 -5.80485e-02  2.90428e+00 
-1.05515e+00 -6.22452e-02  2.86465e+00 
-1.13789e+00 -6.63166e-02  2.82203e+00 
-1.22164e+00 -7.02196e-02  2.77649e+00 
-1.30644e+00 -7.39516e-02  2.72802e+00 
-1.39239e+00 -7.74649e-02  2.67668e+00 
-1.47954e+00 -8.07531e-02  2.62248e+00 
-1.56798e+00 -8.37644e-02  2.56549e+00 
-1.65774e+00 -8.64894e-02  2.50573e+00 
-1.74893e+00 -8.88726e-02  2.44328e+00 
-1.84158e+00 -9.09031e-02  2.37818e+00 
-1.93576e+00 -9.25233e-02  2.31051e+00 
-2.03151e+00 -9.37225e-02  2.24033e+00 
-2.12890e+00 -9.44434e-02  2.16775e+00 
-2.22794e+00 -9.46784e-02  2.09282e+00 
-2.32868e+00 -9.43738e-02  2.01568e+00 
-2.43112e+00 -9.35288e-02  1.93640e+00 
-2.53528e+00 -9.20974e-02  1.85513e+00 
-2.64113e+00 -9.00902e-02  1.77195e+00 
-2.74867e+00 -8.74742e-02  1.68703e+00 
-2.85782e+00 -8.42767e-02  1.60048e+00 
-2.96855e+00 -8.04827e-02  1.51246e+00 
-3.08074e+00 -7.61417e-02  1.42307e+00 
-3.19430e+00 -7.12622e-02  1.33252e+00 
-3.30907e+00 -6.59206e-02  1.24089e+00 
-3.42490e+00 -6.01533e-02  1.14836e+00 
-3.54158e+00 -5.40666e-02  1.05503e+00 
-3.65890e+00 -4.77272e-02  9.61070e-01 
-3.77660e+00 -4.12727e-02  8.66536e-01 
-3.89442e+00 -3.48003e-02  7.71573e-01 
-4.01203e+00 -2.84766e-02  6.76212e-01 
-4.12915e+00 -2.24267e-02  5.80554e-01 
-4.24538e+00 -1.68410e-02  4.84582e-01 
-4.36041e+00 -1.18656e-02  3.88343e-01 
-4.47383e+00 -7.70767e-03  2.91762e-01 
-4.58528e+00 -4.52459e-03  1.94826e-01 
-4.69435e+00 -2.51114e-03  9.73639e-02 
-4.79272e+00  1.54431e-02  5.74742e-02 
 4.40305e+00 -1.47948e-02  5.40448e-02 
 4.30527e+00  3.14571e-03  9.14647e-02 
 4.19614e+00  5.63188e-03  1.83134e-01 
 4.08416e+00  9.51619e-03  2.75227e-01 
 3.96997e+00  1.45257e-02  3.67911e-01 
 3.85409e+00  2.04200e-02  4.61175e-01 
 3.73708e+00  2.69213e-02  5.55049e-01 
 3.61942e+00  3.38190e-02  6.49430e-01 
 3.50163e+00  4.08674e-02  7.44269e-01 
 3.38411e+00  4.78973e-02  8.39389e-01 
 3.26728e+00  5.47089e-02  9.34679e-01 
 3.15146e+00  6.11824e-02  1.02991e+00 
 3.03699e+00  6.71687e-02  1.12494e+00 
 2.92410e+00  7.25982e-02  1.21950e+00 
 2.81302e+00  7.73717e-02  1.31344e+00 
 2.70390e+00  8.14662e-02  1.40648e+00 
 2.59690e+00  8.48271e-02  1.49847e+00 
 2.49208e+00  8.74703e-02  1.58914e+00 
 2.38952e+00  8.93774e-02  1.67836e+00 
 2.28923e+00  9.05933e-02  1.76588e+00 
 2.19124e+00  9.11254e-02  1.85158e+00 
 2.09550e+00  9.10376e-02  1.93525e+00 
 2.00201e+00  9.03533e-02  2.01679e+00 
 1.91069e+00  8.91463e-02  2.09604e+00 
 1.82150e+00  8.74477e-02  2.17290e+00 
 1.73434e+00  8.53339e-02  2.24724e+00 
 1.64916e+00  8.28376e-02  2.31900e+00 
 1.56585e+00  8.00325e-02  2.38807e+00 
 1.48434e+00  7.69485e-02  2.45441e+00 
 1.40453e+00  7.36532e-02  2.51793e+00 
 1.32634e+00  7.01712e-02  2.57861e+00 
 1.24966e+00  6.65620e-02  2.63637e+00 
 1.17441e+00  6.28432e-02  2.69122e+00 
 1.10049e+00  5.90658e-02  2.74308e+00 
 1.02783e+00  5.52397e-02  2.79197e+00 
 9.56319e-01  5.14073e-02  2.83784e+00 
 8.85887e-01  4.75711e-02  2.88069e+00 
 8.16433e-01  4.37653e-02  2.92049e+00 
 7.47893e-01  3.99857e-02  2.95726e+00 
 6.80167e-01  3.62591e-02  2.99097e+00 
 6.13197e-01  3.25751e-02  3.02163e+00 
 5.46886e-01  2.89543e-02  3.04921e+00 
 4.81177e-01  2.53812e-02  3.07374e+00 
 4.15979e-01  2.18712e-02  3.09520e+00 
 3.51237e-01  1.84047e-02  3.11360e+00 
 2.86862e-01  1.49931e-02  3.12893e+00 
 2.22803e-01  1.16136e-02  3.14119e+00 
 1.58973e-01  8.27490e-03  3.15039e+00 
 9.53204e-02  4.95187e-03  3.15652e+00 
 3.17604e-02  1.65182e-03  3.15958e+00 
-3.17604e-02 -1.65182e-03  3.15958e+00 
-9.53204e-02 -4.95187e-03  3.15652e+00 
-1.58973e-01 -8.27490e-03  3.15039e+00 
-2.22803e-01 -1.16136e-02  3.14119e+00 
-2.86862e-01 -1.49931e-02  3.12893e+00 
-3.51237e-01 -1.84047e-02  3.11360e+00 
-4.15979e-01 -2.18712e-02  3.09520e+00 
-4.81177e-01 -2.53812e-02  3.07374e+00 
-5.46886e-01 -2.89543e-02  3.04921e+00 
-6.13197e-01 -3.25751e-02  3.02163e+00 
-6.80167e-01 -3.62591e-02  2.99097e+00 
-7.47893e-01 -3.99857e-02  2.95726e+00 
-8.16433e-01 -4.37653e-02  2.92049e+00 
-8.85887e-01 -4.75711e-02  2.88069e+00 
-9.56319e-01 -5.14073e-02  2.83784e+00 
-1.02783e+00 -5.52397e-02  2.79197e+00 
-1.10049e+00 -5.90658e-02  2.74308e+00 
-1.17441e+00 -6.28432e-02  2.69122e+00 
-1.24966e+00 -6.65620e-02  2.63637e+00 
-1.32634e+00 -7.01712e-02  2.57861e+00 
-1.40453e+00 -7.36532e-02  2.51793e+00 
-1.48434e+00 -7.69485e-02  2.45441e+00 
-1.56585e+00 -8.00325e-02  2.38807e+00 
-1.64916e+00 -8.28376e-02  2.31900e+00 
-1.73434e+00 -8.53339e-02  2.24724e+00 
-1.82150e+00 -8.74477e-02  2.17290e+00 
-1.91069e+00 -8.91463e-02  2.09604e+00 
-2.00201e+00 -9.03533e-02  2.01679e+00 
-2.09550e+00 -9.10376e-02  1.93525e+00 
-2.19124e+00 -9.11254e-02  1.85158e+00 
-2.28923e+00 -9.05933e-02  1.76588e+00 
-2.38952e+00 -8.93774e-02  1.67836e+00 
-2.49208e+00 -8.74703e-02  1.58914e+00 
-2.59690e+00 -8.48271e-02  1.49847e+00 
-2.70390e+00 -8.14662e-02  1.40648e+00 
-2.81302e+00 -7.73717e-02  1.31344e+00 
-2.92410e+00 -7.25982e-02  1.21950e+00 
-3.03699e+00 -6.71687e-02  1.12494e+00 
-3.15146e+00 -6.11824e-02  1.02991e+00 
-3.26728e+00 -5.47089e-02  9.34679e-01 
-3.38411e+00 -4.78973e-02  8.39389e-01 
-3.50163e+00 -4.08674e-02  7.44269e-01 
-3.61942e+00 -3.38190e-02  6.49430e-01 
-3.73708e+00 -2.69213e-02  5.55049e-01 
-3.85409e+00 -2.04200e-02  4.61175e-01 
-3.96997e+00 -1.45257e-02  3.67911e-01 
-4.08416e+00 -9.51619e-03  2.75227e-01 
-4.19614e+00 -5.63188e-03  1.83134e-01 
-4.30527e+00 -3.14571e-03  9.14647e-02 
-4.40305e+00  1.47948e-02  5.40448e-02 
 4.04685e+00 -1.48712e-02  4.99607e-02 
 3.94502e+00  3.86404e-03  8.43998e-02 
 3.83070e+00  6.86708e-03  1.69124e-01 
 3.71320e+00  1.14605e-02  2.55704e-01 
 3.59338e+00  1.72541e-02  3.44258e-01 
 3.47207e+00  2.39054e-02  4.34700e-01 
 3.35009e+00  3.10234e-02  5.26972e-01 
 3.22811e+00  3.83103e-02  6.20852e-01 
 3.10682e+00  4.54533e-02  7.16161e-01 
 2.98677e+00  5.22379e-02  8.12579e-01 
 2.86848e+00  5.84363e-02  9.09851e-01 
 2.75235e+00  6.39195e-02  1.00760e+00 
 2.63874e+00  6.85456e-02  1.10555e+00 
 2.52788e+00  7.22681e-02  1.20330e+00 
 2.41999e+00  7.50248e-02  1.30056e+00 
 2.31516e+00  7.68389e-02  1.39696e+00 
 2.21348e+00  7.77108e-02  1.49226e+00 
 2.11495e+00  7.77137e-02  1.58611e+00 
 2.01957e+00  7.68903e-02  1.67832e+00 
 1.92726e+00  7.53426e-02  1.76860e+00 
 1.83796e+00  7.31359e-02  1.85679e+00 
 1.75155e+00  7.03838e-02  1.94267e+00 
 1.66794e+00  6.71590e-02  2.02613e+00 
 1.58699e+00  6.35735e-02  2.10700e+00 
 1.50857e+00  5.96969e-02  2.18519e+00 
 1.43255e+00  5.56316e-02  2.26059e+00 
 1.35880e+00  5.14376e-02  2.33316e+00 
 1.28717e+00  4.72032e-02  2.40278e+00 
 1.21755e+00  4.29753e-02  2.46946e+00 
 1.14979e+00  3.88263e-02  2.53312e+00 
 1.08379e+00  3.47893e-02  2.59377e+00 
 1.01940e+00  3.09205e-02  2.65135e+00 
 9.56517e-01  2.72392e-02  2.70587e+00 
 8.95025e-01  2.37867e-02  2.75732e+00 
 8.34828e-01  2.05695e-02  2.80570e+00 
 7.75807e-01  1.76156e-02  2.85100e+00 
 7.17881e-01  1.49201e-02  2.89323e+00 
 6.60939e-01  1.24994e-02  2.93239e+00 
 6.04908e-01  1.03391e-02  2.96850e+00 
 5.49685e-01  8.44572e-03  3.00156e+00 
 4.95204e-01  6.79683e-03  3.03158e+00 
 4.41370e-01  5.39123e-03  3.05856e+00 
 3.88122e-01  4.19980e-03  3.08252e+00 
 3.35370e-01  3.21526e-03  3.10346e+00 
 2.83058e-01  2.40334e-03  3.12140e+00 
 2.31101e-01  1.75224e-03  3.13633e+00 
 1.79446e-01  1.22384e-03  3.14827e+00 
 1.28011e-01  8.03301e-04  3.15723e+00 
 7.67457e-02  4.49898e-04  3.16319e+00 
 2.55696e-02  1.47140e-04  3.16617e+00 
-2.55696e-02 -1.47140e-04  3.16617e+00 
-7.67457e-02 -4.49898e-04  3.16319e+00 
-1.28011e-01 -8.03301e-04  3.15723e+00 
-1.79446e-01 -1.22384e-03  3.14827e+00 
-2.31101e-01 -1.75224e-03  3.13633e+00 
-2.83058e-01 -2.40334e-03  3.12140e+00 
-3.35370e-01 -3.21526e-03  3.10346e+00 
-3.88122e-01 -4.19980e-03  3.08252e+00 
-4.41370e-01 -5.39123e-03  3.05856e+00 
-4.95204e-01 -6.79683e-03  3.03158e+00 
-5.49685e-01 -8.44572e-03  3.00156e+00 
-6.04908e-01 -1.03391e-02  2.96850e+00 
-6.60939e-01 -1.24994e-02  2.93239e+00 
-7.17881e-01 -1.49201e-02  2.89323e+00 
-7.75807e-01 -1.76156e-02  2.85100e+00 
-8.34828e-01 -2.05695e-02  2.80570e+00 
-8.95025e-01 -2.37867e-02  2.75732e+00 
-9.56517e-01 -2.72392e-02  2.70587e+00 
-1.01940e+00 -3.09205e-02  2.65135e+00 
-1.08379e+00 -3.47893e-02  2.59377e+00 
-1.14979e+00 -3.88263e-02  2.53312e+00 
-1.21755e+00 -4.29753e-02  2.46946e+00 
-1.28717e+00 -4.72032e-02  2.40278e+00 
-1.35880e+00 -5.14376e-02  2.33316e+00 
-1.43255e+00 -5.56316e-02  2.26059e+00 
-1.50857e+00 -5.96969e-02  2.18519e+00 
-1.58699e+00 -6.35735e-02  2.10700e+00 
-1.66794e+00 -6.71590e-02  2.02613e+00 
-1.75155e+00 -7.03838e-02  1.94267e+00 
-1.83796e+00 -7.31359e-02  1.85679e+00 
-1.92726e+00 -7.53426e-02  1.76860e+00 
-2.01957e+00 -7.68903e-02  1.67832e+00 
-2.11495e+00 -7.77137e-02  1.58611e+00 
-2.21348e+00 -7.77108e-02  1.49226e+00 
-2.31516e+00 -7.68389e-02  1.39696e+00 
-2.41999e+00 -7.50248e-02  1.30056e+00 
-2.52788e+00 -7.22681e-02  1.20330e+00 
-2.63874e+00 -6.85456e-02  1.10555e+00 
-2.75235e+00 -6.39195e-02  1.00760e+00 
-2.86848e+00 -5.84363e-02  9.09851e-01 
-2.98677e+00 -5.22379e-02  8.12579e-01 
-3.10682e+00 -4.54533e-02  7.16161e-01 
-3.22811e+00 -3.83103e-02  6.20852e-01 
-3.35009e+00 -3.10234e-02  5.26972e-01 
-3.47207e+00 -2.39054e-02  4.34700e-01 
-3.59338e+00 -1.72541e-02  3.44258e-01 
-3.71320e+00 -1.14605e-02  2.55704e-01 
-3.83070e+00 -6.86708e-03  1.69124e-01 
-3.94502e+00 -3.86404e-03  8.43998e-02 
-4.04685e+00  1.48712e-02  4.99607e-02 
 3.73220e+00 -1.62607e-02  4.53948e-02 
 3.61903e+00  4.64663e-03  7.63041e-02 
 3.49180e+00  8.07399e-03  1.53133e-01 
 3.36113e+00  1.31968e-02  2.33942e-01 
 3.22866e+00  1.94745e-02  3.18768e-01 
 3.09554e+00  2.63079e-02  4.07388e-01 
 2.96293e+00  3.31732e-02  4.99511e-01 
 2.83182e+00  3.96818e-02  5.94674e-01 
 2.70314e+00  4.54508e-02  6.92443e-01 
 2.57757e+00  5.02295e-02  7.92239e-01 
 2.45573e+00  5.37840e-02  8.93547e-01 
 2.33801e+00  5.60188e-02  9.95741e-01 
 2.22472e+00  5.68555e-02  1.09831e+00 
 2.11596e+00  5.63372e-02  1.20066e+00 
 2.01183e+00  5.45072e-02  1.30234e+00 
 1.91226e+00  5.15018e-02  1.40286e+00 
 1.81717e+00  4.74374e-02  1.50186e+00 
 1.72638e+00  4.24958e-02  1.59896e+00 
 1.63976e+00  3.68237e-02  1.69390e+00 
 1.55705e+00  3.06118e-02  1.78640e+00 
 1.47808e+00  2.40075e-02  1.87629e+00 
 1.40259e+00  1.71873e-02  1.96337e+00 
 1.33038e+00  1.02817e-02  2.04756e+00 
 1.26122e+00  3.44140e-03  2.12871e+00 
 1.19489e+00 -3.22856e-03  2.20679e+00 
 1.13119e+00 -9.60800e-03  2.28172e+00 
 1.06993e+00 -1.56193e-02  2.35349e+00 
 1.01091e+00 -2.11728e-02  2.42205e+00 
 9.53972e-01 -2.62175e-02  2.48743e+00 
 8.98931e-01 -3.06914e-02  2.54961e+00 
 8.45652e-01 -3.45674e-02  2.60862e+00 
 7.93974e-01 -3.78078e-02  2.66445e+00 
 7.43778e-01 -4.04058e-02  2.71714e+00 
 6.94923e-01 -4.23443e-02  2.76671e+00 
 6.47307e-01 -4.36332e-02  2.81319e+00 
 6.00806e-01 -4.42722e-02  2.85659e+00 
 5.55331e-01 -4.42850e-02  2.89696e+00 
 5.10772e-01 -4.36845e-02  2.93431e+00 
 4.67055e-01 -4.25056e-02  2.96868e+00 
 4.24078e-01 -4.07717e-02  3.00009e+00 
 3.81777e-01 -3.85261e-02  3.02856e+00 
 3.40061e-01 -3.58004e-02  3.05411e+00 
 2.98874e-01 -3.26445e-02  3.07678e+00 
 2.58132e-01 -2.90962e-02  3.09656e+00 
 2.17783e-01 -2.52102e-02  3.11350e+00 
 1.77750e-01 -2.10284e-02  3.12758e+00 
 1.37985e-01 -1.66095e-02  3.13883e+00 
 9.84149e-02 -1.19979e-02  3.14727e+00 
 5.89949e-02 -7.25479e-03  3.15288e+00 
 1.96540e-02 -2.42606e-03  3.15569e+00 
-1.96540e-02  2.42606e-03  3.15569e+00 
-5.89949e-02  7.25479e-03  3.15288e+00 
-9.84149e-02  1.19979e-02  3.14727e+00 
-1.37985e-01  1.66095e-02  3.13883e+00 
-1.77750e-01  2.10284e-02  3.12758e+00 
-2.17783e-01  2.52102e-02  3.11350e+00 
-2.58132e-01  2.90962e-02  3.09656e+00 
-2.98874e-01  3.26445e-02  3.07678e+00 
-3.40061e-01  3.58004e-02  3.05411e+00 
-3.81777e-01  3.85261e-02  3.02856e+00 
-4.24078e-01  4.07717e-02  3.00009e+00 
-4.67055e-01  4.25056e-02  2.96868e+00 
-5.10772e-01  4.36845e-02  2.93431e+00 
-5.55331e-01  4.42850e-02  2.89696e+00 
-6.00806e-01  4.42722e-02  2.85659e+00 
-6.47307e-01  4.36332e-02  2.81319e+00 
-6.94923e-01  4.23443e-02  2.76671e+00 
-7.43778e-01  4.04058e-02  2.71714e+00 
-7.93974e-01  3.78078e-02  2.66445e+00 
-8.45652e-01  3.45674e-02  2.60862e+00 
-8.98931e-01  3.06914e-02  2.54961e+00 
-9.53972e-01  2.62175e-02  2.48743e+00 
-1.01091e+00  2.11728e-02  2.42205e+00 
-1.06993e+00  1.56193e-02  2.35349e+00 
-1.13119e+00  9.60800e-03  2.28172e+00 
-1.19489e+00  3.22856e-03  2.20679e+00 
-1.26122e+00 -3.44140e-03  2.12871e+00 
-1.33038e+00 -1.02817e-02  2.04756e+00 
-1.40259e+00 -1.71873e-02  1.96337e+00 
-1.47808e+00 -2.40075e-02  1.87629e+00 
-1.55705e+00 -3.06118e-02  1.78640e+00 
-1.63976e+00 -3.68237e-02  1.69390e+00 
-1.72638e+00 -4.24958e-02  1.59896e+00 
-1.81717e+00 -4.74374e-02  1.50186e+00 
-1.91226e+00 -5.15018e-02  1.40286e+00 
-2.01183e+00 -5.45072e-02  1.30234e+00 
-2.11596e+00 -5.63372e-02  1.20066e+00 
-2.22472e+00 -5.68555e-02  1.09831e+00 
-2.33801e+00 -5.60188e-02  9.95741e-01 
-2.45573e+00 -5.37840e-02  8.93547e-01 
-2.57757e+00 -5.02295e-02  7.92239e-01 
-2.70314e+00 -4.54508e-02  6.92443e-01 
-2.83182e+00 -3.96818e-02  5.94674e-01 
-2.96293e+00 -3.31732e-02  4.99511e-01 
-3.09554e+00 -2.63079e-02  4.07388e-01 
-3.22866e+00 -1.94745e-02  3.18768e-01 
-3.36113e+00 -1.31968e-02  2.33942e-01 
-3.49180e+00 -8.07399e-03  1.53133e-01 
-3.61903e+00 -4.64663e-03  7.63041e-02 
-3.73220e+00  1.62607e-02  4.53948e-02 
 3.46783e+00 -1.93607e-02  4.06548e-02 
 3.33210e+00  5.08932e-03  6.80603e-02 
 3.17895e+00  8.85802e-03  1.36437e-01 
 3.02391e+00  1.41403e-02  2.12345e-01 
 2.86841e+00  1.97635e-02  2.95490e-01 
 2.71448e+00  2.51892e-02  3.85052e-01 
 2.56394e+00  2.97375e-02  4.80343e-01 
 2.41824e+00  3.28589e-02  5.80430e-01 
 2.27856e+00  3.40672e-02  6.84374e-01 
 2.14558e+00  3.31250e-02  7.91064e-01 
 2.01975e+00  2.99064e-02  8.99508e-01 
 1.90118e+00  2.45042e-02  1.00867e+00 
 1.78983e+00  1.70680e-02  1.11771e+00 
 1.68546e+00  7.88616e-03  1.22581e+00 
 1.58778e+00 -2.75741e-03  1.33237e+00 
 1.49638e+00 -1.45071e-02  1.43682e+00 
 1.41087e+00 -2.70501e-02  1.53877e+00 
 1.33081e+00 -4.00442e-02  1.63785e+00 
 1.25578e+00 -5.32065e-02  1.73384e+00 
 1.18535e+00 -6.62469e-02  1.82654e+00 
 1.11915e+00 -7.89377e-02  1.91586e+00 
 1.05678e+00 -9.10540e-02  2.00167e+00 
 9.97928e-01 -1.02428e-01  2.08398e+00 
 9.42247e-01 -1.12900e-01  2.16273e+00 
 8.89463e-01 -1.22356e-01  2.23798e+00 
 8.39291e-01 -1.30693e-01  2.30972e+00 
 7.91501e-01 -1.37846e-01  2.37802e+00 
 7.45854e-01 -1.43756e-01  2.44290e+00 
 7.02163e-01 -1.48398e-01  2.50445e+00 
 6.60230e-01 -1.51748e-01  2.56269e+00 
 6.19900e-01 -1.53812e-01  2.61772e+00 
 5.81009e-01 -1.54596e-01  2.66957e+00 
 5.43431e-01 -1.54126e-01  2.71832e+00 
 5.07028e-01 -1.52430e-01  2.76402e+00 
 4.71698e-01 -1.49551e-01  2.80674e+00 
 4.37324e-01 -1.45534e-01  2.84651e+00 
 4.03822e-01 -1.40435e-01  2.88341e+00 
 3.71090e-01 -1.34309e-01  2.91747e+00 
 3.39063e-01 -1.27222e-01  2.94874e+00 
 3.07649e-01 -1.19237e-01  2.97726e+00 
 2.76794e-01 -1.10427e-01  3.00308e+00 
 2.46418e-01 -1.00861e-01  3.02621e+00 
 2.16473e-01 -9.06162e-02  3.04670e+00 
 1.86890e-01 -7.97666e-02  3.06456e+00 
 1.57626e-01 -6.83920e-02  3.07984e+00 
 1.28615e-01 -5.65693e-02  3.09253e+00 
 9.98219e-02 -4.43809e-02  3.10267e+00 
 7.11842e-02 -3.19051e-02  3.11026e+00 
 4.26676e-02 -1.92258e-02  3.11531e+00 
 1.42134e-02 -6.42197e-03  3.11784e+00 
-1.42134e-02  6.42197e-03  3.11784e+00 
-4.26676e-02  1.92258e-02  3.11531e+00 
-7.11842e-02  3.19051e-02  3.11026e+00 
-9.98219e-02  4.43809e-02  3.10267e+00 
-1.28615e-01  5.65693e-02  3.09253e+00 
-1.57626e-01  6.83920e-02  3.07984e+00 
-1.86890e-01  7.97666e-02  3.06456e+00 
-2.16473e-01  9.06162e-02  3.04670e+00 
-2.46418e-01  1.00861e-01  3.02621e+00 
-2.76794e-01  1.10427e-01  3.00308e+00 
-3.07649e-01  1.19237e-01  2.97726e+00 
-3.39063e-01  1.27222e-01  2.94874e+00 
-3.71090e-01  1.34309e-01  2.91747e+00 
-4.03822e-01  1.40435e-01  2.88341e+00 
-4.37324e-01  1.45534e-01  2.84651e+00 
-4.71698e-01  1.49551e-01  2.80674e+00 
-5.07028e-01  1.52430e-01  2.76402e+00 
-5.43431e-01  1.54126e-01  2.71832e+00 
-5.81009e-01  1.54596e-01  2.66957e+00 
-6.19900e-01  1.53812e-01  2.61772e+00 
-6.60230e-01  1.51748e-01  2.56269e+00 
-7.02163e-01  1.48398e-01  2.50445e+00 
-7.45854e-01  1.43756e-01  2.44290e+00 
-7.91501e-01  1.37846e-01  2.37802e+00 
-8.39291e-01  1.30693e-01  2.30972e+00 
-8.89463e-01  1.22356e-01  2.23798e+00 
-9.42247e-01  1.12900e-01  2.16273e+00 
-9.97928e-01  1.02428e-01  2.08398e+00 
-1.05678e+00  9.10540e-02  2.00167e+00 
-1.11915e+00  7.89377e-02  1.91586e+00 
-1.18535e+00  6.62469e-02  1.82654e+00 
-1.25578e+00  5.32065e-02  1.73384e+00 
-1.33081e+00  4.00442e-02  1.63785e+00 
-1.41087e+00  2.70501e-02  1.53877e+00 
-1.49638e+00  1.45071e-02  1.43682e+00 
-1.58778e+00  2.75741e-03  1.33237e+00 
-1.68546e+00 -7.88616e-03  1.22581e+00 
-1.78983e+00 -1.70680e-02  1.11771e+00 
-1.90118e+00 -2.45042e-02  1.00867e+00 
-2.01975e+00 -2.99064e-02  8.99508e-01 
-2.14558e+00 -3.31250e-02  7.91064e-01 
-2.27856e+00 -3.40672e-02  6.84374e-01 
-2.41824e+00 -3.28589e-02  5.80430e-01 
-2.56394e+00 -2.97375e-02  4.80343e-01 
-2.71448e+00 -2.51892e-02  3.85052e-01 
-2.86841e+00 -1.97635e-02  2.95490e-01 
-3.02391e+00 -1.41403e-02  2.12345e-01 
-3.17895e+00 -8.85802e-03  1.36437e-01 
-3.33210e+00 -5.08932e-03  6.80603e-02 
-3.46783e+00  1.93607e-02  4.06548e-02 
 3.26315e+00 -2.89045e-02  3.83428e-02 
 3.08215e+00  5.76838e-03  6.08981e-02 
 2.88531e+00  8.77529e-03  1.23134e-01 
 2.68623e+00  1.12746e-02  1.98405e-01 
 2.49152e+00  1.37705e-02  2.84970e-01 
 2.30497e+00  1.45944e-02  3.81979e-01 
 2.12935e+00  1.22232e-02  4.87672e-01 
 1.96608e+00  5.84885e-03  5.99802e-01 
 1.81572e+00 -4.82528e-03  7.16175e-01 
 1.67809e+00 -1.95456e-02  8.34674e-01 
 1.55267e+00 -3.78349e-02  9.53603e-01 
 1.43863e+00 -5.89828e-02  1.07149e+00 
 1.33506e+00 -8.22776e-02  1.18728e+00 
 1.24098e+00 -1.06957e-01  1.30012e+00 
 1.15546e+00 -1.32352e-01  1.40947e+00 
 1.07758e+00 -1.57823e-01  1.51489e+00 
 1.00652e+00 -1.82845e-01  1.61618e+00 
 9.41495e-01 -2.06944e-01  1.71316e+00 
 8.81841e-01 -2.29752e-01  1.80582e+00 
 8.26921e-01 -2.50951e-01  1.89416e+00 
 7.76205e-01 -2.70309e-01  1.97825e+00 
 7.29190e-01 -2.87636e-01  2.05817e+00 
 6.85465e-01 -3.02804e-01  2.13405e+00 
 6.44638e-01 -3.15721e-01  2.20600e+00 
 6.06392e-01 -3.26338e-01  2.27417e+00 
 5.70421e-01 -3.34631e-01  2.33867e+00 
 5.36484e-01 -3.40605e-01  2.39964e+00 
 5.04341e-01 -3.44287e-01  2.45721e+00 
 4.73807e-01 -3.45718e-01  2.51150e+00 
 4.44693e-01 -3.44958e-01  2.56263e+00 
 4.16860e-01 -3.42073e-01  2.61070e+00 
 3.90155e-01 -3.37146e-01  2.65581e+00 
 3.64471e-01 -3.30258e-01  2.69806e+00 
 3.39687e-01 -3.21505e-01  2.73754e+00 
 3.15719e-01 -3.10980e-01  2.77432e+00 
 2.92467e-01 -2.98786e-01  2.80848e+00 
 2.69868e-01 -2.85022e-01  2.84010e+00 
 2.47836e-01 -2.69797e-01  2.86921e+00 
 2.26322e-01 -2.53213e-01  2.89590e+00 
 2.05254e-01 -2.35382e-01  2.92019e+00 
 1.84593e-01 -2.16407e-01  2.94214e+00 
 1.64276e-01 -1.96401e-01  2.96179e+00 
 1.44271e-01 -1.75468e-01  2.97917e+00 
 1.24522e-01 -1.53721e-01  2.99432e+00 
 1.05002e-01 -1.31266e-01  3.00725e+00 
 8.56612e-02 -1.08216e-01  3.01799e+00 
 6.64763e-02 -8.46738e-02  3.02657e+00 
 4.73992e-02 -6.07537e-02  3.03299e+00 
 2.84101e-02 -3.65605e-02  3.03726e+00 
 9.46281e-03 -1.22058e-02  3.03939e+00 
-9.46281e-03  1.22058e-02  3.03939e+00 
-2.84101e-02  3.65605e-02  3.03726e+00 
-4.73992e-02  6.07537e-02  3.03299e+00 
-6.64763e-02  8.46738e-02  3.02657e+00 
-8.56612e-02  1.08216e-01  3.01799e+00 
-1.05002e-01  1.31266e-01  3.00725e+00 
-1.24522e-01  1.53721e-01  2.99432e+00 
-1.44271e-01  1.75468e-01  2.97917e+00 
-1.64276e-01  1.96401e-01  2.96179e+00 
-1.84593e-01  2.16407e-01  2.94214e+00 
-2.05254e-01  2.35382e-01  2.92019e+00 
-2.26322e-01  2.53213e-01  2.89590e+00 
-2.47836e-01  2.69797e-01  2.86921e+00 
-2.69868e-01  2.85022e-01  2.84010e+00 
-2.92467e-01  2.98786e-01  2.80848e+00 
-3.15719e-01  3.10980e-01  2.77432e+00 
-3.39687e-01  3.21505e-01  2.73754e+00 
-3.64471e-01  3.30258e-01  2.69806e+00 
-3.90155e-01  3.37146e-01  2.65581e+00 
-4.16860e-01  3.42073e-01  2.61070e+00 
-4.44693e-01  3.44958e-01  2.56263e+00 
-4.73807e-01  3.45718e-01  2.51150e+00 
-5.04341e-01  3.44287e-01  2.45721e+00 
-5.36484e-01  3.40605e-01  2.39964e+00 
-5.70421e-01  3.34631e-01  2.33867e+00 
-6.06392e-01  3.26338e-01  2.27417e+00 
-6.44638e-01  3.15721e-01  2.20600e+00 
-6.85465e-01  3.02804e-01  2.13405e+00 
-7.29190e-01  2.87636e-01  2.05817e+00 
-7.76205e-01  2.70309e-01  1.97825e+00 
-8.26921e-01  2.50951e-01  1.89416e+00 
-8.81841e-01  2.29752e-01  1.80582e+00 
-9.41495e-01  2.06944e-01  1.71316e+00 
-1.00652e+00  1.82845e-01  1.61618e+00 
-1.07758e+00  1.57823e-01  1.51489e+00 
-1.15546e+00  1.32352e-01  1.40947e+00 
-1.24098e+00  1.06957e-01  1.30012e+00 
-1.33506e+00  8.22776e-02  1.18728e+00 
-1.43863e+00  5.89828e-02  1.07149e+00 
-1.55267e+00  3.78349e-02  9.53603e-01 
-1.67809e+00  1.95456e-02  8.34674e-01 
-1.81572e+00  4.82528e-03  7.16175e-01 
-1.96608e+00 -5.84885e-03  5.99802e-01 
-2.12935e+00 -1.22232e-02  4.87672e-01 
-2.30497e+00 -1.45944e-02  3.81979e-01 
-2.49152e+00 -1.37705e-02  2.84970e-01 
-2.68623e+00 -1.12746e-02  1.98405e-01 
-2.88531e+00 -8.77529e-03  1.23134e-01 
-3.08215e+00 -5.76838e-03  6.08981e-02 
-3.26315e+00  2.89045e-02  3.83428e-02 
 3.11376e+00 -3.33313e-02  3.69650e-02 
 2.86484e+00  7.01652e-04  6.58668e-02 
 2.57124e+00 -2.47466e-03  1.27938e-01 
 2.29576e+00 -1.36515e-03  2.10804e-01 
 2.04488e+00 -5.62805e-03  3.16113e-01 
 1.82145e+00 -1.93792e-02  4.37193e-01 
 1.62507e+00 -4.32207e-02  5.67780e-01 
 1.45371e+00 -7.59924e-02  7.02495e-01 
 1.30479e+00 -1.15843e-01  8.37444e-01 
 1.17551e+00 -1.60658e-01  9.69814e-01 
 1.06325e+00 -2.08499e-01  1.09786e+00 
 9.65570e-01 -2.57612e-01  1.22044e+00 
 8.80364e-01 -3.06575e-01  1.33701e+00 
 8.05754e-01 -3.54208e-01  1.44729e+00 
 7.40169e-01 -3.99618e-01  1.55131e+00 
 6.82234e-01 -4.42112e-01  1.64918e+00 
 6.30819e-01 -4.81199e-01  1.74118e+00 
 5.84936e-01 -5.16529e-01  1.82756e+00 
 5.43784e-01 -5.47884e-01  1.90866e+00 
 5.06658e-01 -5.75140e-01  1.98478e+00 
 4.72991e-01 -5.98250e-01  2.05625e+00 
 4.42280e-01 -6.17229e-01  2.12336e+00 
 4.14125e-01 -6.32132e-01  2.18638e+00 
 3.88162e-01 -6.43056e-01  2.24558e+00 
 3.64109e-01 -6.50112e-01  2.30120e+00 
 3.41699e-01 -6.53443e-01  2.35344e+00 
 3.20734e-01 -6.53188e-01  2.40250e+00 
 3.01015e-01 -6.49512e-01  2.44857e+00 
 2.82400e-01 -6.42568e-01  2.49180e+00 
 2.64739e-01 -6.32528e-01  2.53233e+00 
 2.47931e-01 -6.19547e-01  2.57030e+00 
 2.31861e-01 -6.03800e-01  2.60582e+00 
 2.16457e-01 -5.85438e-01  2.63898e+00 
 2.01626e-01 -5.64634e-01  2.66990e+00 
 1.87317e-01 -5.41535e-01  2.69864e+00 
 1.73456e-01 -5.16307e-01  2.72528e+00 
 1.60006e-01 -4.89092e-01  2.74990e+00 
 1.46905e-01 -4.60052e-01  2.77254e+00 
 1.34129e-01 -4.29323e-01  2.79325e+00 
 1.21621e-01 -3.97060e-01  2.81210e+00 
 1.09367e-01 -3.63396e-01  2.82911e+00 
 9.73171e-02 -3.28480e-01  2.84433e+00 
 8.54612e-02 -2.92439e-01  2.85778e+00 
 7.37556e-02 -2.55422e-01  2.86949e+00 
 6.21929e-02 -2.17551e-01  2.87949e+00 
 5.07333e-02 -1.78970e-01  2.88779e+00 
 3.93717e-02 -1.39800e-01  2.89442e+00 
 2.80707e-02 -1.00183e-01  2.89937e+00 
 1.68264e-02 -6.02371e-02  2.90267e+00 
 5.60315e-03 -2.01027e-02  2.90432e+00 
-5.60315e-03  2.01027e-02  2.90432e+00 
-1.68264e-02  6.02371e-02  2.90267e+00 
-2.80707e-02  1.00183e-01  2.89937e+00 
-3.93717e-02  1.39800e-01  2.89442e+00 
-5.07333e-02  1.78970e-01  2.88779e+00 
-6.21929e-02  2.17551e-01  2.87949e+00 
-7.37556e-02  2.55422e-01  2.86949e+00 
-8.54612e-02  2.92439e-01  2.85778e+00 
-9.73171e-02  3.28480e-01  2.84433e+00 
-1.09367e-01  3.63396e-01  2.82911e+00 
-1.21621e-01  3.97060e-01  2.81210e+00 
-1.34129e-01  4.29323e-01  2.79325e+00 
-1.46905e-01  4.60052e-01  2.77254e+00 
-1.60006e-01  4.89092e-01  2.74990e+00 
-1.73456e-01  5.16307e-01  2.72528e+00 
-1.87317e-01  5.41535e-01  2.69864e+00 
-2.01626e-01  5.64634e-01  2.66990e+00 
-2.16457e-01  5.85438e-01  2.63898e+00 
-2.31861e-01  6.03800e-01  2.60582e+00 
-2.47931e-01  6.19547e-01  2.57030e+00 
-2.64739e-01  6.32528e-01  2.53233e+00 
-2.82400e-01  6.42568e-01  2.49180e+00 
-3.01015e-01  6.49512e-01  2.44857e+00 
-3.20734e-01  6.53188e-01  2.40250e+00 
-3.41699e-01  6.53443e-01  2.35344e+00 
-3.64109e-01  6.50112e-01  2.30120e+00 
-3.88162e-01  6.43056e-01  2.24558e+00 
-4.14125e-01  6.32132e-01  2.18638e+00 
-4.42280e-01  6.17229e-01  2.12336e+00 
-4.72991e-01  5.98250e-01  2.05625e+00 
-5.06658e-01  5.75140e-01  1.98478e+00 
-5.43784e-01  5.47884e-01  1.90866e+00 
-5.84936e-01  5.16529e-01  1.82756e+00 
-6.30819e-01  4.81199e-01  1.74118e+00 
-6.82234e-01  4.42112e-01  1.64918e+00 
-7.40169e-01  3.99618e-01  1.55131e+00 
-8.05754e-01  3.54208e-01  1.44729e+00 
-8.80364e-01  3.06575e-01  1.33701e+00 
-9.65570e-01  2.57612e-01  1.22044e+00 
-1.06325e+00  2.08499e-01  1.09786e+00 
-1.17551e+00  1.60658e-01  9.69814e-01 
-1.30479e+00  1.15843e-01  8.37444e-01 
-1.45371e+00  7.59924e-02  7.02495e-01 
-1.62507e+00  4.32207e-02  5.67780e-01 
-1.82145e+00  1.93792e-02  4.37193e-01 
-2.04488e+00  5.62805e-03  3.16113e-01 
-2.29576e+00  1.36515e-03  2.10804e-01 
-2.57124e+00  2.47466e-03  1.27938e-01 
-2.86484e+00 -7.01652e-04  6.58668e-02 
-3.11376e+00  3.33313e-02  3.69650e-02 
 3.02801e+00 -1.41346e-01  9.88605e-02 
 2.53231e+00 -2.28773e-02  1.04029e-01 
 2.10009e+00 -2.54039e-03  1.84014e-01 
 1.74954e+00 -1.96472e-02  3.26586e-01 
 1.46689e+00 -7.12710e-02  4.91776e-01 
 1.23941e+00 -1.46004e-01  6.61423e-01 
 1.05581e+00 -2.35232e-01  8.25959e-01 
 9.06978e-01 -3.31587e-01  9.80605e-01 
 7.85722e-01 -4.29732e-01  1.12354e+00 
 6.86325e-01 -5.25807e-01  1.25437e+00 
 6.04347e-01 -6.17226e-01  1.37358e+00 
 5.36255e-01 -7.02281e-01  1.48199e+00 
 4.79311e-01 -7.79959e-01  1.58059e+00 
 4.31318e-01 -8.49708e-01  1.67038e+00 
 3.90572e-01 -9.11320e-01  1.75233e+00 
 3.55691e-01 -9.64817e-01  1.82731e+00 
 3.25604e-01 -1.01037e+00  1.89610e+00 
 2.99425e-01 -1.04826e+00  1.95940e+00 
 2.76475e-01 -1.07880e+00  2.01781e+00 
 2.56177e-01 -1.10237e+00  2.07185e+00 
 2.38094e-01 -1.11934e+00  2.12198e+00 
 2.21844e-01 -1.13010e+00  2.16858e+00 
 2.07143e-01 -1.13501e+00  2.21198e+00 
 1.93732e-01 -1.13442e+00  2.25247e+00 
 1.81428e-01 -1.12869e+00  2.29030e+00 
 1.70046e-01 -1.11813e+00  2.32568e+00 
 1.59470e-01 -1.10306e+00  2.35878e+00 
 1.49567e-01 -1.08377e+00  2.38978e+00 
 1.40261e-01 -1.06052e+00  2.41879e+00 
 1.31453e-01 -1.03359e+00  2.44596e+00 
 1.23095e-01 -1.00321e+00  2.47136e+00 
 1.15111e-01 -9.69634e-01  2.49511e+00 
 1.07472e-01 -9.33058e-01  2.51726e+00 
 1.00116e-01 -8.93714e-01  2.53791e+00 
 9.30282e-02 -8.51784e-01  2.55709e+00 
 8.61563e-02 -8.07478e-01  2.57487e+00 
 7.94943e-02 -7.60964e-01  2.59129e+00 
 7.29968e-02 -7.12436e-01  2.60640e+00 
 6.66645e-02 -6.62049e-01  2.62022e+00 
 6.04567e-02 -6.09984e-01  2.63279e+00 
 5.43784e-02 -5.56387e-01  2.64414e+00 
 4.83924e-02 -5.01431e-01  2.65430e+00 
 4.25067e-02 -4.45253e-01  2.66328e+00 
 3.66867e-02 -3.88018e-01  2.67110e+00 
 3.09422e-02 -3.29859e-01  2.67777e+00 
 2.52405e-02 -2.70935e-01  2.68332e+00 
 1.95925e-02 -2.11373e-01  2.68774e+00 
 1.39669e-02 -1.51333e-01  2.69105e+00 
 8.37508e-03 -9.09357e-02  2.69325e+00 
 2.78683e-03 -3.03387e-02  2.69435e+00 
-2.78683e-03  3.03387e-02  2.69435e+00 
-8.37508e-03  9.09357e-02  2.69325e+00 
-1.39669e-02  1.51333e-01  2.69105e+00 
-1.95925e-02  2.11373e-01  2.68774e+00 
-2.52405e-02  2.70935e-01  2.68332e+00 
-3.09422e-02  3.29859e-01  2.67777e+00 
-3.66867e-02  3.88018e-01  2.67110e+00 
-4.25067e-02  4.45253e-01  2.66328e+00 
-4.83924e-02  5.01431e-01  2.65430e+00 
-5.43784e-02  5.56387e-01  2.64414e+00 
-6.04567e-02  6.09984e-01  2.63279e+00 
-6.66645e-02  6.62049e-01  2.62022e+00 
-7.29968e-02  7.12436e-01  2.60640e+00 
-7.94943e-02  7.60964e-01  2.59129e+00 
-8.61563e-02  8.07478e-01  2.57487e+00 
-9.30282e-02  8.51784e-01  2.55709e+00 
-1.00116e-01  8.93714e-01  2.53791e+00 
-1.07472e-01  9.33058e-01  2.51726e+00 
-1.15111e-01  9.69634e-01  2.49511e+00 
-1.23095e-01  1.00321e+00  2.47136e+00 
-1.31453e-01  1.03359e+00  2.44596e+00 
-1.40261e-01  1.06052e+00  2.41879e+00 
-1.49567e-01  1.08377e+00  2.38978e+00 
-1.59470e-01  1.10306e+00  2.35878e+00 
-1.70046e-01  1.11813e+00  2.32568e+00 
-1.81428e-01  1.12869e+00  2.29030e+00 
-1.93732e-01  1.13442e+00  2.25247e+00 
-2.07143e-01  1.13501e+00  2.21198e+00 
-2.21844e-01  1.13010e+00  2.16858e+00 
-2.38094e-01  1.11934e+00  2.12198e+00 
-2.56177e-01  1.10237e+00  2.07185e+00 
-2.76475e-01  1.07880e+00  2.01781e+00 
-2.99425e-01  1.04826e+00  1.95940e+00 
-3.25604e-01  1.01037e+00  1.89610e+00 
-3.55691e-01  9.64817e-01  1.82731e+00 
-3.90572e-01  9.11320e-01  1.75233e+00 
-4.31318e-01  8.49708e-01  1.67038e+00 
-4.79311e-01  7.79959e-01  1.58059e+00 
-5.36255e-01  7.02281e-01  1.48199e+00 
-6.04347e-01  6.17226e-01  1.37358e+00 
-6.86325e-01  5.25807e-01  1.25437e+00 
-7.85722e-01  4.29732e-01  1.12354e+00 
-9.06978e-01  3.31587e-01  9.80605e-01 
-1.05581e+00  2.35232e-01  8.25959e-01 
-1.23941e+00  1.46004e-01  6.61423e-01 
-1.46689e+00  7.12710e-02  4.91776e-01 
-1.74954e+00  1.96472e-02  3.26586e-01 
-2.10009e+00  2.54039e-03  1.84014e-01 
-2.53231e+00  2.28773e-02  1.04029e-01 
-3.02801e+00  1.41346e-01  9.88605e-02 
 2.44059e+00 -2.85753e-02  1.26008e-01 
 1.84993e+00  7.00588e-02  2.70805e-01 
 1.41648e+00 -6.88331e-02  5.65361e-01 
 1.09785e+00 -2.86887e-01  8.28276e-01 
 8.65193e-01 -5.13563e-01  1.04490e+00 
 6.91112e-01 -7.32783e-01  1.22238e+00 
 5.59376e-01 -9.33861e-01  1.36764e+00 
 4.58535e-01 -1.11305e+00  1.48730e+00 
 3.80658e-01 -1.26938e+00  1.58671e+00 
 3.19953e-01 -1.40370e+00  1.67019e+00 
 2.72254e-01 -1.51741e+00  1.74104e+00 
 2.34421e-01 -1.61238e+00  1.80187e+00 
 2.04164e-01 -1.69035e+00  1.85465e+00 
 1.79716e-01 -1.75313e+00  1.90097e+00 
 1.59783e-01 -1.80224e+00  1.94199e+00 
 1.43342e-01 -1.83915e+00  1.97871e+00 
 1.29652e-01 -1.86507e+00  2.01181e+00 
 1.18105e-01 -1.88114e+00  2.04191e+00 
 1.08272e-01 -1.88826e+00  2.06943e+00 
 9.97814e-02 -1.88732e+00  2.09477e+00 
 9.23860e-02 -1.87900e+00  2.11818e+00 
 8.58514e-02 -1.86397e+00  2.13994e+00 
 8.00352e-02 -1.84276e+00  2.16018e+00 
 7.47836e-02 -1.81590e+00  2.17911e+00 
 7.00174e-02 -1.78378e+00  2.19681e+00 
 6.56302e-02 -1.74684e+00  2.21342e+00 
 6.15811e-02 -1.70538e+00  2.22899e+00 
 5.77922e-02 -1.65979e+00  2.24362e+00 
 5.42463e-02 -1.61029e+00  2.25735e+00 
 5.08827e-02 -1.55722e+00  2.27025e+00 
 4.76991e-02 -1.50076e+00  2.28234e+00 
 4.46453e-02 -1.44120e+00  2.29368e+00 
 4.17287e-02 -1.37872e+00  2.30428e+00 
 3.89055e-02 -1.31356e+00  2.31418e+00 
 3.61894e-02 -1.24587e+00  2.32340e+00 
 3.35408e-02 -1.17589e+00  2.33197e+00 
 3.09775e-02 -1.10374e+00  2.33990e+00 
 2.84625e-02 -1.02965e+00  2.34721e+00 
 2.60165e-02 -9.53728e-01  2.35390e+00 
 2.36041e-02 -8.76184e-01  2.36001e+00 
 2.12480e-02 -7.97134e-01  2.36552e+00 
 1.89141e-02 -7.16766e-01  2.37046e+00 
 1.66259e-02 -6.35193e-01  2.37483e+00 
 1.43505e-02 -5.52595e-01  2.37864e+00 
 1.21122e-02 -4.69082e-01  2.38190e+00 
 9.87845e-03 -3.84828e-01  2.38460e+00 
 7.67409e-03 -2.99943e-01  2.38676e+00 
 5.46729e-03 -2.14592e-01  2.38838e+00 
 3.28268e-03 -1.28887e-01  2.38946e+00 
 1.08912e-03 -4.29907e-02  2.38999e+00 
-1.08912e-03  4.29907e-02  2.38999e+00 
-3.28268e-03  1.28887e-01  2.38946e+00 
-5.46729e-03  2.14592e-01  2.38838e+00 
-7.67409e-03  2.99943e-01  2.38676e+00 
-9.87845e-03  3.84828e-01  2.38460e+00 
-1.21122e-02  4.69082e-01  2.38190e+00 
-1.43505e-02  5.52595e-01  2.37864e+00 
-1.66259e-02  6.35193e-01  2.37483e+00 
-1.89141e-02  7.16766e-01  2.37046e+00 
-2.12480e-02  7.97134e-01  2.36552e+00 
-2.36041e-02  8.76184e-01  2.36001e+00 
-2.60165e-02  9.53728e-01  2.35390e+00 
-2.84625e-02  1.02965e+00  2.34721e+00 
-3.09775e-02  1.10374e+00  2.33990e+00 
-3.35408e-02  1.17589e+00  2.33197e+00 
-3.61894e-02  1.24587e+00  2.32340e+00 
-3.89055e-02  1.31356e+00  2.31418e+00 
-4.17287e-02  1.37872e+00  2.30428e+00 
-4.46453e-02  1.44120e+00  2.29368e+00 
-4.76991e-02  1.50076e+00  2.28234e+00 
-5.08827e-02  1.55722e+00  2.27025e+00 
-5.42463e-02  1.61029e+00  2.25735e+00 
-5.77922e-02  1.65979e+00  2.24362e+00 
-6.15811e-02  1.70538e+00  2.22899e+00 
-6.56302e-02  1.74684e+00  2.21342e+00 
-7.00174e-02  1.78378e+00  2.19681e+00 
-7.47836e-02  1.81590e+00  2.17911e+00 
-8.00352e-02  1.84276e+00  2.16018e+00 
-8.58514e-02  1.86397e+00  2.13994e+00 
-9.23860e-02  1.87900e+00  2.11818e+00 
-9.97814e-02  1.88732e+00  2.09477e+00 
-1.08272e-01  1.88826e+00  2.06943e+00 
-1.18105e-01  1.88114e+00  2.04191e+00 
-1.29652e-01  1.86507e+00  2.01181e+00 
-1.43342e-01  1.83915e+00  1.97871e+00 
-1.59783e-01  1.80224e+00  1.94199e+00 
-1.79716e-01  1.75313e+00  1.90097e+00 
-2.04164e-01  1.69035e+00  1.85465e+00 
-2.34421e-01  1.61238e+00  1.80187e+00 
-2.72254e-01  1.51741e+00  1.74104e+00 
-3.19953e-01  1.40370e+00  1.67019e+00 
-3.80658e-01  1.26938e+00  1.58671e+00 
-4.58535e-01  1.11305e+00  1.48730e+00 
-5.59376e-01  9.33861e-01  1.36764e+00 
-6.91112e-01  7.32783e-01  1.22238e+00 
-8.65193e-01  5.13563e-01  1.04490e+00 
-1.09785e+00  2.86887e-01  8.28276e-01 
-1.41648e+00  6.88331e-02  5.65361e-01 
-1.84993e+00 -7.00588e-02  2.70805e-01 
-2.44059e+00  2.85753e-02  1.26008e-01 
 1.44000e+00 -1.07554e+00  1.34650e-01 
 8.50963e-01 -1.41927e+00  4.89199e-01 
 3.55705e-01 -2.12244e+00  1.00518e+00 
 8.48259e-02 -2.55508e+00  1.30978e+00 
-7.49953e-02 -2.84789e+00  1.51175e+00 
-1.67905e-01 -3.04223e+00  1.64912e+00 
-2.20772e-01 -3.17063e+00  1.74547e+00 
-2.48832e-01 -3.25290e+00  1.81491e+00 
-2.61646e-01 -3.30290e+00  1.86617e+00 
-2.64913e-01 -3.32925e+00  1.90507e+00 
-2.62460e-01 -3.33832e+00  1.93530e+00 
-2.56498e-01 -3.33391e+00  1.95951e+00 
-2.48638e-01 -3.31912e+00  1.97934e+00 
-2.39705e-01 -3.29559e+00  1.99608e+00 
-2.30392e-01 -3.26493e+00  2.01048e+00 
-2.20956e-01 -3.22786e+00  2.02319e+00 
-2.11701e-01 -3.18527e+00  2.03454e+00 
-2.02656e-01 -3.13747e+00  2.04489e+00 
-1.93956e-01 -3.08502e+00  2.05439e+00 
-1.85547e-01 -3.02805e+00  2.06323e+00 
-1.77493e-01 -2.96697e+00  2.07148e+00 
-1.69713e-01 -2.90184e+00  2.07925e+00 
-1.62244e-01 -2.83298e+00  2.08655e+00 
-1.55006e-01 -2.76043e+00  2.09348e+00 
-1.48020e-01 -2.68447e+00  2.10003e+00 
-1.41218e-01 -2.60514e+00  2.10625e+00 
-1.34614e-01 -2.52269e+00  2.11213e+00 
-1.28152e-01 -2.43715e+00  2.11772e+00 
-1.21844e-01 -2.34877e+00  2.12300e+00 
-1.15643e-01 -2.25760e+00  2.12801e+00 
-1.09559e-01 -2.16384e+00  2.13273e+00 
-1.03557e-01 -2.06757e+00  2.13719e+00 
-9.76442e-02 -1.96898e+00  2.14138e+00 
-9.17930e-02 -1.86815e+00  2.14532e+00 
-8.60080e-02 -1.76526e+00  2.14900e+00 
-8.02708e-02 -1.66040e+00  2.15244e+00 
-7.45819e-02 -1.55374e+00  2.15563e+00 
-6.89305e-02 -1.44537e+00  2.15858e+00 
-6.33131e-02 -1.33546e+00  2.16129e+00 
-5.77261e-02 -1.22409e+00  2.16377e+00 
-5.21615e-02 -1.11144e+00  2.16601e+00 
-4.66222e-02 -9.97594e-01  2.16803e+00 
-4.10958e-02 -8.82702e-01  2.16981e+00 
-3.55912e-02 -7.66879e-01  2.17137e+00 
-3.00916e-02 -6.50254e-01  2.17270e+00 
-2.46113e-02 -5.32952e-01  2.17381e+00 
-1.91290e-02 -4.15090e-01  2.17469e+00 
-1.36644e-02 -2.96806e-01  2.17536e+00 
-8.19158e-03 -1.78202e-01  2.17580e+00 
-2.73510e-03 -5.94282e-02  2.17602e+00 
 2.73510e-03  5.94282e-02  2.17602e+00 
 8.19158e-03  1.78202e-01  2.17580e+00 
 1.36644e-02  2.96806e-01  2.17536e+00 
 1.91290e-02  4.15090e-01  2.17469e+00 
 2.46113e-02  5.32952e-01  2.17381e+00 
 3.00916e-02  6.50254e-01  2.17270e+00 
 3.55912e-02  7.66879e-01  2.17137e+00 
 4.10958e-02  8.82702e-01  2.16981e+00 
 4.66222e-02  9.97594e-01  2.16803e+00 
 5.21615e-02  1.11144e+00  2.16601e+00 
 5.77261e-02  1.22409e+00  2.16377e+00 
 6.33131e-02  1.33546e+00  2.16129e+00 
 6.89305e-02  1.44537e+00  2.15858e+00 
 7.45819e-02  1.55374e+00  2.15563e+00 
 8.02708e-02  1.66040e+00  2.15244e+00 
 8.60080e-02  1.76526e+00  2.14900e+00 
 9.17930e-02  1.86815e+00  2.14532e+00 
 9.76442e-02  1.96898e+00  2.14138e+00 
 1.03557e-01  2.06757e+00  2.13719e+00 
 1.09559e-01  2.16384e+00  2.13273e+00 
 1.15643e-01  2.25760e+00  2.12801e+00 
 1.21844e-01  2.34877e+00  2.12300e+00 
 1.28152e-01  2.43715e+00  2.11772e+00 
 1.34614e-01  2.52269e+00  2.11213e+00 
 1.41218e-01  2.60514e+00  2.10625e+00 
 1.48020e-01  2.68447e+00  2.10003e+00 
 1.55006e-01  2.76043e+00  2.09348e+00 
 1.62244e-01  2.83298e+00  2.08655e+00 
 1.69713e-01  2.90184e+00  2.07925e+00 
 1.77493e-01  2.96697e+00  2.07148e+00 
 1.85547e-01  3.02805e+00  2.06323e+00 
 1.93956e-01  3.08502e+00  2.05439e+00 
 2.02656e-01  3.13747e+00  2.04489e+00 
 2.11701e-01  3.18527e+00  2.03454e+00 
 2.20956e-01  3.22786e+00  2.02319e+00 
 2.30392e-01  3.26493e+00  2.01048e+00 
 2.39705e-01  3.29559e+00  1.99608e+00 
 2.48638e-01  3.31912e+00  1.97934e+00 
 2.56498e-01  3.33391e+00  1.95951e+00 
 2.62460e-01  3.33832e+00  1.93530e+00 
 2.64913e-01  3.32925e+00  1.90507e+00 
 2.61646e-01  3.30290e+00  1.86617e+00 
 2.48832e-01  3.25290e+00  1.81491e+00 
 2.20772e-01  3.17063e+00  1.74547e+00 
 1.67905e-01  3.04223e+00  1.64912e+00 
 7.49953e-02  2.84789e+00  1.51175e+00 
-8.48259e-02  2.55508e+00  1.30978e+00 
-3.55705e-01  2.12244e+00  1.00518e+00 
-8.50963e-01  1.41927e+00  4.89199e-01 
-1.44000e+00  1.07554e+00  1.34650e-01 
 3.62201e+01  9.44014e+00  6.41940e+00 
 3.00220e+01  7.60454e+00  6.50354e+00 
 2.64994e+01  7.12461e+00  6.04317e+00 
 2.42053e+01  6.90654e+00  5.52753e+00 
 2.25554e+01  6.78979e+00  5.03938e+00 
 2.12741e+01  6.70094e+00  4.59678e+00 
 2.02207e+01  6.61365e+00  4.20185e+00 
 1.93168e+01  6.51865e+00  3.85047e+00 
 1.85166e+01  6.41348e+00  3.53731e+00 
 1.77909e+01  6.29833e+00  3.25702e+00 
 1.71210e+01  6.17435e+00  3.00504e+00 
 1.64938e+01  6.04284e+00  2.77738e+00 
 1.59003e+01  5.90511e+00  2.57080e+00 
 1.53339e+01  5.76228e+00  2.38253e+00 
 1.47898e+01  5.61531e+00  2.21036e+00 
 1.42641e+01  5.46498e+00  2.05234e+00 
 1.37542e+01  5.31197e+00  1.90694e+00 
 1.32575e+01  5.15679e+00  1.77276e+00 
 1.27725e+01  4.99989e+00  1.64872e+00 
 1.22976e+01  4.84160e+00  1.53380e+00 
 1.18316e+01  4.68225e+00  1.42720e+00 
 1.13735e+01  4.52204e+00  1.32815e+00 
 1.09226e+01  4.36118e+00  1.23606e+00 
 1.04779e+01  4.19982e+00  1.15035e+00 
 1.00390e+01  4.03811e+00  1.07055e+00 
 9.60533e+00  3.87612e+00  9.96207e-01 
 9.17642e+00  3.71397e+00  9.26970e-01 
 8.75179e+00  3.55170e+00  8.62476e-01 
 8.33116e+00  3.38940e+00  8.02441e-01 
 7.91412e+00  3.22708e+00  7.46577e-01 
 7.50046e+00  3.06481e+00  6.94658e-01 
 7.08981e+00  2.90259e+00  6.46451e-01 
 6.68202e+00  2.74047e+00  6.01773e-01 
 6.27676e+00  2.57843e+00  5.60436e-01 
 5.87391e+00  2.41651e+00  5.22292e-01 
 5.47318e+00  2.25470e+00  4.87189e-01 
 5.07447e+00  2.09302e+00  4.55008e-01 
 4.67753e+00  1.93145e+00  4.25623e-01 
 4.28225e+00  1.77002e+00  3.98941e-01 
 3.88842e+00  1.60869e+00  3.74862e-01 
 3.49594e+00  1.44748e+00  3.53311e-01 
 3.10460e+00  1.28636e+00  3.34209e-01 
 2.71433e+00  1.12536e+00  3.17500e-01 
 2.32491e+00  9.64419e-01  3.03123e-01 
 1.93629e+00  8.03573e-01  2.91036e-01 
 1.54827e+00  6.42773e-01  2.81197e-01 
 1.16078e+00  4.82041e-01  2.73578e-01 
 7.73632e-01  3.21332e-01  2.68152e-01 
 3.86769e-01  1.60666e-01  2.64904e-01 
-2.79563e-12 -1.13197e-12  2.63830e-01 
-3.86769e-01 -1.60666e-01  2.64904e-01 
-7.73632e-01 -3.21332e-01  2.68152e-01 
-1.16078e+00 -4.82041e-01  2.73578e-01 
-1.54827e+00 -6.42773e-01  2.81197e-01 
-1.93629e+00 -8.03573e-01  2.91036e-01 
-2.32491e+00 -9.64419e-01  3.03123e-01 
-2.71433e+00 -1.12536e+00  3.17500e-01 
-3.10460e+00 -1.28636e+00  3.34209e-01 
-3.49594e+00 -1.44748e+00  3.53311e-01 
-3.88842e+00 -1.60869e+00  3.74862e-01 
-4.28225e+00 -1.77002e+00  3.98941e-01 
-4.67753e+00 -1.93145e+00  4.25623e-01 
-5.07447e+00 -2.09302e+00  4.55008e-01 
-5.47318e+00 -2.25470e+00  4.87189e-01 
-5.87391e+00 -2.41651e+00  5.22292e-01 
-6.27676e+00 -2.57843e+00  5.60436e-01 
-6.68202e+00 -2.74047e+00  6.01773e-01 
-7.08981e+00 -2.90259e+00  6.46451e-01 
-7.50046e+00 -3.06481e+00  6.94658e-01 
-7.91412e+00 -3.22708e+00  7.46577e-01 
-8.33116e+00 -3.38940e+00  8.02441e-01 
-8.75179e+00 -3.55170e+00  8.62476e-01 
-9.17642e+00 -3.71397e+00  9.26970e-01 
-9.60533e+00 -3.87612e+00  9.96207e-01 
-1.00390e+01 -4.03811e+00  1.07055e+00 
-1.04779e+01 -4.19982e+00  1.15035e+00 
-1.09226e+01 -4.36118e+00  1.23606e+00 
-1.13735e+01 -4.52204e+00  1.32815e+00 
-1.18316e+01 -4.68225e+00  1.42720e+00 
-1.22976e+01 -4.84160e+00  1.53380e+00 
-1.27725e+01 -4.99989e+00  1.64872e+00 
-1.32575e+01 -5.15679e+00  1.77276e+00 
-1.37542e+01 -5.31197e+00  1.90694e+00 
-1.42641e+01 -5.46498e+00  2.05234e+00 
-1.47898e+01 -5.61531e+00  2.21036e+00 
-1.53339e+01 -5.76228e+00  2.38253e+00 
-1.59003e+01 -5.90511e+00  2.57080e+00 
-1.64938e+01 -6.04284e+00  2.77738e+00 
-1.71210e+01 -6.17435e+00  3.00504e+00 
-1.77909e+01 -6.29833e+00  3.25702e+00 
-1.85166e+01 -6.41348e+00  3.53731e+00 
-1.93168e+01 -6.51865e+00  3.85047e+00 
-2.02207e+01 -6.61365e+00  4.20185e+00 
-2.12741e+01 -6.70094e+00  4.59678e+00 
-2.25554e+01 -6.78979e+00  5.03938e+00 
-2.42053e+01 -6.90654e+00  5.52753e+00 
-2.64994e+01 -7.12461e+00  6.04317e+00 
-3.00220e+01 -7.60454e+00  6.50354e+00 
-3.62201e+01 -9.44014e+00  6.41940e+00 
 2.22376e+01 -2.19305e+00 -1.24328e+00 
 2.52526e+01  3.12989e-01  1.23071e+00 
 2.55272e+01  1.52548e+00  2.39590e+00 
 2.48507e+01  2.29007e+00  3.08351e+00 
 2.38857e+01  2.81049e+00  3.45486e+00 
 2.28684e+01  3.18988e+00  3.63264e+00 
 2.18814e+01  3.47304e+00  3.68919e+00 
 2.09500e+01  3.68505e+00  3.67012e+00 
 2.00785e+01  3.84132e+00  3.60421e+00 
 1.92628e+01  3.95279e+00  3.50994e+00 
 1.84972e+01  4.02746e+00  3.39930e+00 
 1.77751e+01  4.07163e+00  3.28009e+00 
 1.70908e+01  4.09026e+00  3.15745e+00 
 1.64391e+01  4.08740e+00  3.03472e+00 
 1.58157e+01  4.06633e+00  2.91408e+00 
 1.52168e+01  4.02977e+00  2.79689e+00 
 1.46393e+01  3.97997e+00  2.68400e+00 
 1.40806e+01  3.91880e+00  2.57589e+00 
 1.35384e+01  3.84783e+00  2.47282e+00 
 1.30107e+01  3.76839e+00  2.37486e+00 
 1.24960e+01  3.68161e+00  2.28199e+00 
 1.19929e+01  3.58841e+00  2.19411e+00 
 1.15002e+01  3.48964e+00  2.11110e+00 
 1.10167e+01  3.38596e+00  2.03278e+00 
 1.05417e+01  3.27800e+00  1.95899e+00 
 1.00743e+01  3.16625e+00  1.88954e+00 
 9.61381e+00  3.05118e+00  1.82425e+00 
 9.15955e+00  2.93315e+00  1.76295e+00 
 8.71105e+00  2.81253e+00  1.70547e+00 
 8.26772e+00  2.68959e+00  1.65164e+00 
 7.82920e+00  2.56462e+00  1.60132e+00 
 7.39499e+00  2.43782e+00  1.55436e+00 
 6.96481e+00  2.30941e+00  1.51063e+00 
 6.53821e+00  2.17956e+00  1.47001e+00 
 6.11498e+00  2.04844e+00  1.43238e+00 
 5.69473e+00  1.91618e+00  1.39763e+00 
 5.27728e+00  1.78292e+00  1.36567e+00 
 4.86229e+00  1.64877e+00  1.33641e+00 
 4.44959e+00  1.51384e+00  1.30977e+00 
 4.03888e+00  1.37820e+00  1.28569e+00 
 3.63003e+00  1.24198e+00  1.26408e+00 
 3.22274e+00  1.10521e+00  1.24490e+00 
 2.81691e+00  9.68009e-01  1.22809e+00 
 2.41225e+00  8.30403e-01  1.21362e+00 
 2.00867e+00  6.92487e-01  1.20143e+00 
 1.60590e+00  5.54293e-01  1.19150e+00 
 1.20385e+00  4.15905e-01  1.18381e+00 
 8.02273e-01  2.77349e-01  1.17833e+00 
 4.01067e-01  1.38705e-01  1.17504e+00 
-2.94114e-12 -9.78193e-13  1.17395e+00 
-4.01067e-01 -1.38705e-01  1.17504e+00 
-8.02273e-01 -2.77349e-01  1.17833e+00 
-1.20385e+00 -4.15905e-01  1.18381e+00 
-1.60590e+00 -5.54293e-01  1.19150e+00 
-2.00867e+00 -6.92487e-01  1.20143e+00 
-2.41225e+00 -8.30403e-01  1.21362e+00 
-2.81691e+00 -9.68009e-01  1.22809e+00 
-3.22274e+00 -1.10521e+00  1.24490e+00 
-3.63003e+00 -1.24198e+00  1.26408e+00 
-4.03888e+00 -1.37820e+00  1.28569e+00 
-4.44959e+00 -1.51384e+00  1.30977e+00 
-4.86229e+00 -1.64877e+00  1.33641e+00 
-5.27728e+00 -1.78292e+00  1.36567e+00 
-5.69473e+00 -1.91618e+00  1.39763e+00 
-6.11498e+00 -2.04844e+00  1.43238e+00 
-6.53821e+00 -2.17956e+00  1.47001e+00 
-6.96481e+00 -2.30941e+00  1.51063e+00 
-7.39499e+00 -2.43782e+00  1.55436e+00 
-7.82920e+00 -2.56462e+00  1.60132e+00 
-8.26772e+00 -2.68959e+00  1.65164e+00 
-8.71105e+00 -2.81253e+00  1.70547e+00 
-9.15955e+00 -2.93315e+00  1.76295e+00 
-9.61381e+00 -3.05118e+00  1.82425e+00 
-1.00743e+01 -3.16625e+00  1.88954e+00 
-1.05417e+01 -3.27800e+00  1.95899e+00 
-1.10167e+01 -3.38596e+00  2.03278e+00 
-1.15002e+01 -3.48964e+00  2.11110e+00 
-1.19929e+01 -3.58841e+00  2.19411e+00 
-1.24960e+01 -3.68161e+00  2.28199e+00 
-1.30107e+01 -3.76839e+00  2.37486e+00 
-1.35384e+01 -3.84783e+00  2.47282e+00 
-1.40806e+01 -3.91880e+00  2.57589e+00 
-1.46393e+01 -3.97997e+00  2.68400e+00 
-1.52168e+01 -4.02977e+00  2.79689e+00 
-1.58157e+01 -4.06633e+00  2.91408e+00 
-1.64391e+01 -4.08740e+00  3.03472e+00 
-1.70908e+01 -4.09026e+00  3.15745e+00 
-1.77751e+01 -4.07163e+00  3.28009e+00 
-1.84972e+01 -4.02746e+00  3.39930e+00 
-1.92628e+01 -3.95279e+00  3.50994e+00 
-2.00785e+01 -3.84132e+00  3.60421e+00 
-2.09500e+01 -3.68505e+00  3.67012e+00 
-2.18814e+01 -3.47304e+00  3.68919e+00 
-2.28684e+01 -3.18988e+00  3.63264e+00 
-2.38857e+01 -2.81049e+00  3.45486e+00 
-2.48507e+01 -2.29007e+00  3.08351e+00 
-2.55272e+01 -1.52548e+00  2.39590e+00 
-2.52526e+01 -3.12989e-01  1.23071e+00 
-2.22376e+01  2.19305e+00 -1.24328e+00 
 2.18082e+01 -5.83199e-02 -1.66029e-01 
 2.16057e+01 -4.06359e-01  5.81718e-02 
 2.19411e+01 -1.31422e-01  5.66544e-01 
 2.20577e+01  2.59591e-01  1.07914e+00 
 2.18986e+01  6.52258e-01  1.53169e+00 
 2.15337e+01  1.00904e+00  1.89744e+00 
 2.10375e+01  1.32311e+00  2.17938e+00 
 2.04642e+01  1.59518e+00  2.38864e+00 
 1.98501e+01  1.82801e+00  2.53797e+00 
 1.92178e+01  2.02508e+00  2.63930e+00 
 1.85814e+01  2.18968e+00  2.70274e+00 
 1.79493e+01  2.32510e+00  2.73667e+00 
 1.73264e+01  2.43424e+00  2.74783e+00 
 1.67153e+01  2.51986e+00  2.74157e+00 
 1.61173e+01  2.58438e+00  2.72214e+00 
 1.55327e+01  2.63006e+00  2.69289e+00 
 1.49616e+01  2.65887e+00  2.65646e+00 
 1.44033e+01  2.67259e+00  2.61491e+00 
 1.38573e+01  2.67281e+00  2.56989e+00 
 1.33228e+01  2.66094e+00  2.52264e+00 
 1.27993e+01  2.63823e+00  2.47418e+00 
 1.22858e+01  2.60581e+00  2.42528e+00 
 1.17817e+01  2.56467e+00  2.37655e+00 
 1.12863e+01  2.51568e+00  2.32845e+00 
 1.07990e+01  2.45965e+00  2.28135e+00 
 1.03191e+01  2.39726e+00  2.23553e+00 
 9.84613e+00  2.32916e+00  2.19120e+00 
 9.37948e+00  2.25590e+00  2.14852e+00 
 8.91874e+00  2.17799e+00  2.10761e+00 
 8.46338e+00  2.09586e+00  2.06854e+00 
 8.01307e+00  2.00996e+00  2.03138e+00 
 7.56733e+00  1.92061e+00  1.99617e+00 
 7.12587e+00  1.82819e+00  1.96293e+00 
 6.68827e+00  1.73296e+00  1.93167e+00 
 6.25430e+00  1.63522e+00  1.90240e+00 
 5.82356e+00  1.53521e+00  1.87511e+00 
 5.39586e+00  1.43317e+00  1.84979e+00 
 4.97085e+00  1.32930e+00  1.82643e+00 
 4.54834e+00  1.22380e+00  1.80502e+00 
 4.12803e+00  1.11684e+00  1.78553e+00 
 3.70974e+00  1.00861e+00  1.76797e+00 
 3.29319e+00  8.99238e-01  1.75230e+00 
 2.87823e+00  7.88898e-01  1.73851e+00 
 2.46458e+00  6.77707e-01  1.72659e+00 
 2.05211e+00  5.65818e-01  1.71653e+00 
 1.64055e+00  4.53336e-01  1.70831e+00 
 1.22978e+00  3.40405e-01  1.70193e+00 
 8.19523e-01  2.27121e-01  1.69738e+00 
 4.09684e-01  1.13621e-01  1.69465e+00 
-3.00557e-12 -8.81177e-13  1.69374e+00 
-4.09684e-01 -1.13621e-01  1.69465e+00 
-8.19523e-01 -2.27121e-01  1.69738e+00 
-1.22978e+00 -3.40405e-01  1.70193e+00 
-1.64055e+00 -4.53336e-01  1.70831e+00 
-2.05211e+00 -5.65818e-01  1.71653e+00 
-2.46458e+00 -6.77707e-01  1.72659e+00 
-2.87823e+00 -7.88898e-01  1.73851e+00 
-3.29319e+00 -8.99238e-01  1.75230e+00 
-3.70974e+00 -1.00861e+00  1.76797e+00 
-4.12803e+00 -1.11684e+00  1.78553e+00 
-4.54834e+00 -1.22380e+00  1.80502e+00 
-4.97085e+00 -1.32930e+00  1.82643e+00 
-5.39586e+00 -1.43317e+00  1.84979e+00 
-5.82356e+00 -1.53521e+00  1.87511e+00 
-6.25430e+00 -1.63522e+00  1.90240e+00 
-6.68827e+00 -1.73296e+00  1.93167e+00 
-7.12587e+00 -1.82819e+00  1.96293e+00 
-7.56733e+00 -1.92061e+00  1.99617e+00 
-8.01307e+00 -2.00996e+00  2.03138e+00 
-8.46338e+00 -2.09586e+00  2.06854e+00 
-8.91874e+00 -2.17799e+00  2.10761e+00 
-9.37948e+00 -2.25590e+00  2.14852e+00 
-9.84613e+00 -2.32916e+00  2.19120e+00 
-1.03191e+01 -2.39726e+00  2.23553e+00 
-1.07990e+01 -2.45965e+00  2.28135e+00 
-1.12863e+01 -2.51568e+00  2.32845e+00 
-1.17817e+01 -2.56467e+00  2.37655e+00 
-1.22858e+01 -2.60581e+00  2.42528e+00 
-1.27993e+01 -2.63823e+00  2.47418e+00 
-1.33228e+01 -2.66094e+00  2.52264e+00 
-1.38573e+01 -2.67281e+00  2.56989e+00 
-1.44033e+01 -2.67259e+00  2.61491e+00 
-1.49616e+01 -2.65887e+00  2.65646e+00 
-1.55327e+01 -2.63006e+00  2.69289e+00 
-1.61173e+01 -2.58438e+00  2.72214e+00 
-1.67153e+01 -2.51986e+00  2.74157e+00 
-1.73264e+01 -2.43424e+00  2.74783e+00 
-1.79493e+01 -2.32510e+00  2.73667e+00 
-1.85814e+01 -2.18968e+00  2.70274e+00 
-1.92178e+01 -2.02508e+00  2.63930e+00 
-1.98501e+01 -1.82801e+00  2.53797e+00 
-2.04642e+01 -1.59518e+00  2.38864e+00 
-2.10375e+01 -1.32311e+00  2.17938e+00 
-2.15337e+01 -1.00904e+00  1.89744e+00 
-2.18986e+01 -6.52258e-01  1.53169e+00 
-2.20577e+01 -2.59591e-01  1.07914e+00 
-2.19411e+01  1.31422e-01  5.66544e-01 
-2.16057e+01  4.06359e-01  5.81718e-02 
-2.18082e+01  5.83199e-02 -1.66029e-01 
 2.12049e+01 -7.19092e-02 -7.57521e-02 
 2.10842e+01 -2.63961e-02  1.56172e-01 
 2.08515e+01 -4.90924e-02  3.34528e-01 
 2.06671e+01  6.58795e-03  5.63292e-01 
 2.04678e+01  1.23179e-01  8.17253e-01 
 2.02143e+01  2.75862e-01  1.07439e+00 
 1.98954e+01  4.44350e-01  1.31737e+00 
 1.95159e+01  6.15846e-01  1.53682e+00 
 1.90870e+01  7.82388e-01  1.72866e+00 
 1.86203e+01  9.39293e-01  1.89233e+00 
 1.81266e+01  1.08377e+00  2.02911e+00 
 1.76147e+01  1.21441e+00  2.14136e+00 
 1.70914e+01  1.33053e+00  2.23176e+00 
 1.65619e+01  1.43207e+00  2.30311e+00 
 1.60302e+01  1.51925e+00  2.35804e+00 
 1.54989e+01  1.59261e+00  2.39899e+00 
 1.49702e+01  1.65273e+00  2.42812e+00 
 1.44453e+01  1.70036e+00  2.44735e+00 
 1.39255e+01  1.73622e+00  2.45834e+00 
 1.34110e+01  1.76108e+00  2.46254e+00 
 1.29025e+01  1.77569e+00  2.46116e+00 
 1.23999e+01  1.78079e+00  2.45528e+00 
 1.19035e+01  1.77705e+00  2.44578e+00 
 1.14129e+01  1.76515e+00  2.43344e+00 
 1.09282e+01  1.74572e+00  2.41889e+00 
 1.04491e+01  1.71933e+00  2.40269e+00 
 9.97550e+00  1.68654e+00  2.38530e+00 
 9.50698e+00  1.64785e+00  2.36712e+00 
 9.04340e+00  1.60375e+00  2.34847e+00 
 8.58443e+00  1.55467e+00  2.32964e+00 
 8.12986e+00  1.50102e+00  2.31086e+00 
 7.67935e+00  1.44318e+00  2.29233e+00 
 7.23273e+00  1.38151e+00  2.27422e+00 
 6.78965e+00  1.31634e+00  2.25667e+00 
 6.34993e+00  1.24798e+00  2.23980e+00 
 5.91326e+00  1.17670e+00  2.22370e+00 
 5.47947e+00  1.10279e+00  2.20846e+00 
 5.04824e+00  1.02649e+00  2.19415e+00 
 4.61945e+00  9.48048e-01  2.18083e+00 
 4.19277e+00  8.67669e-01  2.16854e+00 
 3.76808e+00  7.85581e-01  2.15733e+00 
 3.34509e+00  7.01969e-01  2.14722e+00 
 2.92367e+00  6.17040e-01  2.13825e+00 
 2.50354e+00  5.30960e-01  2.13044e+00 
 2.08458e+00  4.43921e-01  2.12380e+00 
 1.66653e+00  3.56077e-01  2.11835e+00 
 1.24926e+00  2.67609e-01  2.11410e+00 
 8.32513e-01  1.78662e-01  2.11106e+00 
 4.16179e-01  8.94123e-02  2.10923e+00 
-3.09084e-12 -8.90269e-13  2.10863e+00 
-4.16179e-01 -8.94123e-02  2.10923e+00 
-8.32513e-01 -1.78662e-01  2.11106e+00 
-1.24926e+00 -2.67609e-01  2.11410e+00 
-1.66653e+00 -3.56077e-01  2.11835e+00 
-2.08458e+00 -4.43921e-01  2.12380e+00 
-2.50354e+00 -5.30960e-01  2.13044e+00 
-2.92367e+00 -6.17040e-01  2.13825e+00 
-3.34509e+00 -7.01969e-01  2.14722e+00 
-3.76808e+00 -7.85581e-01  2.15733e+00 
-4.19277e+00 -8.67669e-01  2.16854e+00 
-4.61945e+00 -9.48048e-01  2.18083e+00 
-5.04824e+00 -1.02649e+00  2.19415e+00 
-5.47947e+00 -1.10279e+00  2.20846e+00 
-5.91326e+00 -1.17670e+00  2.22370e+00 
-6.34993e+00 -1.24798e+00  2.23980e+00 
-6.78965e+00 -1.31634e+00  2.25667e+00 
-7.23273e+00 -1.38151e+00  2.27422e+00 
-7.67935e+00 -1.44318e+00  2.29233e+00 
-8.12986e+00 -1.50102e+00  2.31086e+00 
-8.58443e+00 -1.55467e+00  2.32964e+00 
-9.04340e+00 -1.60375e+00  2.34847e+00 
-9.50698e+00 -1.64785e+00  2.36712e+00 
-9.97550e+00 -1.68654e+00  2.38530e+00 
-1.04491e+01 -1.71933e+00  2.40269e+00 
-1.09282e+01 -1.74572e+00  2.41889e+00 
-1.14129e+01 -1.76515e+00  2.43344e+00 
-1.19035e+01 -1.77705e+00  2.44578e+00 
-1.23999e+01 -1.78079e+00  2.45528e+00 
-1.29025e+01 -1.77569e+00  2.46116e+00 
-1.34110e+01 -1.76108e+00  2.46254e+00 
-1.39255e+01 -1.73622e+00  2.45834e+00 
-1.44453e+01 -1.70036e+00  2.44735e+00 
-1.49702e+01 -1.65273e+00  2.42812e+00 
-1.54989e+01 -1.59261e+00  2.39899e+00 
-1.60302e+01 -1.51925e+00  2.35804e+00 
-1.65619e+01 -1.43207e+00  2.30311e+00 
-1.70914e+01 -1.33053e+00  2.23176e+00 
-1.76147e+01 -1.21441e+00  2.14136e+00 
-1.81266e+01 -1.08377e+00  2.02911e+00 
-1.86203e+01 -9.39293e-01  1.89233e+00 
-1.90870e+01 -7.82388e-01  1.72866e+00 
-1.95159e+01 -6.15846e-01  1.53682e+00 
-1.98954e+01 -4.44350e-01  1.31737e+00 
-2.02143e+01 -2.75862e-01  1.07439e+00 
-2.04678e+01 -1.23179e-01  8.17253e-01 
-2.06671e+01 -6.58795e-03  5.63292e-01 
-2.08515e+01  4.90924e-02  3.34528e-01 
-2.10842e+01  2.63961e-02  1.56172e-01 
-2.12049e+01  7.19092e-02 -7.57521e-02 
 2.07280e+01 -1.92776e-03 -3.08920e-02 
 2.04791e+01 -3.05494e-02  1.22149e-01 
 2.02368e+01 -1.33757e-02  2.67575e-01 
 1.99641e+01  5.10141e-03  4.20827e-01 
 1.96781e+01  3.84056e-02  5.85154e-01 
 1.93778e+01  9.01088e-02  7.57761e-01 
 1.90577e+01  1.58443e-01  9.33723e-01 
 1.87132e+01  2.39121e-01  1.10754e+00 
 1.83432e+01  3.27551e-01  1.27454e+00 
 1.79485e+01  4.19694e-01  1.43139e+00 
 1.75320e+01  5.12224e-01  1.57597e+00 
 1.70970e+01  6.02600e-01  1.70725e+00 
 1.66470e+01  6.88862e-01  1.82494e+00 
 1.61854e+01  7.69631e-01  1.92933e+00 
 1.57152e+01  8.43895e-01  2.02104e+00 
 1.52388e+01  9.11025e-01  2.10091e+00 
 1.47585e+01  9.70604e-01  2.16991e+00 
 1.42761e+01  1.02246e+00  2.22905e+00 
 1.37929e+01  1.06654e+00  2.27931e+00 
 1.33100e+01  1.10293e+00  2.32166e+00 
 1.28285e+01  1.13178e+00  2.35699e+00 
 1.23489e+01  1.15334e+00  2.38615e+00 
 1.18717e+01  1.16787e+00  2.40990e+00 
 1.13974e+01  1.17567e+00  2.42895e+00 
 1.09261e+01  1.17706e+00  2.44391e+00 
 1.04581e+01  1.17239e+00  2.45536e+00 
 9.99339e+00  1.16197e+00  2.46380e+00 
 9.53201e+00  1.14615e+00  2.46968e+00 
 9.07400e+00  1.12526e+00  2.47340e+00 
 8.61923e+00  1.09962e+00  2.47530e+00 
 8.16769e+00  1.06954e+00  2.47571e+00 
 7.71920e+00  1.03534e+00  2.47490e+00 
 7.27371e+00  9.97293e-01  2.47311e+00 
 6.83100e+00  9.55694e-01  2.47056e+00 
 6.39102e+00  9.10815e-01  2.46743e+00 
 5.95351e+00  8.62911e-01  2.46390e+00 
 5.51840e+00  8.12239e-01  2.46010e+00 
 5.08545e+00  7.59033e-01  2.45616e+00 
 4.65457e+00  7.03531e-01  2.45219e+00 
 4.22551e+00  6.45947e-01  2.44829e+00 
 3.79818e+00  5.86504e-01  2.44453e+00 
 3.37232e+00  5.25401e-01  2.44100e+00 
 2.94786e+00  4.62847e-01  2.43776e+00 
 2.52453e+00  3.99027e-01  2.43485e+00 
 2.10226e+00  3.34142e-01  2.43232e+00 
 1.68078e+00  2.68364e-01  2.43020e+00 
 1.26002e+00  2.01889e-01  2.42852e+00 
 8.39714e-01  1.34881e-01  2.42731e+00 
 4.19789e-01  6.75300e-02  2.42658e+00 
-3.14542e-12 -8.97251e-13  2.42633e+00 
-4.19789e-01 -6.75300e-02  2.42658e+00 
-8.39714e-01 -1.34881e-01  2.42731e+00 
-1.26002e+00 -2.01889e-01  2.42852e+00 
-1.68078e+00 -2.68364e-01  2.43020e+00 
-2.10226e+00 -3.34142e-01  2.43232e+00 
-2.52453e+00 -3.99027e-01  2.43485e+00 
-2.94786e+00 -4.62847e-01  2.43776e+00 
-3.37232e+00 -5.25401e-01  2.44100e+00 
-3.79818e+00 -5.86504e-01  2.44453e+00 
-4.22551e+00 -6.45947e-01  2.44829e+00 
-4.65457e+00 -7.03531e-01  2.45219e+00 
-5.08545e+00 -7.59033e-01  2.45616e+00 
-5.51840e+00 -8.12239e-01  2.46010e+00 
-5.95351e+00 -8.62911e-01  2.46390e+00 
-6.39102e+00 -9.10815e-01  2.46743e+00 
-6.83100e+00 -9.55694e-01  2.47056e+00 
-7.27371e+00 -9.97293e-01  2.47311e+00 
-7.71920e+00 -1.03534e+00  2.47490e+00 
-8.16769e+00 -1.06954e+00  2.47571e+00 
-8.61923e+00 -1.09962e+00  2.47530e+00 
-9.07400e+00 -1.12526e+00  2.47340e+00 
-9.53201e+00 -1.14615e+00  2.46968e+00 
-9.99339e+00 -1.16197e+00  2.46380e+00 
-1.04581e+01 -1.17239e+00  2.45536e+00 
-1.09261e+01 -1.17706e+00  2.44391e+00 
-1.13974e+01 -1.17567e+00  2.42895e+00 
-1.18717e+01 -1.16787e+00  2.40990e+00 
-1.23489e+01 -1.15334e+00  2.38615e+00 
-1.28285e+01 -1.13178e+00  2.35699e+00 
-1.33100e+01 -1.10293e+00  2.32166e+00 
-1.37929e+01 -1.06654e+00  2.27931e+00 
-1.42761e+01 -1.02246e+00  2.22905e+00 
-1.47585e+01 -9.70604e-01  2.16991e+00 
-1.52388e+01 -9.11025e-01  2.10091e+00 
-1.57152e+01 -8.43895e-01  2.02104e+00 
-1.61854e+01 -7.69631e-01  1.92933e+00 
-1.66470e+01 -6.88862e-01  1.82494e+00 
-1.70970e+01 -6.02600e-01  1.70725e+00 
-1.75320e+01 -5.12224e-01  1.57597e+00 
-1.79485e+01 -4.19694e-01  1.43139e+00 
-1.83432e+01 -3.27551e-01  1.27454e+00 
-1.87132e+01 -2.39121e-01  1.10754e+00 
-1.90577e+01 -1.58443e-01  9.33723e-01 
-1.93778e+01 -9.01088e-02  7.57761e-01 
-1.96781e+01 -3.84056e-02  5.85154e-01 
-1.99641e+01 -5.10141e-03  4.20827e-01 
-2.02368e+01  1.33757e-02  2.67575e-01 
-2.04791e+01  3.05494e-02  1.22149e-01 
-2.07280e+01  1.92776e-03 -3.08920e-02 
 2.03231e+01  1.51656e-02 -9.85258e-03 
 2.00183e+01 -1.01971e-02  1.22140e-01 
 1.97172e+01 -1.10016e-02  2.36425e-01 
 1.94122e+01 -3.19690e-03  3.60730e-01 
 1.90972e+01  1.07716e-02  4.91685e-01 
 1.87717e+01  3.15560e-02  6.27586e-01 
 1.84354e+01  5.97878e-02  7.66676e-01 
 1.80875e+01  9.53968e-02  9.07064e-01 
 1.77271e+01  1.37511e-01  1.04663e+00 
 1.73535e+01  1.84799e-01  1.18338e+00 
 1.69671e+01  2.35716e-01  1.31553e+00 
 1.65683e+01  2.88746e-01  1.44171e+00 
 1.61582e+01  3.42463e-01  1.56090e+00 
 1.57381e+01  3.95640e-01  1.67245e+00 
 1.53094e+01  4.47207e-01  1.77600e+00 
 1.48735e+01  4.96312e-01  1.87149e+00 
 1.44320e+01  5.42245e-01  1.95898e+00 
 1.39859e+01  5.84481e-01  2.03873e+00 
 1.35364e+01  6.22601e-01  2.11108e+00 
 1.30846e+01  6.56332e-01  2.17646e+00 
 1.26314e+01  6.85472e-01  2.23528e+00 
 1.21774e+01  7.09928e-01  2.28804e+00 
 1.17233e+01  7.29649e-01  2.33520e+00 
 1.12696e+01  7.44666e-01  2.37724e+00 
 1.08167e+01  7.55031e-01  2.41458e+00 
 1.03649e+01  7.60853e-01  2.44767e+00 
 9.91465e+00  7.62253e-01  2.47690e+00 
 9.46593e+00  7.59389e-01  2.50266e+00 
 9.01900e+00  7.52421e-01  2.52528e+00 
 8.57388e+00  7.41534e-01  2.54511e+00 
 8.13071e+00  7.26915e-01  2.56242e+00 
 7.68943e+00  7.08759e-01  2.57751e+00 
 7.25012e+00  6.87265e-01  2.59060e+00 
 6.81267e+00  6.62633e-01  2.60193e+00 
 6.37711e+00  6.35065e-01  2.61171e+00 
 5.94330e+00  6.04759e-01  2.62011e+00 
 5.51124e+00  5.71917e-01  2.62729e+00 
 5.08076e+00  5.36733e-01  2.63342e+00 
 4.65184e+00  4.99403e-01  2.63862e+00 
 4.22430e+00  4.60117e-01  2.64301e+00 
 3.79810e+00  4.19066e-01  2.64669e+00 
 3.37304e+00  3.76432e-01  2.64975e+00 
 2.94908e+00  3.32405e-01  2.65228e+00 
 2.52601e+00  2.87157e-01  2.65433e+00 
 2.10379e+00  2.40875e-01  2.65598e+00 
 1.68220e+00  1.93727e-01  2.65726e+00 
 1.26119e+00  1.45897e-01  2.65822e+00 
 8.40552e-01  9.75476e-02  2.65889e+00 
 4.20224e-01  4.88610e-02  2.65928e+00 
-3.33368e-12 -1.03393e-12  2.65940e+00 
-4.20224e-01 -4.88610e-02  2.65928e+00 
-8.40552e-01 -9.75476e-02  2.65889e+00 
-1.26119e+00 -1.45897e-01  2.65822e+00 
-1.68220e+00 -1.93727e-01  2.65726e+00 
-2.10379e+00 -2.40875e-01  2.65598e+00 
-2.52601e+00 -2.87157e-01  2.65433e+00 
-2.94908e+00 -3.32405e-01  2.65228e+00 
-3.37304e+00 -3.76432e-01  2.64975e+00 
-3.79810e+00 -4.19066e-01  2.64669e+00 
-4.22430e+00 -4.60117e-01  2.64301e+00 
-4.65184e+00 -4.99403e-01  2.63862e+00 
-5.08076e+00 -5.36733e-01  2.63342e+00 
-5.51124e+00 -5.71917e-01  2.62729e+00 
-5.94330e+00 -6.04759e-01  2.62011e+00 
-6.37711e+00 -6.35065e-01  2.61171e+00 
-6.81267e+00 -6.62633e-01  2.60193e+00 
-7.25012e+00 -6.87265e-01  2.59060e+00 
-7.68943e+00 -7.08759e-01  2.57751e+00 
-8.13071e+00 -7.26915e-01  2.56242e+00 
-8.57388e+00 -7.41534e-01  2.54511e+00 
-9.01900e+00 -7.52421e-01  2.52528e+00 
-9.46593e+00 -7.59389e-01  2.50266e+00 
-9.91465e+00 -7.62253e-01  2.47690e+00 
-1.03649e+01 -7.60853e-01  2.44767e+00 
-1.08167e+01 -7.55031e-01  2.41458e+00 
-1.12696e+01 -7.44666e-01  2.37724e+00 
-1.17233e+01 -7.29649e-01  2.33520e+00 
-1.21774e+01 -7.09928e-01  2.28804e+00 
-1.26314e+01 -6.85472e-01  2.23528e+00 
-1.30846e+01 -6.56332e-01  2.17646e+00 
-1.35364e+01 -6.22601e-01  2.11108e+00 
-1.39859e+01 -5.84481e-01  2.03873e+00 
-1.44320e+01 -5.42245e-01  1.95898e+00 
-1.48735e+01 -4.96312e-01  1.87149e+00 
-1.53094e+01 -4.47207e-01  1.77600e+00 
-1.57381e+01 -3.95640e-01  1.67245e+00 
-1.61582e+01 -3.42463e-01  1.56090e+00 
-1.65683e+01 -2.88746e-01  1.44171e+00 
-1.69671e+01 -2.35716e-01  1.31553e+00 
-1.73535e+01 -1.84799e-01  1.18338e+00 
-1.77271e+01 -1.37511e-01  1.04663e+00 
-1.80875e+01 -9.53968e-02  9.07064e-01 
-1.84354e+01 -5.97878e-02  7.66676e-01 
-1.87717e+01 -3.15560e-02  6.27586e-01 
-1.90972e+01 -1.07716e-02  4.91685e-01 
-1.94122e+01  3.19690e-03  3.60730e-01 
-1.97172e+01  1.10016e-02  2.36425e-01 
-2.00183e+01  1.01971e-02  1.22140e-01 
-2.03231e+01 -1.51656e-02 -9.85258e-03 
 1.99384e+01  2.50276e-02  2.43701e-03 
 1.95988e+01 -4.64979e-03  1.27437e-01 
 1.92697e+01 -5.94798e-03  2.31596e-01 
 1.89376e+01 -5.28935e-03  3.41008e-01 
 1.86021e+01 -1.18671e-03  4.55125e-01 
 1.82615e+01  6.60171e-03  5.72843e-01 
 1.79150e+01  1.82223e-02  6.93026e-01 
 1.75619e+01  3.37425e-02  8.14602e-01 
 1.72017e+01  5.30803e-02  9.36470e-01 
 1.68340e+01  7.59568e-02  1.05759e+00 
 1.64588e+01  1.01900e-01  1.17690e+00 
 1.60760e+01  1.30318e-01  1.29350e+00 
 1.56858e+01  1.60532e-01  1.40653e+00 
 1.52885e+01  1.91858e-01  1.51534e+00 
 1.48848e+01  2.23613e-01  1.61938e+00 
 1.44751e+01  2.55177e-01  1.71829e+00 
 1.40602e+01  2.85971e-01  1.81181e+00 
 1.36408e+01  3.15503e-01  1.89983e+00 
 1.32176e+01  3.43333e-01  1.98230e+00 
 1.27912e+01  3.69110e-01  2.05931e+00 
 1.23622e+01  3.92530e-01  2.13095e+00 
 1.19313e+01  4.13371e-01  2.19742e+00 
 1.14990e+01  4.31446e-01  2.25889e+00 
 1.10656e+01  4.46637e-01  2.31563e+00 
 1.06318e+01  4.58855e-01  2.36785e+00 
 1.01976e+01  4.68063e-01  2.41584e+00 
 9.76352e+00  4.74244e-01  2.45983e+00 
 9.32973e+00  4.77424e-01  2.50010e+00 
 8.89650e+00  4.77641e-01  2.53687e+00 
 8.46391e+00  4.74964e-01  2.57041e+00 
 8.03219e+00  4.69471e-01  2.60093e+00 
 7.60134e+00  4.61262e-01  2.62866e+00 
 7.17152e+00  4.50443e-01  2.65380e+00 
 6.74269e+00  4.37134e-01  2.67655e+00 
 6.31496e+00  4.21461e-01  2.69708e+00 
 5.88826e+00  4.03556e-01  2.71556e+00 
 5.46264e+00  3.83558e-01  2.73214e+00 
 5.03801e+00  3.61607e-01  2.74697e+00 
 4.61441e+00  3.37851e-01  2.76016e+00 
 4.19170e+00  3.12432e-01  2.77184e+00 
 3.76991e+00  2.85504e-01  2.78210e+00 
 3.34888e+00  2.57213e-01  2.79105e+00 
 2.92863e+00  2.27712e-01  2.79876e+00 
 2.50899e+00  1.97150e-01  2.80530e+00 
 2.08996e+00  1.65680e-01  2.81074e+00 
 1.67137e+00  1.33452e-01  2.81512e+00 
 1.25320e+00  1.00620e-01  2.81848e+00 
 8.35287e-01  6.73309e-02  2.82086e+00 
 4.17610e-01  3.37423e-02  2.82228e+00 
-3.31850e-12 -1.15180e-12  2.82275e+00 
-4.17610e-01 -3.37423e-02  2.82228e+00 
-8.35287e-01 -6.73309e-02  2.82086e+00 
-1.25320e+00 -1.00620e-01  2.81848e+00 
-1.67137e+00 -1.33452e-01  2.81512e+00 
-2.08996e+00 -1.65680e-01  2.81074e+00 
-2.50899e+00 -1.97150e-01  2.80530e+00 
-2.92863e+00 -2.27712e-01  2.79876e+00 
-3.34888e+00 -2.57213e-01  2.79105e+00 
-3.76991e+00 -2.85504e-01  2.78210e+00 
-4.19170e+00 -3.12432e-01  2.77184e+00 
-4.61441e+00 -3.37851e-01  2.76016e+00 
-5.03801e+00 -3.61607e-01  2.74697e+00 
-5.46264e+00 -3.83558e-01  2.73214e+00 
-5.88826e+00 -4.03556e-01  2.71556e+00 
-6.31496e+00 -4.21461e-01  2.69708e+00 
-6.74269e+00 -4.37134e-01  2.67655e+00 
-7.17152e+00 -4.50443e-01  2.65380e+00 
-7.60134e+00 -4.61262e-01  2.62866e+00 
-8.03219e+00 -4.69471e-01  2.60093e+00 
-8.46391e+00 -4.74964e-01  2.57041e+00 
-8.89650e+00 -4.77641e-01  2.53687e+00 
-9.32973e+00 -4.77424e-01  2.50010e+00 
-9.76352e+00 -4.74244e-01  2.45983e+00 
-1.01976e+01 -4.68063e-01  2.41584e+00 
-1.06318e+01 -4.58855e-01  2.36785e+00 
-1.10656e+01 -4.46637e-01  2.31563e+00 
-1.14990e+01 -4.31446e-01  2.25889e+00 
-1.19313e+01 -4.13371e-01  2.19742e+00 
-1.23622e+01 -3.92530e-01  2.13095e+00 
-1.27912e+01 -3.69110e-01  2.05931e+00 
-1.32176e+01 -3.43333e-01  1.98230e+00 
-1.36408e+01 -3.15503e-01  1.89983e+00 
-1.40602e+01 -2.85971e-01  1.81181e+00 
-1.44751e+01 -2.55177e-01  1.71829e+00 
-1.48848e+01 -2.23613e-01  1.61938e+00 
-1.52885e+01 -1.91858e-01  1.51534e+00 
-1.56858e+01 -1.60532e-01  1.40653e+00 
-1.60760e+01 -1.30318e-01  1.29350e+00 
-1.64588e+01 -1.01900e-01  1.17690e+00 
-1.68340e+01 -7.59568e-02  1.05759e+00 
-1.72017e+01 -5.30803e-02  9.36470e-01 
-1.75619e+01 -3.37425e-02  8.14602e-01 
-1.79150e+01 -1.82223e-02  6.93026e-01 
-1.82615e+01 -6.60171e-03  5.72843e-01 
-1.86021e+01  1.18671e-03  4.55125e-01 
-1.89376e+01  5.28935e-03  3.41008e-01 
-1.92697e+01  5.94798e-03  2.31596e-01 
-1.95988e+01  4.64979e-03  1.27437e-01 
-1.99384e+01 -2.50276e-02  2.43701e-03 
 1.95525e+01  2.93782e-02  1.03965e-02 
 1.91934e+01 -1.48279e-03  1.35277e-01 
 1.88471e+01 -3.88435e-03  2.35880e-01 
 1.85002e+01 -5.33852e-03  3.39582e-01 
 1.81518e+01 -5.50343e-03  4.45892e-01 
 1.78012e+01 -3.93408e-03  5.54358e-01 
 1.74477e+01 -3.56189e-04  6.64390e-01 
 1.70906e+01  5.38014e-03  7.75390e-01 
 1.67296e+01  1.33260e-02  8.86702e-01 
 1.63643e+01  2.34496e-02  9.97715e-01 
 1.59944e+01  3.56315e-02  1.10779e+00 
 1.56198e+01  4.96779e-02  1.21635e+00 
 1.52405e+01  6.53232e-02  1.32283e+00 
 1.48565e+01  8.22594e-02  1.42676e+00 
 1.44679e+01  1.00140e-01  1.52766e+00 
 1.40750e+01  1.18616e-01  1.62520e+00 
 1.36782e+01  1.37327e-01  1.71906e+00 
 1.32775e+01  1.55939e-01  1.80903e+00 
 1.28735e+01  1.74129e-01  1.89493e+00 
 1.24665e+01  1.91610e-01  1.97668e+00 
 1.20570e+01  2.08117e-01  2.05422e+00 
 1.16451e+01  2.23429e-01  2.12756e+00 
 1.12314e+01  2.37346e-01  2.19672e+00 
 1.08161e+01  2.49711e-01  2.26179e+00 
 1.03996e+01  2.60388e-01  2.32286e+00 
 9.98208e+00  2.69281e-01  2.38005e+00 
 9.56390e+00  2.76311e-01  2.43348e+00 
 9.14520e+00  2.81433e-01  2.48331e+00 
 8.72626e+00  2.84616e-01  2.52967e+00 
 8.30717e+00  2.85857e-01  2.57271e+00 
 7.88817e+00  2.85165e-01  2.61260e+00 
 7.46930e+00  2.82571e-01  2.64947e+00 
 7.05074e+00  2.78114e-01  2.68347e+00 
 6.63249e+00  2.71851e-01  2.71475e+00 
 6.21470e+00  2.63847e-01  2.74344e+00 
 5.79733e+00  2.54178e-01  2.76967e+00 
 5.38049e+00  2.42927e-01  2.79356e+00 
 4.96412e+00  2.30184e-01  2.81523e+00 
 4.54830e+00  2.16048e-01  2.83477e+00 
 4.13294e+00  2.00617e-01  2.85230e+00 
 3.71811e+00  1.84002e-01  2.86789e+00 
 3.30369e+00  1.66308e-01  2.88162e+00 
 2.88975e+00  1.47652e-01  2.89357e+00 
 2.47615e+00  1.28147e-01  2.90381e+00 
 2.06294e+00  1.07913e-01  2.91237e+00 
 1.64997e+00  8.70659e-02  2.91932e+00 
 1.23729e+00  6.57305e-02  2.92468e+00 
 8.24739e-01  4.40247e-02  2.92850e+00 
 4.12354e-01  2.20747e-02  2.93077e+00 
-3.15928e-12 -1.68427e-12  2.93153e+00 
-4.12354e-01 -2.20747e-02  2.93077e+00 
-8.24739e-01 -4.40247e-02  2.92850e+00 
-1.23729e+00 -6.57305e-02  2.92468e+00 
-1.64997e+00 -8.70659e-02  2.91932e+00 
-2.06294e+00 -1.07913e-01  2.91237e+00 
-2.47615e+00 -1.28147e-01  2.90381e+00 
-2.88975e+00 -1.47652e-01  2.89357e+00 
-3.30369e+00 -1.66308e-01  2.88162e+00 
-3.71811e+00 -1.84002e-01  2.86789e+00 
-4.13294e+00 -2.00617e-01  2.85230e+00 
-4.54830e+00 -2.16048e-01  2.83477e+00 
-4.96412e+00 -2.30184e-01  2.81523e+00 
-5.38049e+00 -2.42927e-01  2.79356e+00 
-5.79733e+00 -2.54178e-01  2.76967e+00 
-6.21470e+00 -2.63847e-01  2.74344e+00 
-6.63249e+00 -2.71851e-01  2.71475e+00 
-7.05074e+00 -2.78114e-01  2.68347e+00 
-7.46930e+00 -2.82571e-01  2.64947e+00 
-7.88817e+00 -2.85165e-01  2.61260e+00 
-8.30717e+00 -2.85857e-01  2.57271e+00 
-8.72626e+00 -2.84616e-01  2.52967e+00 
-9.14520e+00 -2.81433e-01  2.48331e+00 
-9.56390e+00 -2.76311e-01  2.43348e+00 
-9.98208e+00 -2.69281e-01  2.38005e+00 
-1.03996e+01 -2.60388e-01  2.32286e+00 
-1.08161e+01 -2.49711e-01  2.26179e+00 
-1.12314e+01 -2.37346e-01  2.19672e+00 
-1.16451e+01 -2.23429e-01  2.12756e+00 
-1.20570e+01 -2.08117e-01  2.05422e+00 
-1.24665e+01 -1.91610e-01  1.97668e+00 
-1.28735e+01 -1.74129e-01  1.89493e+00 
-1.32775e+01 -1.55939e-01  1.80903e+00 
-1.36782e+01 -1.37327e-01  1.71906e+00 
-1.40750e+01 -1.18616e-01  1.62520e+00 
-1.44679e+01 -1.00140e-01  1.52766e+00 
-1.48565e+01 -8.22594e-02  1.42676e+00 
-1.52405e+01 -6.53232e-02  1.32283e+00 
-1.56198e+01 -4.96779e-02  1.21635e+00 
-1.59944e+01 -3.56315e-02  1.10779e+00 
-1.63643e+01 -2.34496e-02  9.97715e-01 
-1.67296e+01 -1.33260e-02  8.86702e-01 
-1.70906e+01 -5.38014e-03  7.75390e-01 
-1.74477e+01  3.56189e-04  6.64390e-01 
-1.78012e+01  3.93408e-03  5.54358e-01 
-1.81518e+01  5.50343e-03  4.45892e-01 
-1.85002e+01  5.33852e-03  3.39582e-01 
-1.88471e+01  3.88435e-03  2.35880e-01 
-1.91934e+01  1.48279e-03  1.35277e-01 
-1.95525e+01 -2.93782e-02  1.03965e-02 
 1.91560e+01  3.13781e-02  1.58582e-02 
 1.87868e+01 -4.62975e-05  1.43495e-01 
 1.84317e+01 -2.51579e-03  2.43992e-01 
 1.80769e+01 -4.89983e-03  3.45950e-01 
 1.77219e+01 -6.82352e-03  4.49151e-01 
 1.73660e+01 -8.02627e-03  5.53342e-01 
 1.70089e+01 -8.27846e-03  6.58200e-01 
 1.66500e+01 -7.40660e-03  7.63411e-01 
 1.62890e+01 -5.29666e-03  8.68591e-01 
 1.59255e+01 -1.89148e-03  9.73384e-01 
 1.55594e+01  2.81331e-03  1.07739e+00 
 1.51904e+01  8.77625e-03  1.18026e+00 
 1.48184e+01  1.59110e-02  1.28160e+00 
 1.44433e+01  2.40974e-02  1.38110e+00 
 1.40651e+01  3.31815e-02  1.47842e+00 
 1.36839e+01  4.29917e-02  1.57330e+00 
 1.32998e+01  5.33364e-02  1.66546e+00 
 1.29128e+01  6.40223e-02  1.75470e+00 
 1.25233e+01  7.48489e-02  1.84084e+00 
 1.21312e+01  8.56270e-02  1.92375e+00 
 1.17369e+01  9.61691e-02  2.00330e+00 
 1.13405e+01  1.06307e-01  2.07944e+00 
 1.09422e+01  1.15881e-01  2.15210e+00 
 1.05423e+01  1.24753e-01  2.22130e+00 
 1.01410e+01  1.32797e-01  2.28702e+00 
 9.73848e+00  1.39910e-01  2.34929e+00 
 9.33492e+00  1.46001e-01  2.40817e+00 
 8.93045e+00  1.51003e-01  2.46370e+00 
 8.52531e+00  1.54856e-01  2.51596e+00 
 8.11958e+00  1.57527e-01  2.56502e+00 
 7.71347e+00  1.58987e-01  2.61097e+00 
 7.30702e+00  1.59230e-01  2.65389e+00 
 6.90040e+00  1.58255e-01  2.69387e+00 
 6.49364e+00  1.56078e-01  2.73101e+00 
 6.08687e+00  1.52723e-01  2.76539e+00 
 5.68010e+00  1.48224e-01  2.79710e+00 
 5.27344e+00  1.42624e-01  2.82622e+00 
 4.86685e+00  1.35973e-01  2.85284e+00 
 4.46045e+00  1.28330e-01  2.87703e+00 
 4.05418e+00  1.19758e-01  2.89887e+00 
 3.64812e+00  1.10325e-01  2.91842e+00 
 3.24220e+00  1.00106e-01  2.93575e+00 
 2.83649e+00  8.91793e-02  2.95090e+00 
 2.43091e+00  7.76245e-02  2.96393e+00 
 2.02553e+00  6.55277e-02  2.97489e+00 
 1.62024e+00  5.29740e-02  2.98380e+00 
 1.21509e+00  4.00542e-02  2.99070e+00 
 8.09997e-01  2.68567e-02  2.99561e+00 
 4.04999e-01  1.34751e-02  2.99855e+00 
-3.32500e-12 -2.35078e-12  2.99953e+00 
-4.04999e-01 -1.34751e-02  2.99855e+00 
-8.09997e-01 -2.68567e-02  2.99561e+00 
-1.21509e+00 -4.00542e-02  2.99070e+00 
-1.62024e+00 -5.29740e-02  2.98380e+00 
-2.02553e+00 -6.55277e-02  2.97489e+00 
-2.43091e+00 -7.76245e-02  2.96393e+00 
-2.83649e+00 -8.91793e-02  2.95090e+00 
-3.24220e+00 -1.00106e-01  2.93575e+00 
-3.64812e+00 -1.10325e-01  2.91842e+00 
-4.05418e+00 -1.19758e-01  2.89887e+00 
-4.46045e+00 -1.28330e-01  2.87703e+00 
-4.86685e+00 -1.35973e-01  2.85284e+00 
-5.27344e+00 -1.42624e-01  2.82622e+00 
-5.68010e+00 -1.48224e-01  2.79710e+00 
-6.08687e+00 -1.52723e-01  2.76539e+00 
-6.49364e+00 -1.56078e-01  2.73101e+00 
-6.90040e+00 -1.58255e-01  2.69387e+00 
-7.30702e+00 -1.59230e-01  2.65389e+00 
-7.71347e+00 -1.58987e-01  2.61097e+00 
-8.11958e+00 -1.57527e-01  2.56502e+00 
-8.52531e+00 -1.54856e-01  2.51596e+00 
-8.93045e+00 -1.51003e-01  2.46370e+00 
-9.33492e+00 -1.46001e-01  2.40817e+00 
-9.73848e+00 -1.39910e-01  2.34929e+00 
-1.01410e+01 -1.32797e-01  2.28702e+00 
-1.05423e+01 -1.24753e-01  2.22130e+00 
-1.09422e+01 -1.15881e-01  2.15210e+00 
-1.13405e+01 -1.06307e-01  2.07944e+00 
-1.17369e+01 -9.61691e-02  2.00330e+00 
-1.21312e+01 -8.56270e-02  1.92375e+00 
-1.25233e+01 -7.48489e-02  1.84084e+00 
-1.29128e+01 -6.40223e-02  1.75470e+00 
-1.32998e+01 -5.33364e-02  1.66546e+00 
-1.36839e+01 -4.29917e-02  1.57330e+00 
-1.40651e+01 -3.31815e-02  1.47842e+00 
-1.44433e+01 -2.40974e-02  1.38110e+00 
-1.48184e+01 -1.59110e-02  1.28160e+00 
-1.51904e+01 -8.77625e-03  1.18026e+00 
-1.55594e+01 -2.81331e-03  1.07739e+00 
-1.59255e+01  1.89148e-03  9.73384e-01 
-1.62890e+01  5.29666e-03  8.68591e-01 
-1.66500e+01  7.40660e-03  7.63411e-01 
-1.70089e+01  8.27846e-03  6.58200e-01 
-1.73660e+01  8.02627e-03  5.53342e-01 
-1.77219e+01  6.82352e-03  4.49151e-01 
-1.80769e+01  4.89983e-03  3.45950e-01 
-1.84317e+01  2.51579e-03  2.43992e-01 
-1.87868e+01  4.62975e-05  1.43495e-01 
-1.91560e+01 -3.13781e-02  1.58582e-02 
 1.87455e+01  3.20371e-02  1.97331e-02 
 1.83726e+01  6.30991e-04  1.51164e-01 
 1.80142e+01 -1.67509e-03  2.53064e-01 
 1.76566e+01 -4.22626e-03  3.55299e-01 
 1.72994e+01 -6.78211e-03  4.57752e-01 
 1.69421e+01 -9.13148e-03  5.60315e-01 
 1.65845e+01 -1.10966e-02  6.62807e-01 
 1.62260e+01 -1.25303e-02  7.65061e-01 
 1.58665e+01 -1.33160e-02  8.66852e-01 
 1.55057e+01 -1.33700e-02  9.67979e-01 
 1.51434e+01 -1.26407e-02  1.06819e+00 
 1.47793e+01 -1.11067e-02  1.16727e+00 
 1.44133e+01 -8.77536e-03  1.26497e+00 
 1.40454e+01 -5.67881e-03  1.36108e+00 
 1.36755e+01 -1.87287e-03  1.45535e+00 
 1.33034e+01  2.56949e-03  1.54761e+00 
 1.29294e+01  7.55764e-03  1.63764e+00 
 1.25532e+01  1.29922e-02  1.72529e+00 
 1.21751e+01  1.87628e-02  1.81038e+00 
 1.17950e+01  2.47583e-02  1.89281e+00 
 1.14132e+01  3.08626e-02  1.97244e+00 
 1.10296e+01  3.69654e-02  2.04919e+00 
 1.06444e+01  4.29561e-02  2.12298e+00 
 1.02577e+01  4.87346e-02  2.19377e+00 
 9.86970e+00  5.42037e-02  2.26151e+00 
 9.48041e+00  5.92796e-02  2.32620e+00 
 9.09006e+00  6.38832e-02  2.38781e+00 
 8.69869e+00  6.79501e-02  2.44637e+00 
 8.30649e+00  7.14216e-02  2.50187e+00 
 7.91350e+00  7.42535e-02  2.55436e+00 
 7.51990e+00  7.64077e-02  2.60387e+00 
 7.12570e+00  7.78597e-02  2.65043e+00 
 6.73109e+00  7.85911e-02  2.69410e+00 
 6.33605e+00  7.85957e-02  2.73491e+00 
 5.94073e+00  7.78728e-02  2.77293e+00 
 5.54513e+00  7.64325e-02  2.80819e+00 
 5.14938e+00  7.42900e-02  2.84076e+00 
 4.75344e+00  7.14690e-02  2.87068e+00 
 4.35744e+00  6.79984e-02  2.89801e+00 
 3.96133e+00  6.39136e-02  2.92279e+00 
 3.56521e+00  5.92546e-02  2.94506e+00 
 3.16903e+00  5.40662e-02  2.96486e+00 
 2.77288e+00  4.83974e-02  2.98225e+00 
 2.37670e+00  4.23004e-02  2.99724e+00 
 1.98057e+00  3.58313e-02  3.00987e+00 
 1.58441e+00  2.90476e-02  3.02018e+00 
 1.18831e+00  2.20103e-02  3.02816e+00 
 7.92180e-01  1.47806e-02  3.03386e+00 
 3.96102e-01  7.42281e-03  3.03727e+00 
-3.42273e-12 -2.62774e-12  3.03841e+00 
-3.96102e-01 -7.42281e-03  3.03727e+00 
-7.92180e-01 -1.47806e-02  3.03386e+00 
-1.18831e+00 -2.20103e-02  3.02816e+00 
-1.58441e+00 -2.90476e-02  3.02018e+00 
-1.98057e+00 -3.58313e-02  3.00987e+00 
-2.37670e+00 -4.23004e-02  2.99724e+00 
-2.77288e+00 -4.83974e-02  2.98225e+00 
-3.16903e+00 -5.40662e-02  2.96486e+00 
-3.56521e+00 -5.92546e-02  2.94506e+00 
-3.96133e+00 -6.39136e-02  2.92279e+00 
-4.35744e+00 -6.79984e-02  2.89801e+00 
-4.75344e+00 -7.14690e-02  2.87068e+00 
-5.14938e+00 -7.42900e-02  2.84076e+00 
-5.54513e+00 -7.64325e-02  2.80819e+00 
-5.94073e+00 -7.78728e-02  2.77293e+00 
-6.33605e+00 -7.85957e-02  2.73491e+00 
-6.73109e+00 -7.85911e-02  2.69410e+00 
-7.12570e+00 -7.78597e-02  2.65043e+00 
-7.51990e+00 -7.64077e-02  2.60387e+00 
-7.91350e+00 -7.42535e-02  2.55436e+00 
-8.30649e+00 -7.14216e-02  2.50187e+00 
-8.69869e+00 -6.79501e-02  2.44637e+00 
-9.09006e+00 -6.38832e-02  2.38781e+00 
-9.48041e+00 -5.92796e-02  2.32620e+00 
-9.86970e+00 -5.42037e-02  2.26151e+00 
-1.02577e+01 -4.87346e-02  2.19377e+00 
-1.06444e+01 -4.29561e-02  2.12298e+00 
-1.10296e+01 -3.69654e-02  2.04919e+00 
-1.14132e+01 -3.08626e-02  1.97244e+00 
-1.17950e+01 -2.47583e-02  1.89281e+00 
-1.21751e+01 -1.87628e-02  1.81038e+00 
-1.25532e+01 -1.29922e-02  1.72529e+00 
-1.29294e+01 -7.55764e-03  1.63764e+00 
-1.33034e+01 -2.56949e-03  1.54761e+00 
-1.36755e+01  1.87287e-03  1.45535e+00 
-1.40454e+01  5.67881e-03  1.36108e+00 
-1.44133e+01  8.77536e-03  1.26497e+00 
-1.47793e+01  1.11067e-02  1.16727e+00 
-1.51434e+01  1.26407e-02  1.06819e+00 
-1.55057e+01  1.33700e-02  9.67979e-01 
-1.58665e+01  1.33160e-02  8.66852e-01 
-1.62260e+01  1.25303e-02  7.65061e-01 
-1.65845e+01  1.10966e-02  6.62807e-01 
-1.69421e+01  9.13148e-03  5.60315e-01 
-1.72994e+01  6.78211e-03  4.57752e-01 
-1.76566e+01  4.22626e-03  3.55299e-01 
-1.80142e+01  1.67509e-03  2.53064e-01 
-1.83726e+01 -6.30991e-04  1.51164e-01 
-1.87455e+01 -3.20371e-02  1.97331e-02 
 1.83204e+01  3.19279e-02  2.25803e-02 
 1.79483e+01  8.78343e-04  1.57938e-01 
 1.75906e+01 -1.13725e-03  2.61818e-01 
 1.72339e+01 -3.54254e-03  3.65232e-01 
 1.68778e+01 -6.16001e-03  4.68124e-01 
 1.65220e+01 -8.83674e-03  5.70457e-01 
 1.61662e+01 -1.14340e-02  6.72131e-01 
 1.58103e+01 -1.38317e-02  7.73068e-01 
 1.54539e+01 -1.59277e-02  8.73133e-01 
 1.50969e+01 -1.76397e-02  9.72216e-01 
 1.47390e+01 -1.89041e-02  1.07016e+00 
 1.43801e+01 -1.96766e-02  1.16684e+00 
 1.40202e+01 -1.99315e-02  1.26208e+00 
 1.36589e+01 -1.96600e-02  1.35576e+00 
 1.32964e+01 -1.88696e-02  1.44771e+00 
 1.29324e+01 -1.75817e-02  1.53780e+00 
 1.25671e+01 -1.58307e-02  1.62588e+00 
 1.22002e+01 -1.36604e-02  1.71183e+00 
 1.18320e+01 -1.11245e-02  1.79552e+00 
 1.14623e+01 -8.28155e-03  1.87685e+00 
 1.10912e+01 -5.19620e-03  1.95570e+00 
 1.07187e+01 -1.93375e-03  2.03202e+00 
 1.03449e+01  1.43737e-03  2.10570e+00 
 9.96985e+00  4.85186e-03  2.17670e+00 
 9.59366e+00  8.24381e-03  2.24496e+00 
 9.21633e+00  1.15532e-02  2.31044e+00 
 8.83801e+00  1.47213e-02  2.37311e+00 
 8.45870e+00  1.76970e-02  2.43296e+00 
 8.07857e+00  2.04318e-02  2.48996e+00 
 7.69760e+00  2.28858e-02  2.54413e+00 
 7.31596e+00  2.50224e-02  2.59545e+00 
 6.93363e+00  2.68140e-02  2.64394e+00 
 6.55077e+00  2.82365e-02  2.68962e+00 
 6.16736e+00  2.92744e-02  2.73250e+00 
 5.78353e+00  2.99162e-02  2.77259e+00 
 5.39928e+00  3.01580e-02  2.80994e+00 
 5.01472e+00  2.99998e-02  2.84456e+00 
 4.62983e+00  2.94484e-02  2.87648e+00 
 4.24473e+00  2.85142e-02  2.90573e+00 
 3.85937e+00  2.72133e-02  2.93233e+00 
 3.47387e+00  2.55653e-02  2.95630e+00 
 3.08819e+00  2.35941e-02  2.97768e+00 
 2.70241e+00  2.13268e-02  2.99649e+00 
 2.31650e+00  1.87937e-02  3.01274e+00 
 1.93055e+00  1.60278e-02  3.02646e+00 
 1.54449e+00  1.30643e-02  3.03766e+00 
 1.15843e+00  9.94057e-03  3.04636e+00 
 7.72286e-01  6.69508e-03  3.05256e+00 
 3.86163e-01  3.36816e-03  3.05628e+00 
-3.27746e-12 -3.28145e-12  3.05752e+00 
-3.86163e-01 -3.36816e-03  3.05628e+00 
-7.72286e-01 -6.69508e-03  3.05256e+00 
-1.15843e+00 -9.94057e-03  3.04636e+00 
-1.54449e+00 -1.30643e-02  3.03766e+00 
-1.93055e+00 -1.60278e-02  3.02646e+00 
-2.31650e+00 -1.87937e-02  3.01274e+00 
-2.70241e+00 -2.13268e-02  2.99649e+00 
-3.08819e+00 -2.35941e-02  2.97768e+00 
-3.47387e+00 -2.55653e-02  2.95630e+00 
-3.85937e+00 -2.72133e-02  2.93233e+00 
-4.24473e+00 -2.85142e-02  2.90573e+00 
-4.62983e+00 -2.94484e-02  2.87648e+00 
-5.01472e+00 -2.99998e-02  2.84456e+00 
-5.39928e+00 -3.01580e-02  2.80994e+00 
-5.78353e+00 -2.99162e-02  2.77259e+00 
-6.16736e+00 -2.92744e-02  2.73250e+00 
-6.55077e+00 -2.82365e-02  2.68962e+00 
-6.93363e+00 -2.68140e-02  2.64394e+00 
-7.31596e+00 -2.50224e-02  2.59545e+00 
-7.69760e+00 -2.28858e-02  2.54413e+00 
-8.07857e+00 -2.04318e-02  2.48996e+00 
-8.45870e+00 -1.76970e-02  2.43296e+00 
-8.83801e+00 -1.47213e-02  2.37311e+00 
-9.21633e+00 -1.15532e-02  2.31044e+00 
-9.59366e+00 -8.24381e-03  2.24496e+00 
-9.96985e+00 -4.85186e-03  2.17670e+00 
-1.03449e+01 -1.43737e-03  2.10570e+00 
-1.07187e+01  1.93375e-03  2.03202e+00 
-1.10912e+01  5.19620e-03  1.95570e+00 
-1.14623e+01  8.28155e-03  1.87685e+00 
-1.18320e+01  1.11245e-02  1.79552e+00 
-1.22002e+01  1.36604e-02  1.71183e+00 
-1.25671e+01  1.58307e-02  1.62588e+00 
-1.29324e+01  1.75817e-02  1.53780e+00 
-1.32964e+01  1.88696e-02  1.44771e+00 
-1.36589e+01  1.96600e-02  1.35576e+00 
-1.40202e+01  1.99315e-02  1.26208e+00 
-1.43801e+01  1.96766e-02  1.16684e+00 
-1.47390e+01  1.89041e-02  1.07016e+00 
-1.50969e+01  1.76397e-02  9.72216e-01 
-1.54539e+01  1.59277e-02  8.73133e-01 
-1.58103e+01  1.38317e-02  7.73068e-01 
-1.61662e+01  1.14340e-02  6.72131e-01 
-1.65220e+01  8.83674e-03  5.70457e-01 
-1.68778e+01  6.16001e-03  4.68124e-01 
-1.72339e+01  3.54254e-03  3.65232e-01 
-1.75906e+01  1.13725e-03  2.61818e-01 
-1.79483e+01 -8.78343e-04  1.57938e-01 
-1.83204e+01 -3.19279e-02  2.25803e-02 
 1.78821e+01  3.14178e-02  2.46716e-02 
 1.75136e+01  9.26442e-04  1.63681e-01 
 1.71595e+01 -7.77146e-04  2.69644e-01 
 1.68062e+01 -2.90108e-03  3.74570e-01 
 1.64536e+01 -5.31907e-03  4.78432e-01 
 1.61015e+01 -7.91775e-03  5.81234e-01 
 1.57497e+01 -1.05921e-02  6.82921e-01 
 1.53980e+01 -1.32474e-02  7.83464e-01 
 1.50462e+01 -1.57993e-02  8.82783e-01 
 1.46941e+01 -1.81753e-02  9.80825e-01 
 1.43417e+01 -2.03143e-02  1.07749e+00 
 1.39886e+01 -2.21677e-02  1.17270e+00 
 1.36350e+01 -2.36979e-02  1.26636e+00 
 1.32805e+01 -2.48797e-02  1.35838e+00 
 1.29253e+01 -2.56982e-02  1.44864e+00 
 1.25691e+01 -2.61487e-02  1.53706e+00 
 1.22119e+01 -2.62362e-02  1.62354e+00 
 1.18537e+01 -2.59735e-02  1.70798e+00 
 1.14945e+01 -2.53811e-02  1.79029e+00 
 1.11342e+01 -2.44849e-02  1.87040e+00 
 1.07729e+01 -2.33166e-02  1.94820e+00 
 1.04106e+01 -2.19107e-02  2.02365e+00 
 1.00472e+01 -2.03055e-02  2.09666e+00 
 9.68277e+00 -1.85396e-02  2.16718e+00 
 9.31743e+00 -1.66538e-02  2.23516e+00 
 8.95113e+00 -1.46869e-02  2.30055e+00 
 8.58397e+00 -1.26785e-02  2.36331e+00 
 8.21593e+00 -1.06647e-02  2.42342e+00 
 7.84714e+00 -8.68131e-03  2.48085e+00 
 7.47758e+00 -6.75930e-03  2.53558e+00 
 7.10735e+00 -4.92849e-03  2.58758e+00 
 6.73646e+00 -3.21344e-03  2.63687e+00 
 6.36501e+00 -1.63691e-03  2.68343e+00 
 5.99298e+00 -2.16147e-04  2.72727e+00 
 5.62050e+00  1.03368e-03  2.76837e+00 
 5.24754e+00  2.10284e-03  2.80676e+00 
 4.87421e+00  2.98375e-03  2.84242e+00 
 4.50048e+00  3.67394e-03  2.87539e+00 
 4.12648e+00  4.17304e-03  2.90566e+00 
 3.75214e+00  4.48525e-03  2.93326e+00 
 3.37760e+00  4.61674e-03  2.95817e+00 
 3.00280e+00  4.57754e-03  2.98043e+00 
 2.62786e+00  4.37945e-03  3.00004e+00 
 2.25271e+00  4.03736e-03  3.01702e+00 
 1.87747e+00  3.56768e-03  3.03136e+00 
 1.50209e+00  2.98904e-03  3.04308e+00 
 1.12665e+00  2.32130e-03  3.05219e+00 
 7.51122e-01  1.58570e-03  3.05870e+00 
 3.75585e-01  8.04379e-04  3.06259e+00 
-3.58698e-12 -3.96983e-12  3.06389e+00 
-3.75585e-01 -8.04379e-04  3.06259e+00 
-7.51122e-01 -1.58570e-03  3.05870e+00 
-1.12665e+00 -2.32130e-03  3.05219e+00 
-1.50209e+00 -2.98904e-03  3.04308e+00 
-1.87747e+00 -3.56768e-03  3.03136e+00 
-2.25271e+00 -4.03736e-03  3.01702e+00 
-2.62786e+00 -4.37945e-03  3.00004e+00 
-3.00280e+00 -4.57754e-03  2.98043e+00 
-3.37760e+00 -4.61674e-03  2.95817e+00 
-3.75214e+00 -4.48525e-03  2.93326e+00 
-4.12648e+00 -4.17304e-03  2.90566e+00 
-4.50048e+00 -3.67394e-03  2.87539e+00 
-4.87421e+00 -2.98375e-03  2.84242e+00 
-5.24754e+00 -2.10284e-03  2.80676e+00 
-5.62050e+00 -1.03368e-03  2.76837e+00 
-5.99298e+00  2.16147e-04  2.72727e+00 
-6.36501e+00  1.63691e-03  2.68343e+00 
-6.73646e+00  3.21344e-03  2.63687e+00 
-7.10735e+00  4.92849e-03  2.58758e+00 
-7.47758e+00  6.75930e-03  2.53558e+00 
-7.84714e+00  8.68131e-03  2.48085e+00 
-8.21593e+00  1.06647e-02  2.42342e+00 
-8.58397e+00  1.26785e-02  2.36331e+00 
-8.95113e+00  1.46869e-02  2.30055e+00 
-9.31743e+00  1.66538e-02  2.23516e+00 
-9.68277e+00  1.85396e-02  2.16718e+00 
-1.00472e+01  2.03055e-02  2.09666e+00 
-1.04106e+01  2.19107e-02  2.02365e+00 
-1.07729e+01  2.33166e-02  1.94820e+00 
-1.11342e+01  2.44849e-02  1.87040e+00 
-1.14945e+01  2.53811e-02  1.79029e+00 
-1.18537e+01  2.59735e-02  1.70798e+00 
-1.22119e+01  2.62362e-02  1.62354e+00 
-1.25691e+01  2.61487e-02  1.53706e+00 
-1.29253e+01  2.56982e-02  1.44864e+00 
-1.32805e+01  2.48797e-02  1.35838e+00 
-1.36350e+01  2.36979e-02  1.26636e+00 
-1.39886e+01  2.21677e-02  1.17270e+00 
-1.43417e+01  2.03143e-02  1.07749e+00 
-1.46941e+01  1.81753e-02  9.80825e-01 
-1.50462e+01  1.57993e-02  8.82783e-01 
-1.53980e+01  1.32474e-02  7.83464e-01 
-1.57497e+01  1.05921e-02  6.82921e-01 
-1.61015e+01  7.91775e-03  5.81234e-01 
-1.64536e+01  5.31907e-03  4.78432e-01 
-1.68062e+01  2.90108e-03  3.74570e-01 
-1.71595e+01  7.77146e-04  2.69644e-01 
-1.75136e+01 -9.26442e-04  1.63681e-01 
-1.78821e+01 -3.14178e-02  2.46716e-02 
 1.74321e+01  3.06761e-02  2.61982e-02 
 1.70694e+01  8.77536e-04  1.68415e-01 
 1.67207e+01 -5.24614e-04  2.76331e-01 
 1.63728e+01 -2.32584e-03  3.82798e-01 
 1.60256e+01 -4.43518e-03  4.87805e-01 
 1.56789e+01 -6.76937e-03  5.91378e-01 
 1.53326e+01 -9.24913e-03  6.93486e-01 
 1.49865e+01 -1.18014e-02  7.94131e-01 
 1.46405e+01 -1.43584e-02  8.93263e-01 
 1.42944e+01 -1.68602e-02  9.90862e-01 
 1.39483e+01 -1.92530e-02  1.08686e+00 
 1.36018e+01 -2.14915e-02  1.18123e+00 
 1.32550e+01 -2.35370e-02  1.27390e+00 
 1.29077e+01 -2.53591e-02  1.36481e+00 
 1.25599e+01 -2.69341e-02  1.45389e+00 
 1.22115e+01 -2.82461e-02  1.54108e+00 
 1.18625e+01 -2.92852e-02  1.62631e+00 
 1.15127e+01 -3.00481e-02  1.70952e+00 
 1.11623e+01 -3.05368e-02  1.79063e+00 
 1.08111e+01 -3.07588e-02  1.86959e+00 
 1.04591e+01 -3.07254e-02  1.94633e+00 
 1.01063e+01 -3.04521e-02  2.02080e+00 
 9.75274e+00 -2.99571e-02  2.09294e+00 
 9.39838e+00 -2.92610e-02  2.16270e+00 
 9.04328e+00 -2.83863e-02  2.23003e+00 
 8.68740e+00 -2.73563e-02  2.29489e+00 
 8.33081e+00 -2.61952e-02  2.35724e+00 
 7.97349e+00 -2.49266e-02  2.41705e+00 
 7.61552e+00 -2.35746e-02  2.47429e+00 
 7.25686e+00 -2.21613e-02  2.52893e+00 
 6.89763e+00 -2.07086e-02  2.58096e+00 
 6.53777e+00 -1.92358e-02  2.63035e+00 
 6.17741e+00 -1.77618e-02  2.67709e+00 
 5.81650e+00 -1.63020e-02  2.72117e+00 
 5.45515e+00 -1.48711e-02  2.76257e+00 
 5.09332e+00 -1.34805e-02  2.80131e+00 
 4.73113e+00 -1.21405e-02  2.83736e+00 
 4.36852e+00 -1.08579e-02  2.87074e+00 
 4.00562e+00 -9.63849e-03  2.90143e+00 
 3.64238e+00 -8.48499e-03  2.92944e+00 
 3.27890e+00 -7.39893e-03  2.95477e+00 
 2.91515e+00 -6.37903e-03  2.97742e+00 
 2.55122e+00 -5.42311e-03  2.99740e+00 
 2.18708e+00 -4.52650e-03  3.01471e+00 
 1.82281e+00 -3.68389e-03  3.02934e+00 
 1.45838e+00 -2.88795e-03  3.04132e+00 
 1.09389e+00 -2.13093e-03  3.05062e+00 
 7.29287e-01 -1.40365e-03  3.05727e+00 
 3.64669e-01 -6.96736e-04  3.06126e+00 
-3.58348e-12 -4.40667e-12  3.06259e+00 
-3.64669e-01  6.96736e-04  3.06126e+00 
-7.29287e-01  1.40365e-03  3.05727e+00 
-1.09389e+00  2.13093e-03  3.05062e+00 
-1.45838e+00  2.88795e-03  3.04132e+00 
-1.82281e+00  3.68389e-03  3.02934e+00 
-2.18708e+00  4.52650e-03  3.01471e+00 
-2.55122e+00  5.42311e-03  2.99740e+00 
-2.91515e+00  6.37903e-03  2.97742e+00 
-3.27890e+00  7.39893e-03  2.95477e+00 
-3.64238e+00  8.48499e-03  2.92944e+00 
-4.00562e+00  9.63849e-03  2.90143e+00 
-4.36852e+00  1.08579e-02  2.87074e+00 
-4.73113e+00  1.21405e-02  2.83736e+00 
-5.09332e+00  1.34805e-02  2.80131e+00 
-5.45515e+00  1.48711e-02  2.76257e+00 
-5.81650e+00  1.63020e-02  2.72117e+00 
-6.17741e+00  1.77618e-02  2.67709e+00 
-6.53777e+00  1.92358e-02  2.63035e+00 
-6.89763e+00  2.07086e-02  2.58096e+00 
-7.25686e+00  2.21613e-02  2.52893e+00 
-7.61552e+00  2.35746e-02  2.47429e+00 
-7.97349e+00  2.49266e-02  2.41705e+00 
-8.33081e+00  2.61952e-02  2.35724e+00 
-8.68740e+00  2.73563e-02  2.29489e+00 
-9.04328e+00  2.83863e-02  2.23003e+00 
-9.39838e+00  2.92610e-02  2.16270e+00 
-9.75274e+00  2.99571e-02  2.09294e+00 
-1.01063e+01  3.04521e-02  2.02080e+00 
-1.04591e+01  3.07254e-02  1.94633e+00 
-1.08111e+01  3.07588e-02  1.86959e+00 
-1.11623e+01  3.05368e-02  1.79063e+00 
-1.15127e+01  3.00481e-02  1.70952e+00 
-1.18625e+01  2.92852e-02  1.62631e+00 
-1.22115e+01  2.82461e-02  1.54108e+00 
-1.25599e+01  2.69341e-02  1.45389e+00 
-1.29077e+01  2.53591e-02  1.36481e+00 
-1.32550e+01  2.35370e-02  1.27390e+00 
-1.36018e+01  2.14915e-02  1.18123e+00 
-1.39483e+01  1.92530e-02  1.08686e+00 
-1.42944e+01  1.68602e-02  9.90862e-01 
-1.46405e+01  1.43584e-02  8.93263e-01 
-1.49865e+01  1.18014e-02  7.94131e-01 
-1.53326e+01  9.24913e-03  6.93486e-01 
-1.56789e+01  6.76937e-03  5.91378e-01 
-1.60256e+01  4.43518e-03  4.87805e-01 
-1.63728e+01  2.32584e-03  3.82798e-01 
-1.67207e+01  5.24614e-04  2.76331e-01 
-1.70694e+01 -8.77536e-04  1.68415e-01 
-1.74321e+01 -3.06761e-02  2.61982e-02 
 1.69722e+01  2.97792e-02  2.73522e-02 
 1.66168e+01  7.63908e-04  1.72266e-01 
 1.62750e+01 -3.63067e-04  2.81898e-01 
 1.59338e+01 -1.84573e-03  3.89787e-01 
 1.55933e+01 -3.61767e-03  4.95928e-01 
 1.52533e+01 -5.61735e-03  6.00357e-01 
 1.49137e+01 -7.78524e-03  7.03057e-01 
 1.45743e+01 -1.00654e-02  8.04044e-01 
 1.42351e+01 -1.24047e-02  9.03288e-01 
 1.38960e+01 -1.47549e-02  1.00079e+00 
 1.35568e+01 -1.70711e-02  1.09650e+00 
 1.32176e+01 -1.93140e-02  1.19042e+00 
 1.28782e+01 -2.14481e-02  1.28249e+00 
 1.25385e+01 -2.34438e-02  1.37269e+00 
 1.21986e+01 -2.52756e-02  1.46095e+00 
 1.18582e+01 -2.69234e-02  1.54726e+00 
 1.15175e+01 -2.83713e-02  1.63155e+00 
 1.11762e+01 -2.96085e-02  1.71380e+00 
 1.08345e+01 -3.06276e-02  1.79392e+00 
 1.04922e+01 -3.14259e-02  1.87191e+00 
 1.01494e+01 -3.20036e-02  1.94768e+00 
 9.80593e+00 -3.23645e-02  2.02123e+00 
 9.46194e+00 -3.25150e-02  2.09248e+00 
 9.11731e+00 -3.24639e-02  2.16140e+00 
 8.77212e+00 -3.22218e-02  2.22796e+00 
 8.42630e+00 -3.18012e-02  2.29212e+00 
 8.07993e+00 -3.12155e-02  2.35383e+00 
 7.73295e+00 -3.04789e-02  2.41308e+00 
 7.38544e+00 -2.96064e-02  2.46982e+00 
 7.03735e+00 -2.86126e-02  2.52405e+00 
 6.68878e+00 -2.75127e-02  2.57572e+00 
 6.33966e+00 -2.63208e-02  2.62482e+00 
 5.99011e+00 -2.50509e-02  2.67134e+00 
 5.64006e+00 -2.37159e-02  2.71525e+00 
 5.28963e+00 -2.23282e-02  2.75655e+00 
 4.93875e+00 -2.08986e-02  2.79521e+00 
 4.58754e+00 -1.94374e-02  2.83124e+00 
 4.23595e+00 -1.79530e-02  2.86462e+00 
 3.88407e+00 -1.64534e-02  2.89534e+00 
 3.53187e+00 -1.49446e-02  2.92341e+00 
 3.17944e+00 -1.34321e-02  2.94880e+00 
 2.82674e+00 -1.19197e-02  2.97154e+00 
 2.47386e+00 -1.04107e-02  2.99160e+00 
 2.12077e+00 -8.90663e-03  3.00899e+00 
 1.76756e+00 -7.40893e-03  3.02370e+00 
 1.41419e+00 -5.91747e-03  3.03574e+00 
 1.06075e+00 -4.43219e-03  3.04511e+00 
 7.07192e-01 -2.95173e-03  3.05180e+00 
 3.53622e-01 -1.47500e-03  3.05581e+00 
-3.44136e-12 -5.24922e-12  3.05715e+00 
-3.53622e-01  1.47500e-03  3.05581e+00 
-7.07192e-01  2.95173e-03  3.05180e+00 
-1.06075e+00  4.43219e-03  3.04511e+00 
-1.41419e+00  5.91747e-03  3.03574e+00 
-1.76756e+00  7.40893e-03  3.02370e+00 
-2.12077e+00  8.90663e-03  3.00899e+00 
-2.47386e+00  1.04107e-02  2.99160e+00 
-2.82674e+00  1.19197e-02  2.97154e+00 
-3.17944e+00  1.34321e-02  2.94880e+00 
-3.53187e+00  1.49446e-02  2.92341e+00 
-3.88407e+00  1.64534e-02  2.89534e+00 
-4.23595e+00  1.79530e-02  2.86462e+00 
-4.58754e+00  1.94374e-02  2.83124e+00 
-4.93875e+00  2.08986e-02  2.79521e+00 
-5.28963e+00  2.23282e-02  2.75655e+00 
-5.64006e+00  2.37159e-02  2.71525e+00 
-5.99011e+00  2.50509e-02  2.67134e+00 
-6.33966e+00  2.63208e-02  2.62482e+00 
-6.68878e+00  2.75127e-02  2.57572e+00 
-7.03735e+00  2.86126e-02  2.52405e+00 
-7.38544e+00  2.96064e-02  2.46982e+00 
-7.73295e+00  3.04789e-02  2.41308e+00 
-8.07993e+00  3.12155e-02  2.35383e+00 
-8.42630e+00  3.18012e-02  2.29212e+00 
-8.77212e+00  3.22218e-02  2.22796e+00 
-9.11731e+00  3.24639e-02  2.16140e+00 
-9.46194e+00  3.25150e-02  2.09248e+00 
-9.80593e+00  3.23645e-02  2.02123e+00 
-1.01494e+01  3.20036e-02  1.94768e+00 
-1.04922e+01  3.14259e-02  1.87191e+00 
-1.08345e+01  3.06276e-02  1.79392e+00 
-1.11762e+01  2.96085e-02  1.71380e+00 
-1.15175e+01  2.83713e-02  1.63155e+00 
-1.18582e+01  2.69234e-02  1.54726e+00 
-1.21986e+01  2.52756e-02  1.46095e+00 
-1.25385e+01  2.34438e-02  1.37269e+00 
-1.28782e+01  2.14481e-02  1.28249e+00 
-1.32176e+01  1.93140e-02  1.19042e+00 
-1.35568e+01  1.70711e-02  1.09650e+00 
-1.38960e+01  1.47549e-02  1.00079e+00 
-1.42351e+01  1.24047e-02  9.03288e-01 
-1.45743e+01  1.00654e-02  8.04044e-01 
-1.49137e+01  7.78524e-03  7.03057e-01 
-1.52533e+01  5.61735e-03  6.00357e-01 
-1.55933e+01  3.61767e-03  4.95928e-01 
-1.59338e+01  1.84573e-03  3.89787e-01 
-1.62750e+01  3.63067e-04  2.81898e-01 
-1.66168e+01 -7.63908e-04  1.72266e-01 
-1.69722e+01 -2.97792e-02  2.73522e-02 
 1.65042e+01  2.88406e-02  2.81966e-02 
 1.61571e+01  6.45964e-04  1.75324e-01 
 1.58232e+01 -2.48698e-04  2.86409e-01 
 1.54898e+01 -1.44446e-03  3.95539e-01 
 1.51570e+01 -2.89418e-03  5.02713e-01 
 1.48245e+01 -4.55308e-03  6.07968e-01 
 1.44925e+01 -6.37698e-03  7.11295e-01 
 1.41607e+01 -8.32357e-03  8.12719e-01 
 1.38291e+01 -1.03519e-02  9.12218e-01 
 1.34977e+01 -1.24238e-02  1.00981e+00 
 1.31663e+01 -1.45030e-02  1.10545e+00 
 1.28349e+01 -1.65570e-02  1.19916e+00 
 1.25034e+01 -1.85552e-02  1.29089e+00 
 1.21718e+01 -2.04711e-02  1.38064e+00 
 1.18401e+01 -2.22807e-02  1.46836e+00 
 1.15081e+01 -2.39640e-02  1.55405e+00 
 1.11758e+01 -2.55034e-02  1.63765e+00 
 1.08432e+01 -2.68853e-02  1.71914e+00 
 1.05103e+01 -2.80986e-02  1.79849e+00 
 1.01770e+01 -2.91353e-02  1.87567e+00 
 9.84332e+00 -2.99902e-02  1.95064e+00 
 9.50918e+00 -3.06606e-02  2.02336e+00 
 9.17463e+00 -3.11461e-02  2.09380e+00 
 8.83960e+00 -3.14485e-02  2.16194e+00 
 8.50415e+00 -3.15713e-02  2.22773e+00 
 8.16821e+00 -3.15197e-02  2.29116e+00 
 7.83185e+00 -3.13003e-02  2.35217e+00 
 7.49499e+00 -3.09206e-02  2.41077e+00 
 7.15771e+00 -3.03892e-02  2.46690e+00 
 6.81996e+00 -2.97152e-02  2.52056e+00 
 6.48182e+00 -2.89084e-02  2.57172e+00 
 6.14322e+00 -2.79785e-02  2.62035e+00 
 5.80426e+00 -2.69357e-02  2.66644e+00 
 5.46488e+00 -2.57897e-02  2.70998e+00 
 5.12516e+00 -2.45505e-02  2.75094e+00 
 4.78507e+00 -2.32272e-02  2.78931e+00 
 4.44468e+00 -2.18291e-02  2.82508e+00 
 4.10395e+00 -2.03646e-02  2.85824e+00 
 3.76298e+00 -1.88419e-02  2.88877e+00 
 3.42170e+00 -1.72682e-02  2.91668e+00 
 3.08023e+00 -1.56509e-02  2.94194e+00 
 2.73851e+00 -1.39958e-02  2.96457e+00 
 2.39663e+00 -1.23091e-02  2.98454e+00 
 2.05455e+00 -1.05958e-02  3.00186e+00 
 1.71236e+00 -8.86089e-03  3.01652e+00 
 1.37001e+00 -7.10844e-03  3.02851e+00 
 1.02761e+00 -5.34275e-03  3.03785e+00 
 6.85099e-01 -3.56707e-03  3.04452e+00 
 3.42574e-01 -1.78518e-03  3.04852e+00 
-3.60271e-12 -5.02032e-12  3.04985e+00 
-3.42574e-01  1.78518e-03  3.04852e+00 
-6.85099e-01  3.56707e-03  3.04452e+00 
-1.02761e+00  5.34275e-03  3.03785e+00 
-1.37001e+00  7.10844e-03  3.02851e+00 
-1.71236e+00  8.86089e-03  3.01652e+00 
-2.05455e+00  1.05958e-02  3.00186e+00 
-2.39663e+00  1.23091e-02  2.98454e+00 
-2.73851e+00  1.39958e-02  2.96457e+00 
-3.08023e+00  1.56509e-02  2.94194e+00 
-3.42170e+00  1.72682e-02  2.91668e+00 
-3.76298e+00  1.88419e-02  2.88877e+00 
-4.10395e+00  2.03646e-02  2.85824e+00 
-4.44468e+00  2.18291e-02  2.82508e+00 
-4.78507e+00  2.32272e-02  2.78931e+00 
-5.12516e+00  2.45505e-02  2.75094e+00 
-5.46488e+00  2.57897e-02  2.70998e+00 
-5.80426e+00  2.69357e-02  2.66644e+00 
-6.14322e+00  2.79785e-02  2.62035e+00 
-6.48182e+00  2.89084e-02  2.57172e+00 
-6.81996e+00  2.97152e-02  2.52056e+00 
-7.15771e+00  3.03892e-02  2.46690e+00 
-7.49499e+00  3.09206e-02  2.41077e+00 
-7.83185e+00  3.13003e-02  2.35217e+00 
-8.16821e+00  3.15197e-02  2.29116e+00 
-8.50415e+00  3.15713e-02  2.22773e+00 
-8.83960e+00  3.14485e-02  2.16194e+00 
-9.17463e+00  3.11461e-02  2.09380e+00 
-9.50918e+00  3.06606e-02  2.02336e+00 
-9.84332e+00  2.99902e-02  1.95064e+00 
-1.01770e+01  2.91353e-02  1.87567e+00 
-1.05103e+01  2.80986e-02  1.79849e+00 
-1.08432e+01  2.68853e-02  1.71914e+00 
-1.11758e+01  2.55034e-02  1.63765e+00 
-1.15081e+01  2.39640e-02  1.55405e+00 
-1.18401e+01  2.22807e-02  1.46836e+00 
-1.21718e+01  2.04711e-02  1.38064e+00 
-1.25034e+01  1.85552e-02  1.29089e+00 
-1.28349e+01  1.65570e-02  1.19916e+00 
-1.31663e+01  1.45030e-02  1.10545e+00 
-1.34977e+01  1.24238e-02  1.00981e+00 
-1.38291e+01  1.03519e-02  9.12218e-01 
-1.41607e+01  8.32357e-03  8.12719e-01 
-1.44925e+01  6.37698e-03  7.11295e-01 
-1.48245e+01  4.55308e-03  6.07968e-01 
-1.51570e+01  2.89418e-03  5.02713e-01 
-1.54898e+01  1.44446e-03  3.95539e-01 
-1.58232e+01  2.48698e-04  2.86409e-01 
-1.61571e+01 -6.45964e-04  1.75324e-01 
-1.65042e+01 -2.88406e-02  2.81966e-02 
 1.60298e+01  2.78842e-02  2.87970e-02 
 1.56917e+01  5.39002e-04  1.77710e-01 
 1.53663e+01 -1.60663e-04  2.89989e-01 
 1.50414e+01 -1.10793e-03  4.00161e-01 
 1.47170e+01 -2.26933e-03  5.08224e-01 
 1.43928e+01 -3.61240e-03  6.14219e-01 
 1.40691e+01 -5.10455e-03  7.18136e-01 
 1.37455e+01 -6.71410e-03  8.20006e-01 
 1.34222e+01 -8.40980e-03  9.19811e-01 
 1.30990e+01 -1.01621e-02  1.01757e+00 
 1.27759e+01 -1.19423e-02  1.11327e+00 
 1.24529e+01 -1.37241e-02  1.20691e+00 
 1.21298e+01 -1.54823e-02  1.29847e+00 
 1.18067e+01 -1.71943e-02  1.38794e+00 
 1.14835e+01 -1.88391e-02  1.47530e+00 
 1.11602e+01 -2.03985e-02  1.56055e+00 
 1.08367e+01 -2.18557e-02  1.64365e+00 
 1.05130e+01 -2.31971e-02  1.72459e+00 
 1.01890e+01 -2.44103e-02  1.80334e+00 
 9.86481e+00 -2.54859e-02  1.87988e+00 
 9.54034e+00 -2.64159e-02  1.95417e+00 
 9.21553e+00 -2.71948e-02  2.02621e+00 
 8.89044e+00 -2.78185e-02  2.09596e+00 
 8.56499e+00 -2.82852e-02  2.16340e+00 
 8.23922e+00 -2.85940e-02  2.22850e+00 
 7.91307e+00 -2.87461e-02  2.29125e+00 
 7.58660e+00 -2.87436e-02  2.35160e+00 
 7.25975e+00 -2.85898e-02  2.40955e+00 
 6.93257e+00 -2.82891e-02  2.46506e+00 
 6.60501e+00 -2.78468e-02  2.51813e+00 
 6.27715e+00 -2.72687e-02  2.56872e+00 
 5.94891e+00 -2.65613e-02  2.61682e+00 
 5.62038e+00 -2.57316e-02  2.66242e+00 
 5.29150e+00 -2.47867e-02  2.70549e+00 
 4.96234e+00 -2.37342e-02  2.74602e+00 
 4.63287e+00 -2.25815e-02  2.78399e+00 
 4.30316e+00 -2.13364e-02  2.81940e+00 
 3.97315e+00 -2.00064e-02  2.85223e+00 
 3.64294e+00 -1.85992e-02  2.88247e+00 
 3.31247e+00 -1.71219e-02  2.91011e+00 
 2.98184e+00 -1.55821e-02  2.93514e+00 
 2.65098e+00 -1.39864e-02  2.95756e+00 
 2.31999e+00 -1.23421e-02  2.97736e+00 
 1.98882e+00 -1.06555e-02  2.99452e+00 
 1.65756e+00 -8.93327e-03  3.00906e+00 
 1.32616e+00 -7.18142e-03  3.02095e+00 
 9.94706e-01 -5.40640e-03  3.03021e+00 
 6.63159e-01 -3.61380e-03  3.03682e+00 
 3.31602e-01 -1.80984e-03  3.04079e+00 
-3.91178e-12 -5.11800e-12  3.04212e+00 
-3.31602e-01  1.80984e-03  3.04079e+00 
-6.63159e-01  3.61380e-03  3.03682e+00 
-9.94706e-01  5.40640e-03  3.03021e+00 
-1.32616e+00  7.18142e-03  3.02095e+00 
-1.65756e+00  8.93327e-03  3.00906e+00 
-1.98882e+00  1.06555e-02  2.99452e+00 
-2.31999e+00  1.23421e-02  2.97736e+00 
-2.65098e+00  1.39864e-02  2.95756e+00 
-2.98184e+00  1.55821e-02  2.93514e+00 
-3.31247e+00  1.71219e-02  2.91011e+00 
-3.64294e+00  1.85992e-02  2.88247e+00 
-3.97315e+00  2.00064e-02  2.85223e+00 
-4.30316e+00  2.13364e-02  2.81940e+00 
-4.63287e+00  2.25815e-02  2.78399e+00 
-4.96234e+00  2.37342e-02  2.74602e+00 
-5.29150e+00  2.47867e-02  2.70549e+00 
-5.62038e+00  2.57316e-02  2.66242e+00 
-5.94891e+00  2.65613e-02  2.61682e+00 
-6.27715e+00  2.72687e-02  2.56872e+00 
-6.60501e+00  2.78468e-02  2.51813e+00 
-6.93257e+00  2.82891e-02  2.46506e+00 
-7.25975e+00  2.85898e-02  2.40955e+00 
-7.58660e+00  2.87436e-02  2.35160e+00 
-7.91307e+00  2.87461e-02  2.29125e+00 
-8.23922e+00  2.85940e-02  2.22850e+00 
-8.56499e+00  2.82852e-02  2.16340e+00 
-8.89044e+00  2.78185e-02  2.09596e+00 
-9.21553e+00  2.71948e-02  2.02621e+00 
-9.54034e+00  2.64159e-02  1.95417e+00 
-9.86481e+00  2.54859e-02  1.87988e+00 
-1.01890e+01  2.44103e-02  1.80334e+00 
-1.05130e+01  2.31971e-02  1.72459e+00 
-1.08367e+01  2.18557e-02  1.64365e+00 
-1.11602e+01  2.03985e-02  1.56055e+00 
-1.14835e+01  1.88391e-02  1.47530e+00 
-1.18067e+01  1.71943e-02  1.38794e+00 
-1.21298e+01  1.54823e-02  1.29847e+00 
-1.24529e+01  1.37241e-02  1.20691e+00 
-1.27759e+01  1.19423e-02  1.11327e+00 
-1.30990e+01  1.01621e-02  1.01757e+00 
-1.34222e+01  8.40980e-03  9.19811e-01 
-1.37455e+01  6.71410e-03  8.20006e-01 
-1.40691e+01  5.10455e-03  7.18136e-01 
-1.43928e+01  3.61240e-03  6.14219e-01 
-1.47170e+01  2.26933e-03  5.08224e-01 
-1.50414e+01  1.10793e-03  4.00161e-01 
-1.53663e+01  1.60663e-04  2.89989e-01 
-1.56917e+01 -5.39002e-04  1.77710e-01 
-1.60298e+01 -2.78842e-02  2.87970e-02 
 1.55502e+01  2.68983e-02  2.92577e-02 
 1.52216e+01  4.24226e-04  1.79572e-01 
 1.49053e+01 -1.11786e-04  2.92807e-01 
 1.45894e+01 -8.48481e-04  4.03829e-01 
 1.42738e+01 -1.76124e-03  5.12633e-01 
 1.39586e+01 -2.82629e-03  6.19259e-01 
 1.36436e+01 -4.01956e-03  7.23697e-01 
 1.33288e+01 -5.31745e-03  8.25980e-01 
 1.30142e+01 -6.69633e-03  9.26092e-01 
 1.26997e+01 -8.13358e-03  1.02406e+00 
 1.23854e+01 -9.60689e-03  1.11986e+00 
 1.20711e+01 -1.10954e-02  1.21351e+00 
 1.17568e+01 -1.25789e-02  1.30499e+00 
 1.14425e+01 -1.40388e-02  1.39431e+00 
 1.11282e+01 -1.54574e-02  1.48144e+00 
 1.08138e+01 -1.68192e-02  1.56639e+00 
 1.04993e+01 -1.81093e-02  1.64913e+00 
 1.01847e+01 -1.93152e-02  1.72965e+00 
 9.86994e+00 -2.04251e-02  1.80794e+00 
 9.55497e+00 -2.14296e-02  1.88398e+00 
 9.23983e+00 -2.23200e-02  1.95775e+00 
 8.92445e+00 -2.30899e-02  2.02923e+00 
 8.60887e+00 -2.37337e-02  2.09840e+00 
 8.29301e+00 -2.42476e-02  2.16526e+00 
 7.97693e+00 -2.46289e-02  2.22976e+00 
 7.66056e+00 -2.48763e-02  2.29191e+00 
 7.34395e+00 -2.49894e-02  2.35167e+00 
 7.02704e+00 -2.49690e-02  2.40904e+00 
 6.70989e+00 -2.48170e-02  2.46398e+00 
 6.39244e+00 -2.45358e-02  2.51649e+00 
 6.07475e+00 -2.41289e-02  2.56654e+00 
 5.75676e+00 -2.36003e-02  2.61412e+00 
 5.43855e+00 -2.29547e-02  2.65922e+00 
 5.12005e+00 -2.21972e-02  2.70182e+00 
 4.80134e+00 -2.13333e-02  2.74191e+00 
 4.48236e+00 -2.03689e-02  2.77947e+00 
 4.16320e+00 -1.93103e-02  2.81449e+00 
 3.84379e+00 -1.81637e-02  2.84696e+00 
 3.52421e+00 -1.69359e-02  2.87687e+00 
 3.20442e+00 -1.56333e-02  2.90421e+00 
 2.88449e+00 -1.42630e-02  2.92897e+00 
 2.56437e+00 -1.28315e-02  2.95114e+00 
 2.24415e+00 -1.13458e-02  2.97072e+00 
 1.92377e+00 -9.81269e-03  2.98771e+00 
 1.60332e+00 -8.23912e-03  3.00209e+00 
 1.28275e+00 -6.63164e-03  3.01386e+00 
 9.62137e-01 -4.99736e-03  3.02302e+00 
 6.41441e-01 -3.34272e-03  3.02956e+00 
 3.20742e-01 -1.67478e-03  3.03349e+00 
-3.49208e-12 -6.88530e-12  3.03480e+00 
-3.20742e-01  1.67478e-03  3.03349e+00 
-6.41441e-01  3.34272e-03  3.02956e+00 
-9.62137e-01  4.99736e-03  3.02302e+00 
-1.28275e+00  6.63164e-03  3.01386e+00 
-1.60332e+00  8.23912e-03  3.00209e+00 
-1.92377e+00  9.81269e-03  2.98771e+00 
-2.24415e+00  1.13458e-02  2.97072e+00 
-2.56437e+00  1.28315e-02  2.95114e+00 
-2.88449e+00  1.42630e-02  2.92897e+00 
-3.20442e+00  1.56333e-02  2.90421e+00 
-3.52421e+00  1.69359e-02  2.87687e+00 
-3.84379e+00  1.81637e-02  2.84696e+00 
-4.16320e+00  1.93103e-02  2.81449e+00 
-4.48236e+00  2.03689e-02  2.77947e+00 
-4.80134e+00  2.13333e-02  2.74191e+00 
-5.12005e+00  2.21972e-02  2.70182e+00 
-5.43855e+00  2.29547e-02  2.65922e+00 
-5.75676e+00  2.36003e-02  2.61412e+00 
-6.07475e+00  2.41289e-02  2.56654e+00 
-6.39244e+00  2.45358e-02  2.51649e+00 
-6.70989e+00  2.48170e-02  2.46398e+00 
-7.02704e+00  2.49690e-02  2.40904e+00 
-7.34395e+00  2.49894e-02  2.35167e+00 
-7.66056e+00  2.48763e-02  2.29191e+00 
-7.97693e+00  2.46289e-02  2.22976e+00 
-8.29301e+00  2.42476e-02  2.16526e+00 
-8.60887e+00  2.37337e-02  2.09840e+00 
-8.92445e+00  2.30899e-02  2.02923e+00 
-9.23983e+00  2.23200e-02  1.95775e+00 
-9.55497e+00  2.14296e-02  1.88398e+00 
-9.86994e+00  2.04251e-02  1.80794e+00 
-1.01847e+01  1.93152e-02  1.72965e+00 
-1.04993e+01  1.81093e-02  1.64913e+00 
-1.08138e+01  1.68192e-02  1.56639e+00 
-1.11282e+01  1.54574e-02  1.48144e+00 
-1.14425e+01  1.40388e-02  1.39431e+00 
-1.17568e+01  1.25789e-02  1.30499e+00 
-1.20711e+01  1.10954e-02  1.21351e+00 
-1.23854e+01  9.60689e-03  1.11986e+00 
-1.26997e+01  8.13358e-03  1.02406e+00 
-1.30142e+01  6.69633e-03  9.26092e-01 
-1.33288e+01  5.31745e-03  8.25980e-01 
-1.36436e+01  4.01956e-03  7.23697e-01 
-1.39586e+01  2.82629e-03  6.19259e-01 
-1.42738e+01  1.76124e-03  5.12633e-01 
-1.45894e+01  8.48481e-04  4.03829e-01 
-1.49053e+01  1.11786e-04  2.92807e-01 
-1.52216e+01 -4.24226e-04  1.79572e-01 
-1.55502e+01 -2.68983e-02  2.92577e-02 
 1.50666e+01  2.59410e-02  2.95840e-02 
 1.47479e+01  3.33054e-04  1.80986e-01 
 1.44411e+01 -7.57804e-05  2.94976e-01 
 1.41345e+01 -6.41867e-04  4.06679e-01 
 1.38282e+01 -1.34839e-03  5.16085e-01 
 1.35221e+01 -2.17848e-03  6.23233e-01 
 1.32163e+01 -3.11472e-03  7.28112e-01 
 1.29106e+01 -4.13975e-03  8.30755e-01 
 1.26051e+01 -5.23594e-03  9.31147e-01 
 1.22997e+01 -6.38621e-03  1.02931e+00 
 1.19945e+01 -7.57344e-03  1.12524e+00 
 1.16892e+01 -8.78145e-03  1.21894e+00 
 1.13841e+01 -9.99427e-03  1.31041e+00 
 1.10789e+01 -1.11971e-02  1.39964e+00 
 1.07738e+01 -1.23757e-02  1.48662e+00 
 1.04686e+01 -1.35169e-02  1.57137e+00 
 1.01633e+01 -1.46083e-02  1.65385e+00 
 9.85797e+00 -1.56391e-02  1.73407e+00 
 9.55255e+00 -1.65990e-02  1.81201e+00 
 9.24698e+00 -1.74792e-02  1.88767e+00 
 8.94130e+00 -1.82717e-02  1.96102e+00 
 8.63544e+00 -1.89700e-02  2.03207e+00 
 8.32944e+00 -1.95683e-02  2.10078e+00 
 8.02324e+00 -2.00622e-02  2.16716e+00 
 7.71689e+00 -2.04481e-02  2.23117e+00 
 7.41031e+00 -2.07237e-02  2.29282e+00 
 7.10356e+00 -2.08874e-02  2.35207e+00 
 6.79658e+00 -2.09385e-02  2.40894e+00 
 6.48942e+00 -2.08772e-02  2.46338e+00 
 6.18203e+00 -2.07047e-02  2.51540e+00 
 5.87445e+00 -2.04226e-02  2.56497e+00 
 5.56665e+00 -2.00332e-02  2.61209e+00 
 5.25867e+00 -1.95398e-02  2.65673e+00 
 4.95046e+00 -1.89457e-02  2.69890e+00 
 4.64210e+00 -1.82551e-02  2.73857e+00 
 4.33352e+00 -1.74723e-02  2.77573e+00 
 4.02479e+00 -1.66024e-02  2.81038e+00 
 3.71586e+00 -1.56504e-02  2.84251e+00 
 3.40681e+00 -1.46218e-02  2.87209e+00 
 3.09757e+00 -1.35223e-02  2.89914e+00 
 2.78823e+00 -1.23580e-02  2.92363e+00 
 2.47874e+00 -1.11348e-02  2.94557e+00 
 2.16916e+00 -9.85906e-03  2.96493e+00 
 1.85945e+00 -8.53699e-03  2.98173e+00 
 1.54969e+00 -7.17528e-03  2.99595e+00 
 1.23983e+00 -5.78019e-03  3.00759e+00 
 9.29935e-01 -4.35859e-03  3.01665e+00 
 6.19968e-01 -2.91681e-03  3.02312e+00 
 3.10003e-01 -1.46180e-03  3.02701e+00 
-3.47651e-12 -6.85327e-12  3.02830e+00 
-3.10003e-01  1.46180e-03  3.02701e+00 
-6.19968e-01  2.91681e-03  3.02312e+00 
-9.29935e-01  4.35859e-03  3.01665e+00 
-1.23983e+00  5.78019e-03  3.00759e+00 
-1.54969e+00  7.17528e-03  2.99595e+00 
-1.85945e+00  8.53699e-03  2.98173e+00 
-2.16916e+00  9.85906e-03  2.96493e+00 
-2.47874e+00  1.11348e-02  2.94557e+00 
-2.78823e+00  1.23580e-02  2.92363e+00 
-3.09757e+00  1.35223e-02  2.89914e+00 
-3.40681e+00  1.46218e-02  2.87209e+00 
-3.71586e+00  1.56504e-02  2.84251e+00 
-4.02479e+00  1.66024e-02  2.81038e+00 
-4.33352e+00  1.74723e-02  2.77573e+00 
-4.64210e+00  1.82551e-02  2.73857e+00 
-4.95046e+00  1.89457e-02  2.69890e+00 
-5.25867e+00  1.95398e-02  2.65673e+00 
-5.56665e+00  2.00332e-02  2.61209e+00 
-5.87445e+00  2.04226e-02  2.56497e+00 
-6.18203e+00  2.07047e-02  2.51540e+00 
-6.48942e+00  2.08772e-02  2.46338e+00 
-6.79658e+00  2.09385e-02  2.40894e+00 
-7.10356e+00  2.08874e-02  2.35207e+00 
-7.41031e+00  2.07237e-02  2.29282e+00 
-7.71689e+00  2.04481e-02  2.23117e+00 
-8.02324e+00  2.00622e-02  2.16716e+00 
-8.32944e+00  1.95683e-02  2.10078e+00 
-8.63544e+00  1.89700e-02  2.03207e+00 
-8.94130e+00  1.82717e-02  1.96102e+00 
-9.24698e+00  1.74792e-02  1.88767e+00 
-9.55255e+00  1.65990e-02  1.81201e+00 
-9.85797e+00  1.56391e-02  1.73407e+00 
-1.01633e+01  1.46083e-02  1.65385e+00 
-1.04686e+01  1.35169e-02  1.57137e+00 
-1.07738e+01  1.23757e-02  1.48662e+00 
-1.10789e+01  1.11971e-02  1.39964e+00 
-1.13841e+01  9.99427e-03  1.31041e+00 
-1.16892e+01  8.78145e-03  1.21894e+00 
-1.19945e+01  7.57344e-03  1.12524e+00 
-1.22997e+01  6.38621e-03  1.02931e+00 
-1.26051e+01  5.23594e-03  9.31147e-01 
-1.29106e+01  4.13975e-03  8.30755e-01 
-1.32163e+01  3.11472e-03  7.28112e-01 
-1.35221e+01  2.17848e-03  6.23233e-01 
-1.38282e+01  1.34839e-03  5.16085e-01 
-1.41345e+01  6.41867e-04  4.06679e-01 
-1.44411e+01  7.57804e-05  2.94976e-01 
-1.47479e+01 -3.33054e-04  1.80986e-01 
-1.50666e+01 -2.59410e-02  2.95840e-02 
 1.45799e+01  2.50062e-02  2.98010e-02 
 1.42714e+01  2.65813e-04  1.82042e-01 
 1.39742e+01 -4.20482e-05  2.96617e-01 
 1.36772e+01 -4.71077e-04  4.08850e-01 
 1.33804e+01 -1.00974e-03  5.18733e-01 
 1.30839e+01 -1.64616e-03  6.26299e-01 
 1.27875e+01 -2.36785e-03  7.31539e-01 
 1.24912e+01 -3.16218e-03  8.34482e-01 
 1.21951e+01 -4.01613e-03  9.35115e-01 
 1.18991e+01 -4.91697e-03  1.03346e+00 
 1.16032e+01 -5.85178e-03  1.12951e+00 
 1.13073e+01 -6.80820e-03  1.22328e+00 
 1.10115e+01 -7.77389e-03  1.31476e+00 
 1.07157e+01 -8.73730e-03  1.40395e+00 
 1.04199e+01 -9.68705e-03  1.49085e+00 
 1.01241e+01 -1.06127e-02  1.57545e+00 
 9.82828e+00 -1.15042e-02  1.65775e+00 
 9.53238e+00 -1.23525e-02  1.73776e+00 
 9.23645e+00 -1.31489e-02  1.81544e+00 
 8.94041e+00 -1.38859e-02  1.89081e+00 
 8.64431e+00 -1.45565e-02  1.96384e+00 
 8.34807e+00 -1.51549e-02  2.03455e+00 
 8.05175e+00 -1.56756e-02  2.10289e+00 
 7.75527e+00 -1.61144e-02  2.16889e+00 
 7.45868e+00 -1.64676e-02  2.23251e+00 
 7.16193e+00 -1.67325e-02  2.29375e+00 
 6.86506e+00 -1.69070e-02  2.35259e+00 
 6.56801e+00 -1.69898e-02  2.40904e+00 
 6.27083e+00 -1.69805e-02  2.46307e+00 
 5.97347e+00 -1.68790e-02  2.51467e+00 
 5.67599e+00 -1.66861e-02  2.56383e+00 
 5.37832e+00 -1.64031e-02  2.61055e+00 
 5.08052e+00 -1.60321e-02  2.65481e+00 
 4.78254e+00 -1.55753e-02  2.69660e+00 
 4.48445e+00 -1.50357e-02  2.73590e+00 
 4.18618e+00 -1.44166e-02  2.77272e+00 
 3.88780e+00 -1.37217e-02  2.80704e+00 
 3.58927e+00 -1.29552e-02  2.83886e+00 
 3.29064e+00 -1.21214e-02  2.86816e+00 
 2.99186e+00 -1.12250e-02  2.89493e+00 
 2.69301e+00 -1.02711e-02  2.91918e+00 
 2.39403e+00 -9.26467e-03  2.94090e+00 
 2.09499e+00 -8.21127e-03  2.96007e+00 
 1.79584e+00 -7.11627e-03  2.97669e+00 
 1.49665e+00 -5.98553e-03  2.99077e+00 
 1.19738e+00 -4.82466e-03  3.00229e+00 
 8.98087e-01 -3.63976e-03  3.01125e+00 
 5.98732e-01 -2.43658e-03  3.01766e+00 
 2.99383e-01 -1.22137e-03  3.02150e+00 
-4.23001e-12 -6.00190e-12  3.02278e+00 
-2.99383e-01  1.22137e-03  3.02150e+00 
-5.98732e-01  2.43658e-03  3.01766e+00 
-8.98087e-01  3.63976e-03  3.01125e+00 
-1.19738e+00  4.82466e-03  3.00229e+00 
-1.49665e+00  5.98553e-03  2.99077e+00 
-1.79584e+00  7.11627e-03  2.97669e+00 
-2.09499e+00  8.21127e-03  2.96007e+00 
-2.39403e+00  9.26467e-03  2.94090e+00 
-2.69301e+00  1.02711e-02  2.91918e+00 
-2.99186e+00  1.12250e-02  2.89493e+00 
-3.29064e+00  1.21214e-02  2.86816e+00 
-3.58927e+00  1.29552e-02  2.83886e+00 
-3.88780e+00  1.37217e-02  2.80704e+00 
-4.18618e+00  1.44166e-02  2.77272e+00 
-4.48445e+00  1.50357e-02  2.73590e+00 
-4.78254e+00  1.55753e-02  2.69660e+00 
-5.08052e+00  1.60321e-02  2.65481e+00 
-5.37832e+00  1.64031e-02  2.61055e+00 
-5.67599e+00  1.66861e-02  2.56383e+00 
-5.97347e+00  1.68790e-02  2.51467e+00 
-6.27083e+00  1.69805e-02  2.46307e+00 
-6.56801e+00  1.69898e-02  2.40904e+00 
-6.86506e+00  1.69070e-02  2.35259e+00 
-7.16193e+00  1.67325e-02  2.29375e+00 
-7.45868e+00  1.64676e-02  2.23251e+00 
-7.75527e+00  1.61144e-02  2.16889e+00 
-8.05175e+00  1.56756e-02  2.10289e+00 
-8.34807e+00  1.51549e-02  2.03455e+00 
-8.64431e+00  1.45565e-02  1.96384e+00 
-8.94041e+00  1.38859e-02  1.89081e+00 
-9.23645e+00  1.31489e-02  1.81544e+00 
-9.53238e+00  1.23525e-02  1.73776e+00 
-9.82828e+00  1.15042e-02  1.65775e+00 
-1.01241e+01  1.06127e-02  1.57545e+00 
-1.04199e+01  9.68705e-03  1.49085e+00 
-1.07157e+01  8.73730e-03  1.40395e+00 
-1.10115e+01  7.77389e-03  1.31476e+00 
-1.13073e+01  6.80820e-03  1.22328e+00 
-1.16032e+01  5.85178e-03  1.12951e+00 
-1.18991e+01  4.91697e-03  1.03346e+00 
-1.21951e+01  4.01613e-03  9.35115e-01 
-1.24912e+01  3.16218e-03  8.34482e-01 
-1.27875e+01  2.36785e-03  7.31539e-01 
-1.30839e+01  1.64616e-03  6.26299e-01 
-1.33804e+01  1.00974e-03  5.18733e-01 
-1.36772e+01  4.71077e-04  4.08850e-01 
-1.39742e+01  4.20482e-05  2.96617e-01 
-1.42714e+01 -2.65813e-04  1.82042e-01 
-1.45799e+01 -2.50062e-02  2.98010e-02 
 1.40910e+01  2.40608e-02  2.99763e-02 
 1.37927e+01  1.93687e-04  1.82842e-01 
 1.35053e+01 -3.12167e-05  2.97860e-01 
 1.32181e+01 -3.49360e-04  4.10500e-01 
 1.29311e+01 -7.52008e-04  5.20751e-01 
 1.26442e+01 -1.23050e-03  6.28645e-01 
 1.23574e+01 -1.77579e-03  7.34171e-01 
 1.20708e+01 -2.37870e-03  8.37356e-01 
 1.17843e+01 -3.02972e-03  9.38188e-01 
 1.14978e+01 -3.71946e-03  1.03669e+00 
 1.12114e+01 -4.43829e-03  1.13285e+00 
 1.09251e+01 -5.17695e-03  1.22669e+00 
 1.06389e+01 -5.92607e-03  1.31819e+00 
 1.03526e+01 -6.67684e-03  1.40737e+00 
 1.00664e+01 -7.42043e-03  1.49421e+00 
 9.78012e+00 -8.14875e-03  1.57873e+00 
 9.49389e+00 -8.85379e-03  1.66090e+00 
 9.20759e+00 -9.52836e-03  1.74075e+00 
 8.92128e+00 -1.01655e-02  1.81824e+00 
 8.63490e+00 -1.07590e-02  1.89340e+00 
 8.34847e+00 -1.13031e-02  1.96619e+00 
 8.06195e+00 -1.17927e-02  2.03663e+00 
 7.77538e+00 -1.22234e-02  2.10470e+00 
 7.48868e+00 -1.25912e-02  2.17040e+00 
 7.20193e+00 -1.28929e-02  2.23370e+00 
 6.91504e+00 -1.31258e-02  2.29463e+00 
 6.62807e+00 -1.32878e-02  2.35314e+00 
 6.34097e+00 -1.33776e-02  2.40926e+00 
 6.05378e+00 -1.33941e-02  2.46295e+00 
 5.76644e+00 -1.33370e-02  2.51422e+00 
 5.47902e+00 -1.32066e-02  2.56305e+00 
 5.19146e+00 -1.30035e-02  2.60944e+00 
 4.90381e+00 -1.27288e-02  2.65337e+00 
 4.61601e+00 -1.23842e-02  2.69485e+00 
 4.32814e+00 -1.19718e-02  2.73385e+00 
 4.04012e+00 -1.14940e-02  2.77038e+00 
 3.75204e+00 -1.09536e-02  2.80442e+00 
 3.46382e+00 -1.03536e-02  2.83597e+00 
 3.17554e+00 -9.69768e-03  2.86503e+00 
 2.88713e+00 -8.98941e-03  2.89158e+00 
 2.59868e+00 -8.23288e-03  2.91562e+00 
 2.31012e+00 -7.43220e-03  2.93714e+00 
 2.02152e+00 -6.59190e-03  2.95614e+00 
 1.73284e+00 -5.71644e-03  2.97262e+00 
 1.44413e+00 -4.81069e-03  2.98657e+00 
 1.15534e+00 -3.87938e-03  2.99799e+00 
 8.66550e-01 -2.92763e-03  3.00687e+00 
 5.77703e-01 -1.96034e-03  3.01322e+00 
 2.88867e-01 -9.82792e-04  3.01702e+00 
-4.06014e-12 -7.75362e-12  3.01829e+00 
-2.88867e-01  9.82792e-04  3.01702e+00 
-5.77703e-01  1.96034e-03  3.01322e+00 
-8.66550e-01  2.92763e-03  3.00687e+00 
-1.15534e+00  3.87938e-03  2.99799e+00 
-1.44413e+00  4.81069e-03  2.98657e+00 
-1.73284e+00  5.71644e-03  2.97262e+00 
-2.02152e+00  6.59190e-03  2.95614e+00 
-2.31012e+00  7.43220e-03  2.93714e+00 
-2.59868e+00  8.23288e-03  2.91562e+00 
-2.88713e+00  8.98941e-03  2.89158e+00 
-3.17554e+00  9.69768e-03  2.86503e+00 
-3.46382e+00  1.03536e-02  2.83597e+00 
-3.75204e+00  1.09536e-02  2.80442e+00 
-4.04012e+00  1.14940e-02  2.77038e+00 
-4.32814e+00  1.19718e-02  2.73385e+00 
-4.61601e+00  1.23842e-02  2.69485e+00 
-4.90381e+00  1.27288e-02  2.65337e+00 
-5.19146e+00  1.30035e-02  2.60944e+00 
-5.47902e+00  1.32066e-02  2.56305e+00 
-5.76644e+00  1.33370e-02  2.51422e+00 
-6.05378e+00  1.33941e-02  2.46295e+00 
-6.34097e+00  1.33776e-02  2.40926e+00 
-6.62807e+00  1.32878e-02  2.35314e+00 
-6.91504e+00  1.31258e-02  2.29463e+00 
-7.20193e+00  1.28929e-02  2.23370e+00 
-7.48868e+00  1.25912e-02  2.17040e+00 
-7.77538e+00  1.22234e-02  2.10470e+00 
-8.06195e+00  1.17927e-02  2.03663e+00 
-8.34847e+00  1.13031e-02  1.96619e+00 
-8.63490e+00  1.07590e-02  1.89340e+00 
-8.92128e+00  1.01655e-02  1.81824e+00 
-9.20759e+00  9.52836e-03  1.74075e+00 
-9.49389e+00  8.85379e-03  1.66090e+00 
-9.78012e+00  8.14875e-03  1.57873e+00 
-1.00664e+01  7.42043e-03  1.49421e+00 
-1.03526e+01  6.67684e-03  1.40737e+00 
-1.06389e+01  5.92607e-03  1.31819e+00 
-1.09251e+01  5.17695e-03  1.22669e+00 
-1.12114e+01  4.43829e-03  1.13285e+00 
-1.14978e+01  3.71946e-03  1.03669e+00 
-1.17843e+01  3.02972e-03  9.38188e-01 
-1.20708e+01  2.37870e-03  8.37356e-01 
-1.23574e+01  1.77579e-03  7.34171e-01 
-1.26442e+01  1.23050e-03  6.28645e-01 
-1.29311e+01  7.52008e-04  5.20751e-01 
-1.32181e+01  3.49360e-04  4.10500e-01 
-1.35053e+01  3.12167e-05  2.97860e-01 
-1.37927e+01 -1.93687e-04  1.82842e-01 
-1.40910e+01 -2.40608e-02  2.99763e-02 
 1.36003e+01  2.31482e-02  3.00930e-02 
 1.33124e+01  1.41924e-04  1.83420e-01 
 1.30350e+01 -2.22210e-05  2.98770e-01 
 1.27577e+01 -2.54554e-04  4.11717e-01 
 1.24805e+01 -5.49574e-04  5.22248e-01 
 1.22034e+01 -9.01418e-04  6.30394e-01 
 1.19265e+01 -1.30379e-03  7.36141e-01 
 1.16496e+01 -1.75020e-03  8.39516e-01 
 1.13728e+01 -2.23384e-03  9.40506e-01 
 1.10960e+01 -2.74792e-03  1.03914e+00 
 1.08194e+01 -3.28544e-03  1.13539e+00 
 1.05428e+01 -3.83961e-03  1.22929e+00 
 1.02662e+01 -4.40349e-03  1.32082e+00 
 9.98960e+00 -4.97052e-03  1.40999e+00 
 9.71307e+00 -5.53409e-03  1.49680e+00 
 9.43651e+00 -6.08806e-03  1.58126e+00 
 9.15997e+00 -6.62636e-03  1.66335e+00 
 8.88339e+00 -7.14343e-03  1.74308e+00 
 8.60681e+00 -7.63389e-03  1.82044e+00 
 8.33017e+00 -8.09292e-03  1.89544e+00 
 8.05352e+00 -8.51592e-03  1.96806e+00 
 7.77679e+00 -8.89891e-03  2.03830e+00 
 7.50003e+00 -9.23814e-03  2.10616e+00 
 7.22318e+00 -9.53053e-03  2.17163e+00 
 6.94630e+00 -9.77325e-03  2.23470e+00 
 6.66931e+00 -9.96409e-03  2.29538e+00 
 6.39227e+00 -1.01012e-02  2.35364e+00 
 6.11513e+00 -1.01831e-02  2.40950e+00 
 5.83794e+00 -1.02090e-02  2.46293e+00 
 5.56063e+00 -1.01784e-02  2.51393e+00 
 5.28327e+00 -1.00911e-02  2.56250e+00 
 5.00580e+00 -9.94753e-03  2.60863e+00 
 4.72827e+00 -9.74830e-03  2.65231e+00 
 4.45062e+00 -9.49451e-03  2.69353e+00 
 4.17293e+00 -9.18760e-03  2.73230e+00 
 3.89512e+00 -8.82929e-03  2.76859e+00 
 3.61727e+00 -8.42169e-03  2.80241e+00 
 3.33931e+00 -7.96707e-03  2.83375e+00 
 3.06132e+00 -7.46812e-03  2.86261e+00 
 2.78322e+00 -6.92762e-03  2.88897e+00 
 2.50510e+00 -6.34873e-03  2.91284e+00 
 2.22689e+00 -5.73464e-03  2.93421e+00 
 1.94866e+00 -5.08891e-03  2.95308e+00 
 1.67035e+00 -4.41505e-03  2.96943e+00 
 1.39203e+00 -3.71693e-03  2.98328e+00 
 1.11365e+00 -2.99830e-03  2.99461e+00 
 8.35276e-01 -2.26327e-03  3.00343e+00 
 5.56851e-01 -1.51575e-03  3.00973e+00 
 2.78439e-01 -7.59984e-04  3.01351e+00 
-3.97356e-12 -9.19135e-12  3.01477e+00 
-2.78439e-01  7.59984e-04  3.01351e+00 
-5.56851e-01  1.51575e-03  3.00973e+00 
-8.35276e-01  2.26327e-03  3.00343e+00 
-1.11365e+00  2.99830e-03  2.99461e+00 
-1.39203e+00  3.71693e-03  2.98328e+00 
-1.67035e+00  4.41505e-03  2.96943e+00 
-1.94866e+00  5.08891e-03  2.95308e+00 
-2.22689e+00  5.73464e-03  2.93421e+00 
-2.50510e+00  6.34873e-03  2.91284e+00 
-2.78322e+00  6.92762e-03  2.88897e+00 
-3.06132e+00  7.46812e-03  2.86261e+00 
-3.33931e+00  7.96707e-03  2.83375e+00 
-3.61727e+00  8.42169e-03  2.80241e+00 
-3.89512e+00  8.82929e-03  2.76859e+00 
-4.17293e+00  9.18760e-03  2.73230e+00 
-4.45062e+00  9.49451e-03  2.69353e+00 
-4.72827e+00  9.74830e-03  2.65231e+00 
-5.00580e+00  9.94753e-03  2.60863e+00 
-5.28327e+00  1.00911e-02  2.56250e+00 
-5.56063e+00  1.01784e-02  2.51393e+00 
-5.83794e+00  1.02090e-02  2.46293e+00 
-6.11513e+00  1.01831e-02  2.40950e+00 
-6.39227e+00  1.01012e-02  2.35364e+00 
-6.66931e+00  9.96409e-03  2.29538e+00 
-6.94630e+00  9.77325e-03  2.23470e+00 
-7.22318e+00  9.53053e-03  2.17163e+00 
-7.50003e+00  9.23814e-03  2.10616e+00 
-7.77679e+00  8.89891e-03  2.03830e+00 
-8.05352e+00  8.51592e-03  1.96806e+00 
-8.33017e+00  8.09292e-03  1.89544e+00 
-8.60681e+00  7.63389e-03  1.82044e+00 
-8.88339e+00  7.14343e-03  1.74308e+00 
-9.15997e+00  6.62636e-03  1.66335e+00 
-9.43651e+00  6.08806e-03  1.58126e+00 
-9.71307e+00  5.53409e-03  1.49680e+00 
-9.98960e+00  4.97052e-03  1.40999e+00 
-1.02662e+01  4.40349e-03  1.32082e+00 
-1.05428e+01  3.83961e-03  1.22929e+00 
-1.08194e+01  3.28544e-03  1.13539e+00 
-1.10960e+01  2.74792e-03  1.03914e+00 
-1.13728e+01  2.23384e-03  9.40506e-01 
-1.16496e+01  1.75020e-03  8.39516e-01 
-1.19265e+01  1.30379e-03  7.36141e-01 
-1.22034e+01  9.01418e-04  6.30394e-01 
-1.24805e+01  5.49574e-04  5.22248e-01 
-1.27577e+01  2.54554e-04  4.11717e-01 
-1.30350e+01  2.22210e-05  2.98770e-01 
-1.33124e+01 -1.41924e-04  1.83420e-01 
-1.36003e+01 -2.31482e-02  3.00930e-02 
 1.31084e+01  2.22576e-02  3.01590e-02 
 1.28309e+01  1.09578e-04  1.83825e-01 
 1.25635e+01 -7.07191e-06  2.99415e-01 
 1.22962e+01 -1.71840e-04  4.12586e-01 
 1.20290e+01 -3.81235e-04  5.23321e-01 
 1.17618e+01 -6.31373e-04  6.31652e-01 
 1.14948e+01 -9.17983e-04  7.37561e-01 
 1.12277e+01 -1.23659e-03  8.41079e-01 
 1.09608e+01 -1.58247e-03  9.42187e-01 
 1.06939e+01 -1.95087e-03  1.04091e+00 
 1.04271e+01 -2.33687e-03  1.13724e+00 
 1.01602e+01 -2.73563e-03  1.23119e+00 
 9.89345e+00 -3.14225e-03  1.32274e+00 
 9.62666e+00 -3.55201e-03  1.41192e+00 
 9.35991e+00 -3.96018e-03  1.49872e+00 
 9.09315e+00 -4.36231e-03  1.58314e+00 
 8.82640e+00 -4.75400e-03  1.66517e+00 
 8.55962e+00 -5.13119e-03  1.74482e+00 
 8.29286e+00 -5.48994e-03  1.82208e+00 
 8.02604e+00 -5.82669e-03  1.89697e+00 
 7.75922e+00 -6.13801e-03  1.96946e+00 
 7.49235e+00 -6.42095e-03  2.03956e+00 
 7.22546e+00 -6.67268e-03  2.10726e+00 
 6.95850e+00 -6.89085e-03  2.17257e+00 
 6.69152e+00 -7.07328e-03  2.23547e+00 
 6.42447e+00 -7.21827e-03  2.29596e+00 
 6.15739e+00 -7.32432e-03  2.35404e+00 
 5.89023e+00 -7.39035e-03  2.40970e+00 
 5.62304e+00 -7.41552e-03  2.46293e+00 
 5.35577e+00 -7.39940e-03  2.51374e+00 
 5.08846e+00 -7.34177e-03  2.56211e+00 
 4.82107e+00 -7.24280e-03  2.60805e+00 
 4.55364e+00 -7.10290e-03  2.65153e+00 
 4.28612e+00 -6.92277e-03  2.69257e+00 
 4.01858e+00 -6.70337e-03  2.73115e+00 
 3.75095e+00 -6.44593e-03  2.76726e+00 
 3.48329e+00 -6.15191e-03  2.80091e+00 
 3.21556e+00 -5.82296e-03  2.83209e+00 
 2.94780e+00 -5.46102e-03  2.86080e+00 
 2.67996e+00 -5.06811e-03  2.88702e+00 
 2.41211e+00 -4.64655e-03  2.91076e+00 
 2.14419e+00 -4.19869e-03  2.93201e+00 
 1.87626e+00 -3.72715e-03  2.95076e+00 
 1.60828e+00 -3.23455e-03  2.96703e+00 
 1.34029e+00 -2.72376e-03  2.98079e+00 
 1.07225e+00 -2.19760e-03  2.99206e+00 
 8.04213e-01 -1.65912e-03  3.00082e+00 
 5.36139e-01 -1.11126e-03  3.00709e+00 
 2.68082e-01 -5.57217e-04  3.01084e+00 
-4.53466e-12 -9.35587e-12  3.01210e+00 
-2.68082e-01  5.57217e-04  3.01084e+00 
-5.36139e-01  1.11126e-03  3.00709e+00 
-8.04213e-01  1.65912e-03  3.00082e+00 
-1.07225e+00  2.19760e-03  2.99206e+00 
-1.34029e+00  2.72376e-03  2.98079e+00 
-1.60828e+00  3.23455e-03  2.96703e+00 
-1.87626e+00  3.72715e-03  2.95076e+00 
-2.14419e+00  4.19869e-03  2.93201e+00 
-2.41211e+00  4.64655e-03  2.91076e+00 
-2.67996e+00  5.06811e-03  2.88702e+00 
-2.94780e+00  5.46102e-03  2.86080e+00 
-3.21556e+00  5.82296e-03  2.83209e+00 
-3.48329e+00  6.15191e-03  2.80091e+00 
-3.75095e+00  6.44593e-03  2.76726e+00 
-4.01858e+00  6.70337e-03  2.73115e+00 
-4.28612e+00  6.92277e-03  2.69257e+00 
-4.55364e+00  7.10290e-03  2.65153e+00 
-4.82107e+00  7.24280e-03  2.60805e+00 
-5.08846e+00  7.34177e-03  2.56211e+00 
-5.35577e+00  7.39940e-03  2.51374e+00 
-5.62304e+00  7.41552e-03  2.46293e+00 
-5.89023e+00  7.39035e-03  2.40970e+00 
-6.15739e+00  7.32432e-03  2.35404e+00 
-6.42447e+00  7.21827e-03  2.29596e+00 
-6.69152e+00  7.07328e-03  2.23547e+00 
-6.95850e+00  6.89085e-03  2.17257e+00 
-7.22546e+00  6.67268e-03  2.10726e+00 
-7.49235e+00  6.42095e-03  2.03956e+00 
-7.75922e+00  6.13801e-03  1.96946e+00 
-8.02604e+00  5.82669e-03  1.89697e+00 
-8.29286e+00  5.48994e-03  1.82208e+00 
-8.55962e+00  5.13119e-03  1.74482e+00 
-8.82640e+00  4.75400e-03  1.66517e+00 
-9.09315e+00  4.36231e-03  1.58314e+00 
-9.35991e+00  3.96018e-03  1.49872e+00 
-9.62666e+00  3.55201e-03  1.41192e+00 
-9.89345e+00  3.14225e-03  1.32274e+00 
-1.01602e+01  2.73563e-03  1.23119e+00 
-1.04271e+01  2.33687e-03  1.13724e+00 
-1.06939e+01  1.95087e-03  1.04091e+00 
-1.09608e+01  1.58247e-03  9.42187e-01 
-1.12277e+01  1.23659e-03  8.41079e-01 
-1.14948e+01  9.17983e-04  7.37561e-01 
-1.17618e+01  6.31373e-04  6.31652e-01 
-1.20290e+01  3.81235e-04  5.23321e-01 
-1.22962e+01  1.71840e-04  4.12586e-01 
-1.25635e+01  7.07191e-06  2.99415e-01 
-1.28309e+01 -1.09578e-04  1.83825e-01 
-1.31084e+01 -2.22576e-02  3.01590e-02 
 1.26155e+01  2.13513e-02  3.02232e-02 
 1.23486e+01  6.62423e-05  1.84117e-01 
 1.20913e+01 -8.98372e-06  2.99871e-01 
 1.18340e+01 -1.17380e-04  4.13196e-01 
 1.15768e+01 -2.55986e-04  5.24073e-01 
 1.13196e+01 -4.21974e-04  6.32532e-01 
 1.10625e+01 -6.12391e-04  7.38556e-01 
 1.08054e+01 -8.24235e-04  8.42173e-01 
 1.05484e+01 -1.05434e-03  9.43365e-01 
 1.02914e+01 -1.29956e-03  1.04216e+00 
 1.00345e+01 -1.55660e-03  1.13854e+00 
 9.77754e+00 -1.82227e-03  1.23252e+00 
 9.52063e+00 -2.09330e-03  1.32410e+00 
 9.26372e+00 -2.36655e-03  1.41328e+00 
 9.00683e+00 -2.63887e-03  1.50007e+00 
 8.74993e+00 -2.90730e-03  1.58446e+00 
 8.49305e+00 -3.16889e-03  1.66645e+00 
 8.23613e+00 -3.42096e-03  1.74605e+00 
 7.97924e+00 -3.66084e-03  1.82325e+00 
 7.72230e+00 -3.88617e-03  1.89806e+00 
 7.46537e+00 -4.09464e-03  1.97046e+00 
 7.20839e+00 -4.28427e-03  2.04046e+00 
 6.95142e+00 -4.45316e-03  2.10806e+00 
 6.69439e+00 -4.59971e-03  2.17325e+00 
 6.43735e+00 -4.72247e-03  2.23603e+00 
 6.18026e+00 -4.82027e-03  2.29639e+00 
 5.92316e+00 -4.89209e-03  2.35434e+00 
 5.66599e+00 -4.93718e-03  2.40987e+00 
 5.40882e+00 -4.95498e-03  2.46296e+00 
 5.15158e+00 -4.94516e-03  2.51363e+00 
 4.89432e+00 -4.90757e-03  2.56186e+00 
 4.63700e+00 -4.84230e-03  2.60766e+00 
 4.37967e+00 -4.74961e-03  2.65101e+00 
 4.12227e+00 -4.62994e-03  2.69191e+00 
 3.86486e+00 -4.48394e-03  2.73036e+00 
 3.60738e+00 -4.31240e-03  2.76635e+00 
 3.34989e+00 -4.11629e-03  2.79988e+00 
 3.09234e+00 -3.89673e-03  2.83094e+00 
 2.83479e+00 -3.65499e-03  2.85954e+00 
 2.57718e+00 -3.39242e-03  2.88566e+00 
 2.31956e+00 -3.11058e-03  2.90930e+00 
 2.06189e+00 -2.81103e-03  2.93047e+00 
 1.80422e+00 -2.49555e-03  2.94915e+00 
 1.54650e+00 -2.16589e-03  2.96535e+00 
 1.28879e+00 -1.82398e-03  2.97905e+00 
 1.03104e+00 -1.47171e-03  2.99027e+00 
 7.73305e-01 -1.11114e-03  2.99900e+00 
 5.15532e-01 -7.44256e-04  3.00524e+00 
 2.57777e-01 -3.73195e-04  3.00898e+00 
-4.15572e-12 -1.15740e-11  3.01022e+00 
-2.57777e-01  3.73195e-04  3.00898e+00 
-5.15532e-01  7.44256e-04  3.00524e+00 
-7.73305e-01  1.11114e-03  2.99900e+00 
-1.03104e+00  1.47171e-03  2.99027e+00 
-1.28879e+00  1.82398e-03  2.97905e+00 
-1.54650e+00  2.16589e-03  2.96535e+00 
-1.80422e+00  2.49555e-03  2.94915e+00 
-2.06189e+00  2.81103e-03  2.93047e+00 
-2.31956e+00  3.11058e-03  2.90930e+00 
-2.57718e+00  3.39242e-03  2.88566e+00 
-2.83479e+00  3.65499e-03  2.85954e+00 
-3.09234e+00  3.89673e-03  2.83094e+00 
-3.34989e+00  4.11629e-03  2.79988e+00 
-3.60738e+00  4.31240e-03  2.76635e+00 
-3.86486e+00  4.48394e-03  2.73036e+00 
-4.12227e+00  4.62994e-03  2.69191e+00 
-4.37967e+00  4.74961e-03  2.65101e+00 
-4.63700e+00  4.84230e-03  2.60766e+00 
-4.89432e+00  4.90757e-03  2.56186e+00 
-5.15158e+00  4.94516e-03  2.51363e+00 
-5.40882e+00  4.95498e-03  2.46296e+00 
-5.66599e+00  4.93718e-03  2.40987e+00 
-5.92316e+00  4.89209e-03  2.35434e+00 
-6.18026e+00  4.82027e-03  2.29639e+00 
-6.43735e+00  4.72247e-03  2.23603e+00 
-6.69439e+00  4.59971e-03  2.17325e+00 
-6.95142e+00  4.45316e-03  2.10806e+00 
-7.20839e+00  4.28427e-03  2.04046e+00 
-7.46537e+00  4.09464e-03  1.97046e+00 
-7.72230e+00  3.88617e-03  1.89806e+00 
-7.97924e+00  3.66084e-03  1.82325e+00 
-8.23613e+00  3.42096e-03  1.74605e+00 
-8.49305e+00  3.16889e-03  1.66645e+00 
-8.74993e+00  2.90730e-03  1.58446e+00 
-9.00683e+00  2.63887e-03  1.50007e+00 
-9.26372e+00  2.36655e-03  1.41328e+00 
-9.52063e+00  2.09330e-03  1.32410e+00 
-9.77754e+00  1.82227e-03  1.23252e+00 
-1.00345e+01  1.55660e-03  1.13854e+00 
-1.02914e+01  1.29956e-03  1.04216e+00 
-1.05484e+01  1.05434e-03  9.43365e-01 
-1.08054e+01  8.24235e-04  8.42173e-01 
-1.10625e+01  6.12391e-04  7.38556e-01 
-1.13196e+01  4.21974e-04  6.32532e-01 
-1.15768e+01  2.55986e-04  5.24073e-01 
-1.18340e+01  1.17380e-04  4.13196e-01 
-1.20913e+01  8.98372e-06  2.99871e-01 
-1.23486e+01 -6.62423e-05  1.84117e-01 
-1.26155e+01 -2.13513e-02  3.02232e-02 
 1.21221e+01  2.04675e-02  3.02588e-02 
 1.18657e+01  3.54244e-05  1.84295e-01 
 1.16185e+01 -9.03112e-06  3.00155e-01 
 1.13713e+01 -7.16599e-05  4.13577e-01 
 1.11241e+01 -1.51015e-04  5.24543e-01 
 1.08770e+01 -2.45497e-04  6.33083e-01 
 1.06299e+01 -3.53396e-04  7.39179e-01 
 1.03829e+01 -4.72943e-04  8.42858e-01 
 1.01358e+01 -6.02306e-04  9.44102e-01 
 9.88878e+00 -7.39653e-04  1.04294e+00 
 9.64177e+00 -8.83112e-04  1.13935e+00 
 9.39476e+00 -1.03086e-03  1.23336e+00 
 9.14778e+00 -1.18106e-03  1.32494e+00 
 8.90078e+00 -1.33196e-03  1.41413e+00 
 8.65381e+00 -1.48181e-03  1.50091e+00 
 8.40681e+00 -1.62899e-03  1.58528e+00 
 8.15984e+00 -1.77189e-03  1.66725e+00 
 7.91283e+00 -1.90906e-03  1.74682e+00 
 7.66585e+00 -2.03906e-03  1.82397e+00 
 7.41883e+00 -2.16063e-03  1.89873e+00 
 7.17182e+00 -2.27257e-03  1.97108e+00 
 6.92478e+00 -2.37383e-03  2.04102e+00 
 6.67774e+00 -2.46343e-03  2.10855e+00 
 6.43066e+00 -2.54056e-03  2.17367e+00 
 6.18359e+00 -2.60448e-03  2.23637e+00 
 5.93647e+00 -2.65461e-03  2.29666e+00 
 5.68936e+00 -2.69045e-03  2.35452e+00 
 5.44220e+00 -2.71167e-03  2.40997e+00 
 5.19505e+00 -2.71802e-03  2.46298e+00 
 4.94784e+00 -2.70936e-03  2.51356e+00 
 4.70064e+00 -2.68568e-03  2.56171e+00 
 4.45339e+00 -2.64706e-03  2.60742e+00 
 4.20614e+00 -2.59369e-03  2.65068e+00 
 3.95885e+00 -2.52586e-03  2.69150e+00 
 3.71156e+00 -2.44395e-03  2.72987e+00 
 3.46422e+00 -2.34841e-03  2.76578e+00 
 3.21688e+00 -2.23980e-03  2.79923e+00 
 2.96950e+00 -2.11873e-03  2.83023e+00 
 2.72213e+00 -1.98591e-03  2.85875e+00 
 2.47471e+00 -1.84207e-03  2.88482e+00 
 2.22730e+00 -1.68806e-03  2.90840e+00 
 1.97985e+00 -1.52471e-03  2.92951e+00 
 1.73241e+00 -1.35298e-03  2.94815e+00 
 1.48494e+00 -1.17378e-03  2.96431e+00 
 1.23748e+00 -9.88155e-04  2.97798e+00 
 9.89980e-01 -7.97088e-04  2.98917e+00 
 7.42502e-01 -6.01674e-04  2.99787e+00 
 4.94995e-01 -4.02945e-04  3.00409e+00 
 2.47507e-01 -2.02033e-04  3.00782e+00 
-4.31574e-12 -1.30226e-11  3.00907e+00 
-2.47507e-01  2.02033e-04  3.00782e+00 
-4.94995e-01  4.02945e-04  3.00409e+00 
-7.42502e-01  6.01674e-04  2.99787e+00 
-9.89980e-01  7.97088e-04  2.98917e+00 
-1.23748e+00  9.88155e-04  2.97798e+00 
-1.48494e+00  1.17378e-03  2.96431e+00 
-1.73241e+00  1.35298e-03  2.94815e+00 
-1.97985e+00  1.52471e-03  2.92951e+00 
-2.22730e+00  1.68806e-03  2.90840e+00 
-2.47471e+00  1.84207e-03  2.88482e+00 
-2.72213e+00  1.98591e-03  2.85875e+00 
-2.96950e+00  2.11873e-03  2.83023e+00 
-3.21688e+00  2.23980e-03  2.79923e+00 
-3.46422e+00  2.34841e-03  2.76578e+00 
-3.71156e+00  2.44395e-03  2.72987e+00 
-3.95885e+00  2.52586e-03  2.69150e+00 
-4.20614e+00  2.59369e-03  2.65068e+00 
-4.45339e+00  2.64706e-03  2.60742e+00 
-4.70064e+00  2.68568e-03  2.56171e+00 
-4.94784e+00  2.70936e-03  2.51356e+00 
-5.19505e+00  2.71802e-03  2.46298e+00 
-5.44220e+00  2.71167e-03  2.40997e+00 
-5.68936e+00  2.69045e-03  2.35452e+00 
-5.93647e+00  2.65461e-03  2.29666e+00 
-6.18359e+00  2.60448e-03  2.23637e+00 
-6.43066e+00  2.54056e-03  2.17367e+00 
-6.67774e+00  2.46343e-03  2.10855e+00 
-6.92478e+00  2.37383e-03  2.04102e+00 
-7.17182e+00  2.27257e-03  1.97108e+00 
-7.41883e+00  2.16063e-03  1.89873e+00 
-7.66585e+00  2.03906e-03  1.82397e+00 
-7.91283e+00  1.90906e-03  1.74682e+00 
-8.15984e+00  1.77189e-03  1.66725e+00 
-8.40681e+00  1.62899e-03  1.58528e+00 
-8.65381e+00  1.48181e-03  1.50091e+00 
-8.90078e+00  1.33196e-03  1.41413e+00 
-9.14778e+00  1.18106e-03  1.32494e+00 
-9.39476e+00  1.03086e-03  1.23336e+00 
-9.64177e+00  8.83112e-04  1.13935e+00 
-9.88878e+00  7.39653e-04  1.04294e+00 
-1.01358e+01  6.02306e-04  9.44102e-01 
-1.03829e+01  4.72943e-04  8.42858e-01 
-1.06299e+01  3.53396e-04  7.39179e-01 
-1.08770e+01  2.45497e-04  6.33083e-01 
-1.11241e+01  1.51015e-04  5.24543e-01 
-1.13713e+01  7.16599e-05  4.13577e-01 
-1.16185e+01  9.03112e-06  3.00155e-01 
-1.18657e+01 -3.54244e-05  1.84295e-01 
-1.21221e+01 -2.04675e-02  3.02588e-02 
 1.16284e+01  1.95968e-02  3.02667e-02 
 1.13825e+01  1.73946e-05  1.84378e-01 
 1.11454e+01  3.63716e-07  3.00287e-01 
 1.09083e+01 -2.13794e-05  4.13754e-01 
 1.06713e+01 -4.73222e-05  5.24761e-01 
 1.04342e+01 -7.68331e-05  6.33336e-01 
 1.01972e+01 -1.09234e-04  7.39463e-01 
 9.96011e+00 -1.43837e-04  8.43167e-01 
 9.72308e+00 -1.79975e-04  9.44433e-01 
 9.48603e+00 -2.17012e-04  1.04328e+00 
 9.24900e+00 -2.54348e-04  1.13971e+00 
 9.01195e+00 -2.91427e-04  1.23372e+00 
 8.77492e+00 -3.27738e-04  1.32531e+00 
 8.53787e+00 -3.62819e-04  1.41450e+00 
 8.30083e+00 -3.96255e-04  1.50126e+00 
 8.06377e+00 -4.27682e-04  1.58563e+00 
 7.82673e+00 -4.56786e-04  1.66758e+00 
 7.58966e+00 -4.83299e-04  1.74713e+00 
 7.35261e+00 -5.07004e-04  1.82427e+00 
 7.11552e+00 -5.27726e-04  1.89900e+00 
 6.87846e+00 -5.45338e-04  1.97132e+00 
 6.64136e+00 -5.59748e-04  2.04123e+00 
 6.40428e+00 -5.70910e-04  2.10873e+00 
 6.16716e+00 -5.78805e-04  2.17382e+00 
 5.93006e+00 -5.83455e-04  2.23649e+00 
 5.69293e+00 -5.84901e-04  2.29674e+00 
 5.45581e+00 -5.83222e-04  2.35457e+00 
 5.21867e+00 -5.78507e-04  2.40998e+00 
 4.98153e+00 -5.70875e-04  2.46295e+00 
 4.74437e+00 -5.60449e-04  2.51350e+00 
 4.50722e+00 -5.47379e-04  2.56161e+00 
 4.27004e+00 -5.31808e-04  2.60728e+00 
 4.03287e+00 -5.13904e-04  2.65051e+00 
 3.79567e+00 -4.93820e-04  2.69130e+00 
 3.55849e+00 -4.71732e-04  2.72963e+00 
 3.32128e+00 -4.47792e-04  2.76552e+00 
 3.08409e+00 -4.22175e-04  2.79894e+00 
 2.84686e+00 -3.95027e-04  2.82991e+00 
 2.60966e+00 -3.66516e-04  2.85841e+00 
 2.37242e+00 -3.36776e-04  2.88444e+00 
 2.13520e+00 -3.05963e-04  2.90801e+00 
 1.89796e+00 -2.74197e-04  2.92910e+00 
 1.66073e+00 -2.41619e-04  2.94771e+00 
 1.42348e+00 -2.08337e-04  2.96386e+00 
 1.18625e+00 -1.74478e-04  2.97751e+00 
 9.48993e-01 -1.40135e-04  2.98869e+00 
 7.11757e-01 -1.05426e-04  2.99739e+00 
 4.74496e-01 -7.04327e-05  3.00360e+00 
 2.37257e-01 -3.52643e-05  3.00733e+00 
-5.44710e-12 -1.24925e-11  3.00857e+00 
-2.37257e-01  3.52643e-05  3.00733e+00 
-4.74496e-01  7.04327e-05  3.00360e+00 
-7.11757e-01  1.05426e-04  2.99739e+00 
-9.48993e-01  1.40135e-04  2.98869e+00 
-1.18625e+00  1.74478e-04  2.97751e+00 
-1.42348e+00  2.08337e-04  2.96386e+00 
-1.66073e+00  2.41619e-04  2.94771e+00 
-1.89796e+00  2.74196e-04  2.92910e+00 
-2.13520e+00  3.05963e-04  2.90801e+00 
-2.37242e+00  3.36776e-04  2.88444e+00 
-2.60966e+00  3.66516e-04  2.85841e+00 
-2.84686e+00  3.95027e-04  2.82991e+00 
-3.08409e+00  4.22175e-04  2.79894e+00 
-3.32128e+00  4.47792e-04  2.76552e+00 
-3.55849e+00  4.71732e-04  2.72963e+00 
-3.79567e+00  4.93820e-04  2.69130e+00 
-4.03287e+00  5.13904e-04  2.65051e+00 
-4.27004e+00  5.31808e-04  2.60728e+00 
-4.50722e+00  5.47379e-04  2.56161e+00 
-4.74437e+00  5.60449e-04  2.51350e+00 
-4.98153e+00  5.70875e-04  2.46295e+00 
-5.21867e+00  5.78507e-04  2.40998e+00 
-5.45581e+00  5.83222e-04  2.35457e+00 
-5.69293e+00  5.84901e-04  2.29674e+00 
-5.93006e+00  5.83454e-04  2.23649e+00 
-6.16716e+00  5.78805e-04  2.17382e+00 
-6.40428e+00  5.70910e-04  2.10873e+00 
-6.64136e+00  5.59748e-04  2.04123e+00 
-6.87846e+00  5.45338e-04  1.97132e+00 
-7.11552e+00  5.27726e-04  1.89900e+00 
-7.35261e+00  5.07004e-04  1.82427e+00 
-7.58966e+00  4.83299e-04  1.74713e+00 
-7.82673e+00  4.56786e-04  1.66758e+00 
-8.06377e+00  4.27682e-04  1.58563e+00 
-8.30083e+00  3.96255e-04  1.50126e+00 
-8.53787e+00  3.62819e-04  1.41450e+00 
-8.77492e+00  3.27738e-04  1.32531e+00 
-9.01195e+00  2.91427e-04  1.23372e+00 
-9.24900e+00  2.54348e-04  1.13971e+00 
-9.48603e+00  2.17012e-04  1.04328e+00 
-9.72308e+00  1.79975e-04  9.44433e-01 
-9.96011e+00  1.43837e-04  8.43167e-01 
-1.01972e+01  1.09234e-04  7.39463e-01 
-1.04342e+01  7.68331e-05  6.33336e-01 
-1.06713e+01  4.73221e-05  5.24761e-01 
-1.09083e+01  2.13794e-05  4.13754e-01 
-1.11454e+01 -3.63717e-07  3.00287e-01 
-1.13825e+01 -1.73946e-05  1.84378e-01 
-1.16284e+01 -1.95968e-02  3.02667e-02 
 1.11345e+01  1.87004e-02  3.02836e-02 
 1.08992e+01 -1.84917e-05  1.84392e-01 
 1.06722e+01 -4.81223e-06  3.00297e-01 
 1.04453e+01  1.60152e-05  4.13759e-01 
 1.02183e+01  4.45055e-05  5.24759e-01 
 9.99133e+00  8.07678e-05  6.33326e-01 
 9.76434e+00  1.24687e-04  7.39443e-01 
 9.53732e+00  1.75984e-04  8.43138e-01 
 9.31030e+00  2.34241e-04  9.44393e-01 
 9.08325e+00  2.98932e-04  1.04323e+00 
 8.85621e+00  3.69418e-04  1.13965e+00 
 8.62913e+00  4.44987e-04  1.23365e+00 
 8.40207e+00  5.24831e-04  1.32523e+00 
 8.17497e+00  6.08103e-04  1.41441e+00 
 7.94788e+00  6.93877e-04  1.50117e+00 
 7.72076e+00  7.81217e-04  1.58553e+00 
 7.49365e+00  8.69128e-04  1.66747e+00 
 7.26652e+00  9.56635e-04  1.74702e+00 
 7.03940e+00  1.04272e-03  1.82415e+00 
 6.81226e+00  1.12642e-03  1.89889e+00 
 6.58513e+00  1.20674e-03  1.97121e+00 
 6.35798e+00  1.28276e-03  2.04112e+00 
 6.13086e+00  1.35355e-03  2.10863e+00 
 5.90371e+00  1.41828e-03  2.17372e+00 
 5.67658e+00  1.47614e-03  2.23639e+00 
 5.44943e+00  1.52640e-03  2.29666e+00 
 5.22231e+00  1.56839e-03  2.35449e+00 
 4.99517e+00  1.60152e-03  2.40991e+00 
 4.76806e+00  1.62528e-03  2.46290e+00 
 4.54093e+00  1.63926e-03  2.51346e+00 
 4.31383e+00  1.64311e-03  2.56159e+00 
 4.08671e+00  1.63660e-03  2.60728e+00 
 3.85963e+00  1.61956e-03  2.65052e+00 
 3.63253e+00  1.59196e-03  2.69132e+00 
 3.40546e+00  1.55383e-03  2.72967e+00 
 3.17837e+00  1.50529e-03  2.76557e+00 
 2.95131e+00  1.44657e-03  2.79901e+00 
 2.72424e+00  1.37797e-03  2.82999e+00 
 2.49720e+00  1.29990e-03  2.85851e+00 
 2.27015e+00  1.21283e-03  2.88456e+00 
 2.04312e+00  1.11732e-03  2.90813e+00 
 1.81608e+00  1.01399e-03  2.92924e+00 
 1.58907e+00  9.03535e-04  2.94787e+00 
 1.36204e+00  7.86702e-04  2.96402e+00 
 1.13503e+00  6.64314e-04  2.97769e+00 
 9.08011e-01  5.37205e-04  2.98887e+00 
 6.81016e-01  4.06291e-04  2.99757e+00 
 4.54000e-01  2.72474e-04  3.00379e+00 
 2.27008e-01  1.36730e-04  3.00752e+00 
-4.36622e-12 -1.20438e-11  3.00877e+00 
-2.27008e-01 -1.36730e-04  3.00752e+00 
-4.54000e-01 -2.72474e-04  3.00379e+00 
-6.81016e-01 -4.06291e-04  2.99757e+00 
-9.08011e-01 -5.37205e-04  2.98887e+00 
-1.13503e+00 -6.64314e-04  2.97769e+00 
-1.36204e+00 -7.86702e-04  2.96402e+00 
-1.58907e+00 -9.03535e-04  2.94787e+00 
-1.81608e+00 -1.01399e-03  2.92924e+00 
-2.04312e+00 -1.11732e-03  2.90813e+00 
-2.27015e+00 -1.21283e-03  2.88456e+00 
-2.49720e+00 -1.29990e-03  2.85851e+00 
-2.72424e+00 -1.37797e-03  2.82999e+00 
-2.95131e+00 -1.44657e-03  2.79901e+00 
-3.17837e+00 -1.50529e-03  2.76557e+00 
-3.40546e+00 -1.55383e-03  2.72967e+00 
-3.63253e+00 -1.59196e-03  2.69132e+00 
-3.85963e+00 -1.61956e-03  2.65052e+00 
-4.08671e+00 -1.63660e-03  2.60728e+00 
-4.31383e+00 -1.64311e-03  2.56159e+00 
-4.54093e+00 -1.63926e-03  2.51346e+00 
-4.76806e+00 -1.62528e-03  2.46290e+00 
-4.99517e+00 -1.60152e-03  2.40991e+00 
-5.22231e+00 -1.56839e-03  2.35449e+00 
-5.44943e+00 -1.52640e-03  2.29666e+00 
-5.67658e+00 -1.47614e-03  2.23639e+00 
-5.90371e+00 -1.41828e-03  2.17372e+00 
-6.13086e+00 -1.35355e-03  2.10863e+00 
-6.35798e+00 -1.28276e-03  2.04112e+00 
-6.58513e+00 -1.20674e-03  1.97121e+00 
-6.81226e+00 -1.12642e-03  1.89889e+00 
-7.03940e+00 -1.04272e-03  1.82415e+00 
-7.26652e+00 -9.56635e-04  1.74702e+00 
-7.49365e+00 -8.69128e-04  1.66747e+00 
-7.72076e+00 -7.81217e-04  1.58553e+00 
-7.94788e+00 -6.93877e-04  1.50117e+00 
-8.17497e+00 -6.08103e-04  1.41441e+00 
-8.40207e+00 -5.24831e-04  1.32523e+00 
-8.62913e+00 -4.44987e-04  1.23365e+00 
-8.85621e+00 -3.69418e-04  1.13965e+00 
-9.08325e+00 -2.98932e-04  1.04323e+00 
-9.31030e+00 -2.34241e-04  9.44393e-01 
-9.53732e+00 -1.75984e-04  8.43138e-01 
-9.76434e+00 -1.24687e-04  7.39443e-01 
-9.99133e+00 -8.07678e-05  6.33326e-01 
-1.02183e+01 -4.45055e-05  5.24759e-01 
-1.04453e+01 -1.60152e-05  4.13759e-01 
-1.06722e+01  4.81223e-06  3.00297e-01 
-1.08992e+01  1.84917e-05  1.84392e-01 
-1.11345e+01 -1.87004e-02  3.02836e-02 
 1.06408e+01  1.78129e-02  3.02778e-02 
 1.04160e+01 -5.03054e-05  1.84312e-01 
 1.01992e+01 -6.63315e-06  3.00160e-01 
 9.98235e+00  5.93508e-05  4.13565e-01 
 9.76549e+00  1.46917e-04  5.24510e-01 
 9.54857e+00  2.55129e-04  6.33024e-01 
 9.33163e+00  3.82766e-04  7.39091e-01 
 9.11464e+00  5.28416e-04  8.42738e-01 
 8.89763e+00  6.90401e-04  9.43951e-01 
 8.68057e+00  8.66915e-04  1.04275e+00 
 8.46350e+00  1.05592e-03  1.13913e+00 
 8.24638e+00  1.25533e-03  1.23311e+00 
 8.02927e+00  1.46285e-03  1.32467e+00 
 7.81211e+00  1.67622e-03  1.41383e+00 
 7.59495e+00  1.89300e-03  1.50058e+00 
 7.37775e+00  2.11086e-03  1.58494e+00 
 7.16057e+00  2.32733e-03  1.66689e+00 
 6.94336e+00  2.54010e-03  1.74645e+00 
 6.72616e+00  2.74677e-03  1.82360e+00 
 6.50894e+00  2.94514e-03  1.89835e+00 
 6.29174e+00  3.13297e-03  1.97070e+00 
 6.07453e+00  3.30824e-03  2.04066e+00 
 5.85734e+00  3.46895e-03  2.10820e+00 
 5.64014e+00  3.61335e-03  2.17334e+00 
 5.42298e+00  3.73972e-03  2.23606e+00 
 5.20580e+00  3.84663e-03  2.29638e+00 
 4.98867e+00  3.93272e-03  2.35428e+00 
 4.77153e+00  3.99691e-03  2.40976e+00 
 4.55443e+00  4.03820e-03  2.46281e+00 
 4.33733e+00  4.05590e-03  2.51344e+00 
 4.12028e+00  4.04944e-03  2.56163e+00 
 3.90323e+00  4.01851e-03  2.60739e+00 
 3.68622e+00  3.96293e-03  2.65070e+00 
 3.46921e+00  3.88281e-03  2.69157e+00 
 3.25225e+00  3.77839e-03  2.72999e+00 
 3.03530e+00  3.65012e-03  2.76595e+00 
 2.81839e+00  3.49866e-03  2.79946e+00 
 2.60148e+00  3.32484e-03  2.83050e+00 
 2.38461e+00  3.12964e-03  2.85908e+00 
 2.16774e+00  2.91424e-03  2.88518e+00 
 1.95092e+00  2.67996e-03  2.90881e+00 
 1.73409e+00  2.42825e-03  2.92996e+00 
 1.51730e+00  2.16072e-03  2.94863e+00 
 1.30050e+00  1.87906e-03  2.96482e+00 
 1.08374e+00  1.58511e-03  2.97852e+00 
 8.66969e-01  1.28076e-03  2.98974e+00 
 6.50228e-01  9.68016e-04  2.99846e+00 
 4.33473e-01  6.48891e-04  3.00469e+00 
 2.16743e-01  3.25526e-04  3.00843e+00 
-4.55028e-12 -1.26992e-11  3.00968e+00 
-2.16743e-01 -3.25526e-04  3.00843e+00 
-4.33473e-01 -6.48891e-04  3.00469e+00 
-6.50228e-01 -9.68016e-04  2.99846e+00 
-8.66969e-01 -1.28076e-03  2.98974e+00 
-1.08374e+00 -1.58511e-03  2.97852e+00 
-1.30050e+00 -1.87906e-03  2.96482e+00 
-1.51730e+00 -2.16072e-03  2.94863e+00 
-1.73409e+00 -2.42825e-03  2.92996e+00 
-1.95092e+00 -2.67996e-03  2.90881e+00 
-2.16774e+00 -2.91424e-03  2.88518e+00 
-2.38461e+00 -3.12964e-03  2.85908e+00 
-2.60148e+00 -3.32484e-03  2.83050e+00 
-2.81839e+00 -3.49866e-03  2.79946e+00 
-3.03530e+00 -3.65012e-03  2.76595e+00 
-3.25225e+00 -3.77839e-03  2.72999e+00 
-3.46921e+00 -3.88281e-03  2.69157e+00 
-3.68622e+00 -3.96293e-03  2.65070e+00 
-3.90323e+00 -4.01851e-03  2.60739e+00 
-4.12028e+00 -4.04944e-03  2.56163e+00 
-4.33733e+00 -4.05590e-03  2.51344e+00 
-4.55443e+00 -4.03820e-03  2.46281e+00 
-4.77153e+00 -3.99691e-03  2.40976e+00 
-4.98867e+00 -3.93272e-03  2.35428e+00 
-5.20580e+00 -3.84663e-03  2.29638e+00 
-5.42298e+00 -3.73972e-03  2.23606e+00 
-5.64014e+00 -3.61335e-03  2.17334e+00 
-5.85734e+00 -3.46895e-03  2.10820e+00 
-6.07453e+00 -3.30824e-03  2.04066e+00 
-6.29174e+00 -3.13297e-03  1.97070e+00 
-6.50894e+00 -2.94514e-03  1.89835e+00 
-6.72616e+00 -2.74677e-03  1.82360e+00 
-6.94336e+00 -2.54010e-03  1.74645e+00 
-7.16057e+00 -2.32733e-03  1.66689e+00 
-7.37775e+00 -2.11086e-03  1.58494e+00 
-7.59495e+00 -1.89300e-03  1.50058e+00 
-7.81211e+00 -1.67622e-03  1.41383e+00 
-8.02927e+00 -1.46285e-03  1.32467e+00 
-8.24638e+00 -1.25533e-03  1.23311e+00 
-8.46350e+00 -1.05592e-03  1.13913e+00 
-8.68057e+00 -8.66915e-04  1.04275e+00 
-8.89763e+00 -6.90401e-04  9.43951e-01 
-9.11464e+00 -5.28416e-04  8.42738e-01 
-9.33163e+00 -3.82766e-04  7.39091e-01 
-9.54857e+00 -2.55129e-04  6.33024e-01 
-9.76549e+00 -1.46917e-04  5.24510e-01 
-9.98235e+00 -5.93508e-05  4.13565e-01 
-1.01992e+01  6.63315e-06  3.00160e-01 
-1.04160e+01  5.03054e-05  1.84312e-01 
-1.06408e+01 -1.78129e-02  3.02778e-02 
 1.01474e+01  1.69267e-02  3.02459e-02 
 9.93315e+00 -7.69153e-05  1.84125e-01 
 9.72651e+00  3.02701e-06  2.99853e-01 
 9.51978e+00  1.22804e-04  4.13141e-01 
 9.31300e+00  2.80527e-04  5.23974e-01 
 9.10613e+00  4.74027e-04  6.32381e-01 
 8.89922e+00  7.00755e-04  7.38349e-01 
 8.69223e+00  9.57890e-04  8.41907e-01 
 8.48520e+00  1.24223e-03  9.43039e-01 
 8.27810e+00  1.55040e-03  1.04177e+00 
 8.07098e+00  1.87869e-03  1.13809e+00 
 7.86378e+00  2.22335e-03  1.23202e+00 
 7.65658e+00  2.58035e-03  1.32354e+00 
 7.44932e+00  2.94572e-03  1.41268e+00 
 7.24205e+00  3.31528e-03  1.49943e+00 
 7.03475e+00  3.68503e-03  1.58379e+00 
 6.82745e+00  4.05081e-03  1.66575e+00 
 6.62012e+00  4.40873e-03  1.74534e+00 
 6.41280e+00  4.75481e-03  1.82253e+00 
 6.20547e+00  5.08542e-03  1.89734e+00 
 5.99817e+00  5.39690e-03  1.96975e+00 
 5.79086e+00  5.68599e-03  2.03977e+00 
 5.58358e+00  5.94945e-03  2.10740e+00 
 5.37631e+00  6.18449e-03  2.17263e+00 
 5.16908e+00  6.38842e-03  2.23546e+00 
 4.96186e+00  6.55898e-03  2.29588e+00 
 4.75469e+00  6.69407e-03  2.35389e+00 
 4.54753e+00  6.79204e-03  2.40949e+00 
 4.34044e+00  6.85143e-03  2.46266e+00 
 4.13336e+00  6.87123e-03  2.51342e+00 
 3.92634e+00  6.85064e-03  2.56173e+00 
 3.71935e+00  6.78927e-03  2.60762e+00 
 3.51242e+00  6.68702e-03  2.65106e+00 
 3.30552e+00  6.54413e-03  2.69206e+00 
 3.09868e+00  6.36114e-03  2.73061e+00 
 2.89186e+00  6.13891e-03  2.76670e+00 
 2.68510e+00  5.87859e-03  2.80032e+00 
 2.47837e+00  5.58161e-03  2.83148e+00 
 2.27169e+00  5.24970e-03  2.86016e+00 
 2.06504e+00  4.88479e-03  2.88637e+00 
 1.85843e+00  4.48912e-03  2.91009e+00 
 1.65184e+00  4.06507e-03  2.93133e+00 
 1.44531e+00  3.61532e-03  2.95008e+00 
 1.23877e+00  3.14262e-03  2.96634e+00 
 1.03228e+00  2.65000e-03  2.98010e+00 
 8.25793e-01  2.14051e-03  2.99136e+00 
 6.19340e-01  1.61744e-03  3.00012e+00 
 4.12878e-01  1.08403e-03  3.00638e+00 
 2.06445e-01  5.43764e-04  3.01014e+00 
-4.31720e-12 -1.21723e-11  3.01139e+00 
-2.06445e-01 -5.43764e-04  3.01014e+00 
-4.12878e-01 -1.08403e-03  3.00638e+00 
-6.19340e-01 -1.61744e-03  3.00012e+00 
-8.25793e-01 -2.14051e-03  2.99136e+00 
-1.03228e+00 -2.65000e-03  2.98010e+00 
-1.23877e+00 -3.14262e-03  2.96634e+00 
-1.44531e+00 -3.61532e-03  2.95008e+00 
-1.65184e+00 -4.06507e-03  2.93133e+00 
-1.85843e+00 -4.48912e-03  2.91009e+00 
-2.06504e+00 -4.88479e-03  2.88637e+00 
-2.27169e+00 -5.24970e-03  2.86016e+00 
-2.47837e+00 -5.58161e-03  2.83148e+00 
-2.68510e+00 -5.87859e-03  2.80032e+00 
-2.89186e+00 -6.13891e-03  2.76670e+00 
-3.09868e+00 -6.36114e-03  2.73061e+00 
-3.30552e+00 -6.54413e-03  2.69206e+00 
-3.51242e+00 -6.68702e-03  2.65106e+00 
-3.71935e+00 -6.78927e-03  2.60762e+00 
-3.92634e+00 -6.85064e-03  2.56173e+00 
-4.13336e+00 -6.87123e-03  2.51342e+00 
-4.34044e+00 -6.85143e-03  2.46266e+00 
-4.54753e+00 -6.79204e-03  2.40949e+00 
-4.75469e+00 -6.69407e-03  2.35389e+00 
-4.96186e+00 -6.55898e-03  2.29588e+00 
-5.16908e+00 -6.38842e-03  2.23546e+00 
-5.37631e+00 -6.18449e-03  2.17263e+00 
-5.58358e+00 -5.94945e-03  2.10740e+00 
-5.79086e+00 -5.68599e-03  2.03977e+00 
-5.99817e+00 -5.39690e-03  1.96975e+00 
-6.20547e+00 -5.08542e-03  1.89734e+00 
-6.41280e+00 -4.75481e-03  1.82253e+00 
-6.62012e+00 -4.40873e-03  1.74534e+00 
-6.82745e+00 -4.05081e-03  1.66575e+00 
-7.03475e+00 -3.68503e-03  1.58379e+00 
-7.24205e+00 -3.31528e-03  1.49943e+00 
-7.44932e+00 -2.94572e-03  1.41268e+00 
-7.65658e+00 -2.58035e-03  1.32354e+00 
-7.86378e+00 -2.22335e-03  1.23202e+00 
-8.07098e+00 -1.87869e-03  1.13809e+00 
-8.27810e+00 -1.55040e-03  1.04177e+00 
-8.48520e+00 -1.24223e-03  9.43039e-01 
-8.69223e+00 -9.57890e-04  8.41907e-01 
-8.89922e+00 -7.00755e-04  7.38349e-01 
-9.10613e+00 -4.74027e-04  6.32381e-01 
-9.31300e+00 -2.80527e-04  5.23974e-01 
-9.51978e+00 -1.22804e-04  4.13141e-01 
-9.72651e+00 -3.02702e-06  2.99853e-01 
-9.93315e+00  7.69153e-05  1.84125e-01 
-1.01474e+01 -1.69267e-02  3.02459e-02 
 9.65465e+00  1.60016e-02  3.02132e-02 
 9.45093e+00 -1.29764e-04  1.83827e-01 
 9.25443e+00  3.67583e-07  2.99356e-01 
 9.05779e+00  1.90539e-04  4.12453e-01 
 8.86106e+00  4.38096e-04  5.23104e-01 
 8.66421e+00  7.39601e-04  6.31342e-01 
 8.46728e+00  1.09092e-03  7.37154e-01 
 8.27025e+00  1.48748e-03  8.40571e-01 
 8.07314e+00  1.92414e-03  9.41578e-01 
 7.87595e+00  2.39556e-03  1.04020e+00 
 7.67870e+00  2.89591e-03  1.13643e+00 
 7.48137e+00  3.41936e-03  1.23029e+00 
 7.28401e+00  3.95970e-03  1.32177e+00 
 7.08659e+00  4.51088e-03  1.41088e+00 
 6.88915e+00  5.06656e-03  1.49761e+00 
 6.69167e+00  5.62070e-03  1.58198e+00 
 6.49419e+00  6.16712e-03  1.66398e+00 
 6.29668e+00  6.70001e-03  1.74362e+00 
 6.09919e+00  7.21353e-03  1.82088e+00 
 5.90169e+00  7.70232e-03  1.89577e+00 
 5.70423e+00  8.16108e-03  1.96829e+00 
 5.50677e+00  8.58507e-03  2.03843e+00 
 5.30936e+00  8.96966e-03  2.10619e+00 
 5.11196e+00  9.31086e-03  2.17157e+00 
 4.91463e+00  9.60485e-03  2.23455e+00 
 4.71733e+00  9.84848e-03  2.29515e+00 
 4.52010e+00  1.00388e-02  2.35333e+00 
 4.32291e+00  1.01736e-02  2.40912e+00 
 4.12579e+00  1.02510e-02  2.46249e+00 
 3.92873e+00  1.02695e-02  2.51344e+00 
 3.73174e+00  1.02282e-02  2.56195e+00 
 3.53481e+00  1.01266e-02  2.60804e+00 
 3.33796e+00  9.96492e-03  2.65168e+00 
 3.14117e+00  9.74350e-03  2.69288e+00 
 2.94446e+00  9.46330e-03  2.73162e+00 
 2.74780e+00  9.12570e-03  2.76790e+00 
 2.55122e+00  8.73249e-03  2.80170e+00 
 2.35469e+00  8.28585e-03  2.83304e+00 
 2.15824e+00  7.78839e-03  2.86188e+00 
 1.96182e+00  7.24298e-03  2.88825e+00 
 1.76549e+00  6.65294e-03  2.91212e+00 
 1.56918e+00  6.02178e-03  2.93349e+00 
 1.37294e+00  5.35342e-03  2.95235e+00 
 1.17672e+00  4.65185e-03  2.96872e+00 
 9.80549e-01  3.92151e-03  2.98257e+00 
 7.84394e-01  3.16679e-03  2.99390e+00 
 5.88282e-01  2.39249e-03  3.00272e+00 
 3.92170e-01  1.60326e-03  3.00902e+00 
 1.96089e-01  8.04158e-04  3.01280e+00 
-2.44246e-12 -1.42210e-11  3.01407e+00 
-1.96089e-01 -8.04158e-04  3.01280e+00 
-3.92170e-01 -1.60326e-03  3.00902e+00 
-5.88282e-01 -2.39249e-03  3.00272e+00 
-7.84394e-01 -3.16679e-03  2.99390e+00 
-9.80549e-01 -3.92151e-03  2.98257e+00 
-1.17672e+00 -4.65185e-03  2.96872e+00 
-1.37294e+00 -5.35342e-03  2.95235e+00 
-1.56918e+00 -6.02178e-03  2.93349e+00 
-1.76549e+00 -6.65294e-03  2.91212e+00 
-1.96182e+00 -7.24298e-03  2.88825e+00 
-2.15824e+00 -7.78839e-03  2.86188e+00 
-2.35469e+00 -8.28585e-03  2.83304e+00 
-2.55122e+00 -8.73249e-03  2.80170e+00 
-2.74780e+00 -9.12570e-03  2.76790e+00 
-2.94446e+00 -9.46330e-03  2.73162e+00 
-3.14117e+00 -9.74350e-03  2.69288e+00 
-3.33796e+00 -9.96492e-03  2.65168e+00 
-3.53481e+00 -1.01266e-02  2.60804e+00 
-3.73174e+00 -1.02282e-02  2.56195e+00 
-3.92873e+00 -1.02695e-02  2.51344e+00 
-4.12579e+00 -1.02510e-02  2.46249e+00 
-4.32291e+00 -1.01736e-02  2.40912e+00 
-4.52010e+00 -1.00388e-02  2.35333e+00 
-4.71733e+00 -9.84848e-03  2.29515e+00 
-4.91463e+00 -9.60485e-03  2.23455e+00 
-5.11196e+00 -9.31086e-03  2.17157e+00 
-5.30936e+00 -8.96966e-03  2.10619e+00 
-5.50677e+00 -8.58507e-03  2.03843e+00 
-5.70423e+00 -8.16108e-03  1.96829e+00 
-5.90169e+00 -7.70232e-03  1.89577e+00 
-6.09919e+00 -7.21353e-03  1.82088e+00 
-6.29668e+00 -6.70001e-03  1.74362e+00 
-6.49419e+00 -6.16712e-03  1.66398e+00 
-6.69167e+00 -5.62070e-03  1.58198e+00 
-6.88915e+00 -5.06656e-03  1.49761e+00 
-7.08659e+00 -4.51088e-03  1.41088e+00 
-7.28401e+00 -3.95970e-03  1.32177e+00 
-7.48137e+00 -3.41936e-03  1.23029e+00 
-7.67870e+00 -2.89591e-03  1.13643e+00 
-7.87595e+00 -2.39556e-03  1.04020e+00 
-8.07314e+00 -1.92414e-03  9.41578e-01 
-8.27025e+00 -1.48748e-03  8.40571e-01 
-8.46728e+00 -1.09092e-03  7.37154e-01 
-8.66421e+00 -7.39601e-04  6.31342e-01 
-8.86106e+00 -4.38096e-04  5.23104e-01 
-9.05779e+00 -1.90539e-04  4.12453e-01 
-9.25443e+00 -3.67588e-07  2.99356e-01 
-9.45093e+00  1.29764e-04  1.83827e-01 
-9.65465e+00 -1.60016e-02  3.02132e-02 
 9.16291e+00  1.50678e-02  3.01421e-02 
 8.96972e+00 -1.89494e-04  1.83356e-01 
 8.78330e+00  3.16049e-06  2.98591e-01 
 8.59671e+00  2.83794e-04  4.11406e-01 
 8.40998e+00  6.47342e-04  5.21791e-01 
 8.22308e+00  1.08808e-03  6.29782e-01 
 8.03607e+00  1.59946e-03  7.35368e-01 
 7.84891e+00  2.17442e-03  8.38582e-01 
 7.66165e+00  2.80520e-03  9.39413e-01 
 7.47426e+00  3.48378e-03  1.03789e+00 
 7.28680e+00  4.20159e-03  1.13400e+00 
 7.09924e+00  4.95008e-03  1.22776e+00 
 6.91163e+00  5.72024e-03  1.31917e+00 
 6.72395e+00  6.50334e-03  1.40825e+00 
 6.53624e+00  7.29036e-03  1.49498e+00 
 6.34848e+00  8.07271e-03  1.57937e+00 
 6.16072e+00  8.84166e-03  1.66142e+00 
 5.97294e+00  9.58911e-03  1.74114e+00 
 5.78519e+00  1.03069e-02  1.81850e+00 
 5.59744e+00  1.09877e-02  1.89353e+00 
 5.40973e+00  1.16241e-02  1.96620e+00 
 5.22205e+00  1.22098e-02  2.03653e+00 
 5.03444e+00  1.27384e-02  2.10448e+00 
 4.84686e+00  1.32047e-02  2.17008e+00 
 4.65938e+00  1.36034e-02  2.23330e+00 
 4.47195e+00  1.39306e-02  2.29414e+00 
 4.28462e+00  1.41823e-02  2.35258e+00 
 4.09735e+00  1.43558e-02  2.40864e+00 
 3.91020e+00  1.44486e-02  2.46228e+00 
 3.72313e+00  1.44590e-02  2.51351e+00 
 3.53617e+00  1.43860e-02  2.56232e+00 
 3.34929e+00  1.42292e-02  2.60869e+00 
 3.16253e+00  1.39890e-02  2.65262e+00 
 2.97586e+00  1.36661e-02  2.69410e+00 
 2.78930e+00  1.32621e-02  2.73311e+00 
 2.60283e+00  1.27791e-02  2.76966e+00 
 2.41647e+00  1.22196e-02  2.80372e+00 
 2.23018e+00  1.15868e-02  2.83530e+00 
 2.04400e+00  1.08844e-02  2.86438e+00 
 1.85789e+00  1.01164e-02  2.89097e+00 
 1.67187e+00  9.28754e-03  2.91504e+00 
 1.48590e+00  8.40256e-03  2.93659e+00 
 1.30003e+00  7.46691e-03  2.95563e+00 
 1.11419e+00  6.48608e-03  2.97214e+00 
 9.28417e-01  5.46613e-03  2.98611e+00 
 7.42673e-01  4.41305e-03  2.99755e+00 
 5.56982e-01  3.33339e-03  3.00645e+00 
 3.71299e-01  2.23348e-03  3.01281e+00 
 1.85652e-01  1.12017e-03  3.01663e+00 
-3.51556e-12 -1.55851e-11  3.01790e+00 
-1.85652e-01 -1.12017e-03  3.01663e+00 
-3.71299e-01 -2.23348e-03  3.01281e+00 
-5.56982e-01 -3.33339e-03  3.00645e+00 
-7.42673e-01 -4.41305e-03  2.99755e+00 
-9.28417e-01 -5.46613e-03  2.98611e+00 
-1.11419e+00 -6.48608e-03  2.97214e+00 
-1.30003e+00 -7.46691e-03  2.95563e+00 
-1.48590e+00 -8.40256e-03  2.93659e+00 
-1.67187e+00 -9.28754e-03  2.91504e+00 
-1.85789e+00 -1.01164e-02  2.89097e+00 
-2.04400e+00 -1.08844e-02  2.86438e+00 
-2.23018e+00 -1.15868e-02  2.83530e+00 
-2.41647e+00 -1.22196e-02  2.80372e+00 
-2.60283e+00 -1.27791e-02  2.76966e+00 
-2.78930e+00 -1.32621e-02  2.73311e+00 
-2.97586e+00 -1.36661e-02  2.69410e+00 
-3.16253e+00 -1.39890e-02  2.65262e+00 
-3.34929e+00 -1.42292e-02  2.60869e+00 
-3.53617e+00 -1.43860e-02  2.56232e+00 
-3.72313e+00 -1.44590e-02  2.51351e+00 
-3.91020e+00 -1.44486e-02  2.46228e+00 
-4.09735e+00 -1.43558e-02  2.40864e+00 
-4.28462e+00 -1.41823e-02  2.35258e+00 
-4.47195e+00 -1.39306e-02  2.29414e+00 
-4.65938e+00 -1.36034e-02  2.23330e+00 
-4.84686e+00 -1.32047e-02  2.17008e+00 
-5.03444e+00 -1.27384e-02  2.10448e+00 
-5.22205e+00 -1.22098e-02  2.03653e+00 
-5.40973e+00 -1.16241e-02  1.96620e+00 
-5.59744e+00 -1.09877e-02  1.89353e+00 
-5.78519e+00 -1.03069e-02  1.81850e+00 
-5.97294e+00 -9.58911e-03  1.74114e+00 
-6.16072e+00 -8.84166e-03  1.66142e+00 
-6.34848e+00 -8.07271e-03  1.57937e+00 
-6.53624e+00 -7.29036e-03  1.49498e+00 
-6.72395e+00 -6.50334e-03  1.40825e+00 
-6.91163e+00 -5.72024e-03  1.31917e+00 
-7.09924e+00 -4.95008e-03  1.22776e+00 
-7.28680e+00 -4.20159e-03  1.13400e+00 
-7.47426e+00 -3.48378e-03  1.03789e+00 
-7.66165e+00 -2.80520e-03  9.39413e-01 
-7.84891e+00 -2.17442e-03  8.38582e-01 
-8.03607e+00 -1.59946e-03  7.35368e-01 
-8.22308e+00 -1.08808e-03  6.29782e-01 
-8.40998e+00 -6.47342e-04  5.21791e-01 
-8.59671e+00 -2.83794e-04  4.11406e-01 
-8.78330e+00 -3.16049e-06  2.98591e-01 
-8.96972e+00  1.89494e-04  1.83356e-01 
-9.16291e+00 -1.50678e-02  3.01421e-02 
 8.67267e+00  1.41185e-02  3.00217e-02 
 8.48996e+00 -2.55244e-04  1.82663e-01 
 8.31359e+00  2.10166e-05  2.97474e-01 
 8.13697e+00  4.21102e-04  4.09887e-01 
 7.96015e+00  9.36825e-04  5.19896e-01 
 7.78311e+00  1.55927e-03  6.27540e-01 
 7.60590e+00  2.27851e-03  7.32812e-01 
 7.42849e+00  3.08407e-03  8.35747e-01 
 7.25095e+00  3.96456e-03  9.36335e-01 
 7.07324e+00  4.90842e-03  1.03461e+00 
 6.89543e+00  5.90338e-03  1.13056e+00 
 6.71749e+00  6.93732e-03  1.22420e+00 
 6.53949e+00  7.99759e-03  1.31553e+00 
 6.36140e+00  9.07205e-03  1.40457e+00 
 6.18328e+00  1.01482e-02  1.49130e+00 
 6.00511e+00  1.12143e-02  1.57575e+00 
 5.82694e+00  1.22584e-02  1.65788e+00 
 5.64876e+00  1.32697e-02  1.73772e+00 
 5.47062e+00  1.42371e-02  1.81524e+00 
 5.29250e+00  1.51508e-02  1.89046e+00 
 5.11444e+00  1.60013e-02  1.96336e+00 
 4.93644e+00  1.67800e-02  2.03394e+00 
 4.75853e+00  1.74789e-02  2.10217e+00 
 4.58070e+00  1.80911e-02  2.16808e+00 
 4.40298e+00  1.86101e-02  2.23162e+00 
 4.22536e+00  1.90307e-02  2.29281e+00 
 4.04788e+00  1.93482e-02  2.35161e+00 
 3.87050e+00  1.95592e-02  2.40804e+00 
 3.69328e+00  1.96609e-02  2.46206e+00 
 3.51618e+00  1.96514e-02  2.51368e+00 
 3.33924e+00  1.95298e-02  2.56288e+00 
 3.16242e+00  1.92959e-02  2.60964e+00 
 2.98576e+00  1.89504e-02  2.65396e+00 
 2.80923e+00  1.84948e-02  2.69582e+00 
 2.63286e+00  1.79315e-02  2.73520e+00 
 2.45661e+00  1.72633e-02  2.77211e+00 
 2.28052e+00  1.64941e-02  2.80652e+00 
 2.10453e+00  1.56281e-02  2.83844e+00 
 1.92869e+00  1.46705e-02  2.86783e+00 
 1.75295e+00  1.36267e-02  2.89471e+00 
 1.57733e+00  1.25030e-02  2.91905e+00 
 1.40180e+00  1.13057e-02  2.94086e+00 
 1.22638e+00  1.00422e-02  2.96012e+00 
 1.05102e+00  8.71957e-03  2.97682e+00 
 8.75743e-01  7.34592e-03  2.99096e+00 
 7.00514e-01  5.92905e-03  3.00254e+00 
 5.25350e-01  4.47753e-03  3.01155e+00 
 3.50206e-01  2.99963e-03  3.01799e+00 
 1.75103e-01  1.50427e-03  3.02185e+00 
-4.79472e-12 -1.39380e-11  3.02314e+00 
-1.75103e-01 -1.50427e-03  3.02185e+00 
-3.50206e-01 -2.99963e-03  3.01799e+00 
-5.25350e-01 -4.47753e-03  3.01155e+00 
-7.00514e-01 -5.92905e-03  3.00254e+00 
-8.75743e-01 -7.34592e-03  2.99096e+00 
-1.05102e+00 -8.71957e-03  2.97682e+00 
-1.22638e+00 -1.00422e-02  2.96012e+00 
-1.40180e+00 -1.13057e-02  2.94086e+00 
-1.57733e+00 -1.25030e-02  2.91905e+00 
-1.75295e+00 -1.36267e-02  2.89471e+00 
-1.92869e+00 -1.46705e-02  2.86783e+00 
-2.10453e+00 -1.56281e-02  2.83844e+00 
-2.28052e+00 -1.64941e-02  2.80652e+00 
-2.45661e+00 -1.72633e-02  2.77211e+00 
-2.63286e+00 -1.79315e-02  2.73520e+00 
-2.80923e+00 -1.84948e-02  2.69582e+00 
-2.98576e+00 -1.89504e-02  2.65396e+00 
-3.16242e+00 -1.92959e-02  2.60964e+00 
-3.33924e+00 -1.95298e-02  2.56288e+00 
-3.51618e+00 -1.96514e-02  2.51368e+00 
-3.69328e+00 -1.96609e-02  2.46206e+00 
-3.87050e+00 -1.95592e-02  2.40804e+00 
-4.04788e+00 -1.93482e-02  2.35161e+00 
-4.22536e+00 -1.90307e-02  2.29281e+00 
-4.40298e+00 -1.86101e-02  2.23162e+00 
-4.58070e+00 -1.80911e-02  2.16808e+00 
-4.75853e+00 -1.74789e-02  2.10217e+00 
-4.93644e+00 -1.67800e-02  2.03394e+00 
-5.11444e+00 -1.60013e-02  1.96336e+00 
-5.29250e+00 -1.51508e-02  1.89046e+00 
-5.47062e+00 -1.42371e-02  1.81524e+00 
-5.64876e+00 -1.32697e-02  1.73772e+00 
-5.82694e+00 -1.22584e-02  1.65788e+00 
-6.00511e+00 -1.12143e-02  1.57575e+00 
-6.18328e+00 -1.01482e-02  1.49130e+00 
-6.36140e+00 -9.07205e-03  1.40457e+00 
-6.53949e+00 -7.99759e-03  1.31553e+00 
-6.71749e+00 -6.93732e-03  1.22420e+00 
-6.89543e+00 -5.90338e-03  1.13056e+00 
-7.07324e+00 -4.90842e-03  1.03461e+00 
-7.25095e+00 -3.96456e-03  9.36335e-01 
-7.42849e+00 -3.08407e-03  8.35747e-01 
-7.60590e+00 -2.27851e-03  7.32812e-01 
-7.78311e+00 -1.55927e-03  6.27540e-01 
-7.96015e+00 -9.36825e-04  5.19896e-01 
-8.13697e+00 -4.21102e-04  4.09887e-01 
-8.31359e+00 -2.10166e-05  2.97474e-01 
-8.48996e+00  2.55244e-04  1.82663e-01 
-8.67267e+00 -1.41185e-02  3.00217e-02 
 8.18454e+00  1.31117e-02  2.98600e-02 
 8.01225e+00 -3.60133e-04  1.81688e-01 
 7.84583e+00  3.17370e-05  2.95907e-01 
 7.67906e+00  5.92369e-04  4.07763e-01 
 7.51202e+00  1.30981e-03  5.17254e-01 
 7.34468e+00  2.17096e-03  6.24425e-01 
 7.17711e+00  3.16135e-03  7.29272e-01 
 7.00928e+00  4.26583e-03  8.31834e-01 
 6.84127e+00  5.46816e-03  9.32103e-01 
 6.67305e+00  6.75197e-03  1.03011e+00 
 6.50469e+00  8.10011e-03  1.12585e+00 
 6.33618e+00  9.49576e-03  1.21935e+00 
 6.16759e+00  1.09216e-02  1.31059e+00 
 5.99890e+00  1.23610e-02  1.39960e+00 
 5.83017e+00  1.37972e-02  1.48636e+00 
 5.66140e+00  1.52144e-02  1.57088e+00 
 5.49264e+00  1.65968e-02  1.65314e+00 
 5.32388e+00  1.79300e-02  1.73316e+00 
 5.15519e+00  1.91997e-02  1.81091e+00 
 4.98654e+00  2.03934e-02  1.88641e+00 
 4.81800e+00  2.14985e-02  1.95962e+00 
 4.64954e+00  2.25045e-02  2.03055e+00 
 4.48122e+00  2.34011e-02  2.09918e+00 
 4.31302e+00  2.41799e-02  2.16550e+00 
 4.14498e+00  2.48329e-02  2.22949e+00 
 3.97710e+00  2.53541e-02  2.29114e+00 
 3.80940e+00  2.57378e-02  2.35044e+00 
 3.64187e+00  2.59803e-02  2.40736e+00 
 3.47454e+00  2.60783e-02  2.46190e+00 
 3.30740e+00  2.60304e-02  2.51403e+00 
 3.14046e+00  2.58356e-02  2.56374e+00 
 2.97371e+00  2.54945e-02  2.61103e+00 
 2.80718e+00  2.50084e-02  2.65585e+00 
 2.64083e+00  2.43798e-02  2.69821e+00 
 2.47470e+00  2.36121e-02  2.73809e+00 
 2.30873e+00  2.27096e-02  2.77547e+00 
 2.14297e+00  2.16775e-02  2.81034e+00 
 1.97737e+00  2.05215e-02  2.84269e+00 
 1.81196e+00  1.92486e-02  2.87249e+00 
 1.64669e+00  1.78659e-02  2.89975e+00 
 1.48158e+00  1.63816e-02  2.92444e+00 
 1.31659e+00  1.48041e-02  2.94657e+00 
 1.15175e+00  1.31426e-02  2.96611e+00 
 9.86994e-01  1.14064e-02  2.98307e+00 
 8.22353e-01  9.60571e-03  2.99743e+00 
 6.57777e-01  7.75049e-03  3.00919e+00 
 4.93282e-01  5.85160e-03  3.01834e+00 
 3.28821e-01  3.91945e-03  3.02488e+00 
 1.64408e-01  1.96535e-03  3.02880e+00 
-5.74413e-12 -1.84521e-11  3.03011e+00 
-1.64408e-01 -1.96535e-03  3.02880e+00 
-3.28821e-01 -3.91945e-03  3.02488e+00 
-4.93282e-01 -5.85160e-03  3.01834e+00 
-6.57777e-01 -7.75049e-03  3.00919e+00 
-8.22353e-01 -9.60571e-03  2.99743e+00 
-9.86994e-01 -1.14064e-02  2.98307e+00 
-1.15175e+00 -1.31426e-02  2.96611e+00 
-1.31659e+00 -1.48041e-02  2.94657e+00 
-1.48158e+00 -1.63816e-02  2.92444e+00 
-1.64669e+00 -1.78659e-02  2.89975e+00 
-1.81196e+00 -1.92486e-02  2.87249e+00 
-1.97737e+00 -2.05215e-02  2.84269e+00 
-2.14297e+00 -2.16775e-02  2.81034e+00 
-2.30873e+00 -2.27096e-02  2.77547e+00 
-2.47470e+00 -2.36121e-02  2.73809e+00 
-2.64083e+00 -2.43798e-02  2.69821e+00 
-2.80718e+00 -2.50084e-02  2.65585e+00 
-2.97371e+00 -2.54945e-02  2.61103e+00 
-3.14046e+00 -2.58356e-02  2.56374e+00 
-3.30740e+00 -2.60304e-02  2.51403e+00 
-3.47454e+00 -2.60783e-02  2.46190e+00 
-3.64187e+00 -2.59803e-02  2.40736e+00 
-3.80940e+00 -2.57378e-02  2.35044e+00 
-3.97710e+00 -2.53541e-02  2.29114e+00 
-4.14498e+00 -2.48329e-02  2.22949e+00 
-4.31302e+00 -2.41799e-02  2.16550e+00 
-4.48122e+00 -2.34011e-02  2.09918e+00 
-4.64954e+00 -2.25045e-02  2.03055e+00 
-4.81800e+00 -2.14985e-02  1.95962e+00 
-4.98654e+00 -2.03934e-02  1.88641e+00 
-5.15519e+00 -1.91997e-02  1.81091e+00 
-5.32388e+00 -1.79300e-02  1.73316e+00 
-5.49264e+00 -1.65968e-02  1.65314e+00 
-5.66140e+00 -1.52144e-02  1.57088e+00 
-5.83017e+00 -1.37972e-02  1.48636e+00 
-5.99890e+00 -1.23610e-02  1.39960e+00 
-6.16759e+00 -1.09216e-02  1.31059e+00 
-6.33618e+00 -9.49576e-03  1.21935e+00 
-6.50469e+00 -8.10011e-03  1.12585e+00 
-6.67305e+00 -6.75197e-03  1.03011e+00 
-6.84127e+00 -5.46816e-03  9.32103e-01 
-7.00928e+00 -4.26583e-03  8.31834e-01 
-7.17711e+00 -3.16135e-03  7.29272e-01 
-7.34468e+00 -2.17096e-03  6.24425e-01 
-7.51202e+00 -1.30981e-03  5.17254e-01 
-7.67906e+00 -5.92369e-04  4.07763e-01 
-7.84583e+00 -3.17370e-05  2.95907e-01 
-8.01225e+00  3.60133e-04  1.81688e-01 
-8.18454e+00 -1.31117e-02  2.98600e-02 
 7.69944e+00  1.20730e-02  2.96054e-02 
 7.53742e+00 -4.88325e-04  1.80311e-01 
 7.38078e+00  5.45272e-05  2.93721e-01 
 7.22369e+00  8.25759e-04  4.04822e-01 
 7.06622e+00  1.80685e-03  5.13618e-01 
 6.90836e+00  2.97832e-03  6.20159e-01 
 6.75018e+00  4.31917e-03  7.24446e-01 
 6.59169e+00  5.80768e-03  8.26521e-01 
 6.43294e+00  7.42097e-03  9.26381e-01 
 6.27394e+00  9.13621e-03  1.02406e+00 
 6.11476e+00  1.09297e-02  1.11955e+00 
 5.95541e+00  1.27786e-02  1.21287e+00 
 5.79595e+00  1.46593e-02  1.30402e+00 
 5.63639e+00  1.65498e-02  1.39301e+00 
 5.47680e+00  1.84276e-02  1.47982e+00 
 5.31717e+00  2.02721e-02  1.56447e+00 
 5.15758e+00  2.20628e-02  1.64693e+00 
 4.99802e+00  2.37812e-02  1.72722e+00 
 4.83855e+00  2.54091e-02  1.80530e+00 
 4.67918e+00  2.69306e-02  1.88118e+00 
 4.51996e+00  2.83303e-02  1.95482e+00 
 4.36088e+00  2.95952e-02  2.02624e+00 
 4.20200e+00  3.07128e-02  2.09539e+00 
 4.04330e+00  3.16733e-02  2.16228e+00 
 3.88484e+00  3.24673e-02  2.22686e+00 
 3.72660e+00  3.30880e-02  2.28913e+00 
 3.56861e+00  3.35292e-02  2.34907e+00 
 3.41087e+00  3.37871e-02  2.40665e+00 
 3.25341e+00  3.38586e-02  2.46185e+00 
 3.09620e+00  3.37427e-02  2.51466e+00 
 2.93928e+00  3.34391e-02  2.56504e+00 
 2.78262e+00  3.29495e-02  2.61299e+00 
 2.62625e+00  3.22764e-02  2.65847e+00 
 2.47013e+00  3.14236e-02  2.70147e+00 
 2.31430e+00  3.03962e-02  2.74197e+00 
 2.15870e+00  2.92000e-02  2.77996e+00 
 2.00337e+00  2.78422e-02  2.81540e+00 
 1.84826e+00  2.63306e-02  2.84830e+00 
 1.69340e+00  2.46740e-02  2.87862e+00 
 1.53873e+00  2.28816e-02  2.90636e+00 
 1.38427e+00  2.09641e-02  2.93150e+00 
 1.22998e+00  1.89318e-02  2.95402e+00 
 1.07587e+00  1.67965e-02  2.97393e+00 
 9.21894e-01  1.45696e-02  2.99120e+00 
 7.68055e-01  1.22639e-02  3.00583e+00 
 6.14308e-01  9.89152e-03  3.01781e+00 
 4.60662e-01  7.46586e-03  3.02713e+00 
 3.07065e-01  4.99964e-03  3.03380e+00 
 1.53528e-01  2.50667e-03  3.03780e+00 
-6.29053e-12 -1.85606e-11  3.03913e+00 
-1.53528e-01 -2.50667e-03  3.03780e+00 
-3.07065e-01 -4.99964e-03  3.03380e+00 
-4.60662e-01 -7.46586e-03  3.02713e+00 
-6.14308e-01 -9.89152e-03  3.01781e+00 
-7.68055e-01 -1.22639e-02  3.00583e+00 
-9.21894e-01 -1.45696e-02  2.99120e+00 
-1.07587e+00 -1.67965e-02  2.97393e+00 
-1.22998e+00 -1.89318e-02  2.95402e+00 
-1.38427e+00 -2.09641e-02  2.93150e+00 
-1.53873e+00 -2.28816e-02  2.90636e+00 
-1.69340e+00 -2.46740e-02  2.87862e+00 
-1.84826e+00 -2.63306e-02  2.84830e+00 
-2.00337e+00 -2.78422e-02  2.81540e+00 
-2.15870e+00 -2.92000e-02  2.77996e+00 
-2.31430e+00 -3.03962e-02  2.74197e+00 
-2.47013e+00 -3.14236e-02  2.70147e+00 
-2.62625e+00 -3.22764e-02  2.65847e+00 
-2.78262e+00 -3.29495e-02  2.61299e+00 
-2.93928e+00 -3.34391e-02  2.56504e+00 
-3.09620e+00 -3.37427e-02  2.51466e+00 
-3.25341e+00 -3.38586e-02  2.46185e+00 
-3.41087e+00 -3.37871e-02  2.40665e+00 
-3.56861e+00 -3.35292e-02  2.34907e+00 
-3.72660e+00 -3.30880e-02  2.28913e+00 
-3.88484e+00 -3.24673e-02  2.22686e+00 
-4.04330e+00 -3.16733e-02  2.16228e+00 
-4.20200e+00 -3.07128e-02  2.09539e+00 
-4.36088e+00 -2.95952e-02  2.02624e+00 
-4.51996e+00 -2.83303e-02  1.95482e+00 
-4.67918e+00 -2.69306e-02  1.88118e+00 
-4.83855e+00 -2.54091e-02  1.80530e+00 
-4.99802e+00 -2.37812e-02  1.72722e+00 
-5.15758e+00 -2.20628e-02  1.64693e+00 
-5.31717e+00 -2.02721e-02  1.56447e+00 
-5.47680e+00 -1.84276e-02  1.47982e+00 
-5.63639e+00 -1.65498e-02  1.39301e+00 
-5.79595e+00 -1.46593e-02  1.30402e+00 
-5.95541e+00 -1.27786e-02  1.21287e+00 
-6.11476e+00 -1.09297e-02  1.11955e+00 
-6.27394e+00 -9.13621e-03  1.02406e+00 
-6.43294e+00 -7.42097e-03  9.26381e-01 
-6.59169e+00 -5.80768e-03  8.26521e-01 
-6.75018e+00 -4.31917e-03  7.24446e-01 
-6.90836e+00 -2.97832e-03  6.20159e-01 
-7.06622e+00 -1.80685e-03  5.13618e-01 
-7.22369e+00 -8.25759e-04  4.04822e-01 
-7.38078e+00 -5.45272e-05  2.93721e-01 
-7.53742e+00  4.88325e-04  1.80311e-01 
-7.69944e+00 -1.20730e-02  2.96054e-02 
 7.21848e+00  1.09971e-02  2.92266e-02 
 7.06653e+00 -6.39895e-04  1.78407e-01 
 6.91942e+00  1.02624e-04  2.90725e-01 
 6.77174e+00  1.14928e-03  4.00815e-01 
 6.62353e+00  2.47239e-03  5.08690e-01 
 6.47483e+00  4.04348e-03  6.14404e-01 
 6.32571e+00  5.83241e-03  7.17964e-01 
 6.17618e+00  7.80846e-03  8.19417e-01 
 6.02633e+00  9.93972e-03  9.18760e-01 
 5.87618e+00  1.21947e-02  1.01603e+00 
 5.72581e+00  1.45411e-02  1.11122e+00 
 5.57524e+00  1.69480e-02  1.20435e+00 
 5.42455e+00  1.93843e-02  1.29541e+00 
 5.27376e+00  2.18206e-02  1.38441e+00 
 5.12296e+00  2.42279e-02  1.47134e+00 
 4.97215e+00  2.65795e-02  1.55620e+00 
 4.82141e+00  2.88495e-02  1.63896e+00 
 4.67075e+00  3.10144e-02  1.71963e+00 
 4.52024e+00  3.30520e-02  1.79816e+00 
 4.36990e+00  3.49426e-02  1.87457e+00 
 4.21977e+00  3.66679e-02  1.94881e+00 
 4.06987e+00  3.82124e-02  2.02088e+00 
 3.92025e+00  3.95620e-02  2.09073e+00 
 3.77090e+00  4.07054e-02  2.15836e+00 
 3.62188e+00  4.16325e-02  2.22372e+00 
 3.47318e+00  4.23360e-02  2.28680e+00 
 3.32483e+00  4.28101e-02  2.34756e+00 
 3.17682e+00  4.30513e-02  2.40599e+00 
 3.02919e+00  4.30575e-02  2.46204e+00 
 2.88192e+00  4.28285e-02  2.51570e+00 
 2.73503e+00  4.23659e-02  2.56693e+00 
 2.58849e+00  4.16728e-02  2.61572e+00 
 2.44234e+00  4.07535e-02  2.66202e+00 
 2.29653e+00  3.96140e-02  2.70583e+00 
 2.15109e+00  3.82614e-02  2.74711e+00 
 2.00598e+00  3.67039e-02  2.78584e+00 
 1.86120e+00  3.49509e-02  2.82199e+00 
 1.71673e+00  3.30126e-02  2.85556e+00 
 1.57257e+00  3.09003e-02  2.88651e+00 
 1.42867e+00  2.86257e-02  2.91484e+00 
 1.28505e+00  2.62019e-02  2.94051e+00 
 1.14164e+00  2.36416e-02  2.96353e+00 
 9.98468e-01  2.09592e-02  2.98387e+00 
 8.55465e-01  1.81685e-02  3.00153e+00 
 7.12640e-01  1.52847e-02  3.01648e+00 
 5.69939e-01  1.23223e-02  3.02873e+00 
 4.27363e-01  9.29726e-03  3.03827e+00 
 2.84856e-01  6.22448e-03  3.04508e+00 
 1.42419e-01  3.12029e-03  3.04917e+00 
-6.59724e-12 -1.77370e-11  3.05053e+00 
-1.42419e-01 -3.12029e-03  3.04917e+00 
-2.84856e-01 -6.22448e-03  3.04508e+00 
-4.27363e-01 -9.29726e-03  3.03827e+00 
-5.69939e-01 -1.23223e-02  3.02873e+00 
-7.12640e-01 -1.52847e-02  3.01648e+00 
-8.55465e-01 -1.81685e-02  3.00153e+00 
-9.98468e-01 -2.09592e-02  2.98387e+00 
-1.14164e+00 -2.36416e-02  2.96353e+00 
-1.28505e+00 -2.62019e-02  2.94051e+00 
-1.42867e+00 -2.86257e-02  2.91484e+00 
-1.57257e+00 -3.09003e-02  2.88651e+00 
-1.71673e+00 -3.30126e-02  2.85556e+00 
-1.86120e+00 -3.49509e-02  2.82199e+00 
-2.00598e+00 -3.67039e-02  2.78584e+00 
-2.15109e+00 -3.82614e-02  2.74711e+00 
-2.29653e+00 -3.96140e-02  2.70583e+00 
-2.44234e+00 -4.07535e-02  2.66202e+00 
-2.58849e+00 -4.16728e-02  2.61572e+00 
-2.73503e+00 -4.23659e-02  2.56693e+00 
-2.88192e+00 -4.28285e-02  2.51570e+00 
-3.02919e+00 -4.30575e-02  2.46204e+00 
-3.17682e+00 -4.30513e-02  2.40599e+00 
-3.32483e+00 -4.28101e-02  2.34756e+00 
-3.47318e+00 -4.23360e-02  2.28680e+00 
-3.62188e+00 -4.16325e-02  2.22372e+00 
-3.77090e+00 -4.07054e-02  2.15836e+00 
-3.92025e+00 -3.95620e-02  2.09073e+00 
-4.06987e+00 -3.82124e-02  2.02088e+00 
-4.21977e+00 -3.66679e-02  1.94881e+00 
-4.36990e+00 -3.49426e-02  1.87457e+00 
-4.52024e+00 -3.30520e-02  1.79816e+00 
-4.67075e+00 -3.10144e-02  1.71963e+00 
-4.82141e+00 -2.88495e-02  1.63896e+00 
-4.97215e+00 -2.65795e-02  1.55620e+00 
-5.12296e+00 -2.42279e-02  1.47134e+00 
-5.27376e+00 -2.18206e-02  1.38441e+00 
-5.42455e+00 -1.93843e-02  1.29541e+00 
-5.57524e+00 -1.69480e-02  1.20435e+00 
-5.72581e+00 -1.45411e-02  1.11122e+00 
-5.87618e+00 -1.21947e-02  1.01603e+00 
-6.02633e+00 -9.93972e-03  9.18760e-01 
-6.17618e+00 -7.80846e-03  8.19417e-01 
-6.32571e+00 -5.83241e-03  7.17964e-01 
-6.47483e+00 -4.04348e-03  6.14404e-01 
-6.62353e+00 -2.47239e-03  5.08690e-01 
-6.77174e+00 -1.14928e-03  4.00815e-01 
-6.91942e+00 -1.02624e-04  2.90725e-01 
-7.06653e+00  6.39895e-04  1.78407e-01 
-7.21848e+00 -1.09971e-02  2.92266e-02 
 6.74311e+00  9.84352e-03  2.86976e-02 
 6.60089e+00 -8.48953e-04  1.75819e-01 
 6.46297e+00  1.59085e-04  2.86683e-01 
 6.32427e+00  1.56500e-03  3.95441e-01 
 6.18490e+00  3.32867e-03  5.02114e-01 
 6.04488e+00  5.40930e-03  6.06762e-01 
 5.90432e+00  7.76422e-03  7.09399e-01 
 5.76327e+00  1.03505e-02  8.10074e-01 
 5.62181e+00  1.31240e-02  9.08788e-01 
 5.47999e+00  1.60417e-02  1.00558e+00 
 5.33792e+00  1.90604e-02  1.10043e+00 
 5.19564e+00  2.21387e-02  1.19337e+00 
 5.05324e+00  2.52358e-02  1.28437e+00 
 4.91076e+00  2.83137e-02  1.37345e+00 
 4.76829e+00  3.13353e-02  1.46059e+00 
 4.62588e+00  3.42670e-02  1.54577e+00 
 4.48359e+00  3.70766e-02  1.62897e+00 
 4.34147e+00  3.97355e-02  1.71018e+00 
 4.19958e+00  4.22170e-02  1.78935e+00 
 4.05795e+00  4.44982e-02  1.86648e+00 
 3.91665e+00  4.65579e-02  1.94152e+00 
 3.77569e+00  4.83790e-02  2.01445e+00 
 3.63512e+00  4.99461e-02  2.08522e+00 
 3.49496e+00  5.12476e-02  2.15381e+00 
 3.35524e+00  5.22735e-02  2.22017e+00 
 3.21597e+00  5.30173e-02  2.28428e+00 
 3.07718e+00  5.34742e-02  2.34609e+00 
 2.93887e+00  5.36424e-02  2.40558e+00 
 2.80106e+00  5.35218e-02  2.46269e+00 
 2.66373e+00  5.31144e-02  2.51741e+00 
 2.52691e+00  5.24243e-02  2.56968e+00 
 2.39057e+00  5.14570e-02  2.61949e+00 
 2.25472e+00  5.02199e-02  2.66680e+00 
 2.11934e+00  4.87215e-02  2.71158e+00 
 1.98443e+00  4.69720e-02  2.75379e+00 
 1.84994e+00  4.49823e-02  2.79341e+00 
 1.71590e+00  4.27648e-02  2.83042e+00 
 1.58225e+00  4.03323e-02  2.86479e+00 
 1.44899e+00  3.76992e-02  2.89649e+00 
 1.31608e+00  3.48795e-02  2.92551e+00 
 1.18350e+00  3.18890e-02  2.95182e+00 
 1.05122e+00  2.87430e-02  2.97541e+00 
 9.19218e-01  2.54583e-02  2.99626e+00 
 7.87443e-01  2.20508e-02  3.01436e+00 
 6.55888e-01  1.85381e-02  3.02969e+00 
 5.24494e-01  1.49368e-02  3.04226e+00 
 3.93253e-01  1.12650e-02  3.05203e+00 
 2.62104e-01  7.53952e-03  3.05903e+00 
 1.31039e-01  3.77881e-03  3.06322e+00 
-5.37588e-12 -2.05385e-11  3.06462e+00 
-1.31039e-01 -3.77881e-03  3.06322e+00 
-2.62104e-01 -7.53952e-03  3.05903e+00 
-3.93253e-01 -1.12650e-02  3.05203e+00 
-5.24494e-01 -1.49368e-02  3.04226e+00 
-6.55888e-01 -1.85381e-02  3.02969e+00 
-7.87443e-01 -2.20508e-02  3.01436e+00 
-9.19218e-01 -2.54583e-02  2.99626e+00 
-1.05122e+00 -2.87430e-02  2.97541e+00 
-1.18350e+00 -3.18890e-02  2.95182e+00 
-1.31608e+00 -3.48795e-02  2.92551e+00 
-1.44899e+00 -3.76992e-02  2.89649e+00 
-1.58225e+00 -4.03323e-02  2.86479e+00 
-1.71590e+00 -4.27648e-02  2.83042e+00 
-1.84994e+00 -4.49823e-02  2.79341e+00 
-1.98443e+00 -4.69720e-02  2.75379e+00 
-2.11934e+00 -4.87215e-02  2.71158e+00 
-2.25472e+00 -5.02199e-02  2.66680e+00 
-2.39057e+00 -5.14570e-02  2.61949e+00 
-2.52691e+00 -5.24243e-02  2.56968e+00 
-2.66373e+00 -5.31144e-02  2.51741e+00 
-2.80106e+00 -5.35218e-02  2.46269e+00 
-2.93887e+00 -5.36424e-02  2.40558e+00 
-3.07718e+00 -5.34742e-02  2.34609e+00 
-3.21597e+00 -5.30173e-02  2.28428e+00 
-3.35524e+00 -5.22735e-02  2.22017e+00 
-3.49496e+00 -5.12476e-02  2.15381e+00 
-3.63512e+00 -4.99461e-02  2.08522e+00 
-3.77569e+00 -4.83790e-02  2.01445e+00 
-3.91665e+00 -4.65579e-02  1.94152e+00 
-4.05795e+00 -4.44982e-02  1.86648e+00 
-4.19958e+00 -4.22170e-02  1.78935e+00 
-4.34147e+00 -3.97355e-02  1.71018e+00 
-4.48359e+00 -3.70766e-02  1.62897e+00 
-4.62588e+00 -3.42670e-02  1.54577e+00 
-4.76829e+00 -3.13353e-02  1.46059e+00 
-4.91076e+00 -2.83137e-02  1.37345e+00 
-5.05324e+00 -2.52358e-02  1.28437e+00 
-5.19564e+00 -2.21387e-02  1.19337e+00 
-5.33792e+00 -1.90604e-02  1.10043e+00 
-5.47999e+00 -1.60417e-02  1.00558e+00 
-5.62181e+00 -1.31240e-02  9.08788e-01 
-5.76327e+00 -1.03505e-02  8.10074e-01 
-5.90432e+00 -7.76422e-03  7.09399e-01 
-6.04488e+00 -5.40930e-03  6.06762e-01 
-6.18490e+00 -3.32867e-03  5.02114e-01 
-6.32427e+00 -1.56500e-03  3.95441e-01 
-6.46297e+00 -1.59085e-04  2.86683e-01 
-6.60089e+00  8.48953e-04  1.75819e-01 
-6.74311e+00 -9.84352e-03  2.86976e-02 
 6.27533e+00  8.63891e-03  2.79287e-02 
 6.14231e+00 -1.10146e-03  1.72315e-01 
 6.01299e+00  2.49514e-04  2.81271e-01 
 5.88268e+00  2.11526e-03  3.88301e-01 
 5.75149e+00  4.43697e-03  4.93433e-01 
 5.61950e+00  7.15615e-03  5.96736e-01 
 5.48683e+00  1.02126e-02  6.98227e-01 
 5.35354e+00  1.35466e-02  7.97958e-01 
 5.21979e+00  1.70977e-02  8.95930e-01 
 5.08562e+00  2.08079e-02  9.92175e-01 
 4.95117e+00  2.46194e-02  1.08668e+00 
 4.81652e+00  2.84781e-02  1.17946e+00 
 4.68177e+00  3.23311e-02  1.27048e+00 
 4.54700e+00  3.61303e-02  1.35976e+00 
 4.41231e+00  3.98291e-02  1.44724e+00 
 4.27775e+00  4.33865e-02  1.53293e+00 
 4.14343e+00  4.67637e-02  1.61676e+00 
 4.00940e+00  4.99275e-02  1.69873e+00 
 3.87573e+00  5.28471e-02  1.77878e+00 
 3.74246e+00  5.54972e-02  1.85688e+00 
 3.60967e+00  5.78551e-02  1.93297e+00 
 3.47738e+00  5.99034e-02  2.00702e+00 
 3.34565e+00  6.16271e-02  2.07897e+00 
 3.21448e+00  6.30158e-02  2.14879e+00 
 3.08394e+00  6.40617e-02  2.21641e+00 
 2.95401e+00  6.47606e-02  2.28180e+00 
 2.82473e+00  6.51109e-02  2.34491e+00 
 2.69609e+00  6.51140e-02  2.40569e+00 
 2.56812e+00  6.47734e-02  2.46409e+00 
 2.44079e+00  6.40951e-02  2.52008e+00 
 2.31412e+00  6.30868e-02  2.57360e+00 
 2.18808e+00  6.17582e-02  2.62463e+00 
 2.06267e+00  6.01204e-02  2.67311e+00 
 1.93787e+00  5.81857e-02  2.71902e+00 
 1.81367e+00  5.59680e-02  2.76232e+00 
 1.69002e+00  5.34816e-02  2.80298e+00 
 1.56692e+00  5.07423e-02  2.84095e+00 
 1.44432e+00  4.77659e-02  2.87624e+00 
 1.32221e+00  4.45695e-02  2.90879e+00 
 1.20054e+00  4.11700e-02  2.93859e+00 
 1.07929e+00  3.75854e-02  2.96561e+00 
 9.58396e-01  3.38331e-02  2.98984e+00 
 8.37854e-01  2.99319e-02  3.01127e+00 
 7.17597e-01  2.58995e-02  3.02986e+00 
 5.97608e-01  2.17552e-02  3.04562e+00 
 4.77822e-01  1.75166e-02  3.05853e+00 
 3.58220e-01  1.32034e-02  3.06858e+00 
 2.38736e-01  8.83342e-03  3.07576e+00 
 1.19351e-01  4.42627e-03  3.08007e+00 
-7.10455e-12 -2.47890e-11  3.08151e+00 
-1.19351e-01 -4.42627e-03  3.08007e+00 
-2.38736e-01 -8.83342e-03  3.07576e+00 
-3.58220e-01 -1.32034e-02  3.06858e+00 
-4.77822e-01 -1.75166e-02  3.05853e+00 
-5.97608e-01 -2.17552e-02  3.04562e+00 
-7.17597e-01 -2.58995e-02  3.02986e+00 
-8.37854e-01 -2.99319e-02  3.01127e+00 
-9.58396e-01 -3.38331e-02  2.98984e+00 
-1.07929e+00 -3.75854e-02  2.96561e+00 
-1.20054e+00 -4.11700e-02  2.93859e+00 
-1.32221e+00 -4.45695e-02  2.90879e+00 
-1.44432e+00 -4.77659e-02  2.87624e+00 
-1.56692e+00 -5.07423e-02  2.84095e+00 
-1.69002e+00 -5.34816e-02  2.80298e+00 
-1.81367e+00 -5.59680e-02  2.76232e+00 
-1.93787e+00 -5.81857e-02  2.71902e+00 
-2.06267e+00 -6.01204e-02  2.67311e+00 
-2.18808e+00 -6.17582e-02  2.62463e+00 
-2.31412e+00 -6.30868e-02  2.57360e+00 
-2.44079e+00 -6.40951e-02  2.52008e+00 
-2.56812e+00 -6.47734e-02  2.46409e+00 
-2.69609e+00 -6.51140e-02  2.40569e+00 
-2.82473e+00 -6.51109e-02  2.34491e+00 
-2.95401e+00 -6.47606e-02  2.28180e+00 
-3.08394e+00 -6.40617e-02  2.21641e+00 
-3.21448e+00 -6.30158e-02  2.14879e+00 
-3.34565e+00 -6.16271e-02  2.07897e+00 
-3.47738e+00 -5.99034e-02  2.00702e+00 
-3.60967e+00 -5.78551e-02  1.93297e+00 
-3.74246e+00 -5.54972e-02  1.85688e+00 
-3.87573e+00 -5.28471e-02  1.77878e+00 
-4.00940e+00 -4.99275e-02  1.69873e+00 
-4.14343e+00 -4.67637e-02  1.61676e+00 
-4.27775e+00 -4.33865e-02  1.53293e+00 
-4.41231e+00 -3.98291e-02  1.44724e+00 
-4.54700e+00 -3.61303e-02  1.35976e+00 
-4.68177e+00 -3.23311e-02  1.27048e+00 
-4.81652e+00 -2.84781e-02  1.17946e+00 
-4.95117e+00 -2.46194e-02  1.08668e+00 
-5.08562e+00 -2.08079e-02  9.92175e-01 
-5.21979e+00 -1.70977e-02  8.95930e-01 
-5.35354e+00 -1.35466e-02  7.97958e-01 
-5.48683e+00 -1.02126e-02  6.98227e-01 
-5.61950e+00 -7.15615e-03  5.96736e-01 
-5.75149e+00 -4.43697e-03  4.93433e-01 
-5.88268e+00 -2.11526e-03  3.88301e-01 
-6.01299e+00 -2.49514e-04  2.81271e-01 
-6.14231e+00  1.10146e-03  1.72315e-01 
-6.27533e+00 -8.63891e-03  2.79287e-02 
 5.81760e+00  7.38976e-03  2.68350e-02 
 5.69298e+00 -1.39440e-03  1.67629e-01 
 5.57145e+00  3.98381e-04  2.74114e-01 
 5.44865e+00  2.84643e-03  3.78933e-01 
 5.32474e+00  5.86436e-03  4.82124e-01 
 5.19982e+00  9.36873e-03  5.83763e-01 
 5.07408e+00  1.32751e-02  6.83870e-01 
 4.94763e+00  1.75009e-02  7.82495e-01 
 4.82062e+00  2.19640e-02  8.79634e-01 
 4.69318e+00  2.65866e-02  9.75313e-01 
 4.56547e+00  3.12929e-02  1.06951e+00 
 4.43759e+00  3.60129e-02  1.16222e+00 
 4.30969e+00  4.06796e-02  1.25341e+00 
 4.18185e+00  4.52333e-02  1.34307e+00 
 4.05423e+00  4.96179e-02  1.43113e+00 
 3.92689e+00  5.37849e-02  1.51757e+00 
 3.79995e+00  5.76899e-02  1.60232e+00 
 3.67348e+00  6.12963e-02  1.68535e+00 
 3.54757e+00  6.45713e-02  1.76657e+00 
 3.42227e+00  6.74898e-02  1.84595e+00 
 3.29766e+00  7.00300e-02  1.92341e+00 
 3.17377e+00  7.21772e-02  1.99890e+00 
 3.05066e+00  7.39196e-02  2.07234e+00 
 2.92834e+00  7.52514e-02  2.14368e+00 
 2.80686e+00  7.61697e-02  2.21285e+00 
 2.68621e+00  7.66758e-02  2.27980e+00 
 2.56643e+00  7.67739e-02  2.34445e+00 
 2.44750e+00  7.64713e-02  2.40677e+00 
 2.32944e+00  7.57775e-02  2.46667e+00 
 2.21222e+00  7.47044e-02  2.52413e+00 
 2.09585e+00  7.32655e-02  2.57908e+00 
 1.98028e+00  7.14758e-02  2.63149e+00 
 1.86552e+00  6.93516e-02  2.68130e+00 
 1.75152e+00  6.69099e-02  2.72847e+00 
 1.63826e+00  6.41690e-02  2.77296e+00 
 1.52570e+00  6.11469e-02  2.81475e+00 
 1.41382e+00  5.78629e-02  2.85378e+00 
 1.30255e+00  5.43358e-02  2.89005e+00 
 1.19189e+00  5.05852e-02  2.92351e+00 
 1.08175e+00  4.66297e-02  2.95414e+00 
 9.72131e-01  4.24894e-02  2.98192e+00 
 8.62952e-01  3.81827e-02  3.00683e+00 
 7.54189e-01  3.37292e-02  3.02884e+00 
 6.45773e-01  2.91471e-02  3.04796e+00 
 5.37676e-01  2.44559e-02  3.06415e+00 
 4.29825e-01  1.96733e-02  3.07742e+00 
 3.22192e-01  1.48185e-02  3.08774e+00 
 2.14704e-01  9.90893e-03  3.09513e+00 
 1.07330e-01  4.96368e-03  3.09956e+00 
-9.23647e-12 -2.51860e-11  3.10103e+00 
-1.07330e-01 -4.96368e-03  3.09956e+00 
-2.14704e-01 -9.90893e-03  3.09513e+00 
-3.22192e-01 -1.48185e-02  3.08774e+00 
-4.29825e-01 -1.96733e-02  3.07742e+00 
-5.37676e-01 -2.44559e-02  3.06415e+00 
-6.45773e-01 -2.91471e-02  3.04796e+00 
-7.54189e-01 -3.37292e-02  3.02884e+00 
-8.62952e-01 -3.81827e-02  3.00683e+00 
-9.72131e-01 -4.24894e-02  2.98192e+00 
-1.08175e+00 -4.66297e-02  2.95414e+00 
-1.19189e+00 -5.05852e-02  2.92351e+00 
-1.30255e+00 -5.43358e-02  2.89005e+00 
-1.41382e+00 -5.78629e-02  2.85378e+00 
-1.52570e+00 -6.11469e-02  2.81475e+00 
-1.63826e+00 -6.41690e-02  2.77296e+00 
-1.75152e+00 -6.69099e-02  2.72847e+00 
-1.86552e+00 -6.93516e-02  2.68130e+00 
-1.98028e+00 -7.14758e-02  2.63149e+00 
-2.09585e+00 -7.32655e-02  2.57908e+00 
-2.21222e+00 -7.47044e-02  2.52413e+00 
-2.32944e+00 -7.57775e-02  2.46667e+00 
-2.44750e+00 -7.64713e-02  2.40677e+00 
-2.56643e+00 -7.67739e-02  2.34445e+00 
-2.68621e+00 -7.66758e-02  2.27980e+00 
-2.80686e+00 -7.61697e-02  2.21285e+00 
-2.92834e+00 -7.52514e-02  2.14368e+00 
-3.05066e+00 -7.39196e-02  2.07234e+00 
-3.17377e+00 -7.21772e-02  1.99890e+00 
-3.29766e+00 -7.00300e-02  1.92341e+00 
-3.42227e+00 -6.74898e-02  1.84595e+00 
-3.54757e+00 -6.45713e-02  1.76657e+00 
-3.67348e+00 -6.12963e-02  1.68535e+00 
-3.79995e+00 -5.76899e-02  1.60232e+00 
-3.92689e+00 -5.37849e-02  1.51757e+00 
-4.05423e+00 -4.96179e-02  1.43113e+00 
-4.18185e+00 -4.52333e-02  1.34307e+00 
-4.30969e+00 -4.06796e-02  1.25341e+00 
-4.43759e+00 -3.60129e-02  1.16222e+00 
-4.56547e+00 -3.12929e-02  1.06951e+00 
-4.69318e+00 -2.65866e-02  9.75313e-01 
-4.82062e+00 -2.19640e-02  8.79634e-01 
-4.94763e+00 -1.75009e-02  7.82495e-01 
-5.07408e+00 -1.32751e-02  6.83870e-01 
-5.19982e+00 -9.36873e-03  5.83763e-01 
-5.32474e+00 -5.86436e-03  4.82124e-01 
-5.44865e+00 -2.84643e-03  3.78933e-01 
-5.57145e+00 -3.98381e-04  2.74114e-01 
-5.69298e+00  1.39440e-03  1.67629e-01 
-5.81760e+00 -7.38976e-03  2.68350e-02 
 5.37304e+00  6.07680e-03  2.53082e-02 
 5.25564e+00 -1.75279e-03  1.61434e-01 
 5.14068e+00  6.07672e-04  2.64762e-01 
 5.02412e+00  3.78529e-03  3.66806e-01 
 4.90618e+00  7.65694e-03  4.67609e-01 
 4.78703e+00  1.21043e-02  5.67250e-01 
 4.66690e+00  1.70094e-02  6.65748e-01 
 4.54597e+00  2.22589e-02  7.63143e-01 
 4.42445e+00  2.77420e-02  8.59421e-01 
 4.30252e+00  3.33559e-02  9.54592e-01 
 4.18038e+00  3.90022e-02  1.04861e+00 
 4.05818e+00  4.45928e-02  1.14146e+00 
 3.93611e+00  5.00451e-02  1.23307e+00 
 3.81428e+00  5.52879e-02  1.32341e+00 
 3.69288e+00  6.02564e-02  1.41239e+00 
 3.57200e+00  6.48973e-02  1.49995e+00 
 3.45177e+00  6.91635e-02  1.58600e+00 
 3.33229e+00  7.30189e-02  1.67048e+00 
 3.21365e+00  7.64334e-02  1.75327e+00 
 3.09592e+00  7.93865e-02  1.83433e+00 
 2.97917e+00  8.18630e-02  1.91353e+00 
 2.86344e+00  8.38555e-02  1.99081e+00 
 2.74879e+00  8.53612e-02  2.06607e+00 
 2.63523e+00  8.63834e-02  2.13925e+00 
 2.52279e+00  8.69289e-02  2.21025e+00 
 2.41146e+00  8.70088e-02  2.27900e+00 
 2.30126e+00  8.66371e-02  2.34543e+00 
 2.19217e+00  8.58304e-02  2.40947e+00 
 2.08420e+00  8.46074e-02  2.47105e+00 
 1.97729e+00  8.29879e-02  2.53012e+00 
 1.87144e+00  8.09935e-02  2.58661e+00 
 1.76661e+00  7.86459e-02  2.64049e+00 
 1.66277e+00  7.59677e-02  2.69168e+00 
 1.55986e+00  7.29810e-02  2.74016e+00 
 1.45786e+00  6.97089e-02  2.78588e+00 
 1.35671e+00  6.61727e-02  2.82880e+00 
 1.25637e+00  6.23948e-02  2.86890e+00 
 1.15677e+00  5.83957e-02  2.90613e+00 
 1.05788e+00  5.41968e-02  2.94048e+00 
 9.59626e-01  4.98169e-02  2.97192e+00 
 8.61973e-01  4.52762e-02  3.00042e+00 
 7.64842e-01  4.05922e-02  3.02597e+00 
 6.68196e-01  3.57838e-02  3.04855e+00 
 5.71958e-01  3.08671e-02  3.06815e+00 
 4.76087e-01  2.58596e-02  3.08475e+00 
 3.80506e-01  2.07764e-02  3.09835e+00 
 2.85173e-01  1.56342e-02  3.10894e+00 
 1.90012e-01  1.04470e-02  3.11650e+00 
 9.49794e-02  5.23104e-03  3.12104e+00 
-6.85487e-12 -2.64935e-11  3.12255e+00 
-9.49794e-02 -5.23104e-03  3.12104e+00 
-1.90012e-01 -1.04470e-02  3.11650e+00 
-2.85173e-01 -1.56342e-02  3.10894e+00 
-3.80506e-01 -2.07764e-02  3.09835e+00 
-4.76087e-01 -2.58596e-02  3.08475e+00 
-5.71958e-01 -3.08671e-02  3.06815e+00 
-6.68196e-01 -3.57838e-02  3.04855e+00 
-7.64842e-01 -4.05922e-02  3.02597e+00 
-8.61973e-01 -4.52762e-02  3.00042e+00 
-9.59626e-01 -4.98169e-02  2.97192e+00 
-1.05788e+00 -5.41968e-02  2.94048e+00 
-1.15677e+00 -5.83957e-02  2.90613e+00 
-1.25637e+00 -6.23948e-02  2.86890e+00 
-1.35671e+00 -6.61727e-02  2.82880e+00 
-1.45786e+00 -6.97089e-02  2.78588e+00 
-1.55986e+00 -7.29810e-02  2.74016e+00 
-1.66277e+00 -7.59677e-02  2.69168e+00 
-1.76661e+00 -7.86459e-02  2.64049e+00 
-1.87144e+00 -8.09935e-02  2.58661e+00 
-1.97729e+00 -8.29879e-02  2.53012e+00 
-2.08420e+00 -8.46074e-02  2.47105e+00 
-2.19217e+00 -8.58304e-02  2.40947e+00 
-2.30126e+00 -8.66371e-02  2.34543e+00 
-2.41146e+00 -8.70088e-02  2.27900e+00 
-2.52279e+00 -8.69289e-02  2.21025e+00 
-2.63523e+00 -8.63834e-02  2.13925e+00 
-2.74879e+00 -8.53612e-02  2.06607e+00 
-2.86344e+00 -8.38555e-02  1.99081e+00 
-2.97917e+00 -8.18630e-02  1.91353e+00 
-3.09592e+00 -7.93865e-02  1.83433e+00 
-3.21365e+00 -7.64334e-02  1.75327e+00 
-3.33229e+00 -7.30189e-02  1.67048e+00 
-3.45177e+00 -6.91635e-02  1.58600e+00 
-3.57200e+00 -6.48973e-02  1.49995e+00 
-3.69288e+00 -6.02564e-02  1.41239e+00 
-3.81428e+00 -5.52879e-02  1.32341e+00 
-3.93611e+00 -5.00451e-02  1.23307e+00 
-4.05818e+00 -4.45928e-02  1.14146e+00 
-4.18038e+00 -3.90022e-02  1.04861e+00 
-4.30252e+00 -3.33559e-02  9.54592e-01 
-4.42445e+00 -2.77420e-02  8.59421e-01 
-4.54597e+00 -2.22589e-02  7.63143e-01 
-4.66690e+00 -1.70094e-02  6.65748e-01 
-4.78703e+00 -1.21043e-02  5.67250e-01 
-4.90618e+00 -7.65694e-03  4.67609e-01 
-5.02412e+00 -3.78529e-03  3.66806e-01 
-5.14068e+00 -6.07672e-04  2.64762e-01 
-5.25564e+00  1.75279e-03  1.61434e-01 
-5.37304e+00 -6.07680e-03  2.53082e-02 
 4.94564e+00  4.76063e-03  2.31490e-02 
 4.83367e+00 -2.14615e-03  1.53291e-01 
 4.72350e+00  9.31726e-04  2.52662e-01 
 4.61134e+00  5.00513e-03  3.51302e-01 
 4.49752e+00  9.89579e-03  4.49255e-01 
 4.38229e+00  1.54349e-02  5.46595e-01 
 4.26596e+00  2.14581e-02  6.43328e-01 
 4.14880e+00  2.78102e-02  7.39475e-01 
 4.03109e+00  3.43434e-02  8.34997e-01 
 3.91308e+00  4.09235e-02  9.29870e-01 
 3.79503e+00  4.74265e-02  1.02402e+00 
 3.67714e+00  5.37445e-02  1.11738e+00 
 3.55965e+00  5.97807e-02  1.20985e+00 
 3.44272e+00  6.54555e-02  1.30134e+00 
 3.32657e+00  7.07005e-02  1.39174e+00 
 3.21130e+00  7.54635e-02  1.48093e+00 
 3.09709e+00  7.97029e-02  1.56880e+00 
 2.98402e+00  8.33911e-02  1.65522e+00 
 2.87221e+00  8.65098e-02  1.74006e+00 
 2.76171e+00  8.90520e-02  1.82323e+00 
 2.65261e+00  9.10179e-02  1.90458e+00 
 2.54493e+00  9.24164e-02  1.98402e+00 
 2.43871e+00  9.32613e-02  2.06142e+00 
 2.33394e+00  9.35724e-02  2.13670e+00 
 2.23066e+00  9.33730e-02  2.20975e+00 
 2.12883e+00  9.26893e-02  2.28049e+00 
 2.02845e+00  9.15500e-02  2.34881e+00 
 1.92948e+00  8.99848e-02  2.41467e+00 
 1.83189e+00  8.80245e-02  2.47796e+00 
 1.73563e+00  8.56993e-02  2.53864e+00 
 1.64066e+00  8.30402e-02  2.59665e+00 
 1.54693e+00  8.00760e-02  2.65193e+00 
 1.45438e+00  7.68362e-02  2.70443e+00 
 1.36295e+00  7.33471e-02  2.75411e+00 
 1.27259e+00  6.96356e-02  2.80093e+00 
 1.18322e+00  6.57249e-02  2.84486e+00 
 1.09480e+00  6.16387e-02  2.88586e+00 
 1.00723e+00  5.73969e-02  2.92392e+00 
 9.20480e-01  5.30199e-02  2.95901e+00 
 8.34456e-01  4.85244e-02  2.99110e+00 
 7.49109e-01  4.39275e-02  3.02018e+00 
 6.64357e-01  3.92428e-02  3.04624e+00 
 5.80148e-01  3.44848e-02  3.06926e+00 
 4.96398e-01  2.96645e-02  3.08923e+00 
 4.13057e-01  2.47938e-02  3.10614e+00 
 3.30042e-01  1.98816e-02  3.11999e+00 
 2.47302e-01  1.49383e-02  3.13076e+00 
 1.64754e-01  9.97129e-03  3.13846e+00 
 8.23466e-02  4.98959e-03  3.14308e+00 
-5.81809e-12 -2.55601e-11  3.14462e+00 
-8.23466e-02 -4.98959e-03  3.14308e+00 
-1.64754e-01 -9.97129e-03  3.13846e+00 
-2.47302e-01 -1.49383e-02  3.13076e+00 
-3.30042e-01 -1.98816e-02  3.11999e+00 
-4.13057e-01 -2.47938e-02  3.10614e+00 
-4.96398e-01 -2.96645e-02  3.08923e+00 
-5.80148e-01 -3.44848e-02  3.06926e+00 
-6.64357e-01 -3.92428e-02  3.04624e+00 
-7.49109e-01 -4.39275e-02  3.02018e+00 
-8.34456e-01 -4.85244e-02  2.99110e+00 
-9.20480e-01 -5.30199e-02  2.95901e+00 
-1.00723e+00 -5.73969e-02  2.92392e+00 
-1.09480e+00 -6.16387e-02  2.88586e+00 
-1.18322e+00 -6.57249e-02  2.84486e+00 
-1.27259e+00 -6.96356e-02  2.80093e+00 
-1.36295e+00 -7.33471e-02  2.75411e+00 
-1.45438e+00 -7.68362e-02  2.70443e+00 
-1.54693e+00 -8.00760e-02  2.65193e+00 
-1.64066e+00 -8.30402e-02  2.59665e+00 
-1.73563e+00 -8.56993e-02  2.53864e+00 
-1.83189e+00 -8.80245e-02  2.47796e+00 
-1.92948e+00 -8.99848e-02  2.41467e+00 
-2.02845e+00 -9.15500e-02  2.34881e+00 
-2.12883e+00 -9.26893e-02  2.28049e+00 
-2.23066e+00 -9.33730e-02  2.20975e+00 
-2.33394e+00 -9.35724e-02  2.13670e+00 
-2.43871e+00 -9.32613e-02  2.06142e+00 
-2.54493e+00 -9.24164e-02  1.98402e+00 
-2.65261e+00 -9.10179e-02  1.90458e+00 
-2.76171e+00 -8.90520e-02  1.82323e+00 
-2.87221e+00 -8.65098e-02  1.74006e+00 
-2.98402e+00 -8.33911e-02  1.65522e+00 
-3.09709e+00 -7.97029e-02  1.56880e+00 
-3.21130e+00 -7.54635e-02  1.48093e+00 
-3.32657e+00 -7.07005e-02  1.39174e+00 
-3.44272e+00 -6.54555e-02  1.30134e+00 
-3.55965e+00 -5.97807e-02  1.20985e+00 
-3.67714e+00 -5.37445e-02  1.11738e+00 
-3.79503e+00 -4.74265e-02  1.02402e+00 
-3.91308e+00 -4.09235e-02  9.29870e-01 
-4.03109e+00 -3.43434e-02  8.34997e-01 
-4.14880e+00 -2.78102e-02  7.39475e-01 
-4.26596e+00 -2.14581e-02  6.43328e-01 
-4.38229e+00 -1.54349e-02  5.46595e-01 
-4.49752e+00 -9.89579e-03  4.49255e-01 
-4.61134e+00 -5.00513e-03  3.51302e-01 
-4.72350e+00 -9.31726e-04  2.52662e-01 
-4.83367e+00  2.14615e-03  1.53291e-01 
-4.94564e+00 -4.76063e-03  2.31490e-02 
 4.54026e+00  3.51466e-03  2.01039e-02 
 4.43107e+00 -2.53274e-03  1.42687e-01 
 4.32307e+00  1.44563e-03  2.37203e-01 
 4.21269e+00  6.59684e-03  3.31791e-01 
 4.10036e+00  1.26576e-02  4.26488e-01 
 3.98648e+00  1.93885e-02  5.21343e-01 
 3.87147e+00  2.65598e-02  6.16333e-01 
 3.75572e+00  3.39603e-02  7.11434e-01 
 3.63961e+00  4.13954e-02  8.06555e-01 
 3.52347e+00  4.86949e-02  9.01615e-01 
 3.40764e+00  5.57087e-02  9.96472e-01 
 3.29241e+00  6.23127e-02  1.09100e+00 
 3.17806e+00  6.84035e-02  1.18503e+00 
 3.06480e+00  7.39032e-02  1.27840e+00 
 2.95286e+00  7.87533e-02  1.37093e+00 
 2.84240e+00  8.29173e-02  1.46246e+00 
 2.73356e+00  8.63752e-02  1.55278e+00 
 2.62646e+00  8.91244e-02  1.64174e+00 
 2.52120e+00  9.11744e-02  1.72916e+00 
 2.41781e+00  9.25469e-02  1.81489e+00 
 2.31636e+00  9.32718e-02  1.89876e+00 
 2.21684e+00  9.33862e-02  1.98065e+00 
 2.11927e+00  9.29321e-02  2.06040e+00 
 2.02361e+00  9.19544e-02  2.13791e+00 
 1.92986e+00  9.05007e-02  2.21305e+00 
 1.83795e+00  8.86180e-02  2.28574e+00 
 1.74784e+00  8.63542e-02  2.35588e+00 
 1.65946e+00  8.37544e-02  2.42339e+00 
 1.57276e+00  8.08636e-02  2.48820e+00 
 1.48764e+00  7.77225e-02  2.55025e+00 
 1.40406e+00  7.43710e-02  2.60948e+00 
 1.32191e+00  7.08437e-02  2.66586e+00 
 1.24114e+00  6.71745e-02  2.71932e+00 
 1.16164e+00  6.33914e-02  2.76985e+00 
 1.08336e+00  5.95218e-02  2.81741e+00 
 1.00618e+00  5.55871e-02  2.86199e+00 
 9.30061e-01  5.16083e-02  2.90354e+00 
 8.54891e-01  4.76006e-02  2.94207e+00 
 7.80612e-01  4.35789e-02  2.97754e+00 
 7.07128e-01  3.95531e-02  3.00997e+00 
 6.34378e-01  3.55328e-02  3.03932e+00 
 5.62271e-01  3.15229e-02  3.06560e+00 
 4.90746e-01  2.75288e-02  3.08880e+00 
 4.19714e-01  2.35514e-02  3.10892e+00 
 3.49116e-01  1.95925e-02  3.12594e+00 
 2.78866e-01  1.56502e-02  3.13987e+00 
 2.08906e-01  1.17234e-02  3.15071e+00 
 1.39150e-01  7.80833e-03  3.15845e+00 
 6.95426e-02  3.90215e-03  3.16310e+00 
-6.81656e-12 -2.13986e-11  3.16465e+00 
-6.95426e-02 -3.90215e-03  3.16310e+00 
-1.39150e-01 -7.80833e-03  3.15845e+00 
-2.08906e-01 -1.17234e-02  3.15071e+00 
-2.78866e-01 -1.56502e-02  3.13987e+00 
-3.49116e-01 -1.95925e-02  3.12594e+00 
-4.19714e-01 -2.35514e-02  3.10892e+00 
-4.90746e-01 -2.75288e-02  3.08880e+00 
-5.62271e-01 -3.15229e-02  3.06560e+00 
-6.34378e-01 -3.55328e-02  3.03932e+00 
-7.07128e-01 -3.95531e-02  3.00997e+00 
-7.80612e-01 -4.35789e-02  2.97754e+00 
-8.54891e-01 -4.76006e-02  2.94207e+00 
-9.30061e-01 -5.16083e-02  2.90354e+00 
-1.00618e+00 -5.55871e-02  2.86199e+00 
-1.08336e+00 -5.95218e-02  2.81741e+00 
-1.16164e+00 -6.33914e-02  2.76985e+00 
-1.24114e+00 -6.71745e-02  2.71932e+00 
-1.32191e+00 -7.08437e-02  2.66586e+00 
-1.40406e+00 -7.43710e-02  2.60948e+00 
-1.48764e+00 -7.77225e-02  2.55025e+00 
-1.57276e+00 -8.08636e-02  2.48820e+00 
-1.65946e+00 -8.37544e-02  2.42339e+00 
-1.74784e+00 -8.63542e-02  2.35588e+00 
-1.83795e+00 -8.86180e-02  2.28574e+00 
-1.92986e+00 -9.05007e-02  2.21305e+00 
-2.02361e+00 -9.19544e-02  2.13791e+00 
-2.11927e+00 -9.29321e-02  2.06040e+00 
-2.21684e+00 -9.33862e-02  1.98065e+00 
-2.31636e+00 -9.32718e-02  1.89876e+00 
-2.41781e+00 -9.25469e-02  1.81489e+00 
-2.52120e+00 -9.11744e-02  1.72916e+00 
-2.62646e+00 -8.91244e-02  1.64174e+00 
-2.73356e+00 -8.63752e-02  1.55278e+00 
-2.84240e+00 -8.29173e-02  1.46246e+00 
-2.95286e+00 -7.87533e-02  1.37093e+00 
-3.06480e+00 -7.39032e-02  1.27840e+00 
-3.17806e+00 -6.84035e-02  1.18503e+00 
-3.29241e+00 -6.23127e-02  1.09100e+00 
-3.40764e+00 -5.57087e-02  9.96472e-01 
-3.52347e+00 -4.86949e-02  9.01615e-01 
-3.63961e+00 -4.13954e-02  8.06555e-01 
-3.75572e+00 -3.39603e-02  7.11434e-01 
-3.87147e+00 -2.65598e-02  6.16333e-01 
-3.98648e+00 -1.93885e-02  5.21343e-01 
-4.10036e+00 -1.26576e-02  4.26488e-01 
-4.21269e+00 -6.59684e-03  3.31791e-01 
-4.32307e+00 -1.44563e-03  2.37203e-01 
-4.43107e+00  2.53274e-03  1.42687e-01 
-4.54026e+00 -3.51466e-03  2.01039e-02 
 4.16273e+00  2.44658e-03  1.57913e-02 
 4.05236e+00 -2.85565e-03  1.28985e-01 
 3.94271e+00  2.25316e-03  2.17722e-01 
 3.83028e+00  8.65406e-03  3.07714e-01 
 3.71572e+00  1.59732e-02  3.98960e-01 
 3.59961e+00  2.38590e-02  4.91456e-01 
 3.48254e+00  3.19899e-02  5.85106e-01 
 3.36505e+00  4.00836e-02  6.79798e-01 
 3.24767e+00  4.78926e-02  7.75341e-01 
 3.13085e+00  5.52121e-02  8.71547e-01 
 3.01503e+00  6.18746e-02  9.68161e-01 
 2.90056e+00  6.77565e-02  1.06495e+00 
 2.78780e+00  7.27708e-02  1.16162e+00 
 2.67698e+00  7.68693e-02  1.25791e+00 
 2.56836e+00  8.00340e-02  1.35355e+00 
 2.46209e+00  8.22758e-02  1.44827e+00 
 2.35831e+00  8.36272e-02  1.54179e+00 
 2.25709e+00  8.41384e-02  1.63391e+00 
 2.15849e+00  8.38729e-02  1.72437e+00 
 2.06251e+00  8.29027e-02  1.81298e+00 
 1.96916e+00  8.13063e-02  1.89954e+00 
 1.87836e+00  7.91634e-02  1.98391e+00 
 1.79009e+00  7.65556e-02  2.06591e+00 
 1.70425e+00  7.35609e-02  2.14543e+00 
 1.62076e+00  7.02564e-02  2.22235e+00 
 1.53952e+00  6.67122e-02  2.29658e+00 
 1.46044e+00  6.29962e-02  2.36803e+00 
 1.38340e+00  5.91676e-02  2.43665e+00 
 1.30830e+00  5.52829e-02  2.50235e+00 
 1.23501e+00  5.13888e-02  2.56512e+00 
 1.16345e+00  4.75297e-02  2.62489e+00 
 1.09349e+00  4.37402e-02  2.68165e+00 
 1.02503e+00  4.00525e-02  2.73537e+00 
 9.57958e-01  3.64898e-02  2.78604e+00 
 8.92186e-01  3.30732e-02  2.83364e+00 
 8.27602e-01  2.98156e-02  2.87816e+00 
 7.64121e-01  2.67284e-02  2.91960e+00 
 7.01638e-01  2.38153e-02  2.95797e+00 
 6.40077e-01  2.10791e-02  2.99324e+00 
 5.79337e-01  1.85163e-02  3.02543e+00 
 5.19346e-01  1.61225e-02  3.05454e+00 
 4.60011e-01  1.38878e-02  3.08057e+00 
 4.01264e-01  1.18020e-02  3.10353e+00 
 3.43015e-01  9.85074e-03  3.12342e+00 
 2.85200e-01  8.01913e-03  3.14024e+00 
 2.27735e-01  6.28912e-03  3.15400e+00 
 1.70558e-01  4.64268e-03  3.16470e+00 
 1.13587e-01  3.05936e-03  3.17234e+00 
 5.67605e-02  1.51901e-03  3.17692e+00 
-4.01259e-12 -2.60819e-11  3.17845e+00 
-5.67605e-02 -1.51901e-03  3.17692e+00 
-1.13587e-01 -3.05937e-03  3.17234e+00 
-1.70558e-01 -4.64268e-03  3.16470e+00 
-2.27735e-01 -6.28912e-03  3.15400e+00 
-2.85200e-01 -8.01913e-03  3.14024e+00 
-3.43015e-01 -9.85074e-03  3.12342e+00 
-4.01264e-01 -1.18020e-02  3.10353e+00 
-4.60011e-01 -1.38878e-02  3.08057e+00 
-5.19346e-01 -1.61225e-02  3.05454e+00 
-5.79337e-01 -1.85163e-02  3.02543e+00 
-6.40077e-01 -2.10791e-02  2.99324e+00 
-7.01638e-01 -2.38153e-02  2.95797e+00 
-7.64121e-01 -2.67284e-02  2.91960e+00 
-8.27602e-01 -2.98156e-02  2.87816e+00 
-8.92186e-01 -3.30732e-02  2.83364e+00 
-9.57958e-01 -3.64898e-02  2.78604e+00 
-1.02503e+00 -4.00525e-02  2.73537e+00 
-1.09349e+00 -4.37402e-02  2.68165e+00 
-1.16345e+00 -4.75297e-02  2.62489e+00 
-1.23501e+00 -5.13888e-02  2.56512e+00 
-1.30830e+00 -5.52829e-02  2.50235e+00 
-1.38340e+00 -5.91676e-02  2.43665e+00 
-1.46044e+00 -6.29962e-02  2.36803e+00 
-1.53952e+00 -6.67122e-02  2.29658e+00 
-1.62076e+00 -7.02564e-02  2.22235e+00 
-1.70425e+00 -7.35609e-02  2.14543e+00 
-1.79009e+00 -7.65556e-02  2.06591e+00 
-1.87836e+00 -7.91634e-02  1.98391e+00 
-1.96916e+00 -8.13063e-02  1.89954e+00 
-2.06251e+00 -8.29027e-02  1.81298e+00 
-2.15849e+00 -8.38729e-02  1.72437e+00 
-2.25709e+00 -8.41384e-02  1.63391e+00 
-2.35831e+00 -8.36272e-02  1.54179e+00 
-2.46209e+00 -8.22758e-02  1.44827e+00 
-2.56836e+00 -8.00340e-02  1.35355e+00 
-2.67698e+00 -7.68693e-02  1.25791e+00 
-2.78780e+00 -7.27708e-02  1.16162e+00 
-2.90056e+00 -6.77565e-02  1.06495e+00 
-3.01503e+00 -6.18746e-02  9.68161e-01 
-3.13085e+00 -5.52121e-02  8.71547e-01 
-3.24767e+00 -4.78926e-02  7.75341e-01 
-3.36505e+00 -4.00836e-02  6.79798e-01 
-3.48254e+00 -3.19899e-02  5.85106e-01 
-3.59961e+00 -2.38590e-02  4.91456e-01 
-3.71572e+00 -1.59732e-02  3.98960e-01 
-3.83028e+00 -8.65406e-03  3.07714e-01 
-3.94271e+00 -2.25316e-03  2.17722e-01 
-4.05236e+00  2.85565e-03  1.28985e-01 
-4.16273e+00 -2.44658e-03  1.57913e-02 
 3.81998e+00  1.84162e-03  9.54602e-03 
 3.70244e+00 -2.89332e-03  1.11359e-01 
 3.58543e+00  3.58027e-03  1.93556e-01 
 3.46543e+00  1.13712e-02  2.78757e-01 
 3.34329e+00  1.98366e-02  3.66899e-01 
 3.21993e+00  2.84815e-02  4.57841e-01 
 3.09620e+00  3.68751e-02  5.51326e-01 
 2.97285e+00  4.46498e-02  6.47068e-01 
 2.85060e+00  5.15045e-02  7.44688e-01 
 2.73004e+00  5.72187e-02  8.43800e-01 
 2.61174e+00  6.16494e-02  9.43952e-01 
 2.49612e+00  6.47296e-02  1.04471e+00 
 2.38358e+00  6.64547e-02  1.14561e+00 
 2.27437e+00  6.68726e-02  1.24622e+00 
 2.16871e+00  6.60707e-02  1.34612e+00 
 2.06669e+00  6.41638e-02  1.44494e+00 
 1.96837e+00  6.12864e-02  1.54231e+00 
 1.87372e+00  5.75812e-02  1.63794e+00 
 1.78271e+00  5.31973e-02  1.73155e+00 
 1.69522e+00  4.82789e-02  1.82291e+00 
 1.61114e+00  4.29689e-02  1.91181e+00 
 1.53031e+00  3.73979e-02  1.99810e+00 
 1.45260e+00  3.16914e-02  2.08162e+00 
 1.37782e+00  2.59587e-02  2.16229e+00 
 1.30582e+00  2.03029e-02  2.23999e+00 
 1.23641e+00  1.48095e-02  2.31468e+00 
 1.16944e+00  9.55814e-03  2.38628e+00 
 1.10473e+00  4.61104e-03  2.45479e+00 
 1.04214e+00  2.51845e-05  2.52015e+00 
 9.81490e-01 -4.15833e-03  2.58237e+00 
 9.22659e-01 -7.90284e-03  2.64142e+00 
 8.65491e-01 -1.11858e-02  2.69733e+00 
 8.09866e-01 -1.39882e-02  2.75009e+00 
 7.55648e-01 -1.63033e-02  2.79972e+00 
 7.02730e-01 -1.81269e-02  2.84621e+00 
 6.50988e-01 -1.94652e-02  2.88961e+00 
 6.00327e-01 -2.03266e-02  2.92990e+00 
 5.50637e-01 -2.07276e-02  2.96713e+00 
 5.01834e-01 -2.06867e-02  3.00130e+00 
 4.53817e-01 -2.02289e-02  3.03243e+00 
 4.06510e-01 -1.93805e-02  3.06053e+00 
 3.59823e-01 -1.81732e-02  3.08564e+00 
 3.13686e-01 -1.66395e-02  3.10775e+00 
 2.68016e-01 -1.48159e-02  3.12688e+00 
 2.22750e-01 -1.27397e-02  3.14305e+00 
 1.77808e-01 -1.04508e-02  3.15627e+00 
 1.33131e-01 -7.98991e-03  3.16654e+00 
 8.86449e-02 -5.39912e-03  3.17387e+00 
 4.42920e-02 -2.72145e-03  3.17826e+00 
-5.13866e-12 -3.23823e-11  3.17973e+00 
-4.42920e-02  2.72145e-03  3.17826e+00 
-8.86449e-02  5.39912e-03  3.17387e+00 
-1.33131e-01  7.98991e-03  3.16654e+00 
-1.77808e-01  1.04508e-02  3.15627e+00 
-2.22750e-01  1.27397e-02  3.14305e+00 
-2.68016e-01  1.48159e-02  3.12688e+00 
-3.13686e-01  1.66395e-02  3.10775e+00 
-3.59823e-01  1.81732e-02  3.08564e+00 
-4.06510e-01  1.93805e-02  3.06053e+00 
-4.53817e-01  2.02289e-02  3.03243e+00 
-5.01834e-01  2.06867e-02  3.00130e+00 
-5.50637e-01  2.07276e-02  2.96713e+00 
-6.00327e-01  2.03266e-02  2.92990e+00 
-6.50988e-01  1.94652e-02  2.88961e+00 
-7.02730e-01  1.81269e-02  2.84621e+00 
-7.55648e-01  1.63033e-02  2.79972e+00 
-8.09866e-01  1.39882e-02  2.75009e+00 
-8.65491e-01  1.11858e-02  2.69733e+00 
-9.22659e-01  7.90284e-03  2.64142e+00 
-9.81490e-01  4.15833e-03  2.58237e+00 
-1.04214e+00 -2.51845e-05  2.52015e+00 
-1.10473e+00 -4.61104e-03  2.45479e+00 
-1.16944e+00 -9.55814e-03  2.38628e+00 
-1.23641e+00 -1.48095e-02  2.31468e+00 
-1.30582e+00 -2.03029e-02  2.23999e+00 
-1.37782e+00 -2.59587e-02  2.16229e+00 
-1.45260e+00 -3.16914e-02  2.08162e+00 
-1.53031e+00 -3.73979e-02  1.99810e+00 
-1.61114e+00 -4.29689e-02  1.91181e+00 
-1.69522e+00 -4.82789e-02  1.82291e+00 
-1.78271e+00 -5.31973e-02  1.73155e+00 
-1.87372e+00 -5.75812e-02  1.63794e+00 
-1.96837e+00 -6.12864e-02  1.54231e+00 
-2.06669e+00 -6.41638e-02  1.44494e+00 
-2.16871e+00 -6.60707e-02  1.34612e+00 
-2.27437e+00 -6.68726e-02  1.24622e+00 
-2.38358e+00 -6.64547e-02  1.14561e+00 
-2.49612e+00 -6.47296e-02  1.04471e+00 
-2.61174e+00 -6.16494e-02  9.43952e-01 
-2.73004e+00 -5.72187e-02  8.43800e-01 
-2.85060e+00 -5.15045e-02  7.44688e-01 
-2.97285e+00 -4.46498e-02  6.47068e-01 
-3.09620e+00 -3.68751e-02  5.51326e-01 
-3.21993e+00 -2.84815e-02  4.57841e-01 
-3.34329e+00 -1.98366e-02  3.66899e-01 
-3.46543e+00 -1.13712e-02  2.78757e-01 
-3.58543e+00 -3.58027e-03  1.93556e-01 
-3.70244e+00  2.89332e-03  1.11359e-01 
-3.81998e+00 -1.84162e-03  9.54602e-03 
 3.51978e+00  2.31494e-03  2.14582e-04 
 3.38582e+00 -2.28515e-03  8.87545e-02 
 3.25298e+00  6.04146e-03  1.64169e-01 
 3.11698e+00  1.50044e-02  2.45407e-01 
 2.97956e+00  2.39337e-02  3.32030e-01 
 2.84200e+00  3.21223e-02  4.23621e-01 
 2.70544e+00  3.89222e-02  5.19632e-01 
 2.57090e+00  4.38498e-02  6.19440e-01 
 2.43940e+00  4.66180e-02  7.22285e-01 
 2.31176e+00  4.71268e-02  8.27389e-01 
 2.18869e+00  4.54240e-02  9.33923e-01 
 2.07067e+00  4.16652e-02  1.04112e+00 
 1.95801e+00  3.60796e-02  1.14825e+00 
 1.85086e+00  2.89358e-02  1.25466e+00 
 1.74923e+00  2.05262e-02  1.35977e+00 
 1.65302e+00  1.11401e-02  1.46311e+00 
 1.56206e+00  1.06505e-03  1.56427e+00 
 1.47612e+00 -9.43607e-03  1.66292e+00 
 1.39493e+00 -2.01136e-02  1.75880e+00 
 1.31818e+00 -3.07510e-02  1.85170e+00 
 1.24561e+00 -4.11481e-02  1.94145e+00 
 1.17688e+00 -5.11394e-02  2.02797e+00 
 1.11173e+00 -6.05746e-02  2.11116e+00 
 1.04985e+00 -6.93363e-02  2.19099e+00 
 9.90997e-01 -7.73198e-02  2.26742e+00 
 9.34898e-01 -8.44493e-02  2.34045e+00 
 8.81332e-01 -9.06587e-02  2.41009e+00 
 8.30066e-01 -9.59070e-02  2.47637e+00 
 7.80908e-01 -1.00160e-01  2.53931e+00 
 7.33659e-01 -1.03405e-01  2.59895e+00 
 6.88156e-01 -1.05632e-01  2.65533e+00 
 6.44229e-01 -1.06851e-01  2.70850e+00 
 6.01743e-01 -1.07074e-01  2.75848e+00 
 5.60552e-01 -1.06325e-01  2.80535e+00 
 5.20542e-01 -1.04632e-01  2.84913e+00 
 4.81589e-01 -1.02033e-01  2.88987e+00 
 4.43598e-01 -9.85691e-02  2.92761e+00 
 4.06462e-01 -9.42866e-02  2.96239e+00 
 3.70099e-01 -8.92350e-02  2.99425e+00 
 3.34417e-01 -8.34689e-02  3.02322e+00 
 2.99345e-01 -7.70447e-02  3.04934e+00 
 2.64803e-01 -7.00219e-02  3.07263e+00 
 2.30728e-01 -6.24623e-02  3.09312e+00 
 1.97048e-01 -5.44288e-02  3.11083e+00 
 1.63707e-01 -4.59872e-02  3.12578e+00 
 1.30639e-01 -3.72028e-02  3.13799e+00 
 9.77916e-02 -2.81440e-02  3.14747e+00 
 6.51035e-02 -1.88776e-02  3.15423e+00 
 3.25263e-02 -9.47372e-03  3.15829e+00 
-7.03297e-12 -3.25599e-11  3.15964e+00 
-3.25263e-02  9.47372e-03  3.15829e+00 
-6.51035e-02  1.88776e-02  3.15423e+00 
-9.77916e-02  2.81440e-02  3.14747e+00 
-1.30639e-01  3.72028e-02  3.13799e+00 
-1.63707e-01  4.59872e-02  3.12578e+00 
-1.97048e-01  5.44288e-02  3.11083e+00 
-2.30728e-01  6.24623e-02  3.09312e+00 
-2.64803e-01  7.00219e-02  3.07263e+00 
-2.99345e-01  7.70447e-02  3.04934e+00 
-3.34417e-01  8.34689e-02  3.02322e+00 
-3.70099e-01  8.92350e-02  2.99425e+00 
-4.06462e-01  9.42866e-02  2.96239e+00 
-4.43598e-01  9.85691e-02  2.92761e+00 
-4.81589e-01  1.02033e-01  2.88987e+00 
-5.20542e-01  1.04632e-01  2.84913e+00 
-5.60552e-01  1.06325e-01  2.80535e+00 
-6.01743e-01  1.07074e-01  2.75848e+00 
-6.44229e-01  1.06851e-01  2.70850e+00 
-6.88156e-01  1.05632e-01  2.65533e+00 
-7.33659e-01  1.03405e-01  2.59895e+00 
-7.80908e-01  1.00160e-01  2.53931e+00 
-8.30066e-01  9.59070e-02  2.47637e+00 
-8.81332e-01  9.06587e-02  2.41009e+00 
-9.34898e-01  8.44493e-02  2.34045e+00 
-9.90997e-01  7.73198e-02  2.26742e+00 
-1.04985e+00  6.93363e-02  2.19099e+00 
-1.11173e+00  6.05746e-02  2.11116e+00 
-1.17688e+00  5.11394e-02  2.02797e+00 
-1.24561e+00  4.11481e-02  1.94145e+00 
-1.31818e+00  3.07510e-02  1.85170e+00 
-1.39493e+00  2.01136e-02  1.75880e+00 
-1.47612e+00  9.43607e-03  1.66292e+00 
-1.56206e+00 -1.06505e-03  1.56427e+00 
-1.65302e+00 -1.11401e-02  1.46311e+00 
-1.74923e+00 -2.05262e-02  1.35977e+00 
-1.85086e+00 -2.89358e-02  1.25466e+00 
-1.95801e+00 -3.60796e-02  1.14825e+00 
-2.07067e+00 -4.16652e-02  1.04112e+00 
-2.18869e+00 -4.54240e-02  9.33923e-01 
-2.31176e+00 -4.71268e-02  8.27389e-01 
-2.43940e+00 -4.66180e-02  7.22285e-01 
-2.57090e+00 -4.38498e-02  6.19440e-01 
-2.70544e+00 -3.89222e-02  5.19632e-01 
-2.84200e+00 -3.21223e-02  4.23621e-01 
-2.97956e+00 -2.39337e-02  3.32030e-01 
-3.11698e+00 -1.50044e-02  2.45407e-01 
-3.25298e+00 -6.04146e-03  1.64169e-01 
-3.38582e+00  2.28515e-03  8.87545e-02 
-3.51978e+00 -2.31494e-03  2.14582e-04 
 3.27029e+00  4.81225e-03 -1.45623e-02 
 3.10548e+00  7.98678e-04  5.94653e-02 
 2.94234e+00  1.01572e-02  1.30062e-01 
 2.77859e+00  1.97626e-02  2.10178e-01 
 2.61492e+00  2.74448e-02  2.99450e-01 
 2.45289e+00  3.16187e-02  3.97038e-01 
 2.29459e+00  3.14942e-02  5.01633e-01 
 2.14199e+00  2.69341e-02  6.11659e-01 
 1.99671e+00  1.82283e-02  7.25431e-01 
 1.85979e+00  5.90336e-03  8.41380e-01 
 1.73181e+00 -9.39688e-03  9.58069e-01 
 1.61288e+00 -2.70050e-02  1.07432e+00 
 1.50286e+00 -4.62623e-02  1.18911e+00 
 1.40135e+00 -6.65679e-02  1.30169e+00 
 1.30787e+00 -8.73683e-02  1.41144e+00 
 1.22181e+00 -1.08191e-01  1.51793e+00 
 1.14258e+00 -1.28615e-01  1.62082e+00 
 1.06955e+00 -1.48298e-01  1.71992e+00 
 1.00216e+00 -1.66943e-01  1.81508e+00 
 9.39815e-01 -1.84323e-01  1.90627e+00 
 8.82028e-01 -2.00241e-01  1.99344e+00 
 8.28305e-01 -2.14560e-01  2.07664e+00 
 7.78228e-01 -2.27165e-01  2.15590e+00 
 7.31396e-01 -2.37988e-01  2.23132e+00 
 6.87470e-01 -2.46973e-01  2.30295e+00 
 6.46125e-01 -2.54104e-01  2.37092e+00 
 6.07094e-01 -2.59371e-01  2.43529e+00 
 5.70117e-01 -2.62792e-01  2.49619e+00 
 5.34981e-01 -2.64390e-01  2.55369e+00 
 5.01482e-01 -2.64210e-01  2.60790e+00 
 4.69451e-01 -2.62297e-01  2.65891e+00 
 4.38724e-01 -2.58713e-01  2.70682e+00 
 4.09169e-01 -2.53521e-01  2.75168e+00 
 3.80655e-01 -2.46795e-01  2.79360e+00 
 3.53075e-01 -2.38609e-01  2.83263e+00 
 3.26323e-01 -2.29044e-01  2.86885e+00 
 3.00315e-01 -2.18182e-01  2.90232e+00 
 2.74963e-01 -2.06110e-01  2.93309e+00 
 2.50197e-01 -1.92916e-01  2.96122e+00 
 2.25945e-01 -1.78688e-01  2.98676e+00 
 2.02150e-01 -1.63519e-01  3.00974e+00 
 1.78747e-01 -1.47500e-01  3.03020e+00 
 1.55691e-01 -1.30724e-01  3.04818e+00 
 1.32924e-01 -1.13284e-01  3.06371e+00 
 1.10406e-01 -9.52753e-02  3.07680e+00 
 8.80870e-02 -7.67903e-02  3.08749e+00 
 6.59293e-02 -5.79265e-02  3.09578e+00 
 4.38870e-02 -3.87756e-02  3.10170e+00 
 2.19250e-02 -1.94361e-02  3.10525e+00 
-2.21529e-12 -3.70968e-11  3.10643e+00 
-2.19250e-02  1.94361e-02  3.10525e+00 
-4.38870e-02  3.87756e-02  3.10170e+00 
-6.59293e-02  5.79265e-02  3.09578e+00 
-8.80870e-02  7.67903e-02  3.08749e+00 
-1.10406e-01  9.52753e-02  3.07680e+00 
-1.32924e-01  1.13284e-01  3.06371e+00 
-1.55691e-01  1.30724e-01  3.04818e+00 
-1.78747e-01  1.47500e-01  3.03020e+00 
-2.02150e-01  1.63519e-01  3.00974e+00 
-2.25945e-01  1.78688e-01  2.98676e+00 
-2.50197e-01  1.92916e-01  2.96122e+00 
-2.74963e-01  2.06110e-01  2.93309e+00 
-3.00315e-01  2.18182e-01  2.90232e+00 
-3.26323e-01  2.29044e-01  2.86885e+00 
-3.53075e-01  2.38609e-01  2.83263e+00 
-3.80655e-01  2.46795e-01  2.79360e+00 
-4.09169e-01  2.53521e-01  2.75168e+00 
-4.38724e-01  2.58713e-01  2.70682e+00 
-4.69451e-01  2.62297e-01  2.65891e+00 
-5.01482e-01  2.64210e-01  2.60790e+00 
-5.34981e-01  2.64390e-01  2.55369e+00 
-5.70117e-01  2.62792e-01  2.49619e+00 
-6.07094e-01  2.59371e-01  2.43529e+00 
-6.46125e-01  2.54104e-01  2.37092e+00 
-6.87470e-01  2.46973e-01  2.30295e+00 
-7.31396e-01  2.37988e-01  2.23132e+00 
-7.78228e-01  2.27165e-01  2.15590e+00 
-8.28305e-01  2.14560e-01  2.07664e+00 
-8.82028e-01  2.00241e-01  1.99344e+00 
-9.39815e-01  1.84323e-01  1.90627e+00 
-1.00216e+00  1.66943e-01  1.81508e+00 
-1.06955e+00  1.48298e-01  1.71992e+00 
-1.14258e+00  1.28615e-01  1.62082e+00 
-1.22181e+00  1.08191e-01  1.51793e+00 
-1.30787e+00  8.73683e-02  1.41144e+00 
-1.40135e+00  6.65679e-02  1.30169e+00 
-1.50286e+00  4.62623e-02  1.18911e+00 
-1.61288e+00  2.70050e-02  1.07432e+00 
-1.73181e+00  9.39688e-03  9.58069e-01 
-1.85979e+00 -5.90336e-03  8.41380e-01 
-1.99671e+00 -1.82283e-02  7.25431e-01 
-2.14199e+00 -2.69341e-02  6.11659e-01 
-2.29459e+00 -3.14942e-02  5.01633e-01 
-2.45289e+00 -3.16187e-02  3.97038e-01 
-2.61492e+00 -2.74448e-02  2.99450e-01 
-2.77859e+00 -1.97626e-02  2.10178e-01 
-2.94234e+00 -1.01572e-02  1.30062e-01 
-3.10548e+00 -7.98678e-04  5.94653e-02 
-3.27029e+00 -4.81225e-03 -1.45623e-02 
 3.07869e+00  1.52543e-02 -4.07744e-02 
 2.85522e+00  5.31857e-03  2.24751e-02 
 2.64752e+00  2.13263e-02  9.11424e-02 
 2.43427e+00  2.94105e-02  1.79285e-01 
 2.22160e+00  2.61060e-02  2.84340e-01 
 2.01691e+00  1.19292e-02  4.02307e-01 
 1.82554e+00 -1.13290e-02  5.28768e-01 
 1.65033e+00 -4.15638e-02  6.59836e-01 
 1.49228e+00 -7.67646e-02  7.92318e-01 
 1.35107e+00 -1.15178e-01  9.23825e-01 
 1.22571e+00 -1.55302e-01  1.05258e+00 
 1.11480e+00 -1.95921e-01  1.17740e+00 
 1.01683e+00 -2.36027e-01  1.29747e+00 
 9.30265e-01 -2.74848e-01  1.41235e+00 
 8.53689e-01 -3.11752e-01  1.52178e+00 
 7.85771e-01 -3.46287e-01  1.62571e+00 
 7.25359e-01 -3.78091e-01  1.72419e+00 
 6.71404e-01 -4.06930e-01  1.81735e+00 
 6.23021e-01 -4.32623e-01  1.90537e+00 
 5.79420e-01 -4.55084e-01  1.98847e+00 
 5.39943e-01 -4.74252e-01  2.06687e+00 
 5.04007e-01 -4.90133e-01  2.14080e+00 
 4.71133e-01 -5.02744e-01  2.21047e+00 
 4.40890e-01 -5.12150e-01  2.27613e+00 
 4.12933e-01 -5.18415e-01  2.33795e+00 
 3.86946e-01 -5.21639e-01  2.39616e+00 
 3.62679e-01 -5.21917e-01  2.45091e+00 
 3.39899e-01 -5.19366e-01  2.50239e+00 
 3.18424e-01 -5.14098e-01  2.55073e+00 
 2.98083e-01 -5.06241e-01  2.59609e+00 
 2.78740e-01 -4.95917e-01  2.63858e+00 
 2.60268e-01 -4.83256e-01  2.67833e+00 
 2.42567e-01 -4.68384e-01  2.71544e+00 
 2.25538e-01 -4.51433e-01  2.75001e+00 
 2.09109e-01 -4.32530e-01  2.78211e+00 
 1.93201e-01 -4.11804e-01  2.81183e+00 
 1.77759e-01 -3.89383e-01  2.83923e+00 
 1.62722e-01 -3.65392e-01  2.86438e+00 
 1.48047e-01 -3.39961e-01  2.88734e+00 
 1.33683e-01 -3.13210e-01  2.90815e+00 
 1.19597e-01 -2.85267e-01  2.92685e+00 
 1.05747e-01 -2.56250e-01  2.94349e+00 
 9.21046e-02 -2.26287e-01  2.95810e+00 
 7.86352e-02 -1.95492e-01  2.97070e+00 
 6.53139e-02 -1.63990e-01  2.98133e+00 
 5.21103e-02 -1.31897e-01  2.98999e+00 
 3.90025e-02 -9.93352e-02  2.99671e+00 
 2.59627e-02 -6.64180e-02  3.00151e+00 
 1.29705e-02 -3.32689e-02  3.00438e+00 
-3.30349e-12 -3.65041e-11  3.00534e+00 
-1.29705e-02  3.32689e-02  3.00438e+00 
-2.59627e-02  6.64180e-02  3.00151e+00 
-3.90025e-02  9.93352e-02  2.99671e+00 
-5.21103e-02  1.31897e-01  2.98999e+00 
-6.53139e-02  1.63990e-01  2.98133e+00 
-7.86352e-02  1.95492e-01  2.97070e+00 
-9.21046e-02  2.26287e-01  2.95810e+00 
-1.05747e-01  2.56250e-01  2.94349e+00 
-1.19597e-01  2.85267e-01  2.92685e+00 
-1.33683e-01  3.13210e-01  2.90815e+00 
-1.48047e-01  3.39961e-01  2.88734e+00 
-1.62722e-01  3.65392e-01  2.86438e+00 
-1.77759e-01  3.89383e-01  2.83923e+00 
-1.93201e-01  4.11804e-01  2.81183e+00 
-2.09109e-01  4.32530e-01  2.78211e+00 
-2.25538e-01  4.51433e-01  2.75001e+00 
-2.42567e-01  4.68384e-01  2.71544e+00 
-2.60268e-01  4.83256e-01  2.67833e+00 
-2.78740e-01  4.95917e-01  2.63858e+00 
-2.98083e-01  5.06241e-01  2.59609e+00 
-3.18424e-01  5.14098e-01  2.55073e+00 
-3.39899e-01  5.19366e-01  2.50239e+00 
-3.62679e-01  5.21917e-01  2.45091e+00 
-3.86946e-01  5.21639e-01  2.39616e+00 
-4.12933e-01  5.18415e-01  2.33795e+00 
-4.40890e-01  5.12150e-01  2.27613e+00 
-4.71133e-01  5.02744e-01  2.21047e+00 
-5.04007e-01  4.90133e-01  2.14080e+00 
-5.39943e-01  4.74252e-01  2.06687e+00 
-5.79420e-01  4.55084e-01  1.98847e+00 
-6.23021e-01  4.32623e-01  1.90537e+00 
-6.71404e-01  4.06930e-01  1.81735e+00 
-7.25359e-01  3.78091e-01  1.72419e+00 
-7.85771e-01  3.46287e-01  1.62571e+00 
-8.53689e-01  3.11752e-01  1.52178e+00 
-9.30265e-01  2.74848e-01  1.41235e+00 
-1.01683e+00  2.36027e-01  1.29747e+00 
-1.11480e+00  1.95921e-01  1.17740e+00 
-1.22571e+00  1.55302e-01  1.05258e+00 
-1.35107e+00  1.15178e-01  9.23825e-01 
-1.49228e+00  7.67646e-02  7.92318e-01 
-1.65033e+00  4.15638e-02  6.59836e-01 
-1.82554e+00  1.13290e-02  5.28768e-01 
-2.01691e+00 -1.19292e-02  4.02307e-01 
-2.22160e+00 -2.61060e-02  2.84340e-01 
-2.43427e+00 -2.94105e-02  1.79285e-01 
-2.64752e+00 -2.13263e-02  9.11424e-02 
-2.85522e+00 -5.31857e-03  2.24751e-02 
-3.07869e+00 -1.52543e-02 -4.07744e-02 
 2.95352e+00  3.01992e-02 -9.67230e-02 
 2.65879e+00  5.84946e-02 -5.06973e-02 
 2.32214e+00  5.85126e-02  5.41777e-02 
 1.99113e+00  2.08311e-02  1.94368e-01 
 1.69384e+00 -3.90810e-02  3.53563e-01 
 1.43820e+00 -1.11732e-01  5.19616e-01 
 1.22350e+00 -1.90634e-01  6.84643e-01 
 1.04535e+00 -2.71520e-01  8.43980e-01 
 8.98420e-01 -3.51446e-01  9.95005e-01 
 7.77457e-01 -4.28447e-01  1.13653e+00 
 6.77829e-01 -5.01154e-01  1.26816e+00 
 5.95537e-01 -5.68716e-01  1.39007e+00 
 5.27306e-01 -6.30558e-01  1.50270e+00 
 4.70419e-01 -6.86402e-01  1.60668e+00 
 4.22706e-01 -7.36095e-01  1.70266e+00 
 3.82389e-01 -7.79654e-01  1.79133e+00 
 3.48066e-01 -8.17145e-01  1.87334e+00 
 3.18590e-01 -8.48733e-01  1.94930e+00 
 2.93064e-01 -8.74590e-01  2.01976e+00 
 2.70747e-01 -8.94948e-01  2.08523e+00 
 2.51064e-01 -9.10024e-01  2.14616e+00 
 2.33537e-01 -9.20072e-01  2.20294e+00 
 2.17795e-01 -9.25323e-01  2.25593e+00 
 2.03526e-01 -9.26030e-01  2.30543e+00 
 1.90490e-01 -9.22422e-01  2.35170e+00 
 1.78479e-01 -9.14740e-01  2.39500e+00 
 1.67336e-01 -9.03204e-01  2.43552e+00 
 1.56922e-01 -8.88037e-01  2.47345e+00 
 1.47131e-01 -8.69449e-01  2.50894e+00 
 1.37868e-01 -8.47646e-01  2.54214e+00 
 1.29062e-01 -8.22823e-01  2.57316e+00 
 1.20645e-01 -7.95172e-01  2.60212e+00 
 1.12569e-01 -7.64877e-01  2.62911e+00 
 1.04786e-01 -7.32113e-01  2.65422e+00 
 9.72603e-02 -6.97056e-01  2.67750e+00 
 8.99565e-02 -6.59868e-01  2.69905e+00 
 8.28498e-02 -6.20716e-01  2.71889e+00 
 7.59125e-02 -5.79751e-01  2.73710e+00 
 6.91262e-02 -5.37134e-01  2.75370e+00 
 6.24691e-02 -4.93007e-01  2.76875e+00 
 5.59270e-02 -4.47524e-01  2.78227e+00 
 4.94821e-02 -4.00821e-01  2.79430e+00 
 4.31229e-02 -3.53047e-01  2.80485e+00 
 3.68345e-02 -3.04334e-01  2.81396e+00 
 3.06072e-02 -2.54827e-01  2.82163e+00 
 2.44280e-02 -2.04652e-01  2.82789e+00 
 1.82882e-02 -1.53952e-01  2.83275e+00 
 1.21761e-02 -1.02852e-01  2.83621e+00 
 6.08367e-03 -5.14938e-02  2.83828e+00 
-5.99177e-12 -3.22525e-11  2.83897e+00 
-6.08367e-03  5.14938e-02  2.83828e+00 
-1.21761e-02  1.02852e-01  2.83621e+00 
-1.82882e-02  1.53952e-01  2.83275e+00 
-2.44280e-02  2.04652e-01  2.82789e+00 
-3.06072e-02  2.54827e-01  2.82163e+00 
-3.68345e-02  3.04334e-01  2.81396e+00 
-4.31229e-02  3.53047e-01  2.80485e+00 
-4.94821e-02  4.00821e-01  2.79430e+00 
-5.59270e-02  4.47524e-01  2.78227e+00 
-6.24691e-02  4.93007e-01  2.76875e+00 
-6.91262e-02  5.37134e-01  2.75370e+00 
-7.59125e-02  5.79751e-01  2.73710e+00 
-8.28498e-02  6.20716e-01  2.71889e+00 
-8.99565e-02  6.59868e-01  2.69905e+00 
-9.72603e-02  6.97056e-01  2.67750e+00 
-1.04786e-01  7.32113e-01  2.65422e+00 
-1.12569e-01  7.64877e-01  2.62911e+00 
-1.20645e-01  7.95172e-01  2.60212e+00 
-1.29062e-01  8.22823e-01  2.57316e+00 
-1.37868e-01  8.47646e-01  2.54214e+00 
-1.47131e-01  8.69449e-01  2.50894e+00 
-1.56922e-01  8.88037e-01  2.47345e+00 
-1.67336e-01  9.03204e-01  2.43552e+00 
-1.78479e-01  9.14740e-01  2.39500e+00 
-1.90490e-01  9.22422e-01  2.35170e+00 
-2.03526e-01  9.26030e-01  2.30543e+00 
-2.17795e-01  9.25323e-01  2.25593e+00 
-2.33537e-01  9.20072e-01  2.20294e+00 
-2.51064e-01  9.10024e-01  2.14616e+00 
-2.70747e-01  8.94948e-01  2.08523e+00 
-2.93064e-01  8.74590e-01  2.01976e+00 
-3.18590e-01  8.48733e-01  1.94930e+00 
-3.48066e-01  8.17145e-01  1.87334e+00 
-3.82389e-01  7.79654e-01  1.79133e+00 
-4.22706e-01  7.36095e-01  1.70266e+00 
-4.70419e-01  6.86402e-01  1.60668e+00 
-5.27306e-01  6.30558e-01  1.50270e+00 
-5.95537e-01  5.68716e-01  1.39007e+00 
-6.77829e-01  5.01154e-01  1.26816e+00 
-7.77457e-01  4.28447e-01  1.13653e+00 
-8.98420e-01  3.51446e-01  9.95005e-01 
-1.04535e+00  2.71520e-01  8.43980e-01 
-1.22350e+00  1.90634e-01  6.84643e-01 
-1.43820e+00  1.11732e-01  5.19616e-01 
-1.69384e+00  3.90810e-02  3.53563e-01 
-1.99113e+00 -2.08311e-02  1.94368e-01 
-2.32214e+00 -5.85126e-02  5.41777e-02 
-2.65879e+00 -5.84946e-02 -5.06973e-02 
-2.95352e+00 -3.01992e-02 -9.67230e-02 
 3.01883e+00  3.12418e-01 -3.45343e-01 
 2.17920e+00  8.79233e-02 -5.39389e-02 
 1.57392e+00 -1.09623e-01  2.28338e-01 
 1.14376e+00 -2.98562e-01  4.93698e-01 
 8.38952e-01 -4.76088e-01  7.32734e-01 
 6.22702e-01 -6.38709e-01  9.42122e-01 
 4.68550e-01 -7.85593e-01  1.12331e+00 
 3.57957e-01 -9.16888e-01  1.27940e+00 
 2.78142e-01 -1.03304e+00  1.41384e+00 
 2.20121e-01 -1.13489e+00  1.52999e+00 
 1.77670e-01 -1.22322e+00  1.63079e+00 
 1.46343e-01 -1.29902e+00  1.71883e+00 
 1.23039e-01 -1.36313e+00  1.79622e+00 
 1.05506e-01 -1.41644e+00  1.86475e+00 
 9.21709e-02 -1.45975e+00  1.92587e+00 
 8.18701e-02 -1.49383e+00  1.98077e+00 
 7.37957e-02 -1.51935e+00  2.03040e+00 
 6.73373e-02 -1.53697e+00  2.07555e+00 
 6.20766e-02 -1.54724e+00  2.11687e+00 
 5.76882e-02 -1.55073e+00  2.15486e+00 
 5.39551e-02 -1.54788e+00  2.18994e+00 
 5.07009e-02 -1.53916e+00  2.22248e+00 
 4.78133e-02 -1.52496e+00  2.25273e+00 
 4.51945e-02 -1.50566e+00  2.28094e+00 
 4.27873e-02 -1.48158e+00  2.30729e+00 
 4.05360e-02 -1.45305e+00  2.33195e+00 
 3.84118e-02 -1.42036e+00  2.35505e+00 
 3.63818e-02 -1.38378e+00  2.37670e+00 
 3.44324e-02 -1.34356e+00  2.39699e+00 
 3.25430e-02 -1.29995e+00  2.41601e+00 
 3.07079e-02 -1.25316e+00  2.43382e+00 
 2.89133e-02 -1.20341e+00  2.45047e+00 
 2.71576e-02 -1.15091e+00  2.46602e+00 
 2.54309e-02 -1.09584e+00  2.48051e+00 
 2.37334e-02 -1.03838e+00  2.49398e+00 
 2.20578e-02 -9.78727e-01  2.50647e+00 
 2.04051e-02 -9.17039e-01  2.51798e+00 
 1.87692e-02 -8.53480e-01  2.52857e+00 
 1.71515e-02 -7.88217e-01  2.53824e+00 
 1.55472e-02 -7.21398e-01  2.54701e+00 
 1.39572e-02 -6.53184e-01  2.55490e+00 
 1.23776e-02 -5.83714e-01  2.56193e+00 
 1.08093e-02 -5.13144e-01  2.56810e+00 
 9.24866e-03 -4.41607e-01  2.57343e+00 
 7.69638e-03 -3.69255e-01  2.57792e+00 
 6.14945e-03 -2.96215e-01  2.58159e+00 
 4.60812e-03 -2.22638e-01  2.58444e+00 
 3.06984e-03 -1.48648e-01  2.58647e+00 
 1.53449e-03 -7.43942e-02  2.58768e+00 
-2.10525e-12 -4.18374e-11  2.58809e+00 
-1.53449e-03  7.43942e-02  2.58768e+00 
-3.06984e-03  1.48648e-01  2.58647e+00 
-4.60812e-03  2.22638e-01  2.58444e+00 
-6.14945e-03  2.96215e-01  2.58159e+00 
-7.69638e-03  3.69255e-01  2.57792e+00 
-9.24866e-03  4.41607e-01  2.57343e+00 
-1.08093e-02  5.13144e-01  2.56810e+00 
-1.23776e-02  5.83714e-01  2.56193e+00 
-1.39572e-02  6.53184e-01  2.55490e+00 
-1.55472e-02  7.21398e-01  2.54701e+00 
-1.71515e-02  7.88217e-01  2.53824e+00 
-1.87692e-02  8.53480e-01  2.52857e+00 
-2.04051e-02  9.17039e-01  2.51798e+00 
-2.20578e-02  9.78727e-01  2.50647e+00 
-2.37334e-02  1.03838e+00  2.49398e+00 
-2.54309e-02  1.09584e+00  2.48051e+00 
-2.71576e-02  1.15091e+00  2.46602e+00 
-2.89133e-02  1.20341e+00  2.45047e+00 
-3.07079e-02  1.25316e+00  2.43382e+00 
-3.25430e-02  1.29995e+00  2.41601e+00 
-3.44324e-02  1.34356e+00  2.39699e+00 
-3.63818e-02  1.38378e+00  2.37670e+00 
-3.84118e-02  1.42036e+00  2.35505e+00 
-4.05360e-02  1.45305e+00  2.33195e+00 
-4.27873e-02  1.48158e+00  2.30729e+00 
-4.51945e-02  1.50566e+00  2.28094e+00 
-4.78133e-02  1.52496e+00  2.25273e+00 
-5.07009e-02  1.53916e+00  2.22248e+00 
-5.39551e-02  1.54788e+00  2.18994e+00 
-5.76882e-02  1.55073e+00  2.15486e+00 
-6.20766e-02  1.54724e+00  2.11687e+00 
-6.73373e-02  1.53697e+00  2.07555e+00 
-7.37957e-02  1.51935e+00  2.03040e+00 
-8.18701e-02  1.49383e+00  1.98077e+00 
-9.21709e-02  1.45975e+00  1.92587e+00 
-1.05506e-01  1.41644e+00  1.86475e+00 
-1.23039e-01  1.36313e+00  1.79622e+00 
-1.46343e-01  1.29902e+00  1.71883e+00 
-1.77670e-01  1.22322e+00  1.63079e+00 
-2.20121e-01  1.13489e+00  1.52999e+00 
-2.78142e-01  1.03304e+00  1.41384e+00 
-3.57957e-01  9.16888e-01  1.27940e+00 
-4.68550e-01  7.85593e-01  1.12331e+00 
-6.22702e-01  6.38709e-01  9.42122e-01 
-8.38952e-01  4.76088e-01  7.32734e-01 
-1.14376e+00  2.98562e-01  4.93698e-01 
-1.57392e+00  1.09623e-01  2.28338e-01 
-2.17920e+00 -8.79233e-02 -5.39389e-02 
-3.01883e+00 -3.12418e-01 -3.45343e-01 
 1.11986e+00 -6.33179e-01  7.91791e-01 
 5.81343e-01 -1.18853e+00  1.33667e+00 
 3.64961e-01 -1.46314e+00  1.57699e+00 
 2.52618e-01 -1.68599e+00  1.73368e+00 
 1.91596e-01 -1.86570e+00  1.83510e+00 
 1.56786e-01 -2.01168e+00  1.90176e+00 
 1.36120e-01 -2.13011e+00  1.94609e+00 
 1.23329e-01 -2.22568e+00  1.97604e+00 
 1.15005e-01 -2.30197e+00  1.99668e+00 
 1.09243e-01 -2.36176e+00  2.01130e+00 
 1.04934e-01 -2.40731e+00  2.02203e+00 
 1.01452e-01 -2.44039e+00  2.03027e+00 
 9.84110e-02 -2.46246e+00  2.03691e+00 
 9.56110e-02 -2.47469e+00  2.04254e+00 
 9.29147e-02 -2.47810e+00  2.04753e+00 
 9.02699e-02 -2.47345e+00  2.05211e+00 
 8.76269e-02 -2.46149e+00  2.05643e+00 
 8.49837e-02 -2.44277e+00  2.06057e+00 
 8.23202e-02 -2.41784e+00  2.06459e+00 
 7.96496e-02 -2.38711e+00  2.06851e+00 
 7.69609e-02 -2.35101e+00  2.07234e+00 
 7.42701e-02 -2.30986e+00  2.07609e+00 
 7.15682e-02 -2.26401e+00  2.07975e+00 
 6.88701e-02 -2.21372e+00  2.08331e+00 
 6.61669e-02 -2.15928e+00  2.08678e+00 
 6.34716e-02 -2.10092e+00  2.09014e+00 
 6.07751e-02 -2.03889e+00  2.09338e+00 
 5.80884e-02 -1.97339e+00  2.09651e+00 
 5.54026e-02 -1.90463e+00  2.09952e+00 
 5.27271e-02 -1.83280e+00  2.10239e+00 
 5.00533e-02 -1.75810e+00  2.10514e+00 
 4.73892e-02 -1.68067e+00  2.10775e+00 
 4.47270e-02 -1.60074e+00  2.11023e+00 
 4.20736e-02 -1.51842e+00  2.11256e+00 
 3.94217e-02 -1.43390e+00  2.11476e+00 
 3.67774e-02 -1.34732e+00  2.11682e+00 
 3.41342e-02 -1.25886e+00  2.11874e+00 
 3.14974e-02 -1.16863e+00  2.12051e+00 
 2.88614e-02 -1.07680e+00  2.12214e+00 
 2.62305e-02 -9.83503e-01  2.12363e+00 
 2.36000e-02 -8.88891e-01  2.12498e+00 
 2.09736e-02 -7.93079e-01  2.12619e+00 
 1.83474e-02 -6.96231e-01  2.12725e+00 
 1.57242e-02 -5.98454e-01  2.12817e+00 
 1.31011e-02 -4.99907e-01  2.12895e+00 
 1.04800e-02 -4.00698e-01  2.12959e+00 
 7.85900e-03 -3.00982e-01  2.13008e+00 
 5.23916e-03 -2.00866e-01  2.13044e+00 
 2.61937e-03 -1.00502e-01  2.13065e+00 
-9.46488e-13 -4.45212e-11  2.13072e+00 
-2.61937e-03  1.00502e-01  2.13065e+00 
-5.23916e-03  2.00866e-01  2.13044e+00 
-7.85900e-03  3.00982e-01  2.13008e+00 
-1.04800e-02  4.00698e-01  2.12959e+00 
-1.31011e-02  4.99907e-01  2.12895e+00 
-1.57242e-02  5.98454e-01  2.12817e+00 
-1.83474e-02  6.96231e-01  2.12725e+00 
-2.09736e-02  7.93079e-01  2.12619e+00 
-2.36000e-02  8.88891e-01  2.12498e+00 
-2.62305e-02  9.83503e-01  2.12363e+00 
-2.88614e-02  1.07680e+00  2.12214e+00 
-3.14974e-02  1.16863e+00  2.12051e+00 
-3.41342e-02  1.25886e+00  2.11874e+00 
-3.67774e-02  1.34732e+00  2.11682e+00 
-3.94217e-02  1.43390e+00  2.11476e+00 
-4.20736e-02  1.51842e+00  2.11256e+00 
-4.47270e-02  1.60074e+00  2.11023e+00 
-4.73892e-02  1.68067e+00  2.10775e+00 
-5.00533e-02  1.75810e+00  2.10514e+00 
-5.27271e-02  1.83280e+00  2.10239e+00 
-5.54026e-02  1.90463e+00  2.09952e+00 
-5.80884e-02  1.97339e+00  2.09651e+00 
-6.07751e-02  2.03889e+00  2.09338e+00 
-6.34716e-02  2.10092e+00  2.09014e+00 
-6.61669e-02  2.15928e+00  2.08678e+00 
-6.88701e-02  2.21372e+00  2.08331e+00 
-7.15682e-02  2.26401e+00  2.07975e+00 
-7.42701e-02  2.30986e+00  2.07609e+00 
-7.69609e-02  2.35101e+00  2.07234e+00 
-7.96496e-02  2.38711e+00  2.06851e+00 
-8.23202e-02  2.41784e+00  2.06459e+00 
-8.49837e-02  2.44277e+00  2.06057e+00 
-8.76269e-02  2.46149e+00  2.05643e+00 
-9.02699e-02  2.47345e+00  2.05211e+00 
-9.29147e-02  2.47810e+00  2.04753e+00 
-9.56110e-02  2.47469e+00  2.04254e+00 
-9.84110e-02  2.46246e+00  2.03691e+00 
-1.01452e-01  2.44039e+00  2.03027e+00 
-1.04934e-01  2.40731e+00  2.02203e+00 
-1.09243e-01  2.36176e+00  2.01130e+00 
-1.15005e-01  2.30197e+00  1.99668e+00 
-1.23329e-01  2.22568e+00  1.97604e+00 
-1.36120e-01  2.13011e+00  1.94609e+00 
-1.56786e-01  2.01168e+00  1.90176e+00 
-1.91596e-01  1.86570e+00  1.83510e+00 
-2.52618e-01  1.68599e+00  1.73368e+00 
-3.64961e-01  1.46314e+00  1.57699e+00 
-5.81343e-01  1.18853e+00  1.33667e+00 
-1.11986e+00  6.33179e-01  7.91791e-01 </DataArray>
         </PointData>
         <CellData/>
      </Piece>
   </UnstructuredGrid>
</VTKFile>