<?xml version="1.0" encoding="utf-8"?>
<VTKFile byte_order="LittleEndian" type="UnstructuredGrid" version="0.1">
   <UnstructuredGrid>
      <Piece NumberOfCells="4704" NumberOfPoints="2426">
         <Points>
            <DataArray Name="Points" NumberOfComponents="3" format="ascii" type="Float32">
0.0000 0.0000 0.0000
0.0000 0.0417 0.0000
0.0000 0.0833 0.0000
0.0000 0.1250 0.0000
0.0000 0.1667 0.0000
0.0000 0.2083 0.0000
0.0000 0.2500 0.0000
0.0000 0.2917 0.0000
0.0000 0.3333 0.0000
0.0000 0.3750 0.0000
0.0000 0.4167 0.0000
0.0000 0.4583 0.0000
0.0000 0.5000 0.0000
0.0000 0.5417 0.0000
0.0000 0.5833 0.0000
0.0000 0.6250 0.0000
0.0000 0.6667 0.0000
0.0000 0.7083 0.0000
0.0000 0.7500 0.0000
0.0000 0.7917 0.0000
0.0000 0.8333 0.0000
0.0000 0.8750 0.0000
0.0000 0.9167 0.0000
0.0000 0.9583 0.0000
0.0000 1.0000 0.0000
0.0408 0.0000 0.0000
0.0408 0.0417 0.0000
0.0408 0.0833 0.0000
0.0408 0.1250 0.0000
0.0408 0.1667 0.0000
0.0408 0.2083 0.0000
0.0408 0.2500 0.0000
0.0408 0.2917 0.0000
0.0408 0.3333 0.0000
0.0408 0.3750 0.0000
0.0408 0.4167 0.0000
0.0408 0.4583 0.0000
0.0408 0.5000 0.0000
0.0408 0.5417 0.0000
0.0408 0.5833 0.0000
0.0408 0.6250 0.0000
0.0408 0.6667 0.0000
0.0408 0.7083 0.0000
0.0408 0.7500 0.0000
0.0408 0.7917 0.0000
0.0408 0.8333 0.0000
0.0408 0.8750 0.0000
0.0408 0.9167 0.0000
0.0408 0.9583 0.0000
0.0408 1.0000 0.0000
0.0816 0.0000 0.0000
0.0816 0.0417 0.0000
0.0816 0.0833 0.0000
0.0816 0.1250 0.0000
0.0816 0.1667 0.0000
0.0816 0.2083 0.0000
0.0816 0.2500 0.0000
0.0816 0.2917 0.0000
0.0816 0.3333 0.0000
0.0816 0.3750 0.0000
0.0816 0.4167 0.0000
0.0816 0.4583 0.0000
0.0816 0.5000 0.0000
0.0816 0.5417 0.0000
0.0816 0.5833 0.0000
0.0816 0.6250 0.0000
0.0816 0.6667 0.0000
0.0816 0.7083 0.0000
0.0816 0.7500 0.0000
0.0816 0.7917 0.0000
0.0816 0.8333 0.0000
0.0816 0.8750 0.0000
0.0816 0.9167 0.0000
0.0816 0.9583 0.0000
0.0816 1.0000 0.0000
0.1224 0.0000 0.0000
0.1224 0.0417 0.0000
0.1224 0.0833 0.0000
0.1224 0.1250 0.0000
0.1224 0.1667 0.0000
0.1224 0.2083 0.0000
0.1224 0.2500 0.0000
0.1224 0.2917 0.0000
0.1224 0.3333 0.0000
0.1224 0.3750 0.0000
0.1224 0.4167 0.0000
0.1224 0.4583 0.0000
0.1224 0.5000 0.0000
0.1224 0.5417 0.0000
0.1224 0.5833 0.0000
0.1224 0.6250 0.0000
0.1224 0.6667 0.0000
0.1224 0.7083 0.0000
0.1224 0.7500 0.0000
0.1224 0.7917 0.0000
0.1224 0.8333 0.0000
0.1224 0.8750 0.0000
0.1224 0.9167 0.0000
0.1224 0.9583 0.0000
0.1224 1.0000 0.0000
0.1633 0.0000 0.0000
0.1633 0.0417 0.0000
0.1633 0.0833 0.0000
0.1633 0.1250 0.0000
0.1633 0.1667 0.0000
0.1633 0.2083 0.0000
0.1633 0.2500 0.0000
0.1633 0.2917 0.0000
0.1633 0.3333 0.0000
0.1633 0.3750 0.0000
0.1633 0.4167 0.0000
0.1633 0.4583 0.0000
0.1633 0.5000 0.0000
0.1633 0.5417 0.0000
0.1633 0.5833 0.0000
0.1633 0.6250 0.0000
0.1633 0.6667 0.0000
0.1633 0.7083 0.0000
0.1633 0.7500 0.0000
0.1633 0.7917 0.0000
0.1633 0.8333 0.0000
0.1633 0.8750 0.0000
0.1633 0.9167 0.0000
0.1633 0.9583 0.0000
0.1633 1.0000 0.0000
0.2041 0.0000 0.0000
0.2041 0.0417 0.0000
0.2041 0.0833 0.0000
0.2041 0.1250 0.0000
0.2041 0.1667 0.0000
0.2041 0.2083 0.0000
0.2041 0.2500 0.0000
0.2041 0.2917 0.0000
0.2041 0.3333 0.0000
0.2041 0.3750 0.0000
0.2041 0.4167 0.0000
0.2041 0.4583 0.0000
0.2041 0.5000 0.0000
0.2041 0.5417 0.0000
0.2041 0.5833 0.0000
0.2041 0.6250 0.0000
0.2041 0.6667 0.0000
0.2041 0.7083 0.0000
0.2041 0.7500 0.0000
0.2041 0.7917 0.0000
0.2041 0.8333 0.0000
0.2041 0.8750 0.0000
0.2041 0.9167 0.0000
0.2041 0.9583 0.0000
0.2041 1.0000 0.0000
0.2449 0.0000 0.0000
0.2449 0.0417 0.0000
0.2449 0.0833 0.0000
0.2449 0.1250 0.0000
0.2449 0.1667 0.0000
0.2449 0.2083 0.0000
0.2449 0.2500 0.0000
0.2449 0.2917 0.0000
0.2449 0.3333 0.0000
0.2449 0.3750 0.0000
0.2449 0.4167 0.0000
0.2449 0.4583 0.0000
0.2449 0.5000 0.0000
0.2449 0.5417 0.0000
0.2449 0.5833 0.0000
0.2449 0.6250 0.0000
0.2449 0.6667 0.0000
0.2449 0.7083 0.0000
0.2449 0.7500 0.0000
0.2449 0.7917 0.0000
0.2449 0.8333 0.0000
0.2449 0.8750 0.0000
0.2449 0.9167 0.0000
0.2449 0.9583 0.0000
0.2449 1.0000 0.0000
0.2857 0.0000 0.0000
0.2857 0.0417 0.0000
0.2857 0.0833 0.0000
0.2857 0.1250 0.0000
0.2857 0.1667 0.0000
0.2857 0.2083 0.0000
0.2857 0.2500 0.0000
0.2857 0.2917 0.0000
0.2857 0.3333 0.0000
0.2857 0.3750 0.0000
0.2857 0.4167 0.0000
0.2857 0.4583 0.0000
0.2857 0.5000 0.0000
0.2857 0.5417 0.0000
0.2857 0.5833 0.0000
0.2857 0.6250 0.0000
0.2857 0.6667 0.0000
0.2857 0.7083 0.0000
0.2857 0.7500 0.0000
0.2857 0.7917 0.0000
0.2857 0.8333 0.0000
0.2857 0.8750 0.0000
0.2857 0.9167 0.0000
0.2857 0.9583 0.0000
0.2857 1.0000 0.0000
0.3265 0.0000 0.0000
0.3265 0.0417 0.0000
0.3265 0.0833 0.0000
0.3265 0.1250 0.0000
0.3265 0.1667 0.0000
0.3265 0.2083 0.0000
0.3265 0.2500 0.0000
0.3265 0.2917 0.0000
0.3265 0.3333 0.0000
0.3265 0.3750 0.0000
0.3265 0.4167 0.0000
0.3265 0.4583 0.0000
0.3265 0.5000 0.0000
0.3265 0.5417 0.0000
0.3265 0.5833 0.0000
0.3265 0.6250 0.0000
0.3265 0.6667 0.0000
0.3265 0.7083 0.0000
0.3265 0.7500 0.0000
0.3265 0.7917 0.0000
0.3265 0.8333 0.0000
0.3265 0.8750 0.0000
0.3265 0.9167 0.0000
0.3265 0.9583 0.0000
0.3265 1.0000 0.0000
0.3673 0.0000 0.0000
0.3673 0.0417 0.0000
0.3673 0.0833 0.0000
0.3673 0.1250 0.0000
0.3673 0.1667 0.0000
0.3673 0.2083 0.0000
0.3673 0.2500 0.0000
0.3673 0.2917 0.0000
0.3673 0.3333 0.0000
0.3673 0.3750 0.0000
0.3673 0.4167 0.0000
0.3673 0.4583 0.0000
0.3673 0.5000 0.0000
0.3673 0.5417 0.0000
0.3673 0.5833 0.0000
0.3673 0.6250 0.0000
0.3673 0.6667 0.0000
0.3673 0.7083 0.0000
0.3673 0.7500 0.0000
0.3673 0.7917 0.0000
0.3673 0.8333 0.0000
0.3673 0.8750 0.0000
0.3673 0.9167 0.0000
0.3673 0.9583 0.0000
0.3673 1.0000 0.0000
0.4082 0.0000 0.0000
0.4082 0.0417 0.0000
0.4082 0.0833 0.0000
0.4082 0.1250 0.0000
0.4082 0.1667 0.0000
0.4082 0.2083 0.0000
0.4082 0.2500 0.0000
0.4082 0.2917 0.0000
0.4082 0.3333 0.0000
0.4082 0.3750 0.0000
0.4082 0.4167 0.0000
0.4082 0.4583 0.0000
0.4082 0.5000 0.0000
0.4082 0.5417 0.0000
0.4082 0.5833 0.0000
0.4082 0.6250 0.0000
0.4082 0.6667 0.0000
0.4082 0.7083 0.0000
0.4082 0.7500 0.0000
0.4082 0.7917 0.0000
0.4082 0.8333 0.0000
0.4082 0.8750 0.0000
0.4082 0.9167 0.0000
0.4082 0.9583 0.0000
0.4082 1.0000 0.0000
0.4490 0.0000 0.0000
0.4490 0.0417 0.0000
0.4490 0.0833 0.0000
0.4490 0.1250 0.0000
0.4490 0.1667 0.0000
0.4490 0.2083 0.0000
0.4490 0.2500 0.0000
0.4490 0.2917 0.0000
0.4490 0.3333 0.0000
0.4490 0.3750 0.0000
0.4490 0.4167 0.0000
0.4490 0.4583 0.0000
0.4490 0.5000 0.0000
0.4490 0.5417 0.0000
0.4490 0.5833 0.0000
0.4490 0.6250 0.0000
0.4490 0.6667 0.0000
0.4490 0.7083 0.0000
0.4490 0.7500 0.0000
0.4490 0.7917 0.0000
0.4490 0.8333 0.0000
0.4490 0.8750 0.0000
0.4490 0.9167 0.0000
0.4490 0.9583 0.0000
0.4490 1.0000 0.0000
0.4898 0.0000 0.0000
0.4898 0.0417 0.0000
0.4898 0.0833 0.0000
0.4898 0.1250 0.0000
0.4898 0.1667 0.0000
0.4898 0.2083 0.0000
0.4898 0.2500 0.0000
0.4898 0.2917 0.0000
0.4898 0.3333 0.0000
0.4898 0.3750 0.0000
0.4898 0.4167 0.0000
0.4898 0.4583 0.0000
0.4898 0.5000 0.0000
0.4898 0.5417 0.0000
0.4898 0.5833 0.0000
0.4898 0.6250 0.0000
0.4898 0.6667 0.0000
0.4898 0.7083 0.0000
0.4898 0.7500 0.0000
0.4898 0.7917 0.0000
0.4898 0.8333 0.0000
0.4898 0.8750 0.0000
0.4898 0.9167 0.0000
0.4898 0.9583 0.0000
0.4898 1.0000 0.0000
0.5306 0.0000 0.0000
0.5306 0.0417 0.0000
0.5306 0.0833 0.0000
0.5306 0.1250 0.0000
0.5306 0.1667 0.0000
0.5306 0.2083 0.0000
0.5306 0.2500 0.0000
0.5306 0.2917 0.0000
0.5306 0.3333 0.0000
0.5306 0.3750 0.0000
0.5306 0.4167 0.0000
0.5306 0.4583 0.0000
0.5306 0.5000 0.0000
0.5306 0.5417 0.0000
0.5306 0.5833 0.0000
0.5306 0.6250 0.0000
0.5306 0.6667 0.0000
0.5306 0.7083 0.0000
0.5306 0.7500 0.0000
0.5306 0.7917 0.0000
0.5306 0.8333 0.0000
0.5306 0.8750 0.0000
0.5306 0.9167 0.0000
0.5306 0.9583 0.0000
0.5306 1.0000 0.0000
0.5714 0.0000 0.0000
0.5714 0.0417 0.0000
0.5714 0.0833 0.0000
0.5714 0.1250 0.0000
0.5714 0.1667 0.0000
0.5714 0.2083 0.0000
0.5714 0.2500 0.0000
0.5714 0.2917 0.0000
0.5714 0.3333 0.0000
0.5714 0.3750 0.0000
0.5714 0.4167 0.0000
0.5714 0.4583 0.0000
0.5714 0.5000 0.0000
0.5714 0.5417 0.0000
0.5714 0.5833 0.0000
0.5714 0.6250 0.0000
0.5714 0.6667 0.0000
0.5714 0.7083 0.0000
0.5714 0.7500 0.0000
0.5714 0.7917 0.0000
0.5714 0.8333 0.0000
0.5714 0.8750 0.0000
0.5714 0.9167 0.0000
0.5714 0.9583 0.0000
0.5714 1.0000 0.0000
0.6122 0.0000 0.0000
0.6122 0.0417 0.0000
0.6122 0.0833 0.0000
0.6122 0.1250 0.0000
0.6122 0.1667 0.0000
0.6122 0.2083 0.0000
0.6122 0.2500 0.0000
0.6122 0.2917 0.0000
0.6122 0.3333 0.0000
0.6122 0.3750 0.0000
0.6122 0.4167 0.0000
0.6122 0.4583 0.0000
0.6122 0.5000 0.0000
0.6122 0.5417 0.0000
0.6122 0.5833 0.0000
0.6122 0.6250 0.0000
0.6122 0.6667 0.0000
0.6122 0.7083 0.0000
0.6122 0.7500 0.0000
0.6122 0.7917 0.0000
0.6122 0.8333 0.0000
0.6122 0.8750 0.0000
0.6122 0.9167 0.0000
0.6122 0.9583 0.0000
0.6122 1.0000 0.0000
0.6531 0.0000 0.0000
0.6531 0.0417 0.0000
0.6531 0.0833 0.0000
0.6531 0.1250 0.0000
0.6531 0.1667 0.0000
0.6531 0.2083 0.0000
0.6531 0.2500 0.0000
0.6531 0.2917 0.0000
0.6531 0.3333 0.0000
0.6531 0.3750 0.0000
0.6531 0.4167 0.0000
0.6531 0.4583 0.0000
0.6531 0.5000 0.0000
0.6531 0.5417 0.0000
0.6531 0.5833 0.0000
0.6531 0.6250 0.0000
0.6531 0.6667 0.0000
0.6531 0.7083 0.0000
0.6531 0.7500 0.0000
0.6531 0.7917 0.0000
0.6531 0.8333 0.0000
0.6531 0.8750 0.0000
0.6531 0.9167 0.0000
0.6531 0.9583 0.0000
0.6531 1.0000 0.0000
0.6939 0.0000 0.0000
0.6939 0.0417 0.0000
0.6939 0.0833 0.0000
0.6939 0.1250 0.0000
0.6939 0.1667 0.0000
0.6939 0.2083 0.0000
0.6939 0.2500 0.0000
0.6939 0.2917 0.0000
0.6939 0.3333 0.0000
0.6939 0.3750 0.0000
0.6939 0.4167 0.0000
0.6939 0.4583 0.0000
0.6939 0.5000 0.0000
0.6939 0.5417 0.0000
0.6939 0.5833 0.0000
0.6939 0.6250 0.0000
0.6939 0.6667 0.0000
0.6939 0.7083 0.0000
0.6939 0.7500 0.0000
0.6939 0.7917 0.0000
0.6939 0.8333 0.0000
0.6939 0.8750 0.0000
0.6939 0.9167 0.0000
0.6939 0.9583 0.0000
0.6939 1.0000 0.0000
0.7347 0.0000 0.0000
0.7347 0.0417 0.0000
0.7347 0.0833 0.0000
0.7347 0.1250 0.0000
0.7347 0.1667 0.0000
0.7347 0.2083 0.0000
0.7347 0.2500 0.0000
0.7347 0.2917 0.0000
0.7347 0.3333 0.0000
0.7347 0.3750 0.0000
0.7347 0.4167 0.0000
0.7347 0.4583 0.0000
0.7347 0.5000 0.0000
0.7347 0.5417 0.0000
0.7347 0.5833 0.0000
0.7347 0.6250 0.0000
0.7347 0.6667 0.0000
0.7347 0.7083 0.0000
0.7347 0.7500 0.0000
0.7347 0.7917 0.0000
0.7347 0.8333 0.0000
0.7347 0.8750 0.0000
0.7347 0.9167 0.0000
0.7347 0.9583 0.0000
0.7347 1.0000 0.0000
0.7755 0.0000 0.0000
0.7755 0.0417 0.0000
0.7755 0.0833 0.0000
0.7755 0.1250 0.0000
0.7755 0.1667 0.0000
0.7755 0.2083 0.0000
0.7755 0.2500 0.0000
0.7755 0.2917 0.0000
0.7755 0.3333 0.0000
0.7755 0.3750 0.0000
0.7755 0.4167 0.0000
0.7755 0.4583 0.0000
0.7755 0.5000 0.0000
0.7755 0.5417 0.0000
0.7755 0.5833 0.0000
0.7755 0.6250 0.0000
0.7755 0.6667 0.0000
0.7755 0.7083 0.0000
0.7755 0.7500 0.0000
0.7755 0.7917 0.0000
0.7755 0.8333 0.0000
0.7755 0.8750 0.0000
0.7755 0.9167 0.0000
0.7755 0.9583 0.0000
0.7755 1.0000 0.0000
0.8163 0.0000 0.0000
0.8163 0.0417 0.0000
0.8163 0.0833 0.0000
0.8163 0.1250 0.0000
0.8163 0.1667 0.0000
0.8163 0.2083 0.0000
0.8163 0.2500 0.0000
0.8163 0.2917 0.0000
0.8163 0.3333 0.0000
0.8163 0.3750 0.0000
0.8163 0.4167 0.0000
0.8163 0.4583 0.0000
0.8163 0.5000 0.0000
0.8163 0.5417 0.0000
0.8163 0.5833 0.0000
0.8163 0.6250 0.0000
0.8163 0.6667 0.0000
0.8163 0.7083 0.0000
0.8163 0.7500 0.0000
0.8163 0.7917 0.0000
0.8163 0.8333 0.0000
0.8163 0.8750 0.0000
0.8163 0.9167 0.0000
0.8163 0.9583 0.0000
0.8163 1.0000 0.0000
0.8571 0.0000 0.0000
0.8571 0.0417 0.0000
0.8571 0.0833 0.0000
0.8571 0.1250 0.0000
0.8571 0.1667 0.0000
0.8571 0.2083 0.0000
0.8571 0.2500 0.0000
0.8571 0.2917 0.0000
0.8571 0.3333 0.0000
0.8571 0.3750 0.0000
0.8571 0.4167 0.0000
0.8571 0.4583 0.0000
0.8571 0.5000 0.0000
0.8571 0.5417 0.0000
0.8571 0.5833 0.0000
0.8571 0.6250 0.0000
0.8571 0.6667 0.0000
0.8571 0.7083 0.0000
0.8571 0.7500 0.0000
0.8571 0.7917 0.0000
0.8571 0.8333 0.0000
0.8571 0.8750 0.0000
0.8571 0.9167 0.0000
0.8571 0.9583 0.0000
0.8571 1.0000 0.0000
0.8980 0.0000 0.0000
0.8980 0.0417 0.0000
0.8980 0.0833 0.0000
0.8980 0.1250 0.0000
0.8980 0.1667 0.0000
0.8980 0.2083 0.0000
0.8980 0.2500 0.0000
0.8980 0.2917 0.0000
0.8980 0.3333 0.0000
0.8980 0.3750 0.0000
0.8980 0.4167 0.0000
0.8980 0.4583 0.0000
0.8980 0.5000 0.0000
0.8980 0.5417 0.0000
0.8980 0.5833 0.0000
0.8980 0.6250 0.0000
0.8980 0.6667 0.0000
0.8980 0.7083 0.0000
0.8980 0.7500 0.0000
0.8980 0.7917 0.0000
0.8980 0.8333 0.0000
0.8980 0.8750 0.0000
0.8980 0.9167 0.0000
0.8980 0.9583 0.0000
0.8980 1.0000 0.0000
0.9388 0.0000 0.0000
0.9388 0.0417 0.0000
0.9388 0.0833 0.0000
0.9388 0.1250 0.0000
0.9388 0.1667 0.0000
0.9388 0.2083 0.0000
0.9388 0.2500 0.0000
0.9388 0.2917 0.0000
0.9388 0.3333 0.0000
0.9388 0.3750 0.0000
0.9388 0.4167 0.0000
0.9388 0.4583 0.0000
0.9388 0.5000 0.0000
0.9388 0.5417 0.0000
0.9388 0.5833 0.0000
0.9388 0.6250 0.0000
0.9388 0.6667 0.0000
0.9388 0.7083 0.0000
0.9388 0.7500 0.0000
0.9388 0.7917 0.0000
0.9388 0.8333 0.0000
0.9388 0.8750 0.0000
0.9388 0.9167 0.0000
0.9388 0.9583 0.0000
0.9388 1.0000 0.0000
0.9796 0.0000 0.0000
0.9796 0.0417 0.0000
0.9796 0.0833 0.0000
0.9796 0.1250 0.0000
0.9796 0.1667 0.0000
0.9796 0.2083 0.0000
0.9796 0.2500 0.0000
0.9796 0.2917 0.0000
0.9796 0.3333 0.0000
0.9796 0.3750 0.0000
0.9796 0.4167 0.0000
0.9796 0.4583 0.0000
0.9796 0.5000 0.0000
0.9796 0.5417 0.0000
0.9796 0.5833 0.0000
0.9796 0.6250 0.0000
0.9796 0.6667 0.0000
0.9796 0.7083 0.0000
0.9796 0.7500 0.0000
0.9796 0.7917 0.0000
0.9796 0.8333 0.0000
0.9796 0.8750 0.0000
0.9796 0.9167 0.0000
0.9796 0.9583 0.0000
0.9796 1.0000 0.0000
1.0204 0.0000 0.0000
1.0204 0.0417 0.0000
1.0204 0.0833 0.0000
1.0204 0.1250 0.0000
1.0204 0.1667 0.0000
1.0204 0.2083 0.0000
1.0204 0.2500 0.0000
1.0204 0.2917 0.0000
1.0204 0.3333 0.0000
1.0204 0.3750 0.0000
1.0204 0.4167 0.0000
1.0204 0.4583 0.0000
1.0204 0.5000 0.0000
1.0204 0.5417 0.0000
1.0204 0.5833 0.0000
1.0204 0.6250 0.0000
1.0204 0.6667 0.0000
1.0204 0.7083 0.0000
1.0204 0.7500 0.0000
1.0204 0.7917 0.0000
1.0204 0.8333 0.0000
1.0204 0.8750 0.0000
1.0204 0.9167 0.0000
1.0204 0.9583 0.0000
1.0204 1.0000 0.0000
1.0612 0.0000 0.0000
1.0612 0.0417 0.0000
1.0612 0.0833 0.0000
1.0612 0.1250 0.0000
1.0612 0.1667 0.0000
1.0612 0.2083 0.0000
1.0612 0.2500 0.0000
1.0612 0.2917 0.0000
1.0612 0.3333 0.0000
1.0612 0.3750 0.0000
1.0612 0.4167 0.0000
1.0612 0.4583 0.0000
1.0612 0.5000 0.0000
1.0612 0.5417 0.0000
1.0612 0.5833 0.0000
1.0612 0.6250 0.0000
1.0612 0.6667 0.0000
1.0612 0.7083 0.0000
1.0612 0.7500 0.0000
1.0612 0.7917 0.0000
1.0612 0.8333 0.0000
1.0612 0.8750 0.0000
1.0612 0.9167 0.0000
1.0612 0.9583 0.0000
1.0612 1.0000 0.0000
1.1020 0.0000 0.0000
1.1020 0.0417 0.0000
1.1020 0.0833 0.0000
1.1020 0.1250 0.0000
1.1020 0.1667 0.0000
1.1020 0.2083 0.0000
1.1020 0.2500 0.0000
1.1020 0.2917 0.0000
1.1020 0.3333 0.0000
1.1020 0.3750 0.0000
1.1020 0.4167 0.0000
1.1020 0.4583 0.0000
1.1020 0.5000 0.0000
1.1020 0.5417 0.0000
1.1020 0.5833 0.0000
1.1020 0.6250 0.0000
1.1020 0.6667 0.0000
1.1020 0.7083 0.0000
1.1020 0.7500 0.0000
1.1020 0.7917 0.0000
1.1020 0.8333 0.0000
1.1020 0.8750 0.0000
1.1020 0.9167 0.0000
1.1020 0.9583 0.0000
1.1020 1.0000 0.0000
1.1429 0.0000 0.0000
1.1429 0.0417 0.0000
1.1429 0.0833 0.0000
1.1429 0.1250 0.0000
1.1429 0.1667 0.0000
1.1429 0.2083 0.0000
1.1429 0.2500 0.0000
1.1429 0.2917 0.0000
1.1429 0.3333 0.0000
1.1429 0.3750 0.0000
1.1429 0.4167 0.0000
1.1429 0.4583 0.0000
1.1429 0.5000 0.0000
1.1429 0.5417 0.0000
1.1429 0.5833 0.0000
1.1429 0.6250 0.0000
1.1429 0.6667 0.0000
1.1429 0.7083 0.0000
1.1429 0.7500 0.0000
1.1429 0.7917 0.0000
1.1429 0.8333 0.0000
1.1429 0.8750 0.0000
1.1429 0.9167 0.0000
1.1429 0.9583 0.0000
1.1429 1.0000 0.0000
1.1837 0.0000 0.0000
1.1837 0.0417 0.0000
1.1837 0.0833 0.0000
1.1837 0.1250 0.0000
1.1837 0.1667 0.0000
1.1837 0.2083 0.0000
1.1837 0.2500 0.0000
1.1837 0.2917 0.0000
1.1837 0.3333 0.0000
1.1837 0.3750 0.0000
1.1837 0.4167 0.0000
1.1837 0.4583 0.0000
1.1837 0.5000 0.0000
1.1837 0.5417 0.0000
1.1837 0.5833 0.0000
1.1837 0.6250 0.0000
1.1837 0.6667 0.0000
1.1837 0.7083 0.0000
1.1837 0.7500 0.0000
1.1837 0.7917 0.0000
1.1837 0.8333 0.0000
1.1837 0.8750 0.0000
1.1837 0.9167 0.0000
1.1837 0.9583 0.0000
1.1837 1.0000 0.0000
1.2245 0.0000 0.0000
1.2245 0.0417 0.0000
1.2245 0.0833 0.0000
1.2245 0.1250 0.0000
1.2245 0.1667 0.0000
1.2245 0.2083 0.0000
1.2245 0.2500 0.0000
1.2245 0.2917 0.0000
1.2245 0.3333 0.0000
1.2245 0.3750 0.0000
1.2245 0.4167 0.0000
1.2245 0.4583 0.0000
1.2245 0.5000 0.0000
1.2245 0.5417 0.0000
1.2245 0.5833 0.0000
1.2245 0.6250 0.0000
1.2245 0.6667 0.0000
1.2245 0.7083 0.0000
1.2245 0.7500 0.0000
1.2245 0.7917 0.0000
1.2245 0.8333 0.0000
1.2245 0.8750 0.0000
1.2245 0.9167 0.0000
1.2245 0.9583 0.0000
1.2245 1.0000 0.0000
1.2653 0.0000 0.0000
1.2653 0.0417 0.0000
1.2653 0.0833 0.0000
1.2653 0.1250 0.0000
1.2653 0.1667 0.0000
1.2653 0.2083 0.0000
1.2653 0.2500 0.0000
1.2653 0.2917 0.0000
1.2653 0.3333 0.0000
1.2653 0.3750 0.0000
1.2653 0.4167 0.0000
1.2653 0.4583 0.0000
1.2653 0.5000 0.0000
1.2653 0.5417 0.0000
1.2653 0.5833 0.0000
1.2653 0.6250 0.0000
1.2653 0.6667 0.0000
1.2653 0.7083 0.0000
1.2653 0.7500 0.0000
1.2653 0.7917 0.0000
1.2653 0.8333 0.0000
1.2653 0.8750 0.0000
1.2653 0.9167 0.0000
1.2653 0.9583 0.0000
1.2653 1.0000 0.0000
1.3061 0.0000 0.0000
1.3061 0.0417 0.0000
1.3061 0.0833 0.0000
1.3061 0.1250 0.0000
1.3061 0.1667 0.0000
1.3061 0.2083 0.0000
1.3061 0.2500 0.0000
1.3061 0.2917 0.0000
1.3061 0.3333 0.0000
1.3061 0.3750 0.0000
1.3061 0.4167 0.0000
1.3061 0.4583 0.0000
1.3061 0.5000 0.0000
1.3061 0.5417 0.0000
1.3061 0.5833 0.0000
1.3061 0.6250 0.0000
1.3061 0.6667 0.0000
1.3061 0.7083 0.0000
1.3061 0.7500 0.0000
1.3061 0.7917 0.0000
1.3061 0.8333 0.0000
1.3061 0.8750 0.0000
1.3061 0.9167 0.0000
1.3061 0.9583 0.0000
1.3061 1.0000 0.0000
1.3469 0.0000 0.0000
1.3469 0.0417 0.0000
1.3469 0.0833 0.0000
1.3469 0.1250 0.0000
1.3469 0.1667 0.0000
1.3469 0.2083 0.0000
1.3469 0.2500 0.0000
1.3469 0.2917 0.0000
1.3469 0.3333 0.0000
1.3469 0.3750 0.0000
1.3469 0.4167 0.0000
1.3469 0.4583 0.0000
1.3469 0.5000 0.0000
1.3469 0.5417 0.0000
1.3469 0.5833 0.0000
1.3469 0.6250 0.0000
1.3469 0.6667 0.0000
1.3469 0.7083 0.0000
1.3469 0.7500 0.0000
1.3469 0.7917 0.0000
1.3469 0.8333 0.0000
1.3469 0.8750 0.0000
1.3469 0.9167 0.0000
1.3469 0.9583 0.0000
1.3469 1.0000 0.0000
1.3878 0.0000 0.0000
1.3878 0.0417 0.0000
1.3878 0.0833 0.0000
1.3878 0.1250 0.0000
1.3878 0.1667 0.0000
1.3878 0.2083 0.0000
1.3878 0.2500 0.0000
1.3878 0.2917 0.0000
1.3878 0.3333 0.0000
1.3878 0.3750 0.0000
1.3878 0.4167 0.0000
1.3878 0.4583 0.0000
1.3878 0.5000 0.0000
1.3878 0.5417 0.0000
1.3878 0.5833 0.0000
1.3878 0.6250 0.0000
1.3878 0.6667 0.0000
1.3878 0.7083 0.0000
1.3878 0.7500 0.0000
1.3878 0.7917 0.0000
1.3878 0.8333 0.0000
1.3878 0.8750 0.0000
1.3878 0.9167 0.0000
1.3878 0.9583 0.0000
1.3878 1.0000 0.0000
1.4286 0.0000 0.0000
1.4286 0.0417 0.0000
1.4286 0.0833 0.0000
1.4286 0.1250 0.0000
1.4286 0.1667 0.0000
1.4286 0.2083 0.0000
1.4286 0.2500 0.0000
1.4286 0.2917 0.0000
1.4286 0.3333 0.0000
1.4286 0.3750 0.0000
1.4286 0.4167 0.0000
1.4286 0.4583 0.0000
1.4286 0.5000 0.0000
1.4286 0.5417 0.0000
1.4286 0.5833 0.0000
1.4286 0.6250 0.0000
1.4286 0.6667 0.0000
1.4286 0.7083 0.0000
1.4286 0.7500 0.0000
1.4286 0.7917 0.0000
1.4286 0.8333 0.0000
1.4286 0.8750 0.0000
1.4286 0.9167 0.0000
1.4286 0.9583 0.0000
1.4286 1.0000 0.0000
1.4694 0.0000 0.0000
1.4694 0.0417 0.0000
1.4694 0.0833 0.0000
1.4694 0.1250 0.0000
1.4694 0.1667 0.0000
1.4694 0.2083 0.0000
1.4694 0.2500 0.0000
1.4694 0.2917 0.0000
1.4694 0.3333 0.0000
1.4694 0.3750 0.0000
1.4694 0.4167 0.0000
1.4694 0.4583 0.0000
1.4694 0.5000 0.0000
1.4694 0.5417 0.0000
1.4694 0.5833 0.0000
1.4694 0.6250 0.0000
1.4694 0.6667 0.0000
1.4694 0.7083 0.0000
1.4694 0.7500 0.0000
1.4694 0.7917 0.0000
1.4694 0.8333 0.0000
1.4694 0.8750 0.0000
1.4694 0.9167 0.0000
1.4694 0.9583 0.0000
1.4694 1.0000 0.0000
1.5102 0.0000 0.0000
1.5102 0.0417 0.0000
1.5102 0.0833 0.0000
1.5102 0.1250 0.0000
1.5102 0.1667 0.0000
1.5102 0.2083 0.0000
1.5102 0.2500 0.0000
1.5102 0.2917 0.0000
1.5102 0.3333 0.0000
1.5102 0.3750 0.0000
1.5102 0.4167 0.0000
1.5102 0.4583 0.0000
1.5102 0.5000 0.0000
1.5102 0.5417 0.0000
1.5102 0.5833 0.0000
1.5102 0.6250 0.0000
1.5102 0.6667 0.0000
1.5102 0.7083 0.0000
1.5102 0.7500 0.0000
1.5102 0.7917 0.0000
1.5102 0.8333 0.0000
1.5102 0.8750 0.0000
1.5102 0.9167 0.0000
1.5102 0.9583 0.0000
1.5102 1.0000 0.0000
1.5510 0.0000 0.0000
1.5510 0.0417 0.0000
1.5510 0.0833 0.0000
1.5510 0.1250 0.0000
1.5510 0.1667 0.0000
1.5510 0.2083 0.0000
1.5510 0.2500 0.0000
1.5510 0.2917 0.0000
1.5510 0.3333 0.0000
1.5510 0.3750 0.0000
1.5510 0.4167 0.0000
1.5510 0.4583 0.0000
1.5510 0.5000 0.0000
1.5510 0.5417 0.0000
1.5510 0.5833 0.0000
1.5510 0.6250 0.0000
1.5510 0.6667 0.0000
1.5510 0.7083 0.0000
1.5510 0.7500 0.0000
1.5510 0.7917 0.0000
1.5510 0.8333 0.0000
1.5510 0.8750 0.0000
1.5510 0.9167 0.0000
1.5510 0.9583 0.0000
1.5510 1.0000 0.0000
1.5918 0.0000 0.0000
1.5918 0.0417 0.0000
1.5918 0.0833 0.0000
1.5918 0.1250 0.0000
1.5918 0.1667 0.0000
1.5918 0.2083 0.0000
1.5918 0.2500 0.0000
1.5918 0.2917 0.0000
1.5918 0.3333 0.0000
1.5918 0.3750 0.0000
1.5918 0.4167 0.0000
1.5918 0.4583 0.0000
1.5918 0.5000 0.0000
1.5918 0.5417 0.0000
1.5918 0.5833 0.0000
1.5918 0.6250 0.0000
1.5918 0.6667 0.0000
1.5918 0.7083 0.0000
1.5918 0.7500 0.0000
1.5918 0.7917 0.0000
1.5918 0.8333 0.0000
1.5918 0.8750 0.0000
1.5918 0.9167 0.0000
1.5918 0.9583 0.0000
1.5918 1.0000 0.0000
1.6327 0.0000 0.0000
1.6327 0.0417 0.0000
1.6327 0.0833 0.0000
1.6327 0.1250 0.0000
1.6327 0.1667 0.0000
1.6327 0.2083 0.0000
1.6327 0.2500 0.0000
1.6327 0.2917 0.0000
1.6327 0.3333 0.0000
1.6327 0.3750 0.0000
1.6327 0.4167 0.0000
1.6327 0.4583 0.0000
1.6327 0.5000 0.0000
1.6327 0.5417 0.0000
1.6327 0.5833 0.0000
1.6327 0.6250 0.0000
1.6327 0.6667 0.0000
1.6327 0.7083 0.0000
1.6327 0.7500 0.0000
1.6327 0.7917 0.0000
1.6327 0.8333 0.0000
1.6327 0.8750 0.0000
1.6327 0.9167 0.0000
1.6327 0.9583 0.0000
1.6327 1.0000 0.0000
1.6735 0.0000 0.0000
1.6735 0.0417 0.0000
1.6735 0.0833 0.0000
1.6735 0.1250 0.0000
1.6735 0.1667 0.0000
1.6735 0.2083 0.0000
1.6735 0.2500 0.0000
1.6735 0.2917 0.0000
1.6735 0.3333 0.0000
1.6735 0.3750 0.0000
1.6735 0.4167 0.0000
1.6735 0.4583 0.0000
1.6735 0.5000 0.0000
1.6735 0.5417 0.0000
1.6735 0.5833 0.0000
1.6735 0.6250 0.0000
1.6735 0.6667 0.0000
1.6735 0.7083 0.0000
1.6735 0.7500 0.0000
1.6735 0.7917 0.0000
1.6735 0.8333 0.0000
1.6735 0.8750 0.0000
1.6735 0.9167 0.0000
1.6735 0.9583 0.0000
1.6735 1.0000 0.0000
1.7143 0.0000 0.0000
1.7143 0.0417 0.0000
1.7143 0.0833 0.0000
1.7143 0.1250 0.0000
1.7143 0.1667 0.0000
1.7143 0.2083 0.0000
1.7143 0.2500 0.0000
1.7143 0.2917 0.0000
1.7143 0.3333 0.0000
1.7143 0.3750 0.0000
1.7143 0.4167 0.0000
1.7143 0.4583 0.0000
1.7143 0.5000 0.0000
1.7143 0.5417 0.0000
1.7143 0.5833 0.0000
1.7143 0.6250 0.0000
1.7143 0.6667 0.0000
1.7143 0.7083 0.0000
1.7143 0.7500 0.0000
1.7143 0.7917 0.0000
1.7143 0.8333 0.0000
1.7143 0.8750 0.0000
1.7143 0.9167 0.0000
1.7143 0.9583 0.0000
1.7143 1.0000 0.0000
1.7551 0.0000 0.0000
1.7551 0.0417 0.0000
1.7551 0.0833 0.0000
1.7551 0.1250 0.0000
1.7551 0.1667 0.0000
1.7551 0.2083 0.0000
1.7551 0.2500 0.0000
1.7551 0.2917 0.0000
1.7551 0.3333 0.0000
1.7551 0.3750 0.0000
1.7551 0.4167 0.0000
1.7551 0.4583 0.0000
1.7551 0.5000 0.0000
1.7551 0.5417 0.0000
1.7551 0.5833 0.0000
1.7551 0.6250 0.0000
1.7551 0.6667 0.0000
1.7551 0.7083 0.0000
1.7551 0.7500 0.0000
1.7551 0.7917 0.0000
1.7551 0.8333 0.0000
1.7551 0.8750 0.0000
1.7551 0.9167 0.0000
1.7551 0.9583 0.0000
1.7551 1.0000 0.0000
1.7959 0.0000 0.0000
1.7959 0.0417 0.0000
1.7959 0.0833 0.0000
1.7959 0.1250 0.0000
1.7959 0.1667 0.0000
1.7959 0.2083 0.0000
1.7959 0.2500 0.0000
1.7959 0.2917 0.0000
1.7959 0.3333 0.0000
1.7959 0.3750 0.0000
1.7959 0.4167 0.0000
1.7959 0.4583 0.0000
1.7959 0.5000 0.0000
1.7959 0.5417 0.0000
1.7959 0.5833 0.0000
1.7959 0.6250 0.0000
1.7959 0.6667 0.0000
1.7959 0.7083 0.0000
1.7959 0.7500 0.0000
1.7959 0.7917 0.0000
1.7959 0.8333 0.0000
1.7959 0.8750 0.0000
1.7959 0.9167 0.0000
1.7959 0.9583 0.0000
1.7959 1.0000 0.0000
1.8367 0.0000 0.0000
1.8367 0.0417 0.0000
1.8367 0.0833 0.0000
1.8367 0.1250 0.0000
1.8367 0.1667 0.0000
1.8367 0.2083 0.0000
1.8367 0.2500 0.0000
1.8367 0.2917 0.0000
1.8367 0.3333 0.0000
1.8367 0.3750 0.0000
1.8367 0.4167 0.0000
1.8367 0.4583 0.0000
1.8367 0.5000 0.0000
1.8367 0.5417 0.0000
1.8367 0.5833 0.0000
1.8367 0.6250 0.0000
1.8367 0.6667 0.0000
1.8367 0.7083 0.0000
1.8367 0.7500 0.0000
1.8367 0.7917 0.0000
1.8367 0.8333 0.0000
1.8367 0.8750 0.0000
1.8367 0.9167 0.0000
1.8367 0.9583 0.0000
1.8367 1.0000 0.0000
1.8776 0.0000 0.0000
1.8776 0.0417 0.0000
1.8776 0.0833 0.0000
1.8776 0.1250 0.0000
1.8776 0.1667 0.0000
1.8776 0.2083 0.0000
1.8776 0.2500 0.0000
1.8776 0.2917 0.0000
1.8776 0.3333 0.0000
1.8776 0.3750 0.0000
1.8776 0.4167 0.0000
1.8776 0.4583 0.0000
1.8776 0.5000 0.0000
1.8776 0.5417 0.0000
1.8776 0.5833 0.0000
1.8776 0.6250 0.0000
1.8776 0.6667 0.0000
1.8776 0.7083 0.0000
1.8776 0.7500 0.0000
1.8776 0.7917 0.0000
1.8776 0.8333 0.0000
1.8776 0.8750 0.0000
1.8776 0.9167 0.0000
1.8776 0.9583 0.0000
1.8776 1.0000 0.0000
1.9184 0.0000 0.0000
1.9184 0.0417 0.0000
1.9184 0.0833 0.0000
1.9184 0.1250 0.0000
1.9184 0.1667 0.0000
1.9184 0.2083 0.0000
1.9184 0.2500 0.0000
1.9184 0.2917 0.0000
1.9184 0.3333 0.0000
1.9184 0.3750 0.0000
1.9184 0.4167 0.0000
1.9184 0.4583 0.0000
1.9184 0.5000 0.0000
1.9184 0.5417 0.0000
1.9184 0.5833 0.0000
1.9184 0.6250 0.0000
1.9184 0.6667 0.0000
1.9184 0.7083 0.0000
1.9184 0.7500 0.0000
1.9184 0.7917 0.0000
1.9184 0.8333 0.0000
1.9184 0.8750 0.0000
1.9184 0.9167 0.0000
1.9184 0.9583 0.0000
1.9184 1.0000 0.0000
1.9592 0.0000 0.0000
1.9592 0.0417 0.0000
1.9592 0.0833 0.0000
1.9592 0.1250 0.0000
1.9592 0.1667 0.0000
1.9592 0.2083 0.0000
1.9592 0.2500 0.0000
1.9592 0.2917 0.0000
1.9592 0.3333 0.0000
1.9592 0.3750 0.0000
1.9592 0.4167 0.0000
1.9592 0.4583 0.0000
1.9592 0.5000 0.0000
1.9592 0.5417 0.0000
1.9592 0.5833 0.0000
1.9592 0.6250 0.0000
1.9592 0.6667 0.0000
1.9592 0.7083 0.0000
1.9592 0.7500 0.0000
1.9592 0.7917 0.0000
1.9592 0.8333 0.0000
1.9592 0.8750 0.0000
1.9592 0.9167 0.0000
1.9592 0.9583 0.0000
1.9592 1.0000 0.0000
2.0000 0.0000 0.0000
2.0000 0.0417 0.0000
2.0000 0.0833 0.0000
2.0000 0.1250 0.0000
2.0000 0.1667 0.0000
2.0000 0.2083 0.0000
2.0000 0.2500 0.0000
2.0000 0.2917 0.0000
2.0000 0.3333 0.0000
2.0000 0.3750 0.0000
2.0000 0.4167 0.0000
2.0000 0.4583 0.0000
2.0000 0.5000 0.0000
2.0000 0.5417 0.0000
2.0000 0.5833 0.0000
2.0000 0.6250 0.0000
2.0000 0.6667 0.0000
2.0000 0.7083 0.0000
2.0000 0.7500 0.0000
2.0000 0.7917 0.0000
2.0000 0.8333 0.0000
2.0000 0.8750 0.0000
2.0000 0.9167 0.0000
2.0000 0.9583 0.0000
2.0000 1.0000 0.0000
0.0204 0.0208 0.0000
0.0204 0.0625 0.0000
0.0204 0.1042 0.0000
0.0204 0.1458 0.0000
0.0204 0.1875 0.0000
0.0204 0.2292 0.0000
0.0204 0.2708 0.0000
0.0204 0.3125 0.0000
0.0204 0.3542 0.0000
0.0204 0.3958 0.0000
0.0204 0.4375 0.0000
0.0204 0.4792 0.0000
0.0204 0.5208 0.0000
0.0204 0.5625 0.0000
0.0204 0.6042 0.0000
0.0204 0.6458 0.0000
0.0204 0.6875 0.0000
0.0204 0.7292 0.0000
0.0204 0.7708 0.0000
0.0204 0.8125 0.0000
0.0204 0.8542 0.0000
0.0204 0.8958 0.0000
0.0204 0.9375 0.0000
0.0204 0.9792 0.0000
0.0612 0.0208 0.0000
0.0612 0.0625 0.0000
0.0612 0.1042 0.0000
0.0612 0.1458 0.0000
0.0612 0.1875 0.0000
0.0612 0.2292 0.0000
0.0612 0.2708 0.0000
0.0612 0.3125 0.0000
0.0612 0.3542 0.0000
0.0612 0.3958 0.0000
0.0612 0.4375 0.0000
0.0612 0.4792 0.0000
0.0612 0.5208 0.0000
0.0612 0.5625 0.0000
0.0612 0.6042 0.0000
0.0612 0.6458 0.0000
0.0612 0.6875 0.0000
0.0612 0.7292 0.0000
0.0612 0.7708 0.0000
0.0612 0.8125 0.0000
0.0612 0.8542 0.0000
0.0612 0.8958 0.0000
0.0612 0.9375 0.0000
0.0612 0.9792 0.0000
0.1020 0.0208 0.0000
0.1020 0.0625 0.0000
0.1020 0.1042 0.0000
0.1020 0.1458 0.0000
0.1020 0.1875 0.0000
0.1020 0.2292 0.0000
0.1020 0.2708 0.0000
0.1020 0.3125 0.0000
0.1020 0.3542 0.0000
0.1020 0.3958 0.0000
0.1020 0.4375 0.0000
0.1020 0.4792 0.0000
0.1020 0.5208 0.0000
0.1020 0.5625 0.0000
0.1020 0.6042 0.0000
0.1020 0.6458 0.0000
0.1020 0.6875 0.0000
0.1020 0.7292 0.0000
0.1020 0.7708 0.0000
0.1020 0.8125 0.0000
0.1020 0.8542 0.0000
0.1020 0.8958 0.0000
0.1020 0.9375 0.0000
0.1020 0.9792 0.0000
0.1429 0.0208 0.0000
0.1429 0.0625 0.0000
0.1429 0.1042 0.0000
0.1429 0.1458 0.0000
0.1429 0.1875 0.0000
0.1429 0.2292 0.0000
0.1429 0.2708 0.0000
0.1429 0.3125 0.0000
0.1429 0.3542 0.0000
0.1429 0.3958 0.0000
0.1429 0.4375 0.0000
0.1429 0.4792 0.0000
0.1429 0.5208 0.0000
0.1429 0.5625 0.0000
0.1429 0.6042 0.0000
0.1429 0.6458 0.0000
0.1429 0.6875 0.0000
0.1429 0.7292 0.0000
0.1429 0.7708 0.0000
0.1429 0.8125 0.0000
0.1429 0.8542 0.0000
0.1429 0.8958 0.0000
0.1429 0.9375 0.0000
0.1429 0.9792 0.0000
0.1837 0.0208 0.0000
0.1837 0.0625 0.0000
0.1837 0.1042 0.0000
0.1837 0.1458 0.0000
0.1837 0.1875 0.0000
0.1837 0.2292 0.0000
0.1837 0.2708 0.0000
0.1837 0.3125 0.0000
0.1837 0.3542 0.0000
0.1837 0.3958 0.0000
0.1837 0.4375 0.0000
0.1837 0.4792 0.0000
0.1837 0.5208 0.0000
0.1837 0.5625 0.0000
0.1837 0.6042 0.0000
0.1837 0.6458 0.0000
0.1837 0.6875 0.0000
0.1837 0.7292 0.0000
0.1837 0.7708 0.0000
0.1837 0.8125 0.0000
0.1837 0.8542 0.0000
0.1837 0.8958 0.0000
0.1837 0.9375 0.0000
0.1837 0.9792 0.0000
0.2245 0.0208 0.0000
0.2245 0.0625 0.0000
0.2245 0.1042 0.0000
0.2245 0.1458 0.0000
0.2245 0.1875 0.0000
0.2245 0.2292 0.0000
0.2245 0.2708 0.0000
0.2245 0.3125 0.0000
0.2245 0.3542 0.0000
0.2245 0.3958 0.0000
0.2245 0.4375 0.0000
0.2245 0.4792 0.0000
0.2245 0.5208 0.0000
0.2245 0.5625 0.0000
0.2245 0.6042 0.0000
0.2245 0.6458 0.0000
0.2245 0.6875 0.0000
0.2245 0.7292 0.0000
0.2245 0.7708 0.0000
0.2245 0.8125 0.0000
0.2245 0.8542 0.0000
0.2245 0.8958 0.0000
0.2245 0.9375 0.0000
0.2245 0.9792 0.0000
0.2653 0.0208 0.0000
0.2653 0.0625 0.0000
0.2653 0.1042 0.0000
0.2653 0.1458 0.0000
0.2653 0.1875 0.0000
0.2653 0.2292 0.0000
0.2653 0.2708 0.0000
0.2653 0.3125 0.0000
0.2653 0.3542 0.0000
0.2653 0.3958 0.0000
0.2653 0.4375 0.0000
0.2653 0.4792 0.0000
0.2653 0.5208 0.0000
0.2653 0.5625 0.0000
0.2653 0.6042 0.0000
0.2653 0.6458 0.0000
0.2653 0.6875 0.0000
0.2653 0.7292 0.0000
0.2653 0.7708 0.0000
0.2653 0.8125 0.0000
0.2653 0.8542 0.0000
0.2653 0.8958 0.0000
0.2653 0.9375 0.0000
0.2653 0.9792 0.0000
0.3061 0.0208 0.0000
0.3061 0.0625 0.0000
0.3061 0.1042 0.0000
0.3061 0.1458 0.0000
0.3061 0.1875 0.0000
0.3061 0.2292 0.0000
0.3061 0.2708 0.0000
0.3061 0.3125 0.0000
0.3061 0.3542 0.0000
0.3061 0.3958 0.0000
0.3061 0.4375 0.0000
0.3061 0.4792 0.0000
0.3061 0.5208 0.0000
0.3061 0.5625 0.0000
0.3061 0.6042 0.0000
0.3061 0.6458 0.0000
0.3061 0.6875 0.0000
0.3061 0.7292 0.0000
0.3061 0.7708 0.0000
0.3061 0.8125 0.0000
0.3061 0.8542 0.0000
0.3061 0.8958 0.0000
0.3061 0.9375 0.0000
0.3061 0.9792 0.0000
0.3469 0.0208 0.0000
0.3469 0.0625 0.0000
0.3469 0.1042 0.0000
0.3469 0.1458 0.0000
0.3469 0.1875 0.0000
0.3469 0.2292 0.0000
0.3469 0.2708 0.0000
0.3469 0.3125 0.0000
0.3469 0.3542 0.0000
0.3469 0.3958 0.0000
0.3469 0.4375 0.0000
0.3469 0.4792 0.0000
0.3469 0.5208 0.0000
0.3469 0.5625 0.0000
0.3469 0.6042 0.0000
0.3469 0.6458 0.0000
0.3469 0.6875 0.0000
0.3469 0.7292 0.0000
0.3469 0.7708 0.0000
0.3469 0.8125 0.0000
0.3469 0.8542 0.0000
0.3469 0.8958 0.0000
0.3469 0.9375 0.0000
0.3469 0.9792 0.0000
0.3878 0.0208 0.0000
0.3878 0.0625 0.0000
0.3878 0.1042 0.0000
0.3878 0.1458 0.0000
0.3878 0.1875 0.0000
0.3878 0.2292 0.0000
0.3878 0.2708 0.0000
0.3878 0.3125 0.0000
0.3878 0.3542 0.0000
0.3878 0.3958 0.0000
0.3878 0.4375 0.0000
0.3878 0.4792 0.0000
0.3878 0.5208 0.0000
0.3878 0.5625 0.0000
0.3878 0.6042 0.0000
0.3878 0.6458 0.0000
0.3878 0.6875 0.0000
0.3878 0.7292 0.0000
0.3878 0.7708 0.0000
0.3878 0.8125 0.0000
0.3878 0.8542 0.0000
0.3878 0.8958 0.0000
0.3878 0.9375 0.0000
0.3878 0.9792 0.0000
0.4286 0.0208 0.0000
0.4286 0.0625 0.0000
0.4286 0.1042 0.0000
0.4286 0.1458 0.0000
0.4286 0.1875 0.0000
0.4286 0.2292 0.0000
0.4286 0.2708 0.0000
0.4286 0.3125 0.0000
0.4286 0.3542 0.0000
0.4286 0.3958 0.0000
0.4286 0.4375 0.0000
0.4286 0.4792 0.0000
0.4286 0.5208 0.0000
0.4286 0.5625 0.0000
0.4286 0.6042 0.0000
0.4286 0.6458 0.0000
0.4286 0.6875 0.0000
0.4286 0.7292 0.0000
0.4286 0.7708 0.0000
0.4286 0.8125 0.0000
0.4286 0.8542 0.0000
0.4286 0.8958 0.0000
0.4286 0.9375 0.0000
0.4286 0.9792 0.0000
0.4694 0.0208 0.0000
0.4694 0.0625 0.0000
0.4694 0.1042 0.0000
0.4694 0.1458 0.0000
0.4694 0.1875 0.0000
0.4694 0.2292 0.0000
0.4694 0.2708 0.0000
0.4694 0.3125 0.0000
0.4694 0.3542 0.0000
0.4694 0.3958 0.0000
0.4694 0.4375 0.0000
0.4694 0.4792 0.0000
0.4694 0.5208 0.0000
0.4694 0.5625 0.0000
0.4694 0.6042 0.0000
0.4694 0.6458 0.0000
0.4694 0.6875 0.0000
0.4694 0.7292 0.0000
0.4694 0.7708 0.0000
0.4694 0.8125 0.0000
0.4694 0.8542 0.0000
0.4694 0.8958 0.0000
0.4694 0.9375 0.0000
0.4694 0.9792 0.0000
0.5102 0.0208 0.0000
0.5102 0.0625 0.0000
0.5102 0.1042 0.0000
0.5102 0.1458 0.0000
0.5102 0.1875 0.0000
0.5102 0.2292 0.0000
0.5102 0.2708 0.0000
0.5102 0.3125 0.0000
0.5102 0.3542 0.0000
0.5102 0.3958 0.0000
0.5102 0.4375 0.0000
0.5102 0.4792 0.0000
0.5102 0.5208 0.0000
0.5102 0.5625 0.0000
0.5102 0.6042 0.0000
0.5102 0.6458 0.0000
0.5102 0.6875 0.0000
0.5102 0.7292 0.0000
0.5102 0.7708 0.0000
0.5102 0.8125 0.0000
0.5102 0.8542 0.0000
0.5102 0.8958 0.0000
0.5102 0.9375 0.0000
0.5102 0.9792 0.0000
0.5510 0.0208 0.0000
0.5510 0.0625 0.0000
0.5510 0.1042 0.0000
0.5510 0.1458 0.0000
0.5510 0.1875 0.0000
0.5510 0.2292 0.0000
0.5510 0.2708 0.0000
0.5510 0.3125 0.0000
0.5510 0.3542 0.0000
0.5510 0.3958 0.0000
0.5510 0.4375 0.0000
0.5510 0.4792 0.0000
0.5510 0.5208 0.0000
0.5510 0.5625 0.0000
0.5510 0.6042 0.0000
0.5510 0.6458 0.0000
0.5510 0.6875 0.0000
0.5510 0.7292 0.0000
0.5510 0.7708 0.0000
0.5510 0.8125 0.0000
0.5510 0.8542 0.0000
0.5510 0.8958 0.0000
0.5510 0.9375 0.0000
0.5510 0.9792 0.0000
0.5918 0.0208 0.0000
0.5918 0.0625 0.0000
0.5918 0.1042 0.0000
0.5918 0.1458 0.0000
0.5918 0.1875 0.0000
0.5918 0.2292 0.0000
0.5918 0.2708 0.0000
0.5918 0.3125 0.0000
0.5918 0.3542 0.0000
0.5918 0.3958 0.0000
0.5918 0.4375 0.0000
0.5918 0.4792 0.0000
0.5918 0.5208 0.0000
0.5918 0.5625 0.0000
0.5918 0.6042 0.0000
0.5918 0.6458 0.0000
0.5918 0.6875 0.0000
0.5918 0.7292 0.0000
0.5918 0.7708 0.0000
0.5918 0.8125 0.0000
0.5918 0.8542 0.0000
0.5918 0.8958 0.0000
0.5918 0.9375 0.0000
0.5918 0.9792 0.0000
0.6327 0.0208 0.0000
0.6327 0.0625 0.0000
0.6327 0.1042 0.0000
0.6327 0.1458 0.0000
0.6327 0.1875 0.0000
0.6327 0.2292 0.0000
0.6327 0.2708 0.0000
0.6327 0.3125 0.0000
0.6327 0.3542 0.0000
0.6327 0.3958 0.0000
0.6327 0.4375 0.0000
0.6327 0.4792 0.0000
0.6327 0.5208 0.0000
0.6327 0.5625 0.0000
0.6327 0.6042 0.0000
0.6327 0.6458 0.0000
0.6327 0.6875 0.0000
0.6327 0.7292 0.0000
0.6327 0.7708 0.0000
0.6327 0.8125 0.0000
0.6327 0.8542 0.0000
0.6327 0.8958 0.0000
0.6327 0.9375 0.0000
0.6327 0.9792 0.0000
0.6735 0.0208 0.0000
0.6735 0.0625 0.0000
0.6735 0.1042 0.0000
0.6735 0.1458 0.0000
0.6735 0.1875 0.0000
0.6735 0.2292 0.0000
0.6735 0.2708 0.0000
0.6735 0.3125 0.0000
0.6735 0.3542 0.0000
0.6735 0.3958 0.0000
0.6735 0.4375 0.0000
0.6735 0.4792 0.0000
0.6735 0.5208 0.0000
0.6735 0.5625 0.0000
0.6735 0.6042 0.0000
0.6735 0.6458 0.0000
0.6735 0.6875 0.0000
0.6735 0.7292 0.0000
0.6735 0.7708 0.0000
0.6735 0.8125 0.0000
0.6735 0.8542 0.0000
0.6735 0.8958 0.0000
0.6735 0.9375 0.0000
0.6735 0.9792 0.0000
0.7143 0.0208 0.0000
0.7143 0.0625 0.0000
0.7143 0.1042 0.0000
0.7143 0.1458 0.0000
0.7143 0.1875 0.0000
0.7143 0.2292 0.0000
0.7143 0.2708 0.0000
0.7143 0.3125 0.0000
0.7143 0.3542 0.0000
0.7143 0.3958 0.0000
0.7143 0.4375 0.0000
0.7143 0.4792 0.0000
0.7143 0.5208 0.0000
0.7143 0.5625 0.0000
0.7143 0.6042 0.0000
0.7143 0.6458 0.0000
0.7143 0.6875 0.0000
0.7143 0.7292 0.0000
0.7143 0.7708 0.0000
0.7143 0.8125 0.0000
0.7143 0.8542 0.0000
0.7143 0.8958 0.0000
0.7143 0.9375 0.0000
0.7143 0.9792 0.0000
0.7551 0.0208 0.0000
0.7551 0.0625 0.0000
0.7551 0.1042 0.0000
0.7551 0.1458 0.0000
0.7551 0.1875 0.0000
0.7551 0.2292 0.0000
0.7551 0.2708 0.0000
0.7551 0.3125 0.0000
0.7551 0.3542 0.0000
0.7551 0.3958 0.0000
0.7551 0.4375 0.0000
0.7551 0.4792 0.0000
0.7551 0.5208 0.0000
0.7551 0.5625 0.0000
0.7551 0.6042 0.0000
0.7551 0.6458 0.0000
0.7551 0.6875 0.0000
0.7551 0.7292 0.0000
0.7551 0.7708 0.0000
0.7551 0.8125 0.0000
0.7551 0.8542 0.0000
0.7551 0.8958 0.0000
0.7551 0.9375 0.0000
0.7551 0.9792 0.0000
0.7959 0.0208 0.0000
0.7959 0.0625 0.0000
0.7959 0.1042 0.0000
0.7959 0.1458 0.0000
0.7959 0.1875 0.0000
0.7959 0.2292 0.0000
0.7959 0.2708 0.0000
0.7959 0.3125 0.0000
0.7959 0.3542 0.0000
0.7959 0.3958 0.0000
0.7959 0.4375 0.0000
0.7959 0.4792 0.0000
0.7959 0.5208 0.0000
0.7959 0.5625 0.0000
0.7959 0.6042 0.0000
0.7959 0.6458 0.0000
0.7959 0.6875 0.0000
0.7959 0.7292 0.0000
0.7959 0.7708 0.0000
0.7959 0.8125 0.0000
0.7959 0.8542 0.0000
0.7959 0.8958 0.0000
0.7959 0.9375 0.0000
0.7959 0.9792 0.0000
0.8367 0.0208 0.0000
0.8367 0.0625 0.0000
0.8367 0.1042 0.0000
0.8367 0.1458 0.0000
0.8367 0.1875 0.0000
0.8367 0.2292 0.0000
0.8367 0.2708 0.0000
0.8367 0.3125 0.0000
0.8367 0.3542 0.0000
0.8367 0.3958 0.0000
0.8367 0.4375 0.0000
0.8367 0.4792 0.0000
0.8367 0.5208 0.0000
0.8367 0.5625 0.0000
0.8367 0.6042 0.0000
0.8367 0.6458 0.0000
0.8367 0.6875 0.0000
0.8367 0.7292 0.0000
0.8367 0.7708 0.0000
0.8367 0.8125 0.0000
0.8367 0.8542 0.0000
0.8367 0.8958 0.0000
0.8367 0.9375 0.0000
0.8367 0.9792 0.0000
0.8776 0.0208 0.0000
0.8776 0.0625 0.0000
0.8776 0.1042 0.0000
0.8776 0.1458 0.0000
0.8776 0.1875 0.0000
0.8776 0.2292 0.0000
0.8776 0.2708 0.0000
0.8776 0.3125 0.0000
0.8776 0.3542 0.0000
0.8776 0.3958 0.0000
0.8776 0.4375 0.0000
0.8776 0.4792 0.0000
0.8776 0.5208 0.0000
0.8776 0.5625 0.0000
0.8776 0.6042 0.0000
0.8776 0.6458 0.0000
0.8776 0.6875 0.0000
0.8776 0.7292 0.0000
0.8776 0.7708 0.0000
0.8776 0.8125 0.0000
0.8776 0.8542 0.0000
0.8776 0.8958 0.0000
0.8776 0.9375 0.0000
0.8776 0.9792 0.0000
0.9184 0.0208 0.0000
0.9184 0.0625 0.0000
0.9184 0.1042 0.0000
0.9184 0.1458 0.0000
0.9184 0.1875 0.0000
0.9184 0.2292 0.0000
0.9184 0.2708 0.0000
0.9184 0.3125 0.0000
0.9184 0.3542 0.0000
0.9184 0.3958 0.0000
0.9184 0.4375 0.0000
0.9184 0.4792 0.0000
0.9184 0.5208 0.0000
0.9184 0.5625 0.0000
0.9184 0.6042 0.0000
0.9184 0.6458 0.0000
0.9184 0.6875 0.0000
0.9184 0.7292 0.0000
0.9184 0.7708 0.0000
0.9184 0.8125 0.0000
0.9184 0.8542 0.0000
0.9184 0.8958 0.0000
0.9184 0.9375 0.0000
0.9184 0.9792 0.0000
0.9592 0.0208 0.0000
0.9592 0.0625 0.0000
0.9592 0.1042 0.0000
0.9592 0.1458 0.0000
0.9592 0.1875 0.0000
0.9592 0.2292 0.0000
0.9592 0.2708 0.0000
0.9592 0.3125 0.0000
0.9592 0.3542 0.0000
0.9592 0.3958 0.0000
0.9592 0.4375 0.0000
0.9592 0.4792 0.0000
0.9592 0.5208 0.0000
0.9592 0.5625 0.0000
0.9592 0.6042 0.0000
0.9592 0.6458 0.0000
0.9592 0.6875 0.0000
0.9592 0.7292 0.0000
0.9592 0.7708 0.0000
0.9592 0.8125 0.0000
0.9592 0.8542 0.0000
0.9592 0.8958 0.0000
0.9592 0.9375 0.0000
0.9592 0.9792 0.0000
1.0000 0.0208 0.0000
1.0000 0.0625 0.0000
1.0000 0.1042 0.0000
1.0000 0.1458 0.0000
1.0000 0.1875 0.0000
1.0000 0.2292 0.0000
1.0000 0.2708 0.0000
1.0000 0.3125 0.0000
1.0000 0.3542 0.0000
1.0000 0.3958 0.0000
1.0000 0.4375 0.0000
1.0000 0.4792 0.0000
1.0000 0.5208 0.0000
1.0000 0.5625 0.0000
1.0000 0.6042 0.0000
1.0000 0.6458 0.0000
1.0000 0.6875 0.0000
1.0000 0.7292 0.0000
1.0000 0.7708 0.0000
1.0000 0.8125 0.0000
1.0000 0.8542 0.0000
1.0000 0.8958 0.0000
1.0000 0.9375 0.0000
1.0000 0.9792 0.0000
1.0408 0.0208 0.0000
1.0408 0.0625 0.0000
1.0408 0.1042 0.0000
1.0408 0.1458 0.0000
1.0408 0.1875 0.0000
1.0408 0.2292 0.0000
1.0408 0.2708 0.0000
1.0408 0.3125 0.0000
1.0408 0.3542 0.0000
1.0408 0.3958 0.0000
1.0408 0.4375 0.0000
1.0408 0.4792 0.0000
1.0408 0.5208 0.0000
1.0408 0.5625 0.0000
1.0408 0.6042 0.0000
1.0408 0.6458 0.0000
1.0408 0.6875 0.0000
1.0408 0.7292 0.0000
1.0408 0.7708 0.0000
1.0408 0.8125 0.0000
1.0408 0.8542 0.0000
1.0408 0.8958 0.0000
1.0408 0.9375 0.0000
1.0408 0.9792 0.0000
1.0816 0.0208 0.0000
1.0816 0.0625 0.0000
1.0816 0.1042 0.0000
1.0816 0.1458 0.0000
1.0816 0.1875 0.0000
1.0816 0.2292 0.0000
1.0816 0.2708 0.0000
1.0816 0.3125 0.0000
1.0816 0.3542 0.0000
1.0816 0.3958 0.0000
1.0816 0.4375 0.0000
1.0816 0.4792 0.0000
1.0816 0.5208 0.0000
1.0816 0.5625 0.0000
1.0816 0.6042 0.0000
1.0816 0.6458 0.0000
1.0816 0.6875 0.0000
1.0816 0.7292 0.0000
1.0816 0.7708 0.0000
1.0816 0.8125 0.0000
1.0816 0.8542 0.0000
1.0816 0.8958 0.0000
1.0816 0.9375 0.0000
1.0816 0.9792 0.0000
1.1224 0.0208 0.0000
1.1224 0.0625 0.0000
1.1224 0.1042 0.0000
1.1224 0.1458 0.0000
1.1224 0.1875 0.0000
1.1224 0.2292 0.0000
1.1224 0.2708 0.0000
1.1224 0.3125 0.0000
1.1224 0.3542 0.0000
1.1224 0.3958 0.0000
1.1224 0.4375 0.0000
1.1224 0.4792 0.0000
1.1224 0.5208 0.0000
1.1224 0.5625 0.0000
1.1224 0.6042 0.0000
1.1224 0.6458 0.0000
1.1224 0.6875 0.0000
1.1224 0.7292 0.0000
1.1224 0.7708 0.0000
1.1224 0.8125 0.0000
1.1224 0.8542 0.0000
1.1224 0.8958 0.0000
1.1224 0.9375 0.0000
1.1224 0.9792 0.0000
1.1633 0.0208 0.0000
1.1633 0.0625 0.0000
1.1633 0.1042 0.0000
1.1633 0.1458 0.0000
1.1633 0.1875 0.0000
1.1633 0.2292 0.0000
1.1633 0.2708 0.0000
1.1633 0.3125 0.0000
1.1633 0.3542 0.0000
1.1633 0.3958 0.0000
1.1633 0.4375 0.0000
1.1633 0.4792 0.0000
1.1633 0.5208 0.0000
1.1633 0.5625 0.0000
1.1633 0.6042 0.0000
1.1633 0.6458 0.0000
1.1633 0.6875 0.0000
1.1633 0.7292 0.0000
1.1633 0.7708 0.0000
1.1633 0.8125 0.0000
1.1633 0.8542 0.0000
1.1633 0.8958 0.0000
1.1633 0.9375 0.0000
1.1633 0.9792 0.0000
1.2041 0.0208 0.0000
1.2041 0.0625 0.0000
1.2041 0.1042 0.0000
1.2041 0.1458 0.0000
1.2041 0.1875 0.0000
1.2041 0.2292 0.0000
1.2041 0.2708 0.0000
1.2041 0.3125 0.0000
1.2041 0.3542 0.0000
1.2041 0.3958 0.0000
1.2041 0.4375 0.0000
1.2041 0.4792 0.0000
1.2041 0.5208 0.0000
1.2041 0.5625 0.0000
1.2041 0.6042 0.0000
1.2041 0.6458 0.0000
1.2041 0.6875 0.0000
1.2041 0.7292 0.0000
1.2041 0.7708 0.0000
1.2041 0.8125 0.0000
1.2041 0.8542 0.0000
1.2041 0.8958 0.0000
1.2041 0.9375 0.0000
1.2041 0.9792 0.0000
1.2449 0.0208 0.0000
1.2449 0.0625 0.0000
1.2449 0.1042 0.0000
1.2449 0.1458 0.0000
1.2449 0.1875 0.0000
1.2449 0.2292 0.0000
1.2449 0.2708 0.0000
1.2449 0.3125 0.0000
1.2449 0.3542 0.0000
1.2449 0.3958 0.0000
1.2449 0.4375 0.0000
1.2449 0.4792 0.0000
1.2449 0.5208 0.0000
1.2449 0.5625 0.0000
1.2449 0.6042 0.0000
1.2449 0.6458 0.0000
1.2449 0.6875 0.0000
1.2449 0.7292 0.0000
1.2449 0.7708 0.0000
1.2449 0.8125 0.0000
1.2449 0.8542 0.0000
1.2449 0.8958 0.0000
1.2449 0.9375 0.0000
1.2449 0.9792 0.0000
1.2857 0.0208 0.0000
1.2857 0.0625 0.0000
1.2857 0.1042 0.0000
1.2857 0.1458 0.0000
1.2857 0.1875 0.0000
1.2857 0.2292 0.0000
1.2857 0.2708 0.0000
1.2857 0.3125 0.0000
1.2857 0.3542 0.0000
1.2857 0.3958 0.0000
1.2857 0.4375 0.0000
1.2857 0.4792 0.0000
1.2857 0.5208 0.0000
1.2857 0.5625 0.0000
1.2857 0.6042 0.0000
1.2857 0.6458 0.0000
1.2857 0.6875 0.0000
1.2857 0.7292 0.0000
1.2857 0.7708 0.0000
1.2857 0.8125 0.0000
1.2857 0.8542 0.0000
1.2857 0.8958 0.0000
1.2857 0.9375 0.0000
1.2857 0.9792 0.0000
1.3265 0.0208 0.0000
1.3265 0.0625 0.0000
1.3265 0.1042 0.0000
1.3265 0.1458 0.0000
1.3265 0.1875 0.0000
1.3265 0.2292 0.0000
1.3265 0.2708 0.0000
1.3265 0.3125 0.0000
1.3265 0.3542 0.0000
1.3265 0.3958 0.0000
1.3265 0.4375 0.0000
1.3265 0.4792 0.0000
1.3265 0.5208 0.0000
1.3265 0.5625 0.0000
1.3265 0.6042 0.0000
1.3265 0.6458 0.0000
1.3265 0.6875 0.0000
1.3265 0.7292 0.0000
1.3265 0.7708 0.0000
1.3265 0.8125 0.0000
1.3265 0.8542 0.0000
1.3265 0.8958 0.0000
1.3265 0.9375 0.0000
1.3265 0.9792 0.0000
1.3673 0.0208 0.0000
1.3673 0.0625 0.0000
1.3673 0.1042 0.0000
1.3673 0.1458 0.0000
1.3673 0.1875 0.0000
1.3673 0.2292 0.0000
1.3673 0.2708 0.0000
1.3673 0.3125 0.0000
1.3673 0.3542 0.0000
1.3673 0.3958 0.0000
1.3673 0.4375 0.0000
1.3673 0.4792 0.0000
1.3673 0.5208 0.0000
1.3673 0.5625 0.0000
1.3673 0.6042 0.0000
1.3673 0.6458 0.0000
1.3673 0.6875 0.0000
1.3673 0.7292 0.0000
1.3673 0.7708 0.0000
1.3673 0.8125 0.0000
1.3673 0.8542 0.0000
1.3673 0.8958 0.0000
1.3673 0.9375 0.0000
1.3673 0.9792 0.0000
1.4082 0.0208 0.0000
1.4082 0.0625 0.0000
1.4082 0.1042 0.0000
1.4082 0.1458 0.0000
1.4082 0.1875 0.0000
1.4082 0.2292 0.0000
1.4082 0.2708 0.0000
1.4082 0.3125 0.0000
1.4082 0.3542 0.0000
1.4082 0.3958 0.0000
1.4082 0.4375 0.0000
1.4082 0.4792 0.0000
1.4082 0.5208 0.0000
1.4082 0.5625 0.0000
1.4082 0.6042 0.0000
1.4082 0.6458 0.0000
1.4082 0.6875 0.0000
1.4082 0.7292 0.0000
1.4082 0.7708 0.0000
1.4082 0.8125 0.0000
1.4082 0.8542 0.0000
1.4082 0.8958 0.0000
1.4082 0.9375 0.0000
1.4082 0.9792 0.0000
1.4490 0.0208 0.0000
1.4490 0.0625 0.0000
1.4490 0.1042 0.0000
1.4490 0.1458 0.0000
1.4490 0.1875 0.0000
1.4490 0.2292 0.0000
1.4490 0.2708 0.0000
1.4490 0.3125 0.0000
1.4490 0.3542 0.0000
1.4490 0.3958 0.0000
1.4490 0.4375 0.0000
1.4490 0.4792 0.0000
1.4490 0.5208 0.0000
1.4490 0.5625 0.0000
1.4490 0.6042 0.0000
1.4490 0.6458 0.0000
1.4490 0.6875 0.0000
1.4490 0.7292 0.0000
1.4490 0.7708 0.0000
1.4490 0.8125 0.0000
1.4490 0.8542 0.0000
1.4490 0.8958 0.0000
1.4490 0.9375 0.0000
1.4490 0.9792 0.0000
1.4898 0.0208 0.0000
1.4898 0.0625 0.0000
1.4898 0.1042 0.0000
1.4898 0.1458 0.0000
1.4898 0.1875 0.0000
1.4898 0.2292 0.0000
1.4898 0.2708 0.0000
1.4898 0.3125 0.0000
1.4898 0.3542 0.0000
1.4898 0.3958 0.0000
1.4898 0.4375 0.0000
1.4898 0.4792 0.0000
1.4898 0.5208 0.0000
1.4898 0.5625 0.0000
1.4898 0.6042 0.0000
1.4898 0.6458 0.0000
1.4898 0.6875 0.0000
1.4898 0.7292 0.0000
1.4898 0.7708 0.0000
1.4898 0.8125 0.0000
1.4898 0.8542 0.0000
1.4898 0.8958 0.0000
1.4898 0.9375 0.0000
1.4898 0.9792 0.0000
1.5306 0.0208 0.0000
1.5306 0.0625 0.0000
1.5306 0.1042 0.0000
1.5306 0.1458 0.0000
1.5306 0.1875 0.0000
1.5306 0.2292 0.0000
1.5306 0.2708 0.0000
1.5306 0.3125 0.0000
1.5306 0.3542 0.0000
1.5306 0.3958 0.0000
1.5306 0.4375 0.0000
1.5306 0.4792 0.0000
1.5306 0.5208 0.0000
1.5306 0.5625 0.0000
1.5306 0.6042 0.0000
1.5306 0.6458 0.0000
1.5306 0.6875 0.0000
1.5306 0.7292 0.0000
1.5306 0.7708 0.0000
1.5306 0.8125 0.0000
1.5306 0.8542 0.0000
1.5306 0.8958 0.0000
1.5306 0.9375 0.0000
1.5306 0.9792 0.0000
1.5714 0.0208 0.0000
1.5714 0.0625 0.0000
1.5714 0.1042 0.0000
1.5714 0.1458 0.0000
1.5714 0.1875 0.0000
1.5714 0.2292 0.0000
1.5714 0.2708 0.0000
1.5714 0.3125 0.0000
1.5714 0.3542 0.0000
1.5714 0.3958 0.0000
1.5714 0.4375 0.0000
1.5714 0.4792 0.0000
1.5714 0.5208 0.0000
1.5714 0.5625 0.0000
1.5714 0.6042 0.0000
1.5714 0.6458 0.0000
1.5714 0.6875 0.0000
1.5714 0.7292 0.0000
1.5714 0.7708 0.0000
1.5714 0.8125 0.0000
1.5714 0.8542 0.0000
1.5714 0.8958 0.0000
1.5714 0.9375 0.0000
1.5714 0.9792 0.0000
1.6122 0.0208 0.0000
1.6122 0.0625 0.0000
1.6122 0.1042 0.0000
1.6122 0.1458 0.0000
1.6122 0.1875 0.0000
1.6122 0.2292 0.0000
1.6122 0.2708 0.0000
1.6122 0.3125 0.0000
1.6122 0.3542 0.0000
1.6122 0.3958 0.0000
1.6122 0.4375 0.0000
1.6122 0.4792 0.0000
1.6122 0.5208 0.0000
1.6122 0.5625 0.0000
1.6122 0.6042 0.0000
1.6122 0.6458 0.0000
1.6122 0.6875 0.0000
1.6122 0.7292 0.0000
1.6122 0.7708 0.0000
1.6122 0.8125 0.0000
1.6122 0.8542 0.0000
1.6122 0.8958 0.0000
1.6122 0.9375 0.0000
1.6122 0.9792 0.0000
1.6531 0.0208 0.0000
1.6531 0.0625 0.0000
1.6531 0.1042 0.0000
1.6531 0.1458 0.0000
1.6531 0.1875 0.0000
1.6531 0.2292 0.0000
1.6531 0.2708 0.0000
1.6531 0.3125 0.0000
1.6531 0.3542 0.0000
1.6531 0.3958 0.0000
1.6531 0.4375 0.0000
1.6531 0.4792 0.0000
1.6531 0.5208 0.0000
1.6531 0.5625 0.0000
1.6531 0.6042 0.0000
1.6531 0.6458 0.0000
1.6531 0.6875 0.0000
1.6531 0.7292 0.0000
1.6531 0.7708 0.0000
1.6531 0.8125 0.0000
1.6531 0.8542 0.0000
1.6531 0.8958 0.0000
1.6531 0.9375 0.0000
1.6531 0.9792 0.0000
1.6939 0.0208 0.0000
1.6939 0.0625 0.0000
1.6939 0.1042 0.0000
1.6939 0.1458 0.0000
1.6939 0.1875 0.0000
1.6939 0.2292 0.0000
1.6939 0.2708 0.0000
1.6939 0.3125 0.0000
1.6939 0.3542 0.0000
1.6939 0.3958 0.0000
1.6939 0.4375 0.0000
1.6939 0.4792 0.0000
1.6939 0.5208 0.0000
1.6939 0.5625 0.0000
1.6939 0.6042 0.0000
1.6939 0.6458 0.0000
1.6939 0.6875 0.0000
1.6939 0.7292 0.0000
1.6939 0.7708 0.0000
1.6939 0.8125 0.0000
1.6939 0.8542 0.0000
1.6939 0.8958 0.0000
1.6939 0.9375 0.0000
1.6939 0.9792 0.0000
1.7347 0.0208 0.0000
1.7347 0.0625 0.0000
1.7347 0.1042 0.0000
1.7347 0.1458 0.0000
1.7347 0.1875 0.0000
1.7347 0.2292 0.0000
1.7347 0.2708 0.0000
1.7347 0.3125 0.0000
1.7347 0.3542 0.0000
1.7347 0.3958 0.0000
1.7347 0.4375 0.0000
1.7347 0.4792 0.0000
1.7347 0.5208 0.0000
1.7347 0.5625 0.0000
1.7347 0.6042 0.0000
1.7347 0.6458 0.0000
1.7347 0.6875 0.0000
1.7347 0.7292 0.0000
1.7347 0.7708 0.0000
1.7347 0.8125 0.0000
1.7347 0.8542 0.0000
1.7347 0.8958 0.0000
1.7347 0.9375 0.0000
1.7347 0.9792 0.0000
1.7755 0.0208 0.0000
1.7755 0.0625 0.0000
1.7755 0.1042 0.0000
1.7755 0.1458 0.0000
1.7755 0.1875 0.0000
1.7755 0.2292 0.0000
1.7755 0.2708 0.0000
1.7755 0.3125 0.0000
1.7755 0.3542 0.0000
1.7755 0.3958 0.0000
1.7755 0.4375 0.0000
1.7755 0.4792 0.0000
1.7755 0.5208 0.0000
1.7755 0.5625 0.0000
1.7755 0.6042 0.0000
1.7755 0.6458 0.0000
1.7755 0.6875 0.0000
1.7755 0.7292 0.0000
1.7755 0.7708 0.0000
1.7755 0.8125 0.0000
1.7755 0.8542 0.0000
1.7755 0.8958 0.0000
1.7755 0.9375 0.0000
1.7755 0.9792 0.0000
1.8163 0.0208 0.0000
1.8163 0.0625 0.0000
1.8163 0.1042 0.0000
1.8163 0.1458 0.0000
1.8163 0.1875 0.0000
1.8163 0.2292 0.0000
1.8163 0.2708 0.0000
1.8163 0.3125 0.0000
1.8163 0.3542 0.0000
1.8163 0.3958 0.0000
1.8163 0.4375 0.0000
1.8163 0.4792 0.0000
1.8163 0.5208 0.0000
1.8163 0.5625 0.0000
1.8163 0.6042 0.0000
1.8163 0.6458 0.0000
1.8163 0.6875 0.0000
1.8163 0.7292 0.0000
1.8163 0.7708 0.0000
1.8163 0.8125 0.0000
1.8163 0.8542 0.0000
1.8163 0.8958 0.0000
1.8163 0.9375 0.0000
1.8163 0.9792 0.0000
1.8571 0.0208 0.0000
1.8571 0.0625 0.0000
1.8571 0.1042 0.0000
1.8571 0.1458 0.0000
1.8571 0.1875 0.0000
1.8571 0.2292 0.0000
1.8571 0.2708 0.0000
1.8571 0.3125 0.0000
1.8571 0.3542 0.0000
1.8571 0.3958 0.0000
1.8571 0.4375 0.0000
1.8571 0.4792 0.0000
1.8571 0.5208 0.0000
1.8571 0.5625 0.0000
1.8571 0.6042 0.0000
1.8571 0.6458 0.0000
1.8571 0.6875 0.0000
1.8571 0.7292 0.0000
1.8571 0.7708 0.0000
1.8571 0.8125 0.0000
1.8571 0.8542 0.0000
1.8571 0.8958 0.0000
1.8571 0.9375 0.0000
1.8571 0.9792 0.0000
1.8980 0.0208 0.0000
1.8980 0.0625 0.0000
1.8980 0.1042 0.0000
1.8980 0.1458 0.0000
1.8980 0.1875 0.0000
1.8980 0.2292 0.0000
1.8980 0.2708 0.0000
1.8980 0.3125 0.0000
1.8980 0.3542 0.0000
1.8980 0.3958 0.0000
1.8980 0.4375 0.0000
1.8980 0.4792 0.0000
1.8980 0.5208 0.0000
1.8980 0.5625 0.0000
1.8980 0.6042 0.0000
1.8980 0.6458 0.0000
1.8980 0.6875 0.0000
1.8980 0.7292 0.0000
1.8980 0.7708 0.0000
1.8980 0.8125 0.0000
1.8980 0.8542 0.0000
1.8980 0.8958 0.0000
1.8980 0.9375 0.0000
1.8980 0.9792 0.0000
1.9388 0.0208 0.0000
1.9388 0.0625 0.0000
1.9388 0.1042 0.0000
1.9388 0.1458 0.0000
1.9388 0.1875 0.0000
1.9388 0.2292 0.0000
1.9388 0.2708 0.0000
1.9388 0.3125 0.0000
1.9388 0.3542 0.0000
1.9388 0.3958 0.0000
1.9388 0.4375 0.0000
1.9388 0.4792 0.0000
1.9388 0.5208 0.0000
1.9388 0.5625 0.0000
1.9388 0.6042 0.0000
1.9388 0.6458 0.0000
1.9388 0.6875 0.0000
1.9388 0.7292 0.0000
1.9388 0.7708 0.0000
1.9388 0.8125 0.0000
1.9388 0.8542 0.0000
1.9388 0.8958 0.0000
1.9388 0.9375 0.0000
1.9388 0.9792 0.0000
1.9796 0.0208 0.0000
1.9796 0.0625 0.0000
1.9796 0.1042 0.0000
1.9796 0.1458 0.0000
1.9796 0.1875 0.0000
1.9796 0.2292 0.0000
1.9796 0.2708 0.0000
1.9796 0.3125 0.0000
1.9796 0.3542 0.0000
1.9796 0.3958 0.0000
1.9796 0.4375 0.0000
1.9796 0.4792 0.0000
1.9796 0.5208 0.0000
1.9796 0.5625 0.0000
1.9796 0.6042 0.0000
1.9796 0.6458 0.0000
1.9796 0.6875 0.0000
1.9796 0.7292 0.0000
1.9796 0.7708 0.0000
1.9796 0.8125 0.0000
1.9796 0.8542 0.0000
1.9796 0.8958 0.0000
1.9796 0.9375 0.0000
1.9796 0.9792 0.0000</DataArray>
         </Points>
         <Cells>
            <DataArray Name="connectivity" format="ascii" type="Int32">
 1 0 1250
 2 1 1251
 3 2 1252
 4 3 1253
 5 4 1254
 6 5 1255
 7 6 1256
 8 7 1257
 9 8 1258
 10 9 1259
 11 10 1260
 12 11 1261
 13 12 1262
 14 13 1263
 15 14 1264
 16 15 1265
 17 16 1266
 18 17 1267
 19 18 1268
 20 19 1269
 21 20 1270
 22 21 1271
 23 22 1272
 24 23 1273
 26 25 1274
 27 26 1275
 28 27 1276
 29 28 1277
 30 29 1278
 31 30 1279
 32 31 1280
 33 32 1281
 34 33 1282
 35 34 1283
 36 35 1284
 37 36 1285
 38 37 1286
 39 38 1287
 40 39 1288
 41 40 1289
 42 41 1290
 43 42 1291
 44 43 1292
 45 44 1293
 46 45 1294
 47 46 1295
 48 47 1296
 49 48 1297
 51 50 1298
 52 51 1299
 53 52 1300
 54 53 1301
 55 54 1302
 56 55 1303
 57 56 1304
 58 57 1305
 59 58 1306
 60 59 1307
 61 60 1308
 62 61 1309
 63 62 1310
 64 63 1311
 65 64 1312
 66 65 1313
 67 66 1314
 68 67 1315
 69 68 1316
 70 69 1317
 71 70 1318
 72 71 1319
 73 72 1320
 74 73 1321
 76 75 1322
 77 76 1323
 78 77 1324
 79 78 1325
 80 79 1326
 81 80 1327
 82 81 1328
 83 82 1329
 84 83 1330
 85 84 1331
 86 85 1332
 87 86 1333
 88 87 1334
 89 88 1335
 90 89 1336
 91 90 1337
 92 91 1338
 93 92 1339
 94 93 1340
 95 94 1341
 96 95 1342
 97 96 1343
 98 97 1344
 99 98 1345
 101 100 1346
 102 101 1347
 103 102 1348
 104 103 1349
 105 104 1350
 106 105 1351
 107 106 1352
 108 107 1353
 109 108 1354
 110 109 1355
 111 110 1356
 112 111 1357
 113 112 1358
 114 113 1359
 115 114 1360
 116 115 1361
 117 116 1362
 118 117 1363
 119 118 1364
 120 119 1365
 121 120 1366
 122 121 1367
 123 122 1368
 124 123 1369
 126 125 1370
 127 126 1371
 128 127 1372
 129 128 1373
 130 129 1374
 131 130 1375
 132 131 1376
 133 132 1377
 134 133 1378
 135 134 1379
 136 135 1380
 137 136 1381
 138 137 1382
 139 138 1383
 140 139 1384
 141 140 1385
 142 141 1386
 143 142 1387
 144 143 1388
 145 144 1389
 146 145 1390
 147 146 1391
 148 147 1392
 149 148 1393
 151 150 1394
 152 151 1395
 153 152 1396
 154 153 1397
 155 154 1398
 156 155 1399
 157 156 1400
 158 157 1401
 159 158 1402
 160 159 1403
 161 160 1404
 162 161 1405
 163 162 1406
 164 163 1407
 165 164 1408
 166 165 1409
 167 166 1410
 168 167 1411
 169 168 1412
 170 169 1413
 171 170 1414
 172 171 1415
 173 172 1416
 174 173 1417
 176 175 1418
 177 176 1419
 178 177 1420
 179 178 1421
 180 179 1422
 181 180 1423
 182 181 1424
 183 182 1425
 184 183 1426
 185 184 1427
 186 185 1428
 187 186 1429
 188 187 1430
 189 188 1431
 190 189 1432
 191 190 1433
 192 191 1434
 193 192 1435
 194 193 1436
 195 194 1437
 196 195 1438
 197 196 1439
 198 197 1440
 199 198 1441
 201 200 1442
 202 201 1443
 203 202 1444
 204 203 1445
 205 204 1446
 206 205 1447
 207 206 1448
 208 207 1449
 209 208 1450
 210 209 1451
 211 210 1452
 212 211 1453
 213 212 1454
 214 213 1455
 215 214 1456
 216 215 1457
 217 216 1458
 218 217 1459
 219 218 1460
 220 219 1461
 221 220 1462
 222 221 1463
 223 222 1464
 224 223 1465
 226 225 1466
 227 226 1467
 228 227 1468
 229 228 1469
 230 229 1470
 231 230 1471
 232 231 1472
 233 232 1473
 234 233 1474
 235 234 1475
 236 235 1476
 237 236 1477
 238 237 1478
 239 238 1479
 240 239 1480
 241 240 1481
 242 241 1482
 243 242 1483
 244 243 1484
 245 244 1485
 246 245 1486
 247 246 1487
 248 247 1488
 249 248 1489
 251 250 1490
 252 251 1491
 253 252 1492
 254 253 1493
 255 254 1494
 256 255 1495
 257 256 1496
 258 257 1497
 259 258 1498
 260 259 1499
 261 260 1500
 262 261 1501
 263 262 1502
 264 263 1503
 265 264 1504
 266 265 1505
 267 266 1506
 268 267 1507
 269 268 1508
 270 269 1509
 271 270 1510
 272 271 1511
 273 272 1512
 274 273 1513
 276 275 1514
 277 276 1515
 278 277 1516
 279 278 1517
 280 279 1518
 281 280 1519
 282 281 1520
 283 282 1521
 284 283 1522
 285 284 1523
 286 285 1524
 287 286 1525
 288 287 1526
 289 288 1527
 290 289 1528
 291 290 1529
 292 291 1530
 293 292 1531
 294 293 1532
 295 294 1533
 296 295 1534
 297 296 1535
 298 297 1536
 299 298 1537
 301 300 1538
 302 301 1539
 303 302 1540
 304 303 1541
 305 304 1542
 306 305 1543
 307 306 1544
 308 307 1545
 309 308 1546
 310 309 1547
 311 310 1548
 312 311 1549
 313 312 1550
 314 313 1551
 315 314 1552
 316 315 1553
 317 316 1554
 318 317 1555
 319 318 1556
 320 319 1557
 321 320 1558
 322 321 1559
 323 322 1560
 324 323 1561
 326 325 1562
 327 326 1563
 328 327 1564
 329 328 1565
 330 329 1566
 331 330 1567
 332 331 1568
 333 332 1569
 334 333 1570
 335 334 1571
 336 335 1572
 337 336 1573
 338 337 1574
 339 338 1575
 340 339 1576
 341 340 1577
 342 341 1578
 343 342 1579
 344 343 1580
 345 344 1581
 346 345 1582
 347 346 1583
 348 347 1584
 349 348 1585
 351 350 1586
 352 351 1587
 353 352 1588
 354 353 1589
 355 354 1590
 356 355 1591
 357 356 1592
 358 357 1593
 359 358 1594
 360 359 1595
 361 360 1596
 362 361 1597
 363 362 1598
 364 363 1599
 365 364 1600
 366 365 1601
 367 366 1602
 368 367 1603
 369 368 1604
 370 369 1605
 371 370 1606
 372 371 1607
 373 372 1608
 374 373 1609
 376 375 1610
 377 376 1611
 378 377 1612
 379 378 1613
 380 379 1614
 381 380 1615
 382 381 1616
 383 382 1617
 384 383 1618
 385 384 1619
 386 385 1620
 387 386 1621
 388 387 1622
 389 388 1623
 390 389 1624
 391 390 1625
 392 391 1626
 393 392 1627
 394 393 1628
 395 394 1629
 396 395 1630
 397 396 1631
 398 397 1632
 399 398 1633
 401 400 1634
 402 401 1635
 403 402 1636
 404 403 1637
 405 404 1638
 406 405 1639
 407 406 1640
 408 407 1641
 409 408 1642
 410 409 1643
 411 410 1644
 412 411 1645
 413 412 1646
 414 413 1647
 415 414 1648
 416 415 1649
 417 416 1650
 418 417 1651
 419 418 1652
 420 419 1653
 421 420 1654
 422 421 1655
 423 422 1656
 424 423 1657
 426 425 1658
 427 426 1659
 428 427 1660
 429 428 1661
 430 429 1662
 431 430 1663
 432 431 1664
 433 432 1665
 434 433 1666
 435 434 1667
 436 435 1668
 437 436 1669
 438 437 1670
 439 438 1671
 440 439 1672
 441 440 1673
 442 441 1674
 443 442 1675
 444 443 1676
 445 444 1677
 446 445 1678
 447 446 1679
 448 447 1680
 449 448 1681
 451 450 1682
 452 451 1683
 453 452 1684
 454 453 1685
 455 454 1686
 456 455 1687
 457 456 1688
 458 457 1689
 459 458 1690
 460 459 1691
 461 460 1692
 462 461 1693
 463 462 1694
 464 463 1695
 465 464 1696
 466 465 1697
 467 466 1698
 468 467 1699
 469 468 1700
 470 469 1701
 471 470 1702
 472 471 1703
 473 472 1704
 474 473 1705
 476 475 1706
 477 476 1707
 478 477 1708
 479 478 1709
 480 479 1710
 481 480 1711
 482 481 1712
 483 482 1713
 484 483 1714
 485 484 1715
 486 485 1716
 487 486 1717
 488 487 1718
 489 488 1719
 490 489 1720
 491 490 1721
 492 491 1722
 493 492 1723
 494 493 1724
 495 494 1725
 496 495 1726
 497 496 1727
 498 497 1728
 499 498 1729
 501 500 1730
 502 501 1731
 503 502 1732
 504 503 1733
 505 504 1734
 506 505 1735
 507 506 1736
 508 507 1737
 509 508 1738
 510 509 1739
 511 510 1740
 512 511 1741
 513 512 1742
 514 513 1743
 515 514 1744
 516 515 1745
 517 516 1746
 518 517 1747
 519 518 1748
 520 519 1749
 521 520 1750
 522 521 1751
 523 522 1752
 524 523 1753
 526 525 1754
 527 526 1755
 528 527 1756
 529 528 1757
 530 529 1758
 531 530 1759
 532 531 1760
 533 532 1761
 534 533 1762
 535 534 1763
 536 535 1764
 537 536 1765
 538 537 1766
 539 538 1767
 540 539 1768
 541 540 1769
 542 541 1770
 543 542 1771
 544 543 1772
 545 544 1773
 546 545 1774
 547 546 1775
 548 547 1776
 549 548 1777
 551 550 1778
 552 551 1779
 553 552 1780
 554 553 1781
 555 554 1782
 556 555 1783
 557 556 1784
 558 557 1785
 559 558 1786
 560 559 1787
 561 560 1788
 562 561 1789
 563 562 1790
 564 563 1791
 565 564 1792
 566 565 1793
 567 566 1794
 568 567 1795
 569 568 1796
 570 569 1797
 571 570 1798
 572 571 1799
 573 572 1800
 574 573 1801
 576 575 1802
 577 576 1803
 578 577 1804
 579 578 1805
 580 579 1806
 581 580 1807
 582 581 1808
 583 582 1809
 584 583 1810
 585 584 1811
 586 585 1812
 587 586 1813
 588 587 1814
 589 588 1815
 590 589 1816
 591 590 1817
 592 591 1818
 593 592 1819
 594 593 1820
 595 594 1821
 596 595 1822
 597 596 1823
 598 597 1824
 599 598 1825
 601 600 1826
 602 601 1827
 603 602 1828
 604 603 1829
 605 604 1830
 606 605 1831
 607 606 1832
 608 607 1833
 609 608 1834
 610 609 1835
 611 610 1836
 612 611 1837
 613 612 1838
 614 613 1839
 615 614 1840
 616 615 1841
 617 616 1842
 618 617 1843
 619 618 1844
 620 619 1845
 621 620 1846
 622 621 1847
 623 622 1848
 624 623 1849
 626 625 1850
 627 626 1851
 628 627 1852
 629 628 1853
 630 629 1854
 631 630 1855
 632 631 1856
 633 632 1857
 634 633 1858
 635 634 1859
 636 635 1860
 637 636 1861
 638 637 1862
 639 638 1863
 640 639 1864
 641 640 1865
 642 641 1866
 643 642 1867
 644 643 1868
 645 644 1869
 646 645 1870
 647 646 1871
 648 647 1872
 649 648 1873
 651 650 1874
 652 651 1875
 653 652 1876
 654 653 1877
 655 654 1878
 656 655 1879
 657 656 1880
 658 657 1881
 659 658 1882
 660 659 1883
 661 660 1884
 662 661 1885
 663 662 1886
 664 663 1887
 665 664 1888
 666 665 1889
 667 666 1890
 668 667 1891
 669 668 1892
 670 669 1893
 671 670 1894
 672 671 1895
 673 672 1896
 674 673 1897
 676 675 1898
 677 676 1899
 678 677 1900
 679 678 1901
 680 679 1902
 681 680 1903
 682 681 1904
 683 682 1905
 684 683 1906
 685 684 1907
 686 685 1908
 687 686 1909
 688 687 1910
 689 688 1911
 690 689 1912
 691 690 1913
 692 691 1914
 693 692 1915
 694 693 1916
 695 694 1917
 696 695 1918
 697 696 1919
 698 697 1920
 699 698 1921
 701 700 1922
 702 701 1923
 703 702 1924
 704 703 1925
 705 704 1926
 706 705 1927
 707 706 1928
 708 707 1929
 709 708 1930
 710 709 1931
 711 710 1932
 712 711 1933
 713 712 1934
 714 713 1935
 715 714 1936
 716 715 1937
 717 716 1938
 718 717 1939
 719 718 1940
 720 719 1941
 721 720 1942
 722 721 1943
 723 722 1944
 724 723 1945
 726 725 1946
 727 726 1947
 728 727 1948
 729 728 1949
 730 729 1950
 731 730 1951
 732 731 1952
 733 732 1953
 734 733 1954
 735 734 1955
 736 735 1956
 737 736 1957
 738 737 1958
 739 738 1959
 740 739 1960
 741 740 1961
 742 741 1962
 743 742 1963
 744 743 1964
 745 744 1965
 746 745 1966
 747 746 1967
 748 747 1968
 749 748 1969
 751 750 1970
 752 751 1971
 753 752 1972
 754 753 1973
 755 754 1974
 756 755 1975
 757 756 1976
 758 757 1977
 759 758 1978
 760 759 1979
 761 760 1980
 762 761 1981
 763 762 1982
 764 763 1983
 765 764 1984
 766 765 1985
 767 766 1986
 768 767 1987
 769 768 1988
 770 769 1989
 771 770 1990
 772 771 1991
 773 772 1992
 774 773 1993
 776 775 1994
 777 776 1995
 778 777 1996
 779 778 1997
 780 779 1998
 781 780 1999
 782 781 2000
 783 782 2001
 784 783 2002
 785 784 2003
 786 785 2004
 787 786 2005
 788 787 2006
 789 788 2007
 790 789 2008
 791 790 2009
 792 791 2010
 793 792 2011
 794 793 2012
 795 794 2013
 796 795 2014
 797 796 2015
 798 797 2016
 799 798 2017
 801 800 2018
 802 801 2019
 803 802 2020
 804 803 2021
 805 804 2022
 806 805 2023
 807 806 2024
 808 807 2025
 809 808 2026
 810 809 2027
 811 810 2028
 812 811 2029
 813 812 2030
 814 813 2031
 815 814 2032
 816 815 2033
 817 816 2034
 818 817 2035
 819 818 2036
 820 819 2037
 821 820 2038
 822 821 2039
 823 822 2040
 824 823 2041
 826 825 2042
 827 826 2043
 828 827 2044
 829 828 2045
 830 829 2046
 831 830 2047
 832 831 2048
 833 832 2049
 834 833 2050
 835 834 2051
 836 835 2052
 837 836 2053
 838 837 2054
 839 838 2055
 840 839 2056
 841 840 2057
 842 841 2058
 843 842 2059
 844 843 2060
 845 844 2061
 846 845 2062
 847 846 2063
 848 847 2064
 849 848 2065
 851 850 2066
 852 851 2067
 853 852 2068
 854 853 2069
 855 854 2070
 856 855 2071
 857 856 2072
 858 857 2073
 859 858 2074
 860 859 2075
 861 860 2076
 862 861 2077
 863 862 2078
 864 863 2079
 865 864 2080
 866 865 2081
 867 866 2082
 868 867 2083
 869 868 2084
 870 869 2085
 871 870 2086
 872 871 2087
 873 872 2088
 874 873 2089
 876 875 2090
 877 876 2091
 878 877 2092
 879 878 2093
 880 879 2094
 881 880 2095
 882 881 2096
 883 882 2097
 884 883 2098
 885 884 2099
 886 885 2100
 887 886 2101
 888 887 2102
 889 888 2103
 890 889 2104
 891 890 2105
 892 891 2106
 893 892 2107
 894 893 2108
 895 894 2109
 896 895 2110
 897 896 2111
 898 897 2112
 899 898 2113
 901 900 2114
 902 901 2115
 903 902 2116
 904 903 2117
 905 904 2118
 906 905 2119
 907 906 2120
 908 907 2121
 909 908 2122
 910 909 2123
 911 910 2124
 912 911 2125
 913 912 2126
 914 913 2127
 915 914 2128
 916 915 2129
 917 916 2130
 918 917 2131
 919 918 2132
 920 919 2133
 921 920 2134
 922 921 2135
 923 922 2136
 924 923 2137
 926 925 2138
 927 926 2139
 928 927 2140
 929 928 2141
 930 929 2142
 931 930 2143
 932 931 2144
 933 932 2145
 934 933 2146
 935 934 2147
 936 935 2148
 937 936 2149
 938 937 2150
 939 938 2151
 940 939 2152
 941 940 2153
 942 941 2154
 943 942 2155
 944 943 2156
 945 944 2157
 946 945 2158
 947 946 2159
 948 947 2160
 949 948 2161
 951 950 2162
 952 951 2163
 953 952 2164
 954 953 2165
 955 954 2166
 956 955 2167
 957 956 2168
 958 957 2169
 959 958 2170
 960 959 2171
 961 960 2172
 962 961 2173
 963 962 2174
 964 963 2175
 965 964 2176
 966 965 2177
 967 966 2178
 968 967 2179
 969 968 2180
 970 969 2181
 971 970 2182
 972 971 2183
 973 972 2184
 974 973 2185
 976 975 2186
 977 976 2187
 978 977 2188
 979 978 2189
 980 979 2190
 981 980 2191
 982 981 2192
 983 982 2193
 984 983 2194
 985 984 2195
 986 985 2196
 987 986 2197
 988 987 2198
 989 988 2199
 990 989 2200
 991 990 2201
 992 991 2202
 993 992 2203
 994 993 2204
 995 994 2205
 996 995 2206
 997 996 2207
 998 997 2208
 999 998 2209
 1001 1000 2210
 1002 1001 2211
 1003 1002 2212
 1004 1003 2213
 1005 1004 2214
 1006 1005 2215
 1007 1006 2216
 1008 1007 2217
 1009 1008 2218
 1010 1009 2219
 1011 1010 2220
 1012 1011 2221
 1013 1012 2222
 1014 1013 2223
 1015 1014 2224
 1016 1015 2225
 1017 1016 2226
 1018 1017 2227
 1019 1018 2228
 1020 1019 2229
 1021 1020 2230
 1022 1021 2231
 1023 1022 2232
 1024 1023 2233
 1026 1025 2234
 1027 1026 2235
 1028 1027 2236
 1029 1028 2237
 1030 1029 2238
 1031 1030 2239
 1032 1031 2240
 1033 1032 2241
 1034 1033 2242
 1035 1034 2243
 1036 1035 2244
 1037 1036 2245
 1038 1037 2246
 1039 1038 2247
 1040 1039 2248
 1041 1040 2249
 1042 1041 2250
 1043 1042 2251
 1044 1043 2252
 1045 1044 2253
 1046 1045 2254
 1047 1046 2255
 1048 1047 2256
 1049 1048 2257
 1051 1050 2258
 1052 1051 2259
 1053 1052 2260
 1054 1053 2261
 1055 1054 2262
 1056 1055 2263
 1057 1056 2264
 1058 1057 2265
 1059 1058 2266
 1060 1059 2267
 1061 1060 2268
 1062 1061 2269
 1063 1062 2270
 1064 1063 2271
 1065 1064 2272
 1066 1065 2273
 1067 1066 2274
 1068 1067 2275
 1069 1068 2276
 1070 1069 2277
 1071 1070 2278
 1072 1071 2279
 1073 1072 2280
 1074 1073 2281
 1076 1075 2282
 1077 1076 2283
 1078 1077 2284
 1079 1078 2285
 1080 1079 2286
 1081 1080 2287
 1082 1081 2288
 1083 1082 2289
 1084 1083 2290
 1085 1084 2291
 1086 1085 2292
 1087 1086 2293
 1088 1087 2294
 1089 1088 2295
 1090 1089 2296
 1091 1090 2297
 1092 1091 2298
 1093 1092 2299
 1094 1093 2300
 1095 1094 2301
 1096 1095 2302
 1097 1096 2303
 1098 1097 2304
 1099 1098 2305
 1101 1100 2306
 1102 1101 2307
 1103 1102 2308
 1104 1103 2309
 1105 1104 2310
 1106 1105 2311
 1107 1106 2312
 1108 1107 2313
 1109 1108 2314
 1110 1109 2315
 1111 1110 2316
 1112 1111 2317
 1113 1112 2318
 1114 1113 2319
 1115 1114 2320
 1116 1115 2321
 1117 1116 2322
 1118 1117 2323
 1119 1118 2324
 1120 1119 2325
 1121 1120 2326
 1122 1121 2327
 1123 1122 2328
 1124 1123 2329
 1126 1125 2330
 1127 1126 2331
 1128 1127 2332
 1129 1128 2333
 1130 1129 2334
 1131 1130 2335
 1132 1131 2336
 1133 1132 2337
 1134 1133 2338
 1135 1134 2339
 1136 1135 2340
 1137 1136 2341
 1138 1137 2342
 1139 1138 2343
 1140 1139 2344
 1141 1140 2345
 1142 1141 2346
 1143 1142 2347
 1144 1143 2348
 1145 1144 2349
 1146 1145 2350
 1147 1146 2351
 1148 1147 2352
 1149 1148 2353
 1151 1150 2354
 1152 1151 2355
 1153 1152 2356
 1154 1153 2357
 1155 1154 2358
 1156 1155 2359
 1157 1156 2360
 1158 1157 2361
 1159 1158 2362
 1160 1159 2363
 1161 1160 2364
 1162 1161 2365
 1163 1162 2366
 1164 1163 2367
 1165 1164 2368
 1166 1165 2369
 1167 1166 2370
 1168 1167 2371
 1169 1168 2372
 1170 1169 2373
 1171 1170 2374
 1172 1171 2375
 1173 1172 2376
 1174 1173 2377
 1176 1175 2378
 1177 1176 2379
 1178 1177 2380
 1179 1178 2381
 1180 1179 2382
 1181 1180 2383
 1182 1181 2384
 1183 1182 2385
 1184 1183 2386
 1185 1184 2387
 1186 1185 2388
 1187 1186 2389
 1188 1187 2390
 1189 1188 2391
 1190 1189 2392
 1191 1190 2393
 1192 1191 2394
 1193 1192 2395
 1194 1193 2396
 1195 1194 2397
 1196 1195 2398
 1197 1196 2399
 1198 1197 2400
 1199 1198 2401
 1201 1200 2402
 1202 1201 2403
 1203 1202 2404
 1204 1203 2405
 1205 1204 2406
 1206 1205 2407
 1207 1206 2408
 1208 1207 2409
 1209 1208 2410
 1210 1209 2411
 1211 1210 2412
 1212 1211 2413
 1213 1212 2414
 1214 1213 2415
 1215 1214 2416
 1216 1215 2417
 1217 1216 2418
 1218 1217 2419
 1219 1218 2420
 1220 1219 2421
 1221 1220 2422
 1222 1221 2423
 1223 1222 2424
 1224 1223 2425
 26 1 1250
 27 2 1251
 28 3 1252
 29 4 1253
 30 5 1254
 31 6 1255
 32 7 1256
 33 8 1257
 34 9 1258
 35 10 1259
 36 11 1260
 37 12 1261
 38 13 1262
 39 14 1263
 40 15 1264
 41 16 1265
 42 17 1266
 43 18 1267
 44 19 1268
 45 20 1269
 46 21 1270
 47 22 1271
 48 23 1272
 49 24 1273
 51 26 1274
 52 27 1275
 53 28 1276
 54 29 1277
 55 30 1278
 56 31 1279
 57 32 1280
 58 33 1281
 59 34 1282
 60 35 1283
 61 36 1284
 62 37 1285
 63 38 1286
 64 39 1287
 65 40 1288
 66 41 1289
 67 42 1290
 68 43 1291
 69 44 1292
 70 45 1293
 71 46 1294
 72 47 1295
 73 48 1296
 74 49 1297
 76 51 1298
 77 52 1299
 78 53 1300
 79 54 1301
 80 55 1302
 81 56 1303
 82 57 1304
 83 58 1305
 84 59 1306
 85 60 1307
 86 61 1308
 87 62 1309
 88 63 1310
 89 64 1311
 90 65 1312
 91 66 1313
 92 67 1314
 93 68 1315
 94 69 1316
 95 70 1317
 96 71 1318
 97 72 1319
 98 73 1320
 99 74 1321
 101 76 1322
 102 77 1323
 103 78 1324
 104 79 1325
 105 80 1326
 106 81 1327
 107 82 1328
 108 83 1329
 109 84 1330
 110 85 1331
 111 86 1332
 112 87 1333
 113 88 1334
 114 89 1335
 115 90 1336
 116 91 1337
 117 92 1338
 118 93 1339
 119 94 1340
 120 95 1341
 121 96 1342
 122 97 1343
 123 98 1344
 124 99 1345
 126 101 1346
 127 102 1347
 128 103 1348
 129 104 1349
 130 105 1350
 131 106 1351
 132 107 1352
 133 108 1353
 134 109 1354
 135 110 1355
 136 111 1356
 137 112 1357
 138 113 1358
 139 114 1359
 140 115 1360
 141 116 1361
 142 117 1362
 143 118 1363
 144 119 1364
 145 120 1365
 146 121 1366
 147 122 1367
 148 123 1368
 149 124 1369
 151 126 1370
 152 127 1371
 153 128 1372
 154 129 1373
 155 130 1374
 156 131 1375
 157 132 1376
 158 133 1377
 159 134 1378
 160 135 1379
 161 136 1380
 162 137 1381
 163 138 1382
 164 139 1383
 165 140 1384
 166 141 1385
 167 142 1386
 168 143 1387
 169 144 1388
 170 145 1389
 171 146 1390
 172 147 1391
 173 148 1392
 174 149 1393
 176 151 1394
 177 152 1395
 178 153 1396
 179 154 1397
 180 155 1398
 181 156 1399
 182 157 1400
 183 158 1401
 184 159 1402
 185 160 1403
 186 161 1404
 187 162 1405
 188 163 1406
 189 164 1407
 190 165 1408
 191 166 1409
 192 167 1410
 193 168 1411
 194 169 1412
 195 170 1413
 196 171 1414
 197 172 1415
 198 173 1416
 199 174 1417
 201 176 1418
 202 177 1419
 203 178 1420
 204 179 1421
 205 180 1422
 206 181 1423
 207 182 1424
 208 183 1425
 209 184 1426
 210 185 1427
 211 186 1428
 212 187 1429
 213 188 1430
 214 189 1431
 215 190 1432
 216 191 1433
 217 192 1434
 218 193 1435
 219 194 1436
 220 195 1437
 221 196 1438
 222 197 1439
 223 198 1440
 224 199 1441
 226 201 1442
 227 202 1443
 228 203 1444
 229 204 1445
 230 205 1446
 231 206 1447
 232 207 1448
 233 208 1449
 234 209 1450
 235 210 1451
 236 211 1452
 237 212 1453
 238 213 1454
 239 214 1455
 240 215 1456
 241 216 1457
 242 217 1458
 243 218 1459
 244 219 1460
 245 220 1461
 246 221 1462
 247 222 1463
 248 223 1464
 249 224 1465
 251 226 1466
 252 227 1467
 253 228 1468
 254 229 1469
 255 230 1470
 256 231 1471
 257 232 1472
 258 233 1473
 259 234 1474
 260 235 1475
 261 236 1476
 262 237 1477
 263 238 1478
 264 239 1479
 265 240 1480
 266 241 1481
 267 242 1482
 268 243 1483
 269 244 1484
 270 245 1485
 271 246 1486
 272 247 1487
 273 248 1488
 274 249 1489
 276 251 1490
 277 252 1491
 278 253 1492
 279 254 1493
 280 255 1494
 281 256 1495
 282 257 1496
 283 258 1497
 284 259 1498
 285 260 1499
 286 261 1500
 287 262 1501
 288 263 1502
 289 264 1503
 290 265 1504
 291 266 1505
 292 267 1506
 293 268 1507
 294 269 1508
 295 270 1509
 296 271 1510
 297 272 1511
 298 273 1512
 299 274 1513
 301 276 1514
 302 277 1515
 303 278 1516
 304 279 1517
 305 280 1518
 306 281 1519
 307 282 1520
 308 283 1521
 309 284 1522
 310 285 1523
 311 286 1524
 312 287 1525
 313 288 1526
 314 289 1527
 315 290 1528
 316 291 1529
 317 292 1530
 318 293 1531
 319 294 1532
 320 295 1533
 321 296 1534
 322 297 1535
 323 298 1536
 324 299 1537
 326 301 1538
 327 302 1539
 328 303 1540
 329 304 1541
 330 305 1542
 331 306 1543
 332 307 1544
 333 308 1545
 334 309 1546
 335 310 1547
 336 311 1548
 337 312 1549
 338 313 1550
 339 314 1551
 340 315 1552
 341 316 1553
 342 317 1554
 343 318 1555
 344 319 1556
 345 320 1557
 346 321 1558
 347 322 1559
 348 323 1560
 349 324 1561
 351 326 1562
 352 327 1563
 353 328 1564
 354 329 1565
 355 330 1566
 356 331 1567
 357 332 1568
 358 333 1569
 359 334 1570
 360 335 1571
 361 336 1572
 362 337 1573
 363 338 1574
 364 339 1575
 365 340 1576
 366 341 1577
 367 342 1578
 368 343 1579
 369 344 1580
 370 345 1581
 371 346 1582
 372 347 1583
 373 348 1584
 374 349 1585
 376 351 1586
 377 352 1587
 378 353 1588
 379 354 1589
 380 355 1590
 381 356 1591
 382 357 1592
 383 358 1593
 384 359 1594
 385 360 1595
 386 361 1596
 387 362 1597
 388 363 1598
 389 364 1599
 390 365 1600
 391 366 1601
 392 367 1602
 393 368 1603
 394 369 1604
 395 370 1605
 396 371 1606
 397 372 1607
 398 373 1608
 399 374 1609
 401 376 1610
 402 377 1611
 403 378 1612
 404 379 1613
 405 380 1614
 406 381 1615
 407 382 1616
 408 383 1617
 409 384 1618
 410 385 1619
 411 386 1620
 412 387 1621
 413 388 1622
 414 389 1623
 415 390 1624
 416 391 1625
 417 392 1626
 418 393 1627
 419 394 1628
 420 395 1629
 421 396 1630
 422 397 1631
 423 398 1632
 424 399 1633
 426 401 1634
 427 402 1635
 428 403 1636
 429 404 1637
 430 405 1638
 431 406 1639
 432 407 1640
 433 408 1641
 434 409 1642
 435 410 1643
 436 411 1644
 437 412 1645
 438 413 1646
 439 414 1647
 440 415 1648
 441 416 1649
 442 417 1650
 443 418 1651
 444 419 1652
 445 420 1653
 446 421 1654
 447 422 1655
 448 423 1656
 449 424 1657
 451 426 1658
 452 427 1659
 453 428 1660
 454 429 1661
 455 430 1662
 456 431 1663
 457 432 1664
 458 433 1665
 459 434 1666
 460 435 1667
 461 436 1668
 462 437 1669
 463 438 1670
 464 439 1671
 465 440 1672
 466 441 1673
 467 442 1674
 468 443 1675
 469 444 1676
 470 445 1677
 471 446 1678
 472 447 1679
 473 448 1680
 474 449 1681
 476 451 1682
 477 452 1683
 478 453 1684
 479 454 1685
 480 455 1686
 481 456 1687
 482 457 1688
 483 458 1689
 484 459 1690
 485 460 1691
 486 461 1692
 487 462 1693
 488 463 1694
 489 464 1695
 490 465 1696
 491 466 1697
 492 467 1698
 493 468 1699
 494 469 1700
 495 470 1701
 496 471 1702
 497 472 1703
 498 473 1704
 499 474 1705
 501 476 1706
 502 477 1707
 503 478 1708
 504 479 1709
 505 480 1710
 506 481 1711
 507 482 1712
 508 483 1713
 509 484 1714
 510 485 1715
 511 486 1716
 512 487 1717
 513 488 1718
 514 489 1719
 515 490 1720
 516 491 1721
 517 492 1722
 518 493 1723
 519 494 1724
 520 495 1725
 521 496 1726
 522 497 1727
 523 498 1728
 524 499 1729
 526 501 1730
 527 502 1731
 528 503 1732
 529 504 1733
 530 505 1734
 531 506 1735
 532 507 1736
 533 508 1737
 534 509 1738
 535 510 1739
 536 511 1740
 537 512 1741
 538 513 1742
 539 514 1743
 540 515 1744
 541 516 1745
 542 517 1746
 543 518 1747
 544 519 1748
 545 520 1749
 546 521 1750
 547 522 1751
 548 523 1752
 549 524 1753
 551 526 1754
 552 527 1755
 553 528 1756
 554 529 1757
 555 530 1758
 556 531 1759
 557 532 1760
 558 533 1761
 559 534 1762
 560 535 1763
 561 536 1764
 562 537 1765
 563 538 1766
 564 539 1767
 565 540 1768
 566 541 1769
 567 542 1770
 568 543 1771
 569 544 1772
 570 545 1773
 571 546 1774
 572 547 1775
 573 548 1776
 574 549 1777
 576 551 1778
 577 552 1779
 578 553 1780
 579 554 1781
 580 555 1782
 581 556 1783
 582 557 1784
 583 558 1785
 584 559 1786
 585 560 1787
 586 561 1788
 587 562 1789
 588 563 1790
 589 564 1791
 590 565 1792
 591 566 1793
 592 567 1794
 593 568 1795
 594 569 1796
 595 570 1797
 596 571 1798
 597 572 1799
 598 573 1800
 599 574 1801
 601 576 1802
 602 577 1803
 603 578 1804
 604 579 1805
 605 580 1806
 606 581 1807
 607 582 1808
 608 583 1809
 609 584 1810
 610 585 1811
 611 586 1812
 612 587 1813
 613 588 1814
 614 589 1815
 615 590 1816
 616 591 1817
 617 592 1818
 618 593 1819
 619 594 1820
 620 595 1821
 621 596 1822
 622 597 1823
 623 598 1824
 624 599 1825
 626 601 1826
 627 602 1827
 628 603 1828
 629 604 1829
 630 605 1830
 631 606 1831
 632 607 1832
 633 608 1833
 634 609 1834
 635 610 1835
 636 611 1836
 637 612 1837
 638 613 1838
 639 614 1839
 640 615 1840
 641 616 1841
 642 617 1842
 643 618 1843
 644 619 1844
 645 620 1845
 646 621 1846
 647 622 1847
 648 623 1848
 649 624 1849
 651 626 1850
 652 627 1851
 653 628 1852
 654 629 1853
 655 630 1854
 656 631 1855
 657 632 1856
 658 633 1857
 659 634 1858
 660 635 1859
 661 636 1860
 662 637 1861
 663 638 1862
 664 639 1863
 665 640 1864
 666 641 1865
 667 642 1866
 668 643 1867
 669 644 1868
 670 645 1869
 671 646 1870
 672 647 1871
 673 648 1872
 674 649 1873
 676 651 1874
 677 652 1875
 678 653 1876
 679 654 1877
 680 655 1878
 681 656 1879
 682 657 1880
 683 658 1881
 684 659 1882
 685 660 1883
 686 661 1884
 687 662 1885
 688 663 1886
 689 664 1887
 690 665 1888
 691 666 1889
 692 667 1890
 693 668 1891
 694 669 1892
 695 670 1893
 696 671 1894
 697 672 1895
 698 673 1896
 699 674 1897
 701 676 1898
 702 677 1899
 703 678 1900
 704 679 1901
 705 680 1902
 706 681 1903
 707 682 1904
 708 683 1905
 709 684 1906
 710 685 1907
 711 686 1908
 712 687 1909
 713 688 1910
 714 689 1911
 715 690 1912
 716 691 1913
 717 692 1914
 718 693 1915
 719 694 1916
 720 695 1917
 721 696 1918
 722 697 1919
 723 698 1920
 724 699 1921
 726 701 1922
 727 702 1923
 728 703 1924
 729 704 1925
 730 705 1926
 731 706 1927
 732 707 1928
 733 708 1929
 734 709 1930
 735 710 1931
 736 711 1932
 737 712 1933
 738 713 1934
 739 714 1935
 740 715 1936
 741 716 1937
 742 717 1938
 743 718 1939
 744 719 1940
 745 720 1941
 746 721 1942
 747 722 1943
 748 723 1944
 749 724 1945
 751 726 1946
 752 727 1947
 753 728 1948
 754 729 1949
 755 730 1950
 756 731 1951
 757 732 1952
 758 733 1953
 759 734 1954
 760 735 1955
 761 736 1956
 762 737 1957
 763 738 1958
 764 739 1959
 765 740 1960
 766 741 1961
 767 742 1962
 768 743 1963
 769 744 1964
 770 745 1965
 771 746 1966
 772 747 1967
 773 748 1968
 774 749 1969
 776 751 1970
 777 752 1971
 778 753 1972
 779 754 1973
 780 755 1974
 781 756 1975
 782 757 1976
 783 758 1977
 784 759 1978
 785 760 1979
 786 761 1980
 787 762 1981
 788 763 1982
 789 764 1983
 790 765 1984
 791 766 1985
 792 767 1986
 793 768 1987
 794 769 1988
 795 770 1989
 796 771 1990
 797 772 1991
 798 773 1992
 799 774 1993
 801 776 1994
 802 777 1995
 803 778 1996
 804 779 1997
 805 780 1998
 806 781 1999
 807 782 2000
 808 783 2001
 809 784 2002
 810 785 2003
 811 786 2004
 812 787 2005
 813 788 2006
 814 789 2007
 815 790 2008
 816 791 2009
 817 792 2010
 818 793 2011
 819 794 2012
 820 795 2013
 821 796 2014
 822 797 2015
 823 798 2016
 824 799 2017
 826 801 2018
 827 802 2019
 828 803 2020
 829 804 2021
 830 805 2022
 831 806 2023
 832 807 2024
 833 808 2025
 834 809 2026
 835 810 2027
 836 811 2028
 837 812 2029
 838 813 2030
 839 814 2031
 840 815 2032
 841 816 2033
 842 817 2034
 843 818 2035
 844 819 2036
 845 820 2037
 846 821 2038
 847 822 2039
 848 823 2040
 849 824 2041
 851 826 2042
 852 827 2043
 853 828 2044
 854 829 2045
 855 830 2046
 856 831 2047
 857 832 2048
 858 833 2049
 859 834 2050
 860 835 2051
 861 836 2052
 862 837 2053
 863 838 2054
 864 839 2055
 865 840 2056
 866 841 2057
 867 842 2058
 868 843 2059
 869 844 2060
 870 845 2061
 871 846 2062
 872 847 2063
 873 848 2064
 874 849 2065
 876 851 2066
 877 852 2067
 878 853 2068
 879 854 2069
 880 855 2070
 881 856 2071
 882 857 2072
 883 858 2073
 884 859 2074
 885 860 2075
 886 861 2076
 887 862 2077
 888 863 2078
 889 864 2079
 890 865 2080
 891 866 2081
 892 867 2082
 893 868 2083
 894 869 2084
 895 870 2085
 896 871 2086
 897 872 2087
 898 873 2088
 899 874 2089
 901 876 2090
 902 877 2091
 903 878 2092
 904 879 2093
 905 880 2094
 906 881 2095
 907 882 2096
 908 883 2097
 909 884 2098
 910 885 2099
 911 886 2100
 912 887 2101
 913 888 2102
 914 889 2103
 915 890 2104
 916 891 2105
 917 892 2106
 918 893 2107
 919 894 2108
 920 895 2109
 921 896 2110
 922 897 2111
 923 898 2112
 924 899 2113
 926 901 2114
 927 902 2115
 928 903 2116
 929 904 2117
 930 905 2118
 931 906 2119
 932 907 2120
 933 908 2121
 934 909 2122
 935 910 2123
 936 911 2124
 937 912 2125
 938 913 2126
 939 914 2127
 940 915 2128
 941 916 2129
 942 917 2130
 943 918 2131
 944 919 2132
 945 920 2133
 946 921 2134
 947 922 2135
 948 923 2136
 949 924 2137
 951 926 2138
 952 927 2139
 953 928 2140
 954 929 2141
 955 930 2142
 956 931 2143
 957 932 2144
 958 933 2145
 959 934 2146
 960 935 2147
 961 936 2148
 962 937 2149
 963 938 2150
 964 939 2151
 965 940 2152
 966 941 2153
 967 942 2154
 968 943 2155
 969 944 2156
 970 945 2157
 971 946 2158
 972 947 2159
 973 948 2160
 974 949 2161
 976 951 2162
 977 952 2163
 978 953 2164
 979 954 2165
 980 955 2166
 981 956 2167
 982 957 2168
 983 958 2169
 984 959 2170
 985 960 2171
 986 961 2172
 987 962 2173
 988 963 2174
 989 964 2175
 990 965 2176
 991 966 2177
 992 967 2178
 993 968 2179
 994 969 2180
 995 970 2181
 996 971 2182
 997 972 2183
 998 973 2184
 999 974 2185
 1001 976 2186
 1002 977 2187
 1003 978 2188
 1004 979 2189
 1005 980 2190
 1006 981 2191
 1007 982 2192
 1008 983 2193
 1009 984 2194
 1010 985 2195
 1011 986 2196
 1012 987 2197
 1013 988 2198
 1014 989 2199
 1015 990 2200
 1016 991 2201
 1017 992 2202
 1018 993 2203
 1019 994 2204
 1020 995 2205
 1021 996 2206
 1022 997 2207
 1023 998 2208
 1024 999 2209
 1026 1001 2210
 1027 1002 2211
 1028 1003 2212
 1029 1004 2213
 1030 1005 2214
 1031 1006 2215
 1032 1007 2216
 1033 1008 2217
 1034 1009 2218
 1035 1010 2219
 1036 1011 2220
 1037 1012 2221
 1038 1013 2222
 1039 1014 2223
 1040 1015 2224
 1041 1016 2225
 1042 1017 2226
 1043 1018 2227
 1044 1019 2228
 1045 1020 2229
 1046 1021 2230
 1047 1022 2231
 1048 1023 2232
 1049 1024 2233
 1051 1026 2234
 1052 1027 2235
 1053 1028 2236
 1054 1029 2237
 1055 1030 2238
 1056 1031 2239
 1057 1032 2240
 1058 1033 2241
 1059 1034 2242
 1060 1035 2243
 1061 1036 2244
 1062 1037 2245
 1063 1038 2246
 1064 1039 2247
 1065 1040 2248
 1066 1041 2249
 1067 1042 2250
 1068 1043 2251
 1069 1044 2252
 1070 1045 2253
 1071 1046 2254
 1072 1047 2255
 1073 1048 2256
 1074 1049 2257
 1076 1051 2258
 1077 1052 2259
 1078 1053 2260
 1079 1054 2261
 1080 1055 2262
 1081 1056 2263
 1082 1057 2264
 1083 1058 2265
 1084 1059 2266
 1085 1060 2267
 1086 1061 2268
 1087 1062 2269
 1088 1063 2270
 1089 1064 2271
 1090 1065 2272
 1091 1066 2273
 1092 1067 2274
 1093 1068 2275
 1094 1069 2276
 1095 1070 2277
 1096 1071 2278
 1097 1072 2279
 1098 1073 2280
 1099 1074 2281
 1101 1076 2282
 1102 1077 2283
 1103 1078 2284
 1104 1079 2285
 1105 1080 2286
 1106 1081 2287
 1107 1082 2288
 1108 1083 2289
 1109 1084 2290
 1110 1085 2291
 1111 1086 2292
 1112 1087 2293
 1113 1088 2294
 1114 1089 2295
 1115 1090 2296
 1116 1091 2297
 1117 1092 2298
 1118 1093 2299
 1119 1094 2300
 1120 1095 2301
 1121 1096 2302
 1122 1097 2303
 1123 1098 2304
 1124 1099 2305
 1126 1101 2306
 1127 1102 2307
 1128 1103 2308
 1129 1104 2309
 1130 1105 2310
 1131 1106 2311
 1132 1107 2312
 1133 1108 2313
 1134 1109 2314
 1135 1110 2315
 1136 1111 2316
 1137 1112 2317
 1138 1113 2318
 1139 1114 2319
 1140 1115 2320
 1141 1116 2321
 1142 1117 2322
 1143 1118 2323
 1144 1119 2324
 1145 1120 2325
 1146 1121 2326
 1147 1122 2327
 1148 1123 2328
 1149 1124 2329
 1151 1126 2330
 1152 1127 2331
 1153 1128 2332
 1154 1129 2333
 1155 1130 2334
 1156 1131 2335
 1157 1132 2336
 1158 1133 2337
 1159 1134 2338
 1160 1135 2339
 1161 1136 2340
 1162 1137 2341
 1163 1138 2342
 1164 1139 2343
 1165 1140 2344
 1166 1141 2345
 1167 1142 2346
 1168 1143 2347
 1169 1144 2348
 1170 1145 2349
 1171 1146 2350
 1172 1147 2351
 1173 1148 2352
 1174 1149 2353
 1176 1151 2354
 1177 1152 2355
 1178 1153 2356
 1179 1154 2357
 1180 1155 2358
 1181 1156 2359
 1182 1157 2360
 1183 1158 2361
 1184 1159 2362
 1185 1160 2363
 1186 1161 2364
 1187 1162 2365
 1188 1163 2366
 1189 1164 2367
 1190 1165 2368
 1191 1166 2369
 1192 1167 2370
 1193 1168 2371
 1194 1169 2372
 1195 1170 2373
 1196 1171 2374
 1197 1172 2375
 1198 1173 2376
 1199 1174 2377
 1201 1176 2378
 1202 1177 2379
 1203 1178 2380
 1204 1179 2381
 1205 1180 2382
 1206 1181 2383
 1207 1182 2384
 1208 1183 2385
 1209 1184 2386
 1210 1185 2387
 1211 1186 2388
 1212 1187 2389
 1213 1188 2390
 1214 1189 2391
 1215 1190 2392
 1216 1191 2393
 1217 1192 2394
 1218 1193 2395
 1219 1194 2396
 1220 1195 2397
 1221 1196 2398
 1222 1197 2399
 1223 1198 2400
 1224 1199 2401
 1226 1201 2402
 1227 1202 2403
 1228 1203 2404
 1229 1204 2405
 1230 1205 2406
 1231 1206 2407
 1232 1207 2408
 1233 1208 2409
 1234 1209 2410
 1235 1210 2411
 1236 1211 2412
 1237 1212 2413
 1238 1213 2414
 1239 1214 2415
 1240 1215 2416
 1241 1216 2417
 1242 1217 2418
 1243 1218 2419
 1244 1219 2420
 1245 1220 2421
 1246 1221 2422
 1247 1222 2423
 1248 1223 2424
 1249 1224 2425
 25 26 1250
 26 27 1251
 27 28 1252
 28 29 1253
 29 30 1254
 30 31 1255
 31 32 1256
 32 33 1257
 33 34 1258
 34 35 1259
 35 36 1260
 36 37 1261
 37 38 1262
 38 39 1263
 39 40 1264
 40 41 1265
 41 42 1266
 42 43 1267
 43 44 1268
 44 45 1269
 45 46 1270
 46 47 1271
 47 48 1272
 48 49 1273
 50 51 1274
 51 52 1275
 52 53 1276
 53 54 1277
 54 55 1278
 55 56 1279
 56 57 1280
 57 58 1281
 58 59 1282
 59 60 1283
 60 61 1284
 61 62 1285
 62 63 1286
 63 64 1287
 64 65 1288
 65 66 1289
 66 67 1290
 67 68 1291
 68 69 1292
 69 70 1293
 70 71 1294
 71 72 1295
 72 73 1296
 73 74 1297
 75 76 1298
 76 77 1299
 77 78 1300
 78 79 1301
 79 80 1302
 80 81 1303
 81 82 1304
 82 83 1305
 83 84 1306
 84 85 1307
 85 86 1308
 86 87 1309
 87 88 1310
 88 89 1311
 89 90 1312
 90 91 1313
 91 92 1314
 92 93 1315
 93 94 1316
 94 95 1317
 95 96 1318
 96 97 1319
 97 98 1320
 98 99 1321
 100 101 1322
 101 102 1323
 102 103 1324
 103 104 1325
 104 105 1326
 105 106 1327
 106 107 1328
 107 108 1329
 108 109 1330
 109 110 1331
 110 111 1332
 111 112 1333
 112 113 1334
 113 114 1335
 114 115 1336
 115 116 1337
 116 117 1338
 117 118 1339
 118 119 1340
 119 120 1341
 120 121 1342
 121 122 1343
 122 123 1344
 123 124 1345
 125 126 1346
 126 127 1347
 127 128 1348
 128 129 1349
 129 130 1350
 130 131 1351
 131 132 1352
 132 133 1353
 133 134 1354
 134 135 1355
 135 136 1356
 136 137 1357
 137 138 1358
 138 139 1359
 139 140 1360
 140 141 1361
 141 142 1362
 142 143 1363
 143 144 1364
 144 145 1365
 145 146 1366
 146 147 1367
 147 148 1368
 148 149 1369
 150 151 1370
 151 152 1371
 152 153 1372
 153 154 1373
 154 155 1374
 155 156 1375
 156 157 1376
 157 158 1377
 158 159 1378
 159 160 1379
 160 161 1380
 161 162 1381
 162 163 1382
 163 164 1383
 164 165 1384
 165 166 1385
 166 167 1386
 167 168 1387
 168 169 1388
 169 170 1389
 170 171 1390
 171 172 1391
 172 173 1392
 173 174 1393
 175 176 1394
 176 177 1395
 177 178 1396
 178 179 1397
 179 180 1398
 180 181 1399
 181 182 1400
 182 183 1401
 183 184 1402
 184 185 1403
 185 186 1404
 186 187 1405
 187 188 1406
 188 189 1407
 189 190 1408
 190 191 1409
 191 192 1410
 192 193 1411
 193 194 1412
 194 195 1413
 195 196 1414
 196 197 1415
 197 198 1416
 198 199 1417
 200 201 1418
 201 202 1419
 202 203 1420
 203 204 1421
 204 205 1422
 205 206 1423
 206 207 1424
 207 208 1425
 208 209 1426
 209 210 1427
 210 211 1428
 211 212 1429
 212 213 1430
 213 214 1431
 214 215 1432
 215 216 1433
 216 217 1434
 217 218 1435
 218 219 1436
 219 220 1437
 220 221 1438
 221 222 1439
 222 223 1440
 223 224 1441
 225 226 1442
 226 227 1443
 227 228 1444
 228 229 1445
 229 230 1446
 230 231 1447
 231 232 1448
 232 233 1449
 233 234 1450
 234 235 1451
 235 236 1452
 236 237 1453
 237 238 1454
 238 239 1455
 239 240 1456
 240 241 1457
 241 242 1458
 242 243 1459
 243 244 1460
 244 245 1461
 245 246 1462
 246 247 1463
 247 248 1464
 248 249 1465
 250 251 1466
 251 252 1467
 252 253 1468
 253 254 1469
 254 255 1470
 255 256 1471
 256 257 1472
 257 258 1473
 258 259 1474
 259 260 1475
 260 261 1476
 261 262 1477
 262 263 1478
 263 264 1479
 264 265 1480
 265 266 1481
 266 267 1482
 267 268 1483
 268 269 1484
 269 270 1485
 270 271 1486
 271 272 1487
 272 273 1488
 273 274 1489
 275 276 1490
 276 277 1491
 277 278 1492
 278 279 1493
 279 280 1494
 280 281 1495
 281 282 1496
 282 283 1497
 283 284 1498
 284 285 1499
 285 286 1500
 286 287 1501
 287 288 1502
 288 289 1503
 289 290 1504
 290 291 1505
 291 292 1506
 292 293 1507
 293 294 1508
 294 295 1509
 295 296 1510
 296 297 1511
 297 298 1512
 298 299 1513
 300 301 1514
 301 302 1515
 302 303 1516
 303 304 1517
 304 305 1518
 305 306 1519
 306 307 1520
 307 308 1521
 308 309 1522
 309 310 1523
 310 311 1524
 311 312 1525
 312 313 1526
 313 314 1527
 314 315 1528
 315 316 1529
 316 317 1530
 317 318 1531
 318 319 1532
 319 320 1533
 320 321 1534
 321 322 1535
 322 323 1536
 323 324 1537
 325 326 1538
 326 327 1539
 327 328 1540
 328 329 1541
 329 330 1542
 330 331 1543
 331 332 1544
 332 333 1545
 333 334 1546
 334 335 1547
 335 336 1548
 336 337 1549
 337 338 1550
 338 339 1551
 339 340 1552
 340 341 1553
 341 342 1554
 342 343 1555
 343 344 1556
 344 345 1557
 345 346 1558
 346 347 1559
 347 348 1560
 348 349 1561
 350 351 1562
 351 352 1563
 352 353 1564
 353 354 1565
 354 355 1566
 355 356 1567
 356 357 1568
 357 358 1569
 358 359 1570
 359 360 1571
 360 361 1572
 361 362 1573
 362 363 1574
 363 364 1575
 364 365 1576
 365 366 1577
 366 367 1578
 367 368 1579
 368 369 1580
 369 370 1581
 370 371 1582
 371 372 1583
 372 373 1584
 373 374 1585
 375 376 1586
 376 377 1587
 377 378 1588
 378 379 1589
 379 380 1590
 380 381 1591
 381 382 1592
 382 383 1593
 383 384 1594
 384 385 1595
 385 386 1596
 386 387 1597
 387 388 1598
 388 389 1599
 389 390 1600
 390 391 1601
 391 392 1602
 392 393 1603
 393 394 1604
 394 395 1605
 395 396 1606
 396 397 1607
 397 398 1608
 398 399 1609
 400 401 1610
 401 402 1611
 402 403 1612
 403 404 1613
 404 405 1614
 405 406 1615
 406 407 1616
 407 408 1617
 408 409 1618
 409 410 1619
 410 411 1620
 411 412 1621
 412 413 1622
 413 414 1623
 414 415 1624
 415 416 1625
 416 417 1626
 417 418 1627
 418 419 1628
 419 420 1629
 420 421 1630
 421 422 1631
 422 423 1632
 423 424 1633
 425 426 1634
 426 427 1635
 427 428 1636
 428 429 1637
 429 430 1638
 430 431 1639
 431 432 1640
 432 433 1641
 433 434 1642
 434 435 1643
 435 436 1644
 436 437 1645
 437 438 1646
 438 439 1647
 439 440 1648
 440 441 1649
 441 442 1650
 442 443 1651
 443 444 1652
 444 445 1653
 445 446 1654
 446 447 1655
 447 448 1656
 448 449 1657
 450 451 1658
 451 452 1659
 452 453 1660
 453 454 1661
 454 455 1662
 455 456 1663
 456 457 1664
 457 458 1665
 458 459 1666
 459 460 1667
 460 461 1668
 461 462 1669
 462 463 1670
 463 464 1671
 464 465 1672
 465 466 1673
 466 467 1674
 467 468 1675
 468 469 1676
 469 470 1677
 470 471 1678
 471 472 1679
 472 473 1680
 473 474 1681
 475 476 1682
 476 477 1683
 477 478 1684
 478 479 1685
 479 480 1686
 480 481 1687
 481 482 1688
 482 483 1689
 483 484 1690
 484 485 1691
 485 486 1692
 486 487 1693
 487 488 1694
 488 489 1695
 489 490 1696
 490 491 1697
 491 492 1698
 492 493 1699
 493 494 1700
 494 495 1701
 495 496 1702
 496 497 1703
 497 498 1704
 498 499 1705
 500 501 1706
 501 502 1707
 502 503 1708
 503 504 1709
 504 505 1710
 505 506 1711
 506 507 1712
 507 508 1713
 508 509 1714
 509 510 1715
 510 511 1716
 511 512 1717
 512 513 1718
 513 514 1719
 514 515 1720
 515 516 1721
 516 517 1722
 517 518 1723
 518 519 1724
 519 520 1725
 520 521 1726
 521 522 1727
 522 523 1728
 523 524 1729
 525 526 1730
 526 527 1731
 527 528 1732
 528 529 1733
 529 530 1734
 530 531 1735
 531 532 1736
 532 533 1737
 533 534 1738
 534 535 1739
 535 536 1740
 536 537 1741
 537 538 1742
 538 539 1743
 539 540 1744
 540 541 1745
 541 542 1746
 542 543 1747
 543 544 1748
 544 545 1749
 545 546 1750
 546 547 1751
 547 548 1752
 548 549 1753
 550 551 1754
 551 552 1755
 552 553 1756
 553 554 1757
 554 555 1758
 555 556 1759
 556 557 1760
 557 558 1761
 558 559 1762
 559 560 1763
 560 561 1764
 561 562 1765
 562 563 1766
 563 564 1767
 564 565 1768
 565 566 1769
 566 567 1770
 567 568 1771
 568 569 1772
 569 570 1773
 570 571 1774
 571 572 1775
 572 573 1776
 573 574 1777
 575 576 1778
 576 577 1779
 577 578 1780
 578 579 1781
 579 580 1782
 580 581 1783
 581 582 1784
 582 583 1785
 583 584 1786
 584 585 1787
 585 586 1788
 586 587 1789
 587 588 1790
 588 589 1791
 589 590 1792
 590 591 1793
 591 592 1794
 592 593 1795
 593 594 1796
 594 595 1797
 595 596 1798
 596 597 1799
 597 598 1800
 598 599 1801
 600 601 1802
 601 602 1803
 602 603 1804
 603 604 1805
 604 605 1806
 605 606 1807
 606 607 1808
 607 608 1809
 608 609 1810
 609 610 1811
 610 611 1812
 611 612 1813
 612 613 1814
 613 614 1815
 614 615 1816
 615 616 1817
 616 617 1818
 617 618 1819
 618 619 1820
 619 620 1821
 620 621 1822
 621 622 1823
 622 623 1824
 623 624 1825
 625 626 1826
 626 627 1827
 627 628 1828
 628 629 1829
 629 630 1830
 630 631 1831
 631 632 1832
 632 633 1833
 633 634 1834
 634 635 1835
 635 636 1836
 636 637 1837
 637 638 1838
 638 639 1839
 639 640 1840
 640 641 1841
 641 642 1842
 642 643 1843
 643 644 1844
 644 645 1845
 645 646 1846
 646 647 1847
 647 648 1848
 648 649 1849
 650 651 1850
 651 652 1851
 652 653 1852
 653 654 1853
 654 655 1854
 655 656 1855
 656 657 1856
 657 658 1857
 658 659 1858
 659 660 1859
 660 661 1860
 661 662 1861
 662 663 1862
 663 664 1863
 664 665 1864
 665 666 1865
 666 667 1866
 667 668 1867
 668 669 1868
 669 670 1869
 670 671 1870
 671 672 1871
 672 673 1872
 673 674 1873
 675 676 1874
 676 677 1875
 677 678 1876
 678 679 1877
 679 680 1878
 680 681 1879
 681 682 1880
 682 683 1881
 683 684 1882
 684 685 1883
 685 686 1884
 686 687 1885
 687 688 1886
 688 689 1887
 689 690 1888
 690 691 1889
 691 692 1890
 692 693 1891
 693 694 1892
 694 695 1893
 695 696 1894
 696 697 1895
 697 698 1896
 698 699 1897
 700 701 1898
 701 702 1899
 702 703 1900
 703 704 1901
 704 705 1902
 705 706 1903
 706 707 1904
 707 708 1905
 708 709 1906
 709 710 1907
 710 711 1908
 711 712 1909
 712 713 1910
 713 714 1911
 714 715 1912
 715 716 1913
 716 717 1914
 717 718 1915
 718 719 1916
 719 720 1917
 720 721 1918
 721 722 1919
 722 723 1920
 723 724 1921
 725 726 1922
 726 727 1923
 727 728 1924
 728 729 1925
 729 730 1926
 730 731 1927
 731 732 1928
 732 733 1929
 733 734 1930
 734 735 1931
 735 736 1932
 736 737 1933
 737 738 1934
 738 739 1935
 739 740 1936
 740 741 1937
 741 742 1938
 742 743 1939
 743 744 1940
 744 745 1941
 745 746 1942
 746 747 1943
 747 748 1944
 748 749 1945
 750 751 1946
 751 752 1947
 752 753 1948
 753 754 1949
 754 755 1950
 755 756 1951
 756 757 1952
 757 758 1953
 758 759 1954
 759 760 1955
 760 761 1956
 761 762 1957
 762 763 1958
 763 764 1959
 764 765 1960
 765 766 1961
 766 767 1962
 767 768 1963
 768 769 1964
 769 770 1965
 770 771 1966
 771 772 1967
 772 773 1968
 773 774 1969
 775 776 1970
 776 777 1971
 777 778 1972
 778 779 1973
 779 780 1974
 780 781 1975
 781 782 1976
 782 783 1977
 783 784 1978
 784 785 1979
 785 786 1980
 786 787 1981
 787 788 1982
 788 789 1983
 789 790 1984
 790 791 1985
 791 792 1986
 792 793 1987
 793 794 1988
 794 795 1989
 795 796 1990
 796 797 1991
 797 798 1992
 798 799 1993
 800 801 1994
 801 802 1995
 802 803 1996
 803 804 1997
 804 805 1998
 805 806 1999
 806 807 2000
 807 808 2001
 808 809 2002
 809 810 2003
 810 811 2004
 811 812 2005
 812 813 2006
 813 814 2007
 814 815 2008
 815 816 2009
 816 817 2010
 817 818 2011
 818 819 2012
 819 820 2013
 820 821 2014
 821 822 2015
 822 823 2016
 823 824 2017
 825 826 2018
 826 827 2019
 827 828 2020
 828 829 2021
 829 830 2022
 830 831 2023
 831 832 2024
 832 833 2025
 833 834 2026
 834 835 2027
 835 836 2028
 836 837 2029
 837 838 2030
 838 839 2031
 839 840 2032
 840 841 2033
 841 842 2034
 842 843 2035
 843 844 2036
 844 845 2037
 845 846 2038
 846 847 2039
 847 848 2040
 848 849 2041
 850 851 2042
 851 852 2043
 852 853 2044
 853 854 2045
 854 855 2046
 855 856 2047
 856 857 2048
 857 858 2049
 858 859 2050
 859 860 2051
 860 861 2052
 861 862 2053
 862 863 2054
 863 864 2055
 864 865 2056
 865 866 2057
 866 867 2058
 867 868 2059
 868 869 2060
 869 870 2061
 870 871 2062
 871 872 2063
 872 873 2064
 873 874 2065
 875 876 2066
 876 877 2067
 877 878 2068
 878 879 2069
 879 880 2070
 880 881 2071
 881 882 2072
 882 883 2073
 883 884 2074
 884 885 2075
 885 886 2076
 886 887 2077
 887 888 2078
 888 889 2079
 889 890 2080
 890 891 2081
 891 892 2082
 892 893 2083
 893 894 2084
 894 895 2085
 895 896 2086
 896 897 2087
 897 898 2088
 898 899 2089
 900 901 2090
 901 902 2091
 902 903 2092
 903 904 2093
 904 905 2094
 905 906 2095
 906 907 2096
 907 908 2097
 908 909 2098
 909 910 2099
 910 911 2100
 911 912 2101
 912 913 2102
 913 914 2103
 914 915 2104
 915 916 2105
 916 917 2106
 917 918 2107
 918 919 2108
 919 920 2109
 920 921 2110
 921 922 2111
 922 923 2112
 923 924 2113
 925 926 2114
 926 927 2115
 927 928 2116
 928 929 2117
 929 930 2118
 930 931 2119
 931 932 2120
 932 933 2121
 933 934 2122
 934 935 2123
 935 936 2124
 936 937 2125
 937 938 2126
 938 939 2127
 939 940 2128
 940 941 2129
 941 942 2130
 942 943 2131
 943 944 2132
 944 945 2133
 945 946 2134
 946 947 2135
 947 948 2136
 948 949 2137
 950 951 2138
 951 952 2139
 952 953 2140
 953 954 2141
 954 955 2142
 955 956 2143
 956 957 2144
 957 958 2145
 958 959 2146
 959 960 2147
 960 961 2148
 961 962 2149
 962 963 2150
 963 964 2151
 964 965 2152
 965 966 2153
 966 967 2154
 967 968 2155
 968 969 2156
 969 970 2157
 970 971 2158
 971 972 2159
 972 973 2160
 973 974 2161
 975 976 2162
 976 977 2163
 977 978 2164
 978 979 2165
 979 980 2166
 980 981 2167
 981 982 2168
 982 983 2169
 983 984 2170
 984 985 2171
 985 986 2172
 986 987 2173
 987 988 2174
 988 989 2175
 989 990 2176
 990 991 2177
 991 992 2178
 992 993 2179
 993 994 2180
 994 995 2181
 995 996 2182
 996 997 2183
 997 998 2184
 998 999 2185
 1000 1001 2186
 1001 1002 2187
 1002 1003 2188
 1003 1004 2189
 1004 1005 2190
 1005 1006 2191
 1006 1007 2192
 1007 1008 2193
 1008 1009 2194
 1009 1010 2195
 1010 1011 2196
 1011 1012 2197
 1012 1013 2198
 1013 1014 2199
 1014 1015 2200
 1015 1016 2201
 1016 1017 2202
 1017 1018 2203
 1018 1019 2204
 1019 1020 2205
 1020 1021 2206
 1021 1022 2207
 1022 1023 2208
 1023 1024 2209
 1025 1026 2210
 1026 1027 2211
 1027 1028 2212
 1028 1029 2213
 1029 1030 2214
 1030 1031 2215
 1031 1032 2216
 1032 1033 2217
 1033 1034 2218
 1034 1035 2219
 1035 1036 2220
 1036 1037 2221
 1037 1038 2222
 1038 1039 2223
 1039 1040 2224
 1040 1041 2225
 1041 1042 2226
 1042 1043 2227
 1043 1044 2228
 1044 1045 2229
 1045 1046 2230
 1046 1047 2231
 1047 1048 2232
 1048 1049 2233
 1050 1051 2234
 1051 1052 2235
 1052 1053 2236
 1053 1054 2237
 1054 1055 2238
 1055 1056 2239
 1056 1057 2240
 1057 1058 2241
 1058 1059 2242
 1059 1060 2243
 1060 1061 2244
 1061 1062 2245
 1062 1063 2246
 1063 1064 2247
 1064 1065 2248
 1065 1066 2249
 1066 1067 2250
 1067 1068 2251
 1068 1069 2252
 1069 1070 2253
 1070 1071 2254
 1071 1072 2255
 1072 1073 2256
 1073 1074 2257
 1075 1076 2258
 1076 1077 2259
 1077 1078 2260
 1078 1079 2261
 1079 1080 2262
 1080 1081 2263
 1081 1082 2264
 1082 1083 2265
 1083 1084 2266
 1084 1085 2267
 1085 1086 2268
 1086 1087 2269
 1087 1088 2270
 1088 1089 2271
 1089 1090 2272
 1090 1091 2273
 1091 1092 2274
 1092 1093 2275
 1093 1094 2276
 1094 1095 2277
 1095 1096 2278
 1096 1097 2279
 1097 1098 2280
 1098 1099 2281
 1100 1101 2282
 1101 1102 2283
 1102 1103 2284
 1103 1104 2285
 1104 1105 2286
 1105 1106 2287
 1106 1107 2288
 1107 1108 2289
 1108 1109 2290
 1109 1110 2291
 1110 1111 2292
 1111 1112 2293
 1112 1113 2294
 1113 1114 2295
 1114 1115 2296
 1115 1116 2297
 1116 1117 2298
 1117 1118 2299
 1118 1119 2300
 1119 1120 2301
 1120 1121 2302
 1121 1122 2303
 1122 1123 2304
 1123 1124 2305
 1125 1126 2306
 1126 1127 2307
 1127 1128 2308
 1128 1129 2309
 1129 1130 2310
 1130 1131 2311
 1131 1132 2312
 1132 1133 2313
 1133 1134 2314
 1134 1135 2315
 1135 1136 2316
 1136 1137 2317
 1137 1138 2318
 1138 1139 2319
 1139 1140 2320
 1140 1141 2321
 1141 1142 2322
 1142 1143 2323
 1143 1144 2324
 1144 1145 2325
 1145 1146 2326
 1146 1147 2327
 1147 1148 2328
 1148 1149 2329
 1150 1151 2330
 1151 1152 2331
 1152 1153 2332
 1153 1154 2333
 1154 1155 2334
 1155 1156 2335
 1156 1157 2336
 1157 1158 2337
 1158 1159 2338
 1159 1160 2339
 1160 1161 2340
 1161 1162 2341
 1162 1163 2342
 1163 1164 2343
 1164 1165 2344
 1165 1166 2345
 1166 1167 2346
 1167 1168 2347
 1168 1169 2348
 1169 1170 2349
 1170 1171 2350
 1171 1172 2351
 1172 1173 2352
 1173 1174 2353
 1175 1176 2354
 1176 1177 2355
 1177 1178 2356
 1178 1179 2357
 1179 1180 2358
 1180 1181 2359
 1181 1182 2360
 1182 1183 2361
 1183 1184 2362
 1184 1185 2363
 1185 1186 2364
 1186 1187 2365
 1187 1188 2366
 1188 1189 2367
 1189 1190 2368
 1190 1191 2369
 1191 1192 2370
 1192 1193 2371
 1193 1194 2372
 1194 1195 2373
 1195 1196 2374
 1196 1197 2375
 1197 1198 2376
 1198 1199 2377
 1200 1201 2378
 1201 1202 2379
 1202 1203 2380
 1203 1204 2381
 1204 1205 2382
 1205 1206 2383
 1206 1207 2384
 1207 1208 2385
 1208 1209 2386
 1209 1210 2387
 1210 1211 2388
 1211 1212 2389
 1212 1213 2390
 1213 1214 2391
 1214 1215 2392
 1215 1216 2393
 1216 1217 2394
 1217 1218 2395
 1218 1219 2396
 1219 1220 2397
 1220 1221 2398
 1221 1222 2399
 1222 1223 2400
 1223 1224 2401
 1225 1226 2402
 1226 1227 2403
 1227 1228 2404
 1228 1229 2405
 1229 1230 2406
 1230 1231 2407
 1231 1232 2408
 1232 1233 2409
 1233 1234 2410
 1234 1235 2411
 1235 1236 2412
 1236 1237 2413
 1237 1238 2414
 1238 1239 2415
 1239 1240 2416
 1240 1241 2417
 1241 1242 2418
 1242 1243 2419
 1243 1244 2420
 1244 1245 2421
 1245 1246 2422
 1246 1247 2423
 1247 1248 2424
 1248 1249 2425
 0 25 1250
 1 26 1251
 2 27 1252
 3 28 1253
 4 29 1254
 5 30 1255
 6 31 1256
 7 32 1257
 8 33 1258
 9 34 1259
 10 35 1260
 11 36 1261
 12 37 1262
 13 38 1263
 14 39 1264
 15 40 1265
 16 41 1266
 17 42 1267
 18 43 1268
 19 44 1269
 20 45 1270
 21 46 1271
 22 47 1272
 23 48 1273
 25 50 1274
 26 51 1275
 27 52 1276
 28 53 1277
 29 54 1278
 30 55 1279
 31 56 1280
 32 57 1281
 33 58 1282
 34 59 1283
 35 60 1284
 36 61 1285
 37 62 1286
 38 63 1287
 39 64 1288
 40 65 1289
 41 66 1290
 42 67 1291
 43 68 1292
 44 69 1293
 45 70 1294
 46 71 1295
 47 72 1296
 48 73 1297
 50 75 1298
 51 76 1299
 52 77 1300
 53 78 1301
 54 79 1302
 55 80 1303
 56 81 1304
 57 82 1305
 58 83 1306
 59 84 1307
 60 85 1308
 61 86 1309
 62 87 1310
 63 88 1311
 64 89 1312
 65 90 1313
 66 91 1314
 67 92 1315
 68 93 1316
 69 94 1317
 70 95 1318
 71 96 1319
 72 97 1320
 73 98 1321
 75 100 1322
 76 101 1323
 77 102 1324
 78 103 1325
 79 104 1326
 80 105 1327
 81 106 1328
 82 107 1329
 83 108 1330
 84 109 1331
 85 110 1332
 86 111 1333
 87 112 1334
 88 113 1335
 89 114 1336
 90 115 1337
 91 116 1338
 92 117 1339
 93 118 1340
 94 119 1341
 95 120 1342
 96 121 1343
 97 122 1344
 98 123 1345
 100 125 1346
 101 126 1347
 102 127 1348
 103 128 1349
 104 129 1350
 105 130 1351
 106 131 1352
 107 132 1353
 108 133 1354
 109 134 1355
 110 135 1356
 111 136 1357
 112 137 1358
 113 138 1359
 114 139 1360
 115 140 1361
 116 141 1362
 117 142 1363
 118 143 1364
 119 144 1365
 120 145 1366
 121 146 1367
 122 147 1368
 123 148 1369
 125 150 1370
 126 151 1371
 127 152 1372
 128 153 1373
 129 154 1374
 130 155 1375
 131 156 1376
 132 157 1377
 133 158 1378
 134 159 1379
 135 160 1380
 136 161 1381
 137 162 1382
 138 163 1383
 139 164 1384
 140 165 1385
 141 166 1386
 142 167 1387
 143 168 1388
 144 169 1389
 145 170 1390
 146 171 1391
 147 172 1392
 148 173 1393
 150 175 1394
 151 176 1395
 152 177 1396
 153 178 1397
 154 179 1398
 155 180 1399
 156 181 1400
 157 182 1401
 158 183 1402
 159 184 1403
 160 185 1404
 161 186 1405
 162 187 1406
 163 188 1407
 164 189 1408
 165 190 1409
 166 191 1410
 167 192 1411
 168 193 1412
 169 194 1413
 170 195 1414
 171 196 1415
 172 197 1416
 173 198 1417
 175 200 1418
 176 201 1419
 177 202 1420
 178 203 1421
 179 204 1422
 180 205 1423
 181 206 1424
 182 207 1425
 183 208 1426
 184 209 1427
 185 210 1428
 186 211 1429
 187 212 1430
 188 213 1431
 189 214 1432
 190 215 1433
 191 216 1434
 192 217 1435
 193 218 1436
 194 219 1437
 195 220 1438
 196 221 1439
 197 222 1440
 198 223 1441
 200 225 1442
 201 226 1443
 202 227 1444
 203 228 1445
 204 229 1446
 205 230 1447
 206 231 1448
 207 232 1449
 208 233 1450
 209 234 1451
 210 235 1452
 211 236 1453
 212 237 1454
 213 238 1455
 214 239 1456
 215 240 1457
 216 241 1458
 217 242 1459
 218 243 1460
 219 244 1461
 220 245 1462
 221 246 1463
 222 247 1464
 223 248 1465
 225 250 1466
 226 251 1467
 227 252 1468
 228 253 1469
 229 254 1470
 230 255 1471
 231 256 1472
 232 257 1473
 233 258 1474
 234 259 1475
 235 260 1476
 236 261 1477
 237 262 1478
 238 263 1479
 239 264 1480
 240 265 1481
 241 266 1482
 242 267 1483
 243 268 1484
 244 269 1485
 245 270 1486
 246 271 1487
 247 272 1488
 248 273 1489
 250 275 1490
 251 276 1491
 252 277 1492
 253 278 1493
 254 279 1494
 255 280 1495
 256 281 1496
 257 282 1497
 258 283 1498
 259 284 1499
 260 285 1500
 261 286 1501
 262 287 1502
 263 288 1503
 264 289 1504
 265 290 1505
 266 291 1506
 267 292 1507
 268 293 1508
 269 294 1509
 270 295 1510
 271 296 1511
 272 297 1512
 273 298 1513
 275 300 1514
 276 301 1515
 277 302 1516
 278 303 1517
 279 304 1518
 280 305 1519
 281 306 1520
 282 307 1521
 283 308 1522
 284 309 1523
 285 310 1524
 286 311 1525
 287 312 1526
 288 313 1527
 289 314 1528
 290 315 1529
 291 316 1530
 292 317 1531
 293 318 1532
 294 319 1533
 295 320 1534
 296 321 1535
 297 322 1536
 298 323 1537
 300 325 1538
 301 326 1539
 302 327 1540
 303 328 1541
 304 329 1542
 305 330 1543
 306 331 1544
 307 332 1545
 308 333 1546
 309 334 1547
 310 335 1548
 311 336 1549
 312 337 1550
 313 338 1551
 314 339 1552
 315 340 1553
 316 341 1554
 317 342 1555
 318 343 1556
 319 344 1557
 320 345 1558
 321 346 1559
 322 347 1560
 323 348 1561
 325 350 1562
 326 351 1563
 327 352 1564
 328 353 1565
 329 354 1566
 330 355 1567
 331 356 1568
 332 357 1569
 333 358 1570
 334 359 1571
 335 360 1572
 336 361 1573
 337 362 1574
 338 363 1575
 339 364 1576
 340 365 1577
 341 366 1578
 342 367 1579
 343 368 1580
 344 369 1581
 345 370 1582
 346 371 1583
 347 372 1584
 348 373 1585
 350 375 1586
 351 376 1587
 352 377 1588
 353 378 1589
 354 379 1590
 355 380 1591
 356 381 1592
 357 382 1593
 358 383 1594
 359 384 1595
 360 385 1596
 361 386 1597
 362 387 1598
 363 388 1599
 364 389 1600
 365 390 1601
 366 391 1602
 367 392 1603
 368 393 1604
 369 394 1605
 370 395 1606
 371 396 1607
 372 397 1608
 373 398 1609
 375 400 1610
 376 401 1611
 377 402 1612
 378 403 1613
 379 404 1614
 380 405 1615
 381 406 1616
 382 407 1617
 383 408 1618
 384 409 1619
 385 410 1620
 386 411 1621
 387 412 1622
 388 413 1623
 389 414 1624
 390 415 1625
 391 416 1626
 392 417 1627
 393 418 1628
 394 419 1629
 395 420 1630
 396 421 1631
 397 422 1632
 398 423 1633
 400 425 1634
 401 426 1635
 402 427 1636
 403 428 1637
 404 429 1638
 405 430 1639
 406 431 1640
 407 432 1641
 408 433 1642
 409 434 1643
 410 435 1644
 411 436 1645
 412 437 1646
 413 438 1647
 414 439 1648
 415 440 1649
 416 441 1650
 417 442 1651
 418 443 1652
 419 444 1653
 420 445 1654
 421 446 1655
 422 447 1656
 423 448 1657
 425 450 1658
 426 451 1659
 427 452 1660
 428 453 1661
 429 454 1662
 430 455 1663
 431 456 1664
 432 457 1665
 433 458 1666
 434 459 1667
 435 460 1668
 436 461 1669
 437 462 1670
 438 463 1671
 439 464 1672
 440 465 1673
 441 466 1674
 442 467 1675
 443 468 1676
 444 469 1677
 445 470 1678
 446 471 1679
 447 472 1680
 448 473 1681
 450 475 1682
 451 476 1683
 452 477 1684
 453 478 1685
 454 479 1686
 455 480 1687
 456 481 1688
 457 482 1689
 458 483 1690
 459 484 1691
 460 485 1692
 461 486 1693
 462 487 1694
 463 488 1695
 464 489 1696
 465 490 1697
 466 491 1698
 467 492 1699
 468 493 1700
 469 494 1701
 470 495 1702
 471 496 1703
 472 497 1704
 473 498 1705
 475 500 1706
 476 501 1707
 477 502 1708
 478 503 1709
 479 504 1710
 480 505 1711
 481 506 1712
 482 507 1713
 483 508 1714
 484 509 1715
 485 510 1716
 486 511 1717
 487 512 1718
 488 513 1719
 489 514 1720
 490 515 1721
 491 516 1722
 492 517 1723
 493 518 1724
 494 519 1725
 495 520 1726
 496 521 1727
 497 522 1728
 498 523 1729
 500 525 1730
 501 526 1731
 502 527 1732
 503 528 1733
 504 529 1734
 505 530 1735
 506 531 1736
 507 532 1737
 508 533 1738
 509 534 1739
 510 535 1740
 511 536 1741
 512 537 1742
 513 538 1743
 514 539 1744
 515 540 1745
 516 541 1746
 517 542 1747
 518 543 1748
 519 544 1749
 520 545 1750
 521 546 1751
 522 547 1752
 523 548 1753
 525 550 1754
 526 551 1755
 527 552 1756
 528 553 1757
 529 554 1758
 530 555 1759
 531 556 1760
 532 557 1761
 533 558 1762
 534 559 1763
 535 560 1764
 536 561 1765
 537 562 1766
 538 563 1767
 539 564 1768
 540 565 1769
 541 566 1770
 542 567 1771
 543 568 1772
 544 569 1773
 545 570 1774
 546 571 1775
 547 572 1776
 548 573 1777
 550 575 1778
 551 576 1779
 552 577 1780
 553 578 1781
 554 579 1782
 555 580 1783
 556 581 1784
 557 582 1785
 558 583 1786
 559 584 1787
 560 585 1788
 561 586 1789
 562 587 1790
 563 588 1791
 564 589 1792
 565 590 1793
 566 591 1794
 567 592 1795
 568 593 1796
 569 594 1797
 570 595 1798
 571 596 1799
 572 597 1800
 573 598 1801
 575 600 1802
 576 601 1803
 577 602 1804
 578 603 1805
 579 604 1806
 580 605 1807
 581 606 1808
 582 607 1809
 583 608 1810
 584 609 1811
 585 610 1812
 586 611 1813
 587 612 1814
 588 613 1815
 589 614 1816
 590 615 1817
 591 616 1818
 592 617 1819
 593 618 1820
 594 619 1821
 595 620 1822
 596 621 1823
 597 622 1824
 598 623 1825
 600 625 1826
 601 626 1827
 602 627 1828
 603 628 1829
 604 629 1830
 605 630 1831
 606 631 1832
 607 632 1833
 608 633 1834
 609 634 1835
 610 635 1836
 611 636 1837
 612 637 1838
 613 638 1839
 614 639 1840
 615 640 1841
 616 641 1842
 617 642 1843
 618 643 1844
 619 644 1845
 620 645 1846
 621 646 1847
 622 647 1848
 623 648 1849
 625 650 1850
 626 651 1851
 627 652 1852
 628 653 1853
 629 654 1854
 630 655 1855
 631 656 1856
 632 657 1857
 633 658 1858
 634 659 1859
 635 660 1860
 636 661 1861
 637 662 1862
 638 663 1863
 639 664 1864
 640 665 1865
 641 666 1866
 642 667 1867
 643 668 1868
 644 669 1869
 645 670 1870
 646 671 1871
 647 672 1872
 648 673 1873
 650 675 1874
 651 676 1875
 652 677 1876
 653 678 1877
 654 679 1878
 655 680 1879
 656 681 1880
 657 682 1881
 658 683 1882
 659 684 1883
 660 685 1884
 661 686 1885
 662 687 1886
 663 688 1887
 664 689 1888
 665 690 1889
 666 691 1890
 667 692 1891
 668 693 1892
 669 694 1893
 670 695 1894
 671 696 1895
 672 697 1896
 673 698 1897
 675 700 1898
 676 701 1899
 677 702 1900
 678 703 1901
 679 704 1902
 680 705 1903
 681 706 1904
 682 707 1905
 683 708 1906
 684 709 1907
 685 710 1908
 686 711 1909
 687 712 1910
 688 713 1911
 689 714 1912
 690 715 1913
 691 716 1914
 692 717 1915
 693 718 1916
 694 719 1917
 695 720 1918
 696 721 1919
 697 722 1920
 698 723 1921
 700 725 1922
 701 726 1923
 702 727 1924
 703 728 1925
 704 729 1926
 705 730 1927
 706 731 1928
 707 732 1929
 708 733 1930
 709 734 1931
 710 735 1932
 711 736 1933
 712 737 1934
 713 738 1935
 714 739 1936
 715 740 1937
 716 741 1938
 717 742 1939
 718 743 1940
 719 744 1941
 720 745 1942
 721 746 1943
 722 747 1944
 723 748 1945
 725 750 1946
 726 751 1947
 727 752 1948
 728 753 1949
 729 754 1950
 730 755 1951
 731 756 1952
 732 757 1953
 733 758 1954
 734 759 1955
 735 760 1956
 736 761 1957
 737 762 1958
 738 763 1959
 739 764 1960
 740 765 1961
 741 766 1962
 742 767 1963
 743 768 1964
 744 769 1965
 745 770 1966
 746 771 1967
 747 772 1968
 748 773 1969
 750 775 1970
 751 776 1971
 752 777 1972
 753 778 1973
 754 779 1974
 755 780 1975
 756 781 1976
 757 782 1977
 758 783 1978
 759 784 1979
 760 785 1980
 761 786 1981
 762 787 1982
 763 788 1983
 764 789 1984
 765 790 1985
 766 791 1986
 767 792 1987
 768 793 1988
 769 794 1989
 770 795 1990
 771 796 1991
 772 797 1992
 773 798 1993
 775 800 1994
 776 801 1995
 777 802 1996
 778 803 1997
 779 804 1998
 780 805 1999
 781 806 2000
 782 807 2001
 783 808 2002
 784 809 2003
 785 810 2004
 786 811 2005
 787 812 2006
 788 813 2007
 789 814 2008
 790 815 2009
 791 816 2010
 792 817 2011
 793 818 2012
 794 819 2013
 795 820 2014
 796 821 2015
 797 822 2016
 798 823 2017
 800 825 2018
 801 826 2019
 802 827 2020
 803 828 2021
 804 829 2022
 805 830 2023
 806 831 2024
 807 832 2025
 808 833 2026
 809 834 2027
 810 835 2028
 811 836 2029
 812 837 2030
 813 838 2031
 814 839 2032
 815 840 2033
 816 841 2034
 817 842 2035
 818 843 2036
 819 844 2037
 820 845 2038
 821 846 2039
 822 847 2040
 823 848 2041
 825 850 2042
 826 851 2043
 827 852 2044
 828 853 2045
 829 854 2046
 830 855 2047
 831 856 2048
 832 857 2049
 833 858 2050
 834 859 2051
 835 860 2052
 836 861 2053
 837 862 2054
 838 863 2055
 839 864 2056
 840 865 2057
 841 866 2058
 842 867 2059
 843 868 2060
 844 869 2061
 845 870 2062
 846 871 2063
 847 872 2064
 848 873 2065
 850 875 2066
 851 876 2067
 852 877 2068
 853 878 2069
 854 879 2070
 855 880 2071
 856 881 2072
 857 882 2073
 858 883 2074
 859 884 2075
 860 885 2076
 861 886 2077
 862 887 2078
 863 888 2079
 864 889 2080
 865 890 2081
 866 891 2082
 867 892 2083
 868 893 2084
 869 894 2085
 870 895 2086
 871 896 2087
 872 897 2088
 873 898 2089
 875 900 2090
 876 901 2091
 877 902 2092
 878 903 2093
 879 904 2094
 880 905 2095
 881 906 2096
 882 907 2097
 883 908 2098
 884 909 2099
 885 910 2100
 886 911 2101
 887 912 2102
 888 913 2103
 889 914 2104
 890 915 2105
 891 916 2106
 892 917 2107
 893 918 2108
 894 919 2109
 895 920 2110
 896 921 2111
 897 922 2112
 898 923 2113
 900 925 2114
 901 926 2115
 902 927 2116
 903 928 2117
 904 929 2118
 905 930 2119
 906 931 2120
 907 932 2121
 908 933 2122
 909 934 2123
 910 935 2124
 911 936 2125
 912 937 2126
 913 938 2127
 914 939 2128
 915 940 2129
 916 941 2130
 917 942 2131
 918 943 2132
 919 944 2133
 920 945 2134
 921 946 2135
 922 947 2136
 923 948 2137
 925 950 2138
 926 951 2139
 927 952 2140
 928 953 2141
 929 954 2142
 930 955 2143
 931 956 2144
 932 957 2145
 933 958 2146
 934 959 2147
 935 960 2148
 936 961 2149
 937 962 2150
 938 963 2151
 939 964 2152
 940 965 2153
 941 966 2154
 942 967 2155
 943 968 2156
 944 969 2157
 945 970 2158
 946 971 2159
 947 972 2160
 948 973 2161
 950 975 2162
 951 976 2163
 952 977 2164
 953 978 2165
 954 979 2166
 955 980 2167
 956 981 2168
 957 982 2169
 958 983 2170
 959 984 2171
 960 985 2172
 961 986 2173
 962 987 2174
 963 988 2175
 964 989 2176
 965 990 2177
 966 991 2178
 967 992 2179
 968 993 2180
 969 994 2181
 970 995 2182
 971 996 2183
 972 997 2184
 973 998 2185
 975 1000 2186
 976 1001 2187
 977 1002 2188
 978 1003 2189
 979 1004 2190
 980 1005 2191
 981 1006 2192
 982 1007 2193
 983 1008 2194
 984 1009 2195
 985 1010 2196
 986 1011 2197
 987 1012 2198
 988 1013 2199
 989 1014 2200
 990 1015 2201
 991 1016 2202
 992 1017 2203
 993 1018 2204
 994 1019 2205
 995 1020 2206
 996 1021 2207
 997 1022 2208
 998 1023 2209
 1000 1025 2210
 1001 1026 2211
 1002 1027 2212
 1003 1028 2213
 1004 1029 2214
 1005 1030 2215
 1006 1031 2216
 1007 1032 2217
 1008 1033 2218
 1009 1034 2219
 1010 1035 2220
 1011 1036 2221
 1012 1037 2222
 1013 1038 2223
 1014 1039 2224
 1015 1040 2225
 1016 1041 2226
 1017 1042 2227
 1018 1043 2228
 1019 1044 2229
 1020 1045 2230
 1021 1046 2231
 1022 1047 2232
 1023 1048 2233
 1025 1050 2234
 1026 1051 2235
 1027 1052 2236
 1028 1053 2237
 1029 1054 2238
 1030 1055 2239
 1031 1056 2240
 1032 1057 2241
 1033 1058 2242
 1034 1059 2243
 1035 1060 2244
 1036 1061 2245
 1037 1062 2246
 1038 1063 2247
 1039 1064 2248
 1040 1065 2249
 1041 1066 2250
 1042 1067 2251
 1043 1068 2252
 1044 1069 2253
 1045 1070 2254
 1046 1071 2255
 1047 1072 2256
 1048 1073 2257
 1050 1075 2258
 1051 1076 2259
 1052 1077 2260
 1053 1078 2261
 1054 1079 2262
 1055 1080 2263
 1056 1081 2264
 1057 1082 2265
 1058 1083 2266
 1059 1084 2267
 1060 1085 2268
 1061 1086 2269
 1062 1087 2270
 1063 1088 2271
 1064 1089 2272
 1065 1090 2273
 1066 1091 2274
 1067 1092 2275
 1068 1093 2276
 1069 1094 2277
 1070 1095 2278
 1071 1096 2279
 1072 1097 2280
 1073 1098 2281
 1075 1100 2282
 1076 1101 2283
 1077 1102 2284
 1078 1103 2285
 1079 1104 2286
 1080 1105 2287
 1081 1106 2288
 1082 1107 2289
 1083 1108 2290
 1084 1109 2291
 1085 1110 2292
 1086 1111 2293
 1087 1112 2294
 1088 1113 2295
 1089 1114 2296
 1090 1115 2297
 1091 1116 2298
 1092 1117 2299
 1093 1118 2300
 1094 1119 2301
 1095 1120 2302
 1096 1121 2303
 1097 1122 2304
 1098 1123 2305
 1100 1125 2306
 1101 1126 2307
 1102 1127 2308
 1103 1128 2309
 1104 1129 2310
 1105 1130 2311
 1106 1131 2312
 1107 1132 2313
 1108 1133 2314
 1109 1134 2315
 1110 1135 2316
 1111 1136 2317
 1112 1137 2318
 1113 1138 2319
 1114 1139 2320
 1115 1140 2321
 1116 1141 2322
 1117 1142 2323
 1118 1143 2324
 1119 1144 2325
 1120 1145 2326
 1121 1146 2327
 1122 1147 2328
 1123 1148 2329
 1125 1150 2330
 1126 1151 2331
 1127 1152 2332
 1128 1153 2333
 1129 1154 2334
 1130 1155 2335
 1131 1156 2336
 1132 1157 2337
 1133 1158 2338
 1134 1159 2339
 1135 1160 2340
 1136 1161 2341
 1137 1162 2342
 1138 1163 2343
 1139 1164 2344
 1140 1165 2345
 1141 1166 2346
 1142 1167 2347
 1143 1168 2348
 1144 1169 2349
 1145 1170 2350
 1146 1171 2351
 1147 1172 2352
 1148 1173 2353
 1150 1175 2354
 1151 1176 2355
 1152 1177 2356
 1153 1178 2357
 1154 1179 2358
 1155 1180 2359
 1156 1181 2360
 1157 1182 2361
 1158 1183 2362
 1159 1184 2363
 1160 1185 2364
 1161 1186 2365
 1162 1187 2366
 1163 1188 2367
 1164 1189 2368
 1165 1190 2369
 1166 1191 2370
 1167 1192 2371
 1168 1193 2372
 1169 1194 2373
 1170 1195 2374
 1171 1196 2375
 1172 1197 2376
 1173 1198 2377
 1175 1200 2378
 1176 1201 2379
 1177 1202 2380
 1178 1203 2381
 1179 1204 2382
 1180 1205 2383
 1181 1206 2384
 1182 1207 2385
 1183 1208 2386
 1184 1209 2387
 1185 1210 2388
 1186 1211 2389
 1187 1212 2390
 1188 1213 2391
 1189 1214 2392
 1190 1215 2393
 1191 1216 2394
 1192 1217 2395
 1193 1218 2396
 1194 1219 2397
 1195 1220 2398
 1196 1221 2399
 1197 1222 2400
 1198 1223 2401
 1200 1225 2402
 1201 1226 2403
 1202 1227 2404
 1203 1228 2405
 1204 1229 2406
 1205 1230 2407
 1206 1231 2408
 1207 1232 2409
 1208 1233 2410
 1209 1234 2411
 1210 1235 2412
 1211 1236 2413
 1212 1237 2414
 1213 1238 2415
 1214 1239 2416
 1215 1240 2417
 1216 1241 2418
 1217 1242 2419
 1218 1243 2420
 1219 1244 2421
 1220 1245 2422
 1221 1246 2423
 1222 1247 2424
 1223 1248 2425</DataArray>
            <DataArray Name="offsets" format="ascii" type="Int32">3 6 9 12 15 18 21 24 27 30 33 36 39 42 45 48 51 54 57 60 63 66 69 72 75 78 81 84 87 90 93 96 99 102 105 108 111 114 117 120 123 126 129 132 135 138 141 144 147 150 153 156 159 162 165 168 171 174 177 180 183 186 189 192 195 198 201 204 207 210 213 216 219 222 225 228 231 234 237 240 243 246 249 252 255 258 261 264 267 270 273 276 279 282 285 288 291 294 297 300 303 306 309 312 315 318 321 324 327 330 333 336 339 342 345 348 351 354 357 360 363 366 369 372 375 378 381 384 387 390 393 396 399 402 405 408 411 414 417 420 423 426 429 432 435 438 441 444 447 450 453 456 459 462 465 468 471 474 477 480 483 486 489 492 495 498 501 504 507 510 513 516 519 522 525 528 531 534 537 540 543 546 549 552 555 558 561 564 567 570 573 576 579 582 585 588 591 594 597 600 603 606 609 612 615 618 621 624 627 630 633 636 639 642 645 648 651 654 657 660 663 666 669 672 675 678 681 684 687 690 693 696 699 702 705 708 711 714 717 720 723 726 729 732 735 738 741 744 747 750 753 756 759 762 765 768 771 774 777 780 783 786 789 792 795 798 801 804 807 810 813 816 819 822 825 828 831 834 837 840 843 846 849 852 855 858 861 864 867 870 873 876 879 882 885 888 891 894 897 900 903 906 909 912 915 918 921 924 927 930 933 936 939 942 945 948 951 954 957 960 963 966 969 972 975 978 981 984 987 990 993 996 999 1002 1005 1008 1011 1014 1017 1020 1023 1026 1029 1032 1035 1038 1041 1044 1047 1050 1053 1056 1059 1062 1065 1068 1071 1074 1077 1080 1083 1086 1089 1092 1095 1098 1101 1104 1107 1110 1113 1116 1119 1122 1125 1128 1131 1134 1137 1140 1143 1146 1149 1152 1155 1158 1161 1164 1167 1170 1173 1176 1179 1182 1185 1188 1191 1194 1197 1200 1203 1206 1209 1212 1215 1218 1221 1224 1227 1230 1233 1236 1239 1242 1245 1248 1251 1254 1257 1260 1263 1266 1269 1272 1275 1278 1281 1284 1287 1290 1293 1296 1299 1302 1305 1308 1311 1314 1317 1320 1323 1326 1329 1332 1335 1338 1341 1344 1347 1350 1353 1356 1359 1362 1365 1368 1371 1374 1377 1380 1383 1386 1389 1392 1395 1398 1401 1404 1407 1410 1413 1416 1419 1422 1425 1428 1431 1434 1437 1440 1443 1446 1449 1452 1455 1458 1461 1464 1467 1470 1473 1476 1479 1482 1485 1488 1491 1494 1497 1500 1503 1506 1509 1512 1515 1518 1521 1524 1527 1530 1533 1536 1539 1542 1545 1548 1551 1554 1557 1560 1563 1566 1569 1572 1575 1578 1581 1584 1587 1590 1593 1596 1599 1602 1605 1608 1611 1614 1617 1620 1623 1626 1629 1632 1635 1638 1641 1644 1647 1650 1653 1656 1659 1662 1665 1668 1671 1674 1677 1680 1683 1686 1689 1692 1695 1698 1701 1704 1707 1710 1713 1716 1719 1722 1725 1728 1731 1734 1737 1740 1743 1746 1749 1752 1755 1758 1761 1764 1767 1770 1773 1776 1779 1782 1785 1788 1791 1794 1797 1800 1803 1806 1809 1812 1815 1818 1821 1824 1827 1830 1833 1836 1839 1842 1845 1848 1851 1854 1857 1860 1863 1866 1869 1872 1875 1878 1881 1884 1887 1890 1893 1896 1899 1902 1905 1908 1911 1914 1917 1920 1923 1926 1929 1932 1935 1938 1941 1944 1947 1950 1953 1956 1959 1962 1965 1968 1971 1974 1977 1980 1983 1986 1989 1992 1995 1998 2001 2004 2007 2010 2013 2016 2019 2022 2025 2028 2031 2034 2037 2040 2043 2046 2049 2052 2055 2058 2061 2064 2067 2070 2073 2076 2079 2082 2085 2088 2091 2094 2097 2100 2103 2106 2109 2112 2115 2118 2121 2124 2127 2130 2133 2136 2139 2142 2145 2148 2151 2154 2157 2160 2163 2166 2169 2172 2175 2178 2181 2184 2187 2190 2193 2196 2199 2202 2205 2208 2211 2214 2217 2220 2223 2226 2229 2232 2235 2238 2241 2244 2247 2250 2253 2256 2259 2262 2265 2268 2271 2274 2277 2280 2283 2286 2289 2292 2295 2298 2301 2304 2307 2310 2313 2316 2319 2322 2325 2328 2331 2334 2337 2340 2343 2346 2349 2352 2355 2358 2361 2364 2367 2370 2373 2376 2379 2382 2385 2388 2391 2394 2397 2400 2403 2406 2409 2412 2415 2418 2421 2424 2427 2430 2433 2436 2439 2442 2445 2448 2451 2454 2457 2460 2463 2466 2469 2472 2475 2478 2481 2484 2487 2490 2493 2496 2499 2502 2505 2508 2511 2514 2517 2520 2523 2526 2529 2532 2535 2538 2541 2544 2547 2550 2553 2556 2559 2562 2565 2568 2571 2574 2577 2580 2583 2586 2589 2592 2595 2598 2601 2604 2607 2610 2613 2616 2619 2622 2625 2628 2631 2634 2637 2640 2643 2646 2649 2652 2655 2658 2661 2664 2667 2670 2673 2676 2679 2682 2685 2688 2691 2694 2697 2700 2703 2706 2709 2712 2715 2718 2721 2724 2727 2730 2733 2736 2739 2742 2745 2748 2751 2754 2757 2760 2763 2766 2769 2772 2775 2778 2781 2784 2787 2790 2793 2796 2799 2802 2805 2808 2811 2814 2817 2820 2823 2826 2829 2832 2835 2838 2841 2844 2847 2850 2853 2856 2859 2862 2865 2868 2871 2874 2877 2880 2883 2886 2889 2892 2895 2898 2901 2904 2907 2910 2913 2916 2919 2922 2925 2928 2931 2934 2937 2940 2943 2946 2949 2952 2955 2958 2961 2964 2967 2970 2973 2976 2979 2982 2985 2988 2991 2994 2997 3000 3003 3006 3009 3012 3015 3018 3021 3024 3027 3030 3033 3036 3039 3042 3045 3048 3051 3054 3057 3060 3063 3066 3069 3072 3075 3078 3081 3084 3087 3090 3093 3096 3099 3102 3105 3108 3111 3114 3117 3120 3123 3126 3129 3132 3135 3138 3141 3144 3147 3150 3153 3156 3159 3162 3165 3168 3171 3174 3177 3180 3183 3186 3189 3192 3195 3198 3201 3204 3207 3210 3213 3216 3219 3222 3225 3228 3231 3234 3237 3240 3243 3246 3249 3252 3255 3258 3261 3264 3267 3270 3273 3276 3279 3282 3285 3288 3291 3294 3297 3300 3303 3306 3309 3312 3315 3318 3321 3324 3327 3330 3333 3336 3339 3342 3345 3348 3351 3354 3357 3360 3363 3366 3369 3372 3375 3378 3381 3384 3387 3390 3393 3396 3399 3402 3405 3408 3411 3414 3417 3420 3423 3426 3429 3432 3435 3438 3441 3444 3447 3450 3453 3456 3459 3462 3465 3468 3471 3474 3477 3480 3483 3486 3489 3492 3495 3498 3501 3504 3507 3510 3513 3516 3519 3522 3525 3528 3531 3534 3537 3540 3543 3546 3549 3552 3555 3558 3561 3564 3567 3570 3573 3576 3579 3582 3585 3588 3591 3594 3597 3600 3603 3606 3609 3612 3615 3618 3621 3624 3627 3630 3633 3636 3639 3642 3645 3648 3651 3654 3657 3660 3663 3666 3669 3672 3675 3678 3681 3684 3687 3690 3693 3696 3699 3702 3705 3708 3711 3714 3717 3720 3723 3726 3729 3732 3735 3738 3741 3744 3747 3750 3753 3756 3759 3762 3765 3768 3771 3774 3777 3780 3783 3786 3789 3792 3795 3798 3801 3804 3807 3810 3813 3816 3819 3822 3825 3828 3831 3834 3837 3840 3843 3846 3849 3852 3855 3858 3861 3864 3867 3870 3873 3876 3879 3882 3885 3888 3891 3894 3897 3900 3903 3906 3909 3912 3915 3918 3921 3924 3927 3930 3933 3936 3939 3942 3945 3948 3951 3954 3957 3960 3963 3966 3969 3972 3975 3978 3981 3984 3987 3990 3993 3996 3999 4002 4005 4008 4011 4014 4017 4020 4023 4026 4029 4032 4035 4038 4041 4044 4047 4050 4053 4056 4059 4062 4065 4068 4071 4074 4077 4080 4083 4086 4089 4092 4095 4098 4101 4104 4107 4110 4113 4116 4119 4122 4125 4128 4131 4134 4137 4140 4143 4146 4149 4152 4155 4158 4161 4164 4167 4170 4173 4176 4179 4182 4185 4188 4191 4194 4197 4200 4203 4206 4209 4212 4215 4218 4221 4224 4227 4230 4233 4236 4239 4242 4245 4248 4251 4254 4257 4260 4263 4266 4269 4272 4275 4278 4281 4284 4287 4290 4293 4296 4299 4302 4305 4308 4311 4314 4317 4320 4323 4326 4329 4332 4335 4338 4341 4344 4347 4350 4353 4356 4359 4362 4365 4368 4371 4374 4377 4380 4383 4386 4389 4392 4395 4398 4401 4404 4407 4410 4413 4416 4419 4422 4425 4428 4431 4434 4437 4440 4443 4446 4449 4452 4455 4458 4461 4464 4467 4470 4473 4476 4479 4482 4485 4488 4491 4494 4497 4500 4503 4506 4509 4512 4515 4518 4521 4524 4527 4530 4533 4536 4539 4542 4545 4548 4551 4554 4557 4560 4563 4566 4569 4572 4575 4578 4581 4584 4587 4590 4593 4596 4599 4602 4605 4608 4611 4614 4617 4620 4623 4626 4629 4632 4635 4638 4641 4644 4647 4650 4653 4656 4659 4662 4665 4668 4671 4674 4677 4680 4683 4686 4689 4692 4695 4698 4701 4704 4707 4710 4713 4716 4719 4722 4725 4728 4731 4734 4737 4740 4743 4746 4749 4752 4755 4758 4761 4764 4767 4770 4773 4776 4779 4782 4785 4788 4791 4794 4797 4800 4803 4806 4809 4812 4815 4818 4821 4824 4827 4830 4833 4836 4839 4842 4845 4848 4851 4854 4857 4860 4863 4866 4869 4872 4875 4878 4881 4884 4887 4890 4893 4896 4899 4902 4905 4908 4911 4914 4917 4920 4923 4926 4929 4932 4935 4938 4941 4944 4947 4950 4953 4956 4959 4962 4965 4968 4971 4974 4977 4980 4983 4986 4989 4992 4995 4998 5001 5004 5007 5010 5013 5016 5019 5022 5025 5028 5031 5034 5037 5040 5043 5046 5049 5052 5055 5058 5061 5064 5067 5070 5073 5076 5079 5082 5085 5088 5091 5094 5097 5100 5103 5106 5109 5112 5115 5118 5121 5124 5127 5130 5133 5136 5139 5142 5145 5148 5151 5154 5157 5160 5163 5166 5169 5172 5175 5178 5181 5184 5187 5190 5193 5196 5199 5202 5205 5208 5211 5214 5217 5220 5223 5226 5229 5232 5235 5238 5241 5244 5247 5250 5253 5256 5259 5262 5265 5268 5271 5274 5277 5280 5283 5286 5289 5292 5295 5298 5301 5304 5307 5310 5313 5316 5319 5322 5325 5328 5331 5334 5337 5340 5343 5346 5349 5352 5355 5358 5361 5364 5367 5370 5373 5376 5379 5382 5385 5388 5391 5394 5397 5400 5403 5406 5409 5412 5415 5418 5421 5424 5427 5430 5433 5436 5439 5442 5445 5448 5451 5454 5457 5460 5463 5466 5469 5472 5475 5478 5481 5484 5487 5490 5493 5496 5499 5502 5505 5508 5511 5514 5517 5520 5523 5526 5529 5532 5535 5538 5541 5544 5547 5550 5553 5556 5559 5562 5565 5568 5571 5574 5577 5580 5583 5586 5589 5592 5595 5598 5601 5604 5607 5610 5613 5616 5619 5622 5625 5628 5631 5634 5637 5640 5643 5646 5649 5652 5655 5658 5661 5664 5667 5670 5673 5676 5679 5682 5685 5688 5691 5694 5697 5700 5703 5706 5709 5712 5715 5718 5721 5724 5727 5730 5733 5736 5739 5742 5745 5748 5751 5754 5757 5760 5763 5766 5769 5772 5775 5778 5781 5784 5787 5790 5793 5796 5799 5802 5805 5808 5811 5814 5817 5820 5823 5826 5829 5832 5835 5838 5841 5844 5847 5850 5853 5856 5859 5862 5865 5868 5871 5874 5877 5880 5883 5886 5889 5892 5895 5898 5901 5904 5907 5910 5913 5916 5919 5922 5925 5928 5931 5934 5937 5940 5943 5946 5949 5952 5955 5958 5961 5964 5967 5970 5973 5976 5979 5982 5985 5988 5991 5994 5997 6000 6003 6006 6009 6012 6015 6018 6021 6024 6027 6030 6033 6036 6039 6042 6045 6048 6051 6054 6057 6060 6063 6066 6069 6072 6075 6078 6081 6084 6087 6090 6093 6096 6099 6102 6105 6108 6111 6114 6117 6120 6123 6126 6129 6132 6135 6138 6141 6144 6147 6150 6153 6156 6159 6162 6165 6168 6171 6174 6177 6180 6183 6186 6189 6192 6195 6198 6201 6204 6207 6210 6213 6216 6219 6222 6225 6228 6231 6234 6237 6240 6243 6246 6249 6252 6255 6258 6261 6264 6267 6270 6273 6276 6279 6282 6285 6288 6291 6294 6297 6300 6303 6306 6309 6312 6315 6318 6321 6324 6327 6330 6333 6336 6339 6342 6345 6348 6351 6354 6357 6360 6363 6366 6369 6372 6375 6378 6381 6384 6387 6390 6393 6396 6399 6402 6405 6408 6411 6414 6417 6420 6423 6426 6429 6432 6435 6438 6441 6444 6447 6450 6453 6456 6459 6462 6465 6468 6471 6474 6477 6480 6483 6486 6489 6492 6495 6498 6501 6504 6507 6510 6513 6516 6519 6522 6525 6528 6531 6534 6537 6540 6543 6546 6549 6552 6555 6558 6561 6564 6567 6570 6573 6576 6579 6582 6585 6588 6591 6594 6597 6600 6603 6606 6609 6612 6615 6618 6621 6624 6627 6630 6633 6636 6639 6642 6645 6648 6651 6654 6657 6660 6663 6666 6669 6672 6675 6678 6681 6684 6687 6690 6693 6696 6699 6702 6705 6708 6711 6714 6717 6720 6723 6726 6729 6732 6735 6738 6741 6744 6747 6750 6753 6756 6759 6762 6765 6768 6771 6774 6777 6780 6783 6786 6789 6792 6795 6798 6801 6804 6807 6810 6813 6816 6819 6822 6825 6828 6831 6834 6837 6840 6843 6846 6849 6852 6855 6858 6861 6864 6867 6870 6873 6876 6879 6882 6885 6888 6891 6894 6897 6900 6903 6906 6909 6912 6915 6918 6921 6924 6927 6930 6933 6936 6939 6942 6945 6948 6951 6954 6957 6960 6963 6966 6969 6972 6975 6978 6981 6984 6987 6990 6993 6996 6999 7002 7005 7008 7011 7014 7017 7020 7023 7026 7029 7032 7035 7038 7041 7044 7047 7050 7053 7056 7059 7062 7065 7068 7071 7074 7077 7080 7083 7086 7089 7092 7095 7098 7101 7104 7107 7110 7113 7116 7119 7122 7125 7128 7131 7134 7137 7140 7143 7146 7149 7152 7155 7158 7161 7164 7167 7170 7173 7176 7179 7182 7185 7188 7191 7194 7197 7200 7203 7206 7209 7212 7215 7218 7221 7224 7227 7230 7233 7236 7239 7242 7245 7248 7251 7254 7257 7260 7263 7266 7269 7272 7275 7278 7281 7284 7287 7290 7293 7296 7299 7302 7305 7308 7311 7314 7317 7320 7323 7326 7329 7332 7335 7338 7341 7344 7347 7350 7353 7356 7359 7362 7365 7368 7371 7374 7377 7380 7383 7386 7389 7392 7395 7398 7401 7404 7407 7410 7413 7416 7419 7422 7425 7428 7431 7434 7437 7440 7443 7446 7449 7452 7455 7458 7461 7464 7467 7470 7473 7476 7479 7482 7485 7488 7491 7494 7497 7500 7503 7506 7509 7512 7515 7518 7521 7524 7527 7530 7533 7536 7539 7542 7545 7548 7551 7554 7557 7560 7563 7566 7569 7572 7575 7578 7581 7584 7587 7590 7593 7596 7599 7602 7605 7608 7611 7614 7617 7620 7623 7626 7629 7632 7635 7638 7641 7644 7647 7650 7653 7656 7659 7662 7665 7668 7671 7674 7677 7680 7683 7686 7689 7692 7695 7698 7701 7704 7707 7710 7713 7716 7719 7722 7725 7728 7731 7734 7737 7740 7743 7746 7749 7752 7755 7758 7761 7764 7767 7770 7773 7776 7779 7782 7785 7788 7791 7794 7797 7800 7803 7806 7809 7812 7815 7818 7821 7824 7827 7830 7833 7836 7839 7842 7845 7848 7851 7854 7857 7860 7863 7866 7869 7872 7875 7878 7881 7884 7887 7890 7893 7896 7899 7902 7905 7908 7911 7914 7917 7920 7923 7926 7929 7932 7935 7938 7941 7944 7947 7950 7953 7956 7959 7962 7965 7968 7971 7974 7977 7980 7983 7986 7989 7992 7995 7998 8001 8004 8007 8010 8013 8016 8019 8022 8025 8028 8031 8034 8037 8040 8043 8046 8049 8052 8055 8058 8061 8064 8067 8070 8073 8076 8079 8082 8085 8088 8091 8094 8097 8100 8103 8106 8109 8112 8115 8118 8121 8124 8127 8130 8133 8136 8139 8142 8145 8148 8151 8154 8157 8160 8163 8166 8169 8172 8175 8178 8181 8184 8187 8190 8193 8196 8199 8202 8205 8208 8211 8214 8217 8220 8223 8226 8229 8232 8235 8238 8241 8244 8247 8250 8253 8256 8259 8262 8265 8268 8271 8274 8277 8280 8283 8286 8289 8292 8295 8298 8301 8304 8307 8310 8313 8316 8319 8322 8325 8328 8331 8334 8337 8340 8343 8346 8349 8352 8355 8358 8361 8364 8367 8370 8373 8376 8379 8382 8385 8388 8391 8394 8397 8400 8403 8406 8409 8412 8415 8418 8421 8424 8427 8430 8433 8436 8439 8442 8445 8448 8451 8454 8457 8460 8463 8466 8469 8472 8475 8478 8481 8484 8487 8490 8493 8496 8499 8502 8505 8508 8511 8514 8517 8520 8523 8526 8529 8532 8535 8538 8541 8544 8547 8550 8553 8556 8559 8562 8565 8568 8571 8574 8577 8580 8583 8586 8589 8592 8595 8598 8601 8604 8607 8610 8613 8616 8619 8622 8625 8628 8631 8634 8637 8640 8643 8646 8649 8652 8655 8658 8661 8664 8667 8670 8673 8676 8679 8682 8685 8688 8691 8694 8697 8700 8703 8706 8709 8712 8715 8718 8721 8724 8727 8730 8733 8736 8739 8742 8745 8748 8751 8754 8757 8760 8763 8766 8769 8772 8775 8778 8781 8784 8787 8790 8793 8796 8799 8802 8805 8808 8811 8814 8817 8820 8823 8826 8829 8832 8835 8838 8841 8844 8847 8850 8853 8856 8859 8862 8865 8868 8871 8874 8877 8880 8883 8886 8889 8892 8895 8898 8901 8904 8907 8910 8913 8916 8919 8922 8925 8928 8931 8934 8937 8940 8943 8946 8949 8952 8955 8958 8961 8964 8967 8970 8973 8976 8979 8982 8985 8988 8991 8994 8997 9000 9003 9006 9009 9012 9015 9018 9021 9024 9027 9030 9033 9036 9039 9042 9045 9048 9051 9054 9057 9060 9063 9066 9069 9072 9075 9078 9081 9084 9087 9090 9093 9096 9099 9102 9105 9108 9111 9114 9117 9120 9123 9126 9129 9132 9135 9138 9141 9144 9147 9150 9153 9156 9159 9162 9165 9168 9171 9174 9177 9180 9183 9186 9189 9192 9195 9198 9201 9204 9207 9210 9213 9216 9219 9222 9225 9228 9231 9234 9237 9240 9243 9246 9249 9252 9255 9258 9261 9264 9267 9270 9273 9276 9279 9282 9285 9288 9291 9294 9297 9300 9303 9306 9309 9312 9315 9318 9321 9324 9327 9330 9333 9336 9339 9342 9345 9348 9351 9354 9357 9360 9363 9366 9369 9372 9375 9378 9381 9384 9387 9390 9393 9396 9399 9402 9405 9408 9411 9414 9417 9420 9423 9426 9429 9432 9435 9438 9441 9444 9447 9450 9453 9456 9459 9462 9465 9468 9471 9474 9477 9480 9483 9486 9489 9492 9495 9498 9501 9504 9507 9510 9513 9516 9519 9522 9525 9528 9531 9534 9537 9540 9543 9546 9549 9552 9555 9558 9561 9564 9567 9570 9573 9576 9579 9582 9585 9588 9591 9594 9597 9600 9603 9606 9609 9612 9615 9618 9621 9624 9627 9630 9633 9636 9639 9642 9645 9648 9651 9654 9657 9660 9663 9666 9669 9672 9675 9678 9681 9684 9687 9690 9693 9696 9699 9702 9705 9708 9711 9714 9717 9720 9723 9726 9729 9732 9735 9738 9741 9744 9747 9750 9753 9756 9759 9762 9765 9768 9771 9774 9777 9780 9783 9786 9789 9792 9795 9798 9801 9804 9807 9810 9813 9816 9819 9822 9825 9828 9831 9834 9837 9840 9843 9846 9849 9852 9855 9858 9861 9864 9867 9870 9873 9876 9879 9882 9885 9888 9891 9894 9897 9900 9903 9906 9909 9912 9915 9918 9921 9924 9927 9930 9933 9936 9939 9942 9945 9948 9951 9954 9957 9960 9963 9966 9969 9972 9975 9978 9981 9984 9987 9990 9993 9996 9999 10002 10005 10008 10011 10014 10017 10020 10023 10026 10029 10032 10035 10038 10041 10044 10047 10050 10053 10056 10059 10062 10065 10068 10071 10074 10077 10080 10083 10086 10089 10092 10095 10098 10101 10104 10107 10110 10113 10116 10119 10122 10125 10128 10131 10134 10137 10140 10143 10146 10149 10152 10155 10158 10161 10164 10167 10170 10173 10176 10179 10182 10185 10188 10191 10194 10197 10200 10203 10206 10209 10212 10215 10218 10221 10224 10227 10230 10233 10236 10239 10242 10245 10248 10251 10254 10257 10260 10263 10266 10269 10272 10275 10278 10281 10284 10287 10290 10293 10296 10299 10302 10305 10308 10311 10314 10317 10320 10323 10326 10329 10332 10335 10338 10341 10344 10347 10350 10353 10356 10359 10362 10365 10368 10371 10374 10377 10380 10383 10386 10389 10392 10395 10398 10401 10404 10407 10410 10413 10416 10419 10422 10425 10428 10431 10434 10437 10440 10443 10446 10449 10452 10455 10458 10461 10464 10467 10470 10473 10476 10479 10482 10485 10488 10491 10494 10497 10500 10503 10506 10509 10512 10515 10518 10521 10524 10527 10530 10533 10536 10539 10542 10545 10548 10551 10554 10557 10560 10563 10566 10569 10572 10575 10578 10581 10584 10587 10590 10593 10596 10599 10602 10605 10608 10611 10614 10617 10620 10623 10626 10629 10632 10635 10638 10641 10644 10647 10650 10653 10656 10659 10662 10665 10668 10671 10674 10677 10680 10683 10686 10689 10692 10695 10698 10701 10704 10707 10710 10713 10716 10719 10722 10725 10728 10731 10734 10737 10740 10743 10746 10749 10752 10755 10758 10761 10764 10767 10770 10773 10776 10779 10782 10785 10788 10791 10794 10797 10800 10803 10806 10809 10812 10815 10818 10821 10824 10827 10830 10833 10836 10839 10842 10845 10848 10851 10854 10857 10860 10863 10866 10869 10872 10875 10878 10881 10884 10887 10890 10893 10896 10899 10902 10905 10908 10911 10914 10917 10920 10923 10926 10929 10932 10935 10938 10941 10944 10947 10950 10953 10956 10959 10962 10965 10968 10971 10974 10977 10980 10983 10986 10989 10992 10995 10998 11001 11004 11007 11010 11013 11016 11019 11022 11025 11028 11031 11034 11037 11040 11043 11046 11049 11052 11055 11058 11061 11064 11067 11070 11073 11076 11079 11082 11085 11088 11091 11094 11097 11100 11103 11106 11109 11112 11115 11118 11121 11124 11127 11130 11133 11136 11139 11142 11145 11148 11151 11154 11157 11160 11163 11166 11169 11172 11175 11178 11181 11184 11187 11190 11193 11196 11199 11202 11205 11208 11211 11214 11217 11220 11223 11226 11229 11232 11235 11238 11241 11244 11247 11250 11253 11256 11259 11262 11265 11268 11271 11274 11277 11280 11283 11286 11289 11292 11295 11298 11301 11304 11307 11310 11313 11316 11319 11322 11325 11328 11331 11334 11337 11340 11343 11346 11349 11352 11355 11358 11361 11364 11367 11370 11373 11376 11379 11382 11385 11388 11391 11394 11397 11400 11403 11406 11409 11412 11415 11418 11421 11424 11427 11430 11433 11436 11439 11442 11445 11448 11451 11454 11457 11460 11463 11466 11469 11472 11475 11478 11481 11484 11487 11490 11493 11496 11499 11502 11505 11508 11511 11514 11517 11520 11523 11526 11529 11532 11535 11538 11541 11544 11547 11550 11553 11556 11559 11562 11565 11568 11571 11574 11577 11580 11583 11586 11589 11592 11595 11598 11601 11604 11607 11610 11613 11616 11619 11622 11625 11628 11631 11634 11637 11640 11643 11646 11649 11652 11655 11658 11661 11664 11667 11670 11673 11676 11679 11682 11685 11688 11691 11694 11697 11700 11703 11706 11709 11712 11715 11718 11721 11724 11727 11730 11733 11736 11739 11742 11745 11748 11751 11754 11757 11760 11763 11766 11769 11772 11775 11778 11781 11784 11787 11790 11793 11796 11799 11802 11805 11808 11811 11814 11817 11820 11823 11826 11829 11832 11835 11838 11841 11844 11847 11850 11853 11856 11859 11862 11865 11868 11871 11874 11877 11880 11883 11886 11889 11892 11895 11898 11901 11904 11907 11910 11913 11916 11919 11922 11925 11928 11931 11934 11937 11940 11943 11946 11949 11952 11955 11958 11961 11964 11967 11970 11973 11976 11979 11982 11985 11988 11991 11994 11997 12000 12003 12006 12009 12012 12015 12018 12021 12024 12027 12030 12033 12036 12039 12042 12045 12048 12051 12054 12057 12060 12063 12066 12069 12072 12075 12078 12081 12084 12087 12090 12093 12096 12099 12102 12105 12108 12111 12114 12117 12120 12123 12126 12129 12132 12135 12138 12141 12144 12147 12150 12153 12156 12159 12162 12165 12168 12171 12174 12177 12180 12183 12186 12189 12192 12195 12198 12201 12204 12207 12210 12213 12216 12219 12222 12225 12228 12231 12234 12237 12240 12243 12246 12249 12252 12255 12258 12261 12264 12267 12270 12273 12276 12279 12282 12285 12288 12291 12294 12297 12300 12303 12306 12309 12312 12315 12318 12321 12324 12327 12330 12333 12336 12339 12342 12345 12348 12351 12354 12357 12360 12363 12366 12369 12372 12375 12378 12381 12384 12387 12390 12393 12396 12399 12402 12405 12408 12411 12414 12417 12420 12423 12426 12429 12432 12435 12438 12441 12444 12447 12450 12453 12456 12459 12462 12465 12468 12471 12474 12477 12480 12483 12486 12489 12492 12495 12498 12501 12504 12507 12510 12513 12516 12519 12522 12525 12528 12531 12534 12537 12540 12543 12546 12549 12552 12555 12558 12561 12564 12567 12570 12573 12576 12579 12582 12585 12588 12591 12594 12597 12600 12603 12606 12609 12612 12615 12618 12621 12624 12627 12630 12633 12636 12639 12642 12645 12648 12651 12654 12657 12660 12663 12666 12669 12672 12675 12678 12681 12684 12687 12690 12693 12696 12699 12702 12705 12708 12711 12714 12717 12720 12723 12726 12729 12732 12735 12738 12741 12744 12747 12750 12753 12756 12759 12762 12765 12768 12771 12774 12777 12780 12783 12786 12789 12792 12795 12798 12801 12804 12807 12810 12813 12816 12819 12822 12825 12828 12831 12834 12837 12840 12843 12846 12849 12852 12855 12858 12861 12864 12867 12870 12873 12876 12879 12882 12885 12888 12891 12894 12897 12900 12903 12906 12909 12912 12915 12918 12921 12924 12927 12930 12933 12936 12939 12942 12945 12948 12951 12954 12957 12960 12963 12966 12969 12972 12975 12978 12981 12984 12987 12990 12993 12996 12999 13002 13005 13008 13011 13014 13017 13020 13023 13026 13029 13032 13035 13038 13041 13044 13047 13050 13053 13056 13059 13062 13065 13068 13071 13074 13077 13080 13083 13086 13089 13092 13095 13098 13101 13104 13107 13110 13113 13116 13119 13122 13125 13128 13131 13134 13137 13140 13143 13146 13149 13152 13155 13158 13161 13164 13167 13170 13173 13176 13179 13182 13185 13188 13191 13194 13197 13200 13203 13206 13209 13212 13215 13218 13221 13224 13227 13230 13233 13236 13239 13242 13245 13248 13251 13254 13257 13260 13263 13266 13269 13272 13275 13278 13281 13284 13287 13290 13293 13296 13299 13302 13305 13308 13311 13314 13317 13320 13323 13326 13329 13332 13335 13338 13341 13344 13347 13350 13353 13356 13359 13362 13365 13368 13371 13374 13377 13380 13383 13386 13389 13392 13395 13398 13401 13404 13407 13410 13413 13416 13419 13422 13425 13428 13431 13434 13437 13440 13443 13446 13449 13452 13455 13458 13461 13464 13467 13470 13473 13476 13479 13482 13485 13488 13491 13494 13497 13500 13503 13506 13509 13512 13515 13518 13521 13524 13527 13530 13533 13536 13539 13542 13545 13548 13551 13554 13557 13560 13563 13566 13569 13572 13575 13578 13581 13584 13587 13590 13593 13596 13599 13602 13605 13608 13611 13614 13617 13620 13623 13626 13629 13632 13635 13638 13641 13644 13647 13650 13653 13656 13659 13662 13665 13668 13671 13674 13677 13680 13683 13686 13689 13692 13695 13698 13701 13704 13707 13710 13713 13716 13719 13722 13725 13728 13731 13734 13737 13740 13743 13746 13749 13752 13755 13758 13761 13764 13767 13770 13773 13776 13779 13782 13785 13788 13791 13794 13797 13800 13803 13806 13809 13812 13815 13818 13821 13824 13827 13830 13833 13836 13839 13842 13845 13848 13851 13854 13857 13860 13863 13866 13869 13872 13875 13878 13881 13884 13887 13890 13893 13896 13899 13902 13905 13908 13911 13914 13917 13920 13923 13926 13929 13932 13935 13938 13941 13944 13947 13950 13953 13956 13959 13962 13965 13968 13971 13974 13977 13980 13983 13986 13989 13992 13995 13998 14001 14004 14007 14010 14013 14016 14019 14022 14025 14028 14031 14034 14037 14040 14043 14046 14049 14052 14055 14058 14061 14064 14067 14070 14073 14076 14079 14082 14085 14088 14091 14094 14097 14100 14103 14106 14109 14112 </DataArray>
            <DataArray Name="types" format="ascii" type="UInt8">5 5 5 5 5 5 5 5 5 5 5 5 5 5 5 5 5 5 5 5 5 5 5 5 5 5 5 5 5 5 5 5 5 5 5 5 5 5 5 5 5 5 5 5 5 5 5 5 5 5 5 5 5 5 5 5 5 5 5 5 5 5 5 5 5 5 5 5 5 5 5 5 5 5 5 5 5 5 5 5 5 5 5 5 5 5 5 5 5 5 5 5 5 5 5 5 5 5 5 5 5 5 5 5 5 5 5 5 5 5 5 5 5 5 5 5 5 5 5 5 5 5 5 5 5 5 5 5 5 5 5 5 5 5 5 5 5 5 5 5 5 5 5 5 5 5 5 5 5 5 5 5 5 5 5 5 5 5 5 5 5 5 5 5 5 5 5 5 5 5 5 5 5 5 5 5 5 5 5 5 5 5 5 5 5 5 5 5 5 5 5 5 5 5 5 5 5 5 5 5 5 5 5 5 5 5 5 5 5 5 5 5 5 5 5 5 5 5 5 5 5 5 5 5 5 5 5 5 5 5 5 5 5 5 5 5 5 5 5 5 5 5 5 5 5 5 5 5 5 5 5 5 5 5 5 5 5 5 5 5 5 5 5 5 5 5 5 5 5 5 5 5 5 5 5 5 5 5 5 5 5 5 5 5 5 5 5 5 5 5 5 5 5 5 5 5 5 5 5 5 5 5 5 5 5 5 5 5 5 5 5 5 5 5 5 5 5 5 5 5 5 5 5 5 5 5 5 5 5 5 5 5 5 5 5 5 5 5 5 5 5 5 5 5 5 5 5 5 5 5 5 5 5 5 5 5 5 5 5 5 5 5 5 5 5 5 5 5 5 5 5 5 5 5 5 5 5 5 5 5 5 5 5 5 5 5 5 5 5 5 5 5 5 5 5 5 5 5 5 5 5 5 5 5 5 5 5 5 5 5 5 5 5 5 5 5 5 5 5 5 5 5 5 5 5 5 5 5 5 5 5 5 5 5 5 5 5 5 5 5 5 5 5 5 5 5 5 5 5 5 5 5 5 5 5 5 5 5 5 5 5 5 5 5 5 5 5 5 5 5 5 5 5 5 5 5 5 5 5 5 5 5 5 5 5 5 5 5 5 5 5 5 5 5 5 5 5 5 5 5 5 5 5 5 5 5 5 5 5 5 5 5 5 5 5 5 5 5 5 5 5 5 5 5 5 5 5 5 5 5 5 5 5 5 5 5 5 5 5 5 5 5 5 5 5 5 5 5 5 5 5 5 5 5 5 5 5 5 5 5 5 5 5 5 5 5 5 5 5 5 5 5 5 5 5 5 5 5 5 5 5 5 5 5 5 5 5 5 5 5 5 5 5 5 5 5 5 5 5 5 5 5 5 5 5 5 5 5 5 5 5 5 5 5 5 5 5 5 5 5 5 5 5 5 5 5 5 5 5 5 5 5 5 5 5 5 5 5 5 5 5 5 5 5 5 5 5 5 5 5 5 5 5 5 5 5 5 5 5 5 5 5 5 5 5 5 5 5 5 5 5 5 5 5 5 5 5 5 5 5 5 5 5 5 5 5 5 5 5 5 5 5 5 5 5 5 5 5 5 5 5 5 5 5 5 5 5 5 5 5 5 5 5 5 5 5 5 5 5 5 5 5 5 5 5 5 5 5 5 5 5 5 5 5 5 5 5 5 5 5 5 5 5 5 5 5 5 5 5 5 5 5 5 5 5 5 5 5 5 5 5 5 5 5 5 5 5 5 5 5 5 5 5 5 5 5 5 5 5 5 5 5 5 5 5 5 5 5 5 5 5 5 5 5 5 5 5 5 5 5 5 5 5 5 5 5 5 5 5 5 5 5 5 5 5 5 5 5 5 5 5 5 5 5 5 5 5 5 5 5 5 5 5 5 5 5 5 5 5 5 5 5 5 5 5 5 5 5 5 5 5 5 5 5 5 5 5 5 5 5 5 5 5 5 5 5 5 5 5 5 5 5 5 5 5 5 5 5 5 5 5 5 5 5 5 5 5 5 5 5 5 5 5 5 5 5 5 5 5 5 5 5 5 5 5 5 5 5 5 5 5 5 5 5 5 5 5 5 5 5 5 5 5 5 5 5 5 5 5 5 5 5 5 5 5 5 5 5 5 5 5 5 5 5 5 5 5 5 5 5 5 5 5 5 5 5 5 5 5 5 5 5 5 5 5 5 5 5 5 5 5 5 5 5 5 5 5 5 5 5 5 5 5 5 5 5 5 5 5 5 5 5 5 5 5 5 5 5 5 5 5 5 5 5 5 5 5 5 5 5 5 5 5 5 5 5 5 5 5 5 5 5 5 5 5 5 5 5 5 5 5 5 5 5 5 5 5 5 5 5 5 5 5 5 5 5 5 5 5 5 5 5 5 5 5 5 5 5 5 5 5 5 5 5 5 5 5 5 5 5 5 5 5 5 5 5 5 5 5 5 5 5 5 5 5 5 5 5 5 5 5 5 5 5 5 5 5 5 5 5 5 5 5 5 5 5 5 5 5 5 5 5 5 5 5 5 5 5 5 5 5 5 5 5 5 5 5 5 5 5 5 5 5 5 5 5 5 5 5 5 5 5 5 5 5 5 5 5 5 5 5 5 5 5 5 5 5 5 5 5 5 5 5 5 5 5 5 5 5 5 5 5 5 5 5 5 5 5 5 5 5 5 5 5 5 5 5 5 5 5 5 5 5 5 5 5 5 5 5 5 5 5 5 5 5 5 5 5 5 5 5 5 5 5 5 5 5 5 5 5 5 5 5 5 5 5 5 5 5 5 5 5 5 5 5 5 5 5 5 5 5 5 5 5 5 5 5 5 5 5 5 5 5 5 5 5 5 5 5 5 5 5 5 5 5 5 5 5 5 5 5 5 5 5 5 5 5 5 5 5 5 5 5 5 5 5 5 5 5 5 5 5 5 5 5 5 5 5 5 5 5 5 5 5 5 5 5 5 5 5 5 5 5 5 5 5 5 5 5 5 5 5 5 5 5 5 5 5 5 5 5 5 5 5 5 5 5 5 5 5 5 5 5 5 5 5 5 5 5 5 5 5 5 5 5 5 5 5 5 5 5 5 5 5 5 5 5 5 5 5 5 5 5 5 5 5 5 5 5 5 5 5 5 5 5 5 5 5 5 5 5 5 5 5 5 5 5 5 5 5 5 5 5 5 5 5 5 5 5 5 5 5 5 5 5 5 5 5 5 5 5 5 5 5 5 5 5 5 5 5 5 5 5 5 5 5 5 5 5 5 5 5 5 5 5 5 5 5 5 5 5 5 5 5 5 5 5 5 5 5 5 5 5 5 5 5 5 5 5 5 5 5 5 5 5 5 5 5 5 5 5 5 5 5 5 5 5 5 5 5 5 5 5 5 5 5 5 5 5 5 5 5 5 5 5 5 5 5 5 5 5 5 5 5 5 5 5 5 5 5 5 5 5 5 5 5 5 5 5 5 5 5 5 5 5 5 5 5 5 5 5 5 5 5 5 5 5 5 5 5 5 5 5 5 5 5 5 5 5 5 5 5 5 5 5 5 5 5 5 5 5 5 5 5 5 5 5 5 5 5 5 5 5 5 5 5 5 5 5 5 5 5 5 5 5 5 5 5 5 5 5 5 5 5 5 5 5 5 5 5 5 5 5 5 5 5 5 5 5 5 5 5 5 5 5 5 5 5 5 5 5 5 5 5 5 5 5 5 5 5 5 5 5 5 5 5 5 5 5 5 5 5 5 5 5 5 5 5 5 5 5 5 5 5 5 5 5 5 5 5 5 5 5 5 5 5 5 5 5 5 5 5 5 5 5 5 5 5 5 5 5 5 5 5 5 5 5 5 5 5 5 5 5 5 5 5 5 5 5 5 5 5 5 5 5 5 5 5 5 5 5 5 5 5 5 5 5 5 5 5 5 5 5 5 5 5 5 5 5 5 5 5 5 5 5 5 5 5 5 5 5 5 5 5 5 5 5 5 5 5 5 5 5 5 5 5 5 5 5 5 5 5 5 5 5 5 5 5 5 5 5 5 5 5 5 5 5 5 5 5 5 5 5 5 5 5 5 5 5 5 5 5 5 5 5 5 5 5 5 5 5 5 5 5 5 5 5 5 5 5 5 5 5 5 5 5 5 5 5 5 5 5 5 5 5 5 5 5 5 5 5 5 5 5 5 5 5 5 5 5 5 5 5 5 5 5 5 5 5 5 5 5 5 5 5 5 5 5 5 5 5 5 5 5 5 5 5 5 5 5 5 5 5 5 5 5 5 5 5 5 5 5 5 5 5 5 5 5 5 5 5 5 5 5 5 5 5 5 5 5 5 5 5 5 5 5 5 5 5 5 5 5 5 5 5 5 5 5 5 5 5 5 5 5 5 5 5 5 5 5 5 5 5 5 5 5 5 5 5 5 5 5 5 5 5 5 5 5 5 5 5 5 5 5 5 5 5 5 5 5 5 5 5 5 5 5 5 5 5 5 5 5 5 5 5 5 5 5 5 5 5 5 5 5 5 5 5 5 5 5 5 5 5 5 5 5 5 5 5 5 5 5 5 5 5 5 5 5 5 5 5 5 5 5 5 5 5 5 5 5 5 5 5 5 5 5 5 5 5 5 5 5 5 5 5 5 5 5 5 5 5 5 5 5 5 5 5 5 5 5 5 5 5 5 5 5 5 5 5 5 5 5 5 5 5 5 5 5 5 5 5 5 5 5 5 5 5 5 5 5 5 5 5 5 5 5 5 5 5 5 5 5 5 5 5 5 5 5 5 5 5 5 5 5 5 5 5 5 5 5 5 5 5 5 5 5 5 5 5 5 5 5 5 5 5 5 5 5 5 5 5 5 5 5 5 5 5 5 5 5 5 5 5 5 5 5 5 5 5 5 5 5 5 5 5 5 5 5 5 5 5 5 5 5 5 5 5 5 5 5 5 5 5 5 5 5 5 5 5 5 5 5 5 5 5 5 5 5 5 5 5 5 5 5 5 5 5 5 5 5 5 5 5 5 5 5 5 5 5 5 5 5 5 5 5 5 5 5 5 5 5 5 5 5 5 5 5 5 5 5 5 5 5 5 5 5 5 5 5 5 5 5 5 5 5 5 5 5 5 5 5 5 5 5 5 5 5 5 5 5 5 5 5 5 5 5 5 5 5 5 5 5 5 5 5 5 5 5 5 5 5 5 5 5 5 5 5 5 5 5 5 5 5 5 5 5 5 5 5 5 5 5 5 5 5 5 5 5 5 5 5 5 5 5 5 5 5 5 5 5 5 5 5 5 5 5 5 5 5 5 5 5 5 5 5 5 5 5 5 5 5 5 5 5 5 5 5 5 5 5 5 5 5 5 5 5 5 5 5 5 5 5 5 5 5 5 5 5 5 5 5 5 5 5 5 5 5 5 5 5 5 5 5 5 5 5 5 5 5 5 5 5 5 5 5 5 5 5 5 5 5 5 5 5 5 5 5 5 5 5 5 5 5 5 5 5 5 5 5 5 5 5 5 5 5 5 5 5 5 5 5 5 5 5 5 5 5 5 5 5 5 5 5 5 5 5 5 5 5 5 5 5 5 5 5 5 5 5 5 5 5 5 5 5 5 5 5 5 5 5 5 5 5 5 5 5 5 5 5 5 5 5 5 5 5 5 5 5 5 5 5 5 5 5 5 5 5 5 5 5 5 5 5 5 5 5 5 5 5 5 5 5 5 5 5 5 5 5 5 5 5 5 5 5 5 5 5 5 5 5 5 5 5 5 5 5 5 5 5 5 5 5 5 5 5 5 5 5 5 5 5 5 5 5 5 5 5 5 5 5 5 5 5 5 5 5 5 5 5 5 5 5 5 5 5 5 5 5 5 5 5 5 5 5 5 5 5 5 5 5 5 5 5 5 5 5 5 5 5 5 5 5 5 5 5 5 5 5 5 5 5 5 5 5 5 5 5 5 5 5 5 5 5 5 5 5 5 5 5 5 5 5 5 5 5 5 5 5 5 5 5 5 5 5 5 5 5 5 5 5 5 5 5 5 5 5 5 5 5 5 5 5 5 5 5 5 5 5 5 5 5 5 5 5 5 5 5 5 5 5 5 5 5 5 5 5 5 5 5 5 5 5 5 5 5 5 5 5 5 5 5 5 5 5 5 5 5 5 5 5 5 5 5 5 5 5 5 5 5 5 5 5 5 5 5 5 5 5 5 5 5 5 5 5 5 5 5 5 5 5 5 5 5 5 5 5 5 5 5 5 5 5 5 5 5 5 5 5 5 5 5 5 5 5 5 5 5 5 5 5 5 5 5 5 5 5 5 5 5 5 5 5 5 5 5 5 5 5 5 5 5 5 5 5 5 5 5 5 5 5 5 5 5 5 5 5 5 5 5 5 5 5 5 5 5 5 5 5 5 5 5 5 5 5 5 5 5 5 5 5 5 5 5 5 5 5 5 5 5 5 5 5 5 5 5 5 5 5 5 5 5 5 5 5 5 5 5 5 5 5 5 5 5 5 5 5 5 5 5 5 5 5 5 5 5 5 5 5 5 5 5 5 5 5 5 5 5 5 5 5 5 5 5 5 5 5 5 5 5 5 5 5 5 5 5 5 5 5 5 5 5 5 5 5 5 5 5 5 5 5 5 5 5 5 5 5 5 5 5 5 5 5 5 5 5 5 5 5 5 5 5 5 5 5 5 5 5 5 5 5 5 5 5 5 5 5 5 5 5 5 5 5 5 5 5 5 5 5 5 5 5 5 5 5 5 5 5 5 5 5 5 5 5 5 5 5 5 5 5 5 5 5 5 5 5 5 5 5 5 5 5 5 5 5 5 5 5 5 5 5 5 5 5 5 5 5 5 5 5 5 5 5 5 5 5 5 5 5 5 5 5 5 5 5 5 5 5 5 5 5 5 5 5 5 5 5 5 5 5 5 5 5 5 5 5 5 5 5 5 5 5 5 5 5 5 5 5 5 5 5 5 5 5 5 5 5 5 5 5 5 5 5 5 5 5 5 5 5 5 5 5 5 5 5 5 5 5 5 5 5 5 5 5 5 5 5 5 5 5 5 5 5 5 5 5 5 5 5 5 5 5 5 5 5 5 5 5 5 5 5 5 5 5 5 5 5 5 5 5 5 5 5 5 5 5 5 5 5 5 5 5 5 5 5 5 5 5 5 5 5 5 5 5 5 5 5 5 5 5 5 5 5 5 5 5 5 5 5 5 5 5 5 5 5 5 5 5 5 5 5 5 5 5 5 5 5 5 5 5 5 5 5 5 5 5 5 5 5 5 5 5 5 5 5 5 5 5 5 5 5 5 5 5 5 5 5 5 5 5 5 5 5 5 5 5 5 5 5 5 5 5 5 5 5 5 5 5 5 5 5 5 5 5 5 5 5 5 5 5 5 5 5 5 5 5 5 5 5 5 5 5 5 5 5 5 5 5 5 5 5 5 5 5 5 5 5 5 5 5 5 5 5 5 5 5 5 5 5 5 5 5 5 5 5 5 5 5 5 5 5 5 5 5 5 5 5 5 5 5 5 5 5 5 5 5 5 5 5 5 5 5 5 5 5 5 5 5 5 5 5 5 5 5 5 5 5 5 5 5 5 5 5 5 5 5 5 5 5 5 5 5 5 5 5 5 5 5 5 5 5 5 5 5 5 5 5 5 5 5 5 5 5 5 5 5 5 5 5 5 5 5 5 5 5 5 5 5 5 5 5 5 5 5 5 5 5 5 5 5 5 5 5 5 5 5 5 5 5 5 5 5 5 5 5 5 5 5 5 5 5 5 5 5 5 5 5 5 5 5 5 5 5 5 5 5 5 5 5 5 5 5 5 5 5 5 5 5 5 5 5 5 5 5 5 5 5 5 5 5 5 5 5 5 5 5 5 5 5 5 5 5 5 5 5 5 5 5 5 5 5 5 5 5 5 5 5 5 5 5 5 5 5 5 5 5 5 5 5 5 5 5 5 5 5 5 5 5 5 5 5 5 5 5 5 5 5 5 5 5 5 5 5 5 5 5 5 5 5 5 5 5 5 5 5 5 5 5 5 5 5 5 5 5 5 5 5 5 5 5 5 5 5 5 5 5 5 5 5 5 5 5 5 5 5 5 5 5 5 5 5 5 5 5 5 5 5 5 5 5 5 5 5 5 5 5 5 5 5 5 5 5 5 5 5 5 5 5 5 5 5 5 5 5 5 5 5 5 5 5 5 5 5 5 5 5 5 5 5 5 5 5 5 5 5 5 5 5 5 5 5 5 5 5 5 5 5 5 5 5 5 5 5 5 5 5 5 5 5 5 5 5 5 5 5 5 5 5 5 5 5 5 5 5 5 5 5 5 5 5 5 5 5 5 5 5 5 5 5 5 5 5 5 5 5 5 5 5 5 5 5 5 5 5 5 5 5 5 5 5 5 5 5 5 5 5 5 5 5 5 5 5 5 5 5 5 5 5 5 5 5 5 5 5 5 5 5 5 5 5 5 5 5 5 5 5 5 5 5 5 5 5 5 5 5 5 5 5 5 5 5 5 5 5 5 5 5 5 5 5 5 5 5 5 5 5 5 5 5 5 5 5 5 5 5 5 5 5 5 5 5 5 5 5 5 5 5 5 5 5 5 5 5 5 5 5 5 5 5 5 5 5 5 5 5 5 5 5 5 5 5 5 5 5 5 5 5 5 5 5 5 5 5 5 5 5 5 5 5 5 5 5 5 5 5 5 5 5 5 5 5 5 5 5 5 5 5 5 5 5 5 5 5 5 5 5 5 5 5 5 5 5 5 5 5 5 5 5 5 5 5 5 5 5 5 5 5 5 5 5 5 5 5 5 5 5 5 5 5 5 5 5 5 5 5 5 5 5 5 5 5 5 5 5 5 5 5 5 5 5 5 5 5 5 5 5 5 5 5 5 5 5 5 5 5 5 5 5 5 5 5 5 5 5 5 5 5 5 5 5 5 5 5 5 5 5 5 5 5 5 5 5 5 5 5 5 5 5 5 5 5 5 5 5 5 5 5 5 5 5 5 5 5 5 5 5 5 5 5 5 5 5 5 5 5 5 5 5 5 5 5 5 5 5 5 5 5 5 5 5 5 5 5 5 5 5 5 5 5 5 5 5 5 5 5 5 5 5 5 5 5 5 5 5 5 5 5 5 5 5 5 5 5 5 5 5 5 5 5 5 5 5 5 5 5 5 5 5 5 5 5 5 5 5 5 5 5 5 5 5 5 5 5 5 5 5 5 5 5 5 5 5 5 5 5 5 5 5 5 5 5 5 5 5 5 5 5 5 5 5 5 5 5 5 5 5 5 5 5 5 5 5 5 5 5 5 5 5 5 5 5 5 5 5 5 5 5 5 5 5 5 5 5 5 5 5 5 5 5 5 5 5 5 5 5 5 5 5 5 5 5 5 5 5 5 5 5 5 5 5 5 5 5 5 5 5 5 5 5 5 5 5 5 5 5 5 5 5 5 5 5 5 5 5 5 5 5 5 5 5 5 5 5 5 5 5 5 5 5 5 5 5 5 5 5 5 5 5 5 5 5 5 5 5 5 5 5 5 5 5 5 5 5 5 5 5 5 5 5 5 5 5 5 5 5 5 5 5 5 5 5 5 5 5 5 5 5 5 5 5 5 5 5 5 5 5 5 5 5 5 5 5 5 5 5 5 5 5 5 5 5 5 5 5 5 5 5 5 5 5 5 5 5 5 5 5 5 5 5 5 5 5 5 5 5 5 5 5 5 5 5 5 5 5 5 5 5 5 5 5 5 5 5 5 5 5 5 5 5 5 5 5 5 5 5 5 5 5 5 5 5 5 5 5 5 5 5 5 5 5 5 5 5 5 5 5 5 5 5 5 5 5 5 5 5 5 5 5 5 5 5 5 5 5 5 5 5 5 5 5 5 5 5 5 5 5 5 5 5 5 5 5 5 5 5 5 5 5 5 5 5 5 5 5 5 5 5 5 5 5 5 5 5 5 5 5 5 5 5 5 5 5 5 5 5 5 5 5 5 5 5 5 5 5 5 5 5 5 5 5 5 5 5 5 5 5 5 5 5 5 5 5 5 5 5 5 5 5 5 5 5 5 5 5 5 5 5 5 5 5 5 5 5 5 5 5 5 5 5 5 5 5 5 5 5 5 5 5 5 5 5 5 5 5 5 5 5 5 5 5 5 5 5 5 5 5 5 5 5 5 5 5 5 5 5 5 5 5 5 5 5 5 5 5 5 5 5 5 5 5 5 5 5 5 5 5 5 5 5 5 5 5 5 5 5 5 5 5 5 5 5 5 5 5 5 5 5 5 5 5 5 5 5 5 5 5 5 5 5 5 5 5 5 5 5 5 5 5 5 5 5 5 5 5 5 5 5 5 5 5 5 5 5 5 5 5 5 5 5 5 5 5 5 5 5 5 5 5 5 5 5 5 5 5 5 5 5 5 5 5 5 5 5 5 5 5 5 5 5 5 5 5 5 5 5 5 5 5 5 5 5 5 5 5 5 5 5 5 5 5 5 5 5 5 5 5 5 5 5 5 5 5 5 5 5 5 5 5 5 5 5 5 5 5 5 5 5 5 5 5 5 5 5 5 5 5 5 5 5 5 5 5 5 5 5 5 5 5 5 5 5 5 5 5 5 </DataArray>
         </Cells>
         <PointData>
            <DataArray Name="displacement" NumberOfComponents="2" format="ascii" type="Float64">
 6.25048e+13  3.00040e+00 
 5.88634e+13  8.54851e+00 
 5.52220e+13  1.35096e+01 
 5.15806e+13  1.67002e+01 
 4.79392e+13  1.89535e+01 
 4.42979e+13  2.06817e+01 
 4.06565e+13  2.21045e+01 
 3.70151e+13  2.32997e+01 
 3.33737e+13  2.43091e+01 
 2.97323e+13  2.51730e+01 
 2.60909e+13  2.59296e+01 
 2.24495e+13  2.65551e+01 
 1.88081e+13  2.70757e+01 
 1.51667e+13  2.75034e+01 
 1.15253e+13  2.78430e+01 
 7.88393e+12  2.81132e+01 
 4.24254e+12  2.83134e+01 
 6.01148e+11  2.84633e+01 
-3.04024e+12  2.85653e+01 
-6.68164e+12  2.86259e+01 
-1.03230e+13  2.86543e+01 
-1.39644e+13  2.86739e+01 
-1.76058e+13  2.86839e+01 
-2.12472e+13  2.86847e+01 
-2.48886e+13  2.86867e+01 
 6.25048e+13  3.56708e+12 
 5.88634e+13  3.56708e+12 
 5.52220e+13  3.56708e+12 
 5.15806e+13  3.56708e+12 
 4.79392e+13  3.56708e+12 
 4.42979e+13  3.56708e+12 
 4.06565e+13  3.56708e+12 
 3.70151e+13  3.56708e+12 
 3.33737e+13  3.56708e+12 
 2.97323e+13  3.56708e+12 
 2.60909e+13  3.56708e+12 
 2.24495e+13  3.56708e+12 
 1.88081e+13  3.56708e+12 
 1.51667e+13  3.56708e+12 
 1.15253e+13  3.56708e+12 
 7.88393e+12  3.56708e+12 
 4.24254e+12  3.56708e+12 
 6.01148e+11  3.56708e+12 
-3.04024e+12  3.56708e+12 
-6.68164e+12  3.56708e+12 
-1.03230e+13  3.56708e+12 
-1.39644e+13  3.56708e+12 
-1.76058e+13  3.56708e+12 
-2.12472e+13  3.56708e+12 
-2.48886e+13  3.56708e+12 
 6.25048e+13  7.13416e+12 
 5.88634e+13  7.13416e+12 
 5.52220e+13  7.13416e+12 
 5.15806e+13  7.13416e+12 
 4.79392e+13  7.13416e+12 
 4.42979e+13  7.13416e+12 
 4.06565e+13  7.13416e+12 
 3.70151e+13  7.13416e+12 
 3.33737e+13  7.13416e+12 
 2.97323e+13  7.13416e+12 
 2.60909e+13  7.13416e+12 
 2.24495e+13  7.13416e+12 
 1.88081e+13  7.13416e+12 
 1.51667e+13  7.13416e+12 
 1.15253e+13  7.13416e+12 
 7.88393e+12  7.13416e+12 
 4.24254e+12  7.13416e+12 
 6.01148e+11  7.13416e+12 
-3.04024e+12  7.13416e+12 
-6.68164e+12  7.13416e+12 
-1.03230e+13  7.13416e+12 
-1.39644e+13  7.13416e+12 
-1.76058e+13  7.13416e+12 
-2.12472e+13  7.13416e+12 
-2.48886e+13  7.13416e+12 
 6.25048e+13  1.07012e+13 
 5.88634e+13  1.07012e+13 
 5.52220e+13  1.07012e+13 
 5.15806e+13  1.07012e+13 
 4.79392e+13  1.07012e+13 
 4.42979e+13  1.07012e+13 
 4.06565e+13  1.07012e+13 
 3.70151e+13  1.07012e+13 
 3.33737e+13  1.07012e+13 
 2.97323e+13  1.07012e+13 
 2.60909e+13  1.07012e+13 
 2.24495e+13  1.07012e+13 
 1.88081e+13  1.07012e+13 
 1.51667e+13  1.07012e+13 
 1.15253e+13  1.07012e+13 
 7.88393e+12  1.07012e+13 
 4.24254e+12  1.07012e+13 
 6.01148e+11  1.07012e+13 
-3.04024e+12  1.07012e+13 
-6.68164e+12  1.07012e+13 
-1.03230e+13  1.07012e+13 
-1.39644e+13  1.07012e+13 
-1.76058e+13  1.07012e+13 
-2.12472e+13  1.07012e+13 
-2.48886e+13  1.07012e+13 
 6.25048e+13  1.42683e+13 
 5.88634e+13  1.42683e+13 
 5.52220e+13  1.42683e+13 
 5.15806e+13  1.42683e+13 
 4.79392e+13  1.42683e+13 
 4.42979e+13  1.42683e+13 
 4.06565e+13  1.42683e+13 
 3.70151e+13  1.42683e+13 
 3.33737e+13  1.42683e+13 
 2.97323e+13  1.42683e+13 
 2.60909e+13  1.42683e+13 
 2.24495e+13  1.42683e+13 
 1.88081e+13  1.42683e+13 
 1.51667e+13  1.42683e+13 
 1.15253e+13  1.42683e+13 
 7.88393e+12  1.42683e+13 
 4.24254e+12  1.42683e+13 
 6.01148e+11  1.42683e+13 
-3.04024e+12  1.42683e+13 
-6.68164e+12  1.42683e+13 
-1.03230e+13  1.42683e+13 
-1.39644e+13  1.42683e+13 
-1.76058e+13  1.42683e+13 
-2.12472e+13  1.42683e+13 
-2.48886e+13  1.42683e+13 
 6.25048e+13  1.78354e+13 
 5.88634e+13  1.78354e+13 
 5.52220e+13  1.78354e+13 
 5.15806e+13  1.78354e+13 
 4.79392e+13  1.78354e+13 
 4.42979e+13  1.78354e+13 
 4.06565e+13  1.78354e+13 
 3.70151e+13  1.78354e+13 
 3.33737e+13  1.78354e+13 
 2.97323e+13  1.78354e+13 
 2.60909e+13  1.78354e+13 
 2.24495e+13  1.78354e+13 
 1.88081e+13  1.78354e+13 
 1.51667e+13  1.78354e+13 
 1.15253e+13  1.78354e+13 
 7.88393e+12  1.78354e+13 
 4.24254e+12  1.78354e+13 
 6.01148e+11  1.78354e+13 
-3.04024e+12  1.78354e+13 
-6.68164e+12  1.78354e+13 
-1.03230e+13  1.78354e+13 
-1.39644e+13  1.78354e+13 
-1.76058e+13  1.78354e+13 
-2.12472e+13  1.78354e+13 
-2.48886e+13  1.78354e+13 
 6.25048e+13  2.14025e+13 
 5.88634e+13  2.14025e+13 
 5.52220e+13  2.14025e+13 
 5.15806e+13  2.14025e+13 
 4.79392e+13  2.14025e+13 
 4.42979e+13  2.14025e+13 
 4.06565e+13  2.14025e+13 
 3.70151e+13  2.14025e+13 
 3.33737e+13  2.14025e+13 
 2.97323e+13  2.14025e+13 
 2.60909e+13  2.14025e+13 
 2.24495e+13  2.14025e+13 
 1.88081e+13  2.14025e+13 
 1.51667e+13  2.14025e+13 
 1.15253e+13  2.14025e+13 
 7.88393e+12  2.14025e+13 
 4.24254e+12  2.14025e+13 
 6.01148e+11  2.14025e+13 
-3.04024e+12  2.14025e+13 
-6.68164e+12  2.14025e+13 
-1.03230e+13  2.14025e+13 
-1.39644e+13  2.14025e+13 
-1.76058e+13  2.14025e+13 
-2.12472e+13  2.14025e+13 
-2.48886e+13  2.14025e+13 
 6.25048e+13  2.49695e+13 
 5.88634e+13  2.49695e+13 
 5.52220e+13  2.49695e+13 
 5.15806e+13  2.49695e+13 
 4.79392e+13  2.49695e+13 
 4.42979e+13  2.49695e+13 
 4.06565e+13  2.49695e+13 
 3.70151e+13  2.49695e+13 
 3.33737e+13  2.49695e+13 
 2.97323e+13  2.49695e+13 
 2.60909e+13  2.49695e+13 
 2.24495e+13  2.49695e+13 
 1.88081e+13  2.49695e+13 
 1.51667e+13  2.49695e+13 
 1.15253e+13  2.49695e+13 
 7.88393e+12  2.49695e+13 
 4.24254e+12  2.49695e+13 
 6.01148e+11  2.49695e+13 
-3.04024e+12  2.49695e+13 
-6.68164e+12  2.49695e+13 
-1.03230e+13  2.49695e+13 
-1.39644e+13  2.49695e+13 
-1.76058e+13  2.49695e+13 
-2.12472e+13  2.49695e+13 
-2.48886e+13  2.49695e+13 
 6.25048e+13  2.85366e+13 
 5.88634e+13  2.85366e+13 
 5.52220e+13  2.85366e+13 
 5.15806e+13  2.85366e+13 
 4.79392e+13  2.85366e+13 
 4.42979e+13  2.85366e+13 
 4.06565e+13  2.85366e+13 
 3.70151e+13  2.85366e+13 
 3.33737e+13  2.85366e+13 
 2.97323e+13  2.85366e+13 
 2.60909e+13  2.85366e+13 
 2.24495e+13  2.85366e+13 
 1.88081e+13  2.85366e+13 
 1.51667e+13  2.85366e+13 
 1.15253e+13  2.85366e+13 
 7.88393e+12  2.85366e+13 
 4.24254e+12  2.85366e+13 
 6.01148e+11  2.85366e+13 
-3.04024e+12  2.85366e+13 
-6.68164e+12  2.85366e+13 
-1.03230e+13  2.85366e+13 
-1.39644e+13  2.85366e+13 
-1.76058e+13  2.85366e+13 
-2.12472e+13  2.85366e+13 
-2.48886e+13  2.85366e+13 
 6.25048e+13  3.21037e+13 
 5.88634e+13  3.21037e+13 
 5.52220e+13  3.21037e+13 
 5.15806e+13  3.21037e+13 
 4.79392e+13  3.21037e+13 
 4.42979e+13  3.21037e+13 
 4.06565e+13  3.21037e+13 
 3.70151e+13  3.21037e+13 
 3.33737e+13  3.21037e+13 
 2.97323e+13  3.21037e+13 
 2.60909e+13  3.21037e+13 
 2.24495e+13  3.21037e+13 
 1.88081e+13  3.21037e+13 
 1.51667e+13  3.21037e+13 
 1.15253e+13  3.21037e+13 
 7.88393e+12  3.21037e+13 
 4.24254e+12  3.21037e+13 
 6.01148e+11  3.21037e+13 
-3.04024e+12  3.21037e+13 
-6.68164e+12  3.21037e+13 
-1.03230e+13  3.21037e+13 
-1.39644e+13  3.21037e+13 
-1.76058e+13  3.21037e+13 
-2.12472e+13  3.21037e+13 
-2.48886e+13  3.21037e+13 
 6.25048e+13  3.56708e+13 
 5.88634e+13  3.56708e+13 
 5.52220e+13  3.56708e+13 
 5.15806e+13  3.56708e+13 
 4.79392e+13  3.56708e+13 
 4.42979e+13  3.56708e+13 
 4.06565e+13  3.56708e+13 
 3.70151e+13  3.56708e+13 
 3.33737e+13  3.56708e+13 
 2.97323e+13  3.56708e+13 
 2.60909e+13  3.56708e+13 
 2.24495e+13  3.56708e+13 
 1.88081e+13  3.56708e+13 
 1.51667e+13  3.56708e+13 
 1.15253e+13  3.56708e+13 
 7.88393e+12  3.56708e+13 
 4.24254e+12  3.56708e+13 
 6.01148e+11  3.56708e+13 
-3.04024e+12  3.56708e+13 
-6.68164e+12  3.56708e+13 
-1.03230e+13  3.56708e+13 
-1.39644e+13  3.56708e+13 
-1.76058e+13  3.56708e+13 
-2.12472e+13  3.56708e+13 
-2.48886e+13  3.56708e+13 
 6.25048e+13  3.92379e+13 
 5.88634e+13  3.92379e+13 
 5.52220e+13  3.92379e+13 
 5.15806e+13  3.92379e+13 
 4.79392e+13  3.92379e+13 
 4.42979e+13  3.92379e+13 
 4.06565e+13  3.92379e+13 
 3.70151e+13  3.92379e+13 
 3.33737e+13  3.92379e+13 
 2.97323e+13  3.92379e+13 
 2.60909e+13  3.92379e+13 
 2.24495e+13 39237855661900 
 1.88081e+13  3.92379e+13 
 1.51667e+13  3.92379e+13 
 1.15253e+13  3.92379e+13 
 7.88393e+12  3.92379e+13 
 4.24254e+12  3.92379e+13 
 6.01148e+11  3.92379e+13 
-3.04024e+12  3.92379e+13 
-6.68164e+12  3.92379e+13 
-1.03230e+13  3.92379e+13 
-1.39644e+13  3.92379e+13 
-1.76058e+13  3.92379e+13 
-2.12472e+13  3.92379e+13 
-2.48886e+13  3.92379e+13 
 6.25048e+13  4.28049e+13 
 5.88634e+13  4.28049e+13 
 5.52220e+13  4.28049e+13 
 5.15806e+13  4.28049e+13 
 4.79392e+13  4.28049e+13 
 4.42979e+13  4.28049e+13 
 4.06565e+13  4.28049e+13 
 3.70151e+13  4.28049e+13 
 3.33737e+13  4.28049e+13 
 2.97323e+13  4.28049e+13 
 2.60909e+13  4.28049e+13 
 2.24495e+13  4.28049e+13 
 1.88081e+13  4.28049e+13 
 1.51667e+13  4.28049e+13 
 1.15253e+13  4.28049e+13 
 7.88393e+12  4.28049e+13 
 4.24254e+12  4.28049e+13 
 6.01148e+11  4.28049e+13 
-3.04024e+12  4.28049e+13 
-6.68164e+12  4.28049e+13 
-1.03230e+13  4.28049e+13 
-1.39644e+13  4.28049e+13 
-1.76058e+13  4.28049e+13 
-2.12472e+13  4.28049e+13 
-2.48886e+13  4.28049e+13 
 6.25048e+13  4.63720e+13 
 5.88634e+13  4.63720e+13 
 5.52220e+13  4.63720e+13 
 5.15806e+13  4.63720e+13 
 4.79392e+13  4.63720e+13 
 4.42979e+13  4.63720e+13 
 4.06565e+13  4.63720e+13 
 3.70151e+13  4.63720e+13 
 3.33737e+13  4.63720e+13 
 2.97323e+13  4.63720e+13 
 2.60909e+13  4.63720e+13 
 2.24495e+13  4.63720e+13 
18808107128486  4.63720e+13 
 1.51667e+13  4.63720e+13 
 1.15253e+13  4.63720e+13 
 7.88393e+12  4.63720e+13 
 4.24254e+12  4.63720e+13 
 6.01148e+11  4.63720e+13 
-3.04024e+12  4.63720e+13 
-6.68164e+12  4.63720e+13 
-1.03230e+13  4.63720e+13 
-1.39644e+13  4.63720e+13 
-1.76058e+13  4.63720e+13 
-2.12472e+13  4.63720e+13 
-2.48886e+13  4.63720e+13 
 6.25048e+13  4.99391e+13 
 5.88634e+13  4.99391e+13 
 5.52220e+13  4.99391e+13 
 5.15806e+13  4.99391e+13 
 4.79392e+13  4.99391e+13 
 4.42979e+13  4.99391e+13 
 4.06565e+13  4.99391e+13 
 3.70151e+13  4.99391e+13 
 3.33737e+13  4.99391e+13 
 2.97323e+13  4.99391e+13 
 2.60909e+13  4.99391e+13 
 2.24495e+13  4.99391e+13 
 1.88081e+13  4.99391e+13 
 1.51667e+13  4.99391e+13 
 1.15253e+13  4.99391e+13 
 7.88393e+12  4.99391e+13 
 4.24254e+12  4.99391e+13 
 6.01148e+11  4.99391e+13 
-3.04024e+12  4.99391e+13 
-6.68164e+12  4.99391e+13 
-1.03230e+13  4.99391e+13 
-1.39644e+13  4.99391e+13 
-1.76058e+13  4.99391e+13 
-2.12472e+13  4.99391e+13 
-2.48886e+13  4.99391e+13 
 6.25048e+13  5.35062e+13 
 5.88634e+13  5.35062e+13 
 5.52220e+13  5.35062e+13 
 5.15806e+13  5.35062e+13 
 4.79392e+13  5.35062e+13 
 4.42979e+13  5.35062e+13 
 4.06565e+13  5.35062e+13 
 3.70151e+13  5.35062e+13 
 3.33737e+13  5.35062e+13 
 2.97323e+13  5.35062e+13 
 2.60909e+13  5.35062e+13 
 2.24495e+13  5.35062e+13 
 1.88081e+13  5.35062e+13 
 1.51667e+13  5.35062e+13 
 1.15253e+13  5.35062e+13 
 7.88393e+12  5.35062e+13 
 4.24254e+12  5.35062e+13 
 6.01148e+11  5.35062e+13 
-3.04024e+12  5.35062e+13 
-6.68164e+12  5.35062e+13 
-1.03230e+13  5.35062e+13 
-1.39644e+13  5.35062e+13 
-1.76058e+13  5.35062e+13 
-2.12472e+13  5.35062e+13 
-2.48886e+13  5.35062e+13 
 6.25048e+13  5.70732e+13 
 5.88634e+13  5.70732e+13 
 5.52220e+13  5.70732e+13 
 5.15806e+13  5.70732e+13 
 4.79392e+13  5.70732e+13 
 4.42979e+13  5.70732e+13 
 4.06565e+13  5.70732e+13 
 3.70151e+13  5.70732e+13 
 3.33737e+13  5.70732e+13 
 2.97323e+13  5.70732e+13 
 2.60909e+13  5.70732e+13 
 2.24495e+13  5.70732e+13 
 1.88081e+13  5.70732e+13 
 1.51667e+13  5.70732e+13 
 1.15253e+13  5.70732e+13 
 7.88393e+12  5.70732e+13 
 4.24254e+12  5.70732e+13 
 6.01148e+11  5.70732e+13 
-3.04024e+12  5.70732e+13 
-6.68164e+12  5.70732e+13 
-1.03230e+13  5.70732e+13 
-1.39644e+13  5.70732e+13 
-1.76058e+13  5.70732e+13 
-2.12472e+13  5.70732e+13 
-2.48886e+13  5.70732e+13 
 6.25048e+13  6.06403e+13 
 5.88634e+13  6.06403e+13 
 5.52220e+13  6.06403e+13 
 5.15806e+13  6.06403e+13 
 4.79392e+13  6.06403e+13 
 4.42979e+13  6.06403e+13 
 4.06565e+13  6.06403e+13 
 3.70151e+13  6.06403e+13 
 3.33737e+13  6.06403e+13 
 2.97323e+13  6.06403e+13 
 2.60909e+13  6.06403e+13 
 2.24495e+13  6.06403e+13 
 1.88081e+13  6.06403e+13 
 1.51667e+13  6.06403e+13 
 1.15253e+13  6.06403e+13 
7883931404444  6.06403e+13 
 4.24254e+12  6.06403e+13 
 6.01148e+11  6.06403e+13 
-3.04024e+12  6.06403e+13 
-6.68164e+12 60640322386557 
-1.03230e+13  6.06403e+13 
-1.39644e+13  6.06403e+13 
-1.76058e+13  6.06403e+13 
-2.12472e+13  6.06403e+13 
-2.48886e+13  6.06403e+13 
 6.25048e+13  6.42074e+13 
 5.88634e+13  6.42074e+13 
 5.52220e+13  6.42074e+13 
 5.15806e+13  6.42074e+13 
 4.79392e+13  6.42074e+13 
 4.42979e+13  6.42074e+13 
 4.06565e+13  6.42074e+13 
37015066668556  6.42074e+13 
 3.33737e+13  6.42074e+13 
 2.97323e+13  6.42074e+13 
 2.60909e+13  6.42074e+13 
 2.24495e+13  6.42074e+13 
 1.88081e+13  6.42074e+13 
 1.51667e+13  6.42074e+13 
 1.15253e+13  6.42074e+13 
 7.88393e+12  6.42074e+13 
 4.24254e+12  6.42074e+13 
 6.01148e+11  6.42074e+13 
-3.04024e+12  6.42074e+13 
-6.68164e+12  6.42074e+13 
-1.03230e+13  6.42074e+13 
-1.39644e+13  6.42074e+13 
-1.76058e+13  6.42074e+13 
-2.12472e+13  6.42074e+13 
-2.48886e+13  6.42074e+13 
 6.25048e+13  6.77745e+13 
 5.88634e+13  6.77745e+13 
 5.52220e+13  6.77745e+13 
 5.15806e+13 67774477961440 
 4.79392e+13  6.77745e+13 
 4.42979e+13  6.77745e+13 
 4.06565e+13  6.77745e+13 
 3.70151e+13  6.77745e+13 
 3.33737e+13  6.77745e+13 
 2.97323e+13  6.77745e+13 
 2.60909e+13  6.77745e+13 
 2.24495e+13  6.77745e+13 
 1.88081e+13  6.77745e+13 
 1.51667e+13  6.77745e+13 
 1.15253e+13  6.77745e+13 
 7.88393e+12  6.77745e+13 
 4.24254e+12  6.77745e+13 
 6.01148e+11  6.77745e+13 
-3.04024e+12  6.77745e+13 
-6.68164e+12  6.77745e+13 
-1.03230e+13  6.77745e+13 
-1.39644e+13  6.77745e+13 
-1.76058e+13  6.77745e+13 
-2.12472e+13  6.77745e+13 
-2.48886e+13  6.77745e+13 
 6.25048e+13  7.13416e+13 
 5.88634e+13 71341555748882 
 5.52220e+13  7.13416e+13 
 5.15806e+13  7.13416e+13 
 4.79392e+13  7.13416e+13 
 4.42979e+13  7.13416e+13 
 4.06565e+13  7.13416e+13 
 3.70151e+13  7.13416e+13 
 3.33737e+13  7.13416e+13 
 2.97323e+13  7.13416e+13 
 2.60909e+13  7.13416e+13 
 2.24495e+13  7.13416e+13 
 1.88081e+13  7.13416e+13 
 1.51667e+13  7.13416e+13 
 1.15253e+13  7.13416e+13 
 7.88393e+12  7.13416e+13 
 4.24254e+12  7.13416e+13 
 6.01148e+11  7.13416e+13 
-3.04024e+12  7.13416e+13 
-6.68164e+12  7.13416e+13 
-1.03230e+13  7.13416e+13 
-1.39644e+13  7.13416e+13 
-1.76058e+13  7.13416e+13 
-2.12472e+13  7.13416e+13 
-2.48886e+13  7.13416e+13 
 6.25048e+13  7.49086e+13 
 5.88634e+13  7.49086e+13 
 5.52220e+13  7.49086e+13 
 5.15806e+13  7.49086e+13 
 4.79392e+13  7.49086e+13 
 4.42979e+13  7.49086e+13 
 4.06565e+13  7.49086e+13 
 3.70151e+13  7.49086e+13 
 3.33737e+13  7.49086e+13 
 2.97323e+13  7.49086e+13 
 2.60909e+13  7.49086e+13 
 2.24495e+13  7.49086e+13 
 1.88081e+13  7.49086e+13 
 1.51667e+13  7.49086e+13 
 1.15253e+13  7.49086e+13 
 7.88393e+12  7.49086e+13 
 4.24254e+12  7.49086e+13 
 6.01148e+11  7.49086e+13 
-3.04024e+12  7.49086e+13 
-6.68164e+12  7.49086e+13 
-1.03230e+13  7.49086e+13 
-1.39644e+13  7.49086e+13 
-1.76058e+13  7.49086e+13 
-2.12472e+13  7.49086e+13 
-2.48886e+13  7.49086e+13 
 6.25048e+13  7.84757e+13 
 5.88634e+13  7.84757e+13 
 5.52220e+13  7.84757e+13 
 5.15806e+13  7.84757e+13 
 4.79392e+13  7.84757e+13 
 4.42979e+13  7.84757e+13 
 4.06565e+13  7.84757e+13 
 3.70151e+13  7.84757e+13 
 3.33737e+13  7.84757e+13 
 2.97323e+13  7.84757e+13 
 2.60909e+13  7.84757e+13 
 2.24495e+13  7.84757e+13 
 1.88081e+13  7.84757e+13 
 1.51667e+13  7.84757e+13 
 1.15253e+13  7.84757e+13 
 7.88393e+12  7.84757e+13 
 4.24254e+12  7.84757e+13 
 6.01148e+11  7.84757e+13 
-3.04024e+12  7.84757e+13 
-6.68164e+12  7.84757e+13 
-1.03230e+13  7.84757e+13 
-1.39644e+13  7.84757e+13 
-1.76058e+13  7.84757e+13 
-2.12472e+13  7.84757e+13 
-2.48886e+13  7.84757e+13 
 6.25048e+13  8.20428e+13 
 5.88634e+13  8.20428e+13 
 5.52220e+13  8.20428e+13 
 5.15806e+13  8.20428e+13 
 4.79392e+13  8.20428e+13 
 4.42979e+13  8.20428e+13 
 4.06565e+13  8.20428e+13 
 3.70151e+13  8.20428e+13 
 3.33737e+13  8.20428e+13 
 2.97323e+13  8.20428e+13 
 2.60909e+13  8.20428e+13 
 2.24495e+13  8.20428e+13 
 1.88081e+13  8.20428e+13 
 1.51667e+13  8.20428e+13 
 1.15253e+13  8.20428e+13 
 7.88393e+12  8.20428e+13 
 4.24254e+12  8.20428e+13 
 6.01148e+11  8.20428e+13 
-3.04024e+12  8.20428e+13 
-6.68164e+12  8.20428e+13 
-1.03230e+13  8.20428e+13 
-1.39644e+13  8.20428e+13 
-1.76058e+13  8.20428e+13 
-2.12472e+13  8.20428e+13 
-2.48886e+13  8.20428e+13 
 6.25048e+13  8.56099e+13 
 5.88634e+13  8.56099e+13 
 5.52220e+13  8.56099e+13 
 5.15806e+13  8.56099e+13 
 4.79392e+13  8.56099e+13 
 4.42979e+13  8.56099e+13 
 4.06565e+13  8.56099e+13 
 3.70151e+13  8.56099e+13 
 3.33737e+13  8.56099e+13 
 2.97323e+13  8.56099e+13 
 2.60909e+13  8.56099e+13 
 2.24495e+13  8.56099e+13 
 1.88081e+13  8.56099e+13 
 1.51667e+13  8.56099e+13 
 1.15253e+13  8.56099e+13 
 7.88393e+12  8.56099e+13 
 4.24254e+12  8.56099e+13 
 6.01148e+11  8.56099e+13 
-3.04024e+12  8.56099e+13 
-6.68164e+12  8.56099e+13 
-1.03230e+13  8.56099e+13 
-1.39644e+13  8.56099e+13 
-1.76058e+13  8.56099e+13 
-2.12472e+13  8.56099e+13 
-2.48886e+13  8.56099e+13 
 6.25048e+13  8.91769e+13 
 5.88634e+13  8.91769e+13 
 5.52220e+13  8.91769e+13 
 5.15806e+13  8.91769e+13 
 4.79392e+13  8.91769e+13 
 4.42979e+13  8.91769e+13 
 4.06565e+13  8.91769e+13 
 3.70151e+13  8.91769e+13 
 3.33737e+13  8.91769e+13 
 2.97323e+13  8.91769e+13 
 2.60909e+13  8.91769e+13 
 2.24495e+13  8.91769e+13 
 1.88081e+13  8.91769e+13 
 1.51667e+13  8.91769e+13 
 1.15253e+13  8.91769e+13 
 7.88393e+12  8.91769e+13 
 4.24254e+12  8.91769e+13 
 6.01148e+11  8.91769e+13 
-3.04024e+12  8.91769e+13 
-6.68164e+12  8.91769e+13 
-1.03230e+13  8.91769e+13 
-1.39644e+13  8.91769e+13 
-1.76058e+13  8.91769e+13 
-2.12472e+13  8.91769e+13 
-2.48886e+13  8.91769e+13 
 6.25048e+13  9.27440e+13 
 5.88634e+13  9.27440e+13 
 5.52220e+13  9.27440e+13 
 5.15806e+13  9.27440e+13 
 4.79392e+13  9.27440e+13 
 4.42979e+13  9.27440e+13 
 4.06565e+13  9.27440e+13 
 3.70151e+13  9.27440e+13 
 3.33737e+13  9.27440e+13 
 2.97323e+13  9.27440e+13 
 2.60909e+13  9.27440e+13 
 2.24495e+13  9.27440e+13 
 1.88081e+13  9.27440e+13 
 1.51667e+13  9.27440e+13 
 1.15253e+13  9.27440e+13 
 7.88393e+12  9.27440e+13 
 4.24254e+12  9.27440e+13 
 6.01148e+11  9.27440e+13 
-3.04024e+12  9.27440e+13 
-6.68164e+12  9.27440e+13 
-1.03230e+13  9.27440e+13 
-1.39644e+13  9.27440e+13 
-1.76058e+13  9.27440e+13 
-2.12472e+13  9.27440e+13 
-2.48886e+13  9.27440e+13 
 6.25048e+13  9.63111e+13 
 5.88634e+13  9.63111e+13 
 5.52220e+13  9.63111e+13 
 5.15806e+13  9.63111e+13 
 4.79392e+13  9.63111e+13 
 4.42979e+13  9.63111e+13 
 4.06565e+13  9.63111e+13 
 3.70151e+13  9.63111e+13 
 3.33737e+13  9.63111e+13 
 2.97323e+13  9.63111e+13 
 2.60909e+13  9.63111e+13 
 2.24495e+13  9.63111e+13 
 1.88081e+13  9.63111e+13 
 1.51667e+13  9.63111e+13 
 1.15253e+13  9.63111e+13 
 7.88393e+12  9.63111e+13 
 4.24254e+12  9.63111e+13 
 6.01148e+11  9.63111e+13 
-3.04024e+12  9.63111e+13 
-6.68164e+12  9.63111e+13 
-1.03230e+13  9.63111e+13 
-1.39644e+13  9.63111e+13 
-1.76058e+13  9.63111e+13 
-2.12472e+13  9.63111e+13 
-2.48886e+13  9.63111e+13 
 6.25048e+13  9.98782e+13 
 5.88634e+13  9.98782e+13 
 5.52220e+13  9.98782e+13 
 5.15806e+13  9.98782e+13 
 4.79392e+13  9.98782e+13 
 4.42979e+13  9.98782e+13 
 4.06565e+13 99878178048418 
 3.70151e+13  9.98782e+13 
 3.33737e+13  9.98782e+13 
 2.97323e+13  9.98782e+13 
 2.60909e+13  9.98782e+13 
 2.24495e+13  9.98782e+13 
 1.88081e+13  9.98782e+13 
 1.51667e+13  9.98782e+13 
 1.15253e+13  9.98782e+13 
 7.88393e+12  9.98782e+13 
 4.24254e+12  9.98782e+13 
 6.01148e+11  9.98782e+13 
-3.04024e+12  9.98782e+13 
-6.68164e+12  9.98782e+13 
-1.03230e+13  9.98782e+13 
-1.39644e+13  9.98782e+13 
-1.76058e+13  9.98782e+13 
-2.12472e+13  9.98782e+13 
-2.48886e+13  9.98782e+13 
 6.25048e+13  1.03445e+14 
 5.88634e+13  1.03445e+14 
 5.52220e+13  1.03445e+14 
 5.15806e+13  1.03445e+14 
 4.79392e+13  1.03445e+14 
 4.42979e+13  1.03445e+14 
 4.06565e+13  1.03445e+14 
 3.70151e+13  1.03445e+14 
 3.33737e+13  1.03445e+14 
 2.97323e+13  1.03445e+14 
 2.60909e+13  1.03445e+14 
 2.24495e+13  1.03445e+14 
 1.88081e+13  1.03445e+14 
 1.51667e+13  1.03445e+14 
 1.15253e+13  1.03445e+14 
 7.88393e+12  1.03445e+14 
 4.24254e+12  1.03445e+14 
 6.01148e+11  1.03445e+14 
-3.04024e+12  1.03445e+14 
-6.68164e+12  1.03445e+14 
-1.03230e+13  1.03445e+14 
-1.39644e+13  1.03445e+14 
-1.76058e+13  1.03445e+14 
-2.12472e+13  1.03445e+14 
-2.48886e+13  1.03445e+14 
 6.25048e+13  1.07012e+14 
 5.88634e+13  1.07012e+14 
 5.52220e+13  1.07012e+14 
 5.15806e+13  1.07012e+14 
 4.79392e+13  1.07012e+14 
 4.42979e+13 107012333623301 
 4.06565e+13  1.07012e+14 
 3.70151e+13  1.07012e+14 
 3.33737e+13  1.07012e+14 
 2.97323e+13  1.07012e+14 
 2.60909e+13  1.07012e+14 
 2.24495e+13  1.07012e+14 
 1.88081e+13  1.07012e+14 
 1.51667e+13  1.07012e+14 
 1.15253e+13  1.07012e+14 
 7.88393e+12  1.07012e+14 
 4.24254e+12  1.07012e+14 
 6.01148e+11  1.07012e+14 
-3.04024e+12  1.07012e+14 
-6.68164e+12  1.07012e+14 
-1.03230e+13  1.07012e+14 
-1.39644e+13  1.07012e+14 
-1.76058e+13  1.07012e+14 
-2.12472e+13  1.07012e+14 
-2.48886e+13  1.07012e+14 
 6.25048e+13  1.10579e+14 
 5.88634e+13  1.10579e+14 
 5.52220e+13  1.10579e+14 
 5.15806e+13  1.10579e+14 
 4.79392e+13  1.10579e+14 
 4.42979e+13  1.10579e+14 
 4.06565e+13  1.10579e+14 
 3.70151e+13  1.10579e+14 
 3.33737e+13  1.10579e+14 
 2.97323e+13  1.10579e+14 
 2.60909e+13  1.10579e+14 
 2.24495e+13  1.10579e+14 
 1.88081e+13  1.10579e+14 
 1.51667e+13  1.10579e+14 
 1.15253e+13  1.10579e+14 
 7.88393e+12  1.10579e+14 
 4.24254e+12  1.10579e+14 
 6.01148e+11  1.10579e+14 
-3.04024e+12  1.10579e+14 
-6.68164e+12  1.10579e+14 
-1.03230e+13  1.10579e+14 
-1.39644e+13  1.10579e+14 
-1.76058e+13  1.10579e+14 
-2.12472e+13  1.10579e+14 
-2.48886e+13  1.10579e+14 
 6.25048e+13  1.14146e+14 
 5.88634e+13  1.14146e+14 
 5.52220e+13  1.14146e+14 
 5.15806e+13  1.14146e+14 
 4.79392e+13  1.14146e+14 
 4.42979e+13  1.14146e+14 
 4.06565e+13  1.14146e+14 
 3.70151e+13  1.14146e+14 
 3.33737e+13  1.14146e+14 
 2.97323e+13  1.14146e+14 
 2.60909e+13  1.14146e+14 
 2.24495e+13  1.14146e+14 
 1.88081e+13  1.14146e+14 
 1.51667e+13  1.14146e+14 
 1.15253e+13  1.14146e+14 
 7.88393e+12  1.14146e+14 
 4.24254e+12  1.14146e+14 
 6.01148e+11  1.14146e+14 
-3.04024e+12  1.14146e+14 
-6.68164e+12  1.14146e+14 
-1.03230e+13  1.14146e+14 
-1.39644e+13  1.14146e+14 
-1.76058e+13  1.14146e+14 
-2.12472e+13  1.14146e+14 
-2.48886e+13  1.14146e+14 
 6.25048e+13  1.17714e+14 
 5.88634e+13  1.17714e+14 
 5.52220e+13  1.17714e+14 
 5.15806e+13  1.17714e+14 
 4.79392e+13  1.17714e+14 
 4.42979e+13  1.17714e+14 
 4.06565e+13  1.17714e+14 
 3.70151e+13  1.17714e+14 
 3.33737e+13  1.17714e+14 
 2.97323e+13  1.17714e+14 
 2.60909e+13  1.17714e+14 
 2.24495e+13  1.17714e+14 
 1.88081e+13  1.17714e+14 
 1.51667e+13  1.17714e+14 
 1.15253e+13  1.17714e+14 
 7.88393e+12  1.17714e+14 
 4.24254e+12  1.17714e+14 
 6.01148e+11  1.17714e+14 
-3.04024e+12  1.17714e+14 
-6.68164e+12  1.17714e+14 
-1.03230e+13  1.17714e+14 
-1.39644e+13  1.17714e+14 
-1.76058e+13  1.17714e+14 
-2.12472e+13  1.17714e+14 
-2.48886e+13  1.17714e+14 
 6.25048e+13  1.21281e+14 
 5.88634e+13  1.21281e+14 
 5.52220e+13  1.21281e+14 
 5.15806e+13  1.21281e+14 
 4.79392e+13  1.21281e+14 
 4.42979e+13  1.21281e+14 
 4.06565e+13  1.21281e+14 
 3.70151e+13  1.21281e+14 
 3.33737e+13  1.21281e+14 
 2.97323e+13  1.21281e+14 
 2.60909e+13  1.21281e+14 
 2.24495e+13  1.21281e+14 
 1.88081e+13  1.21281e+14 
 1.51667e+13  1.21281e+14 
 1.15253e+13  1.21281e+14 
 7.88393e+12  1.21281e+14 
 4.24254e+12  1.21281e+14 
 6.01148e+11  1.21281e+14 
-3.04024e+12  1.21281e+14 
-6.68164e+12  1.21281e+14 
-1.03230e+13  1.21281e+14 
-1.39644e+13  1.21281e+14 
-1.76058e+13  1.21281e+14 
-2.12472e+13  1.21281e+14 
-2.48886e+13  1.21281e+14 
 6.25048e+13  1.24848e+14 
 5.88634e+13  1.24848e+14 
 5.52220e+13  1.24848e+14 
 5.15806e+13  1.24848e+14 
 4.79392e+13  1.24848e+14 
 4.42979e+13  1.24848e+14 
 4.06565e+13  1.24848e+14 
 3.70151e+13  1.24848e+14 
 3.33737e+13  1.24848e+14 
 2.97323e+13  1.24848e+14 
 2.60909e+13  1.24848e+14 
 2.24495e+13  1.24848e+14 
 1.88081e+13  1.24848e+14 
 1.51667e+13  1.24848e+14 
 1.15253e+13  1.24848e+14 
 7.88393e+12  1.24848e+14 
 4.24254e+12  1.24848e+14 
 6.01148e+11 124847722560510 
-3.04024e+12  1.24848e+14 
-6.68164e+12  1.24848e+14 
-1.03230e+13  1.24848e+14 
-1.39644e+13  1.24848e+14 
-1.76058e+13  1.24848e+14 
-2.12472e+13  1.24848e+14 
-2.48886e+13  1.24848e+14 
 6.25048e+13  1.28415e+14 
 5.88634e+13  1.28415e+14 
 5.52220e+13  1.28415e+14 
 5.15806e+13  1.28415e+14 
 4.79392e+13  1.28415e+14 
 4.42979e+13  1.28415e+14 
 4.06565e+13  1.28415e+14 
 3.70151e+13  1.28415e+14 
 3.33737e+13  1.28415e+14 
 2.97323e+13  1.28415e+14 
 2.60909e+13  1.28415e+14 
 2.24495e+13  1.28415e+14 
 1.88081e+13  1.28415e+14 
 1.51667e+13  1.28415e+14 
 1.15253e+13  1.28415e+14 
 7.88393e+12  1.28415e+14 
 4.24254e+12  1.28415e+14 
 6.01148e+11  1.28415e+14 
-3.04024e+12  1.28415e+14 
-6.68164e+12  1.28415e+14 
-1.03230e+13  1.28415e+14 
-1.39644e+13  1.28415e+14 
-1.76058e+13  1.28415e+14 
-2.12472e+13  1.28415e+14 
-2.48886e+13  1.28415e+14 
 6.25048e+13  1.31982e+14 
 5.88634e+13  1.31982e+14 
 5.52220e+13  1.31982e+14 
 5.15806e+13  1.31982e+14 
47939242392592  1.31982e+14 
 4.42979e+13  1.31982e+14 
 4.06565e+13  1.31982e+14 
 3.70151e+13  1.31982e+14 
 3.33737e+13  1.31982e+14 
 2.97323e+13  1.31982e+14 
 2.60909e+13  1.31982e+14 
 2.24495e+13  1.31982e+14 
 1.88081e+13  1.31982e+14 
 1.51667e+13  1.31982e+14 
 1.15253e+13  1.31982e+14 
 7.88393e+12  1.31982e+14 
 4.24254e+12  1.31982e+14 
 6.01148e+11  1.31982e+14 
-3.04024e+12  1.31982e+14 
-6.68164e+12  1.31982e+14 
-1.03230e+13  1.31982e+14 
-1.39644e+13  1.31982e+14 
-1.76058e+13  1.31982e+14 
-2.12472e+13  1.31982e+14 
-2.48886e+13  1.31982e+14 
 6.25048e+13  1.35549e+14 
 5.88634e+13  1.35549e+14 
 5.52220e+13  1.35549e+14 
 5.15806e+13  1.35549e+14 
 4.79392e+13  1.35549e+14 
 4.42979e+13  1.35549e+14 
 4.06565e+13  1.35549e+14 
 3.70151e+13  1.35549e+14 
 3.33737e+13  1.35549e+14 
 2.97323e+13  1.35549e+14 
 2.60909e+13  1.35549e+14 
 2.24495e+13  1.35549e+14 
 1.88081e+13  1.35549e+14 
 1.51667e+13  1.35549e+14 
 1.15253e+13  1.35549e+14 
 7.88393e+12  1.35549e+14 
 4.24254e+12  1.35549e+14 
 6.01148e+11  1.35549e+14 
-3.04024e+12  1.35549e+14 
-6.68164e+12  1.35549e+14 
-1.03230e+13  1.35549e+14 
-1.39644e+13  1.35549e+14 
-1.76058e+13  1.35549e+14 
-2.12472e+13  1.35549e+14 
-2.48886e+13  1.35549e+14 
 6.25048e+13  1.39116e+14 
 5.88634e+13  1.39116e+14 
 5.52220e+13  1.39116e+14 
 5.15806e+13  1.39116e+14 
 4.79392e+13  1.39116e+14 
 4.42979e+13  1.39116e+14 
 4.06565e+13  1.39116e+14 
 3.70151e+13  1.39116e+14 
 3.33737e+13  1.39116e+14 
 2.97323e+13  1.39116e+14 
 2.60909e+13  1.39116e+14 
 2.24495e+13  1.39116e+14 
 1.88081e+13  1.39116e+14 
 1.51667e+13  1.39116e+14 
 1.15253e+13  1.39116e+14 
 7.88393e+12  1.39116e+14 
 4.24254e+12  1.39116e+14 
 6.01148e+11  1.39116e+14 
-3.04024e+12  1.39116e+14 
-6.68164e+12  1.39116e+14 
-1.03230e+13  1.39116e+14 
-1.39644e+13  1.39116e+14 
-1.76058e+13  1.39116e+14 
-2.12472e+13  1.39116e+14 
-2.48886e+13  1.39116e+14 
 6.25048e+13  1.42683e+14 
 5.88634e+13  1.42683e+14 
 5.52220e+13  1.42683e+14 
 5.15806e+13  1.42683e+14 
 4.79392e+13  1.42683e+14 
 4.42979e+13  1.42683e+14 
 4.06565e+13  1.42683e+14 
 3.70151e+13  1.42683e+14 
 3.33737e+13  1.42683e+14 
 2.97323e+13  1.42683e+14 
 2.60909e+13 142683111497715 
 2.24495e+13  1.42683e+14 
 1.88081e+13  1.42683e+14 
 1.51667e+13  1.42683e+14 
 1.15253e+13 142683111497716 
 7.88393e+12  1.42683e+14 
 4.24254e+12 142683111497716 
 6.01148e+11  1.42683e+14 
-3.04024e+12  1.42683e+14 
-6.68164e+12  1.42683e+14 
-1.03230e+13  1.42683e+14 
-1.39644e+13  1.42683e+14 
-1.76058e+13  1.42683e+14 
-2.12472e+13  1.42683e+14 
-2.48886e+13  1.42683e+14 
 6.25048e+13  1.46250e+14 
 5.88634e+13  1.46250e+14 
 5.52220e+13  1.46250e+14 
 5.15806e+13  1.46250e+14 
 4.79392e+13 146250189285155 
 4.42979e+13  1.46250e+14 
 4.06565e+13  1.46250e+14 
 3.70151e+13  1.46250e+14 
 3.33737e+13  1.46250e+14 
 2.97323e+13  1.46250e+14 
 2.60909e+13  1.46250e+14 
 2.24495e+13  1.46250e+14 
 1.88081e+13  1.46250e+14 
 1.51667e+13  1.46250e+14 
 1.15253e+13  1.46250e+14 
 7.88393e+12  1.46250e+14 
 4.24254e+12  1.46250e+14 
 6.01148e+11  1.46250e+14 
-3.04024e+12  1.46250e+14 
-6.68164e+12  1.46250e+14 
-1.03230e+13  1.46250e+14 
-1.39644e+13  1.46250e+14 
-1.76058e+13  1.46250e+14 
-2.12472e+13  1.46250e+14 
-2.48886e+13  1.46250e+14 
 6.25048e+13  1.49817e+14 
 5.88634e+13  1.49817e+14 
 5.52220e+13  1.49817e+14 
 5.15806e+13  1.49817e+14 
 4.79392e+13 149817267072596 
 4.42979e+13  1.49817e+14 
 4.06565e+13  1.49817e+14 
 3.70151e+13  1.49817e+14 
 3.33737e+13  1.49817e+14 
 2.97323e+13  1.49817e+14 
 2.60909e+13  1.49817e+14 
 2.24495e+13  1.49817e+14 
 1.88081e+13  1.49817e+14 
 1.51667e+13  1.49817e+14 
 1.15253e+13  1.49817e+14 
 7.88393e+12  1.49817e+14 
 4.24254e+12  1.49817e+14 
 6.01148e+11  1.49817e+14 
-3.04024e+12  1.49817e+14 
-6.68164e+12  1.49817e+14 
-1.03230e+13  1.49817e+14 
-1.39644e+13  1.49817e+14 
-1.76058e+13  1.49817e+14 
-2.12472e+13  1.49817e+14 
-2.48886e+13  1.49817e+14 
 6.25048e+13  1.53384e+14 
 5.88634e+13  1.53384e+14 
 5.52220e+13  1.53384e+14 
 5.15806e+13  1.53384e+14 
 4.79392e+13  1.53384e+14 
 4.42979e+13  1.53384e+14 
 4.06565e+13  1.53384e+14 
 3.70151e+13  1.53384e+14 
 3.33737e+13  1.53384e+14 
 2.97323e+13  1.53384e+14 
 2.60909e+13  1.53384e+14 
 2.24495e+13  1.53384e+14 
 1.88081e+13  1.53384e+14 
 1.51667e+13  1.53384e+14 
 1.15253e+13  1.53384e+14 
 7.88393e+12  1.53384e+14 
 4.24254e+12  1.53384e+14 
 6.01148e+11  1.53384e+14 
-3.04024e+12  1.53384e+14 
-6.68164e+12  1.53384e+14 
-1.03230e+13  1.53384e+14 
-1.39644e+13  1.53384e+14 
-1.76058e+13 153384344860041 
-2.12472e+13  1.53384e+14 
-2.48886e+13  1.53384e+14 
 6.25048e+13  1.56951e+14 
 5.88634e+13  1.56951e+14 
 5.52220e+13  1.56951e+14 
 5.15806e+13  1.56951e+14 
 4.79392e+13  1.56951e+14 
 4.42979e+13  1.56951e+14 
 4.06565e+13  1.56951e+14 
 3.70151e+13  1.56951e+14 
 3.33737e+13  1.56951e+14 
 2.97323e+13  1.56951e+14 
 2.60909e+13  1.56951e+14 
 2.24495e+13  1.56951e+14 
 1.88081e+13  1.56951e+14 
 1.51667e+13  1.56951e+14 
 1.15253e+13  1.56951e+14 
 7.88393e+12  1.56951e+14 
 4.24254e+12  1.56951e+14 
 6.01148e+11 156951422647482 
-3.04024e+12  1.56951e+14 
-6.68164e+12  1.56951e+14 
-1.03230e+13  1.56951e+14 
-1.39644e+13  1.56951e+14 
-1.76058e+13  1.56951e+14 
-2.12472e+13  1.56951e+14 
-2.48886e+13  1.56951e+14 
 6.25048e+13  1.60519e+14 
 5.88634e+13  1.60519e+14 
 5.52220e+13  1.60519e+14 
 5.15806e+13  1.60519e+14 
 4.79392e+13  1.60519e+14 
 4.42979e+13  1.60519e+14 
 4.06565e+13  1.60519e+14 
 3.70151e+13  1.60519e+14 
 3.33737e+13  1.60519e+14 
 2.97323e+13  1.60519e+14 
 2.60909e+13  1.60519e+14 
 2.24495e+13  1.60519e+14 
 1.88081e+13  1.60519e+14 
 1.51667e+13  1.60519e+14 
 1.15253e+13  1.60519e+14 
 7.88393e+12  1.60519e+14 
 4.24254e+12  1.60519e+14 
 6.01148e+11  1.60519e+14 
-3.04024e+12 160518500434923 
-6.68164e+12  1.60519e+14 
-1.03230e+13  1.60519e+14 
-1.39644e+13  1.60519e+14 
-1.76058e+13  1.60519e+14 
-2.12472e+13  1.60519e+14 
-2.48886e+13  1.60519e+14 
 6.25048e+13  1.64086e+14 
 5.88634e+13  1.64086e+14 
 5.52220e+13  1.64086e+14 
 5.15806e+13  1.64086e+14 
 4.79392e+13  1.64086e+14 
 4.42979e+13  1.64086e+14 
 4.06565e+13  1.64086e+14 
 3.70151e+13  1.64086e+14 
 3.33737e+13  1.64086e+14 
 2.97323e+13  1.64086e+14 
 2.60909e+13  1.64086e+14 
 2.24495e+13  1.64086e+14 
 1.88081e+13  1.64086e+14 
 1.51667e+13  1.64086e+14 
 1.15253e+13  1.64086e+14 
 7.88393e+12  1.64086e+14 
 4.24254e+12  1.64086e+14 
 6.01148e+11  1.64086e+14 
-3.04024e+12  1.64086e+14 
-6.68164e+12  1.64086e+14 
-1.03230e+13  1.64086e+14 
-1.39644e+13  1.64086e+14 
-1.76058e+13  1.64086e+14 
-2.12472e+13  1.64086e+14 
-2.48886e+13  1.64086e+14 
 6.25048e+13  1.67653e+14 
 5.88634e+13 167652656009802 
 5.52220e+13  1.67653e+14 
 5.15806e+13  1.67653e+14 
 4.79392e+13  1.67653e+14 
 4.42979e+13  1.67653e+14 
 4.06565e+13  1.67653e+14 
 3.70151e+13  1.67653e+14 
 3.33737e+13  1.67653e+14 
 2.97323e+13  1.67653e+14 
 2.60909e+13  1.67653e+14 
 2.24495e+13  1.67653e+14 
 1.88081e+13  1.67653e+14 
 1.51667e+13  1.67653e+14 
 1.15253e+13  1.67653e+14 
 7.88393e+12  1.67653e+14 
 4.24254e+12  1.67653e+14 
 6.01148e+11  1.67653e+14 
-3.04024e+12  1.67653e+14 
-6.68164e+12  1.67653e+14 
-1.03230e+13  1.67653e+14 
-1.39644e+13  1.67653e+14 
-1.76058e+13  1.67653e+14 
-2.12472e+13  1.67653e+14 
-2.48886e+13  1.67653e+14 
 6.25048e+13  1.71220e+14 
 5.88634e+13  1.71220e+14 
 5.52220e+13  1.71220e+14 
 5.15806e+13  1.71220e+14 
 4.79392e+13  1.71220e+14 
 4.42979e+13  1.71220e+14 
 4.06565e+13  1.71220e+14 
 3.70151e+13  1.71220e+14 
 3.33737e+13  1.71220e+14 
 2.97323e+13  1.71220e+14 
 2.60909e+13  1.71220e+14 
 2.24495e+13  1.71220e+14 
 1.88081e+13  1.71220e+14 
 1.51667e+13  1.71220e+14 
 1.15253e+13  1.71220e+14 
 7.88393e+12  1.71220e+14 
 4.24254e+12  1.71220e+14 
 6.01148e+11  1.71220e+14 
-3.04024e+12  1.71220e+14 
-6.68164e+12  1.71220e+14 
-1.03230e+13  1.71220e+14 
-1.39644e+13  1.71220e+14 
-1.76058e+13  1.71220e+14 
-2.12472e+13  1.71220e+14 
-2.48886e+13  1.71220e+14 
 6.25048e+13  1.74787e+14 
 5.88634e+13  1.74787e+14 
 5.52220e+13  1.74787e+14 
 5.15806e+13  1.74787e+14 
 4.79392e+13  1.74787e+14 
 4.42979e+13  1.74787e+14 
 4.06565e+13  1.74787e+14 
 3.70151e+13  1.74787e+14 
 3.33737e+13 174786811584684 
 2.97323e+13  1.74787e+14 
 2.60909e+13  1.74787e+14 
 2.24495e+13 174786811584681 
 1.88081e+13  1.74787e+14 
 1.51667e+13  1.74787e+14 
 1.15253e+13  1.74787e+14 
 7.88393e+12  1.74787e+14 
 4.24254e+12  1.74787e+14 
 6.01148e+11  1.74787e+14 
-3.04024e+12  1.74787e+14 
-6.68164e+12 174786811584688 
-1.03230e+13  1.74787e+14 
-1.39644e+13  1.74787e+14 
-1.76058e+13  1.74787e+14 
-2.12472e+13  1.74787e+14 
-2.48886e+13  1.74787e+14 
 6.06841e+13  1.78354e+12 
 5.70427e+13  1.78354e+12 
 5.34013e+13  1.78354e+12 
 4.97599e+13  1.78354e+12 
 4.61185e+13  1.78354e+12 
 4.24772e+13  1.78354e+12 
 3.88358e+13  1.78354e+12 
 3.51944e+13  1.78354e+12 
 3.15530e+13  1.78354e+12 
 2.79116e+13  1.78354e+12 
 2.42702e+13  1.78354e+12 
 2.06288e+13  1.78354e+12 
 1.69874e+13  1.78354e+12 
 1.33460e+13  1.78354e+12 
 9.70463e+12  1.78354e+12 
 6.06324e+12  1.78354e+12 
 2.42184e+12  1.78354e+12 
-1.21955e+12  1.78354e+12 
-4.86094e+12  1.78354e+12 
-8.50233e+12  1.78354e+12 
-1.21437e+13  1.78354e+12 
-1.57851e+13  1.78354e+12 
-1.94265e+13  1.78354e+12 
-2.30679e+13  1.78354e+12 
 6.06841e+13  5.35062e+12 
 5.70427e+13  5.35062e+12 
 5.34013e+13  5.35062e+12 
 4.97599e+13  5.35062e+12 
 4.61185e+13  5.35062e+12 
 4.24772e+13  5.35062e+12 
 3.88358e+13  5.35062e+12 
 3.51944e+13  5.35062e+12 
 3.15530e+13  5.35062e+12 
 2.79116e+13  5.35062e+12 
 2.42702e+13  5.35062e+12 
 2.06288e+13  5.35062e+12 
 1.69874e+13  5.35062e+12 
 1.33460e+13  5.35062e+12 
 9.70463e+12  5.35062e+12 
 6.06324e+12  5.35062e+12 
 2.42184e+12  5.35062e+12 
-1.21955e+12  5.35062e+12 
-4.86094e+12  5.35062e+12 
-8.50233e+12  5.35062e+12 
-1.21437e+13  5.35062e+12 
-1.57851e+13  5.35062e+12 
-1.94265e+13  5.35062e+12 
-2.30679e+13  5.35062e+12 
 6.06841e+13  8.91769e+12 
 5.70427e+13  8.91769e+12 
 5.34013e+13  8.91769e+12 
 4.97599e+13  8.91769e+12 
 4.61185e+13  8.91769e+12 
 4.24772e+13  8.91769e+12 
 3.88358e+13  8.91769e+12 
 3.51944e+13  8.91769e+12 
 3.15530e+13  8.91769e+12 
 2.79116e+13  8.91769e+12 
 2.42702e+13  8.91769e+12 
 2.06288e+13  8.91769e+12 
 1.69874e+13  8.91769e+12 
 1.33460e+13  8.91769e+12 
 9.70463e+12  8.91769e+12 
 6.06324e+12  8.91769e+12 
 2.42184e+12  8.91769e+12 
-1.21955e+12  8.91769e+12 
-4.86094e+12  8.91769e+12 
-8.50233e+12  8.91769e+12 
-1.21437e+13  8.91769e+12 
-1.57851e+13  8.91769e+12 
-1.94265e+13  8.91769e+12 
-2.30679e+13  8.91769e+12 
 6.06841e+13  1.24848e+13 
 5.70427e+13  1.24848e+13 
 5.34013e+13  1.24848e+13 
 4.97599e+13  1.24848e+13 
 4.61185e+13  1.24848e+13 
 4.24772e+13  1.24848e+13 
 3.88358e+13  1.24848e+13 
 3.51944e+13  1.24848e+13 
 3.15530e+13  1.24848e+13 
 2.79116e+13  1.24848e+13 
 2.42702e+13  1.24848e+13 
 2.06288e+13  1.24848e+13 
 1.69874e+13  1.24848e+13 
 1.33460e+13  1.24848e+13 
 9.70463e+12  1.24848e+13 
 6.06324e+12  1.24848e+13 
 2.42184e+12  1.24848e+13 
-1.21955e+12  1.24848e+13 
-4.86094e+12  1.24848e+13 
-8.50233e+12  1.24848e+13 
-1.21437e+13  1.24848e+13 
-1.57851e+13  1.24848e+13 
-1.94265e+13  1.24848e+13 
-2.30679e+13  1.24848e+13 
 6.06841e+13  1.60519e+13 
 5.70427e+13  1.60519e+13 
 5.34013e+13  1.60519e+13 
 4.97599e+13  1.60519e+13 
 4.61185e+13  1.60519e+13 
 4.24772e+13  1.60519e+13 
 3.88358e+13  1.60519e+13 
 3.51944e+13  1.60519e+13 
 3.15530e+13  1.60519e+13 
 2.79116e+13  1.60519e+13 
 2.42702e+13  1.60519e+13 
 2.06288e+13  1.60519e+13 
 1.69874e+13  1.60519e+13 
 1.33460e+13  1.60519e+13 
 9.70463e+12  1.60519e+13 
 6.06324e+12  1.60519e+13 
 2.42184e+12  1.60519e+13 
-1.21955e+12  1.60519e+13 
-4.86094e+12  1.60519e+13 
-8.50233e+12  1.60519e+13 
-1.21437e+13  1.60519e+13 
-1.57851e+13  1.60519e+13 
-1.94265e+13  1.60519e+13 
-2.30679e+13  1.60519e+13 
 6.06841e+13  1.96189e+13 
 5.70427e+13  1.96189e+13 
 5.34013e+13  1.96189e+13 
 4.97599e+13  1.96189e+13 
 4.61185e+13  1.96189e+13 
 4.24772e+13  1.96189e+13 
 3.88358e+13  1.96189e+13 
 3.51944e+13  1.96189e+13 
 3.15530e+13  1.96189e+13 
 2.79116e+13  1.96189e+13 
 2.42702e+13  1.96189e+13 
 2.06288e+13  1.96189e+13 
 1.69874e+13  1.96189e+13 
 1.33460e+13  1.96189e+13 
 9.70463e+12  1.96189e+13 
 6.06324e+12  1.96189e+13 
 2.42184e+12  1.96189e+13 
-1.21955e+12  1.96189e+13 
-4.86094e+12  1.96189e+13 
-8.50233e+12  1.96189e+13 
-1.21437e+13 19618927830964 
-1.57851e+13  1.96189e+13 
-1.94265e+13  1.96189e+13 
-2.30679e+13  1.96189e+13 
 6.06841e+13  2.31860e+13 
 5.70427e+13  2.31860e+13 
 5.34013e+13  2.31860e+13 
 4.97599e+13  2.31860e+13 
 4.61185e+13  2.31860e+13 
 4.24772e+13  2.31860e+13 
 3.88358e+13  2.31860e+13 
 3.51944e+13  2.31860e+13 
 3.15530e+13  2.31860e+13 
 2.79116e+13  2.31860e+13 
 2.42702e+13  2.31860e+13 
 2.06288e+13  2.31860e+13 
 1.69874e+13  2.31860e+13 
 1.33460e+13  2.31860e+13 
 9.70463e+12  2.31860e+13 
 6.06324e+12  2.31860e+13 
 2.42184e+12  2.31860e+13 
-1.21955e+12  2.31860e+13 
-4.86094e+12  2.31860e+13 
-8.50233e+12  2.31860e+13 
-1.21437e+13  2.31860e+13 
-1.57851e+13  2.31860e+13 
-1.94265e+13  2.31860e+13 
-2.30679e+13  2.31860e+13 
 6.06841e+13  2.67531e+13 
 5.70427e+13  2.67531e+13 
 5.34013e+13  2.67531e+13 
 4.97599e+13  2.67531e+13 
 4.61185e+13  2.67531e+13 
 4.24772e+13  2.67531e+13 
 3.88358e+13  2.67531e+13 
 3.51944e+13  2.67531e+13 
 3.15530e+13  2.67531e+13 
 2.79116e+13  2.67531e+13 
 2.42702e+13  2.67531e+13 
 2.06288e+13  2.67531e+13 
 1.69874e+13  2.67531e+13 
 1.33460e+13  2.67531e+13 
 9.70463e+12  2.67531e+13 
 6.06324e+12  2.67531e+13 
 2.42184e+12  2.67531e+13 
-1.21955e+12  2.67531e+13 
-4.86094e+12  2.67531e+13 
-8.50233e+12  2.67531e+13 
-1.21437e+13  2.67531e+13 
-1.57851e+13  2.67531e+13 
-1.94265e+13  2.67531e+13 
-2.30679e+13  2.67531e+13 
 6.06841e+13  3.03202e+13 
 5.70427e+13  3.03202e+13 
 5.34013e+13  3.03202e+13 
 4.97599e+13  3.03202e+13 
 4.61185e+13  3.03202e+13 
 4.24772e+13  3.03202e+13 
 3.88358e+13  3.03202e+13 
 3.51944e+13  3.03202e+13 
 3.15530e+13  3.03202e+13 
 2.79116e+13  3.03202e+13 
 2.42702e+13  3.03202e+13 
 2.06288e+13  3.03202e+13 
 1.69874e+13  3.03202e+13 
 1.33460e+13  3.03202e+13 
 9.70463e+12  3.03202e+13 
 6.06324e+12  3.03202e+13 
 2.42184e+12  3.03202e+13 
-1.21955e+12  3.03202e+13 
-4.86094e+12  3.03202e+13 
-8.50233e+12  3.03202e+13 
-1.21437e+13  3.03202e+13 
-1.57851e+13  3.03202e+13 
-1.94265e+13  3.03202e+13 
-2.30679e+13  3.03202e+13 
 6.06841e+13  3.38872e+13 
 5.70427e+13  3.38872e+13 
 5.34013e+13  3.38872e+13 
 4.97599e+13  3.38872e+13 
 4.61185e+13  3.38872e+13 
 4.24772e+13  3.38872e+13 
 3.88358e+13  3.38872e+13 
 3.51944e+13  3.38872e+13 
 3.15530e+13  3.38872e+13 
 2.79116e+13  3.38872e+13 
 2.42702e+13  3.38872e+13 
 2.06288e+13  3.38872e+13 
 1.69874e+13  3.38872e+13 
 1.33460e+13  3.38872e+13 
 9.70463e+12  3.38872e+13 
 6.06324e+12  3.38872e+13 
 2.42184e+12  3.38872e+13 
-1.21955e+12  3.38872e+13 
-4.86094e+12  3.38872e+13 
-8.50233e+12  3.38872e+13 
-1.21437e+13  3.38872e+13 
-1.57851e+13  3.38872e+13 
-1.94265e+13  3.38872e+13 
-2.30679e+13  3.38872e+13 
60684114070652  3.74543e+13 
 5.70427e+13  3.74543e+13 
 5.34013e+13  3.74543e+13 
 4.97599e+13  3.74543e+13 
 4.61185e+13  3.74543e+13 
 4.24772e+13  3.74543e+13 
 3.88358e+13  3.74543e+13 
 3.51944e+13  3.74543e+13 
 3.15530e+13  3.74543e+13 
 2.79116e+13  3.74543e+13 
 2.42702e+13  3.74543e+13 
 2.06288e+13  3.74543e+13 
 1.69874e+13  3.74543e+13 
 1.33460e+13  3.74543e+13 
 9.70463e+12  3.74543e+13 
 6.06324e+12  3.74543e+13 
 2.42184e+12  3.74543e+13 
-1.21955e+12  3.74543e+13 
-4.86094e+12  3.74543e+13 
-8.50233e+12  3.74543e+13 
-1.21437e+13  3.74543e+13 
-1.57851e+13  3.74543e+13 
-1.94265e+13  3.74543e+13 
-2.30679e+13  3.74543e+13 
 6.06841e+13  4.10214e+13 
 5.70427e+13  4.10214e+13 
 5.34013e+13  4.10214e+13 
 4.97599e+13  4.10214e+13 
 4.61185e+13  4.10214e+13 
 4.24772e+13  4.10214e+13 
 3.88358e+13  4.10214e+13 
 3.51944e+13  4.10214e+13 
 3.15530e+13  4.10214e+13 
 2.79116e+13  4.10214e+13 
 2.42702e+13  4.10214e+13 
 2.06288e+13  4.10214e+13 
 1.69874e+13  4.10214e+13 
 1.33460e+13  4.10214e+13 
 9.70463e+12  4.10214e+13 
 6.06324e+12  4.10214e+13 
 2.42184e+12  4.10214e+13 
-1.21955e+12  4.10214e+13 
-4.86094e+12  4.10214e+13 
-8.50233e+12  4.10214e+13 
-1.21437e+13  4.10214e+13 
-1.57851e+13  4.10214e+13 
-1.94265e+13  4.10214e+13 
-2.30679e+13  4.10214e+13 
 6.06841e+13  4.45885e+13 
 5.70427e+13  4.45885e+13 
 5.34013e+13  4.45885e+13 
 4.97599e+13  4.45885e+13 
 4.61185e+13  4.45885e+13 
 4.24772e+13  4.45885e+13 
 3.88358e+13  4.45885e+13 
 3.51944e+13  4.45885e+13 
 3.15530e+13  4.45885e+13 
 2.79116e+13  4.45885e+13 
 2.42702e+13  4.45885e+13 
 2.06288e+13  4.45885e+13 
 1.69874e+13  4.45885e+13 
 1.33460e+13  4.45885e+13 
 9.70463e+12  4.45885e+13 
 6.06324e+12  4.45885e+13 
 2.42184e+12  4.45885e+13 
-1.21955e+12  4.45885e+13 
-4.86094e+12  4.45885e+13 
-8.50233e+12  4.45885e+13 
-1.21437e+13  4.45885e+13 
-1.57851e+13  4.45885e+13 
-1.94265e+13  4.45885e+13 
-2.30679e+13  4.45885e+13 
 6.06841e+13  4.81556e+13 
 5.70427e+13  4.81556e+13 
 5.34013e+13  4.81556e+13 
 4.97599e+13  4.81556e+13 
 4.61185e+13  4.81556e+13 
 4.24772e+13  4.81556e+13 
 3.88358e+13  4.81556e+13 
 3.51944e+13  4.81556e+13 
 3.15530e+13  4.81556e+13 
 2.79116e+13  4.81556e+13 
 2.42702e+13  4.81556e+13 
 2.06288e+13 48155550130507 
 1.69874e+13  4.81556e+13 
 1.33460e+13  4.81556e+13 
 9.70463e+12  4.81556e+13 
 6.06324e+12  4.81556e+13 
 2.42184e+12  4.81556e+13 
-1.21955e+12  4.81556e+13 
-4.86094e+12  4.81556e+13 
-8.50233e+12  4.81556e+13 
-1.21437e+13  4.81556e+13 
-1.57851e+13  4.81556e+13 
-1.94265e+13  4.81556e+13 
-2.30679e+13  4.81556e+13 
 6.06841e+13  5.17226e+13 
 5.70427e+13  5.17226e+13 
 5.34013e+13  5.17226e+13 
 4.97599e+13  5.17226e+13 
 4.61185e+13  5.17226e+13 
 4.24772e+13  5.17226e+13 
 3.88358e+13  5.17226e+13 
 3.51944e+13  5.17226e+13 
 3.15530e+13  5.17226e+13 
 2.79116e+13  5.17226e+13 
 2.42702e+13  5.17226e+13 
 2.06288e+13  5.17226e+13 
 1.69874e+13  5.17226e+13 
 1.33460e+13 51722627917950 
 9.70463e+12  5.17226e+13 
 6.06324e+12  5.17226e+13 
 2.42184e+12  5.17226e+13 
-1.21955e+12  5.17226e+13 
-4.86094e+12  5.17226e+13 
-8.50233e+12  5.17226e+13 
-1.21437e+13  5.17226e+13 
-1.57851e+13  5.17226e+13 
-1.94265e+13  5.17226e+13 
-2.30679e+13  5.17226e+13 
 6.06841e+13  5.52897e+13 
 5.70427e+13  5.52897e+13 
 5.34013e+13  5.52897e+13 
 4.97599e+13  5.52897e+13 
 4.61185e+13  5.52897e+13 
 4.24772e+13  5.52897e+13 
 3.88358e+13  5.52897e+13 
 3.51944e+13  5.52897e+13 
 3.15530e+13  5.52897e+13 
 2.79116e+13  5.52897e+13 
 2.42702e+13  5.52897e+13 
 2.06288e+13  5.52897e+13 
 1.69874e+13  5.52897e+13 
 1.33460e+13  5.52897e+13 
 9.70463e+12  5.52897e+13 
 6.06324e+12  5.52897e+13 
 2.42184e+12  5.52897e+13 
-1.21955e+12  5.52897e+13 
-4.86094e+12  5.52897e+13 
-8.50233e+12  5.52897e+13 
-1.21437e+13  5.52897e+13 
-1.57851e+13  5.52897e+13 
-1.94265e+13  5.52897e+13 
-2.30679e+13  5.52897e+13 
 6.06841e+13  5.88568e+13 
 5.70427e+13  5.88568e+13 
 5.34013e+13  5.88568e+13 
 4.97599e+13  5.88568e+13 
 4.61185e+13  5.88568e+13 
 4.24772e+13  5.88568e+13 
 3.88358e+13  5.88568e+13 
 3.51944e+13  5.88568e+13 
 3.15530e+13  5.88568e+13 
 2.79116e+13  5.88568e+13 
 2.42702e+13  5.88568e+13 
 2.06288e+13  5.88568e+13 
 1.69874e+13  5.88568e+13 
 1.33460e+13  5.88568e+13 
 9.70463e+12  5.88568e+13 
 6.06324e+12  5.88568e+13 
 2.42184e+12  5.88568e+13 
-1.21955e+12  5.88568e+13 
-4.86094e+12  5.88568e+13 
-8.50233e+12  5.88568e+13 
-1.21437e+13  5.88568e+13 
-1.57851e+13  5.88568e+13 
-1.94265e+13  5.88568e+13 
-2.30679e+13  5.88568e+13 
 6.06841e+13  6.24239e+13 
 5.70427e+13  6.24239e+13 
 5.34013e+13  6.24239e+13 
 4.97599e+13  6.24239e+13 
 4.61185e+13  6.24239e+13 
 4.24772e+13  6.24239e+13 
 3.88358e+13  6.24239e+13 
 3.51944e+13  6.24239e+13 
 3.15530e+13  6.24239e+13 
 2.79116e+13  6.24239e+13 
 2.42702e+13  6.24239e+13 
 2.06288e+13  6.24239e+13 
 1.69874e+13  6.24239e+13 
 1.33460e+13  6.24239e+13 
 9.70463e+12  6.24239e+13 
 6.06324e+12  6.24239e+13 
 2.42184e+12  6.24239e+13 
-1.21955e+12  6.24239e+13 
-4.86094e+12  6.24239e+13 
-8.50233e+12  6.24239e+13 
-1.21437e+13  6.24239e+13 
-1.57851e+13  6.24239e+13 
-1.94265e+13  6.24239e+13 
-2.30679e+13  6.24239e+13 
 6.06841e+13  6.59909e+13 
 5.70427e+13  6.59909e+13 
 5.34013e+13  6.59909e+13 
 4.97599e+13  6.59909e+13 
 4.61185e+13  6.59909e+13 
 4.24772e+13  6.59909e+13 
 3.88358e+13  6.59909e+13 
 3.51944e+13  6.59909e+13 
 3.15530e+13  6.59909e+13 
 2.79116e+13  6.59909e+13 
24270194990507  6.59909e+13 
 2.06288e+13  6.59909e+13 
 1.69874e+13  6.59909e+13 
 1.33460e+13  6.59909e+13 
 9.70463e+12  6.59909e+13 
 6.06324e+12  6.59909e+13 
 2.42184e+12  6.59909e+13 
-1.21955e+12  6.59909e+13 
-4.86094e+12  6.59909e+13 
-8.50233e+12  6.59909e+13 
-1.21437e+13  6.59909e+13 
-1.57851e+13  6.59909e+13 
-1.94265e+13  6.59909e+13 
-2.30679e+13  6.59909e+13 
 6.06841e+13  6.95580e+13 
 5.70427e+13  6.95580e+13 
 5.34013e+13  6.95580e+13 
 4.97599e+13  6.95580e+13 
 4.61185e+13  6.95580e+13 
 4.24772e+13  6.95580e+13 
 3.88358e+13  6.95580e+13 
 3.51944e+13  6.95580e+13 
 3.15530e+13  6.95580e+13 
 2.79116e+13  6.95580e+13 
 2.42702e+13  6.95580e+13 
 2.06288e+13  6.95580e+13 
 1.69874e+13  6.95580e+13 
 1.33460e+13  6.95580e+13 
 9.70463e+12  6.95580e+13 
 6.06324e+12  6.95580e+13 
 2.42184e+12  6.95580e+13 
-1.21955e+12  6.95580e+13 
-4.86094e+12  6.95580e+13 
-8.50233e+12  6.95580e+13 
-1.21437e+13  6.95580e+13 
-1.57851e+13  6.95580e+13 
-1.94265e+13  6.95580e+13 
-2.30679e+13  6.95580e+13 
 6.06841e+13  7.31251e+13 
 5.70427e+13  7.31251e+13 
 5.34013e+13  7.31251e+13 
 4.97599e+13  7.31251e+13 
 4.61185e+13  7.31251e+13 
 4.24772e+13  7.31251e+13 
 3.88358e+13  7.31251e+13 
 3.51944e+13  7.31251e+13 
 3.15530e+13  7.31251e+13 
 2.79116e+13  7.31251e+13 
 2.42702e+13  7.31251e+13 
 2.06288e+13  7.31251e+13 
 1.69874e+13  7.31251e+13 
 1.33460e+13 73125094642605 
 9.70463e+12  7.31251e+13 
 6.06324e+12  7.31251e+13 
 2.42184e+12  7.31251e+13 
-1.21955e+12  7.31251e+13 
-4.86094e+12  7.31251e+13 
-8.50233e+12  7.31251e+13 
-1.21437e+13  7.31251e+13 
-1.57851e+13  7.31251e+13 
-1.94265e+13  7.31251e+13 
-2.30679e+13  7.31251e+13 
 6.06841e+13  7.66922e+13 
 5.70427e+13  7.66922e+13 
 5.34013e+13  7.66922e+13 
 4.97599e+13  7.66922e+13 
 4.61185e+13  7.66922e+13 
 4.24772e+13  7.66922e+13 
 3.88358e+13  7.66922e+13 
 3.51944e+13  7.66922e+13 
 3.15530e+13  7.66922e+13 
 2.79116e+13  7.66922e+13 
 2.42702e+13  7.66922e+13 
 2.06288e+13  7.66922e+13 
 1.69874e+13  7.66922e+13 
 1.33460e+13  7.66922e+13 
 9.70463e+12  7.66922e+13 
 6.06324e+12  7.66922e+13 
 2.42184e+12  7.66922e+13 
-1.21955e+12  7.66922e+13 
-4.86094e+12  7.66922e+13 
-8.50233e+12  7.66922e+13 
-1.21437e+13  7.66922e+13 
-1.57851e+13  7.66922e+13 
-1.94265e+13  7.66922e+13 
-2.30679e+13  7.66922e+13 
 6.06841e+13  8.02593e+13 
 5.70427e+13  8.02593e+13 
 5.34013e+13  8.02593e+13 
 4.97599e+13  8.02593e+13 
 4.61185e+13  8.02593e+13 
 4.24772e+13  8.02593e+13 
 3.88358e+13  8.02593e+13 
 3.51944e+13  8.02593e+13 
 3.15530e+13  8.02593e+13 
 2.79116e+13  8.02593e+13 
 2.42702e+13  8.02593e+13 
 2.06288e+13  8.02593e+13 
 1.69874e+13  8.02593e+13 
 1.33460e+13  8.02593e+13 
 9.70463e+12  8.02593e+13 
 6.06324e+12  8.02593e+13 
 2.42184e+12  8.02593e+13 
-1.21955e+12  8.02593e+13 
-4.86094e+12  8.02593e+13 
-8.50233e+12  8.02593e+13 
-1.21437e+13  8.02593e+13 
-1.57851e+13  8.02593e+13 
-1.94265e+13  8.02593e+13 
-2.30679e+13  8.02593e+13 
 6.06841e+13  8.38263e+13 
 5.70427e+13  8.38263e+13 
 5.34013e+13  8.38263e+13 
 4.97599e+13  8.38263e+13 
 4.61185e+13  8.38263e+13 
 4.24772e+13  8.38263e+13 
 3.88358e+13  8.38263e+13 
 3.51944e+13  8.38263e+13 
 3.15530e+13  8.38263e+13 
 2.79116e+13  8.38263e+13 
 2.42702e+13  8.38263e+13 
 2.06288e+13  8.38263e+13 
 1.69874e+13  8.38263e+13 
 1.33460e+13  8.38263e+13 
 9.70463e+12  8.38263e+13 
 6.06324e+12  8.38263e+13 
 2.42184e+12  8.38263e+13 
-1.21955e+12  8.38263e+13 
-4.86094e+12  8.38263e+13 
-8.50233e+12  8.38263e+13 
-1.21437e+13  8.38263e+13 
-1.57851e+13  8.38263e+13 
-1.94265e+13  8.38263e+13 
-2.30679e+13  8.38263e+13 
 6.06841e+13  8.73934e+13 
 5.70427e+13  8.73934e+13 
 5.34013e+13  8.73934e+13 
 4.97599e+13  8.73934e+13 
 4.61185e+13  8.73934e+13 
 4.24772e+13  8.73934e+13 
 3.88358e+13  8.73934e+13 
 3.51944e+13  8.73934e+13 
 3.15530e+13  8.73934e+13 
 2.79116e+13  8.73934e+13 
 2.42702e+13 87393405792373 
 2.06288e+13  8.73934e+13 
 1.69874e+13  8.73934e+13 
 1.33460e+13  8.73934e+13 
 9.70463e+12  8.73934e+13 
 6.06324e+12  8.73934e+13 
 2.42184e+12  8.73934e+13 
-1.21955e+12  8.73934e+13 
-4.86094e+12  8.73934e+13 
-8.50233e+12  8.73934e+13 
-1.21437e+13  8.73934e+13 
-1.57851e+13  8.73934e+13 
-1.94265e+13  8.73934e+13 
-2.30679e+13  8.73934e+13 
 6.06841e+13  9.09605e+13 
 5.70427e+13  9.09605e+13 
 5.34013e+13  9.09605e+13 
 4.97599e+13  9.09605e+13 
 4.61185e+13  9.09605e+13 
 4.24772e+13  9.09605e+13 
 3.88358e+13  9.09605e+13 
 3.51944e+13  9.09605e+13 
 3.15530e+13  9.09605e+13 
 2.79116e+13  9.09605e+13 
 2.42702e+13  9.09605e+13 
 2.06288e+13  9.09605e+13 
 1.69874e+13  9.09605e+13 
 1.33460e+13  9.09605e+13 
 9.70463e+12  9.09605e+13 
 6.06324e+12  9.09605e+13 
 2.42184e+12  9.09605e+13 
-1.21955e+12  9.09605e+13 
-4.86094e+12  9.09605e+13 
-8.50233e+12  9.09605e+13 
-1.21437e+13  9.09605e+13 
-1.57851e+13  9.09605e+13 
-1.94265e+13  9.09605e+13 
-2.30679e+13  9.09605e+13 
 6.06841e+13  9.45276e+13 
 5.70427e+13  9.45276e+13 
 5.34013e+13  9.45276e+13 
 4.97599e+13  9.45276e+13 
 4.61185e+13  9.45276e+13 
 4.24772e+13  9.45276e+13 
 3.88358e+13  9.45276e+13 
 3.51944e+13 94527561367256 
 3.15530e+13  9.45276e+13 
 2.79116e+13  9.45276e+13 
 2.42702e+13  9.45276e+13 
 2.06288e+13  9.45276e+13 
 1.69874e+13  9.45276e+13 
 1.33460e+13  9.45276e+13 
 9.70463e+12  9.45276e+13 
 6.06324e+12  9.45276e+13 
 2.42184e+12  9.45276e+13 
-1.21955e+12  9.45276e+13 
-4.86094e+12  9.45276e+13 
-8.50233e+12  9.45276e+13 
-1.21437e+13  9.45276e+13 
-1.57851e+13  9.45276e+13 
-1.94265e+13 94527561367257 
-2.30679e+13  9.45276e+13 
 6.06841e+13  9.80946e+13 
 5.70427e+13  9.80946e+13 
 5.34013e+13  9.80946e+13 
 4.97599e+13  9.80946e+13 
 4.61185e+13  9.80946e+13 
 4.24772e+13  9.80946e+13 
 3.88358e+13  9.80946e+13 
 3.51944e+13  9.80946e+13 
 3.15530e+13  9.80946e+13 
 2.79116e+13  9.80946e+13 
 2.42702e+13  9.80946e+13 
 2.06288e+13  9.80946e+13 
 1.69874e+13  9.80946e+13 
 1.33460e+13  9.80946e+13 
 9.70463e+12  9.80946e+13 
 6.06324e+12  9.80946e+13 
 2.42184e+12  9.80946e+13 
-1.21955e+12  9.80946e+13 
-4.86094e+12  9.80946e+13 
-8.50233e+12  9.80946e+13 
-1.21437e+13  9.80946e+13 
-1.57851e+13  9.80946e+13 
-1.94265e+13  9.80946e+13 
-2.30679e+13  9.80946e+13 
 6.06841e+13  1.01662e+14 
 5.70427e+13  1.01662e+14 
 5.34013e+13 101661716942138 
 4.97599e+13  1.01662e+14 
 4.61185e+13  1.01662e+14 
 4.24772e+13  1.01662e+14 
 3.88358e+13  1.01662e+14 
 3.51944e+13  1.01662e+14 
 3.15530e+13  1.01662e+14 
 2.79116e+13  1.01662e+14 
 2.42702e+13  1.01662e+14 
 2.06288e+13  1.01662e+14 
 1.69874e+13  1.01662e+14 
 1.33460e+13  1.01662e+14 
 9.70463e+12  1.01662e+14 
 6.06324e+12  1.01662e+14 
 2.42184e+12  1.01662e+14 
-1.21955e+12  1.01662e+14 
-4.86094e+12  1.01662e+14 
-8.50233e+12  1.01662e+14 
-1.21437e+13  1.01662e+14 
-1.57851e+13  1.01662e+14 
-1.94265e+13  1.01662e+14 
-2.30679e+13  1.01662e+14 
 6.06841e+13  1.05229e+14 
 5.70427e+13  1.05229e+14 
 5.34013e+13  1.05229e+14 
 4.97599e+13  1.05229e+14 
 4.61185e+13  1.05229e+14 
 4.24772e+13  1.05229e+14 
 3.88358e+13  1.05229e+14 
35194370714547  1.05229e+14 
 3.15530e+13  1.05229e+14 
 2.79116e+13  1.05229e+14 
 2.42702e+13  1.05229e+14 
 2.06288e+13  1.05229e+14 
 1.69874e+13  1.05229e+14 
 1.33460e+13  1.05229e+14 
 9.70463e+12  1.05229e+14 
 6.06324e+12  1.05229e+14 
 2.42184e+12  1.05229e+14 
-1.21955e+12  1.05229e+14 
-4.86094e+12  1.05229e+14 
-8.50233e+12  1.05229e+14 
-1.21437e+13  1.05229e+14 
-1.57851e+13  1.05229e+14 
-1.94265e+13  1.05229e+14 
-2.30679e+13  1.05229e+14 
 6.06841e+13  1.08796e+14 
 5.70427e+13  1.08796e+14 
 5.34013e+13  1.08796e+14 
 4.97599e+13  1.08796e+14 
 4.61185e+13  1.08796e+14 
 4.24772e+13  1.08796e+14 
 3.88358e+13  1.08796e+14 
 3.51944e+13  1.08796e+14 
 3.15530e+13  1.08796e+14 
 2.79116e+13  1.08796e+14 
 2.42702e+13  1.08796e+14 
 2.06288e+13  1.08796e+14 
 1.69874e+13  1.08796e+14 
 1.33460e+13  1.08796e+14 
 9.70463e+12  1.08796e+14 
 6.06324e+12  1.08796e+14 
 2.42184e+12  1.08796e+14 
-1.21955e+12  1.08796e+14 
-4.86094e+12  1.08796e+14 
-8.50233e+12  1.08796e+14 
-1.21437e+13  1.08796e+14 
-1.57851e+13  1.08796e+14 
-1.94265e+13  1.08796e+14 
-2.30679e+13  1.08796e+14 
 6.06841e+13  1.12363e+14 
 5.70427e+13  1.12363e+14 
 5.34013e+13  1.12363e+14 
 4.97599e+13  1.12363e+14 
 4.61185e+13  1.12363e+14 
 4.24772e+13  1.12363e+14 
 3.88358e+13  1.12363e+14 
 3.51944e+13  1.12363e+14 
 3.15530e+13  1.12363e+14 
 2.79116e+13  1.12363e+14 
 2.42702e+13  1.12363e+14 
 2.06288e+13  1.12363e+14 
 1.69874e+13  1.12363e+14 
 1.33460e+13  1.12363e+14 
 9.70463e+12  1.12363e+14 
 6.06324e+12  1.12363e+14 
 2.42184e+12  1.12363e+14 
-1.21955e+12 112362950304465 
-4.86094e+12  1.12363e+14 
-8.50233e+12  1.12363e+14 
-1.21437e+13  1.12363e+14 
-1.57851e+13  1.12363e+14 
-1.94265e+13  1.12363e+14 
-2.30679e+13  1.12363e+14 
 6.06841e+13  1.15930e+14 
 5.70427e+13  1.15930e+14 
 5.34013e+13  1.15930e+14 
 4.97599e+13  1.15930e+14 
 4.61185e+13  1.15930e+14 
 4.24772e+13  1.15930e+14 
 3.88358e+13  1.15930e+14 
 3.51944e+13  1.15930e+14 
 3.15530e+13  1.15930e+14 
 2.79116e+13  1.15930e+14 
 2.42702e+13  1.15930e+14 
 2.06288e+13 115930028091906 
 1.69874e+13  1.15930e+14 
 1.33460e+13  1.15930e+14 
 9.70463e+12  1.15930e+14 
 6.06324e+12  1.15930e+14 
 2.42184e+12  1.15930e+14 
-1.21955e+12  1.15930e+14 
-4.86094e+12  1.15930e+14 
-8.50233e+12  1.15930e+14 
-1.21437e+13  1.15930e+14 
-1.57851e+13  1.15930e+14 
-1.94265e+13  1.15930e+14 
-2.30679e+13  1.15930e+14 
 6.06841e+13 119497105879345 
 5.70427e+13  1.19497e+14 
 5.34013e+13  1.19497e+14 
 4.97599e+13  1.19497e+14 
 4.61185e+13  1.19497e+14 
 4.24772e+13  1.19497e+14 
 3.88358e+13  1.19497e+14 
 3.51944e+13  1.19497e+14 
 3.15530e+13  1.19497e+14 
 2.79116e+13 119497105879347 
 2.42702e+13  1.19497e+14 
 2.06288e+13  1.19497e+14 
 1.69874e+13  1.19497e+14 
 1.33460e+13  1.19497e+14 
 9.70463e+12  1.19497e+14 
 6.06324e+12  1.19497e+14 
 2.42184e+12  1.19497e+14 
-1.21955e+12  1.19497e+14 
-4.86094e+12  1.19497e+14 
-8.50233e+12  1.19497e+14 
-1.21437e+13  1.19497e+14 
-1.57851e+13  1.19497e+14 
-1.94265e+13  1.19497e+14 
-2.30679e+13  1.19497e+14 
 6.06841e+13  1.23064e+14 
 5.70427e+13  1.23064e+14 
 5.34013e+13  1.23064e+14 
 4.97599e+13  1.23064e+14 
 4.61185e+13  1.23064e+14 
 4.24772e+13  1.23064e+14 
 3.88358e+13  1.23064e+14 
 3.51944e+13  1.23064e+14 
 3.15530e+13  1.23064e+14 
 2.79116e+13  1.23064e+14 
24270194990506  1.23064e+14 
 2.06288e+13  1.23064e+14 
 1.69874e+13  1.23064e+14 
 1.33460e+13 123064183666789 
 9.70463e+12  1.23064e+14 
 6.06324e+12  1.23064e+14 
 2.42184e+12  1.23064e+14 
-1.21955e+12  1.23064e+14 
-4.86094e+12  1.23064e+14 
-8.50233e+12  1.23064e+14 
-1.21437e+13  1.23064e+14 
-1.57851e+13  1.23064e+14 
-1.94265e+13  1.23064e+14 
-2.30679e+13  1.23064e+14 
 6.06841e+13  1.26631e+14 
 5.70427e+13  1.26631e+14 
 5.34013e+13  1.26631e+14 
 4.97599e+13  1.26631e+14 
 4.61185e+13  1.26631e+14 
 4.24772e+13  1.26631e+14 
 3.88358e+13  1.26631e+14 
 3.51944e+13  1.26631e+14 
 3.15530e+13  1.26631e+14 
 2.79116e+13  1.26631e+14 
 2.42702e+13  1.26631e+14 
 2.06288e+13  1.26631e+14 
 1.69874e+13  1.26631e+14 
 1.33460e+13  1.26631e+14 
 9.70463e+12  1.26631e+14 
 6.06324e+12  1.26631e+14 
 2.42184e+12  1.26631e+14 
-1.21955e+12  1.26631e+14 
-4.86094e+12  1.26631e+14 
-8.50233e+12  1.26631e+14 
-1.21437e+13  1.26631e+14 
-1.57851e+13  1.26631e+14 
-1.94265e+13  1.26631e+14 
-2.30679e+13  1.26631e+14 
 6.06841e+13  1.30198e+14 
 5.70427e+13  1.30198e+14 
 5.34013e+13  1.30198e+14 
 4.97599e+13  1.30198e+14 
 4.61185e+13  1.30198e+14 
 4.24772e+13  1.30198e+14 
 3.88358e+13  1.30198e+14 
 3.51944e+13  1.30198e+14 
 3.15530e+13  1.30198e+14 
 2.79116e+13  1.30198e+14 
 2.42702e+13  1.30198e+14 
 2.06288e+13  1.30198e+14 
 1.69874e+13  1.30198e+14 
 1.33460e+13  1.30198e+14 
 9.70463e+12  1.30198e+14 
 6.06324e+12  1.30198e+14 
 2.42184e+12  1.30198e+14 
-1.21955e+12 130198339241672 
-4.86094e+12  1.30198e+14 
-8.50233e+12  1.30198e+14 
-1.21437e+13  1.30198e+14 
-1.57851e+13  1.30198e+14 
-1.94265e+13  1.30198e+14 
-2.30679e+13  1.30198e+14 
 6.06841e+13  1.33765e+14 
 5.70427e+13  1.33765e+14 
 5.34013e+13  1.33765e+14 
 4.97599e+13  1.33765e+14 
 4.61185e+13  1.33765e+14 
 4.24772e+13  1.33765e+14 
 3.88358e+13  1.33765e+14 
 3.51944e+13  1.33765e+14 
 3.15530e+13  1.33765e+14 
 2.79116e+13  1.33765e+14 
 2.42702e+13  1.33765e+14 
 2.06288e+13  1.33765e+14 
 1.69874e+13  1.33765e+14 
 1.33460e+13  1.33765e+14 
 9.70463e+12  1.33765e+14 
 6.06324e+12 133765417029113 
 2.42184e+12  1.33765e+14 
-1.21955e+12  1.33765e+14 
-4.86094e+12  1.33765e+14 
-8.50233e+12  1.33765e+14 
-1.21437e+13  1.33765e+14 
-1.57851e+13  1.33765e+14 
-1.94265e+13  1.33765e+14 
-2.30679e+13  1.33765e+14 
 6.06841e+13  1.37332e+14 
 5.70427e+13  1.37332e+14 
 5.34013e+13  1.37332e+14 
 4.97599e+13  1.37332e+14 
 4.61185e+13 137332494816552 
 4.24772e+13  1.37332e+14 
 3.88358e+13  1.37332e+14 
 3.51944e+13  1.37332e+14 
 3.15530e+13  1.37332e+14 
 2.79116e+13  1.37332e+14 
 2.42702e+13  1.37332e+14 
 2.06288e+13  1.37332e+14 
 1.69874e+13  1.37332e+14 
 1.33460e+13 137332494816554 
 9.70463e+12  1.37332e+14 
 6.06324e+12  1.37332e+14 
 2.42184e+12  1.37332e+14 
-1.21955e+12  1.37332e+14 
-4.86094e+12  1.37332e+14 
-8.50233e+12  1.37332e+14 
-1.21437e+13  1.37332e+14 
-1.57851e+13  1.37332e+14 
-1.94265e+13  1.37332e+14 
-2.30679e+13  1.37332e+14 
 6.06841e+13  1.40900e+14 
 5.70427e+13  1.40900e+14 
 5.34013e+13  1.40900e+14 
 4.97599e+13  1.40900e+14 
 4.61185e+13  1.40900e+14 
 4.24772e+13  1.40900e+14 
 3.88358e+13  1.40900e+14 
 3.51944e+13  1.40900e+14 
 3.15530e+13  1.40900e+14 
 2.79116e+13  1.40900e+14 
 2.42702e+13  1.40900e+14 
 2.06288e+13 140899572603995 
 1.69874e+13 140899572603995 
 1.33460e+13  1.40900e+14 
 9.70463e+12  1.40900e+14 
6063235450439  1.40900e+14 
 2.42184e+12  1.40900e+14 
-1.21955e+12  1.40900e+14 
-4.86094e+12  1.40900e+14 
-8.50233e+12  1.40900e+14 
-1.21437e+13  1.40900e+14 
-1.57851e+13  1.40900e+14 
-1.94265e+13  1.40900e+14 
-2.30679e+13  1.40900e+14 
 6.06841e+13  1.44467e+14 
 5.70427e+13  1.44467e+14 
 5.34013e+13  1.44467e+14 
 4.97599e+13  1.44467e+14 
 4.61185e+13  1.44467e+14 
 4.24772e+13  1.44467e+14 
 3.88358e+13  1.44467e+14 
 3.51944e+13  1.44467e+14 
 3.15530e+13  1.44467e+14 
 2.79116e+13  1.44467e+14 
 2.42702e+13  1.44467e+14 
 2.06288e+13  1.44467e+14 
 1.69874e+13  1.44467e+14 
 1.33460e+13  1.44467e+14 
 9.70463e+12  1.44467e+14 
 6.06324e+12  1.44467e+14 
 2.42184e+12  1.44467e+14 
-1.21955e+12  1.44467e+14 
-4.86094e+12  1.44467e+14 
-8.50233e+12  1.44467e+14 
-1.21437e+13  1.44467e+14 
-1.57851e+13  1.44467e+14 
-1.94265e+13  1.44467e+14 
-2.30679e+13  1.44467e+14 
 6.06841e+13  1.48034e+14 
 5.70427e+13  1.48034e+14 
 5.34013e+13  1.48034e+14 
 4.97599e+13  1.48034e+14 
 4.61185e+13  1.48034e+14 
 4.24772e+13  1.48034e+14 
 3.88358e+13  1.48034e+14 
 3.51944e+13  1.48034e+14 
 3.15530e+13  1.48034e+14 
 2.79116e+13  1.48034e+14 
 2.42702e+13  1.48034e+14 
 2.06288e+13  1.48034e+14 
 1.69874e+13  1.48034e+14 
 1.33460e+13  1.48034e+14 
 9.70463e+12  1.48034e+14 
 6.06324e+12  1.48034e+14 
 2.42184e+12  1.48034e+14 
-1.21955e+12  1.48034e+14 
-4.86094e+12  1.48034e+14 
-8.50233e+12  1.48034e+14 
-1.21437e+13  1.48034e+14 
-1.57851e+13  1.48034e+14 
-1.94265e+13  1.48034e+14 
-2.30679e+13  1.48034e+14 
 6.06841e+13  1.51601e+14 
 5.70427e+13  1.51601e+14 
 5.34013e+13  1.51601e+14 
 4.97599e+13  1.51601e+14 
 4.61185e+13  1.51601e+14 
 4.24772e+13  1.51601e+14 
 3.88358e+13  1.51601e+14 
 3.51944e+13  1.51601e+14 
 3.15530e+13  1.51601e+14 
 2.79116e+13  1.51601e+14 
 2.42702e+13  1.51601e+14 
 2.06288e+13  1.51601e+14 
 1.69874e+13  1.51601e+14 
 1.33460e+13  1.51601e+14 
 9.70463e+12  1.51601e+14 
 6.06324e+12  1.51601e+14 
 2.42184e+12  1.51601e+14 
-1.21955e+12  1.51601e+14 
-4.86094e+12  1.51601e+14 
-8.50233e+12  1.51601e+14 
-1.21437e+13  1.51601e+14 
-1.57851e+13  1.51601e+14 
-1.94265e+13  1.51601e+14 
-2.30679e+13  1.51601e+14 
 6.06841e+13  1.55168e+14 
 5.70427e+13  1.55168e+14 
 5.34013e+13  1.55168e+14 
 4.97599e+13  1.55168e+14 
 4.61185e+13  1.55168e+14 
 4.24772e+13  1.55168e+14 
 3.88358e+13  1.55168e+14 
 3.51944e+13  1.55168e+14 
 3.15530e+13  1.55168e+14 
 2.79116e+13  1.55168e+14 
 2.42702e+13  1.55168e+14 
 2.06288e+13  1.55168e+14 
 1.69874e+13  1.55168e+14 
 1.33460e+13  1.55168e+14 
 9.70463e+12  1.55168e+14 
 6.06324e+12  1.55168e+14 
 2.42184e+12  1.55168e+14 
-1.21955e+12  1.55168e+14 
-4.86094e+12  1.55168e+14 
-8.50233e+12  1.55168e+14 
-1.21437e+13  1.55168e+14 
-1.57851e+13  1.55168e+14 
-1.94265e+13  1.55168e+14 
-2.30679e+13  1.55168e+14 
 6.06841e+13  1.58735e+14 
 5.70427e+13  1.58735e+14 
 5.34013e+13  1.58735e+14 
 4.97599e+13 158734961541199 
 4.61185e+13  1.58735e+14 
 4.24772e+13  1.58735e+14 
 3.88358e+13  1.58735e+14 
 3.51944e+13  1.58735e+14 
 3.15530e+13  1.58735e+14 
 2.79116e+13  1.58735e+14 
 2.42702e+13  1.58735e+14 
 2.06288e+13  1.58735e+14 
 1.69874e+13  1.58735e+14 
 1.33460e+13  1.58735e+14 
 9.70463e+12  1.58735e+14 
 6.06324e+12  1.58735e+14 
 2.42184e+12  1.58735e+14 
-1.21955e+12  1.58735e+14 
-4.86094e+12  1.58735e+14 
-8.50233e+12  1.58735e+14 
-1.21437e+13  1.58735e+14 
-1.57851e+13  1.58735e+14 
-1.94265e+13  1.58735e+14 
-2.30679e+13  1.58735e+14 
 6.06841e+13  1.62302e+14 
 5.70427e+13  1.62302e+14 
 5.34013e+13  1.62302e+14 
 4.97599e+13  1.62302e+14 
 4.61185e+13  1.62302e+14 
 4.24772e+13  1.62302e+14 
 3.88358e+13  1.62302e+14 
 3.51944e+13  1.62302e+14 
 3.15530e+13  1.62302e+14 
 2.79116e+13  1.62302e+14 
 2.42702e+13  1.62302e+14 
 2.06288e+13  1.62302e+14 
 1.69874e+13  1.62302e+14 
 1.33460e+13  1.62302e+14 
 9.70463e+12  1.62302e+14 
 6.06324e+12  1.62302e+14 
 2.42184e+12  1.62302e+14 
-1.21955e+12  1.62302e+14 
-4.86094e+12  1.62302e+14 
-8.50233e+12  1.62302e+14 
-1.21437e+13  1.62302e+14 
-1.57851e+13  1.62302e+14 
-1.94265e+13  1.62302e+14 
-2.30679e+13  1.62302e+14 
 6.06841e+13  1.65869e+14 
 5.70427e+13  1.65869e+14 
 5.34013e+13  1.65869e+14 
 4.97599e+13  1.65869e+14 
 4.61185e+13  1.65869e+14 
 4.24772e+13  1.65869e+14 
 3.88358e+13  1.65869e+14 
 3.51944e+13  1.65869e+14 
 3.15530e+13  1.65869e+14 
 2.79116e+13  1.65869e+14 
 2.42702e+13  1.65869e+14 
 2.06288e+13  1.65869e+14 
 1.69874e+13  1.65869e+14 
 1.33460e+13  1.65869e+14 
 9.70463e+12  1.65869e+14 
 6.06324e+12  1.65869e+14 
 2.42184e+12  1.65869e+14 
-1.21955e+12  1.65869e+14 
-4.86094e+12  1.65869e+14 
-8.50233e+12  1.65869e+14 
-1.21437e+13  1.65869e+14 
-1.57851e+13  1.65869e+14 
-1.94265e+13  1.65869e+14 
-2.30679e+13  1.65869e+14 
 6.06841e+13  1.69436e+14 
 5.70427e+13  1.69436e+14 
 5.34013e+13  1.69436e+14 
 4.97599e+13  1.69436e+14 
 4.61185e+13  1.69436e+14 
 4.24772e+13  1.69436e+14 
 3.88358e+13  1.69436e+14 
 3.51944e+13  1.69436e+14 
 3.15530e+13  1.69436e+14 
 2.79116e+13  1.69436e+14 
 2.42702e+13  1.69436e+14 
 2.06288e+13  1.69436e+14 
 1.69874e+13  1.69436e+14 
 1.33460e+13  1.69436e+14 
 9.70463e+12  1.69436e+14 
 6.06324e+12  1.69436e+14 
 2.42184e+12  1.69436e+14 
-1.21955e+12  1.69436e+14 
-4.86094e+12  1.69436e+14 
-8.50233e+12  1.69436e+14 
-1.21437e+13  1.69436e+14 
-1.57851e+13  1.69436e+14 
-1.94265e+13  1.69436e+14 
-2.30679e+13  1.69436e+14 
 6.06841e+13  1.73003e+14 
 5.70427e+13  1.73003e+14 
 5.34013e+13  1.73003e+14 
 4.97599e+13  1.73003e+14 
 4.61185e+13  1.73003e+14 
 4.24772e+13  1.73003e+14 
 3.88358e+13  1.73003e+14 
 3.51944e+13  1.73003e+14 
 3.15530e+13  1.73003e+14 
 2.79116e+13  1.73003e+14 
 2.42702e+13  1.73003e+14 
 2.06288e+13  1.73003e+14 
 1.69874e+13  1.73003e+14 
 1.33460e+13  1.73003e+14 
 9.70463e+12  1.73003e+14 
 6.06324e+12  1.73003e+14 
 2.42184e+12  1.73003e+14 
-1.21955e+12  1.73003e+14 
-4.86094e+12  1.73003e+14 
-8.50233e+12  1.73003e+14 
-1.21437e+13  1.73003e+14 
-1.57851e+13  1.73003e+14 
-1.94265e+13  1.73003e+14 
-2.30679e+13  1.73003e+14 </DataArray>
            <DataArray Name="strain" NumberOfComponents="3" format="ascii" type="Float64">
-1.46642e+02  1.10815e+02  5.86634e+00 
-7.32093e+01  1.42220e+02  3.58005e+01 
-4.12215e+01  9.54654e+01  4.12988e+01 
-2.91997e+01  6.43088e+01  2.27626e+01 
-2.05911e+01  4.69840e+01  1.33413e+01 
-1.61253e+01  3.73502e+01  9.87846e+00 
-1.44616e+01  3.15365e+01  7.11678e+00 
-1.17284e+01  2.62840e+01  5.43079e+00 
-9.55299e+00  2.24299e+01  4.09019e+00 
-8.82576e+00  1.94392e+01  4.05049e+00 
-7.78464e+00  1.66408e+01  3.69078e+00 
-6.15964e+00  1.36263e+01  3.11578e+00 
-5.37982e+00  1.14309e+01  2.94668e+00 
-4.06247e+00  9.15904e+00  2.66206e+00 
-3.24814e+00  7.28365e+00  2.17816e+00 
-2.53699e+00  5.61969e+00  1.94577e+00 
-1.90599e+00  4.21876e+00  1.72955e+00 
-1.27306e+00  3.00308e+00  1.45770e+00 
-8.51649e-01  1.94196e+00  1.27691e+00 
-3.84576e-01  1.05169e+00  1.03364e+00 
 3.36302e-02  5.02383e-01  5.59975e-01 
-2.43238e-01  3.88840e-01  4.60537e-01 
-1.48638e-01  1.27365e-01  1.26787e-01 
-2.54771e-01  8.02813e-02 -8.39869e-02 
 2.85636e-01 -8.51340e-02 -4.97302e-01 
-4.46782e+01  2.60955e+00  3.69948e+01 
 6.61842e+00  1.61067e+01  4.62659e+01 
-1.03784e+01  3.61126e+01  4.04712e+01 
-1.33857e+01  3.83413e+01  3.19536e+01 
-1.40021e+01  3.44440e+01  2.22523e+01 
-1.19695e+01  2.95609e+01  1.66576e+01 
-1.12438e+01  2.58944e+01  1.25070e+01 
-1.03345e+01  2.26739e+01  1.02380e+01 
-9.38745e+00  1.99293e+01  8.33209e+00 
-7.23639e+00  1.69032e+01  7.60759e+00 
-6.23354e+00  1.45806e+01  6.90219e+00 
-5.45103e+00  1.25252e+01  6.19026e+00 
-4.44295e+00  1.05068e+01  5.73669e+00 
-4.09948e+00  8.94245e+00  5.12696e+00 
-3.25861e+00  7.27178e+00  4.44210e+00 
-2.42868e+00  5.77071e+00  3.82801e+00 
-1.92697e+00  4.54671e+00  3.42489e+00 
-1.43088e+00  3.39785e+00  3.01395e+00 
-1.08561e+00  2.50983e+00  2.51729e+00 
-8.17145e-01  1.78271e+00  2.10745e+00 
-6.88263e-01  1.25441e+00  1.22420e+00 
-3.41372e-01  6.80401e-01  8.93532e-01 
-3.27314e-01  4.98759e-01  4.78397e-01 
-5.17199e-01  3.84455e-01 -3.51673e-02 
-3.86882e-01  1.86285e-01  9.24364e-02 
-6.29981e+01  3.52859e+01 -1.71723e+01 
-3.68938e+00  6.22465e-02  2.47769e+00 
 4.26669e+00  4.48790e+00  2.69720e+01 
-1.44071e+00  1.41272e+01  3.17282e+01 
-5.29481e+00  1.88101e+01  2.93292e+01 
-6.27531e+00  1.92509e+01  2.46955e+01 
-6.34097e+00  1.80198e+01  1.98549e+01 
-7.40923e+00  1.76078e+01  1.65500e+01 
-7.29689e+00  1.62514e+01  1.50242e+01 
-6.22664e+00  1.41293e+01  1.37187e+01 
-5.08130e+00  1.22033e+01  1.23392e+01 
-4.55887e+00  1.09371e+01  1.11572e+01 
-3.92314e+00  9.32143e+00  1.03618e+01 
-3.32842e+00  7.96535e+00  9.13114e+00 
-2.66912e+00  6.65350e+00  8.38732e+00 
-2.32893e+00  5.73479e+00  7.24322e+00 
-1.78265e+00  4.66400e+00  6.47006e+00 
-1.32266e+00  3.51677e+00  5.64597e+00 
-9.05011e-01  2.69876e+00  4.78710e+00 
-6.79926e-01  2.07120e+00  3.84257e+00 
-4.90010e-01  1.45337e+00  2.80745e+00 
 1.19077e-01  6.85234e-01  1.92770e+00 
-1.07871e-01  5.26741e-01  8.31353e-01 
-3.91020e-01  4.66696e-01  3.48871e-01 
-4.80677e-01  4.51481e-01  5.38412e-01 
-4.18863e+01  1.91809e+01 -1.04391e+01 
-1.60351e+01  6.99882e+00 -8.63577e+00 
 1.34431e+00 -3.38829e-01  5.55188e+00 
 9.41404e-01  3.85928e+00  1.84032e+01 
 2.51420e-01  7.80904e+00  2.41806e+01 
-1.52443e+00  1.05267e+01  2.39178e+01 
-3.47364e+00  1.18072e+01  2.16794e+01 
-4.27269e+00  1.21943e+01  1.96127e+01 
-3.84366e+00  1.13855e+01  1.89963e+01 
-4.20345e+00  1.09975e+01  1.71317e+01 
-4.01723e+00  9.96700e+00  1.60665e+01 
-3.45794e+00  8.96463e+00  1.45398e+01 
-2.78151e+00  7.99569e+00  1.36825e+01 
-2.18796e+00  6.94011e+00  1.23132e+01 
-2.09715e+00  6.03307e+00  1.11580e+01 
-1.79533e+00  5.21711e+00  9.80704e+00 
-1.34131e+00  4.17694e+00  8.76996e+00 
-1.04436e+00  3.56307e+00  7.49320e+00 
-6.62684e-01  2.63360e+00  6.49743e+00 
-4.16868e-01  2.00329e+00  5.11810e+00 
-1.56923e-02  1.15955e+00  3.83696e+00 
-1.74510e-01  1.00614e+00  3.12115e+00 
 2.62891e-01  3.25890e-01  1.64932e+00 
 8.99503e-02  9.96492e-02  6.69445e-01 
-7.78845e-01  5.43695e-01  3.68834e-01 
-3.46999e+01  1.59877e+01 -7.59317e+00 
-1.64870e+01  6.67894e+00 -6.53661e+00 
-4.48747e+00  1.37193e+00 -3.08783e+00 
 1.12883e+00  2.67762e-01  7.96164e+00 
 4.42600e-01  3.18267e+00  1.58584e+01 
-2.43521e-01  5.76474e+00  1.96262e+01 
-1.22302e+00  6.99928e+00  1.98326e+01 
-8.06004e-01  7.20756e+00  1.95253e+01 
-1.58944e+00  7.49953e+00  1.95699e+01 
-2.15553e+00  7.85903e+00  1.89046e+01 
-1.96518e+00  7.59374e+00  1.80631e+01 
-1.95703e+00  6.91902e+00  1.74175e+01 
-1.60692e+00  6.09134e+00  1.58738e+01 
-1.63993e+00  6.00548e+00  1.43326e+01 
-1.13288e+00  5.00604e+00  1.28801e+01 
-8.68636e-01  4.41631e+00  1.13676e+01 
-8.00446e-01  3.66521e+00  1.00935e+01 
-5.06917e-01  3.06762e+00  8.56087e+00 
-1.86619e-01  2.46540e+00  7.21988e+00 
 2.05296e-02  1.85865e+00  6.24007e+00 
 2.02529e-01  1.48307e+00  4.95152e+00 
 2.80716e-01  5.56478e-01  3.54605e+00 
-1.96950e-01  6.00597e-01  2.09704e+00 
 1.98423e-01  7.76565e-03  1.10870e+00 
-2.37993e-01  1.49452e-01  7.29096e-01 
-2.56368e+01  1.17626e+01 -3.71553e+00 
-1.57601e+01  6.50480e+00 -5.95899e+00 
-7.92301e+00  3.25718e+00 -4.91148e+00 
-1.16927e+00  1.56203e-01  1.98813e+00 
-6.10943e-01  1.66009e+00  8.55362e+00 
-3.03318e-01  3.13827e+00  1.53071e+01 
 2.98235e-01  3.39279e+00  1.70129e+01 
 9.06082e-01  3.77765e+00  1.84122e+01 
 9.28329e-02  4.66783e+00  1.82494e+01 
-6.08855e-01  5.13209e+00  1.91529e+01 
-5.70756e-01  5.04080e+00  1.85405e+01 
-9.05990e-01  5.41469e+00  1.79260e+01 
-6.74496e-01  4.42030e+00  1.70198e+01 
-7.97721e-01  4.60664e+00  1.54682e+01 
-3.15955e-01  3.74269e+00  1.40226e+01 
-2.20575e-01  3.55038e+00  1.27536e+01 
 2.88220e-03  2.89388e+00  1.12866e+01 
 1.80750e-01  2.40484e+00  1.00975e+01 
-1.12647e-01  2.69838e+00  8.77123e+00 
 3.83277e-01  1.82653e+00  7.24321e+00 
 7.05491e-01  1.10725e+00  5.58810e+00 
 9.86013e-01  3.66349e-01  3.95746e+00 
 6.04035e-01  4.63510e-01  2.53198e+00 
 7.76072e-01 -1.06414e-02  1.26625e+00 
 1.20493e+00 -6.25044e-01  3.29614e-01 
-2.28216e+01  1.05551e+01 -1.80859e+00 
-1.64704e+01  7.04924e+00 -4.80060e+00 
-9.80817e+00  4.09058e+00 -6.41566e+00 
-5.96556e+00  2.20222e+00 -1.09458e+00 
-6.27853e-01  5.03015e-01  3.95612e+00 
-1.09182e+00  1.95822e+00  9.97759e+00 
-1.30736e-01  1.86323e+00  1.32920e+01 
 9.89953e-01  1.74945e+00  1.50448e+01 
 4.63511e-01  2.32237e+00  1.58859e+01 
 1.16351e+00  2.84650e+00  1.83008e+01 
 1.35328e+00  2.86114e+00  1.78791e+01 
 7.14398e-01  3.39609e+00  1.73034e+01 
 1.25335e-01  3.49260e+00  1.71754e+01 
 5.01087e-01  3.15827e+00  1.61380e+01 
 1.96842e-02  3.54938e+00  1.55817e+01 
 6.47756e-01  2.89001e+00  1.39121e+01 
 7.94642e-01  2.07571e+00  1.25052e+01 
 4.59427e-01  2.42194e+00  1.13957e+01 
 9.07674e-01  1.54281e+00  1.00653e+01 
 9.19582e-01  1.43563e+00  8.33703e+00 
 1.18658e+00  8.51405e-01  6.85245e+00 
 9.87212e-01  4.56935e-01  5.16552e+00 
 1.88362e+00 -5.08959e-01  3.32126e+00 
 1.21914e+00 -2.73199e-01  1.73427e+00 
 8.59404e-01 -1.42983e-01  5.91764e-01 
-2.10391e+01  9.41067e+00 -1.04550e+00 
-1.53589e+01  6.41275e+00 -3.09848e+00 
-1.00703e+01  4.57459e+00 -6.68277e+00 
-5.69926e+00  2.87902e+00 -1.92298e+00 
-4.04044e+00  1.80291e+00  1.47865e+00 
-1.07557e+00  2.82814e-01  6.72965e+00 
 7.57179e-01 -2.00999e-01  1.05221e+01 
-2.80723e-01  1.77069e+00  1.20926e+01 
 1.48670e+00  1.34298e+00  1.39591e+01 
 2.17780e+00  9.34525e-01  1.63799e+01 
 5.91046e-01  2.40052e+00  1.68951e+01 
 1.52533e+00  2.12336e+00  1.76101e+01 
 1.22825e+00  2.38753e+00  1.77199e+01 
 1.22624e+00  2.49737e+00  1.66449e+01 
 1.18972e+00  1.92304e+00  1.57172e+01 
 1.20094e+00  2.03124e+00  1.45633e+01 
 8.49906e-01  2.39914e+00  1.35688e+01 
 8.91601e-01  2.21838e+00  1.26827e+01 
 1.56376e+00  8.06467e-01  1.12171e+01 
 1.72106e+00  8.48846e-01  9.58995e+00 
 1.70762e+00  7.24601e-01  7.51849e+00 
 1.83622e+00 -3.56754e-03  5.54613e+00 
 2.22216e+00 -8.40717e-01  3.78798e+00 
 2.20818e+00 -1.23994e+00  1.79001e+00 
 1.55938e+00 -3.27374e-01  1.09842e+00 
-2.01471e+01  8.98703e+00 -6.49180e-01 
-1.62633e+01  6.81778e+00 -2.24115e+00 
-1.14578e+01  4.50375e+00 -4.92410e+00 
-7.91855e+00  3.79144e+00 -2.82871e+00 
-5.17507e+00  2.25747e+00  6.60302e-01 
-8.11965e-01 -2.50669e-01  5.19395e+00 
-3.06418e-01  2.89013e-01  8.61613e+00 
 5.27960e-01  4.51524e-01  1.09880e+01 
 1.38699e+00  1.65546e-01  1.33280e+01 
 9.41430e-01  1.06726e+00  1.53943e+01 
 1.39011e+00  1.75718e+00  1.67676e+01 
 1.87298e+00  1.50703e+00  1.67125e+01 
 1.77875e+00  1.60047e+00  1.70233e+01 
 1.61370e+00  1.59213e+00  1.69115e+01 
 1.72633e+00  1.78087e+00  1.64361e+01 
 1.20857e+00  2.29731e+00  1.58855e+01 
 1.40885e+00  1.73767e+00  1.43228e+01 
 2.21038e+00  3.17723e-01  1.25698e+01 
 2.07530e+00  7.73996e-01  1.11628e+01 
 2.14898e+00  4.23849e-01  1.03390e+01 
 1.98126e+00  2.55568e-01  8.41745e+00 
 2.64535e+00 -8.73078e-01  6.42561e+00 
 2.67485e+00 -1.01242e+00  4.43313e+00 
 2.94955e+00 -1.38050e+00  2.04414e+00 
 2.31155e+00 -1.07260e+00  1.35371e+00 
-1.70251e+01  7.65478e+00  2.90569e-01 
-1.52911e+01  7.10669e+00 -7.27279e-01 
-1.27469e+01  6.02821e+00 -2.36272e+00 
-9.46840e+00  3.88061e+00 -1.85687e+00 
-3.96304e+00  1.04639e+00  1.02554e+00 
-3.37684e+00  1.19689e+00  4.52751e+00 
-1.10655e+00  3.85338e-01  6.72136e+00 
 8.86680e-01 -3.87631e-01  9.75270e+00 
 2.68594e-01  1.29058e+00  1.17905e+01 
 5.01323e-01  1.62239e+00  1.44735e+01 
 1.92613e+00 -1.91385e-01  1.62935e+01 
 1.63169e+00  3.37526e-01  1.61198e+01 
 1.59976e+00  2.23738e+00  1.63337e+01 
 2.17609e+00  1.05318e+00  1.63839e+01 
 1.98063e+00  1.39541e+00  1.56644e+01 
 2.03173e+00  1.19832e+00  1.45393e+01 
 2.33676e+00  6.03158e-01  1.35360e+01 
 2.39405e+00  1.91358e-01  1.27805e+01 
 2.16417e+00  1.43027e+00  1.20604e+01 
 2.55759e+00  3.69919e-01  1.01899e+01 
 3.65635e+00 -1.09691e+00  8.50867e+00 
 3.61450e+00 -1.20236e+00  6.50844e+00 
 3.57218e+00 -1.65873e+00  4.72462e+00 
 3.26529e+00 -1.15800e+00  2.12279e+00 
 2.77830e+00 -1.04321e+00  1.39918e+00 
-1.61400e+01  7.92753e+00  8.40416e-02 
-1.44577e+01  6.97711e+00 -1.21057e+00 
-1.13921e+01  5.27464e+00 -3.42232e+00 
-8.49154e+00  2.98483e+00 -1.23674e+00 
-5.83026e+00  2.32303e+00  1.13849e+00 
-3.94413e+00  8.39235e-01  3.77558e+00 
-1.14123e+00  1.83873e-01  6.78813e+00 
-6.30756e-01  1.31366e+00  8.35959e+00 
-2.43800e-01  6.40096e-01  1.00622e+01 
 9.94377e-01  3.84497e-01  1.23752e+01 
 7.64829e-01  9.66090e-01  1.45575e+01 
 1.94883e+00  2.98781e-01  1.56989e+01 
 2.44907e+00  3.30606e-01  1.58322e+01 
 2.05390e+00  1.14217e+00  1.48633e+01 
 1.97236e+00  1.01118e+00  1.42525e+01 
 2.08205e+00  1.12704e+00  1.44164e+01 
 2.65315e+00  3.69078e-01  1.39378e+01 
 2.58363e+00  3.89206e-01  1.33913e+01 
 3.18924e+00 -4.20015e-02  1.22650e+01 
 3.39094e+00 -4.96690e-01  1.06262e+01 
 3.52497e+00 -8.58805e-01  9.38409e+00 
 4.04904e+00 -1.38892e+00  7.60168e+00 
 4.18311e+00 -1.58572e+00  5.89767e+00 
 4.47760e+00 -1.71887e+00  3.39184e+00 
 4.43886e+00 -1.85578e+00  1.87320e+00 
-1.84626e+01  9.30758e+00 -1.36275e-01 
-1.50719e+01  6.29525e+00 -1.36299e+00 
-1.18717e+01  4.82663e+00 -2.54466e+00 
-9.28424e+00  3.29101e+00 -1.58734e+00 
-7.63162e+00  2.96270e+00  7.96996e-01 
-3.92846e+00  1.84262e+00  3.51706e+00 
-2.78810e+00  1.69698e+00  5.86466e+00 
-9.74909e-01  4.66988e-01  5.21269e+00 
 5.18370e-01  2.16277e-01  6.82342e+00 
 6.16739e-02  8.80969e-01  9.50139e+00 
 5.47522e-01  9.19535e-01  1.20367e+01 
 1.55425e+00  1.28248e+00  1.28240e+01 
 2.41863e+00 -1.62588e-02  1.35732e+01 
 2.37918e+00  6.57941e-01  1.40365e+01 
 2.08863e+00  1.22013e+00  1.41107e+01 
 2.54946e+00  9.23190e-01  1.39705e+01 
 2.39848e+00  5.91976e-01  1.31862e+01 
 2.77093e+00  4.44091e-01  1.29349e+01 
 3.44145e+00 -5.25779e-02  1.20409e+01 
 3.90847e+00 -6.40995e-01  1.16266e+01 
 3.73248e+00 -5.31878e-01  1.03558e+01 
 4.46385e+00 -1.35189e+00  8.98950e+00 
 4.85993e+00 -1.59985e+00  7.00481e+00 
 5.32593e+00 -2.17067e+00  4.20980e+00 
 5.96369e+00 -2.61685e+00  2.79995e+00 
-1.84793e+01  8.30463e+00  8.90263e-01 
-1.62825e+01  7.15172e+00 -4.48940e-01 
-1.21523e+01  5.03638e+00 -1.64649e+00 
-9.97779e+00  3.32650e+00 -6.42625e-01 
-7.02933e+00  2.96542e+00  1.73082e+00 
-3.41658e+00  6.49203e-01  3.51773e+00 
-3.55686e+00  1.41723e+00  4.23007e+00 
-1.02812e+00  3.46962e-02  4.55349e+00 
-9.62741e-01  1.35770e+00  5.32729e+00 
-6.06916e-02  7.64397e-01  7.97478e+00 
 4.17735e-01  1.27268e+00  1.05118e+01 
 7.95074e-01  1.10374e+00  1.13922e+01 
 1.43256e+00  1.45161e+00  1.10729e+01 
 1.67894e+00  1.69533e+00  1.18765e+01 
 2.24313e+00  9.61698e-01  1.23356e+01 
 2.26750e+00  5.57057e-01  1.23824e+01 
 2.15828e+00  1.24976e+00  1.23717e+01 
 3.12060e+00 -2.57341e-02  1.22670e+01 
 3.48614e+00  4.13451e-01  1.16554e+01 
 3.56089e+00  1.01275e-02  1.12613e+01 
 4.42580e+00 -8.52552e-01  1.01201e+01 
 4.65488e+00 -6.75574e-01  9.08918e+00 
 5.69646e+00 -2.19832e+00  7.03203e+00 
 6.48510e+00 -2.37561e+00  4.80996e+00 
 7.63032e+00 -2.51142e+00  2.83465e+00 
-1.69233e+01  7.70695e+00 -2.93928e-01 
-1.50889e+01  6.53760e+00  2.48588e-01 
-1.27364e+01  5.75470e+00 -8.36690e-01 
-8.55533e+00  3.01388e+00 -5.95730e-01 
-6.18058e+00  2.21143e+00  1.64338e+00 
-5.71642e+00  2.68400e+00  2.50992e+00 
-3.27610e+00  1.12510e+00  4.16720e+00 
-2.99017e+00  9.50704e-01  5.40845e+00 
-1.46078e+00  5.68365e-01  5.74955e+00 
-3.65763e-01  6.34280e-01  7.74416e+00 
 4.97332e-01  7.40192e-01  8.60363e+00 
 7.54901e-01  1.14293e+00  9.40166e+00 
 8.67506e-01  2.81050e+00  9.88825e+00 
 1.44377e+00  1.74824e+00  1.11148e+01 
 1.88281e+00  2.34381e+00  1.14638e+01 
 1.95842e+00  4.80808e-01  1.08156e+01 
 2.40745e+00  9.22598e-01  1.03698e+01 
 2.69334e+00  7.36974e-01  1.06914e+01 
 2.97957e+00  1.50600e+00  1.06237e+01 
 3.83099e+00  1.62180e-01  1.03291e+01 
 4.63539e+00 -4.73806e-01  9.50882e+00 
 5.63641e+00 -1.38301e+00  7.78647e+00 
 6.17874e+00 -1.63211e+00  5.73374e+00 
 7.55687e+00 -3.21371e+00  4.43641e+00 
 9.62448e+00 -4.85650e+00  2.29122e+00 
-1.83604e+01  8.66548e+00 -9.39792e-01 
-1.51606e+01  6.54090e+00  3.15904e-02 
-1.27016e+01  4.85486e+00 -4.39463e-01 
-9.69476e+00  3.49786e+00  2.66464e-01 
-7.84514e+00  2.36293e+00  2.03572e+00 
-6.50956e+00  2.24901e+00  2.23443e+00 
-4.89395e+00  2.62591e+00  2.65661e+00 
-3.84142e+00  2.67560e+00  3.98596e+00 
-5.23898e-01 -4.73607e-01  4.63496e+00 
 3.43348e-01  1.27671e-01  6.70275e+00 
 1.21597e+00 -2.45670e-01  8.92379e+00 
 7.68252e-01  1.33801e+00  8.99483e+00 
-7.27000e-02  4.00826e+00  8.87057e+00 
 6.64960e-01  3.25897e+00  9.52735e+00 
 1.63596e+00  1.99635e+00  8.94710e+00 
 2.79496e+00 -2.60569e-01  8.81421e+00 
 2.94126e+00  8.80588e-01  9.27389e+00 
 2.38449e+00  1.50824e+00  8.69671e+00 
 2.72149e+00  1.91369e+00  8.16080e+00 
 4.18542e+00  1.27953e-01  7.41316e+00 
 5.26311e+00 -8.42988e-01  5.79768e+00 
 5.95234e+00 -1.06183e+00  4.86255e+00 
 6.83930e+00 -1.51713e+00  3.58478e+00 
 8.24542e+00 -3.21032e+00  2.21243e+00 
 9.99369e+00 -4.40608e+00  2.11285e+00 
-1.69427e+01  8.85842e+00 -8.69375e-01 
-1.41441e+01  6.67624e+00 -1.00580e+00 
-1.24835e+01  5.04342e+00 -8.88415e-01 
-1.05076e+01  4.38211e+00 -3.06129e-01 
-7.77232e+00  2.65804e+00 -6.84844e-02 
-6.94889e+00  3.81463e+00  2.29381e+00 
-5.09741e+00  1.45267e+00  4.56416e+00 
-2.82425e+00  1.33084e+00  2.57635e+00 
-2.93999e+00  1.63828e+00  3.67867e+00 
-1.03663e+00  1.59301e+00  5.78381e+00 
 9.65482e-02  3.93972e-01  7.06860e+00 
 2.30579e-01  1.45072e+00  7.55105e+00 
 1.82163e-01  3.48198e+00  8.66384e+00 
 7.50912e-01  2.66826e+00  9.08197e+00 
 1.07728e+00  2.20698e+00  8.59136e+00 
 1.99391e+00  1.59894e+00  9.23746e+00 
 2.88798e+00  6.44068e-01  9.29587e+00 
 3.50319e+00  7.18420e-01  8.90261e+00 
 4.11554e+00  4.07453e-01  7.93222e+00 
 4.00419e+00  5.65013e-01  6.44222e+00 
 5.10078e+00 -5.11160e-01  5.96309e+00 
 5.95585e+00 -5.35519e-01  4.96003e+00 
 7.07756e+00 -1.92137e+00  4.14103e+00 
 8.88429e+00 -2.99865e+00  2.09040e+00 
 1.15392e+01 -5.75012e+00  9.80860e-01 
-1.44295e+01  6.57278e+00 -1.60317e+00 
-1.41159e+01  7.56775e+00 -7.57411e-01 
-1.14492e+01  5.36268e+00 -1.64723e+00 
-8.67171e+00  4.16118e+00 -2.71351e+00 
-8.96161e+00  4.83974e+00 -8.28542e-01 
-7.27550e+00  4.81597e+00 -3.15211e-01 
-5.17783e+00  1.83235e+00  6.92815e-01 
-3.29094e+00  2.14154e+00  1.83049e+00 
-2.07289e+00  1.59510e+00  3.02184e+00 
-1.19596e+00  5.17663e-01  4.26752e+00 
-1.28683e+00  2.08349e+00  5.55123e+00 
-5.91114e-01  3.31097e+00  6.20047e+00 
 3.86479e-01  3.32386e+00  6.18924e+00 
 7.24006e-01  2.48965e+00  6.00053e+00 
 1.12261e+00  2.25807e+00  6.60442e+00 
 1.36160e+00  2.85058e+00  6.64539e+00 
 2.43587e+00  1.51751e+00  7.01717e+00 
 3.57081e+00  3.66576e-01  6.80291e+00 
 4.47089e+00 -3.43343e-01  6.77678e+00 
 4.83770e+00 -3.86519e-01  6.62936e+00 
 5.17206e+00 -1.31532e-01  5.27264e+00 
 6.69924e+00 -3.82153e-01  3.63151e+00 
 8.14931e+00 -2.25591e+00  2.29699e+00 
 9.55715e+00 -4.25848e+00  1.35661e+00 
 1.08665e+01 -5.56378e+00  9.18352e-01 
-1.45103e+01  6.36859e+00  7.84438e-02 
-1.35540e+01  6.20516e+00  2.55647e-01 
-1.19626e+01  4.76026e+00  4.70731e-01 
-9.83953e+00  4.95685e+00 -8.43476e-01 
-9.10535e+00  5.63399e+00 -1.74293e+00 
-6.77893e+00  2.89757e+00 -2.36608e-02 
-6.47336e+00  3.37112e+00  1.19019e+00 
-5.20166e+00  3.82534e+00  1.84160e+00 
-2.68891e+00  2.16838e+00  2.08586e+00 
-2.21002e+00  2.34543e+00  3.88477e+00 
-1.66734e+00  2.52798e+00  4.14068e+00 
-9.81014e-01  3.44967e+00  4.81930e+00 
 1.03585e+00  1.91859e+00  4.96172e+00 
 1.14775e+00  2.40189e+00  5.62450e+00 
 6.67388e-01  2.90697e+00  6.23579e+00 
 1.13848e+00  2.46529e+00  6.05103e+00 
 2.12388e+00  2.23778e+00  5.89295e+00 
 3.35975e+00  9.05515e-01  6.53270e+00 
 3.94935e+00  1.07103e+00  6.47523e+00 
 5.22943e+00 -3.85486e-01  6.89559e+00 
 6.19927e+00 -1.38055e+00  5.93226e+00 
 7.36455e+00 -1.64766e+00  3.96103e+00 
 9.17211e+00 -2.52845e+00  2.87714e+00 
 1.03630e+01 -4.66444e+00  1.94177e+00 
 1.15876e+01 -4.50306e+00  9.81157e-01 
-1.50514e+01  6.36940e+00  1.66517e+00 
-1.36178e+01  4.94499e+00  2.92891e+00 
-1.14955e+01  4.22288e+00  4.68471e+00 
-1.07251e+01  4.60850e+00  6.21773e-01 
-9.53023e+00  4.19427e+00  1.44588e+00 
-8.24822e+00  4.94297e+00  1.35526e+00 
-6.34530e+00  3.29383e+00  2.75198e+00 
-5.19680e+00  2.68893e+00  2.23037e+00 
-4.10060e+00  3.62829e+00  7.71935e-01 
-2.27625e+00  2.65492e+00  1.36589e+00 
-1.32715e+00  2.10300e+00  2.14849e+00 
-9.82137e-01  3.26314e+00  3.03774e+00 
-9.00359e-01  4.62164e+00  3.10781e+00 
 1.58785e-01  3.75083e+00  5.17121e+00 
 1.20035e+00  2.18139e+00  5.26061e+00 
 1.34835e+00  2.41740e+00  5.42854e+00 
 1.90229e+00  2.89658e+00  5.73316e+00 
 2.59901e+00  1.59319e+00  5.91892e+00 
 4.03919e+00  8.20848e-01  5.19353e+00 
 5.51101e+00 -8.93666e-02  5.09624e+00 
 6.61156e+00 -2.21037e+00  5.16231e+00 
 7.59941e+00 -2.04739e+00  4.57925e+00 
 9.11464e+00 -2.21388e+00  3.84217e+00 
 1.09463e+01 -5.67235e+00  2.82656e+00 
 1.23095e+01 -6.49536e+00  2.27008e+00 
-1.53297e+01  8.27750e+00  2.43145e-01 
-1.42408e+01  7.00243e+00  2.73612e+00 
-1.11792e+01  3.65298e+00  3.90053e+00 
-1.02090e+01  5.00974e+00  1.36739e+00 
-8.70409e+00  3.75823e+00  2.59030e+00 
-7.33436e+00  3.96285e+00  4.13307e+00 
-5.14507e+00  2.33688e+00  3.77428e+00 
-4.48037e+00  1.72116e+00  3.20451e+00 
-3.20895e+00  2.85081e+00  3.04006e+00 
-1.91657e+00  2.92614e+00  1.87764e+00 
-2.02856e+00  4.29618e+00  1.59402e+00 
-7.11181e-01  2.64732e+00  2.60253e+00 
-8.04201e-01  4.76845e+00  2.59154e+00 
-9.74013e-01  5.80920e+00  2.62172e+00 
 7.44378e-01  2.95757e+00  3.98411e+00 
 2.32274e+00  1.46803e+00  4.57650e+00 
 2.50200e+00  2.10746e+00  3.09774e+00 
 2.56233e+00  1.47697e+00  2.04453e+00 
 3.36957e+00  1.89279e+00  2.45913e+00 
 5.02623e+00 -7.79713e-02  3.31386e+00 
 6.10301e+00 -7.91505e-01  2.89622e+00 
 7.95393e+00 -2.39696e+00  3.06953e+00 
 9.27341e+00 -3.06411e+00  1.58336e+00 
 1.06359e+01 -4.40422e+00  1.84111e+00 
 1.30602e+01 -6.28592e+00  1.86742e+00 
-1.52548e+01  6.89859e+00  2.33920e+00 
-1.32857e+01  5.71292e+00  3.95171e+00 
-1.27660e+01  4.75408e+00  3.47076e+00 
-1.13103e+01  4.49541e+00  7.30253e-01 
-9.39877e+00  4.13171e+00  1.37115e+00 
-8.12575e+00  5.28079e+00  2.45621e+00 
-5.78396e+00  1.97774e+00  2.75917e+00 
-4.12919e+00  1.93116e+00  3.08536e+00 
-3.83038e+00  2.40830e+00  2.45345e+00 
-2.65415e+00  2.91537e+00  1.55513e+00 
-9.91675e-01  2.72678e+00  1.31022e+00 
-1.03036e+00  4.76622e+00  1.30149e+00 
-2.59401e-01  4.36165e+00  2.35380e+00 
 1.46181e-01  4.61609e+00  1.92427e+00 
 4.27330e-01  3.67894e+00  2.34058e+00 
 1.64209e+00  2.30279e+00  2.69229e+00 
 2.85548e+00  1.91848e+00  2.65055e+00 
 4.06859e+00 -2.84322e-01  3.20651e+00 
 4.00330e+00  1.83754e+00  2.87801e+00 
 4.68533e+00  8.93486e-01  2.40018e+00 
 6.79322e+00 -1.32040e+00  1.82021e+00 
 7.79579e+00 -1.93028e+00  1.43785e+00 
 8.98376e+00 -1.53669e+00  2.49060e+00 
 1.06905e+01 -4.24864e+00  2.47738e+00 
 1.35877e+01 -6.11432e+00  1.58279e+00 
-1.63501e+01  8.11771e+00  2.41039e+00 
-1.30777e+01  4.89883e+00  2.56961e+00 
-1.08185e+01  4.52147e+00  2.32521e+00 
-9.60649e+00  4.46878e+00 -1.76376e-01 
-7.94694e+00  4.16741e+00  1.69688e+00 
-5.93990e+00  2.65013e+00  7.65405e-01 
-6.38898e+00  4.04449e+00  1.27001e+00 
-4.02435e+00  2.22931e+00  3.25426e-01 
-2.11241e+00  5.13400e-01  5.40818e-01 
-3.28879e+00  3.97720e+00  7.31757e-01 
-2.77113e+00  4.04690e+00 -1.35074e-01 
-1.19377e+00  4.34850e+00  7.30468e-01 
-5.82147e-02  5.01111e+00 -7.39694e-01 
 2.47542e-01  4.64482e+00  1.06840e-01 
 7.19012e-01  3.50275e+00 -1.10541e-01 
 1.68481e+00  2.34661e+00  3.98813e-01 
 2.93775e+00  2.23430e+00  5.64509e-01 
 3.41877e+00  1.64616e+00  1.00504e+00 
 4.90023e+00  6.27193e-02  1.34851e+00 
 5.25738e+00  3.54010e-02  1.29955e+00 
 6.50785e+00 -1.19726e+00  9.36920e-01 
 7.46902e+00 -1.58280e+00 -1.24695e-01 
 9.17283e+00 -1.66871e+00 -4.57951e-01 
 1.19765e+01 -5.46675e+00 -8.42934e-01 
 1.48188e+01 -7.98725e+00  1.69802e-02 
-1.45601e+01  8.00045e+00  8.63751e-01 
-1.30864e+01  4.13169e+00  1.13590e+00 
-1.16762e+01  5.48177e+00  4.21849e-01 
-1.09879e+01  3.96810e+00 -2.64025e+00 
-8.76791e+00  5.06319e+00 -9.78086e-01 
-6.26654e+00  2.07085e+00  1.80732e-01 
-5.32304e+00  3.15813e+00  1.48678e+00 
-4.76260e+00  2.99349e+00  2.61494e-01 
-3.78080e+00  3.84152e+00 -2.72113e-01 
-2.45006e+00  2.94783e+00 -3.20420e-02 
-1.70875e+00  3.73208e+00  1.05292e-01 
-4.48171e-01  3.75283e+00  1.48831e-01 
-8.31480e-01  5.59159e+00 -1.54011e+00 
 5.03119e-01  3.56894e+00 -1.53404e+00 
 1.46491e+00  2.32059e+00  2.92261e-01 
 1.61513e+00  3.07104e+00  8.49306e-01 
 1.75492e+00  3.50872e+00  4.37029e-01 
 3.60903e+00  8.10951e-01  2.28480e-01 
 4.61193e+00  4.74971e-01  9.01913e-02 
 5.52000e+00 -6.75831e-01  5.93587e-01 
 6.52504e+00 -8.34660e-01 -6.12793e-02 
 8.43287e+00 -2.21559e+00  1.07238e-01 
 9.89924e+00 -3.65032e+00 -6.30376e-01 
 1.17022e+01 -5.30246e+00 -1.43491e+00 
 1.28888e+01 -6.18178e+00 -1.46717e+00 
-1.54484e+01  7.21295e+00 -1.93419e+00 
-1.32346e+01  5.20156e+00  2.70891e-01 
-1.13988e+01  5.00031e+00 -2.44039e-01 
-1.00980e+01  4.16365e+00 -1.69871e+00 
-7.79381e+00  4.27233e+00 -5.67667e-01 
-7.34749e+00  3.94401e+00 -1.43733e+00 
-5.09014e+00  2.63055e+00 -1.65201e-01 
-5.24995e+00  3.08290e+00 -1.79653e-01 
-4.51753e+00  4.25291e+00  1.47086e-01 
-2.98442e+00  4.18837e+00 -1.66199e+00 
-1.72598e+00  3.70432e+00 -1.14411e+00 
-1.91859e+00  3.38805e+00 -3.05184e+00 
-9.23614e-01  4.93739e+00 -3.57622e+00 
-1.45381e-01  5.22368e+00 -1.43568e+00 
 6.96321e-01  4.04032e+00  1.32607e-01 
 2.17269e+00  2.62741e+00  4.13021e-01 
 2.86896e+00  1.81848e+00  4.32496e-01 
 3.00903e+00  1.49361e+00  1.94514e-01 
 4.59132e+00  8.38028e-01 -1.50768e-01 
 5.91649e+00 -1.80426e+00 -3.09134e-01 
 7.36972e+00 -1.38384e+00  3.99451e-01 
 9.84398e+00 -2.96388e+00 -1.38215e+00 
 1.16070e+01 -6.35009e+00 -2.08527e+00 
 1.14689e+01 -6.26915e+00 -1.04253e+00 
 1.31536e+01 -6.09879e+00 -6.17255e-01 
-1.60068e+01  8.30111e+00  3.89190e-01 
-1.32266e+01  6.05428e+00 -4.19860e-01 
-1.16454e+01  5.65884e+00 -2.51423e+00 
-9.17515e+00  4.36638e+00 -3.44929e+00 
-9.36505e+00  3.59257e+00 -2.79583e+00 
-7.70385e+00  5.24675e+00 -1.30577e+00 
-6.48235e+00  5.55944e+00 -4.23934e-01 
-4.09670e+00  2.83339e+00 -1.20372e-01 
-3.34628e+00  4.18286e+00 -1.32500e+00 
-2.15435e+00  2.89819e+00 -2.61818e+00 
-1.17366e+00  3.12437e+00 -2.83836e+00 
-1.47071e+00  2.98795e+00 -2.42759e+00 
-1.01855e+00  5.68242e+00 -4.17664e+00 
-5.23453e-01  5.70858e+00 -3.97996e+00 
 9.44191e-01  2.67897e+00 -4.62727e+00 
 1.27503e+00  3.98172e+00 -4.33765e+00 
 2.55091e+00  2.88232e+00 -3.60266e+00 
 3.65828e+00 -4.22126e-01 -2.96521e+00 
 5.29014e+00 -4.54289e-01 -4.29443e+00 
 6.35461e+00 -1.32814e+00 -4.80982e+00 
 8.21833e+00 -2.80482e+00 -3.70036e+00 
 9.30238e+00 -3.34328e+00 -3.61224e+00 
 1.03503e+01 -2.78449e+00 -2.31493e+00 
 1.24327e+01 -6.77687e+00  1.68723e+00 
 1.27828e+01 -5.97613e+00  1.69612e+00 
-1.45968e+01  5.70743e+00  1.75578e+00 
-1.33583e+01  6.04288e+00  1.65964e+00 
-1.23902e+01  6.00795e+00 -2.22662e-01 
-8.26175e+00  3.39721e+00 -5.30203e+00 
-9.06154e+00  5.60252e+00 -3.16724e+00 
-6.98275e+00  4.56304e+00 -2.07504e+00 
-6.36763e+00  6.22167e+00 -3.87562e+00 
-5.19239e+00  4.43920e+00 -4.61205e+00 
-3.02432e+00  2.75855e+00 -5.05795e+00 
-3.60476e+00  5.39575e+00 -3.94524e+00 
-3.77215e+00  5.71613e+00 -3.79527e+00 
-8.51017e-01  2.12333e+00 -5.28536e+00 
-5.66746e-02  3.44101e+00 -5.66126e+00 
 5.71585e-01  2.52254e+00 -5.96310e+00 
 7.05978e-01  3.13670e+00 -6.36431e+00 
 1.08369e+00  4.37226e+00 -5.42629e+00 
 2.15117e+00  3.61464e+00 -6.95381e+00 
 5.05143e+00 -1.80296e+00 -6.26670e+00 
 5.40478e+00 -8.53340e-01 -5.79237e+00 
 6.93057e+00 -3.13763e+00 -4.98646e+00 
 7.52438e+00 -6.90704e-01 -3.77462e+00 
 7.64947e+00 -1.62118e+00 -2.21425e+00 
 8.52730e+00 -1.03588e+00 -3.34303e+00 
 1.09587e+01 -4.12383e+00 -1.76071e+00 
 1.46999e+01 -8.57469e+00  4.43814e-01 
-1.66791e+01  7.26691e+00  8.24751e-01 
-1.20315e+01  5.50349e+00  5.34033e-01 
-1.11926e+01  3.52013e+00 -3.43532e+00 
-1.04093e+01  5.53644e+00 -4.08331e+00 
-8.19850e+00  4.87686e+00 -4.05641e+00 
-7.80100e+00  4.58036e+00 -3.55299e+00 
-4.83911e+00  4.03884e+00 -3.87829e+00 
-3.68526e+00  4.74737e+00 -4.76695e+00 
-4.56714e+00  6.13847e+00 -4.65186e+00 
-3.66588e+00  6.07311e+00 -5.18529e+00 
-1.57947e+00  2.02734e+00 -5.46501e+00 
-7.47023e-01  3.43407e+00 -6.72954e+00 
-2.74912e-01  4.77736e+00 -6.48753e+00 
 7.58498e-01  2.42898e+00 -6.32857e+00 
 1.24736e+00  2.42298e+00 -5.34365e+00 
 1.82598e+00  2.70198e+00 -6.15003e+00 
 3.20468e+00  1.80918e+00 -6.03651e+00 
 4.21178e+00 -2.99373e-02 -5.38681e+00 
 5.08216e+00 -6.01706e-01 -5.38677e+00 
 5.38426e+00 -1.10650e+00 -4.04948e+00 
 6.27028e+00  4.98297e-02 -2.06054e+00 
 7.59108e+00 -2.58941e+00 -3.32864e+00 
 9.42418e+00 -3.67200e+00 -2.29011e+00 
 1.07035e+01 -3.69798e+00 -3.86065e-01 
 1.21380e+01 -5.20545e+00 -8.69455e-02 
-1.29558e+01  7.70853e+00 -1.49497e+00 
-1.07653e+01  3.61673e+00 -4.78424e+00 
-1.04295e+01  4.56702e+00 -7.05556e+00 
-1.05291e+01  6.73662e+00 -5.91725e+00 
-7.94342e+00  4.90453e+00 -5.30934e+00 
-6.71508e+00  4.10295e+00 -4.51084e+00 
-6.27634e+00  6.68481e+00 -3.92263e+00 
-4.61519e+00  5.95088e+00 -4.38052e+00 
-4.69656e+00  6.89615e+00 -6.91371e+00 
-2.61176e+00  5.04166e+00 -7.41195e+00 
-2.12783e+00  3.88265e+00 -6.36929e+00 
-1.78337e+00  5.41680e+00 -5.03645e+00 
 1.87483e-01  1.80388e+00 -7.39996e+00 
 7.74837e-01  2.91921e+00 -8.10449e+00 
 1.28890e+00  1.91395e+00 -6.44684e+00 
 2.46715e+00  1.39275e+00 -6.64535e+00 
 3.54956e+00  1.48446e+00 -5.80817e+00 
 3.09785e+00  1.23734e+00 -4.59398e+00 
 4.79037e+00 -1.30029e+00 -5.12555e+00 
 6.46713e+00 -1.22465e+00 -5.87845e+00 
 5.85255e+00  3.40330e-02 -5.50494e+00 
 7.66263e+00 -1.82646e+00 -4.30638e+00 
 8.53421e+00 -1.95046e+00 -2.32176e+00 
 1.03184e+01 -4.79193e+00  1.49216e-01 
 1.18638e+01 -5.06878e+00 -4.40937e-01 
-8.31438e+00  1.58378e+00 -4.29715e+00 
-1.28742e+01  7.50003e+00 -4.00448e+00 
-1.23230e+01  8.45567e+00 -3.59287e+00 
-1.03311e+01  7.49501e+00 -6.46126e+00 
-7.82717e+00  6.27873e+00 -4.91746e+00 
-5.16423e+00  3.20543e+00 -5.36785e+00 
-6.77732e+00  8.93856e+00 -3.50705e+00 
-6.48045e+00  5.70401e+00 -4.69933e+00 
-4.31893e+00  6.57335e+00 -6.47267e+00 
-3.64812e+00  4.97639e+00 -8.26630e+00 
-2.19039e+00  4.08395e+00 -7.91416e+00 
-1.59811e+00  4.87014e+00 -9.06418e+00 
 5.39516e-01  7.63114e-01 -9.27985e+00 
 8.48304e-01  3.52835e+00 -8.89330e+00 
 1.47486e+00  2.12482e+00 -8.70194e+00 
 2.14743e+00  1.65080e+00 -7.10554e+00 
 2.77707e+00  2.14230e+00 -6.29017e+00 
 3.61237e+00  4.05142e-01 -6.46220e+00 
 4.29317e+00 -8.53838e-02 -5.63969e+00 
 5.65020e+00 -2.02570e+00 -4.45854e+00 
 6.38249e+00 -1.94997e+00 -4.59917e+00 
 6.49845e+00 -2.27972e-01 -4.24075e+00 
 8.30435e+00 -2.53646e+00 -3.60848e+00 
 9.95911e+00 -5.25120e+00 -2.29047e+00 
 1.24193e+01 -5.19701e+00 -1.58990e+00 
-1.11297e+01  5.01878e+00  8.03652e-01 
-1.14699e+01  7.28352e+00  9.23935e-01 
-9.70741e+00  5.58597e+00 -1.87907e+00 
-9.96430e+00  6.41787e+00 -3.62364e+00 
-7.97627e+00  6.58050e+00 -2.27379e+00 
-7.03232e+00  4.91808e+00 -2.46170e+00 
-6.85607e+00  8.05898e+00 -4.58816e+00 
-6.20644e+00  6.61411e+00 -5.75029e+00 
-3.95929e+00  5.22621e+00 -7.37786e+00 
-3.06553e+00  4.05256e+00 -8.45648e+00 
-2.48699e+00  4.83705e+00 -9.30600e+00 
-1.59239e+00  4.97212e+00 -9.82809e+00 
-8.72908e-01  4.31224e+00 -9.83894e+00 
 8.36913e-01  2.08829e+00 -1.01345e+01 
 2.40127e+00 -4.45318e-01 -1.05183e+01 
 2.02639e+00  2.39040e+00 -1.15106e+01 
 1.97300e+00  3.36977e+00 -9.32182e+00 
 3.64545e+00 -2.15874e-01 -7.42644e+00 
 4.63254e+00 -5.31877e-02 -7.11784e+00 
 4.62719e+00 -1.35648e-01 -6.99690e+00 
 6.43892e+00 -1.19157e+00 -5.88164e+00 
 7.89545e+00 -2.23468e+00 -5.76681e+00 
 9.37076e+00 -3.37037e+00 -5.03188e+00 
 1.04955e+01 -4.76775e+00 -2.25821e+00 
 1.06615e+01 -5.23036e+00 -4.53442e-01 
-1.09481e+01  5.37153e+00  9.08698e-02 
-1.06439e+01  5.28530e+00 -6.02796e-01 
-1.02830e+01  6.30786e+00 -1.19605e+00 
-8.03863e+00  5.05657e+00 -2.02270e+00 
-8.67408e+00  7.09425e+00 -1.52915e+00 
-8.79751e+00  6.91499e+00 -3.62826e+00 
-5.71443e+00  5.91465e+00 -4.19011e+00 
-4.48873e+00  5.59779e+00 -4.09148e+00 
-4.28885e+00  5.94257e+00 -6.85203e+00 
-3.00247e+00  4.42088e+00 -6.58584e+00 
-2.23048e+00  3.79287e+00 -8.61459e+00 
-1.41976e+00  4.97289e+00 -9.15319e+00 
-5.86162e-01  3.56405e+00 -1.03525e+01 
 1.24888e+00  1.14656e+00 -1.21944e+01 
 1.88143e+00  1.03790e-01 -1.10716e+01 
 3.30500e+00  1.61999e+00 -1.00950e+01 
 2.47778e+00  3.95079e+00 -8.87821e+00 
 2.79429e+00  2.12787e-01 -9.62168e+00 
 3.19748e+00  1.81683e+00 -8.39795e+00 
 4.69261e+00 -1.32163e+00 -6.99160e+00 
 7.01669e+00 -3.76379e+00 -8.39441e+00 
 7.35460e+00 -1.95672e+00 -7.44719e+00 
 8.44463e+00 -2.81410e+00 -5.57166e+00 
 8.97388e+00 -3.64043e+00 -3.82453e+00 
 9.01150e+00 -3.93404e+00 -2.53550e+00 
-1.26571e+01  5.58830e+00 -7.06683e-01 
-1.03787e+01  5.09560e+00 -2.60379e-01 
-9.19527e+00  3.91247e+00 -1.47942e+00 
-8.78026e+00  6.50376e+00 -2.99726e+00 
-8.60587e+00  6.15261e+00 -2.19538e+00 
-8.18384e+00  6.20864e+00 -2.72393e+00 
-6.35147e+00  8.09889e+00 -3.84374e+00 
-4.31892e+00  5.21070e+00 -6.69042e+00 
-4.82481e+00  5.71806e+00 -5.96727e+00 
-3.54741e+00  5.44040e+00 -7.00463e+00 
-5.62512e-01  1.46009e+00 -7.35783e+00 
-3.16687e-01  3.11712e+00 -1.02251e+01 
 3.42654e-01  2.52388e+00 -1.08272e+01 
 3.82351e-01  1.52713e+00 -1.17101e+01 
 6.26756e-01  2.27930e+00 -1.00473e+01 
 1.78576e+00  2.10137e+00 -9.67186e+00 
 3.66298e+00  2.48754e-01 -1.15693e+01 
 3.22666e+00  1.24876e+00 -9.00912e+00 
 4.17577e+00  9.93704e-01 -8.82144e+00 
 5.48762e+00 -2.36255e+00 -9.65888e+00 
 5.80376e+00 -1.64477e+00 -6.77757e+00 
 7.09944e+00 -1.88273e+00 -4.81699e+00 
 8.35274e+00 -2.97208e+00 -5.17994e+00 
 8.18830e+00 -2.78888e+00 -2.88143e+00 
 7.53858e+00 -2.96881e+00 -9.15187e-01 
-1.25688e+01  5.82182e+00 -1.73325e+00 
-1.03293e+01  3.33546e+00 -2.95391e+00 
-1.04561e+01  4.41856e+00 -3.93781e+00 
-8.75180e+00  5.52337e+00 -5.12749e+00 
-8.61714e+00  7.57461e+00 -6.91011e+00 
-7.88692e+00  4.54077e+00 -5.26303e+00 
-5.92554e+00  5.67282e+00 -5.25148e+00 
-6.45357e+00  8.72906e+00 -8.35392e+00 
-3.73801e+00  4.65726e+00 -9.80095e+00 
-2.43630e+00  4.85979e+00 -9.49826e+00 
-1.72234e+00  3.85603e+00 -9.43045e+00 
 3.49338e-01  2.04187e+00 -1.00816e+01 
 2.16200e-01  2.06400e+00 -9.62024e+00 
 5.57248e-01  2.05205e+00 -1.00471e+01 
 1.62043e+00  1.03145e+00 -9.32027e+00 
 2.02798e+00  1.52939e+00 -1.02856e+01 
 2.70446e+00  1.10727e+00 -9.56750e+00 
 3.20835e+00  1.41932e+00 -8.65920e+00 
 4.61845e+00 -1.16045e+00 -9.00470e+00 
 4.65402e+00  5.98409e-01 -7.33777e+00 
 5.75425e+00 -7.92470e-01 -5.10220e+00 
 7.64513e+00 -3.97677e+00 -5.00275e+00 
 7.25618e+00 -2.44664e+00 -2.62222e+00 
 6.75530e+00 -1.50892e+00 -6.73458e-01 
 8.30103e+00 -4.07428e+00 -6.37012e-01 
-1.18516e+01  5.12674e+00 -1.02670e+00 
-8.25126e+00  3.79588e+00 -3.64630e+00 
-7.82508e+00  4.02899e+00 -5.15202e+00 
-8.06372e+00  4.92498e+00 -6.78041e+00 
-7.75854e+00  6.40420e+00 -7.49400e+00 
-6.25827e+00  4.69363e+00 -7.14134e+00 
-6.33734e+00  6.78515e+00 -7.88531e+00 
-4.96262e+00  6.03360e+00 -9.42779e+00 
-3.82653e+00  4.96030e+00 -1.03048e+01 
-2.41765e+00  6.25290e+00 -9.80217e+00 
-1.35332e+00  2.34887e+00 -1.16479e+01 
-1.82437e+00  4.57958e+00 -1.30669e+01 
-1.43977e+00  4.07297e+00 -1.18886e+01 
 8.06241e-01  2.94964e+00 -1.06785e+01 
 1.37376e+00  7.25792e-01 -9.71273e+00 
 1.94418e+00  4.75615e-01 -9.15495e+00 
 2.94828e+00  1.00051e+00 -1.00956e+01 
 4.36580e+00 -1.42631e+00 -1.03046e+01 
 3.97913e+00  3.66585e-02 -8.86801e+00 
 4.81417e+00 -8.56355e-01 -8.03190e+00 
 4.60914e+00  1.02621e+00 -7.61722e+00 
 5.51694e+00 -8.13654e-02 -4.38688e+00 
 5.67669e+00  8.34806e-01 -2.23382e+00 
 7.60321e+00 -2.99896e+00 -6.41935e-01 
 8.52792e+00 -2.76133e+00  5.31905e-01 
-8.71688e+00  1.44774e+00 -3.60819e-01 
-9.88187e+00  5.30019e+00 -2.80651e+00 
-8.06921e+00  3.17927e+00 -3.94267e+00 
-7.81991e+00  5.29012e+00 -6.98301e+00 
-6.95236e+00  5.22035e+00 -7.57393e+00 
-6.81336e+00  4.79057e+00 -7.52017e+00 
-5.32876e+00  5.99518e+00 -8.79696e+00 
-4.74209e+00  6.71430e+00 -9.63676e+00 
-3.93004e+00  4.99322e+00 -1.12403e+01 
-4.10751e+00  5.45921e+00 -1.18368e+01 
-3.75116e+00  5.83097e+00 -1.08145e+01 
-1.50446e+00  4.44646e+00 -1.14516e+01 
-7.21562e-01  3.29759e+00 -1.10232e+01 
-5.12680e-01  4.28437e+00 -1.18280e+01 
 1.41678e+00  1.46721e+00 -1.19867e+01 
 2.65551e+00  3.04196e-01 -1.02017e+01 
 3.86281e+00 -1.68937e-01 -8.71147e+00 
 5.13321e+00 -2.26338e+00 -7.81848e+00 
 3.82899e+00  1.67176e+00 -7.53283e+00 
 4.50305e+00 -1.27062e+00 -7.29928e+00 
 4.86706e+00  8.45473e-02 -6.31054e+00 
 3.65849e+00  2.09163e+00 -4.30534e+00 
 4.96314e+00 -1.71896e-01 -3.24094e+00 
 6.94245e+00 -2.62910e+00 -1.72449e+00 
 8.17440e+00 -3.40719e+00 -1.04873e+00 
-9.23319e+00  2.37877e+00  4.33488e-01 
-1.06336e+01  7.57833e+00  1.88859e+00 
-7.12448e+00  2.87332e+00  1.04050e+00 
-5.29209e+00  2.70557e+00 -4.65882e+00 
-5.00423e+00  2.87722e+00 -6.83045e+00 
-5.09403e+00  3.56981e+00 -7.39477e+00 
-6.69069e+00  7.02734e+00 -7.66908e+00 
-5.55733e+00  6.20265e+00 -1.10235e+01 
-4.48149e+00  5.67704e+00 -1.11973e+01 
-4.16863e+00  6.94275e+00 -9.17651e+00 
-3.63377e+00  5.91142e+00 -9.84807e+00 
-2.69482e+00  4.82381e+00 -1.25804e+01 
-1.43173e+00  4.23166e+00 -1.16062e+01 
-1.43073e-01  4.05044e+00 -9.99726e+00 
 1.60949e+00  1.46176e+00 -9.09746e+00 
 1.50228e+00  2.15836e+00 -9.78938e+00 
 1.74999e+00  2.19394e+00 -7.46360e+00 
 3.82419e+00  5.32621e-01 -7.11207e+00 
 5.65200e+00 -2.38744e+00 -5.81205e+00 
 4.63683e+00 -1.21023e+00 -5.44129e+00 
 4.29543e+00  2.12666e+00 -2.80948e+00 
 3.31693e+00  2.46304e+00 -2.27260e+00 
 4.74713e+00  1.66661e-01 -9.98301e-01 
 6.70540e+00 -2.26782e+00  9.06092e-01 
 7.57925e+00 -4.54660e+00  1.73851e+00 
-1.16532e+01  5.89475e+00 -1.20067e+00 
-9.02014e+00  5.50178e+00  9.10507e-02 
-6.82198e+00  3.77959e+00 -2.09817e+00 
-3.89750e+00 -1.15370e+00 -5.28962e+00 
-3.02727e+00  3.50657e-01 -7.45741e+00 
-4.56908e+00  3.32793e+00 -7.12962e+00 
-3.22925e+00  2.43454e+00 -8.27395e+00 
-5.63353e+00  7.33702e+00 -6.67622e+00 
-6.46271e+00  8.76266e+00 -7.70682e+00 
-4.98594e+00  7.24912e+00 -8.41928e+00 
-2.99509e+00  3.40362e+00 -1.00335e+01 
-2.99192e+00  6.36728e+00 -1.09980e+01 
-3.36085e+00  7.44826e+00 -8.68726e+00 
 7.98820e-02  2.62853e+00 -8.64671e+00 
 7.74505e-01  2.41197e+00 -9.33295e+00 
 1.31894e+00  2.88808e+00 -8.32771e+00 
 2.73998e+00 -5.80170e-01 -8.81481e+00 
 2.12550e+00  2.38509e+00 -8.83210e+00 
 3.73256e+00  8.47144e-01 -7.55626e+00 
 4.08623e+00 -1.68098e-02 -4.69741e+00 
 4.31990e+00  1.41378e+00 -6.47409e+00 
 4.80567e+00  2.44646e-01 -6.17291e+00 
 5.11242e+00 -1.01977e-01 -4.55414e+00 
 5.45890e+00 -1.19798e+00 -3.44785e+00 
 7.33168e+00 -5.23185e+00 -2.14987e+00 
-9.38732e+00  6.18746e+00 -2.85372e+00 
-5.17257e+00  5.17918e-01 -4.93607e+00 
-5.88172e+00  3.15158e+00 -9.76346e+00 
-7.26476e+00  1.77255e+00 -1.33854e+01 
-5.43167e+00  5.01100e+00 -1.17555e+01 
-3.16766e+00  1.89537e+00 -6.87874e+00 
-4.84399e+00  6.76723e+00 -5.38421e+00 
-5.07460e+00  7.41835e+00 -5.34170e+00 
-4.12046e+00  5.60132e+00 -6.87555e+00 
-4.59817e+00  5.51983e+00 -8.58605e+00 
-5.06994e+00  7.04337e+00 -7.82453e+00 
-3.76419e+00  7.15730e+00 -9.14935e+00 
-1.14322e+00  3.76334e+00 -1.15650e+01 
-1.22562e+00  4.50129e+00 -9.89786e+00 
-5.82915e-01  4.96593e+00 -8.54488e+00 
 2.77835e+00  7.13553e-01 -9.99650e+00 
 3.21276e+00 -3.48063e-01 -9.03103e+00 
 2.67113e+00  1.58878e+00 -6.38182e+00 
 1.99110e+00  3.10071e+00 -8.31579e+00 
 4.25315e+00  9.71944e-01 -9.36106e+00 
 5.39204e+00 -1.26532e+00 -7.31812e+00 
 6.72142e+00 -2.46045e+00 -9.00802e+00 
 5.94059e+00 -1.54910e+00 -7.58325e+00 
 5.43371e+00 -3.26168e+00 -5.67092e+00 
 5.37361e+00 -4.34099e+00 -6.13441e+00 
-3.75860e+00 -1.44692e-01 -2.68202e+00 
-3.65935e+00 -9.14286e-02 -5.79803e+00 
-4.99512e+00  2.47085e+00 -7.37744e+00 
-6.11994e+00  3.06937e+00 -8.97453e+00 
-7.73061e+00  8.18679e+00 -8.92422e+00 
-7.88099e+00  8.47504e+00 -7.05122e+00 
-6.65887e+00  7.26081e+00 -6.09034e+00 
-4.30899e+00  6.36050e+00 -6.57037e+00 
-5.05196e+00  6.38787e+00 -5.75923e+00 
-3.06938e+00  2.06774e+00 -7.38722e+00 
-3.23054e+00  6.92423e+00 -9.17290e+00 
-1.58717e+00  4.54020e+00 -1.15410e+01 
-1.14522e+00  4.05674e+00 -1.01451e+01 
-1.62761e+00  6.16480e+00 -9.39260e+00 
-8.58571e-03  2.16423e+00 -1.26479e+01 
 4.44871e-02  3.94663e+00 -1.19526e+01 
 2.02457e+00  1.88861e+00 -9.88133e+00 
 2.46668e+00  1.25599e+00 -1.02179e+01 
 3.12090e+00  1.17823e-01 -8.38843e+00 
 4.04205e+00  1.24714e+00 -7.43873e+00 
 5.06273e+00 -2.03287e+00 -7.16842e+00 
 6.19494e+00 -2.11915e+00 -5.80892e+00 
 5.87112e+00 -1.54926e+00 -3.66930e+00 
 5.27945e+00 -4.04890e+00 -2.08095e+00 
 2.30872e+00 -1.71783e+00 -1.55370e-01 
-4.57560e+00  4.44808e+00  1.04134e-01 
-5.22945e+00  1.90907e+00 -2.45790e+00 
-5.42860e+00  3.15918e+00 -4.23861e+00 
-6.87585e+00  5.56178e+00 -5.83827e+00 
-7.84903e+00  6.60467e+00 -6.57998e+00 
-7.46213e+00  9.32051e+00 -6.99818e+00 
-6.58166e+00  6.24514e+00 -6.99733e+00 
-6.22530e+00  8.36421e+00 -8.81719e+00 
-4.37713e+00  4.34275e+00 -1.02302e+01 
-4.05887e+00  4.30270e+00 -8.89017e+00 
-2.50418e+00  4.17851e+00 -8.22846e+00 
-2.99523e+00  7.55821e+00 -7.67799e+00 
-1.61885e+00  3.53344e+00 -8.44594e+00 
 3.40064e-01  2.37552e+00 -1.11026e+01 
 1.19307e+00  1.54732e+00 -1.04615e+01 
 5.45871e-01  4.25747e+00 -1.06608e+01 
 1.07190e+00  4.38827e+00 -1.14468e+01 
 2.48746e+00  8.06857e-01 -1.03410e+01 
 3.35246e+00  8.31027e-01 -1.00102e+01 
 3.42796e+00  1.80119e+00 -9.88237e+00 
 3.95241e+00 -3.04006e-02 -7.49094e+00 
 3.45432e+00  1.43149e+00 -3.26530e+00 
 5.20488e+00 -2.71361e+00 -1.66694e+00 
 3.77155e+00 -9.50146e-01 -7.61679e-02 
 3.45068e+00 -1.72340e+00  1.72440e+00 
-4.20730e+00  3.87718e+00  3.23429e-01 
-5.82380e+00  3.91518e+00  4.81509e-01 
-6.93815e+00  5.11273e+00 -9.87082e-01 
-5.97476e+00  5.67288e+00 -6.21128e+00 
-4.60451e+00  3.97171e+00 -4.69169e+00 
-4.89348e+00  7.79515e+00 -4.15721e+00 
-6.10605e+00  4.79497e+00 -5.56420e+00 
-4.85776e+00  4.71418e+00 -9.83630e+00 
-4.49249e+00  5.07939e+00 -1.07360e+01 
-4.23081e+00  6.72301e+00 -1.03071e+01 
-3.98639e+00  6.70804e+00 -7.81266e+00 
-1.39685e+00  5.65361e+00 -9.51910e+00 
 5.31639e-01 -2.47527e-01 -1.08220e+01 
-1.00366e+00  5.06363e+00 -9.40394e+00 
-7.20137e-01  6.15941e+00 -7.22892e+00 
 1.68229e+00  1.06306e+00 -8.32931e+00 
 7.22041e-01  3.88736e+00 -9.06092e+00 
 2.24676e+00  3.28652e+00 -9.24201e+00 
 3.83820e+00 -7.78165e-01 -6.70829e+00 
 1.55772e+00  2.37453e+00 -4.99685e+00 
 6.13996e-01  4.97124e+00 -3.53334e+00 
 1.86573e+00  2.98838e+00 -8.25545e-01 
 3.35901e+00 -2.05694e+00  1.54559e+00 
 4.18348e+00 -1.05124e+00  1.23576e+00 
 3.05154e+00  6.45604e-01  1.07091e+00 
-4.90399e+00  4.26583e+00  3.60833e-01 
-5.29988e+00  4.91574e+00 -1.08611e+00 
-5.50785e+00  3.38147e+00 -7.15943e+00 
-6.33310e+00  7.02734e+00 -7.51163e+00 
-6.01096e+00  4.04242e+00 -7.49528e+00 
-7.21160e+00  8.52841e+00 -6.15663e+00 
-5.34442e+00  4.60309e+00 -5.40058e+00 
-3.67515e+00  1.76127e+00 -3.35835e+00 
-3.71207e+00  2.80561e+00 -6.23980e+00 
-5.68583e+00  7.96587e+00 -7.01937e+00 
-4.31637e+00  8.02929e+00 -5.81661e+00 
-2.15043e+00  5.16729e+00 -4.65939e+00 
-1.24832e+00  1.93196e+00 -4.11271e+00 
 3.11168e-02  4.33350e+00 -4.91326e+00 
 1.86934e-01  4.01068e+00 -7.11125e+00 
 9.88848e-02  2.86629e+00 -6.15775e+00 
 1.75806e+00  2.16059e+00 -4.76153e+00 
 2.34514e+00  3.71249e+00 -3.76178e+00 
 4.81363e-01  5.89989e+00 -3.86420e+00 
 1.36845e+00  3.67478e+00 -6.35894e-01 
 1.60826e+00  2.12430e+00 -1.00368e+00 
 2.03439e+00  3.20073e+00 -1.34657e+00 
 2.46093e+00  3.87339e-01  3.45411e-02 
 3.84717e+00 -1.05461e+00  1.77017e+00 
 6.32953e+00 -4.21732e+00  1.00532e+00 
-4.66124e+00  4.78827e+00 -1.28504e+00 
-3.30039e+00  1.30344e+00 -3.56367e+00 
-3.66210e+00  2.59443e+00 -7.22387e+00 
-5.08726e+00  6.09012e+00 -1.22880e+01 
-7.28365e+00  7.46037e+00 -1.17308e+01 
-5.46698e+00  6.60520e+00 -9.39289e+00 
-4.61222e+00  4.66017e+00 -1.15409e+01 
-6.13560e+00  6.26167e+00 -1.13199e+01 
-4.04305e+00  4.54999e+00 -1.10357e+01 
-3.50678e+00  5.57137e+00 -8.05000e+00 
-3.71338e+00  6.96560e+00 -8.78483e+00 
-3.17106e+00  7.48588e+00 -7.29132e+00 
-1.43410e+00  4.45954e+00 -4.52282e+00 
 1.07510e+00  2.31736e+00 -1.77629e+00 
 3.88976e-01  3.61373e+00 -2.86851e+00 
-4.84404e-01  5.80086e+00 -2.62988e+00 
 4.76164e-01  5.66612e+00  3.58708e-01 
 1.35921e-01  5.61069e+00 -4.90004e-01 
 7.46842e-01  5.08973e+00 -2.94724e+00 
 6.58479e-01  4.32272e+00 -7.93749e-01 
 2.01037e+00  5.37800e-02  9.41886e-01 
 2.37867e+00  5.95735e-01 -8.84865e-01 
 2.35675e+00  1.84397e+00 -2.04824e-01 
 3.29780e+00 -8.21045e-01 -2.94715e-02 
 6.24699e+00 -3.36615e+00 -1.22950e+00 
-1.20758e+00  1.75731e+00 -2.38368e-01 
-4.66984e+00  2.75011e+00 -3.40930e+00 
-4.37750e+00  3.18872e+00 -5.25450e+00 
-4.78199e+00  4.87831e+00 -9.29240e+00 
-5.16874e+00  3.83166e+00 -9.17106e+00 
-5.33329e+00  4.59522e+00 -1.14464e+01 
-5.68289e+00  2.95676e+00 -1.19334e+01 
-6.68184e+00  4.45330e+00 -1.42768e+01 
-7.08197e+00  9.81065e+00 -1.35562e+01 
-5.78530e+00  5.11775e+00 -1.06780e+01 
-4.78464e+00  7.55135e+00 -6.07319e+00 
-4.41066e+00  1.00618e+01 -4.70584e+00 
-3.10735e+00  8.40046e+00 -3.62522e+00 
-1.77800e+00  7.57599e+00 -1.22148e+00 
 8.12565e-01  2.50840e+00 -1.31412e+00 
 3.44713e-01  3.68325e+00 -3.37649e+00 
 2.26535e+00  3.40332e+00 -5.85025e+00 
 1.01091e+00  6.34024e+00 -7.93598e+00 
 1.62246e-01  7.25282e+00 -3.97297e+00 
 5.55298e-01  5.95727e+00 -5.08709e+00 
 2.29747e+00 -1.68982e+00 -3.59079e+00 
 3.90546e+00 -3.62109e+00 -3.41632e+00 
 2.66249e+00  1.81356e+00 -3.76795e+00 
 4.30188e+00 -2.94272e+00 -3.78783e+00 
 4.51601e+00 -3.01183e+00 -1.87608e+00 
-2.95299e+00 -4.48774e-01  1.00773e-01 
-4.05972e+00  1.13864e+00  7.23664e-01 
-4.36968e+00  2.84549e+00 -2.21795e+00 
-3.58981e+00  3.88861e+00 -8.78518e+00 
-1.02676e+00  6.90507e-01 -9.51210e+00 
-2.68192e+00  1.95125e+00 -8.78702e+00 
-5.16040e+00  3.54479e+00 -1.17830e+01 
-6.66178e+00  6.47806e+00 -9.23053e+00 
-8.15043e+00  8.95171e+00 -1.07209e+01 
-7.81219e+00  7.53251e+00 -1.23972e+01 
-6.95268e+00  9.76150e+00 -8.34443e+00 
-6.07880e+00  1.06612e+01 -4.83694e+00 
-4.55691e+00  1.07407e+01 -5.26478e+00 
-2.19036e+00  8.42464e+00 -7.40640e+00 
-2.00788e-03  5.61544e+00 -7.72685e+00 
 3.44635e+00 -3.30979e-01 -5.55696e+00 
 1.89982e+00  2.99877e+00 -6.82005e+00 
 6.50651e-01  7.58901e+00 -8.77148e+00 
 1.36869e+00  4.48390e+00 -1.15619e+01 
 2.39490e+00  1.29884e+00 -1.02835e+01 
 1.04239e+00  5.45127e-01 -7.99684e+00 
 2.23674e+00 -1.66220e+00 -7.25927e+00 
 4.03154e+00 -1.71878e+00 -3.34044e+00 
 3.32781e+00 -1.21000e+00  4.72706e-02 
 1.80071e+00 -6.13788e-01 -1.16196e+00 
-5.19834e+00  2.77265e+00  8.43288e-01 
-3.19737e+00  1.77428e+00  3.72361e-01 
-1.26850e+00  1.00533e+00  6.03964e-01 
 1.70709e+00 -3.28644e+00 -5.19729e+00 
-1.14251e+00  3.11110e+00 -8.10280e+00 
-2.57145e-01 -1.28768e+00 -9.59498e+00 
-1.90472e+00  8.21026e-01 -1.32521e+01 
-4.08158e+00  3.90738e+00 -1.60111e+01 
-8.00885e+00  6.51173e+00 -1.87967e+01 
-9.04279e+00  8.83535e+00 -1.56814e+01 
-9.47838e+00  1.13692e+01 -1.20443e+01 
-7.99436e+00  1.35357e+01 -1.06571e+01 
-2.79030e+00  5.39272e+00 -1.13858e+01 
-6.19107e-01  7.32556e+00 -1.42132e+01 
 9.28485e-02  7.10370e+00 -1.66565e+01 
 2.38147e+00  1.05902e+00 -1.88461e+01 
 6.37592e-01  8.43013e+00 -1.61880e+01 
 8.17218e-01  6.06598e+00 -1.25986e+01 
 1.72131e+00  4.18368e+00 -1.14232e+01 
 1.57355e-01  4.83428e+00 -8.51312e+00 
 2.59233e+00 -1.73803e+00 -4.01770e+00 
 1.04928e+00  1.51066e+00 -7.60073e-01 
 5.71292e-01  3.50449e+00  2.77020e-01 
 1.59804e+00 -1.81006e-01  2.40097e+00 
 2.64329e+00 -3.09886e+00  2.03706e+00 
-4.00179e+00  1.33354e-01  5.98809e-01 
-2.06658e+00  9.11633e-01 -1.47333e+00 
-1.88825e+00  1.80634e+00 -3.16033e+00 
 1.20172e+00 -2.51029e+00 -6.96059e+00 
 3.48508e+00 -4.37311e+00 -1.06231e+01 
-1.03632e-01  2.67847e-01 -1.17006e+01 
-2.66353e+00  1.38532e+00 -1.14264e+01 
-2.71028e+00  3.91178e-01 -1.44723e+01 
-5.88131e+00  1.92868e+00 -1.91349e+01 
-8.87582e+00  9.17279e+00 -2.15555e+01 
-8.06415e+00  7.92017e+00 -1.99671e+01 
-6.98589e+00  9.07514e+00 -2.00018e+01 
-4.80997e+00  8.57304e+00 -1.98608e+01 
-9.58973e-01  8.18517e+00 -1.99243e+01 
 1.34033e+00  5.39898e+00 -2.06754e+01 
 3.16613e-01  6.42282e+00 -1.75436e+01 
-6.95067e-01  1.08907e+01 -2.00143e+01 
-1.45726e+00  8.39177e+00 -1.93245e+01 
-1.78988e+00  8.66328e+00 -1.47779e+01 
-2.22378e-01  3.95842e+00 -1.32787e+01 
-6.17951e-01  6.07346e+00 -7.97409e+00 
 3.75621e-01  6.67190e-01 -1.41261e+00 
 1.28841e+00  9.41664e-01 -4.57943e-02 
 7.40557e-01  1.43582e+00  1.39049e+00 
 1.56548e+00  5.85632e-01  2.02899e+00 
-1.65122e+00  7.58988e-01 -3.99365e+00 
-1.31043e+00  1.44758e+00 -2.58605e+00 
-4.18848e-02 -6.88120e-01 -4.25718e+00 
 1.07926e+00 -2.92070e+00 -8.25263e+00 
 8.67386e-01 -1.26431e+00 -1.16071e+01 
-5.51047e-01  1.25646e+00 -1.13929e+01 
 3.04869e-01 -3.20611e+00 -1.34793e+01 
-1.51652e+00 -1.53941e+00 -1.69981e+01 
-3.31502e+00 -2.80975e+00 -2.10861e+01 
-5.35559e+00  3.31657e-01 -2.14092e+01 
-7.15832e+00  6.79856e+00 -2.20133e+01 
-3.90034e+00  3.89324e+00 -2.59364e+01 
-3.34057e+00  8.38763e+00 -2.72001e+01 
-4.69180e+00  1.33720e+01 -2.28207e+01 
-1.37432e+00  1.16398e+01 -2.13413e+01 
 6.10881e-01  1.11178e+01 -2.21495e+01 
-4.03238e-01  9.59838e+00 -2.02792e+01 
-4.10747e+00  1.23829e+01 -1.61338e+01 
-5.35616e+00  1.07631e+01 -1.03691e+01 
-2.26114e+00  4.88264e+00 -6.57704e+00 
-3.39479e+00  9.53442e+00 -5.52056e+00 
-5.46543e-01  3.67340e+00 -5.44596e+00 
 7.82454e-01  2.77883e+00 -4.36868e+00 
 3.94911e-02  1.13622e+00 -2.32973e+00 
 1.72139e+00 -3.01643e+00 -1.27766e+00 
 2.68582e-01  1.71567e+00  2.11375e-01 
-4.04592e-01  4.58375e-01 -2.99722e-01 
-8.99267e-01  7.58649e-01 -3.10705e+00 
 5.59290e-01 -9.43320e-01 -3.17941e+00 
 1.94606e-01  1.21646e+00 -4.19182e+00 
 1.54521e+00 -1.85674e+00 -7.07956e+00 
 7.82184e-01 -2.16647e+00 -7.24280e+00 
 1.57203e-01 -4.70158e+00 -1.02871e+01 
 1.92362e+00 -8.90360e+00 -1.55420e+01 
-1.80113e+00 -5.90074e+00 -2.02648e+01 
 1.48976e-02 -6.13712e+00 -3.06531e+01 
 2.11965e+00 -4.97159e+00 -3.77306e+01 
-8.20550e+00  1.62342e+01 -3.81293e+01 
-8.55103e+00  1.87099e+01 -3.56900e+01 
-2.64514e+00  1.50543e+01 -3.15007e+01 
-4.37164e+00  1.84829e+01 -2.23787e+01 
-7.62314e+00  1.92422e+01 -1.48302e+01 
-5.89625e+00  1.47246e+01 -1.08572e+01 
-6.36910e+00  1.18811e+01 -6.22178e+00 
-4.54954e+00  8.91190e+00 -1.92015e+00 
-5.18274e-01  2.43167e+00 -1.64150e+00 
-7.33033e-01  3.54845e+00 -8.66379e-01 
-2.07363e-01  1.46616e+00 -7.87008e-01 
-2.01458e-01  1.59076e+00 -2.77658e+00 
-7.04882e-01  1.39854e+00 -1.61838e+00 
 4.64580e-01 -1.88096e-01 -1.20412e-01 
-4.25237e-01 -9.40616e-01 -6.68212e-01 
 1.67243e-01 -1.08571e+00  2.17915e+00 
-2.46294e+00  5.13834e+00 -1.10486e+00 
-2.00933e+00  3.01067e+00 -6.51109e-01 
 2.55882e+00 -1.52070e+00  5.95051e-01 
 1.57217e+00 -1.95739e+00 -1.45511e+00 
 4.31881e+00 -8.30123e+00 -4.85454e+00 
 5.10584e+00 -1.24924e+01 -9.04205e+00 
 1.49583e+01 -3.36007e+01 -2.02745e+01 
 1.32685e+01 -2.73366e+01 -4.17801e+01 
 3.22058e-01 -3.28436e+00 -4.74932e+01 
-6.45716e+00  1.23579e+01 -5.33865e+01 
-4.94216e+00  1.35437e+01 -5.36333e+01 
-2.02261e+01  4.38992e+01 -4.33718e+01 
-1.78996e+01  4.09512e+01 -1.96662e+01 
-1.19540e+01  2.61143e+01 -9.84306e+00 
-6.20415e+00  1.51709e+01 -3.13781e+00 
-3.35650e+00  8.16693e+00 -3.65887e+00 
-3.54368e+00  7.36641e+00 -4.31557e+00 
-1.63280e+00  3.19230e+00 -3.63362e+00 
-2.21813e+00  6.53844e+00 -2.87984e+00 
-7.60410e-01  1.07050e+00  3.80617e-01 
 7.19115e-01 -1.31859e+00  7.32251e-01 
 1.83473e-01  7.29731e-02  1.56490e-02 
-5.27722e+01  7.02020e+01  6.43384e+01 
-2.55773e+01  7.66011e+01  8.04862e+01 
-2.29537e+01  5.66738e+01  3.20660e+01 
-1.89553e+01  4.45746e+01  1.57351e+01 
-1.50155e+01  3.61791e+01  6.95196e+00 
-1.34875e+01  3.06158e+01  6.80379e+00 
-1.19954e+01  2.62702e+01  3.50498e+00 
-9.74918e+00  2.25922e+01  3.55535e+00 
-8.37435e+00  1.94467e+01  2.16741e+00 
-7.41742e+00  1.69362e+01  3.22630e+00 
-6.21779e+00  1.41854e+01  1.99400e+00 
-5.36039e+00  1.19639e+01  2.06515e+00 
-4.56632e+00  9.94057e+00  1.89753e+00 
-3.77033e+00  8.11854e+00  1.35862e+00 
-2.92877e+00  6.40413e+00  1.65149e+00 
-2.29253e+00  4.98928e+00  1.06482e+00 
-1.72027e+00  3.71018e+00  1.07785e+00 
-1.24497e+00  2.65529e+00  7.92912e-01 
-8.71506e-01  1.76468e+00  8.36491e-01 
-4.26537e-01  9.92576e-01  5.34309e-01 
-3.30814e-01  7.27667e-01 -1.51749e-01 
-2.97360e-01  3.44578e-01  4.16437e-01 
-2.81769e-01  2.24273e-01 -2.77757e-01 
-4.45940e-04  1.21959e-01 -3.84620e-01 
-3.78132e+01  7.48388e+00 -5.32118e+01 
 1.70664e-01  1.74170e+01  4.35158e+01 
-3.89048e+00  2.61624e+01  5.51719e+01 
-8.09417e+00  2.72725e+01  4.18404e+01 
-9.67707e+00  2.56320e+01  2.88601e+01 
-8.91762e+00  2.30841e+01  2.27275e+01 
-8.54290e+00  2.08963e+01  1.63532e+01 
-8.76799e+00  1.91656e+01  1.35499e+01 
-7.58816e+00  1.66967e+01  1.21731e+01 
-6.05553e+00  1.43037e+01  1.12253e+01 
-5.38756e+00  1.25009e+01  9.57153e+00 
-4.53100e+00  1.08414e+01  9.31040e+00 
-3.89525e+00  9.13631e+00  8.14523e+00 
-3.37984e+00  7.64329e+00  7.04843e+00 
-2.65679e+00  6.35324e+00  6.19671e+00 
-2.14101e+00  5.13345e+00  5.25064e+00 
-1.63226e+00  3.96085e+00  4.97847e+00 
-1.21435e+00  2.97701e+00  4.18080e+00 
-9.64016e-01  2.17188e+00  3.58484e+00 
-9.24914e-01  1.60958e+00  2.50458e+00 
-4.46733e-01  1.02852e+00  1.54459e+00 
-3.04380e-01  4.41279e-01  9.51629e-01 
-6.32899e-01  5.30838e-01 -7.77385e-02 
-5.87305e-01  2.84021e-01 -1.76304e-03 
-3.27228e+01  1.31649e+01 -2.46670e+01 
-6.97164e+00  1.74434e+00 -7.04458e+00 
 1.22208e+00  7.05987e+00  2.55393e+01 
-1.23932e+00  1.22392e+01  3.16209e+01 
-3.16422e+00  1.48071e+01  2.98754e+01 
-3.90891e+00  1.51770e+01  2.66506e+01 
-5.00087e+00  1.49990e+01  2.07476e+01 
-5.66938e+00  1.45621e+01  1.91573e+01 
-5.73234e+00  1.30747e+01  1.75792e+01 
-4.99285e+00  1.17851e+01  1.59828e+01 
-3.87742e+00  1.04820e+01  1.37243e+01 
-3.56963e+00  9.35153e+00  1.37053e+01 
-3.00724e+00  8.00685e+00  1.17372e+01 
-2.46059e+00  6.75824e+00  1.09557e+01 
-2.13674e+00  6.07476e+00  9.91360e+00 
-1.75826e+00  4.87992e+00  8.76337e+00 
-1.34991e+00  3.86355e+00  7.60052e+00 
-9.96791e-01  3.11570e+00  6.46439e+00 
-6.30753e-01  2.28891e+00  5.62620e+00 
-2.24376e-01  1.67190e+00  4.03623e+00 
-9.40910e-02  1.14268e+00  3.06106e+00 
 2.56353e-01  5.51498e-01  2.11762e+00 
 1.30262e-01  3.48381e-01  5.78379e-01 
-7.66102e-01  2.65870e-01  2.06110e-01 
-2.68479e+01  1.13509e+01 -1.33082e+01 
-9.95868e+00  3.04103e+00 -1.01354e+01 
-1.23177e+00  1.27247e+00  3.01153e+00 
 4.33936e-01  4.18906e+00  1.81178e+01 
 3.93483e-01  7.41358e+00  2.29324e+01 
-1.38385e+00  9.13177e+00  2.41423e+01 
-2.55616e+00  9.86979e+00  2.05563e+01 
-2.55955e+00  9.63140e+00  2.11364e+01 
-2.92698e+00  9.45525e+00  1.93181e+01 
-3.47715e+00  9.11444e+00  1.96304e+01 
-3.30690e+00  8.49828e+00  1.66814e+01 
-2.76790e+00  7.50733e+00  1.64966e+01 
-2.22717e+00  6.60122e+00  1.43870e+01 
-1.95427e+00  6.11320e+00  1.27353e+01 
-1.63587e+00  5.09749e+00  1.16187e+01 
-1.22044e+00  4.47486e+00  1.00217e+01 
-9.86900e-01  3.38179e+00  8.84092e+00 
-6.34231e-01  2.98945e+00  7.61184e+00 
-3.21402e-01  2.18164e+00  6.13738e+00 
 3.67504e-02  1.60824e+00  5.02584e+00 
 1.61114e-01  9.79941e-01  3.43295e+00 
-7.42868e-02  6.74598e-01  2.70911e+00 
-2.60787e-02  2.10275e-01  1.30637e+00 
-9.91338e-02  1.59235e-01  4.52856e-01 
-2.26040e+01  9.79776e+00 -5.51767e+00 
-1.17106e+01  4.01554e+00 -1.02200e+01 
-3.26227e+00  1.33048e+00 -2.95636e+00 
 3.02195e-01  7.45818e-01  8.84706e+00 
-1.96205e-01  4.18856e+00  1.62887e+01 
-7.57095e-01  5.05123e+00  1.97116e+01 
-2.93824e-01  5.53068e+00  1.90855e+01 
-4.63369e-01  5.83686e+00  1.98420e+01 
-1.12225e+00  6.46038e+00  1.89683e+01 
-1.36242e+00  6.12484e+00  2.06785e+01 
-1.43151e+00  6.72669e+00  1.77007e+01 
-1.15139e+00  5.60116e+00  1.83782e+01 
-9.45233e-01  5.21906e+00  1.62951e+01 
-7.78377e-01  5.12854e+00  1.50116e+01 
-5.21738e-01  3.91490e+00  1.30878e+01 
-5.98619e-01  3.74356e+00  1.09840e+01 
-3.57739e-01  2.77336e+00  9.63882e+00 
-1.46376e-01  2.71594e+00  8.14232e+00 
-2.69779e-03  2.38151e+00  7.40484e+00 
 7.82933e-02  1.43112e+00  6.47865e+00 
 4.87563e-01  6.84213e-01  4.61422e+00 
 6.12796e-01  7.53267e-01  2.62311e+00 
 4.67105e-01  2.03442e-01  1.99901e+00 
 6.39642e-01 -2.24133e-01 -1.39665e-01 
-2.03278e+01  8.62584e+00 -3.71032e+00 
-1.22596e+01  4.77455e+00 -9.66582e+00 
-6.15850e+00  2.69845e+00 -5.14160e+00 
-3.15659e+00  5.88367e-01  2.83668e+00 
-4.04016e-01  1.96635e+00  9.23890e+00 
-5.68090e-01  3.41187e+00  1.41338e+01 
-5.15883e-01  2.33547e+00  1.76220e+01 
-5.05946e-02  3.30817e+00  1.83207e+01 
 2.22250e-01  3.82030e+00  1.83527e+01 
 6.03204e-01  4.12362e+00  2.12817e+01 
 3.83517e-01  4.19682e+00  1.74940e+01 
-3.14812e-01  4.38158e+00  1.82376e+01 
-5.07301e-01  3.83055e+00  1.59871e+01 
-2.58024e-01  3.89201e+00  1.53224e+01 
-1.57728e-01  3.66064e+00  1.45888e+01 
 2.01636e-01  2.33501e+00  1.36591e+01 
 4.64794e-01  2.55091e+00  1.23506e+01 
 3.59949e-01  2.38926e+00  1.05738e+01 
 5.30216e-01  1.68666e+00  9.05206e+00 
 8.57517e-01  1.28855e+00  6.61980e+00 
 7.99301e-01  7.10765e-01  5.57787e+00 
 8.84780e-01  3.36791e-01  3.31844e+00 
 1.00428e+00 -1.98928e-01  2.16156e+00 
 9.53863e-01 -2.68283e-01  3.94526e-01 
-1.90775e+01  8.26807e+00 -1.37421e+00 
-1.38230e+01  4.87446e+00 -7.43812e+00 
-8.86417e+00  3.84465e+00 -6.56475e+00 
-3.79172e+00  1.37196e+00  2.70699e-01 
-1.91608e+00  1.17576e+00  3.58950e+00 
-2.39763e-01  1.49293e+00  1.06822e+01 
 1.41608e+00  1.20441e+00  1.09184e+01 
 7.72639e-01  1.92238e+00  1.35982e+01 
 1.11462e+00  2.01341e+00  1.68373e+01 
 1.36609e+00  2.52058e+00  1.88238e+01 
 9.22737e-01  2.33597e+00  1.68281e+01 
 9.45424e-01  3.02511e+00  1.84228e+01 
 8.54774e-01  2.95981e+00  1.70179e+01 
 5.78318e-01  2.90549e+00  1.63233e+01 
 9.07349e-01  2.93283e+00  1.46971e+01 
 1.19700e+00  1.99472e+00  1.27298e+01 
 7.25716e-01  2.15871e+00  1.19619e+01 
 8.58837e-01  2.03385e+00  1.12223e+01 
 1.22198e+00  6.85312e-01  1.02524e+01 
 1.33504e+00  1.03488e+00  8.44115e+00 
 1.32059e+00  9.30157e-01  6.18248e+00 
 1.70520e+00 -3.38423e-01  5.29478e+00 
 1.80422e+00 -1.03430e+00  2.43537e+00 
 1.25722e+00 -4.10375e-01  6.65135e-01 
-1.79229e+01  7.65544e+00 -1.36642e+00 
-1.29624e+01  5.54778e+00 -5.38837e+00 
-7.46350e+00  4.00030e+00 -5.16036e+00 
-5.29167e+00  2.62979e+00 -1.28431e+00 
-2.09924e+00  1.22687e+00  2.42187e+00 
 5.46694e-01 -4.67540e-01  9.29705e+00 
 1.30006e-02  6.72444e-01  9.19528e+00 
 1.28227e+00  1.19232e+00  1.25331e+01 
 2.18927e+00  9.34921e-01  1.44222e+01 
 1.22490e+00  1.64763e+00  1.53283e+01 
 1.31139e+00  2.11548e+00  1.72224e+01 
 1.71117e+00  1.34540e+00  1.80148e+01 
 1.50702e+00  2.35562e+00  1.73314e+01 
 1.71725e+00  1.98915e+00  1.63070e+01 
 1.48111e+00  1.92939e+00  1.64588e+01 
 9.11058e-01  2.13366e+00  1.50868e+01 
 1.25845e+00  1.20677e+00  1.39718e+01 
 1.82353e+00  1.15836e+00  1.23185e+01 
 1.97429e+00  5.36711e-01  1.01572e+01 
 1.98527e+00  8.11784e-01  8.83066e+00 
 2.22301e+00  4.74119e-01  6.61683e+00 
 2.24911e+00 -7.55054e-01  5.38929e+00 
 2.36132e+00 -1.38160e+00  2.48618e+00 
 2.46159e+00 -9.32396e-01  9.28430e-01 
-1.66934e+01  7.54593e+00 -1.68239e-01 
-1.30602e+01  6.19839e+00 -4.49869e+00 
-1.08521e+01  5.01150e+00 -4.69440e+00 
-7.24373e+00  2.50602e+00 -1.18757e+00 
-4.23077e+00  6.87481e-01  1.89818e+00 
-2.28706e+00  5.32358e-01  7.29776e+00 
 3.12081e-01  6.54390e-02  7.85545e+00 
 9.82444e-01  6.19996e-01  1.22227e+01 
 2.25416e-01  1.27606e+00  1.45659e+01 
 1.37275e+00  1.12364e+00  1.85803e+01 
 2.13852e+00  7.72412e-01  1.71829e+01 
 1.77921e+00  1.39190e+00  1.68589e+01 
 1.95793e+00  1.87921e+00  1.84307e+01 
 1.75081e+00  1.10710e+00  1.74010e+01 
 1.62256e+00  2.01952e+00  1.65405e+01 
 1.94883e+00  1.29089e+00  1.45306e+01 
 2.28651e+00  8.50024e-01  1.32680e+01 
 2.13180e+00  3.21663e-01  1.29660e+01 
 2.20880e+00  8.12992e-01  1.26948e+01 
 2.55458e+00  1.99394e-01  1.07456e+01 
 2.85376e+00 -7.08305e-01  8.17559e+00 
 3.40453e+00 -1.06335e+00  6.00830e+00 
 3.44703e+00 -1.44759e+00  3.41883e+00 
 3.17383e+00 -1.21142e+00  1.11380e+00 
-1.57715e+01  7.02097e+00  2.01581e+00 
-1.46530e+01  6.40334e+00 -6.77746e-03 
-1.08503e+01  5.14543e+00 -3.46784e+00 
-7.18669e+00  1.94128e+00  1.60740e+00 
-3.78393e+00  1.33612e+00  1.00822e+00 
-2.35781e+00  3.48667e-01  7.85936e+00 
-8.77037e-01  6.88690e-01  6.53206e+00 
-5.70179e-01  7.85824e-01  1.00087e+01 
 1.82376e-01  9.53109e-01  1.22621e+01 
 1.07833e+00  6.17102e-01  1.49501e+01 
 1.21338e+00  3.34747e-01  1.55201e+01 
 1.71766e+00  9.48927e-01  1.59414e+01 
 1.71154e+00  1.05917e+00  1.54905e+01 
 1.92300e+00  1.16201e+00  1.43340e+01 
 2.20206e+00  1.50451e+00  1.45475e+01 
 2.23970e+00  6.75601e-01  1.39395e+01 
 2.40556e+00  3.61800e-01  1.32683e+01 
 2.71312e+00  6.95292e-01  1.20085e+01 
 2.79170e+00 -6.53741e-02  9.79274e+00 
 3.31129e+00 -1.66878e-01  7.96340e+00 
 3.72629e+00 -1.11325e+00  6.92116e+00 
 3.67654e+00 -1.47857e+00  5.69190e+00 
 3.65671e+00 -1.78217e+00  2.87202e+00 
 3.32249e+00 -1.49354e+00 -9.46753e-01 
-1.64669e+01  7.31063e+00 -1.96855e+00 
-1.25516e+01  6.34409e+00 -2.92736e+00 
-1.07401e+01  4.09322e+00 -6.36473e+00 
-8.31558e+00  2.67211e+00  8.47149e-01 
-6.04138e+00  2.13310e+00 -1.43203e+00 
-2.98702e+00  9.21824e-01  8.38864e+00 
-1.17875e+00  1.33462e+00  6.69373e+00 
 1.45274e-01  7.78244e-01  7.57301e+00 
 1.04234e+00  1.57040e-01  1.03094e+01 
 6.57900e-01  5.87227e-01  1.33823e+01 
 1.01489e+00  1.32078e+00  1.47832e+01 
 2.06355e+00  8.85983e-02  1.50804e+01 
 2.64356e+00  5.96385e-01  1.58612e+01 
 2.31398e+00  1.49214e+00  1.49030e+01 
 2.07688e+00  1.36711e+00  1.51406e+01 
 2.36828e+00  4.34679e-01  1.53410e+01 
 2.70412e+00  3.63912e-01  1.45437e+01 
 2.92263e+00  5.02821e-01  1.42873e+01 
 3.55654e+00 -1.06693e+00  1.30166e+01 
 3.59516e+00 -5.54080e-02  1.20643e+01 
 3.83866e+00 -7.79626e-01  1.06360e+01 
 4.32977e+00 -1.51840e+00  9.40784e+00 
 4.41336e+00 -2.16872e+00  7.12397e+00 
 4.82348e+00 -2.03446e+00  3.21255e+00 
-1.68009e+01  7.54770e+00 -6.10516e-01 
-1.35304e+01  6.17250e+00  2.50769e-01 
-1.03035e+01  3.87987e+00 -3.58222e+00 
-8.39426e+00  2.92609e+00  2.92554e+00 
-5.12350e+00  2.14501e+00  2.48435e+00 
-3.64000e+00  1.41099e+00  3.96762e+00 
-2.78800e+00  8.46028e-01  2.28477e+00 
-4.50651e-01  5.43586e-01  3.64577e+00 
-2.64153e-01  4.45165e-01  5.28078e+00 
 7.09401e-02  9.78105e-01  9.30633e+00 
 1.07760e+00  1.35539e+00  1.13401e+01 
 1.69987e+00  6.69610e-01  1.20032e+01 
 2.17892e+00  1.05285e+00  1.29540e+01 
 2.34003e+00  1.55373e+00  1.28165e+01 
 2.54095e+00  1.27198e+00  1.31596e+01 
 2.53157e+00  5.44504e-01  1.22489e+01 
 2.54516e+00  9.34977e-01  1.26928e+01 
 3.35088e+00 -2.57307e-01  1.20176e+01 
 3.59608e+00 -4.32501e-01  1.09946e+01 
 3.73371e+00 -2.46176e-01  1.01903e+01 
 4.27450e+00 -4.59526e-01  9.89259e+00 
 5.04997e+00 -1.73109e+00  7.59612e+00 
 5.65815e+00 -1.97639e+00  5.20460e+00 
 6.46124e+00 -2.64386e+00  2.27391e+00 
-1.63065e+01  7.07477e+00  2.13504e-01 
-1.43100e+01  6.81740e+00  8.58382e-01 
-1.12696e+01  4.27964e+00 -3.63212e+00 
-8.18924e+00  2.49569e+00  1.52854e+00 
-5.85177e+00  2.55999e+00  2.89954e+00 
-3.82101e+00  1.28112e+00  3.51877e+00 
-2.28719e+00  6.18068e-01  6.28520e+00 
-2.26455e+00  1.02213e+00  4.67781e+00 
-1.28751e+00  5.43816e-01  6.67606e+00 
 3.15347e-01  7.72114e-01  9.35390e+00 
 4.14989e-01  1.18512e+00  1.11477e+01 
 1.03749e+00  1.81031e+00  1.13113e+01 
 1.11306e+00  1.76108e+00  1.11681e+01 
 1.43784e+00  1.75023e+00  1.04898e+01 
 1.94328e+00  1.41416e+00  1.26413e+01 
 2.18490e+00  6.97444e-01  1.20854e+01 
 2.74688e+00  7.79101e-01  1.20438e+01 
 2.96329e+00  4.04827e-01  1.23000e+01 
 3.31685e+00  5.39560e-01  1.20014e+01 
 4.27736e+00 -2.39874e-02  1.21795e+01 
 4.72438e+00 -7.78764e-01  1.08113e+01 
 5.23963e+00 -1.84025e+00  9.30840e+00 
 6.55196e+00 -1.58256e+00  7.24696e+00 
 7.73831e+00 -3.69819e+00  3.53194e+00 
-1.64917e+01  7.07477e+00 -2.61614e-01 
-1.40781e+01  6.57799e+00  1.99899e+00 
-1.09530e+01  4.34468e+00 -2.84864e+00 
-7.55605e+00  2.22848e+00  1.78754e+00 
-6.81208e+00  2.74816e+00  1.45664e+00 
-5.40099e+00  1.95399e+00  2.48296e+00 
-4.12459e+00  1.71817e+00  5.07045e+00 
-1.79594e+00  6.32235e-01  5.74277e+00 
-1.23228e-01  2.85823e-01  6.29215e+00 
 2.02278e-01  1.23382e-01  8.19392e+00 
 1.06589e+00  1.19364e+00  8.14402e+00 
 2.64260e-01  2.17508e+00  7.55492e+00 
 8.36617e-01  3.41851e+00  9.39976e+00 
 1.71812e+00  2.47566e+00  1.05180e+01 
 2.05696e+00  1.42240e+00  1.03023e+01 
 2.41979e+00  5.66439e-02  7.91600e+00 
 2.41875e+00  2.37899e-01  8.24985e+00 
 2.69785e+00  1.77127e+00  8.76152e+00 
 3.62532e+00  1.01004e+00  8.61050e+00 
 4.45877e+00 -4.93335e-01  7.70657e+00 
 5.55006e+00 -4.97092e-01  6.44862e+00 
 6.47330e+00 -1.97648e+00  5.19562e+00 
 7.07617e+00 -1.73168e+00  3.03941e+00 
 9.14489e+00 -4.20335e+00  3.93023e-01 
-1.64730e+01  7.43974e+00  7.08446e-02 
-1.33775e+01  5.84614e+00  7.55223e-02 
-1.09031e+01  4.55544e+00 -7.83114e-01 
-8.92004e+00  3.27476e+00  2.01811e+00 
-6.79352e+00  2.22885e+00  1.87613e+00 
-5.01255e+00  2.58945e+00  4.31275e+00 
-3.58574e+00  2.22875e+00  1.42923e+00 
-2.53011e+00  5.82222e-01  3.09352e+00 
-9.60709e-01  1.27866e+00  4.17495e+00 
 3.45190e-01  7.82755e-01  1.06303e+01 
 4.53413e-01  2.65743e-01  1.05217e+01 
 6.91677e-01  2.30526e+00  9.07368e+00 
 3.06166e-01  4.14563e+00  9.93282e+00 
 8.11472e-01  2.46736e+00  8.66618e+00 
 1.90572e+00  1.11457e+00  9.16497e+00 
 2.60328e+00  5.34242e-01  9.32902e+00 
 3.11569e+00  3.12170e-01  9.82492e+00 
 3.45749e+00  1.36305e+00  8.21754e+00 
 3.90740e+00  9.96473e-01  6.39571e+00 
 4.89287e+00 -3.34705e-01  6.18971e+00 
 5.61948e+00 -1.21265e-02  5.02604e+00 
 6.29374e+00 -1.74104e+00  3.05041e+00 
 7.98836e+00 -2.58813e+00  2.83659e+00 
 9.80310e+00 -3.65871e+00  1.30712e+00 
-1.47169e+01  6.83120e+00 -2.31606e+00 
-1.35768e+01  6.46248e+00 -3.30028e+00 
-1.14720e+01  5.51265e+00 -3.98618e+00 
-9.52169e+00  4.23973e+00 -1.39583e+00 
-8.32292e+00  2.59290e+00 -2.14539e+00 
-7.12509e+00  3.39610e+00  3.19111e+00 
-4.15239e+00  2.06065e+00  2.33405e+00 
-2.46798e+00  1.57356e+00  3.47316e+00 
-1.56363e+00  1.41399e+00  3.31204e+00 
-8.31781e-01  1.10297e+00  3.39471e+00 
-3.62295e-01  1.81521e+00  4.59466e+00 
-8.32768e-02  2.48312e+00  6.47385e+00 
 8.32860e-01  3.75906e+00  8.76610e+00 
 1.14380e+00  1.84426e+00  8.07105e+00 
 1.39240e+00  2.39636e+00  8.74597e+00 
 2.27547e+00  1.72223e+00  8.51353e+00 
 2.99624e+00  5.63357e-01  8.78442e+00 
 3.72747e+00  8.77234e-02  9.22449e+00 
 4.22104e+00  4.39349e-01  6.82829e+00 
 4.45569e+00  7.41050e-01  6.73567e+00 
 5.58052e+00 -1.35991e+00  4.99631e+00 
 7.02951e+00 -7.26263e-01  4.02386e+00 
 8.23917e+00 -3.26640e+00  3.77874e+00 
 1.02257e+01 -4.35724e+00  1.41344e+00 
-1.27226e+01  6.69643e+00 -1.18377e-01 
-1.24796e+01  5.65104e+00 -7.05433e-01 
-1.06442e+01  5.93976e+00 -1.44163e+00 
-9.23045e+00  4.47706e+00 -1.84288e+00 
-8.40715e+00  3.70318e+00 -2.64741e+00 
-6.57360e+00  3.39575e+00  4.88965e-01 
-5.08905e+00  2.70741e+00  6.73726e-01 
-3.18640e+00  2.94241e+00  1.24255e+00 
-2.08305e+00  8.43356e-01  2.93500e+00 
-1.84746e+00  1.88136e+00  6.47645e+00 
-1.30593e+00  2.78197e+00  5.94708e+00 
-1.18801e-01  3.12423e+00  5.51982e+00 
 6.76478e-01  2.84150e+00  5.64975e+00 
 8.97062e-01  2.98585e+00  4.00869e+00 
 1.13061e+00  2.25477e+00  5.99084e+00 
 1.74285e+00  2.98221e+00  5.67649e+00 
 2.96043e+00  4.93155e-01  5.87607e+00 
 3.87812e+00  1.25056e-01  6.89997e+00 
 4.74535e+00  6.36080e-01  7.02451e+00 
 5.62476e+00 -4.28979e-01  6.80191e+00 
 6.50059e+00 -1.23953e+00  4.75377e+00 
 7.90370e+00 -1.04646e+00  2.43333e+00 
 9.37711e+00 -3.82318e+00  1.31871e-01 
 1.04377e+01 -5.00256e+00  3.25526e-01 
-1.54416e+01  6.15297e+00  2.51796e+00 
-1.27175e+01  5.21668e+00  3.04000e+00 
-1.01193e+01  5.36288e+00  2.89157e+00 
-8.82495e+00  2.40160e+00 -2.49531e+00 
-7.58432e+00  6.45780e+00 -1.32114e+00 
-6.60105e+00  2.49863e+00  3.68156e+00 
-5.94572e+00  3.58020e+00  2.37147e+00 
-4.51551e+00  2.79727e+00  1.64256e+00 
-3.11855e+00  2.67575e+00  2.47289e+00 
-1.94231e+00  1.96717e+00  4.17754e+00 
-1.26059e+00  3.16405e+00  1.86970e+00 
-5.11835e-01  3.31174e+00  4.01836e+00 
 2.64493e-01  3.57676e+00  5.87744e+00 
 6.43933e-01  3.31473e+00  6.59885e+00 
 1.00511e+00  1.88224e+00  6.47476e+00 
 1.63738e+00  3.74574e+00  6.37202e+00 
 2.42564e+00  1.09173e+00  6.72276e+00 
 3.48193e+00  7.77355e-01  7.43084e+00 
 4.62244e+00  8.95744e-01  6.91298e+00 
 5.86218e+00 -1.23356e+00  6.96278e+00 
 7.16568e+00 -1.67851e+00  5.60692e+00 
 8.59357e+00 -1.51565e+00  4.37260e+00 
 1.00072e+01 -4.60522e+00  3.75309e+00 
 1.10109e+01 -5.29120e+00  1.96386e+00 
-1.43151e+01  7.10142e+00 -7.68335e-01 
-1.22417e+01  5.16918e+00  5.43743e+00 
-1.04728e+01  4.50147e+00  2.73140e+00 
-9.70789e+00  3.48231e+00  2.24367e+00 
-8.85828e+00  5.16042e+00  3.18137e+00 
-6.98176e+00  2.99087e+00  2.80885e+00 
-5.64562e+00  2.23980e+00  1.07222e+00 
-4.69082e+00  3.40270e+00  1.00078e+00 
-2.99941e+00  2.73496e+00 -1.01388e+00 
-2.17537e+00  2.37994e+00 -7.46508e-01 
-1.55024e+00  3.92259e+00  1.12306e+00 
-9.00531e-01  2.67486e+00  2.25885e+00 
-8.07553e-01  5.76247e+00  1.72068e+00 
 1.55126e-01  4.32525e+00  2.69372e+00 
 1.04917e+00  9.93902e-01  5.57819e+00 
 1.83272e+00  3.02763e+00  4.58789e+00 
 2.25019e+00  1.60645e+00  2.05141e+00 
 2.86626e+00  1.67905e+00  3.90847e+00 
 4.45881e+00  6.13424e-01  3.99993e+00 
 5.87455e+00 -7.07696e-01  3.10159e+00 
 6.91740e+00 -1.38844e+00  4.90130e+00 
 8.23340e+00 -2.56942e+00  3.95017e+00 
 1.00074e+01 -4.28636e+00  1.82045e+00 
 1.19808e+01 -5.66054e+00  1.70495e+00 
-1.49723e+01  7.15214e+00  1.05746e+00 
-1.41321e+01  4.96940e+00  6.36022e+00 
-1.25089e+01  4.14695e+00  3.00777e+00 
-9.71945e+00  4.27623e+00  2.35227e-01 
-7.60926e+00  3.71660e+00  1.79982e+00 
-5.65271e+00  3.11043e+00  6.96932e+00 
-4.11535e+00  2.00826e+00  4.60667e+00 
-3.52528e+00  2.77214e+00  5.05415e+00 
-2.78499e+00  2.59985e+00  5.33093e+00 
-1.53976e+00  3.15888e+00  4.35325e+00 
-5.59556e-01  3.76587e+00  3.07919e+00 
-2.04964e-01  3.36409e+00  3.44391e+00 
-3.08391e-01  5.61115e+00  3.15842e+00 
 2.57781e-01  4.73455e+00  2.03233e+00 
 1.73149e+00  2.14817e+00  3.02351e+00 
 2.44286e+00  2.30081e+00  4.05823e+00 
 3.19040e+00  1.44535e+00  4.04704e+00 
 3.86624e+00  1.14425e+00  1.86076e+00 
 4.29921e+00  1.36354e+00  2.22158e+00 
 5.55118e+00 -5.50902e-01  2.50176e+00 
 7.32289e+00 -1.01521e+00  1.83467e+00 
 8.87328e+00 -3.01799e+00  1.63591e+00 
 1.00104e+01 -3.06158e+00  2.43314e+00 
 1.21939e+01 -5.48672e+00  4.05783e+00 
-1.43829e+01  6.34299e+00  2.80727e+00 
-1.18880e+01  5.27817e+00  8.04568e+00 
-1.12497e+01  4.19006e+00  1.91254e+00 
-1.00594e+01  4.05917e+00 -3.04777e-02 
-9.33466e+00  4.19249e+00  5.25878e-02 
-7.44035e+00  3.01171e+00  3.49980e+00 
-5.73088e+00  3.45432e+00  1.26501e+00 
-3.97592e+00  9.79458e-01  6.48737e-01 
-2.96607e+00  2.17143e+00 -1.88279e+00 
-2.44856e+00  4.70844e+00 -1.61551e+00 
-1.53452e+00  3.52790e+00  1.13572e+00 
-8.02064e-01  4.12813e+00  1.18223e+00 
-1.12777e-01  4.84158e+00 -4.42553e-01 
 5.24838e-02  4.38935e+00  1.68471e+00 
 6.62938e-01  2.91723e+00  3.41971e+00 
 2.23559e+00  2.79946e+00  1.43127e+00 
 3.23063e+00  7.46346e-01  1.19804e+00 
 3.88665e+00  1.05948e+00  2.60142e+00 
 4.64782e+00  1.16771e+00  3.00281e+00 
 5.87656e+00 -6.02806e-01  1.57328e+00 
 6.93666e+00 -1.24231e+00  9.82429e-01 
 8.05090e+00 -2.44538e+00  1.28855e+00 
 1.02629e+01 -3.26980e+00  4.26977e-01 
 1.28254e+01 -5.67076e+00 -8.08554e-01 
-1.42314e+01  5.83783e+00  3.80088e-01 
-1.18353e+01  5.86656e+00  2.38686e+00 
-1.08527e+01  3.88997e+00 -1.23261e+00 
-9.42269e+00  3.95813e+00 -3.50543e-01 
-6.89468e+00  4.13710e+00  2.71266e-01 
-6.08288e+00  2.89410e+00  2.44927e+00 
-5.06276e+00  3.26865e+00  2.89073e-01 
-3.14246e+00  1.98057e+00  2.03609e+00 
-3.09199e+00  3.30501e+00  3.13290e+00 
-2.69532e+00  3.57400e+00  3.58252e+00 
-1.46954e+00  5.02992e+00  8.50121e-01 
-8.35841e-01  2.94899e+00  1.62625e-01 
-2.46491e-01  6.04589e+00 -1.35751e-01 
 1.01635e+00  2.86573e+00 -7.51131e-01 
 1.69153e+00  2.81475e+00 -1.23246e+00 
 2.01747e+00  3.58483e+00 -8.04602e-01 
 3.08160e+00  1.57497e+00  1.67799e-01 
 4.32595e+00  6.26301e-01 -4.30535e-02 
 5.19324e+00  6.50685e-01 -3.09522e-01 
 6.04743e+00 -5.81912e-01  1.62030e+00 
 7.40693e+00 -2.29242e+00 -1.10517e+00 
 8.69401e+00 -1.34565e+00 -1.44230e+00 
 1.05311e+01 -5.35294e+00 -1.00221e+00 
 1.31847e+01 -5.76544e+00  2.75758e-01 
-1.40427e+01  5.36334e+00 -7.09087e-01 
-1.21510e+01  6.29617e+00  2.72885e+00 
-1.04598e+01  4.47154e+00 -4.83471e+00 
-9.71311e+00  3.75818e+00 -1.02882e+00 
-7.83106e+00  4.16240e+00  2.63088e-01 
-5.68070e+00  2.42411e+00 -7.66244e-01 
-5.58107e+00  3.40873e+00 -9.13354e-01 
-5.23478e+00  4.08229e+00 -1.36420e+00 
-3.44180e+00  4.19234e+00 -4.04524e+00 
-2.40770e+00  2.60685e+00 -1.81679e+00 
-1.86213e+00  4.48068e+00 -5.45792e-01 
-1.09454e+00  3.45753e+00 -2.90141e+00 
-2.44411e-01  5.54460e+00 -2.35349e+00 
 4.64008e-01  3.21162e+00  3.39337e-01 
 1.57524e+00  2.36016e+00  4.34383e+00 
 2.21739e+00  3.86859e+00  6.70162e-01 
 2.73835e+00  1.96706e+00  2.08120e-01 
 3.89038e+00  2.20610e-01  8.00021e-01 
 5.16819e+00  6.66773e-01  1.18622e+00 
 6.37031e+00 -1.20035e+00  2.04747e+00 
 7.89460e+00 -2.77551e+00  1.51544e+00 
 1.00542e+01 -2.83003e+00 -2.00236e+00 
 1.13619e+01 -5.73200e+00 -2.63923e+00 
 1.20716e+01 -6.16195e+00 -1.92203e+00 
-1.51459e+01  6.43253e+00 -9.51507e-01 
-1.26237e+01  5.89625e+00  4.22681e+00 
-1.04207e+01  4.82771e+00 -5.64843e+00 
-8.26701e+00  4.02627e+00 -9.97128e-01 
-7.25995e+00  4.11108e+00 -1.28585e+00 
-6.59404e+00  3.52981e+00  1.89556e+00 
-4.52021e+00  2.84843e+00  9.09790e-01 
-3.69739e+00  5.28698e+00  2.68199e+00 
-3.12436e+00  3.11942e+00 -5.10478e-01 
-1.80290e+00  3.77119e+00 -1.68434e+00 
-1.33402e+00  3.07383e+00 -4.35327e+00 
-1.54213e+00  4.50105e+00 -5.78568e+00 
-8.15999e-01  5.11198e+00 -2.89538e+00 
 5.07080e-01  5.08711e+00 -1.27243e+00 
 1.07169e+00  1.16789e+00 -1.11393e+00 
 2.29873e+00  4.67252e+00 -1.84349e+00 
 3.15008e+00  4.31930e-01 -1.37416e+00 
 3.81203e+00  1.38619e+00 -9.22590e-01 
 5.35248e+00 -1.68784e+00 -2.41365e+00 
 6.94146e+00 -7.94735e-01 -2.25441e+00 
 8.83202e+00 -3.75104e+00 -2.55118e+00 
 1.07553e+01 -3.63956e+00 -2.58885e+00 
 1.16603e+01 -5.32985e+00 -2.21737e+00 
 1.22592e+01 -6.09477e+00  1.31911e+00 
-1.35779e+01  6.84858e+00 -1.09619e+00 
-1.25949e+01  6.18401e+00 -1.12572e+00 
-1.10069e+01  5.39241e+00 -5.50295e+00 
-9.53413e+00  3.01033e+00 -4.94640e+00 
-8.28420e+00  5.62378e+00 -3.91403e+00 
-7.05335e+00  4.10227e+00 -3.01741e+00 
-5.71523e+00  5.11157e+00 -3.42951e+00 
-4.02258e+00  4.82150e+00 -3.65866e+00 
-3.09257e+00  2.56616e+00 -5.76341e+00 
-2.63627e+00  4.46639e+00 -3.82574e+00 
-2.21437e+00  4.38706e+00 -2.19460e+00 
-4.32012e-01  2.81632e+00 -1.89354e+00 
 4.13024e-01  5.03636e+00 -6.36726e+00 
 2.31675e-01  2.98830e+00 -7.29759e+00 
 1.23215e+00  2.45758e+00 -6.12362e+00 
 1.57074e+00  5.28726e+00 -5.84959e+00 
 3.24471e+00 -4.42968e-01 -5.28728e+00 
 5.35978e+00  8.83180e-01 -5.00626e+00 
 6.03622e+00 -2.18165e+00 -7.14642e+00 
 7.35240e+00 -2.50968e+00 -5.66656e+00 
 8.57636e+00 -1.76000e+00 -5.12776e+00 
 8.35514e+00 -2.92879e+00 -3.84764e+00 
 1.00578e+01 -2.31973e+00  1.02661e+00 
 1.30002e+01 -6.88712e+00  3.79589e+00 
-1.43336e+01  5.49482e+00  4.80645e+00 
-1.33818e+01  5.85639e+00  2.99108e+00 
-1.04365e+01  4.88457e+00  5.10830e-01 
-8.89222e+00  5.02174e+00 -5.22275e+00 
-8.98905e+00  5.09430e+00  6.50420e-01 
-6.87738e+00  4.02402e+00  2.82986e-01 
-5.41640e+00  4.38823e+00 -3.34177e+00 
-4.13272e+00  5.60410e+00 -5.35280e+00 
-3.34697e+00  4.78353e+00 -4.72742e+00 
-3.46944e+00  3.57192e+00 -4.96480e+00 
-1.29384e+00  5.17478e+00 -7.61870e+00 
-4.55093e-01  3.05606e+00 -8.64658e+00 
 3.75740e-04  4.45753e+00 -6.88989e+00 
 1.14789e+00  1.62220e+00 -4.53134e+00 
 1.01862e+00  2.84152e+00 -4.39768e+00 
 1.80081e+00  4.00048e+00 -7.97553e+00 
 3.37746e+00  9.77269e-01 -5.83123e+00 
 4.68844e+00 -1.30301e+00 -7.14340e+00 
 5.94799e+00 -5.75206e-01 -6.86810e+00 
 6.73825e+00 -2.65375e+00 -3.75974e-01 
 6.81932e+00 -1.03714e+00 -2.42111e+00 
 8.60824e+00 -1.64539e+00 -3.83100e+00 
 1.03778e+01 -2.61758e+00 -4.02377e+00 
 1.20313e+01 -6.09951e+00 -2.61502e+00 
-1.41421e+01  5.22609e+00 -7.69894e-01 
-9.89528e+00  3.94816e+00 -6.56473e+00 
-1.04849e+01  6.53495e+00 -6.62714e+00 
-9.72992e+00  4.73639e+00 -1.17834e+01 
-7.58550e+00  5.50882e+00 -8.58011e+00 
-6.40462e+00  5.14826e+00 -4.90881e+00 
-4.45853e+00  2.89452e+00 -4.88790e+00 
-4.29646e+00  7.56678e+00 -5.25924e+00 
-4.11467e+00  5.46265e+00 -8.02180e+00 
-1.87877e+00  2.99381e+00 -5.82962e+00 
-1.40933e+00  4.93478e+00 -3.28743e+00 
-8.76795e-01  4.01697e+00 -5.58663e+00 
 3.88523e-01  3.14264e+00 -5.85736e+00 
 1.07635e+00  1.70372e+00 -6.56911e+00 
 1.94890e+00  1.26709e+00 -6.71291e+00 
 2.99597e+00  3.27791e+00 -5.88686e+00 
 3.88735e+00  4.99738e-01 -4.68426e+00 
 4.44762e+00 -5.76352e-01 -4.96266e+00 
 5.20183e+00 -1.44171e+00 -4.48368e+00 
 5.66270e+00 -5.63177e-01 -4.12665e+00 
 7.01524e+00 -1.79200e+00 -2.80925e+00 
 8.32197e+00 -7.40418e-01 -2.81328e+00 
 9.69244e+00 -4.34691e+00  6.18431e-01 
 1.16816e+01 -4.55897e+00  2.59743e+00 
-1.02726e+01  3.89773e+00 -5.72979e+00 
-1.27770e+01  6.71514e+00 -1.06407e+01 
-1.10968e+01  7.93642e+00 -4.99326e+00 
-8.84231e+00  4.39628e+00 -5.34867e+00 
-7.02503e+00  6.12709e+00 -1.41113e+00 
-5.57926e+00  5.01706e+00 -1.36041e+00 
-5.90018e+00  6.43044e+00 -1.18512e+00 
-5.28472e+00  7.46890e+00 -6.82094e+00 
-4.11866e+00  4.62811e+00 -5.67134e+00 
-3.35548e+00  4.75384e+00 -4.94708e+00 
-2.16883e+00  5.68662e+00 -7.15398e+00 
-4.92631e-01  4.03652e+00 -9.11739e+00 
 4.74965e-01  2.49636e+00 -1.03306e+01 
 1.02827e+00  1.62842e+00 -9.21336e+00 
 1.92104e+00  1.22942e+00 -7.13445e+00 
 2.83501e+00  3.33243e+00 -5.96738e+00 
 3.02594e+00  4.32690e-01 -3.68012e+00 
 4.04375e+00 -8.14203e-01 -4.57589e+00 
 5.63728e+00 -9.09914e-02 -5.41194e+00 
 6.08378e+00 -1.70843e+00 -5.87410e+00 
 6.38534e+00 -1.25741e+00 -5.18094e+00 
 7.75009e+00 -8.64662e-01 -6.09941e+00 
 9.25223e+00 -3.61749e+00 -3.32587e+00 
 1.10161e+01 -5.17277e+00 -1.14447e+00 
-1.00530e+01  3.90347e+00  3.26851e+00 
-1.00314e+01  8.54370e+00  1.88812e+00 
-9.66856e+00  8.01137e+00 -4.11079e+00 
-8.10030e+00  7.80697e+00 -4.80596e+00 
-6.00000e+00  3.25431e+00 -5.18230e+00 
-6.73002e+00  5.71974e+00 -7.70631e+00 
-7.29493e+00  7.67109e+00 -4.61379e+00 
-5.25872e+00  6.72058e+00 -7.17496e+00 
-3.50203e+00  3.79287e+00 -1.02942e+01 
-2.65224e+00  5.26251e+00 -1.02018e+01 
-1.93928e+00  5.05919e+00 -1.13781e+01 
-8.37777e-01  5.02060e+00 -8.02849e+00 
 2.24544e-01  1.82700e+00 -9.83835e+00 
 8.59665e-01  1.92596e+00 -8.12548e+00 
 1.95626e+00 -4.30176e-01 -9.19713e+00 
 2.61278e+00  4.61168e+00 -9.14608e+00 
 3.52732e+00  1.57467e+00 -7.49984e+00 
 3.83107e+00 -1.51267e+00 -6.44002e+00 
 4.51954e+00  7.49809e-02 -7.00926e+00 
 5.91280e+00 -6.74279e-01 -6.35969e+00 
 6.86805e+00 -3.34895e+00 -1.58103e+00 
 8.26400e+00 -1.57630e-01 -3.18177e+00 
 9.68632e+00 -4.26856e+00 -2.39024e+00 
 1.08349e+01 -5.63842e+00 -8.24239e-03 
-1.18271e+01  5.26021e+00 -2.30392e+00 
-1.09739e+01  6.63434e+00 -5.61505e-01 
-9.62668e+00  7.65793e+00 -2.69464e+00 
-9.33668e+00  4.46270e+00 -2.76268e+00 
-9.25496e+00  7.12304e+00  4.73226e-01 
-7.46242e+00  5.79832e+00 -1.53294e+00 
-5.43358e+00  5.95362e+00 -2.53249e+00 
-4.07667e+00  6.15483e+00 -7.91959e+00 
-3.10847e+00  4.33945e+00 -8.55695e+00 
-2.61613e+00  4.72416e+00 -6.75927e+00 
-1.81759e+00  5.35627e+00 -8.64953e+00 
-1.03844e+00  3.79467e+00 -8.95682e+00 
 1.87069e-01  3.47221e+00 -1.33699e+01 
 1.90788e+00  1.52667e+00 -1.05203e+01 
 2.34648e+00 -2.16722e+00 -9.96673e+00 
 2.17164e+00  4.66726e+00 -1.13767e+01 
 2.35257e+00  1.92063e+00 -1.03598e+01 
 3.68354e+00 -1.90139e-01 -7.23403e+00 
 4.37661e+00  6.73407e-01 -5.63174e+00 
 5.44677e+00 -3.96842e-01 -6.76199e+00 
 7.33921e+00 -3.96331e+00 -7.48686e+00 
 8.20239e+00 -1.90603e+00 -7.38937e+00 
 9.24130e+00 -4.35184e+00 -4.57843e+00 
 1.03081e+01 -4.10685e+00 -6.07080e-01 
-1.08430e+01  4.66482e+00  4.94747e-01 
-1.01248e+01  5.09969e+00  2.63466e+00 
-9.42572e+00  6.30483e+00 -2.82614e+00 
-8.60029e+00  4.79820e+00 -4.18888e+00 
-8.99718e+00  8.15738e+00 -3.66832e+00 
-7.30069e+00  7.46571e+00 -3.34099e+00 
-5.09411e+00  4.79449e+00 -4.21063e-01 
-4.45717e+00  4.63272e+00 -4.41220e+00 
-3.77162e+00  6.36952e+00 -6.77256e+00 
-2.35178e+00  3.97144e+00 -4.79678e+00 
-1.39889e+00  3.91426e+00 -8.72482e+00 
-6.61261e-01  1.70551e+00 -1.14230e+01 
 6.53069e-01  3.55959e+00 -1.29164e+01 
 1.24639e+00  2.98580e+00 -1.37441e+01 
 1.61589e+00 -1.77611e+00 -1.12161e+01 
 2.12962e+00  3.76977e+00 -1.16105e+01 
 2.81992e+00  5.84728e-01 -1.11757e+01 
 3.08602e+00  1.18198e+00 -1.09515e+01 
 4.18194e+00  1.96841e+00 -1.05403e+01 
 6.12483e+00 -3.22682e+00 -1.09975e+01 
 6.66575e+00 -2.18800e+00 -9.25034e+00 
 7.74965e+00 -1.59359e+00 -5.49606e+00 
 8.69761e+00 -3.69613e+00 -4.97936e+00 
 8.07194e+00 -4.41696e+00 -2.49209e+00 
-1.18915e+01  5.28971e+00 -5.86446e-01 
-9.78515e+00  3.05948e+00 -1.71712e+00 
-9.20414e+00  5.91046e+00 -2.86451e+00 
-8.93624e+00  5.31141e+00 -4.31744e+00 
-6.36406e+00  6.13084e+00 -2.60189e+00 
-6.22556e+00  7.86972e+00 -5.66696e+00 
-6.42513e+00  5.07213e+00 -7.46511e+00 
-5.35367e+00  7.67123e+00 -6.92186e+00 
-4.92587e+00  4.33112e+00 -7.80722e+00 
-2.24536e+00  5.34592e+00 -6.17721e+00 
-1.86950e-01  2.88122e+00 -8.41374e+00 
 3.20874e-01  1.56328e+00 -7.71771e+00 
 2.50387e-01  2.70823e+00 -8.66761e+00 
 7.65804e-01  2.52751e+00 -1.05001e+01 
 1.93790e+00 -7.35380e-01 -1.10125e+01 
 3.28283e+00  2.25330e+00 -1.12890e+01 
 3.51911e+00  9.93973e-01 -7.33779e+00 
 4.15460e+00  3.74666e-01 -7.10295e+00 
 5.17228e+00  9.82721e-01 -8.45055e+00 
 5.35634e+00 -1.44965e+00 -5.31214e+00 
 6.81498e+00 -1.17582e+00 -4.74700e+00 
 7.56788e+00 -3.43045e+00 -4.93828e+00 
 7.42437e+00 -1.57087e+00 -5.75449e+00 
 7.42920e+00 -4.91478e+00 -2.12948e+00 
-1.12498e+01  4.73003e+00 -1.65996e+00 
-9.78457e+00  3.10528e+00 -3.82749e+00 
-8.97582e+00  5.77602e+00 -4.37557e+00 
-7.95220e+00  5.39321e+00 -7.79700e+00 
-8.80729e+00  5.94670e+00 -4.42288e+00 
-6.52298e+00  5.57691e+00 -4.67721e+00 
-5.39273e+00  5.94484e+00 -7.83287e+00 
-4.75482e+00  7.90495e+00 -1.17781e+01 
-2.02038e+00  4.56744e+00 -1.29610e+01 
-1.89260e+00  4.67060e+00 -9.53031e+00 
-1.39358e+00  3.54341e+00 -1.65995e+01 
-3.87849e-01  2.06040e+00 -1.32731e+01 
 2.77520e-01  2.46534e+00 -1.10352e+01 
 9.73080e-01  2.31027e+00 -9.71661e+00 
 1.64904e+00 -9.40563e-01 -7.74100e+00 
 2.35159e+00  2.47180e+00 -7.83348e+00 
 3.33195e+00  1.22480e+00 -9.14017e+00 
 3.74808e+00 -1.71731e+00 -7.16588e+00 
 4.02262e+00  5.95435e-01 -9.52534e+00 
 4.97960e+00  2.56051e-01 -8.64960e+00 
 5.72801e+00 -1.29390e+00 -5.86336e+00 
 6.35126e+00 -1.08251e+00 -1.00108e+00 
 6.67715e+00 -7.20069e-01  2.01161e+00 
 7.57813e+00 -4.41413e+00  3.79263e+00 
-9.44959e+00  3.33236e+00 -2.53992e+00 
-8.61814e+00  4.67392e+00 -8.86312e+00 
-8.68052e+00  5.89416e+00 -6.41047e+00 
-8.22637e+00  4.29009e+00 -1.04172e+01 
-7.05437e+00  4.72281e+00 -7.50514e+00 
-7.25307e+00  5.68387e+00 -5.60155e+00 
-6.15730e+00  6.11794e+00 -9.18829e+00 
-4.63468e+00  6.57464e+00 -9.09759e+00 
-4.42957e+00  5.33359e+00 -1.04540e+01 
-3.09259e+00  3.77701e+00 -1.03497e+01 
-2.07917e+00  4.69853e+00 -9.72351e+00 
-1.59621e+00  4.15085e+00 -1.12987e+01 
-7.51807e-01  3.84886e+00 -1.06454e+01 
 5.72724e-01  2.64325e+00 -1.08235e+01 
 1.65244e+00  2.56797e-01 -9.00161e+00 
 2.78793e+00  8.47154e-01 -1.00138e+01 
 4.19005e+00 -5.35472e-01 -1.25097e+01 
 4.64392e+00 -1.75468e+00 -1.24628e+01 
 4.54679e+00  2.35464e+00 -7.87168e+00 
 4.44227e+00 -7.45946e-01 -5.20089e+00 
 4.77459e+00 -7.80256e-01 -4.64188e+00 
 5.17118e+00  1.83171e+00 -7.86450e+00 
 6.29737e+00 -1.00871e+00 -6.13345e+00 
 8.21925e+00 -3.80086e+00 -3.18544e+00 
-9.25861e+00  3.82374e+00  8.63123e-02 
-8.94770e+00  5.76722e+00  8.30023e-01 
-6.54857e+00  4.73793e+00 -3.11400e+00 
-6.10785e+00  2.72669e+00 -9.23845e+00 
-5.59651e+00  3.13551e+00 -8.92017e+00 
-4.95579e+00  4.65428e+00 -1.14048e+01 
-4.92028e+00  8.26513e+00 -1.22184e+01 
-4.57226e+00  6.10320e+00 -1.09130e+01 
-3.76559e+00  5.23195e+00 -1.31373e+01 
-3.58474e+00  5.96391e+00 -9.33102e+00 
-2.63520e+00  4.74683e+00 -1.40451e+01 
-1.66186e+00  6.30012e+00 -1.40847e+01 
-5.78988e-01  2.28398e+00 -1.27613e+01 
 7.51120e-01  3.18405e+00 -1.33351e+01 
 1.81336e+00  1.40212e+00 -1.31062e+01 
 2.27610e+00  1.12811e+00 -1.04350e+01 
 3.60647e+00  6.76440e-01 -3.02047e+00 
 4.61990e+00 -2.88839e+00 -4.07958e+00 
 4.72760e+00  2.79913e+00 -5.24426e+00 
 4.92441e+00 -1.93259e+00 -8.90985e+00 
 3.73115e+00  8.08528e-01 -5.35676e+00 
 3.89108e+00  3.11264e+00 -1.98321e+00 
 6.16047e+00 -1.02446e+00  1.67066e+00 
 7.33713e+00 -4.28732e+00  1.46966e+00 
-8.98995e+00  5.41159e+00  4.07188e+00 
-8.47494e+00  4.31675e+00  7.14450e+00 
-5.21599e+00  2.94881e+00  1.62653e+00 
-3.44473e+00  5.50634e-02 -5.94093e+00 
-4.45135e+00  3.21860e+00 -4.67194e+00 
-5.16674e+00  2.41010e+00 -2.19564e+00 
-4.72230e+00  6.24961e+00 -1.08393e+01 
-4.77874e+00  7.00516e+00 -1.21615e+01 
-4.91281e+00  9.34211e+00 -1.00625e+01 
-4.17914e+00  5.62327e+00 -6.25567e+00 
-3.92110e+00  3.37347e+00 -9.47878e+00 
-2.66142e+00  8.03225e+00 -1.30946e+01 
-1.72356e+00  3.91028e+00 -8.42190e+00 
 4.51049e-01  3.61183e+00 -4.45015e+00 
 1.68307e+00  1.99594e-02 -8.72250e+00 
 1.62533e+00  3.33495e+00 -8.58081e+00 
 2.06294e+00  1.36713e+00 -6.17092e+00 
 3.80023e+00 -1.34435e+00 -8.03126e+00 
 4.39497e+00  6.91833e-01 -5.25606e+00 
 3.88415e+00 -3.28353e-01 -5.03807e-01 
 4.45614e+00 -3.12034e-01 -2.38023e+00 
 4.62946e+00  4.05691e+00 -3.13015e-01 
 5.49404e+00 -1.39972e+00  2.27355e+00 
 7.38744e+00 -4.93894e+00  3.76953e+00 
-1.15667e+01  5.22452e+00 -6.15015e+00 
-6.52590e+00 -7.37717e-01 -8.44834e+00 
-6.28351e+00  4.86250e+00 -1.36158e+01 
-4.96970e+00  7.54874e-01 -1.21530e+01 
-3.01358e+00  5.10376e+00 -9.06969e+00 
-3.29750e+00  3.93733e-01 -6.52087e+00 
-5.24216e+00  7.01072e+00 -6.89348e+00 
-5.86467e+00  6.22016e+00 -4.34993e+00 
-5.02068e+00  9.46677e+00 -1.11031e+01 
-3.77521e+00  4.94601e+00 -8.22166e+00 
-2.48221e+00  6.25711e+00 -8.43617e+00 
-3.18496e+00  4.56595e+00 -9.80637e+00 
-8.06299e-01  4.91465e+00 -8.86330e+00 
 1.44787e-01  6.12307e+00 -9.80065e+00 
 3.49654e-01  1.00512e+00 -7.99637e+00 
 2.99530e+00 -1.68349e-01 -9.70749e+00 
 3.61442e+00  2.98859e+00 -9.93037e+00 
 2.36309e+00 -4.80432e-01 -8.72069e+00 
 3.42955e+00  3.27425e+00 -7.57206e+00 
 4.78405e+00 -1.52590e+00 -7.19358e+00 
 4.73712e+00 -2.33166e-01 -8.75671e+00 
 5.51122e+00 -7.83282e-01 -1.01079e+01 
 5.26359e+00 -7.22318e-01 -1.07172e+01 
 5.60053e+00 -4.49188e+00 -1.00242e+01 
-5.00554e+00  1.63269e+00 -2.55754e+00 
-5.07281e+00 -1.01223e+00 -5.03125e+00 
-5.80961e+00  6.13391e+00 -9.99979e+00 
-6.48825e+00  3.99007e+00 -1.33651e+01 
-6.88476e+00  5.85795e+00 -1.17226e+01 
-6.73712e+00  5.90039e+00 -4.33637e+00 
-5.84089e+00  9.54828e+00 -1.09084e+00 
-4.04849e+00  3.80799e+00  1.07421e+00 
-3.41501e+00  7.60581e+00 -2.72299e+00 
-4.25799e+00  5.86121e+00 -1.75733e+00 
-3.83704e+00  5.58372e+00 -8.79680e+00 
-1.34005e+00  2.62060e+00 -1.33374e+01 
-1.77708e+00  4.62846e+00 -8.09361e+00 
-1.48257e+00  6.80094e+00 -1.17854e+01 
 1.33279e+00  2.55241e+00 -1.19333e+01 
 2.10214e+00 -5.50183e-01 -8.97213e+00 
 1.99704e+00  2.90367e+00 -7.16105e+00 
 2.70415e+00  1.48417e+00 -6.67403e+00 
 3.31226e+00  1.39060e+00 -8.13181e+00 
 4.43751e+00  1.97774e-02 -1.06315e+01 
 6.29784e+00 -2.03055e+00 -9.61163e+00 
 6.34923e+00 -2.58051e+00 -8.82638e+00 
 5.71253e+00 -2.14777e+00 -5.03015e+00 
 3.90113e+00 -3.40765e+00 -3.36459e+00 
-3.31925e+00  1.71974e+00 -4.54155e+00 
-4.17187e+00  1.63808e+00 -4.03201e+00 
-5.89512e+00  4.18470e+00 -7.14279e+00 
-7.98114e+00  5.14435e+00 -1.01707e+01 
-8.51931e+00  6.35325e+00 -6.98660e+00 
-6.29159e+00  9.42463e+00 -6.90323e+00 
-4.24379e+00  9.19234e+00 -9.19369e+00 
-5.38415e+00  3.13617e+00 -1.02183e+01 
-4.86066e+00  5.97473e+00 -1.04958e+01 
-3.47176e+00  6.88171e+00 -1.15178e+01 
-2.85822e+00  2.44971e+00 -9.56366e+00 
-2.13213e+00  5.32785e+00 -9.82873e+00 
-1.11209e+00  2.96737e+00 -7.38468e+00 
 4.32015e-01  3.18703e+00 -1.01770e+01 
 9.41332e-03  3.52109e+00 -1.55693e+01 
 6.09543e-01  1.87976e+00 -1.29052e+01 
 2.29887e+00  3.41507e+00 -1.44189e+01 
 2.49371e+00  1.74707e+00 -1.39794e+01 
 3.42041e+00  7.04666e-04 -9.43725e+00 
 4.25371e+00  1.75373e+00 -7.61426e+00 
 4.67765e+00 -1.31227e+00 -3.98848e+00 
 5.50619e+00 -2.51237e+00 -3.24114e+00 
 5.09325e+00 -1.93452e+00  1.09209e+00 
 3.67240e+00 -2.63993e+00  3.77202e+00 
-5.16596e+00  2.71262e+00  2.26221e+00 
-6.52000e+00  5.22596e+00  9.25519e-01 
-6.94566e+00  4.62336e+00 -3.18119e+00 
-6.29896e+00  5.04724e+00 -5.79469e+00 
-5.73521e+00  7.57699e+00 -3.95574e+00 
-7.05167e+00  6.96106e+00 -4.88327e+00 
-7.80731e+00  6.72038e+00 -1.20712e+01 
-5.13683e+00  4.37487e+00 -1.38451e+01 
-3.77268e+00  5.63804e+00 -1.23966e+01 
-3.24244e+00  5.77194e+00 -1.18154e+01 
-2.12309e+00  5.97541e+00 -1.19717e+01 
-1.06768e+00  3.87557e+00 -1.22275e+01 
 3.14522e-02  3.81874e+00 -1.44939e+01 
-5.14835e-01  2.71353e+00 -9.16949e+00 
 6.21600e-01  3.24319e+00 -7.50174e+00 
 9.00725e-01  2.35096e+00 -8.23493e+00 
 1.08573e+00  4.40775e+00 -1.11414e+01 
 3.24046e+00  2.13439e-01 -1.04090e+01 
 3.07310e+00  1.44285e+00 -1.24912e+01 
 2.86198e+00  3.97086e+00 -1.05241e+01 
 2.77839e+00  1.65982e+00 -5.09622e+00 
 3.18526e+00 -1.41233e+00 -3.84452e-01 
 3.87027e+00 -1.30701e+00 -1.16581e+00 
 3.57319e+00 -9.80203e-01 -5.12262e-02 
-4.94126e+00  3.50652e+00  2.73008e+00 
-6.10758e+00  5.41872e+00 -1.06222e+00 
-6.18654e+00  3.70140e+00 -6.15764e+00 
-5.01917e+00  5.57141e+00 -7.14753e+00 
-4.38236e+00  7.91558e+00 -4.62480e+00 
-5.29861e+00  4.56959e+00 -4.11785e+00 
-4.81665e+00  4.03162e+00 -2.77264e+00 
-4.37813e+00  5.15989e+00 -5.14489e+00 
-5.09470e+00  3.60653e+00 -1.01119e+01 
-5.32015e+00  7.14345e+00 -7.76107e+00 
-3.47499e+00  6.86044e+00 -6.07931e+00 
-1.30901e+00  4.87367e+00 -6.09671e+00 
-1.14019e+00  3.22961e+00 -4.87453e+00 
-2.98130e-02  5.10820e+00 -4.16378e+00 
 6.25507e-01  1.97514e+00 -7.52757e+00 
 1.37218e+00  2.75567e+00 -7.93044e+00 
 2.32477e+00  2.48826e+00 -5.89500e+00 
 2.32584e+00  2.96982e+00 -6.99656e+00 
 2.03232e+00  3.20724e+00 -2.19869e+00 
 7.59771e-01  4.71379e+00  1.32369e+00 
 9.53781e-01  2.42884e+00 -1.24459e+00 
 2.19498e+00 -1.29878e-01  1.80425e+00 
 3.66235e+00 -3.06138e-01  4.35348e+00 
 4.64707e+00 -1.58061e+00  9.16958e-01 
-4.20862e+00  4.18168e+00 -6.06503e-01 
-3.80745e+00  7.01231e-01 -7.49173e+00 
-5.60242e+00  5.47666e+00 -1.42043e+01 
-6.44626e+00  5.84494e+00 -1.22436e+01 
-7.63170e+00  9.34090e+00 -1.14311e+01 
-6.77870e+00  2.90078e+00 -8.37726e+00 
-4.74565e+00  5.92845e+00 -8.15758e+00 
-4.10853e+00  4.40537e+00 -4.76156e+00 
-4.32557e+00  3.02679e+00 -5.41377e+00 
-4.00691e+00  9.36696e+00 -3.14480e+00 
-3.13094e+00  5.58798e+00 -2.95571e+00 
-1.99902e+00  6.23883e+00 -5.85344e+00 
 4.56549e-01  4.48941e+00 -7.60623e+00 
 4.54468e-01  3.18118e+00 -7.52017e+00 
-9.44726e-02  2.67711e+00 -8.23003e+00 
 4.12823e-01  4.62653e+00 -5.71801e+00 
 9.33481e-01  4.71253e+00  9.13650e-01 
 1.07952e+00  5.17180e+00  3.58612e+00 
 9.44029e-01  5.75322e+00  1.38394e-01 
 1.63549e+00  2.20611e+00 -1.64276e+00 
 1.75770e+00  1.75636e+00  5.42059e-01 
 2.50481e+00  2.43056e-01  2.85043e+00 
 2.85309e+00  1.16109e+00  9.51145e-01 
 4.78838e+00 -3.13522e+00  2.62087e+00 
-3.29024e+00  3.35022e+00 -7.50906e-01 
-2.99754e+00  1.29083e+00 -2.63716e+00 
-4.02279e+00  3.81211e+00 -6.61032e+00 
-6.16959e+00  6.18489e+00 -8.87944e+00 
-5.74934e+00  6.37689e+00 -1.12522e+01 
-3.66366e+00  3.29566e+00 -9.92161e+00 
-4.78436e+00  6.16703e+00 -1.16698e+01 
-5.26439e+00  5.98110e+00 -1.26403e+01 
-4.52073e+00  5.73756e+00 -1.57325e+01 
-3.86498e+00  6.69848e+00 -8.79101e+00 
-3.51132e+00  7.98385e+00 -7.09870e+00 
-2.53171e+00  7.64809e+00 -3.58870e+00 
-1.25141e+00  5.81166e+00 -4.63549e-01 
 2.81589e-01  3.99613e+00  1.20135e+00 
-3.43588e-01  2.59844e+00  1.70350e+00 
-2.83269e-01  3.86161e+00  1.32760e+00 
 3.58969e-01  6.49491e+00 -3.03624e+00 
 1.49107e-01  5.92663e+00 -8.60095e+00 
-1.63529e-01  7.34437e+00 -4.67474e+00 
 1.07272e+00  1.33902e+00  2.88243e+00 
 3.38326e+00 -1.08465e+00 -1.16873e+00 
 2.51791e+00  8.41955e-01 -3.36901e+00 
 2.72027e+00 -9.73442e-01 -1.39623e+00 
 5.00308e+00 -2.96456e+00 -2.48803e+00 
-2.90247e+00  7.00678e-01 -2.29419e+00 
-5.50581e+00  3.26926e+00 -6.71048e+00 
-4.97026e+00  3.04972e+00 -1.28625e+01 
-2.85818e+00  4.92773e+00 -1.08098e+01 
-3.44732e+00  2.32843e-01 -1.17084e+01 
-5.47288e+00  5.98800e+00 -1.07626e+01 
-6.32827e+00  3.64177e+00 -1.66316e+01 
-7.60599e+00  7.07657e+00 -1.08039e+01 
-7.29253e+00  7.64685e+00 -1.21619e+01 
-6.35380e+00  8.50922e+00 -5.81431e+00 
-5.63081e+00  8.49104e+00 -2.69740e+00 
-4.89907e+00  1.12839e+01 -8.91806e-01 
-3.52934e+00  9.21454e+00  3.16072e+00 
-6.16799e-01  4.71888e+00  6.20335e-01 
 1.72459e+00  2.13097e+00 -4.56889e+00 
 2.47969e+00  4.56141e+00  2.77594e+00 
 1.96519e+00  3.16717e+00 -3.39775e+00 
 7.80003e-01  5.83351e+00 -4.11130e+00 
 1.91097e+00  7.00179e+00 -1.05158e+01 
 2.03686e+00  1.47215e+00 -1.13542e+01 
 1.86386e+00 -3.14300e+00 -7.69982e+00 
 3.66594e+00  1.29713e+00 -7.17900e+00 
 3.95032e+00 -3.23552e+00 -5.91276e+00 
 2.85714e+00 -2.05541e+00 -5.52410e+00 
-5.02289e+00  1.69080e+00  7.86498e+00 
-2.90118e+00  3.09066e-01  9.50449e+00 
-1.86978e+00  1.38675e+00 -2.47589e+00 
-1.61200e+00  2.39905e+00 -5.35066e+00 
-1.28542e+00  1.33706e-01 -4.68827e+00 
-2.56145e+00  2.49265e+00 -3.70823e+00 
-5.42288e+00  1.31219e+00 -1.44308e+01 
-7.77434e+00  7.28778e+00 -1.69977e+01 
-9.05893e+00  6.04218e+00 -1.92884e+01 
-8.86599e+00  1.08754e+01 -1.56332e+01 
-8.37394e+00  1.09181e+01 -1.02480e+01 
-6.05116e+00  1.19174e+01 -5.24509e+00 
-2.89833e+00  8.77908e+00 -1.29012e+01 
-1.72659e+00  4.63267e+00 -1.52024e+01 
 1.59846e+00  3.88820e+00 -1.76003e+01 
 3.00244e+00  4.71076e+00 -1.65066e+01 
 1.38540e+00  6.47903e+00 -1.58820e+01 
 1.66132e+00  1.91936e+00 -1.42393e+01 
 1.05038e+00  7.04982e+00 -1.40312e+01 
 1.46888e+00  2.26494e+00 -7.29722e+00 
 2.26981e+00 -3.16389e+00 -6.27278e+00 
 2.02779e+00  3.59146e+00 -5.63556e+00 
 2.05533e+00 -3.48675e-01  4.90380e+00 
 2.03253e+00 -3.22409e+00  6.29417e+00 
-4.00898e+00  1.60202e+00 -1.96028e+00 
-2.89482e+00  3.75603e-01 -3.08567e+00 
 5.61984e-01  7.46264e-01 -2.57144e+00 
 1.56215e+00 -1.73532e+00 -8.77906e+00 
-4.32949e-01  5.70459e-01 -1.19321e+01 
-1.83024e+00  9.53372e-01 -1.25690e+01 
-2.78497e+00 -8.76224e-01 -1.24595e+01 
-4.57949e+00  2.81526e+00 -1.47712e+01 
-7.36031e+00  4.13787e+00 -1.65203e+01 
-8.69721e+00  1.16756e+01 -1.18129e+01 
-7.68180e+00  9.52497e+00 -1.60512e+01 
-5.10487e+00  1.08559e+01 -1.49299e+01 
-2.14291e+00  7.13088e+00 -1.43415e+01 
 5.67476e-01  7.74665e+00 -1.56014e+01 
 3.42185e-01  3.50387e+00 -1.56321e+01 
-3.63278e-01  7.79933e+00 -1.87973e+01 
-1.84996e-01  8.55536e+00 -1.89062e+01 
 1.73246e-01  3.92382e+00 -1.23205e+01 
 6.03711e-01  9.59008e+00 -1.11971e+01 
 8.82036e-01  2.71796e+00 -3.05411e+00 
 8.84554e-01 -8.78322e-01  6.34870e-01 
 6.47599e-01  3.59400e+00  1.41614e-01 
 1.48167e+00  2.57476e+00 -8.80672e-01 
 1.61316e+00 -2.18540e+00  1.72312e+00 
-2.49249e+00 -8.12889e-01 -4.38644e+00 
-6.73213e-01  2.38064e+00 -3.00578e+00 
-2.12710e-01 -6.71808e-01 -5.96732e+00 
 1.59164e+00 -1.48290e+00 -1.37642e+01 
 1.57555e+00 -1.97172e+00 -1.26691e+01 
-9.96666e-01  1.32412e+00 -1.34377e+01 
-2.16614e+00 -2.75774e+00 -1.74685e+01 
-3.64422e+00  7.32586e-03 -2.44521e+01 
-5.95557e+00  3.44156e-01 -2.32660e+01 
-6.63653e+00  7.44421e+00 -2.32637e+01 
-6.47283e+00  5.57822e+00 -2.40204e+01 
-5.33456e+00  7.51774e+00 -1.75627e+01 
-2.61217e+00  1.08705e+01 -2.42673e+01 
-1.36006e+00  1.01010e+01 -2.52002e+01 
-2.23374e-01  1.01051e+01 -2.01976e+01 
 1.98953e-01  8.74257e+00 -2.20268e+01 
-1.62135e+00  8.93406e+00 -2.69136e+01 
-3.69926e+00  1.14497e+01 -1.89268e+01 
-2.97542e+00  8.43314e+00 -1.64368e+01 
-2.40719e+00  5.13777e+00 -1.18030e+01 
-1.26659e+00  4.01288e+00 -5.00544e+00 
 1.30626e+00  1.73473e+00 -1.11924e+00 
 7.87273e-01  2.17687e+00  5.88427e-01 
 1.70202e+00 -5.35310e-01  8.90725e-01 
 7.74416e-01 -5.95152e-01 -3.45799e+00 
-4.60956e-01  2.00588e+00 -5.43750e+00 
 7.00652e-01  6.98373e-01 -1.42593e+00 
 1.69987e+00  2.27968e-01 -6.81725e+00 
-1.40394e-02 -1.83797e+00 -1.14322e+01 
 1.22970e+00 -1.50678e+00 -9.70137e+00 
 4.43066e-01 -2.34661e+00 -1.32482e+01 
-1.43732e+00 -6.26141e+00 -1.75217e+01 
-2.61297e+00 -5.42939e+00 -2.49870e+01 
-5.29997e+00 -2.73090e-01 -1.77899e+01 
-3.51897e+00 -3.14577e+00 -2.28542e+01 
-2.35581e+00  5.61413e+00 -2.93759e+01 
-6.36527e+00  1.68241e+01 -2.59462e+01 
-4.40317e+00  1.43060e+01 -1.48650e+01 
-1.00807e+00  1.74263e+01 -2.33606e+01 
-2.77197e+00  1.46397e+01 -2.38015e+01 
-4.57744e+00  1.12630e+01 -1.70843e+01 
-5.44959e+00  1.58121e+01 -9.95608e+00 
-4.65508e+00  8.39032e+00 -1.67330e+00 
-2.53781e+00  5.80984e+00 -1.38206e+00 
-1.56122e+00  5.70302e+00 -1.75640e+00 
-1.38638e+00  6.33289e-01 -6.75799e+00 
-4.07809e-02  2.00701e+00 -8.65325e+00 
 4.42614e-01  4.72729e-01 -1.90566e+00 
-3.50833e-01 -1.01133e+00  3.96924e+00 
-3.59537e-01  9.52326e-01  1.47396e+00 
-9.66082e-01  2.53301e+00  2.80305e+00 
-1.32041e+00  3.89446e+00 -6.46820e+00 
 1.11517e+00 -9.62422e-01 -1.73064e+00 
 1.82290e+00 -1.62467e+00  1.48311e+00 
 2.16741e+00 -3.46833e+00 -3.54012e+00 
 4.06113e+00 -9.40031e+00 -5.75608e+00 
 5.45334e+00 -1.37756e+01 -1.22192e+01 
 7.32736e+00 -2.70062e+01 -3.30069e+01 
 4.94374e+00 -1.10676e+01 -4.78358e+01 
-3.50726e+00  5.66597e+00 -5.63776e+01 
-7.39853e+00  1.55386e+01 -5.40090e+01 
-8.94014e+00  2.14482e+01 -5.29511e+01 
-1.13394e+01  3.96531e+01 -3.27863e+01 
-1.04754e+01  2.60523e+01 -1.38126e+01 
-8.15875e+00  1.71870e+01 -5.73917e+00 
-5.62944e+00  1.12641e+01 -3.44514e+00 
-4.54530e+00  8.91842e+00 -2.50216e+00 
-2.61080e+00  5.02443e+00 -4.26292e+00 
-1.20881e+00  2.82229e+00 -2.52592e+00 
-7.39015e-01  4.34411e+00  1.85065e+00 
-2.62471e-01  2.97794e-01  7.37681e-01 
-3.74062e-01 -1.85920e-01  7.86766e-01 </DataArray>
            <DataArray Name="stress" NumberOfComponents="3" format="ascii" type="Float64">
-1.21347e+02  5.60921e+01  2.02154e+00 
-1.13887e+01  1.37085e+02  1.23368e+01 
 2.29759e+00  9.65023e+01  1.42316e+01 
-2.49249e-01  6.41968e+01  7.84399e+00 
 7.49572e-01  4.73223e+01  4.59741e+00 
 9.01887e-01  3.77572e+01  3.40412e+00 
-3.00861e-01  3.14010e+01  2.45244e+00 
 1.56710e-01  2.63549e+01  1.87145e+00 
 7.05687e-01  2.27483e+01  1.40948e+00 
-7.44384e-02  1.94058e+01  1.39580e+00 
-3.51683e-01  1.64824e+01  1.27184e+00 
-1.83662e-02  1.36181e+01  1.07370e+00 
-2.82284e-01  1.13036e+01  1.01543e+00 
 8.53101e-02  9.19758e+00  9.17344e-01 
 4.58849e-02  7.30440e+00  7.50593e-01 
-3.37532e-03  5.61821e+00  6.70512e-01 
-4.34739e-03  4.21683e+00  5.96003e-01 
 1.01968e-01  3.04908e+00  5.02324e-01 
 3.02694e-02  1.95563e+00  4.40023e-01 
 1.12603e-01  1.10248e+00  3.56192e-01 
 3.26615e-01  6.49679e-01  1.92967e-01 
-8.52135e-02  3.50415e-01  1.58701e-01 
-1.14484e-01  7.57370e-02  4.36909e-02 
-2.74367e-01 -4.34488e-02 -2.89419e-02 
 3.10365e-01  5.48300e-02 -1.71370e-01 
-5.46073e+01 -2.20166e+01  1.27484e+01 
 1.74261e+01  2.39655e+01  1.59432e+01 
 7.41534e+00  3.94569e+01  1.39464e+01 
 4.90198e+00  4.05522e+01  1.10112e+01 
 1.92190e+00  3.53109e+01  7.66814e+00 
 1.70911e+00  3.03318e+01  5.74021e+00 
 5.44515e-01  2.61401e+01  4.30990e+00 
-1.37135e-01  2.26122e+01  3.52803e+00 
-5.02114e-01  1.97030e+01  2.87124e+00 
 4.85073e-01  1.71221e+01  2.62158e+00 
 4.29120e-01  1.47742e+01  2.37850e+00 
 2.47813e-01  1.26370e+01  2.13316e+00 
 3.70651e-01  1.06740e+01  1.97686e+00 
-8.37515e-02  8.90474e+00  1.76675e+00 
 2.60249e-02  7.28357e+00  1.53075e+00 
 2.18083e-01  5.86910e+00  1.31913e+00 
 1.54969e-01  4.61663e+00  1.18022e+00 
 1.27338e-01  3.45530e+00  1.03861e+00 
 5.80528e-02  2.53602e+00  8.67458e-01 
-1.65705e-02  1.77525e+00  7.26226e-01 
-1.53854e-01  1.18504e+00  4.21860e-01 
-4.33491e-02  6.60857e-01  3.07911e-01 
-1.28530e-01  4.40800e-01  1.64856e-01 
-4.31600e-01  1.89820e-01 -1.21187e-02 
-3.80197e-01  1.48301e-02  3.18536e-02 
-5.91061e+01  8.63122e+00 -5.91758e+00 
-4.59604e+00 -2.01042e+00  8.53814e-01 
 7.89658e+00  8.04903e+00  9.29456e+00 
 6.18887e+00  1.69183e+01  1.09335e+01 
 4.00181e+00  2.06149e+01  1.01069e+01 
 3.02055e+00  2.06132e+01  8.51008e+00 
 2.24118e+00  1.90306e+01  6.84200e+00 
 6.66970e-01  1.79087e+01  5.70312e+00 
 4.01487e-02  1.62697e+01  5.17733e+00 
 1.82296e-01  1.42116e+01  4.72746e+00 
 5.29764e-01  1.24423e+01  4.25211e+00 
 4.68758e-01  1.11486e+01  3.84476e+00 
 3.52143e-01  9.48030e+00  3.57067e+00 
 3.31017e-01  8.11469e+00  3.14659e+00 
 4.16004e-01  6.84115e+00  2.89027e+00 
 3.22961e-01  5.88047e+00  2.49601e+00 
 4.02531e-01  4.84556e+00  2.22958e+00 
 3.30509e-01  3.66585e+00  1.94560e+00 
 3.91710e-01  2.87543e+00  1.64963e+00 
 3.18996e-01  2.21507e+00  1.32415e+00 
 2.07641e-01  1.54702e+00  9.67447e-01 
 5.37388e-01  9.27584e-01  6.64286e-01 
 1.62777e-01  6.00152e-01  2.86484e-01 
-2.26651e-01  3.64487e-01  1.20221e-01 
-3.47811e-01  2.94633e-01  1.85537e-01 
-4.17216e+01  3.65931e-01 -3.59730e+00 
-1.61668e+01 -2.91835e-01 -2.97589e+00 
 1.49570e+00  3.35680e-01  1.91318e+00 
 3.36648e+00  5.37748e+00  6.34174e+00 
 4.73631e+00  9.94502e+00  8.33263e+00 
 4.04555e+00  1.23512e+01  8.24208e+00 
 2.32358e+00  1.28551e+01  7.47072e+00 
 1.53971e+00  1.28888e+01  6.75852e+00 
 1.62037e+00  1.21163e+01  6.54613e+00 
 9.49068e-01  1.14255e+01  5.90357e+00 
 5.99497e-01  1.02374e+01  5.53653e+00 
 7.34129e-01  9.29576e+00  5.01043e+00 
 1.03473e+00  8.46238e+00  4.71500e+00 
 1.18225e+00  7.47331e+00  4.24313e+00 
 7.82762e-01  6.38611e+00  3.84505e+00 
 6.99725e-01  5.53270e+00  3.37951e+00 
 6.80822e-01  4.48399e+00  3.02213e+00 
 7.06075e-01  3.88152e+00  2.58216e+00 
 6.59012e-01  2.93081e+00  2.23901e+00 
 6.10767e-01  2.27874e+00  1.76370e+00 
 6.36721e-01  1.44670e+00  1.32222e+00 
 3.50514e-01  1.16422e+00  1.07555e+00 
 5.14494e-01  5.57912e-01  5.68354e-01 
 1.69326e-01  1.76010e-01  2.30691e-01 
-6.69898e-01  2.41596e-01  1.27100e-01 
-3.45081e+01  4.25727e-01 -2.61661e+00 
-1.69152e+01 -9.49232e-01 -2.25252e+00 
-4.85648e+00 -8.18177e-01 -1.06407e+00 
 1.56860e+00  9.75153e-01  2.74358e+00 
 2.35730e+00  4.24576e+00  5.46480e+00 
 2.95773e+00  7.09862e+00  6.76317e+00 
 2.42704e+00  8.09385e+00  6.83431e+00 
 3.06842e+00  8.59137e+00  6.72842e+00 
 2.25026e+00  8.51438e+00  6.74380e+00 
 1.74316e+00  8.64520e+00  6.51454e+00 
 1.83192e+00  8.41993e+00  6.22455e+00 
 1.46019e+00  7.57757e+00  6.00209e+00 
 1.43115e+00  6.73679e+00  5.47012e+00 
 1.34109e+00  6.61031e+00  4.93901e+00 
 1.41181e+00  5.64276e+00  4.43848e+00 
 1.40967e+00  5.05205e+00  3.91728e+00 
 1.07008e+00  4.14781e+00  3.47823e+00 
 1.10024e+00  3.56381e+00  2.95008e+00 
 1.16140e+00  2.98917e+00  2.48797e+00 
 1.07795e+00  2.34478e+00  2.15033e+00 
 1.09380e+00  1.97635e+00  1.70629e+00 
 6.67406e-01  8.57460e-01  1.22197e+00 
 9.27662e-02  6.42436e-01  7.22641e-01 
 2.53477e-01  1.22076e-01  3.82058e-01 
-2.14149e-01  5.28788e-02  2.51247e-01 
-2.55231e+01  2.52525e-01 -1.28037e+00 
-1.61013e+01 -7.56311e-01 -2.05347e+00 
-8.10186e+00 -3.96472e-01 -1.69250e+00 
-1.37936e+00 -4.65842e-01  6.85109e-01 
 1.72863e-01  1.73806e+00  2.94758e+00 
 1.39582e+00  3.76776e+00  5.27482e+00 
 2.29503e+00  4.42780e+00  5.86264e+00 
 3.27593e+00  5.25501e+00  6.34483e+00 
 2.75899e+00  5.91208e+00  6.28875e+00 
 2.14098e+00  6.09764e+00  6.60010e+00 
 2.13713e+00  6.00461e+00  6.38906e+00 
 1.92797e+00  6.28418e+00  6.17731e+00 
 1.65563e+00  5.16697e+00  5.86502e+00 
 1.60644e+00  5.33112e+00  5.33035e+00 
 1.72212e+00  4.51933e+00  4.83219e+00 
 1.73298e+00  4.33192e+00  4.39490e+00 
 1.64184e+00  3.63432e+00  3.88935e+00 
 1.58828e+00  3.12112e+00  3.47960e+00 
 1.38615e+00  3.32351e+00  3.02257e+00 
 1.51513e+00  2.50982e+00  2.49601e+00 
 1.51242e+00  1.78931e+00  1.92566e+00 
 1.44513e+00  1.01806e+00  1.36374e+00 
 1.02064e+00  9.23789e-01  8.72521e-01 
 9.68179e-01  4.25976e-01  4.36350e-01 
 1.15871e+00 -1.02508e-01  1.13585e-01 
-2.26727e+01  3.30468e-01 -6.23240e-01 
-1.66847e+01 -4.74999e-01 -1.65429e+00 
-9.99652e+00 -4.17498e-01 -2.21084e+00 
-6.24189e+00 -6.12656e-01 -3.77192e-01 
-5.03387e-01  2.76007e-01  1.36328e+00 
-2.62016e-01  1.84007e+00  3.43828e+00 
 8.90662e-01  2.26490e+00  4.58043e+00 
 2.23305e+00  2.75650e+00  5.18442e+00 
 1.89654e+00  3.17767e+00  5.47427e+00 
 3.07196e+00  4.23187e+00  6.30647e+00 
 3.31846e+00  4.35768e+00  6.16113e+00 
 2.81931e+00  4.66753e+00  5.96274e+00 
 2.13449e+00  4.45521e+00  5.91865e+00 
 2.41691e+00  4.24824e+00  5.56116e+00 
 2.03401e+00  4.46668e+00  5.36945e+00 
 2.44916e+00  3.99453e+00  4.79409e+00 
 2.17257e+00  3.05549e+00  4.30929e+00 
 1.94778e+00  3.30035e+00  3.92696e+00 
 2.01279e+00  2.45053e+00  3.46849e+00 
 1.96706e+00  2.32272e+00  2.87294e+00 
 1.97149e+00  1.74049e+00  2.36135e+00 
 1.49792e+00  1.13245e+00  1.78004e+00 
 2.07639e+00  4.27421e-01  1.14451e+00 
 1.37573e+00  3.47209e-01  5.97628e-01 
 9.97867e-01  3.07021e-01  2.03922e-01 
-2.10830e+01 -9.70103e-02 -3.60280e-01 
-1.56497e+01 -6.44739e-01 -1.06774e+00 
-1.00516e+01  4.16619e-02 -2.30288e+00 
-5.52446e+00  3.87682e-01 -6.62660e-01 
-4.05134e+00 -2.40972e-02  5.09541e-01 
-1.19006e+00 -2.53864e-01  2.31904e+00 
 8.36702e-01  1.76326e-01  3.62591e+00 
 6.49994e-01  2.06383e+00  4.16713e+00 
 2.62652e+00  2.52747e+00  4.81031e+00 
 3.26283e+00  2.40596e+00  5.64451e+00 
 2.10087e+00  3.34796e+00  5.82205e+00 
 3.11678e+00  3.52894e+00  6.06845e+00 
 2.89340e+00  3.69238e+00  6.10629e+00 
 2.95305e+00  3.82912e+00  5.73582e+00 
 2.58209e+00  3.08749e+00  5.41616e+00 
 2.65742e+00  3.22966e+00  5.01851e+00 
 2.42504e+00  3.49278e+00  4.67582e+00 
 2.37505e+00  3.28947e+00  4.37046e+00 
 2.41953e+00  1.89760e+00  3.86540e+00 
 2.64098e+00  2.03985e+00  3.30470e+00 
 2.55377e+00  1.87628e+00  2.59087e+00 
 2.30299e+00  1.03501e+00  1.91120e+00 
 2.31355e+00  2.02614e-01  1.30534e+00 
 2.06999e+00 -3.06450e-01  6.16837e-01 
 1.77217e+00  4.71814e-01  3.78516e-01 
-2.02031e+01 -1.23848e-01 -2.23707e-01 
-1.65557e+01 -6.48279e-01 -7.72302e-01 
-1.18335e+01 -8.32726e-01 -1.69685e+00 
-7.79383e+00  2.76704e-01 -9.74775e-01 
-5.21832e+00 -9.58065e-02  2.27540e-01 
-1.16116e+00 -7.74318e-01  1.78983e+00 
-2.21037e-01  1.89335e-01  2.96912e+00 
 9.18356e-01  8.65676e-01  3.78647e+00 
 1.83480e+00  9.92984e-01  4.59284e+00 
 1.78596e+00  1.87268e+00  5.30487e+00 
 2.73974e+00  2.99272e+00  5.77811e+00 
 3.20428e+00  2.95207e+00  5.75914e+00 
 3.13889e+00  3.01603e+00  5.86624e+00 
 2.92698e+00  2.91211e+00  5.82769e+00 
 3.17521e+00  3.21280e+00  5.66389e+00 
 2.81763e+00  3.56798e+00  5.47415e+00 
 2.75222e+00  2.97884e+00  4.93565e+00 
 2.95455e+00  1.65013e+00  4.33154e+00 
 3.04329e+00  2.14643e+00  3.84670e+00 
 2.93756e+00  1.74860e+00  3.56280e+00 
 2.63175e+00  1.44241e+00  2.90065e+00 
 2.82645e+00  4.01555e-01  2.21426e+00 
 2.78460e+00  2.43338e-01  1.52766e+00 
 2.92106e+00 -6.32090e-02  7.04411e-01 
 2.29449e+00 -3.78612e-02  4.66488e-01 
-1.70383e+01 -2.88716e-02  1.00130e-01 
-1.51718e+01  2.64724e-01 -2.50620e-01 
-1.25886e+01  3.51210e-01 -8.14192e-01 
-9.68887e+00 -4.88731e-01 -6.39878e-01 
-4.38244e+00 -9.29945e-01  3.53402e-01 
-3.56139e+00 -4.09181e-01  1.56018e+00 
-1.17091e+00 -1.42700e-01  2.31618e+00 
 8.93611e-01  1.53561e-02  3.36078e+00 
 1.06776e+00  1.77211e+00  4.06301e+00 
 1.54775e+00  2.32039e+00  4.98757e+00 
 2.30953e+00  8.50138e-01  5.61475e+00 
 2.23934e+00  1.34740e+00  5.55487e+00 
 3.27475e+00  3.71420e+00  5.62858e+00 
 3.32785e+00  2.55394e+00  5.64588e+00 
 3.27623e+00  2.87290e+00  5.39795e+00 
 3.22880e+00  2.65441e+00  5.01025e+00 
 3.27479e+00  2.07999e+00  4.66451e+00 
 3.11358e+00  1.59549e+00  4.40417e+00 
 3.52636e+00  3.02056e+00  4.15603e+00 
 3.41995e+00  1.91221e+00  3.51144e+00 
 3.96885e+00  6.92906e-01  2.93209e+00 
 3.85662e+00  5.36842e-01  2.24281e+00 
 3.54515e+00 -5.99897e-02  1.62810e+00 
 3.44338e+00  3.94849e-01  7.31514e-01 
 2.89703e+00  2.63246e-01  4.82157e-01 
-1.57728e+01  8.14574e-01  2.89607e-02 
-1.41990e+01  5.73851e-01 -4.17163e-01 
-1.13146e+01  1.72167e-01 -1.17933e+00 
-8.96972e+00 -1.06020e+00 -4.26181e-01 
-6.00366e+00 -3.84412e-01  3.92322e-01 
-4.47598e+00 -1.17928e+00  1.30106e+00 
-1.32850e+00 -4.15236e-01  2.33919e+00 
-4.81238e-02  1.29197e+00  2.88071e+00 
 5.63163e-02  6.65498e-01  3.46745e+00 
 1.46591e+00  1.04558e+00  4.26448e+00 
 1.50699e+00  1.64570e+00  5.01652e+00 
 2.61551e+00  1.47829e+00  5.40985e+00 
 3.26147e+00  1.80143e+00  5.45577e+00 
 3.22485e+00  2.59648e+00  5.12189e+00 
 3.04833e+00  2.38589e+00  4.91142e+00 
 3.25161e+00  2.59342e+00  4.96789e+00 
 3.53943e+00  1.96525e+00  4.80298e+00 
 3.46357e+00  1.95117e+00  4.61463e+00 
 3.97968e+00  1.75271e+00  4.22651e+00 
 3.97547e+00  1.29612e+00  3.66180e+00 
 3.93873e+00  9.17430e-01  3.23376e+00 
 4.29649e+00  5.48647e-01  2.61954e+00 
 4.35338e+00  3.77503e-01  2.03234e+00 
 4.64768e+00  3.77072e-01  1.16883e+00 
 4.52155e+00  1.83283e-01  6.45504e-01 
-1.79071e+01  1.23211e+00 -4.69602e-02 
-1.53561e+01 -6.29798e-01 -4.69685e-01 
-1.21702e+01 -6.61717e-01 -8.76891e-01 
-9.79147e+00 -1.12461e+00 -5.46996e-01 
-7.90279e+00 -6.01184e-01  2.74645e-01 
-3.88829e+00  8.91389e-02  1.21198e+00 
-2.53924e+00  5.51876e-01  2.02096e+00 
-9.59441e-01  3.43144e-02  1.79629e+00 
 7.73144e-01  5.64942e-01  2.35135e+00 
 5.76136e-01  1.14079e+00  3.27418e+00 
 1.20785e+00  1.46424e+00  4.14783e+00 
 2.67706e+00  2.48976e+00  4.41916e+00 
 3.02690e+00  1.34878e+00  4.67733e+00 
 3.35904e+00  2.17276e+00  4.83696e+00 
 3.31257e+00  2.71400e+00  4.86253e+00 
 3.72295e+00  2.60213e+00  4.81425e+00 
 3.34593e+00  2.10089e+00  4.54398e+00 
 3.72975e+00  2.12609e+00  4.45738e+00 
 4.29029e+00  1.88220e+00  4.14929e+00 
 4.54343e+00  1.40794e+00  4.00651e+00 
 4.38429e+00  1.44529e+00  3.56861e+00 
 4.83816e+00  8.29954e-01  3.09778e+00 
 5.19499e+00  7.42914e-01  2.41386e+00 
 5.45683e+00  2.90164e-01  1.45070e+00 
 6.00482e+00  9.11092e-02  9.64864e-01 
-1.84958e+01 -3.63142e-02  3.06785e-01 
-1.63908e+01 -2.39957e-01 -1.54705e-01 
-1.24037e+01 -5.57233e-01 -5.67379e-01 
-1.06420e+01 -1.47266e+00 -2.21449e-01 
-7.14520e+00 -2.56810e-01  5.96440e-01 
-3.92132e+00 -1.11918e+00  1.21221e+00 
-3.66264e+00 -2.34495e-01  1.45768e+00 
-1.27095e+00 -5.38462e-01  1.56913e+00 
-4.39937e-01  1.15931e+00  1.83579e+00 
 3.56539e-01  9.25191e-01  2.74811e+00 
 1.24485e+00  1.83407e+00  3.62238e+00 
 1.62288e+00  1.83561e+00  3.92574e+00 
 2.62005e+00  2.63318e+00  3.81573e+00 
 3.06730e+00  3.07859e+00  4.09263e+00 
 3.36021e+00  2.47705e+00  4.25083e+00 
 3.16175e+00  1.98291e+00  4.26696e+00 
 3.41677e+00  2.79062e+00  4.26329e+00 
 3.90272e+00  1.73427e+00  4.22721e+00 
 4.61021e+00  2.49251e+00  4.01646e+00 
 4.47571e+00  2.02853e+00  3.88065e+00 
 5.07308e+00  1.43524e+00  3.48740e+00 
 5.46082e+00  1.78708e+00  3.13213e+00 
 5.90629e+00  4.65211e-01  2.42324e+00 
 6.79591e+00  6.89110e-01  1.65751e+00 
 8.15662e+00  1.16694e+00  9.76821e-01 
-1.68809e+01  9.42782e-02 -1.01288e-01 
-1.52401e+01 -3.35155e-01  8.56633e-02 
-1.27303e+01  1.37918e-02 -2.88323e-01 
-9.03335e+00 -1.05985e+00 -2.05289e-01 
-6.50659e+00 -7.22815e-01  5.66307e-01 
-5.65640e+00  1.33162e-01  8.64918e-01 
-3.47557e+00 -4.42262e-01  1.43602e+00 
-3.21536e+00 -4.99314e-01  1.86375e+00 
-1.51196e+00 -1.13477e-01  1.98129e+00 
-1.00076e-01  5.89154e-01  2.66864e+00 
 1.04332e+00  1.21070e+00  2.96481e+00 
 1.59464e+00  1.86207e+00  3.23981e+00 
 2.68000e+00  4.01911e+00  3.40749e+00 
 2.80204e+00  3.01188e+00  3.83016e+00 
 3.69033e+00  4.00804e+00  3.95043e+00 
 2.73059e+00  1.71222e+00  3.72705e+00 
 3.54436e+00  2.52100e+00  3.57344e+00 
 3.79815e+00  2.44982e+00  3.68426e+00 
 4.59281e+00  3.57722e+00  3.66094e+00 
 4.90085e+00  2.37231e+00  3.55939e+00 
 5.55058e+00  2.02932e+00  3.27674e+00 
 6.29246e+00  1.45468e+00  2.68322e+00 
 6.83223e+00  1.44900e+00  1.97585e+00 
 7.66685e+00  2.43773e-01  1.52879e+00 
 9.33235e+00 -6.47946e-01  7.89554e-01 
-1.81423e+01  4.83940e-01 -3.23852e-01 
-1.53283e+01 -3.71608e-01  1.08860e-02 
-1.31960e+01 -1.09608e+00 -1.51439e-01 
-1.01897e+01 -1.09734e+00  9.18234e-02 
-8.51035e+00 -1.47495e+00  7.01511e-01 
-6.89828e+00 -8.61877e-01  7.69986e-01 
-4.65686e+00  5.25834e-01  9.15467e-01 
-3.30748e+00  1.18405e+00  1.37356e+00 
-9.25758e-01 -8.91097e-01  1.59721e+00 
 5.03280e-01  3.54635e-01  2.30977e+00 
 1.38733e+00  3.79971e-01  3.07514e+00 
 1.72183e+00  2.11451e+00  3.09962e+00 
 2.17782e+00  4.99041e+00  3.05680e+00 
 2.67962e+00  4.46741e+00  3.28313e+00 
 3.18376e+00  3.43214e+00  3.08317e+00 
 3.36101e+00  1.25514e+00  3.03738e+00 
 4.19067e+00  2.77045e+00  3.19578e+00 
 3.84707e+00  3.24316e+00  2.99689e+00 
 4.49962e+00  3.94289e+00  2.81221e+00 
 5.32639e+00  2.52999e+00  2.55457e+00 
 6.12957e+00  1.92124e+00  1.99788e+00 
 6.87088e+00  2.03671e+00  1.67563e+00 
 7.72652e+00  1.96727e+00  1.23532e+00 
 8.53311e+00  6.37817e-01  7.62402e-01 
 1.00508e+01  1.26476e-01  7.28088e-01 
-1.62535e+01  1.52869e+00 -2.99587e-01 
-1.39757e+01  3.73702e-01 -3.46599e-01 
-1.28154e+01 -7.35896e-01 -3.06148e-01 
-1.07095e+01 -4.47488e-01 -1.05492e-01 
-8.25188e+00 -1.06327e+00 -2.35997e-02 
-6.56348e+00  8.54733e-01  7.90449e-01 
-5.57643e+00 -1.06211e+00  1.57281e+00 
-2.79189e+00  7.17975e-02  8.87809e-01 
-2.76314e+00  3.92204e-01  1.26767e+00 
-3.99477e-01  1.41287e+00  1.99310e+00 
 3.44225e-01  5.49209e-01  2.43584e+00 
 1.11070e+00  1.95162e+00  2.60209e+00 
 2.19982e+00  4.47405e+00  2.98556e+00 
 2.45312e+00  3.77456e+00  3.12965e+00 
 2.60167e+00  3.38026e+00  2.96058e+00 
 3.40812e+00  3.13591e+00  3.18323e+00 
 3.98989e+00  2.44338e+00  3.20336e+00 
 4.80425e+00  2.88499e+00  3.06784e+00 
 5.39690e+00  2.84128e+00  2.73344e+00 
 5.34632e+00  2.97604e+00  2.21999e+00 
 6.11364e+00  2.24589e+00  2.05488e+00 
 7.17323e+00  2.69937e+00  1.70923e+00 
 7.79677e+00  1.59471e+00  1.42700e+00 
 9.45491e+00  1.26519e+00  7.20351e-01 
 1.12300e+01 -6.85780e-01  3.38005e-01 
-1.43925e+01  8.22600e-02 -5.52453e-01 
-1.34356e+01  1.50878e+00 -2.61004e-01 
-1.13364e+01  2.50382e-01 -5.67637e-01 
-8.52996e+00  3.14469e-01 -9.35076e-01 
-8.50974e+00  1.00216e+00 -2.85516e-01 
-6.40661e+00  1.92683e+00 -1.08622e-01 
-5.46244e+00 -6.31022e-01  2.38744e-01 
-2.91879e+00  8.25275e-01  6.30787e-01 
-1.69911e+00  8.28869e-01  1.04133e+00 
-1.20824e+00 -2.72118e-02  1.47059e+00 
-4.35900e-01  1.88693e+00  1.91295e+00 
 1.13231e+00  3.82163e+00  2.13668e+00 
 2.36679e+00  4.39123e+00  2.13281e+00 
 2.31824e+00  3.53512e+00  2.06778e+00 
 2.68750e+00  3.47007e+00  2.27588e+00 
 3.32293e+00  4.34913e+00  2.29000e+00 
 3.91681e+00  3.28387e+00  2.41812e+00 
 4.68996e+00  2.48160e+00  2.34428e+00 
 5.41794e+00  2.09997e+00  2.33528e+00 
 5.85395e+00  2.25342e+00  2.28448e+00 
 6.41802e+00  2.76279e+00  1.81695e+00 
 8.19322e+00  3.31272e+00  1.25142e+00 
 8.95275e+00  1.78148e+00  7.91542e-01 
 9.58637e+00  6.46349e-02  4.67489e-01 
 1.04911e+01 -8.32684e-01  3.16464e-01 
-1.46096e+01 -2.19817e-01  2.70317e-02 
-1.35016e+01  1.16419e-01  8.80959e-02 
-1.23219e+01 -7.96499e-01  1.62214e-01 
-9.54550e+00  6.52171e-01 -2.90662e-01 
-8.24055e+00  1.91781e+00 -6.00614e-01 
-6.86928e+00 -2.00228e-01 -8.15350e-03 
-6.21762e+00  5.67193e-01  4.10141e-01 
-4.36412e+00  1.85729e+00  6.34615e-01 
-2.14787e+00  1.19978e+00  7.18786e-01 
-1.44649e+00  1.69312e+00  1.33869e+00 
-6.61917e-01  2.22950e+00  1.42688e+00 
 7.21389e-01  3.77501e+00  1.66073e+00 
 2.38642e+00  2.99480e+00  1.70981e+00 
 2.80048e+00  3.66483e+00  1.93820e+00 
 2.48341e+00  4.02693e+00  2.14885e+00 
 2.82473e+00  3.73917e+00  2.08518e+00 
 3.93292e+00  4.01142e+00  2.03071e+00 
 4.73011e+00  3.03865e+00  2.25117e+00 
 5.56393e+00  3.58019e+00  2.23136e+00 
 6.34628e+00  2.47648e+00  2.37622e+00 
 7.00042e+00  1.77641e+00  2.04426e+00 
 8.31198e+00  2.10076e+00  1.36497e+00 
 1.00824e+01  2.01837e+00  9.91464e-01 
 1.03681e+01  1.12171e-02  6.69135e-01 
 1.19967e+01  9.07054e-01  3.38107e-01 
-1.52883e+01 -5.25079e-01  5.73817e-01 
-1.42951e+01 -1.50160e+00  1.00930e+00 
-1.20397e+01 -1.20662e+00  1.61435e+00 
-1.08543e+01 -2.86426e-01  2.14263e-01 
-9.58892e+00 -1.29991e-01  4.98249e-01 
-7.55578e+00  1.53559e+00  4.67023e-01 
-6.10062e+00  5.42666e-01  9.48331e-01 
-5.00134e+00  4.33500e-01  7.68585e-01 
-3.09351e+00  2.23324e+00  2.66009e-01 
-1.35443e+00  2.04413e+00  4.70686e-01 
-4.75461e-01  1.88860e+00  7.40368e-01 
 6.14387e-01  3.54023e+00  1.04681e+00 
 1.48609e+00  5.29186e+00  1.07095e+00 
 2.32267e+00  4.79831e+00  1.78200e+00 
 2.74168e+00  3.41781e+00  1.81280e+00 
 3.06107e+00  3.79786e+00  1.87068e+00 
 4.02770e+00  4.71296e+00  1.97565e+00 
 4.16444e+00  3.47123e+00  2.03966e+00 
 5.53507e+00  3.31699e+00  1.78969e+00 
 6.86739e+00  3.00760e+00  1.75616e+00 
 7.04820e+00  9.68123e-01  1.77893e+00 
 8.38051e+00  1.73194e+00  1.57801e+00 
 1.01883e+01  2.38071e+00  1.32401e+00 
 1.05298e+01 -9.23781e-01  9.74034e-01 
 1.17751e+01 -1.18520e+00  7.82271e-01 
-1.45575e+01  1.71261e+00  8.37877e-02 
-1.39124e+01  7.28426e-01  9.42866e-01 
-1.19652e+01 -1.74293e+00  1.34412e+00 
-9.97940e+00  5.09386e-01  4.71201e-01 
-8.79871e+00 -2.09676e-01  8.92619e-01 
-6.96345e+00  8.22586e-01  1.42426e+00 
-5.13570e+00  2.08626e-02  1.30062e+00 
-4.64985e+00 -3.75757e-01  1.10428e+00 
-2.41435e+00  1.76203e+00  1.04760e+00 
-7.49386e-01  2.58821e+00  6.47034e-01 
-1.14384e-01  4.24463e+00  5.49299e-01 
 6.05905e-01  2.92059e+00  8.96831e-01 
 1.68991e+00  5.53058e+00  8.93043e-01 
 2.06591e+00  6.74091e+00  9.03443e-01 
 2.60870e+00  4.13403e+00  1.37292e+00 
 3.74679e+00  3.15773e+00  1.57706e+00 
 4.33379e+00  4.06188e+00  1.06748e+00 
 4.05261e+00  3.30458e+00  7.04546e-01 
 5.30133e+00  4.28354e+00  8.47417e-01 
 6.26529e+00  2.74747e+00  1.14196e+00 
 7.21303e+00  2.46134e+00  9.98038e-01 
 8.62765e+00  1.49382e+00  1.05776e+00 
 9.90632e+00  1.40330e+00  5.45627e-01 
 1.08580e+01  4.92356e-01  6.34448e-01 
 1.28360e+01 -4.97335e-01  6.43512e-01 
-1.52441e+01  2.40469e-02  8.06088e-01 
-1.34434e+01 -3.49589e-01  1.36176e+00 
-1.33338e+01 -1.25901e+00  1.19602e+00 
-1.16530e+01 -7.59668e-01  2.51645e-01 
-9.45932e+00 -1.34113e-01  4.72498e-01 
-7.21080e+00  2.02899e+00  8.46410e-01 
-6.14101e+00 -7.91641e-01  9.50809e-01 
-4.09014e+00  8.66546e-02  1.06321e+00 
-3.44494e+00  8.54756e-01  8.45459e-01 
-1.68136e+00  2.15715e+00  5.35898e-01 
 2.98780e-01  2.86154e+00  4.51503e-01 
 1.40475e+00  5.39975e+00  4.48494e-01 
 2.14350e+00  5.32833e+00  8.11119e-01 
 2.79667e+00  5.87734e+00  6.63103e-01 
 2.61907e+00  4.86008e+00  8.06562e-01 
 3.36493e+00  3.82028e+00  9.27764e-01 
 4.67053e+00  4.02475e+00  9.13378e-01 
 4.94634e+00  1.94632e+00  1.10496e+00 
 6.06557e+00  4.57293e+00  9.91763e-01 
 6.38729e+00  3.77396e+00  8.27102e-01 
 7.78005e+00  2.18814e+00  6.27245e-01 
 8.69333e+00  1.99012e+00  4.95483e-01 
 1.04074e+01  3.15670e+00  8.58260e-01 
 1.10146e+01  7.18542e-01  8.53706e-01 
 1.35953e+01  1.66739e-02  5.45428e-01 
-1.59289e+01  9.34351e-01  8.30620e-01 
-1.36432e+01 -1.25378e+00  8.85488e-01 
-1.10208e+01 -4.48542e-01  8.01268e-01 
-9.52924e+00  1.71433e-01 -6.07791e-02 
-7.61662e+00  7.32589e-01  5.84746e-01 
-5.95612e+00 -3.58685e-02  2.63759e-01 
-5.73051e+00  1.46024e+00  4.37645e-01 
-3.78976e+00  5.20265e-01  1.12142e-01 
-2.36107e+00 -5.51362e-01  1.86366e-01 
-1.87692e+00  3.13080e+00  2.52163e-01 
-1.18766e+00  3.51133e+00 -4.65465e-02 
 9.63147e-01  4.78288e+00  2.51719e-01 
 2.76371e+00  6.25749e+00 -2.54899e-01 
 2.94017e+00  5.97078e+00  3.68172e-02 
 2.88548e+00  4.80403e+00 -3.80924e-02 
 3.44336e+00  3.89946e+00  1.37431e-01 
 4.95259e+00  4.46778e+00  1.94530e-01 
 5.22348e+00  4.00179e+00  3.46335e-01 
 6.18676e+00  2.85275e+00  4.64695e-01 
 6.61963e+00  3.02064e+00  4.47826e-01 
 7.49153e+00  2.18117e+00  3.22863e-01 
 8.47984e+00  2.24132e+00 -4.29699e-02 
 1.05700e+01  3.09801e+00 -1.57810e-01 
 1.19393e+01 -8.25332e-02 -2.90475e-01 
 1.40805e+01 -1.63747e+00  5.85138e-03 
-1.37482e+01  1.80051e+00  2.97648e-01 
-1.40884e+01 -2.22170e+00  3.91431e-01 
-1.15539e+01  2.71376e-01  1.45369e-01 
-1.15468e+01 -1.23909e+00 -9.09830e-01 
-8.14009e+00  1.39230e+00 -3.37048e-01 
-6.69408e+00 -9.47949e-01  6.22802e-02 
-4.89420e+00  9.51025e-01  5.12344e-01 
-4.28388e+00  1.06162e+00  9.01109e-02 
-2.57135e+00  2.68195e+00 -9.37702e-02 
-1.40679e+00  2.31343e+00 -1.10417e-02 
-3.22554e-02  3.71756e+00  3.62838e-02 
 1.56189e+00  4.45722e+00  5.12873e-02 
 2.12164e+00  6.54842e+00 -5.30721e-01 
 2.65194e+00  4.76490e+00 -5.28628e-01 
 3.15259e+00  3.74232e+00  1.00713e-01 
 3.76599e+00  4.76941e+00  2.92671e-01 
 4.18923e+00  5.39796e+00  1.50600e-01 
 4.98949e+00  3.06106e+00  7.87344e-02 
 6.05823e+00  3.20704e+00  3.10799e-02 
 6.54667e+00  2.27650e+00  2.04550e-01 
 7.71838e+00  2.64607e+00 -2.11169e-02 
 9.33153e+00  1.99261e+00  3.69541e-02 
 1.03601e+01  1.02172e+00 -2.17227e-01 
 1.16880e+01 -3.15881e-02 -4.94470e-01 
 1.26798e+01 -4.63621e-01 -5.05587e-01 
-1.53091e+01  3.09100e-01 -6.66522e-01 
-1.36688e+01 -9.62573e-01  9.33489e-02 
-1.14783e+01 -1.75993e-01 -8.40959e-02 
-1.03189e+01 -4.89834e-01 -5.85375e-01 
-7.36500e+00  9.50982e-01 -1.95618e-01 
-6.99060e+00  7.91506e-01 -4.95304e-01 
-4.90050e+00  4.20603e-01 -5.69283e-02 
-4.84503e+00  8.97972e-01 -6.19085e-02 
-3.26328e+00  2.78131e+00  5.06860e-02 
-1.37530e+00  3.56818e+00 -5.72721e-01 
-6.96067e-02  3.67296e+00 -3.94261e-01 
-4.90428e-01  3.16691e+00 -1.05167e+00 
 1.63564e+00  5.67504e+00 -1.23237e+00 
 2.77463e+00  6.47499e+00 -4.94735e-01 
 3.16132e+00  5.46600e+00  4.56963e-02 
 4.21475e+00  4.52815e+00  1.42327e-01 
 4.63084e+00  3.90686e+00  1.49038e-01 
 4.62276e+00  3.57834e+00  6.70294e-02 
 6.23790e+00  3.65113e+00 -5.19547e-02 
 6.40557e+00  1.08444e+00 -1.06528e-01 
 8.46782e+00  2.43486e+00  1.37651e-01 
 1.06793e+01  1.85212e+00 -4.76290e-01 
 1.09755e+01 -1.40056e+00 -7.18586e-01 
 1.08480e+01 -1.37710e+00 -3.59257e-01 
 1.30592e+01 -2.09562e-01 -2.12706e-01 
-1.53940e+01  1.35896e+00  1.34115e-01 
-1.31760e+01  1.12374e-01 -1.44684e-01 
-1.14150e+01  5.11081e-01 -8.66405e-01 
-9.04575e+00  2.87064e-01 -1.18862e+00 
-9.72219e+00 -7.91799e-01 -9.63442e-01 
-6.70046e+00  2.22509e+00 -4.49967e-01 
-4.99010e+00  3.30911e+00 -1.46088e-01 
-3.53861e+00  1.23761e+00 -4.14801e-02 
-1.83266e+00  3.35642e+00 -4.56596e-01 
-1.06369e+00  2.41852e+00 -9.02225e-01 
 2.95413e-01  3.25761e+00 -9.78100e-01 
-1.54701e-01  2.91820e+00 -8.36547e-01 
 1.93823e+00  6.55654e+00 -1.43927e+00 
 2.57454e+00  6.86965e+00 -1.37149e+00 
 2.70181e+00  3.89742e+00 -1.59456e+00 
 3.85459e+00  5.72005e+00 -1.49475e+00 
 4.83384e+00  5.06224e+00 -1.24148e+00 
 4.35328e+00  1.54106e+00 -1.02181e+00 
 6.38354e+00  2.42448e+00 -1.47986e+00 
 7.22509e+00  1.93013e+00 -1.65747e+00 
 8.72866e+00  1.13151e+00 -1.27514e+00 
 9.78465e+00  1.06926e+00 -1.24478e+00 
 1.14164e+01  2.36391e+00 -7.97725e-01 
 1.17704e+01 -1.46883e+00  5.81418e-01 
 1.26631e+01 -2.65509e-01  5.84485e-01 
-1.50924e+01 -1.09873e+00  6.05043e-01 
-1.33479e+01  2.34700e-02  5.71911e-01 
-1.21524e+01  5.27668e-01 -7.67294e-02 
-8.44782e+00 -4.12464e-01 -1.82708e+00 
-8.20337e+00  1.90310e+00 -1.09143e+00 
-6.18231e+00  1.77505e+00 -7.15060e-01 
-4.47120e+00  4.20535e+00 -1.33554e+00 
-4.00498e+00  2.63312e+00 -1.58931e+00 
-2.23482e+00  1.75074e+00 -1.74297e+00 
-1.47051e+00  4.73264e+00 -1.35953e+00 
-1.49928e+00  5.04005e+00 -1.30785e+00 
 1.33733e-01  2.18365e+00 -1.82134e+00 
 1.87681e+00  4.28742e+00 -1.95087e+00 
 2.14552e+00  3.49012e+00 -2.05489e+00 
 2.66190e+00  4.33716e+00 -2.19314e+00 
 3.83550e+00  6.10198e+00 -1.86990e+00 
 4.74661e+00  5.75524e+00 -2.39628e+00 
 5.32040e+00  5.96352e-01 -2.15951e+00 
 6.30155e+00  1.98845e+00 -1.99605e+00 
 6.92374e+00 -1.52677e-02 -1.71833e+00 
 9.05434e+00  3.39251e+00 -1.30074e+00 
 8.68464e+00  2.29530e+00 -7.63029e-01 
 1.01179e+01  3.52697e+00 -1.15201e+00 
 1.14219e+01  1.02707e+00 -6.06739e-01 
 1.35986e+01 -2.44221e+00  1.52938e-01 
-1.68235e+01 -3.19915e-01  2.84209e-01 
-1.19876e+01  9.75022e-02  1.84028e-01 
-1.20574e+01 -1.91732e+00 -1.18381e+00 
-9.93263e+00  1.05718e+00 -1.40711e+00 
-7.53079e+00  1.48075e+00 -1.39784e+00 
-7.19966e+00  1.33358e+00 -1.22436e+00 
-3.78814e+00  2.33054e+00 -1.33646e+00 
-1.93862e+00  3.87315e+00 -1.64269e+00 
-2.25815e+00  5.12016e+00 -1.60303e+00 
-1.16379e+00  5.54832e+00 -1.78685e+00 
-8.35029e-01  1.65079e+00 -1.88324e+00 
 1.00629e+00  3.88790e+00 -2.31900e+00 
 2.35937e+00  5.84139e+00 -2.23560e+00 
 2.32719e+00  3.47848e+00 -2.18082e+00 
 2.93746e+00  3.74770e+00 -1.84142e+00 
 3.82174e+00  4.42548e+00 -2.11930e+00 
 5.04701e+00  4.08523e+00 -2.08018e+00 
 5.27010e+00  2.34671e+00 -1.85630e+00 
 6.03901e+00  2.12169e+00 -1.85628e+00 
 6.13247e+00  1.65904e+00 -1.39545e+00 
 7.89929e+00  3.61216e+00 -7.10063e-01 
 8.06322e+00  1.04683e+00 -1.14705e+00 
 9.75146e+00  7.25569e-01 -7.89173e-01 
 1.13426e+01  1.41716e+00 -1.33038e-01 
 1.22900e+01  3.36895e-01 -2.99614e-02 
-1.18997e+01  2.34222e+00 -5.15167e-01 
-1.14662e+01 -1.55413e+00 -1.64865e+00 
-1.05068e+01 -1.71156e-01 -2.43135e+00 
-9.40357e+00  2.49596e+00 -2.03909e+00 
-7.19493e+00  1.65989e+00 -1.82960e+00 
-6.10675e+00  1.34903e+00 -1.55444e+00 
-4.09442e+00  4.83841e+00 -1.35174e+00 
-2.42466e+00  4.85748e+00 -1.50953e+00 
-1.99168e+00  5.99801e+00 -2.38246e+00 
-4.24453e-01  4.85028e+00 -2.55416e+00 
-4.73093e-01  3.66933e+00 -2.19486e+00 
 8.27786e-01  5.79014e+00 -1.73556e+00 
 1.25652e+00  2.37054e+00 -2.55003e+00 
 2.62522e+00  4.10312e+00 -2.79281e+00 
 2.70145e+00  3.13223e+00 -2.22158e+00 
 3.88545e+00  3.14497e+00 -2.28999e+00 
 5.29611e+00  3.87285e+00 -2.00150e+00 
 4.58919e+00  3.30693e+00 -1.58309e+00 
 5.27725e+00  1.07957e+00 -1.76627e+00 
 7.42491e+00  2.12373e+00 -2.02571e+00 
 7.36597e+00  3.35585e+00 -1.89700e+00 
 8.58494e+00  2.04506e+00 -1.48398e+00 
 9.60884e+00  2.38281e+00 -8.00080e-01 
 1.02399e+01 -1.74078e-01  5.14197e-02 
 1.20232e+01  3.53277e-01 -1.51947e-01 
-9.54046e+00 -2.71865e+00 -1.48080e+00 
-1.19152e+01  2.12671e+00 -1.37994e+00 
-1.06823e+01  3.63834e+00 -1.23810e+00 
-8.72564e+00  3.56008e+00 -2.22655e+00 
-6.27106e+00  3.45073e+00 -1.69456e+00 
-4.66806e+00  1.10031e+00 -1.84976e+00 
-3.44745e+00  7.38393e+00 -1.20853e+00 
-4.90586e+00  3.49167e+00 -1.61939e+00 
-1.70038e+00  5.80657e+00 -2.23048e+00 
-1.76235e+00  4.18166e+00 -2.84857e+00 
-4.37672e-01  3.88661e+00 -2.72722e+00 
 7.50882e-01  5.20880e+00 -3.12352e+00 
 1.10925e+00  1.26336e+00 -3.19784e+00 
 3.06228e+00  4.90937e+00 -3.06463e+00 
 3.05425e+00  3.50221e+00 -2.99869e+00 
 3.63018e+00  3.28791e+00 -2.44857e+00 
 4.69881e+00  4.26133e+00 -2.16759e+00 
 4.76397e+00  2.55354e+00 -2.22687e+00 
 5.34088e+00  2.32318e+00 -1.94344e+00 
 5.94595e+00  6.55714e-01 -1.53641e+00 
 6.90806e+00  1.16533e+00 -1.58487e+00 
 8.02845e+00  3.39260e+00 -1.46136e+00 
 8.98857e+00  1.51708e+00 -1.24348e+00 
 9.52897e+00 -9.53980e-01 -7.89297e-01 
 1.26479e+01  5.06765e-01 -5.47881e-01 
-1.11300e+01 -4.40029e-04  2.76939e-01 
-1.02750e+01  2.64988e+00  3.18388e-01 
-9.02349e+00  1.51670e+00 -6.47528e-01 
-8.87503e+00  2.41556e+00 -1.24871e+00 
-6.28739e+00  3.74514e+00 -7.83548e-01 
-6.04354e+00  2.19268e+00 -8.48302e-01 
-4.04423e+00  6.23522e+00 -1.58108e+00 
-4.04670e+00  4.78923e+00 -1.98155e+00 
-2.01154e+00  4.31911e+00 -2.54241e+00 
-1.55401e+00  3.35178e+00 -2.91410e+00 
-3.83673e-01  4.66406e+00 -3.20685e+00 
 8.15787e-01  5.34005e+00 -3.38676e+00 
 1.34540e+00  4.91900e+00 -3.39050e+00 
 2.23276e+00  3.09521e+00 -3.49235e+00 
 2.76221e+00  8.00348e-01 -3.62462e+00 
 3.89694e+00  4.14781e+00 -3.96657e+00 
 4.38433e+00  5.34698e+00 -3.21230e+00 
 4.45393e+00  1.79270e+00 -2.55915e+00 
 5.78512e+00  2.55572e+00 -2.45281e+00 
 5.73172e+00  2.44917e+00 -2.41113e+00 
 7.40823e+00  2.14930e+00 -2.02681e+00 
 8.64611e+00  1.66442e+00 -1.98724e+00 
 9.85514e+00  1.07396e+00 -1.73399e+00 
 1.04760e+01 -4.34431e-02 -7.78179e-01 
 1.04225e+01 -5.30193e-01 -1.56256e-01 
-1.07024e+01  5.45135e-01  3.13137e-02 
-1.03693e+01  6.09117e-01 -2.07723e-01 
-9.33732e+00  2.09708e+00 -4.12158e-01 
-7.22837e+00  1.79685e+00 -6.97021e-01 
-6.87251e+00  3.99502e+00 -5.26946e-01 
-7.12894e+00  3.70012e+00 -1.25030e+00 
-3.82504e+00  4.18972e+00 -1.44391e+00 
-2.46579e+00  4.48583e+00 -1.40992e+00 
-2.01970e+00  5.03179e+00 -2.36121e+00 
-1.26634e+00  3.84983e+00 -2.26948e+00 
-6.52782e-01  3.49851e+00 -2.96859e+00 
 1.03293e+00  5.43874e+00 -3.15419e+00 
 1.28180e+00  4.14213e+00 -3.56748e+00 
 2.21679e+00  2.14626e+00 -4.20220e+00 
 2.42052e+00  1.19537e+00 -3.81527e+00 
 5.06585e+00  3.90454e+00 -3.47875e+00 
 5.34690e+00  6.36209e+00 -3.05943e+00 
 3.62813e+00  1.84896e+00 -3.31563e+00 
 5.04230e+00  4.09076e+00 -2.89393e+00 
 5.14246e+00  9.97449e-01 -2.40930e+00 
 6.67737e+00 -7.52540e-01 -2.89272e+00 
 8.12453e+00  1.70717e+00 -2.56630e+00 
 9.00749e+00  1.24797e+00 -1.91999e+00 
 9.20407e+00  5.10281e-01 -1.31793e+00 
 9.08507e+00  1.63005e-01 -8.73732e-01 
-1.27249e+01 -1.50164e-01 -2.43523e-01 
-1.01438e+01  5.21093e-01 -8.97267e-02 
-9.32797e+00 -2.94117e-01 -5.09810e-01 
-7.34008e+00  3.19366e+00 -1.03285e+00 
-7.31995e+00  2.85160e+00 -7.56527e-01 
-6.75847e+00  3.16083e+00 -9.38666e-01 
-3.38822e+00  6.57097e+00 -1.32455e+00 
-2.47176e+00  4.09606e+00 -2.30552e+00 
-2.81959e+00  4.44655e+00 -2.05632e+00 
-1.37326e+00  4.82114e+00 -2.41380e+00 
 1.20437e-01  1.51442e+00 -2.53551e+00 
 1.36707e+00  3.73365e+00 -3.52357e+00 
 1.85890e+00  3.36221e+00 -3.73104e+00 
 1.34447e+00  2.13346e+00 -4.03530e+00 
 2.07708e+00  3.21602e+00 -3.46230e+00 
 3.43125e+00  3.64877e+00 -3.33292e+00 
 4.73896e+00  2.38588e+00 -3.98677e+00 
 4.75736e+00  3.39418e+00 -3.10454e+00 
 5.80438e+00  3.61130e+00 -3.03987e+00 
 5.55117e+00  1.40835e-01 -3.32845e+00 
 6.35436e+00  1.22083e+00 -2.33555e+00 
 7.84611e+00  1.65561e+00 -1.65993e+00 
 8.80271e+00  9.97640e-01 -1.78501e+00 
 8.69999e+00  1.13452e+00 -9.92942e-01 
 7.78253e+00  5.40846e-01 -3.15373e-01 
-1.24818e+01  1.92953e-01 -5.97278e-01 
-1.10781e+01 -1.66039e+00 -1.01792e+00 
-1.06242e+01 -3.72590e-01 -1.35697e+00 
-7.85935e+00  1.97910e+00 -1.76693e+00 
-6.52911e+00  4.63025e+00 -2.38122e+00 
-7.32992e+00  1.23524e+00 -1.81364e+00 
-4.22695e+00  3.76664e+00 -1.80966e+00 
-3.15965e+00  7.30422e+00 -2.87876e+00 
-2.05585e+00  3.73017e+00 -3.37741e+00 
-3.07157e-01  4.72131e+00 -3.27310e+00 
 2.08423e-02  3.86545e+00 -3.24973e+00 
 1.59443e+00  2.76092e+00 -3.47413e+00 
 1.43982e+00  2.71333e+00 -3.31513e+00 
 1.86118e+00  2.89140e+00 -3.46222e+00 
 2.61803e+00  2.21211e+00 -3.21177e+00 
 3.41151e+00  3.06788e+00 -3.54440e+00 
 4.02173e+00  2.92095e+00 -3.29696e+00 
 4.83092e+00  3.59793e+00 -2.98396e+00 
 5.14061e+00  1.15779e+00 -3.10302e+00 
 6.18095e+00  3.38582e+00 -2.52860e+00 
 6.77470e+00  2.26269e+00 -1.75822e+00 
 7.34569e+00 -6.64124e-01 -1.72395e+00 
 7.72364e+00  1.03645e+00 -9.03619e-01 
 7.62573e+00  1.93002e+00 -2.32074e-01 
 8.11383e+00 -4.15225e-01 -2.19514e-01 
-1.19751e+01 -2.73619e-01 -3.53800e-01 
-8.20896e+00  9.39293e-02 -1.25651e+00 
-7.54201e+00  6.27816e-01 -1.77539e+00 
-7.33436e+00  1.61745e+00 -2.33653e+00 
-6.11387e+00  3.64709e+00 -2.58243e+00 
-5.19894e+00  2.34910e+00 -2.46090e+00 
-4.11419e+00  4.92983e+00 -2.71728e+00 
-2.81395e+00  4.76464e+00 -3.24882e+00 
-1.99542e+00  4.06047e+00 -3.55102e+00 
 5.04887e-01  6.48063e+00 -3.37783e+00 
-3.69123e-01  2.18243e+00 -4.01385e+00 
 3.02364e-01  4.71597e+00 -4.50286e+00 
 4.98365e-01  4.29774e+00 -4.09681e+00 
 2.68186e+00  4.15909e+00 -3.67981e+00 
 2.13535e+00  1.68877e+00 -3.34701e+00 
 2.70978e+00  1.69764e+00 -3.15480e+00 
 4.26736e+00  2.92496e+00 -3.47893e+00 
 4.67296e+00  6.81036e-01 -3.55095e+00 
 5.01576e+00  2.29860e+00 -3.05592e+00 
 5.55845e+00  1.65032e+00 -2.76779e+00 
 6.36679e+00  3.89744e+00 -2.62489e+00 
 6.87935e+00  3.02100e+00 -1.51172e+00 
 7.59854e+00  4.26151e+00 -7.69776e-01 
 7.84660e+00  5.39584e-01 -2.21211e-01 
 9.14191e+00  1.36136e+00  1.83294e-01 
-1.01227e+01 -3.11728e+00 -1.24338e-01 
-9.40427e+00  1.05920e+00 -9.67124e-01 
-8.32950e+00 -5.77047e-01 -1.35865e+00 
-6.82160e+00  2.21384e+00 -2.40635e+00 
-5.77206e+00  2.61737e+00 -2.60998e+00 
-5.84086e+00  2.15656e+00 -2.59145e+00 
-3.29532e+00  4.50913e+00 -3.03143e+00 
-2.15178e+00  5.74397e+00 -3.32083e+00 
-2.10671e+00  4.04320e+00 -3.87341e+00 
-2.06569e+00  4.52769e+00 -4.07897e+00 
-1.40792e+00  5.19608e+00 -3.72669e+00 
 6.28600e-01  4.72997e+00 -3.94623e+00 
 9.60989e-01  3.73099e+00 -3.79859e+00 
 1.78182e+00  5.08794e+00 -4.07592e+00 
 2.60908e+00  2.64383e+00 -4.13062e+00 
 3.50567e+00  1.88514e+00 -3.51550e+00 
 4.75334e+00  1.97467e+00 -3.00197e+00 
 5.16242e+00  6.46908e-02 -2.69425e+00 
 5.75291e+00  4.26615e+00 -2.59581e+00 
 4.93338e+00  9.54166e-01 -2.51533e+00 
 6.15748e+00  2.86137e+00 -2.17461e+00 
 5.77658e+00  4.69670e+00 -1.48362e+00 
 6.13292e+00  2.59385e+00 -1.11683e+00 
 7.22653e+00  6.29817e-01 -5.94259e-01 
 8.33251e+00  3.50480e-01 -3.61394e-01 
-1.02438e+01 -2.24083e+00  1.49380e-01 
-9.05832e+00  3.49337e+00  6.50809e-01 
-7.31678e+00 -4.26295e-01  3.58557e-01 
-5.11154e+00  4.00448e-01 -1.60543e+00 
-4.65301e+00  7.78882e-01 -2.35377e+00 
-4.37367e+00  1.59745e+00 -2.54824e+00 
-4.42065e+00  5.03382e+00 -2.64277e+00 
-3.46479e+00  4.64018e+00 -3.79871e+00 
-2.41184e+00  4.58942e+00 -3.85859e+00 
-1.30259e+00  6.35537e+00 -3.16222e+00 
-1.21501e+00  5.36353e+00 -3.39364e+00 
-6.52044e-01  4.52980e+00 -4.33520e+00 
 5.98285e-01  4.50150e+00 -3.99949e+00 
 2.11336e+00  5.00353e+00 -3.44506e+00 
 2.84789e+00  2.74608e+00 -3.13499e+00 
 3.10765e+00  3.55983e+00 -3.37342e+00 
 3.43875e+00  3.74472e+00 -2.57196e+00 
 5.10202e+00  2.83347e+00 -2.45082e+00 
 5.74342e+00  2.02643e-01 -2.00283e+00 
 5.13551e+00  1.10571e+00 -1.87507e+00 
 6.59596e+00  5.10124e+00 -9.68147e-01 
 5.55807e+00  4.96957e+00 -7.83136e-01 
 6.05342e+00  2.89656e+00 -3.44014e-01 
 7.13348e+00  9.49135e-01  3.12239e-01 
 6.94040e+00 -1.41673e+00  5.99089e-01 
-1.12913e+01  8.02772e-01 -4.13750e-01 
-8.20842e+00  1.80009e+00  3.13761e-02 
-6.42401e+00  8.82592e-01 -7.23028e-01 
-5.54564e+00 -3.65461e+00 -1.82280e+00 
-3.60163e+00 -1.27356e+00 -2.56982e+00 
-3.85162e+00  1.59100e+00 -2.45687e+00 
-2.67549e+00  1.22800e+00 -2.85120e+00 
-2.91828e+00  6.02102e+00 -2.30062e+00 
-3.15210e+00  7.34123e+00 -2.65577e+00 
-2.15513e+00  6.27728e+00 -2.90128e+00 
-1.83295e+00  2.57704e+00 -3.45754e+00 
-1.51241e-01  6.29912e+00 -3.78990e+00 
-2.41252e-03  7.44722e+00 -2.99363e+00 
 1.58829e+00  3.34481e+00 -2.97966e+00 
 2.33765e+00  3.46619e+00 -3.21613e+00 
 3.29061e+00  4.37205e+00 -2.86973e+00 
 3.11106e+00  8.22815e-01 -3.03758e+00 
 4.01833e+00  4.19724e+00 -3.04354e+00 
 5.16505e+00  3.17642e+00 -2.60389e+00 
 5.11993e+00  2.29211e+00 -1.61873e+00 
 6.22311e+00  4.22022e+00 -2.23097e+00 
 6.17106e+00  3.02760e+00 -2.12718e+00 
 6.35990e+00  2.76613e+00 -1.56936e+00 
 6.17438e+00  1.58646e+00 -1.18813e+00 
 6.24170e+00 -2.41708e+00 -7.40846e-01 
-8.28118e+00  2.45296e+00 -9.83394e-01 
-6.19993e+00 -2.27805e+00 -1.70097e+00 
-5.59921e+00  6.26538e-01 -3.36449e+00 
-8.11602e+00 -1.88750e+00 -4.61261e+00 
-3.98166e+00  3.21543e+00 -4.05094e+00 
-2.90340e+00  5.86047e-01 -2.37042e+00 
-2.24974e+00  5.75271e+00 -1.85540e+00 
-2.17062e+00  6.43952e+00 -1.84075e+00 
-2.00151e+00  4.69874e+00 -2.36932e+00 
-2.64731e+00  4.32602e+00 -2.95875e+00 
-2.37705e+00  5.97145e+00 -2.69633e+00 
-6.73434e-01  6.85366e+00 -3.15287e+00 
 6.95349e-01  4.07695e+00 -3.98529e+00 
 1.00965e+00  4.95664e+00 -3.41080e+00 
 2.07948e+00  5.90374e+00 -2.94457e+00 
 3.89161e+00  2.46855e+00 -3.44479e+00 
 3.83594e+00  1.38182e+00 -3.11209e+00 
 4.25248e+00  3.50653e+00 -2.19918e+00 
 4.25475e+00  5.01949e+00 -2.86562e+00 
 5.88920e+00  3.62779e+00 -3.22582e+00 
 6.05232e+00  1.46407e+00 -2.52182e+00 
 7.04454e+00  7.16397e-01 -3.10416e+00 
 6.58028e+00  1.41839e+00 -2.61319e+00 
 4.97450e+00 -1.01836e+00 -1.95420e+00 
 4.28806e+00 -2.40724e+00 -2.11392e+00 
-4.80008e+00 -2.30938e+00 -9.24225e-01 
-4.64534e+00 -2.18633e+00 -1.99800e+00 
-4.87163e+00  2.73924e-01 -2.54227e+00 
-5.94479e+00  3.88488e-01 -3.09262e+00 
-5.06970e+00  5.90058e+00 -3.07529e+00 
-5.09529e+00  6.17729e+00 -2.42985e+00 
-4.24854e+00  5.34491e+00 -2.09873e+00 
-1.80840e+00  5.54501e+00 -2.26415e+00 
-2.72556e+00  5.15878e+00 -1.98463e+00 
-2.68245e+00  8.58057e-01 -2.54563e+00 
-1.35490e-01  6.86318e+00 -3.16098e+00 
 5.77831e-01  4.80082e+00 -3.97703e+00 
 8.58921e-01  4.44412e+00 -3.49601e+00 
 1.44675e+00  6.81729e+00 -3.23669e+00 
 1.21439e+00  2.71190e+00 -4.35848e+00 
 2.29003e+00  4.97939e+00 -4.11888e+00 
 3.61059e+00  3.51688e+00 -3.40511e+00 
 3.80744e+00  2.97303e+00 -3.52107e+00 
 3.98436e+00  1.91464e+00 -2.89065e+00 
 5.77998e+00  3.85373e+00 -2.56339e+00 
 5.20444e+00  3.14152e-01 -2.47024e+00 
 6.57685e+00  8.46782e-01 -2.00175e+00 
 6.49298e+00  1.37885e+00 -1.26444e+00 
 4.33521e+00 -2.09389e+00 -7.17096e-01 
 1.92567e+00 -8.49427e-01 -5.35403e-02 
-3.22569e+00  2.99343e+00  3.58844e-02 
-5.48380e+00 -5.63930e-01 -8.46992e-01 
-5.02610e+00  8.92594e-01 -1.46062e+00 
-5.48273e+00  3.08929e+00 -2.01187e+00 
-6.11399e+00  3.84751e+00 -2.26746e+00 
-4.09087e+00  7.47572e+00 -2.41157e+00 
-4.72659e+00  4.11364e+00 -2.41128e+00 
-3.07963e+00  6.97545e+00 -3.03840e+00 
-3.03618e+00  2.97356e+00 -3.52533e+00 
-2.65934e+00  3.10345e+00 -3.06355e+00 
-7.78050e-01  3.82766e+00 -2.83553e+00 
 5.18794e-01  7.79223e+00 -2.64583e+00 
-3.18613e-02  3.51910e+00 -2.91047e+00 
 1.77166e+00  3.17450e+00 -3.82596e+00 
 2.37360e+00  2.61775e+00 -3.60505e+00 
 3.09538e+00  5.65341e+00 -3.67370e+00 
 3.82975e+00  6.11540e+00 -3.94456e+00 
 3.57927e+00  2.42100e+00 -3.56352e+00 
 4.67879e+00  2.94102e+00 -3.44953e+00 
 5.32277e+00  4.20161e+00 -3.40546e+00 
 4.94425e+00  2.19930e+00 -2.58138e+00 
 5.14657e+00  3.75244e+00 -1.12522e+00 
 4.99751e+00 -4.59919e-01 -5.74427e-01 
 4.19655e+00  9.42356e-01 -2.62475e-02 
 3.35603e+00 -2.09954e-01  5.94228e-01 
-3.08655e+00  2.48528e+00  1.11454e-01 
-5.09423e+00  1.61787e+00  1.65928e-01 
-5.81514e+00  2.49032e+00 -3.40148e-01 
-4.28870e+00  3.73886e+00 -2.14041e+00 
-3.53165e+00  2.37907e+00 -1.61675e+00 
-1.72996e+00  7.01505e+00 -1.43257e+00 
-4.95049e+00  2.56249e+00 -1.91742e+00 
-3.42925e+00  3.16773e+00 -3.38959e+00 
-2.76397e+00  3.83296e+00 -3.69963e+00 
-1.50504e+00  6.04433e+00 -3.55183e+00 
-1.20669e+00  6.16391e+00 -2.69224e+00 
 1.44704e+00  6.30622e+00 -3.28028e+00 
 5.27241e-01 -9.76036e-03 -3.72925e+00 
 1.60662e+00  5.78820e+00 -3.24060e+00 
 2.58285e+00  7.32423e+00 -2.49109e+00 
 2.71358e+00  2.28681e+00 -2.87028e+00 
 3.10701e+00  5.28856e+00 -3.12239e+00 
 4.68086e+00  5.39747e+00 -3.18480e+00 
 4.37757e+00  1.19597e+00 -2.31168e+00 
 3.29962e+00  3.86257e+00 -1.72191e+00 
 3.58497e+00  6.58798e+00 -1.21759e+00 
 4.03378e+00  4.80750e+00 -2.84483e-01 
 3.05214e+00 -6.80536e-01  5.32610e-01 
 4.65641e+00  1.04864e+00  4.25843e-01 
 4.19607e+00  2.53790e+00  3.69036e-01 
-3.74109e+00  2.57875e+00  1.24343e-01 
-3.87014e+00  3.17047e+00 -3.74273e-01 
-4.99975e+00  1.12677e+00 -2.46714e+00 
-3.97176e+00  5.23625e+00 -2.58851e+00 
-5.25714e+00  1.67164e+00 -2.58287e+00 
-4.22479e+00  6.62323e+00 -2.12157e+00 
-4.10304e+00  2.75278e+00 -1.86104e+00 
-3.61636e+00  1.30416e-01 -1.15729e+00 
-3.07150e+00  1.42048e+00 -2.15023e+00 
-2.62794e+00  6.78081e+00 -2.41887e+00 
-8.72960e-01  7.63567e+00 -2.00440e+00 
 2.25770e-01  5.26914e+00 -1.60562e+00 
-4.73332e-01  1.71852e+00 -1.41724e+00 
 2.49225e+00  5.45745e+00 -1.69311e+00 
 2.50510e+00  5.14043e+00 -2.45054e+00 
 1.74674e+00  3.65404e+00 -2.12196e+00 
 3.43001e+00  3.70743e+00 -1.64082e+00 
 5.04550e+00  5.98787e+00 -1.29631e+00 
 3.94418e+00  7.67863e+00 -1.33160e+00 
 3.79810e+00  5.38762e+00 -2.19129e-01 
 3.22141e+00  3.57706e+00 -3.45870e-01 
 4.36571e+00  5.16955e+00 -4.64030e-01 
 3.30848e+00  1.87936e+00  1.19028e-02 
 4.23234e+00  8.54038e-01  6.10002e-01 
 5.55803e+00 -1.71086e+00  3.46434e-01 
-3.14061e+00  3.37199e+00 -4.42824e-01 
-3.40510e+00 -2.32145e-01 -1.22804e+00 
-3.12833e+00  1.18367e+00 -2.48934e+00 
-2.93842e+00  4.76503e+00 -4.23443e+00 
-4.91984e+00  5.24174e+00 -4.04244e+00 
-3.12350e+00  5.19665e+00 -3.23679e+00 
-3.15159e+00  3.23894e+00 -3.97699e+00 
-4.15729e+00  4.38691e+00 -3.90083e+00 
-2.49949e+00  3.42283e+00 -3.80291e+00 
-1.24811e+00  5.00856e+00 -2.77403e+00 
-7.18172e-01  6.64178e+00 -3.02725e+00 
 2.57130e-01  7.60189e+00 -2.51259e+00 
 7.24326e-01  4.78622e+00 -1.55856e+00 
 2.66143e+00  3.51759e+00 -6.12110e-01 
 2.53401e+00  4.75651e+00 -9.88490e-01 
 2.67580e+00  7.00760e+00 -9.06256e-01 
 3.80532e+00  7.38224e+00  1.23611e-01 
 3.34684e+00  7.12005e+00 -1.68856e-01 
 3.81881e+00  6.81193e+00 -1.01562e+00 
 3.27368e+00  5.79907e+00 -2.73526e-01 
 2.55406e+00  1.20558e+00  3.24574e-01 
 3.32319e+00  2.09439e+00 -3.04924e-01 
 4.00231e+00  3.64889e+00 -7.05823e-02 
 3.67493e+00  8.36226e-01 -1.01559e-02 
 5.93628e+00 -6.89102e-01 -4.23685e-01 
-5.21068e-01  1.52234e+00 -8.21416e-02 
-4.30522e+00  8.08620e-01 -1.17484e+00 
-3.68994e+00  1.52470e+00 -1.81070e+00 
-3.24122e+00  3.41666e+00 -3.20216e+00 
-4.31921e+00  1.88386e+00 -3.16035e+00 
-4.09352e+00  2.74921e+00 -3.94441e+00 
-5.45991e+00  4.94537e-01 -4.11226e+00 
-5.86671e+00  1.80764e+00 -4.91978e+00 
-3.33619e+00  8.30620e+00 -4.67148e+00 
-4.36513e+00  3.14926e+00 -3.67962e+00 
-1.73134e+00  6.77062e+00 -2.09282e+00 
 1.59271e-01  1.01337e+01 -1.62163e+00 
 8.54846e-01  8.78603e+00 -1.24925e+00 
 2.05685e+00  8.50362e+00 -4.20922e-01 
 2.44002e+00  3.60878e+00 -4.52846e-01 
 2.51780e+00  4.81872e+00 -1.16354e+00 
 4.77031e+00  5.55460e+00 -2.01600e+00 
 4.85820e+00  8.53118e+00 -2.73474e+00 
 4.30949e+00  9.19631e+00 -1.36908e+00 
 4.06947e+00  7.79251e+00 -1.75301e+00 
 1.92741e+00 -8.20637e-01 -1.23739e+00 
 2.85262e+00 -2.33467e+00 -1.17726e+00 
 4.36888e+00  3.78380e+00 -1.29843e+00 
 3.73428e+00 -1.25870e+00 -1.30529e+00 
 3.96395e+00 -1.22424e+00 -6.46496e-01 
-3.96094e+00 -2.23503e+00  3.47262e-02 
-4.45158e+00 -8.68878e-01  2.49375e-01 
-3.87443e+00  1.09827e+00 -7.64305e-01 
-2.30494e+00  2.84918e+00 -3.02737e+00 
-8.98001e-01  2.85542e-01 -3.27787e+00 
-2.26201e+00  9.31165e-01 -3.02801e+00 
-4.47115e+00  1.52847e+00 -4.06041e+00 
-4.69530e+00  4.36068e+00 -3.18084e+00 
-5.16367e+00  6.62313e+00 -3.69443e+00 
-5.54249e+00  5.03307e+00 -4.27207e+00 
-3.20171e+00  8.31770e+00 -2.87549e+00 
-1.59540e+00  9.94183e+00 -1.66681e+00 
 3.60047e-01  1.09032e+01 -1.81424e+00 
 2.01962e+00  9.33548e+00 -2.55224e+00 
 3.17638e+00  7.04792e+00 -2.66267e+00 
 4.13884e+00  1.53550e+00 -1.91493e+00 
 4.08245e+00  4.83984e+00 -2.35019e+00 
 5.11290e+00  9.89481e+00 -3.02265e+00 
 4.25644e+00  6.40345e+00 -3.98422e+00 
 3.74159e+00  2.98619e+00 -3.54368e+00 
 1.61711e+00  1.27440e+00 -2.75571e+00 
 1.86681e+00 -8.20343e-01 -2.50154e+00 
 4.08779e+00  1.24668e-01 -1.15112e+00 
 3.49242e+00  3.64959e-01  1.62895e-02 
 1.91297e+00  2.48897e-01 -4.00410e-01 
-4.95588e+00  5.37729e-01  2.90597e-01 
-3.00924e+00  4.17224e-01  1.28316e-01 
-1.02323e+00  5.43893e-01  2.08126e-01 
 2.82460e-01 -3.15908e+00 -1.79099e+00 
 3.27007e-01  3.25859e+00 -2.79223e+00 
-1.05175e+00 -1.76199e+00 -3.30643e+00 
-1.92622e+00 -4.76306e-02 -4.56668e+00 
-2.91165e+00  2.59434e+00 -5.51744e+00 
-6.36722e+00  3.64036e+00 -6.47736e+00 
-6.34972e+00  5.97189e+00 -5.40382e+00 
-5.46214e+00  8.90598e+00 -4.15048e+00 
-2.37277e+00  1.24657e+01 -3.67244e+00 
-4.49843e-01  5.18989e+00 -3.92355e+00 
 3.36984e+00  8.84530e+00 -4.89786e+00 
 4.13796e+00  8.96984e+00 -5.73985e+00 
 3.58897e+00  2.67754e+00 -6.49436e+00 
 5.57267e+00  1.09433e+01 -5.57838e+00 
 4.45981e+00  8.07725e+00 -4.34147e+00 
 4.52914e+00  6.22621e+00 -3.93643e+00 
 2.93422e+00  6.15755e+00 -2.93362e+00 
 2.27025e+00 -7.14231e-01 -1.38450e+00 
 2.17235e+00  2.49033e+00 -2.61921e-01 
 2.70104e+00  4.72260e+00  9.54612e-02 
 1.90356e+00  6.77436e-01  8.27374e-01 
 1.56386e+00 -2.39363e+00  7.01970e-01 
-4.94796e+00 -2.09801e+00  2.06350e-01 
-2.07810e+00 -2.55181e-02 -5.07708e-01 
-1.34775e+00  1.19857e+00 -1.08905e+00 
 8.74416e-02 -2.47088e+00 -2.39862e+00 
 1.89920e+00 -3.51666e+00 -3.66071e+00 
 2.15392e-02  2.77563e-01 -4.03203e+00 
-2.55930e+00  2.31165e-01 -3.93753e+00 
-3.18077e+00 -1.04324e+00 -4.98714e+00 
-6.29098e+00 -9.08333e-01 -6.59390e+00 
-5.94910e+00  6.49000e+00 -7.42804e+00 
-5.63932e+00  5.37707e+00 -6.88067e+00 
-3.63195e+00  7.43731e+00 -6.89262e+00 
-1.18476e+00  8.03882e+00 -6.84404e+00 
 3.42983e+00  9.73197e+00 -6.86592e+00 
 4.73887e+00  7.53609e+00 -7.12473e+00 
 4.03340e+00  8.24180e+00 -6.04551e+00 
 5.29271e+00  1.32776e+01 -6.89694e+00 
 2.92128e+00  9.70924e+00 -6.65921e+00 
 2.65745e+00  9.86177e+00 -5.09247e+00 
 1.96171e+00  4.84312e+00 -4.57583e+00 
 2.66247e+00  7.27420e+00 -2.74787e+00 
 8.49214e-01  1.05016e+00 -4.86785e-01 
 2.15041e+00  1.91144e+00 -1.57807e-02 
 1.74244e+00  2.22162e+00  4.79165e-01 
 2.29667e+00  1.62136e+00  6.99190e-01 
-1.64311e+00  1.80010e-02 -1.37621e+00 
-8.25513e-01  1.07531e+00 -8.91153e-01 
-4.42123e-01 -8.87508e-01 -1.46702e+00 
-2.98618e-01 -3.05539e+00 -2.84386e+00 
 3.73103e-01 -1.09606e+00 -3.99981e+00 
 1.95507e-02  1.26528e+00 -3.92599e+00 
-1.43228e+00 -3.85204e+00 -4.64495e+00 
-2.77515e+00 -2.79093e+00 -5.85755e+00 
-5.75194e+00 -5.40371e+00 -7.26627e+00 
-6.53512e+00 -2.61547e+00 -7.37761e+00 
-5.13717e+00  4.48191e+00 -7.58577e+00 
-2.69213e+00  2.67921e+00 -8.93768e+00 
 5.54818e-01  8.63790e+00 -9.37315e+00 
 1.68026e+00  1.41298e+01 -7.86402e+00 
 4.86411e+00  1.38334e+01 -7.35422e+00 
 7.06063e+00  1.43020e+01 -7.63271e+00 
 4.92746e+00  1.18206e+01 -6.98821e+00 
 1.85386e+00  1.32190e+01 -5.55971e+00 
-6.30600e-01  1.04788e+01 -3.57319e+00 
-7.43510e-02  4.84914e+00 -2.26645e+00 
 1.13596e+00  1.00468e+01 -1.90238e+00 
 1.39344e+00  4.30182e+00 -1.87668e+00 
 2.55531e+00  3.93122e+00 -1.50545e+00 
 6.92785e-01  1.44865e+00 -8.02824e-01 
 4.53265e-01 -2.81204e+00 -4.40282e-01 
 1.30839e+00  2.30572e+00  7.28397e-02 
-2.48398e-01  3.46359e-01 -1.03284e-01 
-6.99379e-01  4.43257e-01 -1.07069e+00 
 1.68062e-01 -8.67536e-01 -1.09563e+00 
 9.32925e-01  1.63718e+00 -1.44450e+00 
 8.88608e-01 -1.45602e+00 -2.43962e+00 
-2.44565e-01 -2.27678e+00 -2.49587e+00 
-2.46423e+00 -5.81290e+00 -3.54492e+00 
-2.62561e+00 -1.00877e+01 -5.35578e+00 
-5.60136e+00 -8.42681e+00 -6.98324e+00 
-3.45552e+00 -7.69549e+00 -1.05630e+01 
-1.53620e-01 -5.04090e+00 -1.30020e+01 
-1.11020e+00  1.57336e+01 -1.31393e+01 
-1.42459e-01  1.86458e+01 -1.22988e+01 
 5.20181e+00  1.74003e+01 -1.08551e+01 
 4.97543e+00  2.07268e+01 -7.71171e+00 
 1.32370e+00  1.98393e+01 -5.11049e+00 
 9.34029e-01  1.51459e+01 -3.74141e+00 
-1.26925e+00  1.13088e+01 -2.14402e+00 
-6.66011e-01  8.61161e+00 -6.61682e-01 
 7.25979e-01  2.75908e+00 -5.65661e-01 
 1.08860e+00  4.03941e+00 -2.98554e-01 
 5.69687e-01  1.72308e+00 -2.71203e-01 
 6.47639e-01  1.88283e+00 -9.56811e-01 
-9.31246e-02  1.35655e+00 -5.57693e-01 
 4.76707e-01  2.68816e-02 -4.14940e-02 
-1.06628e+00 -1.42148e+00 -2.30266e-01 
-4.04681e-01 -1.26822e+00  7.50934e-01 
-1.82913e-01  5.05589e+00 -3.80736e-01 
-8.17969e-01  2.64181e+00 -2.24372e-01 
 2.35122e+00 -4.60387e-01  2.05055e-01 
 8.65470e-01 -1.56710e+00 -5.01430e-01 
 7.22082e-01 -7.97565e+00 -1.67287e+00 
-6.62573e-01 -1.27913e+01 -3.11589e+00 
-2.44195e-01 -3.37111e+01 -6.98660e+00 
 1.18062e+00 -2.68044e+01 -1.43974e+01 
-1.45500e+00 -3.94054e+00 -1.63662e+01 
-1.10987e+00  1.18575e+01 -1.83970e+01 
 1.46318e+00  1.42036e+01 -1.84820e+01 
-5.38489e-01  4.36567e+01 -1.49459e+01 
 7.13077e-01  4.12731e+01 -6.77698e+00 
-2.22465e-01  2.60142e+01 -3.39192e+00 
 8.00193e-01  1.55319e+01 -1.08129e+00 
 4.09883e-01  8.35183e+00 -1.26085e+00 
-2.78255e-01  7.24098e+00 -1.48715e+00 
-2.42495e-01  3.08296e+00 -1.25214e+00 
 9.16987e-01  6.95201e+00 -9.92393e-01 
-3.48531e-01  9.13336e-01  1.31161e-01 
 1.56249e-01 -1.24814e+00  2.52334e-01 
 2.71623e-01  1.95467e-01  5.39264e-03 
-2.65036e+01  5.82502e+01  2.21710e+01 
 1.12567e+01  8.16780e+01  2.77356e+01 
 3.26928e+00  5.81485e+01  1.10499e+01 
 1.43903e+00  4.52238e+01  5.42230e+00 
 1.63204e+00  3.69154e+01  2.39565e+00 
 4.00803e-01  3.07968e+01  2.34459e+00 
-1.86326e-01  2.61863e+01  1.20782e+00 
 5.51331e-01  2.28410e+01  1.22517e+00 
 4.96428e-01  1.96707e+01  7.46889e-01 
 2.76523e-01  1.70611e+01  1.11178e+00 
 2.25166e-01  1.42870e+01  6.87131e-01 
 4.38675e-02  1.19838e+01  7.11650e-01 
-1.04745e-01  9.89341e+00  6.53888e-01 
-1.36984e-01  8.05682e+00  4.68180e-01 
-5.11111e-02  6.38112e+00  5.69104e-01 
-5.33836e-02  4.96524e+00  3.66936e-01 
-5.91208e-02  3.68354e+00  3.71427e-01 
-5.96551e-02  2.62841e+00  2.73238e-01 
-9.50189e-02  1.72184e+00  2.88255e-01 
 2.64660e-02  1.00452e+00  1.84123e-01 
-3.33902e-03  7.26166e-01 -5.22927e-02 
-1.78210e-01  2.64213e-01  1.43504e-01 
-2.26744e-01  1.22021e-01 -9.57152e-02 
 6.84814e-02  1.52843e-01 -1.32540e-01 
-4.32303e+01 -1.20115e+01 -1.83368e+01 
 1.00740e+01  2.19602e+01  1.49955e+01 
 9.92684e+00  3.06393e+01  1.90122e+01 
 5.27834e+00  2.96530e+01  1.44182e+01 
 2.36263e+00  2.66976e+01  9.94518e+00 
 1.87364e+00  2.39293e+01  7.83189e+00 
 1.10552e+00  2.13950e+01  5.63530e+00 
-1.56789e-01  1.90951e+01  4.66928e+00 
-7.34134e-02  1.66637e+01  4.19485e+00 
 4.95810e-01  1.45274e+01  3.86822e+00 
 3.13770e-01  1.26425e+01  3.29835e+00 
 4.49572e-01  1.10443e+01  3.20836e+00 
 2.82355e-01  9.26371e+00  2.80685e+00 
 8.41491e-02  7.68130e+00  2.42889e+00 
 2.61498e-01  6.47122e+00  2.13539e+00 
 2.18438e-01  5.23199e+00  1.80937e+00 
 1.93267e-01  4.04804e+00  1.71558e+00 
 1.60910e-01  3.04960e+00  1.44070e+00 
 1.93695e-02  2.18063e+00  1.23533e+00 
-2.49862e-01  1.49691e+00  8.63079e-01 
 2.14623e-02  1.03821e+00  5.32266e-01 
-1.32280e-01  3.81628e-01  3.27931e-01 
-4.93971e-01  3.08076e-01 -2.67887e-02 
-5.76460e-01  2.40578e-02 -6.07544e-04 
-3.36243e+01 -1.99847e+00 -8.50025e+00 
-7.76403e+00 -1.75697e+00 -2.42756e+00 
 5.53067e+00  9.55407e+00  8.80084e+00 
 5.37291e+00  1.46623e+01  1.08966e+01 
 4.41024e+00  1.67960e+01  1.02951e+01 
 3.68483e+00  1.68388e+01  9.18379e+00 
 2.21333e+00  1.59972e+01  7.14964e+00 
 1.12684e+00  1.50704e+01  6.60162e+00 
 2.05787e-01  1.31676e+01  6.05778e+00 
 4.04024e-01  1.19674e+01  5.50769e+00 
 1.06652e+00  1.09630e+01  4.72940e+00 
 8.12938e-01  9.71820e+00  4.72284e+00 
 7.57691e-01  8.34860e+00  4.04464e+00 
 7.37068e-01  7.09068e+00  3.77534e+00 
 7.56668e-01  6.41604e+00  3.41623e+00 
 5.55379e-01  5.13041e+00  3.01986e+00 
 4.92612e-01  4.08573e+00  2.61914e+00 
 5.12525e-01  3.34685e+00  2.22763e+00 
 5.03969e-01  2.51620e+00  1.93879e+00 
 6.64803e-01  1.97172e+00  1.39088e+00 
 5.28757e-01  1.38114e+00  1.05484e+00 
 6.34004e-01  8.37417e-01  7.29731e-01 
 3.60737e-01  5.11064e-01  1.99309e-01 
-8.11179e-01 -9.99440e-02  7.10253e-02 
-2.72765e+01 -9.49804e-01 -4.58601e+00 
-1.07796e+01 -1.82020e+00 -3.49266e+00 
-8.25895e-01  9.00022e-01  1.03777e+00 
 2.91615e+00  5.50418e+00  6.24339e+00 
 4.69077e+00  9.52902e+00  7.90250e+00 
 3.43235e+00  1.06797e+01  8.31942e+00 
 2.37853e+00  1.09425e+01  7.08369e+00 
 2.23933e+00  1.06413e+01  7.28362e+00 
 1.67838e+00  1.02122e+01  6.65702e+00 
 7.94817e-01  9.47294e+00  6.76463e+00 
 6.59717e-01  8.79585e+00  5.74840e+00 
 7.75354e-01  7.85704e+00  5.68472e+00 
 9.41185e-01  7.02571e+00  4.95775e+00 
 1.00749e+00  6.56759e+00  4.38858e+00 
 8.32179e-01  5.47282e+00  4.00380e+00 
 1.00119e+00  4.92640e+00  3.45348e+00 
 6.75576e-01  3.68648e+00  3.04658e+00 
 8.96179e-01  3.39362e+00  2.62304e+00 
 8.31571e-01  2.55667e+00  2.11494e+00 
 9.56555e-01  2.03962e+00  1.73190e+00 
 7.56991e-01  1.32133e+00  1.18300e+00 
 2.88638e-01  8.04770e-01  9.33559e-01 
 8.62999e-02  2.49195e-01  4.50177e-01 
-3.43000e-02  1.43767e-01  1.56054e-01 
-2.28283e+01 -4.97024e-01 -1.90139e+00 
-1.24271e+01 -1.58867e+00 -3.52182e+00 
-3.34194e+00 -1.76619e-01 -1.01876e+00 
 8.01554e-01  1.10730e+00  3.04870e+00 
 2.12485e+00  5.14682e+00  5.61308e+00 
 1.90912e+00  5.91222e+00  6.79261e+00 
 2.76208e+00  6.77633e+00  6.57687e+00 
 2.72258e+00  7.06470e+00  6.83757e+00 
 2.24846e+00  7.47441e+00  6.53647e+00 
 1.75703e+00  6.91724e+00  7.12579e+00 
 2.01100e+00  7.63363e+00  6.09966e+00 
 1.72548e+00  6.37934e+00  6.33313e+00 
 1.76796e+00  6.01639e+00  5.61531e+00 
 1.92617e+00  5.99721e+00  5.17301e+00 
 1.56129e+00  4.61901e+00  4.51004e+00 
 1.36778e+00  4.36041e+00  3.78510e+00 
 1.12093e+00  3.27889e+00  3.32154e+00 
 1.35375e+00  3.32646e+00  2.80584e+00 
 1.34479e+00  2.98798e+00  2.55171e+00 
 9.08441e-01  1.84081e+00  2.23254e+00 
 9.99371e-01  1.13490e+00  1.59006e+00 
 1.19567e+00  1.29248e+00  9.03925e-01 
 7.01525e-01  5.19809e-01  6.88857e-01 
 6.76061e-01  8.07473e-02 -4.81287e-02 
-2.06344e+01 -6.79536e-01 -1.27858e+00 
-1.26866e+01 -9.46655e-01 -3.33084e+00 
-6.20317e+00 -9.89579e-02 -1.77180e+00 
-3.62940e+00 -1.04837e+00  9.77519e-01 
 6.05990e-01  2.23965e+00  3.18372e+00 
 1.21834e+00  3.96133e+00  4.87052e+00 
 6.74521e-01  2.63967e+00  6.07255e+00 
 1.80925e+00  4.12411e+00  6.31331e+00 
 2.44166e+00  4.92144e+00  6.32435e+00 
 3.09158e+00  5.51785e+00  7.33366e+00 
 2.85725e+00  5.48538e+00  6.02843e+00 
 2.08523e+00  5.32198e+00  6.28467e+00 
 1.53166e+00  4.52131e+00  5.50917e+00 
 1.87937e+00  4.73957e+00  5.28009e+00 
 1.87429e+00  4.50591e+00  5.02728e+00 
 1.57496e+00  3.04528e+00  4.70692e+00 
 2.02752e+00  3.46527e+00  4.25603e+00 
 1.80440e+00  3.20300e+00  3.64374e+00 
 1.62040e+00  2.41742e+00  3.11934e+00 
 1.80589e+00  2.10295e+00  2.28118e+00 
 1.40573e+00  1.34471e+00  1.92213e+00 
 1.30132e+00  9.23648e-01  1.14354e+00 
 1.14806e+00  3.18811e-01  7.44873e-01 
 1.04551e+00  2.03206e-01  1.35954e-01 
-1.92674e+01 -4.20867e-01 -4.73552e-01 
-1.45926e+01 -1.70632e+00 -2.56318e+00 
-8.95074e+00 -1.91819e-01 -2.26221e+00 
-3.98308e+00 -4.24274e-01  9.32829e-02 
-1.73966e+00  3.91239e-01  1.23694e+00 
 5.44176e-01  1.73835e+00  3.68107e+00 
 2.45942e+00  2.31354e+00  3.76247e+00 
 2.05815e+00  2.85055e+00  4.68592e+00 
 2.53897e+00  3.15841e+00  5.80214e+00 
 3.14175e+00  3.93743e+00  6.48667e+00 
 2.48071e+00  3.45471e+00  5.79896e+00 
 2.89930e+00  4.33262e+00  6.34849e+00 
 2.74854e+00  4.19933e+00  5.86438e+00 
 2.37076e+00  3.97464e+00  5.62501e+00 
 2.79927e+00  4.19524e+00  5.06460e+00 
 2.63181e+00  3.18160e+00  4.38670e+00 
 2.13303e+00  3.12065e+00  4.12207e+00 
 2.22946e+00  3.03928e+00  3.86721e+00 
 1.92191e+00  1.55204e+00  3.53296e+00 
 2.26172e+00  2.05485e+00  2.90882e+00 
 2.18430e+00  1.91521e+00  2.13048e+00 
 1.94895e+00  5.40490e-01  1.82458e+00 
 1.67933e+00 -2.76980e-01  8.39229e-01 
 1.34588e+00  1.96570e-01  2.29205e-01 
-1.81649e+01 -5.36287e-01 -4.70869e-01 
-1.31311e+01 -3.73892e-01 -1.85683e+00 
-7.10436e+00  7.96488e-01 -1.77826e+00 
-5.15391e+00  3.05561e-01 -4.42574e-01 
-1.94064e+00  3.51709e-01  8.34575e-01 
 4.21590e-01 -2.77420e-01  3.20376e+00 
 3.96990e-01  8.51478e-01  3.16869e+00 
 2.28460e+00  2.22261e+00  4.31889e+00 
 3.27745e+00  2.41295e+00  4.96988e+00 
 2.47034e+00  2.76169e+00  5.28213e+00 
 2.84375e+00  3.39794e+00  5.93484e+00 
 2.90967e+00  2.65758e+00  6.20789e+00 
 3.22528e+00  3.81014e+00  5.97238e+00 
 3.28173e+00  3.46912e+00  5.61938e+00 
 2.95146e+00  3.26042e+00  5.67171e+00 
 2.35152e+00  3.19414e+00  5.19890e+00 
 2.26289e+00  2.22727e+00  4.81467e+00 
 2.94482e+00  2.48639e+00  4.24495e+00 
 2.78215e+00  1.79138e+00  3.50017e+00 
 2.95166e+00  2.14289e+00  3.04305e+00 
 3.05895e+00  1.85361e+00  2.28016e+00 
 2.39587e+00  3.25400e-01  1.85715e+00 
 2.18204e+00 -3.97586e-01  8.56739e-01 
 2.56220e+00  2.23067e-01  3.19937e-01 
-1.66834e+01  2.22999e-02 -5.79751e-02 
-1.28856e+01  3.87449e-01 -1.55025e+00 
-1.07856e+01  1.47567e-01 -1.61769e+00 
-7.67440e+00 -9.54868e-01 -4.09235e-01 
-4.92170e+00 -1.53204e+00  6.54111e-01 
-2.56957e+00 -6.26434e-01  2.51481e+00 
 4.28800e-01  2.58815e-01  2.70699e+00 
 1.58424e+00  1.33444e+00  4.21194e+00 
 1.00534e+00  1.72944e+00  5.01941e+00 
 2.35931e+00  2.18762e+00  6.40276e+00 
 3.12175e+00  2.18023e+00  5.92123e+00 
 3.02139e+00  2.75446e+00  5.80959e+00 
 3.52161e+00  3.46736e+00  6.35121e+00 
 2.82453e+00  2.38088e+00  5.99640e+00 
 3.18005e+00  3.45364e+00  5.69987e+00 
 3.17714e+00  2.72369e+00  5.00726e+00 
 3.35146e+00  2.36143e+00  4.57216e+00 
 2.85814e+00  1.61059e+00  4.46808e+00 
 3.23294e+00  2.27095e+00  4.37463e+00 
 3.31964e+00  1.69645e+00  3.70295e+00 
 3.18136e+00  7.26381e-01  2.81731e+00 
 3.67175e+00  5.92479e-01  2.07046e+00 
 3.50758e+00  1.34209e-01  1.17813e+00 
 3.29832e+00  2.76006e-01  3.83814e-01 
-1.58234e+01 -1.14826e-01  6.94648e-01 
-1.47690e+01 -2.56975e-01 -2.33551e-03 
-1.07075e+01  3.16720e-01 -1.19502e+00 
-7.92249e+00 -1.63149e+00  5.53909e-01 
-3.99359e+00 -4.64858e-01  3.47433e-01 
-2.76238e+00 -8.97076e-01  2.70833e+00 
-7.11077e-01  3.68022e-01  2.25095e+00 
-2.70891e-01  6.63667e-01  3.44901e+00 
 7.68492e-01  1.29968e+00  4.22553e+00 
 1.70297e+00  1.38509e+00  5.15179e+00 
 1.71265e+00  1.10710e+00  5.34821e+00 
 2.69337e+00  2.16356e+00  5.49339e+00 
 2.74810e+00  2.29848e+00  5.33803e+00 
 3.07176e+00  2.54729e+00  4.93949e+00 
 3.61595e+00  3.13520e+00  5.01306e+00 
 3.19396e+00  2.11598e+00  4.80355e+00 
 3.22452e+00  1.81596e+00  4.57225e+00 
 3.79939e+00  2.40870e+00  4.13813e+00 
 3.46741e+00  1.49832e+00  3.37458e+00 
 4.06219e+00  1.66504e+00  2.74419e+00 
 4.04740e+00  7.11987e-01  2.38503e+00 
 3.77815e+00  2.25246e-01  1.96143e+00 
 3.58138e+00 -1.67099e-01  9.89698e-01 
 3.32523e+00  6.02504e-03 -3.26251e-01 
-1.65324e+01 -1.44889e-01 -6.78363e-01 
-1.21647e+01  8.58268e-01 -1.00877e+00 
-1.11649e+01 -9.41742e-01 -2.19329e+00 
-8.92587e+00 -1.35316e+00  2.91928e-01 
-6.37620e+00 -7.42340e-01 -4.93477e-01 
-3.22776e+00 -5.33787e-01  2.89073e+00 
-7.24157e-01  1.00806e+00  2.30666e+00 
 6.22926e-01  1.05917e+00  2.60966e+00 
 1.39736e+00  7.87204e-01  3.55263e+00 
 1.15829e+00  1.10958e+00  4.61155e+00 
 2.02169e+00  2.23250e+00  5.09430e+00 
 2.64053e+00  1.27939e+00  5.19671e+00 
 3.65607e+00  2.24516e+00  5.46578e+00 
 3.74945e+00  3.18303e+00  5.13558e+00 
 3.38103e+00  2.89186e+00  5.21745e+00 
 3.21897e+00  1.88634e+00  5.28651e+00 
 3.60049e+00  1.98762e+00  5.01175e+00 
 3.95343e+00  2.28569e+00  4.92340e+00 
 3.86053e+00  6.74034e-01  4.48552e+00 
 4.48163e+00  1.96566e+00  4.15737e+00 
 4.37733e+00  1.19440e+00  3.66516e+00 
 4.57559e+00  5.45030e-01  3.24194e+00 
 4.31238e+00 -2.23994e-01  2.45492e+00 
 4.90321e+00  1.76718e-01  1.10705e+00 
-1.68174e+01 -3.63654e-02 -2.10384e-01 
-1.34904e+01  8.87887e-02  8.64151e-02 
-1.07376e+01 -9.62407e-01 -1.23443e+00 
-8.88085e+00 -1.07886e+00  1.00814e+00 
-5.21724e+00 -2.07778e-01  8.56107e-01 
-3.77053e+00 -2.89384e-01  1.36724e+00 
-3.02085e+00 -5.16271e-01  7.87332e-01 
-2.57979e-01  4.27250e-01  1.25633e+00 
-7.95832e-02  4.09279e-01  1.81976e+00 
 6.42757e-01  1.26797e+00  3.20696e+00 
 2.12000e+00  2.31146e+00  3.90779e+00 
 2.51291e+00  1.80286e+00  4.13629e+00 
 3.33122e+00  2.55513e+00  4.46394e+00 
 3.81701e+00  3.27508e+00  4.41655e+00 
 3.90972e+00  3.03515e+00  4.53480e+00 
 3.48613e+00  2.11664e+00  4.22095e+00 
 3.72423e+00  2.61449e+00  4.37395e+00 
 4.06070e+00  1.57394e+00  4.14127e+00 
 4.26931e+00  1.49282e+00  3.78873e+00 
 4.54757e+00  1.80463e+00  3.51158e+00 
 5.10564e+00  1.84295e+00  3.40899e+00 
 5.35926e+00  6.85752e-01  2.61762e+00 
 5.98384e+00  7.22119e-01  1.79351e+00 
 6.61411e+00  3.38869e-01  7.83589e-01 
-1.64646e+01 -3.50163e-01  7.35736e-02 
-1.41040e+01  4.56995e-01  2.95799e-01 
-1.17240e+01 -1.00747e+00 -1.25163e+00 
-8.86715e+00 -1.50309e+00  5.26735e-01 
-5.89652e+00 -9.91385e-02  9.99181e-01 
-4.07127e+00 -5.54887e-01  1.21257e+00 
-2.52122e+00 -5.18917e-01  2.16588e+00 
-2.26406e+00  1.12404e-03  1.61197e+00 
-1.30835e+00 -4.62061e-02  2.30057e+00 
 8.32948e-01  1.14775e+00  3.22335e+00 
 1.19183e+00  1.72260e+00  3.84149e+00 
 2.32717e+00  2.85980e+00  3.89786e+00 
 2.39417e+00  2.84079e+00  3.84854e+00 
 2.79572e+00  3.01103e+00  3.61480e+00 
 3.23996e+00  2.87529e+00  4.35619e+00 
 3.13753e+00  2.11237e+00  4.16464e+00 
 3.88921e+00  2.53301e+00  4.15028e+00 
 3.94899e+00  2.18570e+00  4.23857e+00 
 4.46909e+00  2.55498e+00  4.13567e+00 
 5.35579e+00  2.39130e+00  4.19707e+00 
 5.48966e+00  1.69689e+00  3.72559e+00 
 5.53554e+00  6.56094e-01  3.20767e+00 
 7.32879e+00  1.72247e+00  2.49730e+00 
 7.62035e+00 -2.61683e-01  1.21711e+00 
-1.66970e+01 -4.55008e-01 -9.01523e-02 
-1.39485e+01  2.87714e-01  6.88853e-01 
-1.12897e+01 -7.46603e-01 -9.81643e-01 
-8.22357e+00 -1.48007e+00  6.15987e-01 
-6.99547e+00 -4.06555e-01  5.01957e-01 
-5.67371e+00 -6.04652e-01  8.55628e-01 
-4.20494e+00 -1.78108e-01  1.74728e+00 
-1.89653e+00 -2.23034e-01  1.97896e+00 
 7.11638e-03  2.89034e-01  2.16827e+00 
 3.23766e-01  2.69391e-01  2.82362e+00 
 2.01372e+00  2.10177e+00  2.80643e+00 
 1.56304e+00  2.87997e+00  2.60343e+00 
 2.98542e+00  4.76486e+00  3.23916e+00 
 3.55823e+00  4.08032e+00  3.62450e+00 
 3.38732e+00  2.94998e+00  3.55018e+00 
 3.06963e+00  1.44095e+00  2.72785e+00 
 3.17094e+00  1.66789e+00  2.84290e+00 
 4.38933e+00  3.75074e+00  3.01922e+00 
 5.12265e+00  3.32020e+00  2.96718e+00 
 5.31782e+00  1.90483e+00  2.65568e+00 
 6.68559e+00  2.51789e+00  2.22219e+00 
 7.00705e+00  1.18346e+00  1.79041e+00 
 7.90241e+00  1.83204e+00  1.04738e+00 
 9.10006e+00 -9.95425e-02  1.35436e-01 
-1.64670e+01  1.37178e-02  2.44131e-02 
-1.34833e+01 -2.34366e-01  2.60250e-02 
-1.11079e+01 -4.53822e-01 -2.69861e-01 
-9.34349e+00 -9.38824e-01  6.95439e-01 
-7.26616e+00 -1.04794e+00  6.46514e-01 
-4.82636e+00  4.12930e-01  1.48617e+00 
-3.23949e+00  7.67858e-01  4.92513e-01 
-2.84645e+00 -7.01432e-01  1.06603e+00 
-4.82127e-01  1.06125e+00  1.43869e+00 
 8.76435e-01  1.17800e+00  3.66319e+00 
 7.19607e-01  5.90265e-01  3.62577e+00 
 2.17327e+00  3.28535e+00  3.12679e+00 
 2.73117e+00  5.37733e+00  3.42285e+00 
 2.41541e+00  3.55665e+00  2.98637e+00 
 3.02321e+00  2.47795e+00  3.15825e+00 
 3.57034e+00  2.14435e+00  3.21478e+00 
 4.08785e+00  2.15566e+00  3.38567e+00 
 5.11181e+00  3.66832e+00  2.83176e+00 
 5.46907e+00  3.46285e+00  2.20396e+00 
 5.95255e+00  2.34970e+00  2.13298e+00 
 7.04727e+00  3.16596e+00  1.73197e+00 
 6.91493e+00  1.37736e+00  1.05117e+00 
 8.56265e+00  1.27333e+00  9.77490e-01 
 1.02346e+01  9.56760e-01  4.50432e-01 
-1.46070e+01  2.43954e-01 -7.98114e-01 
-1.33846e+01  4.26509e-01 -1.13728e+00 
-1.12801e+01  4.25733e-01 -1.37364e+00 
-9.55246e+00 -6.80926e-02 -4.81004e-01 
-8.97992e+00 -1.45673e+00 -7.39303e-01 
-7.02160e+00  2.29605e-01  1.09965e+00 
-4.04596e+00  2.36066e-01  8.04313e-01 
-2.20727e+00  5.78164e-01  1.19685e+00 
-1.16237e+00  8.89806e-01  1.14133e+00 
-4.19745e-01  9.13684e-01  1.16982e+00 
 5.72804e-01  2.07354e+00  1.58332e+00 
 1.30116e+00  3.06992e+00  2.23089e+00 
 3.17349e+00  5.19023e+00  3.02080e+00 
 2.47985e+00  2.96260e+00  2.78129e+00 
 3.10446e+00  3.79639e+00  3.01386e+00 
 3.83135e+00  3.45006e+00  2.93376e+00 
 4.08010e+00  2.40335e+00  3.02711e+00 
 4.72875e+00  2.22024e+00  3.17876e+00 
 5.54739e+00  2.94105e+00  2.35303e+00 
 6.01274e+00  3.45261e+00  2.32111e+00 
 6.23538e+00  1.45204e+00  1.72173e+00 
 8.41301e+00  3.06773e+00  1.38662e+00 
 8.49353e+00  5.63887e-01  1.30216e+00 
 1.03697e+01  3.19130e-01  4.87073e-01 
-1.21798e+01  1.20379e+00 -4.07928e-02 
-1.24665e+01  2.90679e-02 -2.43092e-01 
-9.99920e+00  1.43048e+00 -4.96785e-01 
-9.05252e+00  3.94698e-01 -6.35058e-01 
-8.45713e+00 -1.10686e-01 -9.12299e-01 
-6.32950e+00  5.41369e-01  1.68498e-01 
-4.85562e+00  5.17703e-01  2.32166e-01 
-2.33419e+00  1.88978e+00  4.28184e-01 
-2.13743e+00 -1.20552e-01  1.01140e+00 
-1.25408e+00  1.31582e+00  2.23178e+00 
-6.44523e-02  2.75293e+00  2.04936e+00 
 1.61950e+00  3.85459e+00  1.90213e+00 
 2.45776e+00  3.94989e+00  1.94690e+00 
 2.81637e+00  4.25597e+00  1.38139e+00 
 2.69568e+00  3.47045e+00  2.06444e+00 
 3.87603e+00  4.73020e+00  1.95612e+00 
 3.99540e+00  2.29496e+00  2.02489e+00 
 4.93900e+00  2.35239e+00  2.37773e+00 
 6.31692e+00  3.48481e+00  2.42065e+00 
 6.81792e+00  2.64568e+00  2.34394e+00 
 7.45850e+00  2.12401e+00  1.63815e+00 
 9.32911e+00  3.16067e+00  8.38527e-01 
 9.60678e+00  5.09142e-01  4.54427e-02 
 1.02705e+01 -3.70940e-01  1.12176e-01 
-1.59007e+01 -1.01768e+00  8.67688e-01 
-1.30111e+01 -6.50888e-01  1.04758e+00 
-9.66684e+00  1.00348e+00  9.96434e-01 
-9.71841e+00 -1.98108e+00 -8.59884e-01 
-5.86483e+00  3.81299e+00 -4.55263e-01 
-6.87182e+00 -6.00324e-01  1.26866e+00 
-5.43691e+00  1.12835e+00  8.17207e-01 
-4.08478e+00  9.55179e-01  5.66026e-01 
-2.39998e+00  1.59345e+00  8.52157e-01 
-1.32457e+00  1.36984e+00  1.43958e+00 
 2.08751e-01  3.25821e+00  6.44298e-01 
 1.23227e+00  3.86748e+00  1.38473e+00 
 2.35682e+00  4.63964e+00  2.02537e+00 
 2.68480e+00  4.52551e+00  2.27396e+00 
 2.32725e+00  2.93177e+00  2.23120e+00 
 4.17586e+00  5.62894e+00  2.19580e+00 
 3.66294e+00  2.74361e+00  2.31666e+00 
 4.81092e+00  2.94693e+00  2.56067e+00 
 6.30963e+00  3.74119e+00  2.38221e+00 
 6.66048e+00  1.77010e+00  2.39937e+00 
 8.04487e+00  1.94946e+00  1.93214e+00 
 9.92950e+00  2.96222e+00  1.50680e+00 
 9.95506e+00 -1.15839e-01  1.29331e+00 
 1.08266e+01 -4.08780e-01  6.76745e-01 
-1.39496e+01  8.10647e-01 -2.64768e-01 
-1.24407e+01 -4.41146e-01  1.87374e+00 
-1.05982e+01 -2.77954e-01  9.41241e-01 
-1.02150e+01 -1.12429e+00  7.73167e-01 
-8.19848e+00  1.46320e+00  1.09630e+00 
-7.07108e+00 -1.97939e-01  9.67931e-01 
-5.81899e+00 -3.84362e-01  3.69486e-01 
-3.96212e+00  1.61594e+00  3.44869e-01 
-2.21689e+00  1.73524e+00 -3.49383e-01 
-1.38345e+00  1.75606e+00 -2.57247e-01 
 2.74557e-01  4.04643e+00  3.87006e-01 
 3.83802e-01  2.84796e+00  7.78399e-01 
 2.24841e+00  6.77647e+00  5.92947e-01 
 2.64325e+00  5.51730e+00  9.28254e-01 
 1.87967e+00  1.84158e+00  1.92224e+00 
 4.01455e+00  4.83809e+00  1.58099e+00 
 3.73408e+00  3.29041e+00  7.06917e-01 
 4.54853e+00  3.73030e+00  1.34686e+00 
 5.94441e+00  3.29417e+00  1.37838e+00 
 6.97369e+00  2.43721e+00  1.06881e+00 
 7.89741e+00  2.17303e+00  1.68899e+00 
 8.88085e+00  1.43554e+00  1.36123e+00 
 1.01358e+01  2.84542e-01  6.27326e-01 
 1.18350e+01 -3.23364e-01  5.87527e-01 
-1.47458e+01  5.02288e-01  3.64400e-01 
-1.49268e+01 -1.76210e+00  2.19173e+00 
-1.33548e+01 -1.87562e+00  1.03648e+00 
-9.78005e+00 -1.34232e-01  8.10592e-02 
-7.44793e+00  3.57854e-01  6.20216e-01 
-5.33504e+00  7.04526e-01  2.40163e+00 
-4.02913e+00  1.91270e-01  1.58746e+00 
-2.85597e+00  1.48421e+00  1.74166e+00 
-2.02422e+00  1.68701e+00  1.83704e+00 
-1.44618e-01  3.09369e+00  1.50013e+00 
 1.42945e+00  4.41054e+00  1.06109e+00 
 1.64712e+00  4.10691e+00  1.18677e+00 
 2.78935e+00  6.86910e+00  1.08839e+00 
 3.00382e+00  6.08921e+00  7.00342e-01 
 3.38962e+00  3.67679e+00  1.04190e+00 
 4.36901e+00  4.27111e+00  1.39847e+00 
 4.82312e+00  3.62044e+00  1.39461e+00 
 5.50105e+00  3.62506e+00  6.41220e-01 
 6.16869e+00  4.14543e+00  7.65556e-01 
 6.65653e+00  2.45098e+00  8.62106e-01 
 8.61771e+00  2.87109e+00  6.32228e-01 
 9.43014e+00  1.23468e+00  5.63736e-01 
 1.08329e+01  1.82367e+00  8.38459e-01 
 1.22010e+01  1.55095e-02  1.39833e+00 
-1.44641e+01 -1.79819e-01  9.67386e-01 
-1.19351e+01 -1.04130e-01  2.77254e+00 
-1.17497e+01 -1.10866e+00  6.59060e-01 
-1.03296e+01 -5.99136e-01 -1.05026e-02 
-9.34443e+00 -2.15177e-02  1.81218e-02 
-7.63494e+00 -4.31380e-01  1.20603e+00 
-5.23848e+00  1.09196e+00  4.35922e-01 
-4.43650e+00 -1.02125e+00  2.23555e-01 
-2.49406e+00  1.04671e+00 -6.48809e-01 
-4.08234e-01  4.52437e+00 -5.56705e-01 
 7.08677e-02  3.55989e+00  3.91370e-01 
 1.33010e+00  4.72800e+00  4.07398e-01 
 2.59925e+00  6.01380e+00 -1.52504e-01 
 2.55069e+00  5.53966e+00  5.80552e-01 
 2.48363e+00  4.03729e+00  1.17843e+00 
 4.39111e+00  4.77973e+00  4.93216e-01 
 4.47792e+00  2.76575e+00  4.12843e-01 
 5.47869e+00  3.53019e+00  8.96450e-01 
 6.49545e+00  4.09696e+00  1.03477e+00 
 7.03559e+00  2.57002e+00  5.42154e-01 
 8.00431e+00  2.36736e+00  3.38545e-01 
 8.72196e+00  1.48793e+00  4.44034e-01 
 1.10319e+01  1.70523e+00  1.47136e-01 
 1.28895e+01  1.41957e-01 -2.78628e-01 
-1.45599e+01 -7.28184e-01  1.30978e-01 
-1.15358e+01  6.64324e-01  8.22511e-01 
-1.14213e+01 -1.26066e+00 -4.24757e-01 
-9.58761e+00 -3.65546e-01 -1.20797e-01 
-6.31287e+00  1.29023e+00  9.34783e-02 
-5.99749e+00  1.89444e-01  8.44018e-01 
-4.50490e+00  1.23711e+00  9.96147e-02 
-2.82353e+00  7.07264e-01  7.01638e-01 
-2.01040e+00  2.39841e+00  1.07960e+00 
-1.36019e+00  2.96062e+00  1.23454e+00 
 1.00272e+00  5.48215e+00  2.92952e-01 
 6.20193e-01  3.22870e+00  5.60407e-02 
 3.11316e+00  7.44986e+00 -4.67798e-02 
 2.89812e+00  4.17271e+00 -2.58840e-01 
 3.71682e+00  4.49094e+00 -4.24706e-01 
 4.56191e+00  5.64213e+00 -2.77266e-01 
 4.75992e+00  3.72155e+00  5.78235e-02 
 5.78491e+00  3.23511e+00 -1.48362e-02 
 6.88743e+00  3.75670e+00 -1.06661e-01 
 7.26192e+00  2.69298e+00  5.58357e-01 
 8.00018e+00  1.31539e+00 -3.80842e-01 
 1.01518e+01  3.23249e+00 -4.97018e-01 
 1.01894e+01 -7.57904e-01 -3.45361e-01 
 1.32869e+01  2.26495e-01  9.50263e-02 
-1.45916e+01 -1.21695e+00 -2.44351e-01 
-1.16889e+01  1.02490e+00  9.40362e-01 
-1.05988e+01 -3.08152e-01 -1.66604e+00 
-1.00654e+01 -7.80940e-01 -3.54532e-01 
-7.47400e+00  7.91902e-01  9.06601e-02 
-5.75869e+00 -1.72853e-01 -2.64048e-01 
-5.07623e+00  1.11954e+00 -3.14742e-01 
-4.26023e+00  2.16109e+00 -4.70105e-01 
-1.94721e+00  3.31424e+00 -1.39399e+00 
-1.54665e+00  1.90938e+00 -6.26065e-01 
 1.98982e-01  4.57044e+00 -1.88080e-01 
 5.83339e-01  3.72063e+00 -9.99828e-01 
 2.83199e+00  6.82178e+00 -8.11012e-01 
 2.40057e+00  4.29422e+00  1.16935e-01 
 3.31348e+00  3.85445e+00  1.49688e+00 
 4.97350e+00  6.11150e+00  2.30938e-01 
 4.55100e+00  4.01943e+00  7.17183e-02 
 5.00848e+00  2.47928e+00  2.75687e-01 
 6.86509e+00  3.76271e+00  4.08771e-01 
 7.31714e+00  2.09943e+00  7.05558e-01 
 8.33888e+00  9.85040e-01  5.22219e-01 
 1.10190e+01  2.13917e+00 -6.90013e-01 
 1.10177e+01 -7.63388e-01 -9.09477e-01 
 1.16652e+01 -9.01356e-01 -6.62333e-01 
-1.53712e+01 -4.99364e-01 -3.27889e-01 
-1.25086e+01  2.55315e-01  1.45656e+00 
-1.03481e+01  1.61083e-01 -1.94645e+00 
-8.09830e+00  3.74222e-01 -3.43610e-01 
-6.78613e+00  1.05079e+00 -4.43105e-01 
-6.27927e+00  6.98085e-01  6.53209e-01 
-4.06173e+00  1.01674e+00  3.13514e-01 
-1.64837e+00  4.54366e+00  9.24212e-01 
-2.15610e+00  2.14711e+00 -1.75911e-01 
-1.28310e-01  3.71335e+00 -5.80423e-01 
 6.55025e-02  3.10339e+00 -1.50014e+00 
 6.12203e-01  4.77716e+00 -1.99374e+00 
 1.86957e+00  5.95514e+00 -9.97746e-01 
 3.51635e+00  6.67291e+00 -4.38478e-01 
 2.00644e+00  2.07274e+00 -3.83860e-01 
 5.53071e+00  7.16672e+00 -6.35266e-01 
 4.19881e+00  2.32546e+00 -4.73535e-01 
 5.56996e+00  3.89808e+00 -3.17924e-01 
 5.76349e+00  9.11301e-01 -8.31744e-01 
 8.26372e+00  2.93193e+00 -7.76869e-01 
 8.96337e+00  2.91121e-01 -8.79135e-01 
 1.14408e+01  1.51986e+00 -8.92118e-01 
 1.16199e+01 -8.96784e-02 -7.64107e-01 
 1.19388e+01 -7.10802e-01  4.54565e-01 
-1.31673e+01  9.10581e-01 -3.77746e-01 
-1.23096e+01  6.32839e-01 -3.87923e-01 
-1.07643e+01  5.38100e-01 -1.89632e+00 
-1.02640e+01 -1.61840e+00 -1.70453e+00 
-7.21554e+00  2.36984e+00 -1.34877e+00 
-6.53178e+00  1.15668e+00 -1.03980e+00 
-4.28067e+00  3.18117e+00 -1.18181e+00 
-2.32009e+00  3.77525e+00 -1.26077e+00 
-2.42940e+00  1.47060e+00 -1.98607e+00 
-7.80890e-01  4.11427e+00 -1.31835e+00 
-2.96183e-01  4.25352e+00 -7.56260e-01 
 1.05202e+00  3.29077e+00 -6.52512e-01 
 3.36955e+00  6.55596e+00 -2.19416e+00 
 1.98250e+00  3.88236e+00 -2.51475e+00 
 2.93796e+00  3.78253e+00 -2.11020e+00 
 4.96487e+00  7.52630e+00 -2.01577e+00 
 3.82232e+00  1.28077e+00 -1.82200e+00 
 7.22810e+00  4.14283e+00 -1.72516e+00 
 6.34224e+00  6.78479e-01 -2.46266e+00 
 7.80874e+00  1.01180e+00 -1.95270e+00 
 9.76956e+00  2.64574e+00 -1.76703e+00 
 8.83022e+00  1.05333e+00 -1.32590e+00 
 1.13123e+01  2.78173e+00  3.53769e-01 
 1.24204e+01 -1.28597e+00  1.30806e+00 
-1.48823e+01 -1.21657e+00  1.65630e+00 
-1.34829e+01 -2.23929e-01  1.03073e+00 
-1.03358e+01  2.23484e-01  1.76032e-01 
-8.31960e+00  1.26991e+00 -1.79976e+00 
-8.40007e+00  1.30618e+00  2.24135e-01 
-6.35518e+00  1.15807e+00  9.75169e-02 
-4.31504e+00  2.44232e+00 -1.15158e+00 
-2.01532e+00  4.69530e+00 -1.84458e+00 
-1.49350e+00  4.11004e+00 -1.62907e+00 
-2.33312e+00  2.51978e+00 -1.71087e+00 
 1.30529e+00  5.76346e+00 -2.62541e+00 
 1.15876e+00  3.57864e+00 -2.97961e+00 
 2.52388e+00  5.59575e+00 -2.37425e+00 
 2.35928e+00  2.68617e+00 -1.56150e+00 
 2.88726e+00  4.14360e+00 -1.51544e+00 
 4.52523e+00  6.04124e+00 -2.74837e+00 
 4.79296e+00  3.13875e+00 -2.00944e+00 
 5.14776e+00  1.01845e+00 -2.46161e+00 
 7.14089e+00  2.64510e+00 -2.36675e+00 
 6.95624e+00  4.83274e-01 -1.29561e-01 
 7.97317e+00  2.55850e+00 -8.34316e-01 
 9.87447e+00  2.80767e+00 -1.32016e+00 
 1.15455e+01  2.58905e+00 -1.38659e+00 
 1.16499e+01 -8.45825e-01 -9.01137e-01 
-1.47941e+01 -1.44552e+00 -2.65306e-01 
-1.01865e+01 -6.45597e-01 -2.26221e+00 
-9.46222e+00  2.26783e+00 -2.28371e+00 
-9.53269e+00  4.37480e-01 -4.06057e+00 
-6.40353e+00  2.62107e+00 -2.95670e+00 
-5.12529e+00  2.83695e+00 -1.69158e+00 
-3.95820e+00  1.10952e+00 -1.68437e+00 
-1.10979e+00  7.06636e+00 -1.81233e+00 
-2.07273e+00  4.52796e+00 -2.76431e+00 
-6.63621e-01  2.69456e+00 -2.00889e+00 
 1.02445e+00  5.39681e+00 -1.13285e+00 
 1.17337e+00  4.54615e+00 -1.92515e+00 
 2.26676e+00  4.16490e+00 -2.01845e+00 
 2.31562e+00  2.74800e+00 -2.26372e+00 
 3.16375e+00  2.69385e+00 -2.31327e+00 
 5.61647e+00  5.81078e+00 -2.02861e+00 
 5.16270e+00  2.82795e+00 -1.61420e+00 
 5.25683e+00  1.79430e+00 -1.71013e+00 
 5.71371e+00  1.13498e+00 -1.54508e+00 
 6.78957e+00  2.49870e+00 -1.42204e+00 
 7.79178e+00  1.72183e+00 -9.68068e-01 
 1.00274e+01  3.78162e+00 -9.69455e-01 
 9.70614e+00  3.02178e-02  2.13111e-01 
 1.20831e+01  8.90081e-01  8.95075e-01 
-1.06887e+01 -9.22486e-01 -1.97449e+00 
-1.22375e+01  1.19645e+00 -3.66679e+00 
-9.43705e+00  3.68067e+00 -1.72068e+00 
-8.61102e+00  5.13012e-01 -1.84315e+00 
-5.34997e+00  3.71446e+00 -4.86274e-01 
-4.16349e+00  3.13950e+00 -4.68796e-01 
-3.76622e+00  4.73204e+00 -4.08391e-01 
-2.40576e+00  6.38404e+00 -2.35050e+00 
-2.55018e+00  3.47810e+00 -1.95434e+00 
-1.52098e+00  4.06796e+00 -1.70476e+00 
 4.96665e-01  5.91064e+00 -2.46526e+00 
 1.66667e+00  4.78816e+00 -3.14185e+00 
 2.00941e+00  3.40256e+00 -3.55992e+00 
 2.21264e+00  2.62626e+00 -3.17492e+00 
 3.10746e+00  2.63079e+00 -2.45853e+00 
 5.44527e+00  5.78809e+00 -2.05636e+00 
 4.04341e+00  2.25614e+00 -1.26817e+00 
 4.61519e+00  1.26710e+00 -1.57685e+00 
 7.02497e+00  3.07704e+00 -1.86496e+00 
 6.66983e+00  1.29944e+00 -2.02421e+00 
 7.30370e+00  2.03632e+00 -1.78535e+00 
 9.23920e+00  3.30191e+00 -2.10186e+00 
 9.56647e+00  6.96658e-01 -1.14610e+00 
 1.09002e+01 -2.57168e-01 -3.94386e-01 
-1.04097e+01 -7.90949e-01  1.12633e+00 
-7.75578e+00  5.04615e+00  6.50647e-01 
-7.60170e+00  4.58330e+00 -1.41658e+00 
-5.74878e+00  5.21451e+00 -1.65613e+00 
-5.68954e+00  6.88534e-01 -1.78582e+00 
-5.21025e+00  3.37012e+00 -2.65559e+00 
-4.81473e+00  5.49985e+00 -1.58991e+00 
-2.79675e+00  5.45938e+00 -2.47249e+00 
-2.24895e+00  2.77869e+00 -3.54737e+00 
-3.50249e-01  5.10460e+00 -3.51553e+00 
 4.29628e-01  5.25297e+00 -3.92091e+00 
 1.79050e+00  5.82809e+00 -2.76662e+00 
 1.31613e+00  2.42055e+00 -3.39030e+00 
 2.16943e+00  2.90432e+00 -2.80004e+00 
 2.21218e+00  5.67441e-01 -3.16933e+00 
 5.89049e+00  7.26814e+00 -3.15174e+00 
 5.31927e+00  3.97350e+00 -2.58445e+00 
 3.95281e+00  2.69908e-01 -2.21923e+00 
 5.71582e+00  2.65263e+00 -2.41539e+00 
 7.04063e+00  2.50081e+00 -2.19155e+00 
 6.72562e+00 -3.15940e-01 -5.44823e-01 
 1.02846e+01  4.48038e+00 -1.09644e+00 
 9.74280e+00  1.25106e-01 -8.23676e-01 
 1.04091e+01 -9.44278e-01 -2.84033e-03 
-1.18687e+01 -9.21603e-02 -7.93929e-01 
-1.00199e+01  2.11573e+00 -1.93495e-01 
-7.74921e+00  4.16334e+00 -9.28572e-01 
-9.19400e+00  3.16533e-01 -9.52020e-01 
-7.58539e+00  3.70233e+00  1.63074e-01 
-6.08514e+00  3.05416e+00 -5.28251e-01 
-3.45043e+00  4.39762e+00 -8.72696e-01 
-1.63320e+00  5.41835e+00 -2.72909e+00 
-1.44550e+00  3.68760e+00 -2.94872e+00 
-6.09681e-01  4.44925e+00 -2.32925e+00 
 7.50560e-01  5.69478e+00 -2.98063e+00 
 8.44606e-01  4.17559e+00 -3.08652e+00 
 2.20045e+00  4.46457e+00 -4.60727e+00 
 3.25921e+00  2.99648e+00 -3.62529e+00 
 1.71867e+00 -1.39217e+00 -3.43453e+00 
 5.36820e+00  7.08818e+00 -3.92041e+00 
 4.04045e+00  3.74276e+00 -3.57000e+00 
 4.51631e+00  1.84657e+00 -2.49285e+00 
 5.87517e+00  3.32293e+00 -1.94070e+00 
 6.61268e+00  2.58526e+00 -2.33018e+00 
 6.96928e+00 -8.20416e-01 -2.57997e+00 
 9.21746e+00  2.25073e+00 -2.54638e+00 
 9.13703e+00 -2.31360e-01 -1.57773e+00 
 1.06149e+01  6.80109e-01 -2.09200e-01 
-1.09705e+01 -2.82495e-01  1.70490e-01 
-9.82270e+00  6.70008e-01  9.07905e-01 
-8.26294e+00  2.57856e+00 -9.73889e-01 
-8.07969e+00  1.15456e+00 -1.44349e+00 
-6.67626e+00  5.14666e+00 -1.26410e+00 
-4.93821e+00  5.23878e+00 -1.15130e+00 
-3.68048e+00  3.13475e+00 -1.45098e-01 
-2.97251e+00  3.29225e+00 -1.52044e+00 
-1.12872e+00  5.86055e+00 -2.33382e+00 
-7.03959e-01  3.65401e+00 -1.65297e+00 
 4.59835e-01  4.12165e+00 -3.00657e+00 
 1.35409e-01  1.76659e+00 -3.93637e+00 
 2.83488e+00  4.83806e+00 -4.45101e+00 
 3.25486e+00  4.45366e+00 -4.73623e+00 
 1.02297e+00 -1.31480e+00 -3.86505e+00 
 4.80738e+00  5.93777e+00 -4.00097e+00 
 3.87086e+00  2.33037e+00 -3.85116e+00 
 4.54300e+00  3.23073e+00 -3.77389e+00 
 6.36391e+00  4.83834e+00 -3.63220e+00 
 5.86180e+00 -5.83355e-01 -3.78974e+00 
 7.12889e+00  1.02689e+00 -3.18767e+00 
 8.82600e+00  2.38664e+00 -1.89394e+00 
 8.82573e+00  2.83968e-01 -1.71589e+00 
 7.63226e+00 -9.75087e-01 -8.58774e-01 
-1.19329e+01 -9.16342e-02 -2.02089e-01 
-1.05513e+01 -1.69881e+00 -5.91720e-01 
-8.20805e+00  2.20894e+00 -9.87109e-01 
-8.21087e+00  1.60861e+00 -1.48779e+00 
-4.51813e+00  4.09335e+00 -8.96611e-01 
-3.35989e+00  6.35457e+00 -1.95283e+00 
-5.19413e+00  2.72978e+00 -2.57248e+00 
-2.37778e+00  6.59898e+00 -2.38527e+00 
-3.73159e+00  2.64833e+00 -2.69037e+00 
 2.07727e-01  5.43964e+00 -2.12867e+00 
 1.39638e+00  3.51097e+00 -2.89937e+00 
 1.28777e+00  2.14403e+00 -2.65952e+00 
 1.84744e+00  3.54139e+00 -2.98686e+00 
 2.39214e+00  3.60631e+00 -3.61832e+00 
 2.01634e+00  1.73920e-01 -3.79491e+00 
 5.39653e+00  4.68698e+00 -3.89017e+00 
 4.98023e+00  3.23990e+00 -2.52860e+00 
 5.42737e+00  2.82224e+00 -2.44768e+00 
 7.04909e+00  4.16164e+00 -2.91206e+00 
 5.90316e+00  1.21247e+00 -1.83057e+00 
 7.88921e+00  2.38196e+00 -1.63582e+00 
 7.55798e+00 -2.20661e-02 -1.70173e+00 
 8.43054e+00  2.23102e+00 -1.98300e+00 
 6.54362e+00 -1.96385e+00 -7.33818e-01 
-1.14442e+01 -4.30892e-01 -5.72023e-01 
-1.05247e+01 -1.64099e+00 -1.31895e+00 
-7.99754e+00  2.16943e+00 -1.50782e+00 
-6.92930e+00  2.26835e+00 -2.68684e+00 
-7.68936e+00  2.47909e+00 -1.52412e+00 
-5.03121e+00  3.30803e+00 -1.61177e+00 
-3.40412e+00  4.40974e+00 -2.69921e+00 
-1.49373e+00  7.23138e+00 -4.05875e+00 
 4.94458e-02  4.58977e+00 -4.46635e+00 
 2.68250e-01  4.79161e+00 -3.28415e+00 
 2.56569e-01  3.65914e+00 -5.72020e+00 
 6.79524e-01  2.36685e+00 -4.57393e+00 
 1.74400e+00  3.25184e+00 -3.80271e+00 
 2.52935e+00  3.45094e+00 -3.34834e+00 
 1.53758e+00 -2.47169e-01 -2.66755e+00 
 4.35124e+00  4.43409e+00 -2.69942e+00 
 4.87596e+00  3.42371e+00 -3.14970e+00 
 3.73280e+00 -3.39457e-02 -2.46936e+00 
 5.38667e+00  3.02465e+00 -3.28243e+00 
 6.39585e+00  3.14037e+00 -2.98065e+00 
 6.45789e+00  1.61839e+00 -2.02052e+00 
 7.35993e+00  2.23658e+00 -3.44972e-01 
 7.97420e+00  2.87603e+00  6.93201e-01 
 7.01399e+00 -1.25107e+00  1.30694e+00 
-9.97562e+00 -1.16630e+00 -8.75256e-01 
-8.17245e+00  9.88437e-01 -3.05423e+00 
-7.55997e+00  2.48490e+00 -2.20905e+00 
-7.89794e+00  7.28399e-01 -3.58975e+00 
-6.18177e+00  1.93507e+00 -2.58627e+00 
-5.88714e+00  3.02900e+00 -1.93030e+00 
-4.26589e+00  4.19421e+00 -3.16629e+00 
-2.09601e+00  5.62946e+00 -3.13503e+00 
-2.54109e+00  4.18768e+00 -3.60244e+00 
-1.74396e+00  2.99057e+00 -3.56649e+00 
 4.98498e-02  4.72104e+00 -3.35072e+00 
 3.46073e-01  4.30695e+00 -3.89352e+00 
 1.23509e+00  4.40587e+00 -3.66842e+00 
 2.21528e+00  3.64229e+00 -3.72979e+00 
 2.21968e+00  1.25780e+00 -3.10195e+00 
 3.97926e+00  2.64168e+00 -3.45075e+00 
 4.95664e+00  1.69981e+00 -4.31083e+00 
 4.83619e+00  4.26269e-01 -4.29467e+00 
 7.04055e+00  5.52972e+00 -2.71258e+00 
 5.15410e+00  1.57838e+00 -1.79223e+00 
 5.55184e+00  1.72344e+00 -1.59959e+00 
 7.52832e+00  5.22675e+00 -2.71011e+00 
 7.33406e+00  2.29871e+00 -2.11359e+00 
 8.16597e+00 -1.18294e-01 -1.09770e+00 
-9.45771e+00 -4.41353e-01  2.97432e-02 
-7.96722e+00  2.17430e+00  2.86026e-01 
-5.53828e+00  2.24038e+00 -1.07308e+00 
-6.12361e+00 -3.48473e-02 -3.18357e+00 
-5.25028e+00  7.67828e-01 -3.07389e+00 
-3.58622e+00  3.03704e+00 -3.93008e+00 
-1.49754e+00  7.58985e+00 -4.21047e+00 
-2.28454e+00  5.07298e+00 -3.76063e+00 
-1.76514e+00  4.43596e+00 -4.52710e+00 
-1.12375e+00  5.45718e+00 -3.21547e+00 
-6.20786e-01  4.46691e+00 -4.83994e+00 
 1.48037e+00  6.96776e+00 -4.85357e+00 
 5.66160e-01  2.53932e+00 -4.39756e+00 
 2.74537e+00  4.42215e+00 -4.59529e+00 
 3.07005e+00  2.78662e+00 -4.51639e+00 
 3.49582e+00  2.70462e+00 -3.59591e+00 
 4.91014e+00  2.89076e+00 -1.04085e+00 
 4.16424e+00 -1.01047e+00 -1.40582e+00 
 7.51914e+00  6.19004e+00 -1.80717e+00 
 5.08757e+00  3.61726e-01 -3.07034e+00 
 5.14142e+00  3.12715e+00 -1.84594e+00 
 6.64653e+00  6.11003e+00 -6.83413e-01 
 7.15329e+00  2.20143e+00  5.75709e-01 
 6.78324e+00 -1.22833e+00  5.06443e-01 
-8.22158e+00  1.70396e+00  1.40317e+00 
-8.19488e+00  6.21148e-01  2.46200e+00 
-4.87831e+00  7.48867e-01  5.60501e-01 
-4.29300e+00 -1.88094e+00 -2.04724e+00 
-3.76573e+00  1.52040e+00 -1.60995e+00 
-5.12145e+00  1.00504e-01 -7.56619e-01 
-2.39000e+00  5.17184e+00 -3.73522e+00 
-2.03313e+00  6.08833e+00 -4.19086e+00 
-8.78480e-01  8.94601e+00 -3.46754e+00 
-2.06274e+00  4.69308e+00 -2.15570e+00 
-3.01244e+00  2.01498e+00 -3.26639e+00 
 1.20618e+00  8.57625e+00 -4.51238e+00 
 5.00276e-02  3.93287e+00 -2.90219e+00 
 2.61086e+00  4.78926e+00 -1.53352e+00 
 2.12406e+00  9.77842e-01 -3.00577e+00 
 3.92819e+00  5.10646e+00 -2.95695e+00 
 3.36354e+00  2.88399e+00 -2.12650e+00 
 4.00939e+00  4.63744e-01 -2.76757e+00 
 5.90865e+00  3.35645e+00 -1.81124e+00 
 4.68990e+00  1.78664e+00 -1.73612e-01 
 5.41715e+00  2.13093e+00 -8.20228e-01 
 8.10798e+00  7.71337e+00 -1.07865e-01 
 6.10428e+00  1.35310e+00  7.83465e-01 
 6.47753e+00 -2.01782e+00  1.29898e+00 
-1.15621e+01  1.04442e-02 -2.11934e+00 
-8.60958e+00 -4.62037e+00 -2.91130e+00 
-5.13503e+00  2.54680e+00 -4.69202e+00 
-5.81113e+00 -1.86575e+00 -4.18793e+00 
-8.93706e-01  4.70076e+00 -3.12541e+00 
-3.91646e+00 -1.37246e+00 -2.24709e+00 
-2.61171e+00  5.83297e+00 -2.37549e+00 
-3.84069e+00  4.48818e+00 -1.49898e+00 
-9.43320e-01  9.04143e+00 -3.82612e+00 
-1.93908e+00  4.07158e+00 -2.83319e+00 
 4.26226e-01  6.44937e+00 -2.90710e+00 
-1.41329e+00  3.92864e+00 -3.37927e+00 
 1.77003e+00  5.71291e+00 -3.05429e+00 
 3.64802e+00  7.76826e+00 -3.37730e+00 
 1.00792e+00  1.45966e+00 -2.75555e+00 
 3.66470e+00  1.48431e+00 -3.34520e+00 
 6.22902e+00  5.79770e+00 -3.42201e+00 
 2.69442e+00  7.34661e-01 -3.00515e+00 
 6.15867e+00  6.05164e+00 -2.60933e+00 
 5.14160e+00  7.92787e-01 -2.47891e+00 
 5.81451e+00  2.38899e+00 -3.01756e+00 
 6.47482e+00  2.13665e+00 -3.48319e+00 
 6.19849e+00  2.07299e+00 -3.69315e+00 
 4.48749e+00 -2.46819e+00 -3.45435e+00 
-5.35919e+00 -7.84127e-01 -8.81328e-01 
-6.94092e+00 -4.14237e+00 -1.73377e+00 
-3.82040e+00  4.41108e+00 -3.44593e+00 
-5.88592e+00  1.33574e+00 -4.60561e+00 
-5.32626e+00  3.45602e+00 -4.03960e+00 
-5.11690e+00  3.59287e+00 -1.49431e+00 
-1.92678e+00  8.67943e+00 -3.75905e-01 
-2.92637e+00  2.48832e+00  3.70174e-01 
 1.87927e-02  7.61434e+00 -9.38342e-01 
-2.02703e+00  4.94713e+00 -6.05575e-01 
-1.65569e+00  4.83710e+00 -3.03138e+00 
-1.98642e-01  2.53104e+00 -4.59606e+00 
 3.89400e-01  4.80410e+00 -2.78906e+00 
 1.98895e+00  7.69794e+00 -4.06126e+00 
 3.11797e+00  3.95854e+00 -4.11220e+00 
 2.32736e+00  4.99380e-01 -3.09179e+00 
 4.15065e+00  4.77550e+00 -2.46770e+00 
 4.23471e+00  3.39390e+00 -2.29987e+00 
 4.94510e+00  3.62069e+00 -2.80222e+00 
 5.58160e+00  2.53690e+00 -3.66363e+00 
 6.75619e+00  1.01626e+00 -3.31217e+00 
 6.50937e+00  3.54984e-01 -3.04157e+00 
 5.95509e+00  5.37774e-01 -1.73339e+00 
 2.96802e+00 -2.06919e+00 -1.15944e+00 
-3.19311e+00  2.79764e-01 -1.56502e+00 
-4.30963e+00 -3.05415e-01 -1.38943e+00 
-5.03119e+00  1.91583e+00 -2.46140e+00 
-7.10651e+00  1.93957e+00 -3.50484e+00 
-7.09771e+00  3.15245e+00 -2.40758e+00 
-2.56255e+00  8.26907e+00 -2.37885e+00 
-1.23454e-01  9.13673e+00 -3.16815e+00 
-4.98334e+00  8.88860e-01 -3.52121e+00 
-2.71929e+00  4.74846e+00 -3.61685e+00 
-4.62362e-01  6.67325e+00 -3.96904e+00 
-2.20114e+00  1.45709e+00 -3.29564e+00 
 3.39632e-01  5.48105e+00 -3.38698e+00 
 2.83819e-01  3.09539e+00 -2.54476e+00 
 2.34649e+00  4.24525e+00 -3.50698e+00 
 2.00510e+00  4.42535e+00 -5.36518e+00 
 1.82929e+00  2.70472e+00 -4.44715e+00 
 4.81904e+00  5.58833e+00 -4.96874e+00 
 4.11938e+00  3.60479e+00 -4.81729e+00 
 4.29404e+00  1.93718e+00 -3.25208e+00 
 6.33248e+00  4.60949e+00 -2.62387e+00 
 5.12898e+00  1.00073e+00 -1.37443e+00 
 5.48967e+00 -3.67209e-02 -1.11690e+00 
 5.29843e+00  4.54887e-01  3.76334e-01 
 3.11550e+00 -1.23496e+00  1.29984e+00 
-4.94922e+00  4.80700e-01  7.79556e-01 
-5.22614e+00  2.86917e+00  3.18934e-01 
-6.10161e+00  1.87176e+00 -1.09624e+00 
-5.04985e+00  2.76996e+00 -1.99685e+00 
-2.91008e+00  6.26469e+00 -1.36315e+00 
-4.91130e+00  4.74627e+00 -1.68278e+00 
-5.99611e+00  4.01637e+00 -4.15975e+00 
-3.97165e+00  2.58381e+00 -4.77101e+00 
-1.54415e+00  4.94172e+00 -4.27188e+00 
-8.02738e-01  5.40997e+00 -4.07159e+00 
 7.17568e-01  6.29905e+00 -4.12545e+00 
 8.53703e-01  4.26059e+00 -4.21360e+00 
 2.20127e+00  4.81146e+00 -4.99459e+00 
 8.89858e-01  3.11485e+00 -3.15981e+00 
 2.61626e+00  4.42306e+00 -2.58510e+00 
 2.46156e+00  3.46106e+00 -2.83776e+00 
 3.85815e+00  6.14768e+00 -3.83932e+00 
 4.18858e+00  2.10235e+00 -3.58694e+00 
 4.67447e+00  3.55090e+00 -4.30446e+00 
 5.84055e+00  6.60479e+00 -3.62661e+00 
 4.42733e+00  3.65642e+00 -1.75616e+00 
 3.19894e+00  3.02810e-02 -1.32482e-01 
 4.11845e+00  5.50264e-01 -4.01738e-01 
 3.93053e+00  7.92332e-01 -1.76525e-02 
-4.21772e+00  1.60448e+00  9.40787e-01 
-4.59931e+00  3.34462e+00 -3.66042e-01 
-5.67060e+00  1.14416e+00 -2.12192e+00 
-3.14659e+00  4.15244e+00 -2.46304e+00 
-1.02017e+00  7.45557e+00 -1.59371e+00 
-4.06450e+00  2.73667e+00 -1.41901e+00 
-3.76404e+00  2.33419e+00 -9.55453e-01 
-2.57486e+00  3.99875e+00 -1.77293e+00 
-4.35372e+00  1.64317e+00 -3.48457e+00 
-2.63448e+00  5.95543e+00 -2.67446e+00 
-4.78458e-01  6.64472e+00 -2.09493e+00 
 1.11578e+00  5.37688e+00 -2.10093e+00 
 3.96997e-01  3.40867e+00 -1.67976e+00 
 2.85433e+00  6.39544e+00 -1.43484e+00 
 1.90332e+00  2.83349e+00 -2.59400e+00 
 3.28248e+00  4.23599e+00 -2.73283e+00 
 4.32689e+00  4.43956e+00 -2.03142e+00 
 4.60084e+00  5.04467e+00 -2.41101e+00 
 4.36679e+00  5.17655e+00 -7.57670e-01 
 3.62222e+00  6.34733e+00  4.56144e-01 
 2.57225e+00  3.58886e+00 -4.28885e-01 
 2.68184e+00  1.07954e+00  6.21744e-01 
 4.42404e+00  1.68896e+00  1.50021e+00 
 4.93868e+00  6.46569e-01  3.15984e-01 
-2.91584e+00  2.86676e+00 -2.09001e-01 
-4.38252e+00 -1.27514e+00 -2.58165e+00 
-3.93238e+00  3.70332e+00 -4.89479e+00 
-4.78317e+00  3.68792e+00 -4.21914e+00 
-4.29220e+00  7.40532e+00 -3.93916e+00 
-6.86716e+00 -1.96068e-01 -2.88680e+00 
-2.60112e+00  4.75547e+00 -2.81110e+00 
-2.66356e+00  3.20422e+00 -1.64083e+00 
-3.71642e+00  1.35082e+00 -1.86559e+00 
 2.72765e-01  9.49004e+00 -1.08370e+00 
-7.66914e-01  5.24217e+00 -1.01854e+00 
 1.02243e+00  6.69996e+00 -2.01710e+00 
 3.11456e+00  5.89401e+00 -2.62111e+00 
 2.37136e+00  4.25061e+00 -2.59145e+00 
 1.39692e+00  3.30709e+00 -2.83607e+00 
 3.13730e+00  6.04139e+00 -1.97043e+00 
 3.83956e+00  6.44408e+00  3.14844e-01 
 4.28288e+00  7.10328e+00  1.23578e+00 
 4.44194e+00  7.75643e+00  4.76905e-02 
 3.30190e+00  3.69518e+00 -5.66097e-01 
 3.20072e+00  3.19980e+00  1.86794e-01 
 3.28189e+00  1.72308e+00  9.82258e-01 
 4.23877e+00  3.07264e+00  3.27765e-01 
 4.23600e+00 -1.22494e+00  9.03151e-01 
-2.23368e+00  2.34292e+00 -2.58762e-01 
-3.03208e+00 -7.65360e-02 -9.08767e-01 
-2.89177e+00  2.50804e+00 -2.27791e+00 
-4.24343e+00  4.27128e+00 -3.05986e+00 
-3.60719e+00  4.75021e+00 -3.87752e+00 
-2.73331e+00  2.06305e+00 -3.41899e+00 
-2.51466e+00  5.03304e+00 -4.02140e+00 
-3.22248e+00  4.52791e+00 -4.35586e+00 
-2.42683e+00  4.64318e+00 -5.42143e+00 
-1.05969e+00  6.22064e+00 -3.02938e+00 
 1.11899e-01  8.03437e+00 -2.44621e+00 
 1.15153e+00  8.16744e+00 -1.23667e+00 
 1.71908e+00  6.58695e+00 -1.59739e-01 
 2.61569e+00  5.17575e+00  4.13986e-01 
 1.03967e+00  3.06732e+00  5.87026e-01 
 1.83047e+00  4.68713e+00  4.57492e-01 
 4.12738e+00  8.35627e+00 -1.04629e+00 
 3.54224e+00  7.52410e+00 -2.96389e+00 
 3.95237e+00  9.12681e+00 -1.61092e+00 
 2.10460e+00  2.28813e+00  9.93287e-01 
 3.63298e+00  5.53700e-01 -4.02744e-01 
 3.63736e+00  2.48229e+00 -1.16096e+00 
 2.86369e+00  3.17982e-01 -4.81141e-01 
 4.60212e+00 -8.89174e-01 -8.57375e-01 
-3.24681e+00 -7.63524e-01 -7.90579e-01 
-5.06072e+00  9.87061e-01 -2.31243e+00 
-4.51272e+00  1.01465e+00 -4.43241e+00 
-7.98282e-01  4.56777e+00 -3.72506e+00 
-4.19561e+00 -1.65924e+00 -4.03470e+00 
-3.48030e+00  4.41854e+00 -3.70878e+00 
-5.88227e+00  9.89083e-01 -5.73124e+00 
-5.54176e+00  4.57746e+00 -3.72302e+00 
-4.82543e+00  5.47079e+00 -4.19100e+00 
-3.15885e+00  7.08474e+00 -2.00361e+00 
-2.26157e+00  7.47120e+00 -9.29524e-01 
 2.38040e-01  1.13914e+01 -3.07316e-01 
 7.85965e-01  9.56905e+00  1.08918e+00 
 1.89709e+00  5.57445e+00  2.13768e-01 
 3.37123e+00  3.65131e+00 -1.57444e+00 
 5.69497e+00  7.12969e+00  9.56588e-01 
 4.25984e+00  5.08824e+00 -1.17086e+00 
 4.28149e+00  7.76436e+00 -1.41675e+00 
 6.36255e+00  9.87115e+00 -3.62376e+00 
 3.39025e+00  3.00105e+00 -3.91266e+00 
 5.60448e-01 -2.89028e+00 -2.65336e+00 
 5.33616e+00  3.70357e+00 -2.47389e+00 
 3.12721e+00 -1.82527e+00 -2.03754e+00 
 2.42300e+00 -9.62732e-01 -1.90361e+00 
-5.34808e+00 -7.20998e-01  2.71027e+00 
-3.46689e+00 -1.25439e+00  3.27525e+00 
-1.56209e+00  6.82310e-01 -8.53191e-01 
-6.65444e-01  2.09898e+00 -1.84384e+00 
-1.53789e+00 -5.59834e-01 -1.61558e+00 
-1.80430e+00  1.67899e+00 -1.27786e+00 
-6.06451e+00 -1.42270e+00 -4.97286e+00 
-5.63351e+00  4.74730e+00 -5.85740e+00 
-7.95120e+00  2.45648e+00 -6.64679e+00 
-4.97293e+00  8.63282e+00 -5.38719e+00 
-4.33107e+00  8.96501e+00 -3.53148e+00 
-8.49574e-01  1.15344e+01 -1.80746e+00 
 1.33157e+00  9.37964e+00 -4.44576e+00 
 4.55160e-01  4.83796e+00 -5.23874e+00 
 4.20766e+00  5.78575e+00 -6.06505e+00 
 6.43573e+00  7.61310e+00 -5.68818e+00 
 5.40687e+00  8.91740e+00 -5.47295e+00 
 3.17200e+00  3.34984e+00 -4.90688e+00 
 5.30944e+00  9.44426e+00 -4.83514e+00 
 3.12607e+00  3.67472e+00 -2.51462e+00 
 1.05822e+00 -2.68669e+00 -2.16160e+00 
 4.57860e+00  5.65629e+00 -1.94201e+00 
 2.38267e+00  7.25829e-01  1.68985e+00 
 7.26285e-01 -2.89658e+00  2.16897e+00 
-4.12557e+00 -2.58468e-01 -6.75514e-01 
-3.42124e+00 -1.16727e+00 -1.06332e+00 
 1.12792e+00  1.25492e+00 -8.86117e-01 
 9.78610e-01 -1.29401e+00 -3.02527e+00 
-2.20544e-01  4.71005e-01 -4.11182e+00 
-1.75780e+00  1.60667e-01 -4.33127e+00 
-3.99200e+00 -2.67650e+00 -4.29355e+00 
-4.15492e+00  9.41544e-01 -5.09017e+00 
-6.89695e+00  1.02759e+00 -5.69291e+00 
-4.30804e+00  9.73293e+00 -4.07072e+00 
-4.25089e+00  7.60802e+00 -5.53123e+00 
-2.62645e-01  1.07375e+01 -5.14483e+00 
 1.34679e+00  7.73829e+00 -4.94207e+00 
 5.09773e+00  1.00456e+01 -5.37624e+00 
 2.41309e+00  4.59212e+00 -5.38683e+00 
 3.95918e+00  9.58485e+00 -6.47756e+00 
 4.61096e+00  1.06348e+01 -6.51506e+00 
 2.43875e+00  5.02365e+00 -4.24565e+00 
 6.18678e+00  1.23802e+01 -3.85852e+00 
 2.64586e+00  3.91118e+00 -1.05245e+00 
 6.13163e-01 -6.01811e-01  2.18776e-01 
 2.84749e+00  4.87815e+00  4.88003e-02 
 3.31752e+00  4.07087e+00 -3.03480e-01 
 7.87842e-01 -1.83012e+00  5.93788e-01 
-3.58900e+00 -2.43142e+00 -1.51157e+00 
 5.02597e-01  2.60731e+00 -1.03579e+00 
-6.47326e-01 -9.63736e-01 -2.05634e+00 
 1.15852e+00 -9.60453e-01 -4.74313e+00 
 8.61601e-01 -1.58318e+00 -4.36577e+00 
-5.01529e-01  1.09796e+00 -4.63064e+00 
-4.28031e+00 -4.68804e+00 -6.01965e+00 
-4.57044e+00 -2.05380e+00 -8.42621e+00 
-7.28120e+00 -2.93943e+00 -8.01748e+00 
-4.11667e+00  5.58777e+00 -8.01668e+00 
-4.96751e+00  3.33808e+00 -8.27742e+00 
-2.44068e+00  6.41712e+00 -6.05211e+00 
 2.87476e+00  1.21670e+01 -8.36250e+00 
 4.01091e+00  1.19099e+01 -8.68399e+00 
 5.44012e+00  1.25585e+01 -6.96008e+00 
 5.19892e+00  1.10872e+01 -7.59044e+00 
 3.02229e+00  1.02971e+01 -9.27443e+00 
 1.83801e+00  1.22787e+01 -6.52218e+00 
 1.03895e+00  8.90173e+00 -5.66413e+00 
-1.13251e-01  5.08673e+00 -4.06733e+00 
 6.81748e-01  4.32036e+00 -1.72488e+00 
 2.62178e+00  2.91708e+00 -3.85689e-01 
 2.22059e+00  3.17829e+00  2.02772e-01 
 1.83351e+00  2.91539e-01  3.06944e-01 
 6.35209e-01 -3.08698e-01 -1.19162e+00 
 5.56891e-01  2.25703e+00 -1.87376e+00 
 1.27488e+00  1.27331e+00 -4.91376e-01 
 2.26289e+00  1.24846e+00 -2.34923e+00 
-1.05810e+00 -2.31515e+00 -3.93952e+00 
 6.90646e-01 -1.19534e+00 -3.34309e+00 
-7.72233e-01 -2.69488e+00 -4.56533e+00 
-5.34886e+00 -8.67362e+00 -6.03797e+00 
-6.35364e+00 -8.29472e+00 -8.61051e+00 
-6.80765e+00 -3.34312e+00 -6.13041e+00 
-6.19819e+00 -5.94098e+00 -7.87555e+00 
 2.20914e-01  5.71380e+00 -1.01229e+01 
 1.53379e+00  1.75159e+01 -8.94108e+00 
 2.57132e+00  1.54657e+01 -5.12247e+00 
 8.59960e+00  2.13046e+01 -8.05006e+00 
 4.80787e+00  1.68080e+01 -8.20201e+00 
 6.29911e-01  1.15471e+01 -5.88724e+00 
 2.11035e+00  1.67639e+01 -3.43087e+00 
-1.09376e+00  7.89713e+00 -5.76619e-01 
 1.03235e-01  5.85644e+00 -4.76259e-01 
 1.26868e+00  6.27519e+00 -6.05256e-01 
-1.38182e+00  1.01390e-02 -2.32880e+00 
 1.08498e+00  2.49631e+00 -2.98191e+00 
 8.23225e-01  8.43980e-01 -6.56691e-01 
-1.01292e+00 -1.46813e+00  1.36780e+00 
 8.77852e-02  9.91921e-01  5.07927e-01 
 2.21215e-01  2.63279e+00  9.65929e-01 
 5.47148e-01  4.14124e+00 -2.22894e+00 
 8.55047e-01 -5.76830e-01 -5.96379e-01 
 1.36856e+00 -1.00751e+00  5.11078e-01 
 7.57322e-01 -3.12683e+00 -1.21993e+00 
-2.23573e-01 -9.50120e+00 -1.98355e+00 
-9.52814e-01 -1.42054e+01 -4.21072e+00 
-6.09017e+00 -2.97529e+01 -1.13742e+01 
-5.94817e-02 -1.10945e+01 -1.64842e+01 
-1.19516e+00  5.12703e+00 -1.94277e+01 
-4.90983e-01  1.53173e+01 -1.86115e+01 
 9.19286e-01  2.18629e+01 -1.82469e+01 
 8.21331e+00  4.33573e+01 -1.12981e+01 
 1.59844e+00  2.67734e+01 -4.75983e+00 
-5.12135e-01  1.69561e+01 -1.97772e+00 
-6.90015e-01  1.09530e+01 -1.18719e+00 
-6.56990e-01  8.62221e+00 -8.62244e-01 
-4.33009e-01  4.82919e+00 -1.46900e+00 
 8.02705e-02  2.85850e+00 -8.70431e-01 
 1.53152e+00  5.03481e+00  6.37735e-01 
-1.60899e-01  2.25236e-01  2.54205e-01 
-5.74809e-01 -4.45142e-01  2.71119e-01 </DataArray>
         </PointData>
         <CellData/>
      </Piece>
   </UnstructuredGrid>
</VTKFile>