<?xml version="1.0" encoding="utf-8"?>
<VTKFile byte_order="LittleEndian" type="UnstructuredGrid" version="0.1">
   <UnstructuredGrid>
      <Piece NumberOfCells="6000" NumberOfPoints="1331">
         <Points>
            <DataArray Name="Points" NumberOfComponents="3" format="ascii" type="Float32">
1.0000 1.0000 0.0000
1.0000 0.9000 0.0000
0.9000 1.0000 0.0000
1.0000 1.0000 0.1000
0.9000 0.9000 0.0000
1.0000 0.9000 0.1000
0.9000 1.0000 0.1000
0.9000 0.9000 0.1000
1.0000 0.8000 0.0000
0.8000 1.0000 0.0000
1.0000 1.0000 0.2000
0.8000 1.0000 0.1000
1.0000 0.9000 0.2000
1.0000 0.8000 0.1000
0.9000 0.8000 0.0000
0.9000 1.0000 0.2000
0.8000 0.9000 0.0000
0.9000 0.9000 0.2000
0.9000 0.8000 0.1000
0.8000 0.9000 0.1000
0.8000 1.0000 0.2000
1.0000 0.8000 0.2000
0.8000 0.8000 0.0000
1.0000 1.0000 0.3000
0.9000 0.8000 0.2000
0.7000 1.0000 0.0000
1.0000 0.7000 0.0000
0.8000 0.8000 0.1000
0.8000 0.9000 0.2000
0.9000 0.7000 0.0000
1.0000 0.9000 0.3000
0.9000 1.0000 0.3000
0.7000 1.0000 0.1000
1.0000 0.7000 0.1000
0.7000 0.9000 0.0000
0.9000 0.7000 0.1000
0.9000 0.9000 0.3000
0.7000 0.9000 0.1000
0.8000 0.8000 0.2000
0.8000 0.7000 0.0000
1.0000 0.8000 0.3000
0.8000 1.0000 0.3000
0.7000 1.0000 0.2000
1.0000 0.7000 0.2000
0.7000 0.8000 0.0000
0.8000 0.7000 0.1000
0.9000 0.7000 0.2000
0.9000 0.8000 0.3000
0.8000 0.9000 0.3000
0.7000 0.8000 0.1000
0.7000 0.9000 0.2000
1.0000 1.0000 0.4000
0.6000 1.0000 0.0000
1.0000 0.6000 0.0000
0.8000 0.7000 0.2000
0.9000 0.6000 0.0000
1.0000 0.6000 0.1000
1.0000 0.9000 0.4000
0.6000 1.0000 0.1000
0.8000 0.8000 0.3000
0.9000 1.0000 0.4000
0.6000 0.9000 0.0000
0.7000 0.8000 0.2000
0.9000 0.6000 0.1000
0.7000 0.7000 0.0000
1.0000 0.7000 0.3000
0.9000 0.9000 0.4000
0.7000 1.0000 0.3000
0.6000 0.9000 0.1000
0.7000 0.7000 0.1000
0.9000 0.7000 0.3000
0.7000 0.9000 0.3000
1.0000 0.8000 0.4000
0.8000 1.0000 0.4000
1.0000 0.6000 0.2000
0.6000 1.0000 0.2000
0.6000 0.8000 0.0000
0.8000 0.6000 0.0000
0.9000 0.6000 0.2000
0.8000 0.6000 0.1000
0.9000 0.8000 0.4000
0.6000 0.8000 0.1000
0.8000 0.9000 0.4000
0.6000 0.9000 0.2000
0.8000 0.7000 0.3000
0.7000 0.7000 0.2000
0.7000 0.8000 0.3000
0.6000 0.8000 0.2000
0.8000 0.8000 0.4000
0.8000 0.6000 0.2000
0.6000 0.7000 0.0000
0.7000 0.6000 0.0000
1.0000 0.5000 0.0000
0.6000 1.0000 0.3000
0.5000 1.0000 0.0000
1.0000 1.0000 0.5000
1.0000 0.6000 0.3000
1.0000 0.7000 0.4000
0.7000 1.0000 0.4000
0.6000 0.7000 0.1000
0.9000 0.6000 0.3000
0.9000 0.7000 0.4000
0.7000 0.6000 0.1000
1.0000 0.9000 0.5000
0.9000 1.0000 0.5000
1.0000 0.5000 0.1000
0.5000 1.0000 0.1000
0.6000 0.9000 0.3000
0.5000 0.9000 0.0000
0.9000 0.5000 0.0000
0.7000 0.9000 0.4000
0.7000 0.7000 0.3000
0.9000 0.9000 0.5000
0.9000 0.5000 0.1000
0.5000 0.9000 0.1000
0.8000 0.7000 0.4000
1.0000 0.8000 0.5000
0.6000 0.7000 0.2000
0.8000 1.0000 0.5000
0.5000 1.0000 0.2000
0.7000 0.6000 0.2000
1.0000 0.5000 0.2000
0.6000 0.8000 0.3000
0.8000 0.5000 0.0000
0.5000 0.8000 0.0000
0.8000 0.6000 0.3000
0.7000 0.8000 0.4000
0.9000 0.8000 0.5000
0.8000 0.9000 0.5000
0.9000 0.5000 0.2000
0.5000 0.9000 0.2000
0.8000 0.5000 0.1000
0.5000 0.8000 0.1000
0.6000 0.6000 0.0000
0.6000 1.0000 0.4000
1.0000 0.6000 0.4000
0.6000 0.6000 0.1000
0.8000 0.8000 0.5000
0.9000 0.6000 0.4000
0.5000 0.8000 0.2000
0.6000 0.9000 0.4000
0.8000 0.5000 0.2000
0.6000 0.7000 0.3000
0.7000 0.7000 0.4000
0.5000 1.0000 0.3000
0.7000 1.0000 0.5000
1.0000 0.5000 0.3000
0.7000 0.6000 0.3000
1.0000 0.7000 0.5000
0.7000 0.5000 0.0000
0.5000 0.7000 0.0000
0.9000 0.7000 0.5000
0.5000 0.9000 0.3000
0.5000 0.7000 0.1000
0.7000 0.9000 0.5000
0.7000 0.5000 0.1000
0.9000 0.5000 0.3000
0.6000 0.6000 0.2000
0.4000 1.0000 0.0000
1.0000 1.0000 0.6000
1.0000 0.4000 0.0000
0.6000 0.8000 0.4000
0.8000 0.6000 0.4000
1.0000 0.9000 0.6000
0.9000 0.4000 0.0000
0.9000 1.0000 0.6000
0.4000 1.0000 0.1000
1.0000 0.4000 0.1000
0.4000 0.9000 0.0000
0.8000 0.7000 0.5000
0.7000 0.8000 0.5000
0.4000 0.9000 0.1000
0.9000 0.9000 0.6000
0.9000 0.4000 0.1000
0.5000 0.7000 0.2000
0.7000 0.5000 0.2000
0.5000 0.8000 0.3000
0.8000 0.5000 0.3000
1.0000 0.4000 0.2000
0.4000 1.0000 0.2000
0.8000 1.0000 0.6000
1.0000 0.8000 0.6000
0.8000 0.4000 0.0000
0.4000 0.8000 0.0000
0.9000 0.8000 0.6000
0.6000 0.6000 0.3000
0.6000 0.7000 0.4000
0.9000 0.4000 0.2000
0.6000 1.0000 0.5000
1.0000 0.6000 0.5000
0.8000 0.4000 0.1000
0.7000 0.6000 0.4000
1.0000 0.5000 0.4000
0.5000 1.0000 0.4000
0.4000 0.9000 0.2000
0.8000 0.9000 0.6000
0.5000 0.6000 0.0000
0.4000 0.8000 0.1000
0.6000 0.5000 0.0000
0.9000 0.6000 0.5000
0.5000 0.6000 0.1000
0.6000 0.9000 0.5000
0.9000 0.5000 0.4000
0.5000 0.9000 0.4000
0.6000 0.5000 0.1000
0.7000 0.7000 0.5000
0.5000 0.7000 0.3000
0.7000 0.5000 0.3000
0.8000 0.4000 0.2000
0.8000 0.8000 0.6000
0.4000 0.8000 0.2000
1.0000 0.4000 0.3000
0.4000 0.7000 0.0000
0.5000 0.6000 0.2000
0.7000 0.4000 0.0000
0.7000 1.0000 0.6000
0.4000 1.0000 0.3000
0.6000 0.8000 0.5000
0.8000 0.5000 0.4000
1.0000 0.7000 0.6000
0.8000 0.6000 0.5000
0.6000 0.5000 0.2000
0.5000 0.8000 0.4000
0.9000 0.7000 0.6000
0.4000 0.7000 0.1000
0.4000 0.9000 0.3000
0.7000 0.9000 0.6000
0.7000 0.4000 0.1000
0.9000 0.4000 0.3000
0.6000 0.6000 0.4000
0.8000 0.7000 0.6000
0.7000 0.4000 0.2000
0.3000 1.0000 0.0000
0.8000 0.4000 0.3000
1.0000 1.0000 0.7000
1.0000 0.3000 0.0000
0.7000 0.8000 0.6000
0.4000 0.7000 0.2000
0.4000 0.8000 0.3000
0.9000 1.0000 0.7000
0.7000 0.6000 0.5000
1.0000 0.9000 0.7000
0.9000 0.3000 0.0000
0.5000 1.0000 0.5000
1.0000 0.5000 0.5000
0.6000 0.7000 0.5000
1.0000 0.3000 0.1000
0.5000 0.7000 0.4000
0.3000 0.9000 0.0000
0.5000 0.6000 0.3000
0.3000 1.0000 0.1000
0.7000 0.5000 0.4000
0.5000 0.5000 0.0000
0.6000 0.5000 0.3000
0.9000 0.3000 0.1000
0.9000 0.9000 0.7000
0.3000 0.9000 0.1000
0.9000 0.5000 0.5000
0.5000 0.5000 0.1000
0.5000 0.9000 0.5000
0.4000 0.6000 0.0000
0.6000 0.4000 0.0000
1.0000 0.6000 0.6000
0.6000 1.0000 0.6000
1.0000 0.4000 0.4000
0.4000 1.0000 0.4000
0.9000 0.6000 0.6000
0.4000 0.6000 0.1000
0.8000 1.0000 0.7000
1.0000 0.8000 0.7000
0.8000 0.3000 0.0000
1.0000 0.3000 0.2000
0.3000 0.8000 0.0000
0.9000 0.4000 0.4000
0.3000 1.0000 0.2000
0.4000 0.9000 0.4000
0.6000 0.9000 0.6000
0.6000 0.4000 0.1000
0.8000 0.3000 0.1000
0.9000 0.3000 0.2000
0.4000 0.7000 0.3000
0.7000 0.4000 0.3000
0.3000 0.9000 0.2000
0.3000 0.8000 0.1000
0.9000 0.8000 0.7000
0.7000 0.7000 0.6000
0.8000 0.9000 0.7000
0.8000 0.5000 0.5000
0.5000 0.8000 0.5000
0.5000 0.5000 0.2000
0.6000 0.8000 0.6000
0.8000 0.6000 0.6000
0.4000 0.6000 0.2000
0.8000 0.4000 0.4000
0.6000 0.4000 0.2000
0.4000 0.8000 0.4000
0.6000 0.6000 0.5000
0.8000 0.3000 0.2000
0.3000 0.8000 0.2000
0.5000 0.6000 0.4000
0.8000 0.8000 0.7000
0.6000 0.5000 0.4000
0.7000 0.3000 0.0000
1.0000 0.7000 0.7000
0.7000 1.0000 0.7000
1.0000 0.3000 0.3000
0.3000 1.0000 0.3000
0.3000 0.7000 0.0000
0.9000 0.7000 0.7000
0.9000 0.3000 0.3000
0.7000 0.3000 0.1000
0.3000 0.9000 0.3000
0.5000 0.7000 0.5000
0.7000 0.5000 0.5000
0.3000 0.7000 0.1000
0.7000 0.9000 0.7000
0.5000 0.5000 0.3000
0.7000 0.6000 0.6000
1.0000 0.4000 0.5000
0.4000 1.0000 0.5000
0.4000 0.6000 0.3000
0.4000 0.5000 0.0000
0.5000 1.0000 0.6000
0.6000 0.7000 0.6000
1.0000 0.5000 0.6000
0.5000 0.4000 0.0000
0.4000 0.7000 0.4000
0.7000 0.4000 0.4000
0.6000 0.4000 0.3000
0.8000 0.7000 0.7000
0.7000 0.3000 0.2000
0.8000 0.3000 0.3000
0.9000 0.5000 0.6000
0.4000 0.5000 0.1000
0.3000 0.7000 0.2000
0.9000 0.4000 0.5000
0.4000 0.9000 0.5000
0.3000 0.8000 0.3000
0.5000 0.4000 0.1000
0.7000 0.8000 0.7000
0.5000 0.9000 0.6000
0.2000 1.0000 0.0000
1.0000 1.0000 0.8000
1.0000 0.2000 0.0000
0.8000 0.4000 0.5000
1.0000 0.3000 0.4000
0.4000 0.8000 0.5000
1.0000 0.6000 0.7000
0.3000 0.6000 0.0000
0.6000 1.0000 0.7000
0.4000 0.5000 0.2000
0.6000 0.3000 0.0000
0.2000 0.9000 0.0000
1.0000 0.2000 0.1000
0.5000 0.4000 0.2000
0.2000 1.0000 0.1000
0.3000 1.0000 0.4000
0.8000 0.5000 0.6000
1.0000 0.9000 0.8000
0.9000 0.2000 0.0000
0.5000 0.8000 0.6000
0.9000 1.0000 0.8000
0.9000 0.6000 0.7000
0.3000 0.6000 0.1000
0.5000 0.6000 0.5000
0.6000 0.3000 0.1000
0.9000 0.3000 0.4000
0.9000 0.2000 0.1000
0.3000 0.9000 0.4000
0.6000 0.5000 0.5000
0.5000 0.5000 0.4000
0.6000 0.9000 0.7000
0.9000 0.9000 0.8000
0.2000 0.9000 0.1000
0.7000 0.3000 0.3000
0.7000 0.7000 0.7000
0.3000 0.7000 0.3000
1.0000 0.8000 0.8000
0.6000 0.6000 0.6000
0.4000 0.6000 0.4000
0.2000 1.0000 0.2000
0.6000 0.4000 0.4000
1.0000 0.2000 0.2000
0.8000 0.2000 0.0000
0.2000 0.8000 0.0000
0.8000 1.0000 0.8000
0.9000 0.8000 0.8000
0.6000 0.3000 0.2000
0.8000 0.3000 0.4000
0.3000 0.6000 0.2000
0.3000 0.8000 0.4000
0.8000 0.9000 0.8000
0.2000 0.9000 0.2000
0.6000 0.8000 0.7000
0.2000 0.8000 0.1000
0.9000 0.2000 0.2000
0.8000 0.2000 0.1000
0.8000 0.6000 0.7000
0.7000 0.4000 0.5000
0.7000 0.5000 0.6000
0.4000 0.5000 0.3000
0.4000 0.7000 0.5000
0.5000 0.4000 0.3000
0.5000 0.7000 0.6000
0.8000 0.8000 0.8000
0.4000 0.4000 0.0000
1.0000 0.4000 0.6000
0.4000 1.0000 0.6000
0.2000 0.8000 0.2000
0.8000 0.2000 0.2000
0.7000 1.0000 0.8000
0.4000 0.9000 0.6000
0.9000 0.4000 0.6000
0.7000 0.2000 0.0000
0.4000 0.4000 0.1000
0.2000 1.0000 0.3000
1.0000 0.2000 0.3000
0.2000 0.7000 0.0000
1.0000 0.7000 0.8000
1.0000 0.5000 0.7000
0.5000 1.0000 0.7000
0.6000 0.7000 0.7000
0.7000 0.3000 0.4000
0.3000 0.6000 0.3000
0.6000 0.3000 0.3000
0.3000 0.5000 0.0000
0.5000 0.3000 0.0000
0.9000 0.2000 0.3000
1.0000 0.3000 0.5000
0.7000 0.6000 0.7000
0.7000 0.9000 0.8000
0.7000 0.2000 0.1000
0.2000 0.9000 0.3000
0.3000 0.7000 0.4000
0.3000 1.0000 0.5000
0.9000 0.7000 0.8000
0.2000 0.7000 0.1000
0.9000 0.5000 0.7000
0.9000 0.3000 0.5000
0.3000 0.5000 0.1000
0.5000 0.3000 0.1000
0.3000 0.9000 0.5000
0.5000 0.5000 0.5000
0.5000 0.9000 0.7000
0.4000 0.4000 0.2000
0.4000 0.8000 0.6000
0.8000 0.4000 0.6000
0.4000 0.6000 0.5000
0.5000 0.6000 0.6000
0.4000 0.5000 0.4000
0.7000 0.8000 0.8000
0.6000 0.5000 0.6000
0.7000 0.2000 0.2000
0.5000 0.4000 0.4000
0.6000 0.4000 0.5000
0.8000 0.2000 0.3000
0.2000 0.8000 0.3000
0.8000 0.7000 0.8000
0.2000 0.7000 0.2000
0.8000 0.5000 0.7000
0.8000 0.3000 0.5000
0.3000 0.8000 0.5000
0.5000 0.3000 0.2000
0.3000 0.5000 0.2000
0.5000 0.8000 0.7000
0.6000 1.0000 0.8000
0.2000 1.0000 0.4000
1.0000 0.2000 0.4000
0.2000 0.6000 0.0000
0.6000 0.2000 0.0000
1.0000 0.6000 0.8000
0.6000 0.6000 0.7000
0.7000 0.4000 0.6000
0.3000 0.6000 0.4000
0.6000 0.3000 0.4000
0.4000 0.4000 0.3000
1.0000 0.1000 0.0000
0.1000 1.0000 0.0000
0.4000 0.7000 0.6000
1.0000 1.0000 0.9000
0.9000 0.2000 0.4000
0.2000 0.9000 0.4000
0.6000 0.9000 0.8000
0.2000 0.6000 0.1000
0.6000 0.2000 0.1000
0.9000 0.6000 0.8000
1.0000 0.1000 0.1000
0.9000 1.0000 0.9000
0.9000 0.1000 0.0000
0.1000 0.9000 0.0000
0.7000 0.2000 0.3000
0.7000 0.7000 0.8000
0.1000 1.0000 0.1000
0.2000 0.7000 0.3000
1.0000 0.9000 0.9000
0.7000 0.3000 0.5000
0.9000 0.1000 0.1000
0.7000 0.5000 0.7000
0.5000 0.3000 0.3000
0.3000 0.5000 0.3000
0.5000 0.7000 0.7000
0.3000 0.7000 0.5000
0.1000 0.9000 0.1000
0.9000 0.9000 0.9000
0.6000 0.8000 0.8000
0.2000 0.8000 0.4000
0.8000 0.2000 0.4000
0.2000 0.6000 0.2000
0.8000 0.6000 0.8000
0.6000 0.2000 0.2000
0.8000 1.0000 0.9000
0.4000 0.3000 0.0000
1.0000 0.1000 0.2000
0.4000 1.0000 0.7000
1.0000 0.8000 0.9000
1.0000 0.3000 0.6000
1.0000 0.4000 0.7000
0.8000 0.1000 0.0000
0.1000 0.8000 0.0000
0.3000 0.4000 0.0000
0.3000 1.0000 0.6000
0.1000 1.0000 0.2000
0.4000 0.9000 0.7000
0.4000 0.5000 0.5000
0.8000 0.1000 0.1000
0.9000 0.8000 0.9000
0.4000 0.3000 0.1000
0.9000 0.1000 0.2000
0.3000 0.9000 0.6000
0.9000 0.3000 0.6000
0.5000 0.4000 0.5000
0.3000 0.4000 0.1000
0.9000 0.4000 0.7000
0.5000 0.5000 0.6000
0.1000 0.8000 0.1000
0.1000 0.9000 0.2000
0.8000 0.9000 0.9000
0.4000 0.6000 0.6000
0.4000 0.4000 0.4000
0.6000 0.4000 0.6000
0.4000 0.3000 0.2000
0.8000 0.1000 0.2000
0.8000 0.8000 0.9000
0.3000 0.8000 0.6000
0.3000 0.4000 0.2000
0.7000 0.6000 0.8000
0.6000 0.7000 0.8000
0.8000 0.3000 0.6000
0.4000 0.8000 0.7000
0.1000 0.8000 0.2000
0.5000 1.0000 0.8000
0.8000 0.4000 0.7000
0.7000 0.2000 0.4000
1.0000 0.5000 0.8000
1.0000 0.2000 0.5000
0.2000 0.5000 0.0000
0.2000 1.0000 0.5000
0.2000 0.6000 0.3000
0.5000 0.2000 0.0000
0.6000 0.2000 0.3000
0.2000 0.7000 0.4000
0.6000 0.5000 0.7000
1.0000 0.1000 0.3000
0.7000 1.0000 0.9000
0.3000 0.6000 0.5000
0.7000 0.1000 0.0000
1.0000 0.7000 0.9000
0.6000 0.3000 0.5000
0.5000 0.3000 0.4000
0.1000 1.0000 0.3000
0.3000 0.5000 0.4000
0.1000 0.7000 0.0000
0.9000 0.2000 0.5000
0.5000 0.9000 0.8000
0.5000 0.2000 0.1000
0.2000 0.9000 0.5000
0.5000 0.6000 0.7000
0.2000 0.5000 0.1000
0.9000 0.5000 0.8000
0.9000 0.7000 0.9000
0.9000 0.1000 0.3000
0.7000 0.1000 0.1000
0.1000 0.7000 0.1000
0.1000 0.9000 0.3000
0.7000 0.9000 0.9000
0.5000 0.8000 0.8000
0.8000 0.2000 0.5000
0.2000 0.8000 0.5000
0.5000 0.2000 0.2000
0.2000 0.5000 0.2000
0.8000 0.5000 0.8000
0.8000 0.7000 0.9000
0.4000 0.3000 0.3000
0.8000 0.1000 0.3000
0.7000 0.3000 0.6000
0.7000 0.1000 0.2000
0.4000 0.7000 0.7000
0.1000 0.7000 0.2000
0.7000 0.8000 0.9000
0.1000 0.8000 0.3000
0.7000 0.4000 0.7000
0.3000 0.4000 0.3000
0.3000 0.7000 0.6000
0.6000 0.6000 0.8000
0.2000 0.6000 0.4000
0.6000 0.2000 0.4000
0.4000 0.4000 0.5000
1.0000 0.1000 0.4000
0.6000 1.0000 0.9000
0.4000 0.5000 0.6000
0.6000 0.1000 0.0000
0.1000 0.6000 0.0000
0.1000 1.0000 0.4000
0.5000 0.4000 0.6000
1.0000 0.6000 0.9000
0.9000 0.1000 0.4000
0.3000 0.3000 0.0000
1.0000 0.3000 0.7000
0.1000 0.6000 0.1000
0.3000 1.0000 0.7000
0.6000 0.1000 0.1000
0.7000 0.2000 0.5000
0.9000 0.6000 0.9000
0.5000 0.7000 0.8000
0.5000 0.2000 0.3000
0.1000 0.9000 0.4000
0.7000 0.5000 0.8000
0.2000 0.5000 0.3000
0.2000 0.7000 0.5000
0.6000 0.9000 0.9000
0.7000 0.7000 0.9000
0.3000 0.9000 0.7000
0.7000 0.1000 0.3000
0.3000 0.3000 0.1000
0.3000 0.5000 0.5000
0.9000 0.3000 0.7000
0.5000 0.3000 0.5000
0.1000 0.7000 0.3000
0.5000 0.5000 0.7000
1.0000 0.4000 0.8000
0.0000 1.0000 0.0000
1.0000 0.2000 0.6000
1.0000 0.0000 0.0000
1.0000 1.0000 1.0000
0.2000 1.0000 0.6000
0.4000 0.2000 0.0000
0.2000 0.4000 0.0000
0.4000 1.0000 0.8000
0.4000 0.6000 0.7000
0.9000 0.4000 0.8000
0.4000 0.9000 0.8000
0.6000 0.3000 0.6000
0.3000 0.6000 0.6000
0.4000 0.3000 0.4000
0.8000 0.1000 0.4000
0.9000 0.2000 0.6000
0.1000 0.6000 0.2000
1.0000 0.0000 0.1000
0.6000 0.1000 0.2000
0.0000 1.0000 0.1000
0.2000 0.9000 0.6000
1.0000 0.9000 1.0000
0.9000 1.0000 1.0000
0.6000 0.8000 0.9000
0.0000 0.9000 0.0000
0.9000 0.0000 0.0000
0.8000 0.6000 0.9000
0.6000 0.4000 0.7000
0.1000 0.8000 0.4000
0.3000 0.4000 0.4000
0.4000 0.2000 0.1000
0.2000 0.4000 0.1000
0.3000 0.8000 0.7000
0.3000 0.3000 0.2000
0.9000 0.0000 0.1000
0.8000 0.3000 0.7000
0.9000 0.9000 1.0000
0.0000 0.9000 0.1000
0.8000 0.4000 0.8000
0.4000 0.8000 0.8000
0.0000 0.8000 0.0000
1.0000 0.8000 1.0000
0.8000 0.0000 0.0000
0.0000 1.0000 0.2000
0.8000 1.0000 1.0000
1.0000 0.0000 0.2000
0.2000 0.4000 0.2000
0.8000 0.2000 0.6000
0.2000 0.8000 0.6000
0.4000 0.2000 0.2000
0.0000 0.9000 0.2000
0.9000 0.0000 0.2000
0.8000 0.0000 0.1000
0.0000 0.8000 0.1000
0.8000 0.9000 1.0000
0.9000 0.8000 1.0000
0.2000 0.5000 0.4000
0.5000 0.6000 0.8000
0.6000 0.2000 0.5000
0.2000 0.6000 0.5000
0.5000 0.2000 0.4000
0.6000 0.5000 0.8000
0.7000 0.6000 0.9000
0.7000 0.1000 0.4000
1.0000 0.1000 0.5000
0.1000 0.6000 0.3000
1.0000 0.5000 0.9000
0.6000 0.1000 0.3000
0.5000 1.0000 0.9000
0.1000 0.5000 0.0000
0.5000 0.1000 0.0000
0.6000 0.7000 0.9000
0.1000 0.7000 0.4000
0.1000 1.0000 0.5000
0.7000 0.3000 0.7000
0.3000 0.3000 0.3000
0.9000 0.1000 0.5000
0.9000 0.5000 0.9000
0.1000 0.5000 0.1000
0.5000 0.1000 0.1000
0.3000 0.7000 0.7000
0.1000 0.9000 0.5000
0.5000 0.9000 0.9000
0.0000 0.8000 0.2000
0.4000 0.4000 0.6000
0.8000 0.0000 0.2000
0.8000 0.8000 1.0000
0.4000 0.7000 0.8000
0.7000 0.2000 0.6000
0.0000 0.7000 0.0000
1.0000 0.0000 0.3000
0.0000 1.0000 0.3000
1.0000 0.7000 1.0000
0.7000 1.0000 1.0000
0.7000 0.0000 0.0000
0.2000 0.7000 0.6000
0.7000 0.4000 0.8000
0.2000 0.4000 0.3000
0.4000 0.2000 0.3000
0.4000 0.5000 0.7000
0.4000 0.3000 0.5000
0.5000 0.4000 0.7000
0.8000 0.1000 0.5000
0.0000 0.9000 0.3000
0.9000 0.0000 0.3000
0.9000 0.7000 1.0000
0.5000 0.8000 0.9000
0.3000 0.5000 0.6000
0.3000 0.4000 0.5000
0.1000 0.8000 0.5000
0.7000 0.0000 0.1000
0.1000 0.5000 0.2000
0.8000 0.5000 0.9000
0.5000 0.3000 0.6000
0.0000 0.7000 0.1000
0.5000 0.1000 0.2000
0.7000 0.9000 1.0000
0.6000 0.6000 0.9000
1.0000 0.3000 0.8000
0.1000 0.6000 0.4000
0.8000 0.0000 0.3000
0.3000 1.0000 0.8000
0.6000 0.1000 0.4000
0.8000 0.7000 1.0000
0.2000 0.3000 0.0000
0.0000 0.7000 0.2000
0.7000 0.0000 0.2000
1.0000 0.2000 0.7000
0.0000 0.8000 0.3000
0.2000 1.0000 0.7000
0.7000 0.8000 1.0000
0.3000 0.2000 0.0000
0.3000 0.6000 0.7000
0.6000 0.3000 0.7000
0.9000 0.3000 0.8000
0.3000 0.3000 0.4000
0.2000 0.9000 0.7000
0.9000 0.2000 0.7000
0.5000 0.2000 0.5000
0.2000 0.3000 0.1000
0.2000 0.5000 0.5000
0.3000 0.2000 0.1000
0.3000 0.9000 0.8000
0.5000 0.5000 0.8000
0.5000 0.7000 0.9000
0.7000 0.5000 0.9000
0.5000 0.1000 0.3000
0.7000 0.1000 0.5000
0.1000 0.7000 0.5000
0.1000 0.5000 0.3000
0.0000 0.6000 0.0000
0.6000 0.4000 0.8000
0.4000 0.6000 0.8000
0.6000 1.0000 1.0000
0.0000 1.0000 0.4000
1.0000 0.6000 1.0000
1.0000 0.0000 0.4000
0.2000 0.6000 0.6000
0.6000 0.0000 0.0000
0.6000 0.2000 0.6000
0.4000 0.2000 0.4000
0.2000 0.4000 0.4000
0.4000 0.1000 0.0000
1.0000 0.1000 0.6000
1.0000 0.4000 0.9000
0.6000 0.0000 0.1000
0.0000 0.9000 0.4000
0.1000 1.0000 0.6000
0.2000 0.8000 0.7000
0.9000 0.0000 0.4000
0.8000 0.3000 0.8000
0.9000 0.6000 1.0000
0.1000 0.4000 0.0000
0.0000 0.6000 0.1000
0.2000 0.3000 0.2000
0.6000 0.9000 1.0000
0.3000 0.8000 0.8000
0.3000 0.2000 0.2000
0.8000 0.2000 0.7000
0.4000 1.0000 0.9000
0.4000 0.9000 0.9000
0.9000 0.4000 0.9000
0.4000 0.1000 0.1000
0.7000 0.7000 1.0000
0.7000 0.0000 0.3000
0.9000 0.1000 0.6000
0.0000 0.7000 0.3000
0.1000 0.9000 0.6000
0.1000 0.4000 0.1000
0.8000 0.0000 0.4000
0.6000 0.0000 0.2000
0.0000 0.6000 0.2000
0.8000 0.6000 1.0000
0.0000 0.8000 0.4000
0.6000 0.8000 1.0000
0.8000 0.1000 0.6000
0.4000 0.3000 0.6000
0.8000 0.4000 0.9000
0.3000 0.4000 0.6000
0.4000 0.1000 0.2000
0.4000 0.8000 0.9000
0.1000 0.8000 0.6000
0.4000 0.4000 0.7000
0.1000 0.4000 0.2000
0.5000 0.6000 0.9000
0.7000 0.2000 0.7000
0.6000 0.1000 0.5000
0.7000 0.3000 0.8000
0.1000 0.6000 0.5000
0.6000 0.5000 0.9000
0.2000 0.3000 0.3000
0.1000 0.5000 0.4000
0.3000 0.7000 0.8000
0.5000 0.1000 0.4000
0.3000 0.2000 0.3000
0.2000 0.7000 0.7000
0.3000 0.5000 0.7000
0.3000 0.3000 0.5000
0.5000 0.3000 0.7000
0.5000 0.0000 0.0000
0.0000 0.7000 0.4000
0.4000 0.5000 0.8000
0.0000 1.0000 0.5000
1.0000 0.5000 1.0000
0.7000 0.0000 0.4000
0.0000 0.5000 0.0000
1.0000 0.0000 0.5000
0.0000 0.6000 0.3000
0.7000 0.6000 1.0000
0.5000 1.0000 1.0000
0.6000 0.7000 1.0000
0.5000 0.2000 0.6000
0.6000 0.0000 0.3000
0.2000 0.5000 0.6000
0.2000 0.4000 0.5000
0.4000 0.2000 0.5000
0.5000 0.4000 0.8000
0.7000 0.4000 0.9000
0.4000 0.1000 0.3000
0.7000 0.1000 0.6000
0.9000 0.0000 0.5000
0.5000 0.0000 0.1000
0.4000 0.7000 0.9000
0.0000 0.5000 0.1000
0.0000 0.9000 0.5000
0.5000 0.9000 1.0000
0.9000 0.5000 1.0000
0.1000 0.7000 0.6000
0.1000 0.4000 0.3000
0.2000 0.2000 0.0000
0.2000 1.0000 0.8000
1.0000 0.2000 0.8000
0.6000 0.3000 0.8000
0.3000 0.6000 0.8000
0.8000 0.5000 1.0000
0.8000 0.0000 0.5000
0.2000 0.3000 0.4000
0.5000 0.0000 0.2000
0.0000 0.8000 0.5000
0.0000 0.5000 0.2000
0.2000 0.6000 0.7000
0.5000 0.8000 1.0000
0.9000 0.2000 0.8000
0.2000 0.2000 0.1000
0.6000 0.2000 0.7000
0.2000 0.9000 0.8000
0.3000 0.2000 0.4000
1.0000 0.3000 0.9000
1.0000 0.1000 0.7000
0.3000 0.1000 0.0000
0.1000 0.3000 0.0000
0.1000 1.0000 0.7000
0.3000 1.0000 0.9000
0.9000 0.3000 0.9000
0.3000 0.9000 0.9000
0.1000 0.5000 0.5000
0.1000 0.9000 0.7000
0.9000 0.1000 0.7000
0.5000 0.1000 0.5000
0.3000 0.1000 0.1000
0.1000 0.3000 0.1000
0.5000 0.5000 0.9000
0.6000 0.6000 1.0000
0.2000 0.2000 0.2000
0.0000 0.6000 0.4000
0.6000 0.0000 0.4000
0.8000 0.2000 0.8000
0.2000 0.8000 0.8000
0.4000 0.6000 0.9000
0.6000 0.1000 0.6000
0.4000 0.1000 0.4000
0.1000 0.4000 0.4000
0.6000 0.4000 0.9000
0.1000 0.6000 0.6000
0.8000 0.3000 0.9000
0.4000 0.3000 0.7000
0.3000 0.4000 0.7000
0.1000 0.8000 0.7000
0.3000 0.3000 0.6000
0.8000 0.1000 0.7000
0.0000 0.7000 0.5000
0.7000 0.5000 1.0000
0.1000 0.3000 0.2000
0.7000 0.0000 0.5000
0.0000 0.5000 0.3000
0.3000 0.1000 0.2000
0.5000 0.0000 0.3000
0.3000 0.8000 0.9000
0.5000 0.7000 1.0000
1.0000 0.4000 1.0000
0.4000 1.0000 1.0000
1.0000 0.0000 0.6000
0.4000 0.0000 0.0000
0.0000 1.0000 0.6000
0.0000 0.4000 0.0000
0.4000 0.4000 0.8000
0.4000 0.2000 0.6000
0.2000 0.4000 0.6000
0.0000 0.4000 0.1000
0.4000 0.0000 0.1000
0.9000 0.4000 1.0000
0.0000 0.9000 0.6000
0.9000 0.0000 0.6000
0.7000 0.2000 0.8000
0.2000 0.2000 0.3000
0.4000 0.9000 1.0000
0.2000 0.7000 0.8000
0.5000 0.3000 0.8000
0.5000 0.2000 0.7000
0.2000 0.5000 0.7000
0.3000 0.5000 0.8000
0.2000 0.3000 0.5000
0.3000 0.2000 0.5000
0.3000 0.7000 0.9000
0.7000 0.3000 0.9000
0.7000 0.1000 0.7000
0.1000 0.3000 0.3000
0.3000 0.1000 0.3000
0.1000 0.7000 0.7000
0.4000 0.0000 0.2000
0.8000 0.0000 0.6000
0.0000 0.8000 0.6000
0.0000 0.4000 0.2000
0.8000 0.4000 1.0000
0.4000 0.8000 1.0000
0.0000 0.5000 0.4000
0.6000 0.0000 0.5000
0.6000 0.5000 1.0000
0.5000 0.6000 1.0000
0.0000 0.6000 0.5000
0.5000 0.0000 0.4000
0.4000 0.5000 0.9000
0.1000 0.5000 0.6000
0.1000 0.4000 0.5000
0.5000 0.4000 0.9000
0.4000 0.1000 0.5000
0.5000 0.1000 0.6000
0.2000 0.6000 0.8000
0.2000 0.2000 0.4000
0.6000 0.2000 0.8000
0.2000 1.0000 0.9000
0.4000 0.0000 0.3000
0.4000 0.7000 1.0000
0.7000 0.4000 1.0000
0.0000 0.4000 0.3000
1.0000 0.1000 0.8000
0.1000 0.2000 0.0000
0.0000 0.7000 0.6000
0.1000 1.0000 0.8000
0.7000 0.0000 0.6000
1.0000 0.2000 0.9000
0.2000 0.1000 0.0000
0.6000 0.3000 0.9000
0.3000 0.6000 0.9000
0.1000 0.3000 0.4000
0.2000 0.9000 0.9000
0.6000 0.1000 0.7000
0.3000 0.1000 0.4000
0.2000 0.1000 0.1000
0.9000 0.2000 0.9000
0.1000 0.6000 0.7000
0.1000 0.2000 0.1000
0.9000 0.1000 0.8000
0.1000 0.9000 0.8000
0.3000 0.3000 0.7000
0.2000 0.8000 0.9000
0.4000 0.3000 0.8000
0.1000 0.8000 0.8000
0.0000 1.0000 0.7000
1.0000 0.3000 1.0000
1.0000 0.0000 0.7000
0.0000 0.3000 0.0000
0.3000 0.0000 0.0000
0.3000 1.0000 1.0000
0.3000 0.2000 0.6000
0.8000 0.2000 0.9000
0.2000 0.1000 0.2000
0.2000 0.4000 0.7000
0.8000 0.1000 0.8000
0.3000 0.4000 0.8000
0.2000 0.3000 0.6000
0.1000 0.2000 0.2000
0.4000 0.2000 0.7000
0.0000 0.9000 0.7000
0.5000 0.0000 0.5000
0.0000 0.5000 0.5000
0.9000 0.0000 0.7000
0.9000 0.3000 1.0000
0.3000 0.0000 0.1000
0.3000 0.9000 1.0000
0.5000 0.5000 1.0000
0.0000 0.3000 0.1000
0.4000 0.6000 1.0000
0.6000 0.4000 1.0000
0.4000 0.0000 0.4000
0.0000 0.4000 0.4000
0.0000 0.6000 0.6000
0.6000 0.0000 0.6000
0.8000 0.3000 1.0000
0.4000 0.1000 0.6000
0.3000 0.8000 1.0000
0.3000 0.0000 0.2000
0.8000 0.0000 0.7000
0.0000 0.8000 0.7000
0.0000 0.3000 0.2000
0.2000 0.2000 0.5000
0.1000 0.4000 0.6000
0.4000 0.4000 0.9000
0.2000 0.5000 0.8000
0.5000 0.2000 0.8000
0.1000 0.7000 0.8000
0.2000 0.1000 0.3000
0.7000 0.1000 0.8000
0.1000 0.2000 0.3000
0.7000 0.2000 0.9000
0.2000 0.7000 0.9000
0.1000 0.5000 0.7000
0.5000 0.3000 0.9000
0.3000 0.5000 0.9000
0.5000 0.1000 0.7000
0.3000 0.1000 0.5000
0.1000 0.3000 0.5000
0.7000 0.3000 1.0000
0.3000 0.0000 0.3000
0.7000 0.0000 0.7000
0.0000 0.3000 0.3000
0.0000 0.7000 0.7000
0.3000 0.7000 1.0000
0.0000 0.4000 0.5000
0.1000 0.6000 0.8000
0.4000 0.0000 0.5000
0.4000 0.5000 1.0000
0.0000 0.5000 0.6000
0.5000 0.0000 0.6000
0.5000 0.4000 1.0000
0.2000 0.6000 0.9000
0.2000 0.1000 0.4000
0.1000 0.2000 0.4000
0.6000 0.1000 0.8000
0.6000 0.2000 0.9000
0.3000 0.3000 0.8000
1.0000 0.1000 0.9000
0.2000 0.3000 0.7000
0.1000 0.1000 0.0000
0.1000 1.0000 0.9000
0.3000 0.2000 0.7000
0.9000 0.1000 0.9000
0.1000 0.9000 0.9000
0.1000 0.1000 0.1000
0.2000 1.0000 1.0000
0.2000 0.2000 0.6000
0.0000 0.2000 0.0000
1.0000 0.2000 1.0000
0.2000 0.0000 0.0000
1.0000 0.0000 0.8000
0.0000 1.0000 0.8000
0.4000 0.2000 0.8000
0.2000 0.4000 0.8000
0.6000 0.3000 1.0000
0.3000 0.6000 1.0000
0.3000 0.0000 0.4000
0.0000 0.6000 0.7000
0.2000 0.0000 0.1000
0.0000 0.2000 0.1000
0.9000 0.2000 1.0000
0.2000 0.9000 1.0000
0.6000 0.0000 0.7000
0.9000 0.0000 0.8000
0.0000 0.3000 0.4000
0.0000 0.9000 0.8000
0.8000 0.1000 0.9000
0.4000 0.3000 0.9000
0.4000 0.1000 0.7000
0.1000 0.8000 0.9000
0.1000 0.3000 0.6000
0.3000 0.1000 0.6000
0.1000 0.4000 0.7000
0.1000 0.1000 0.2000
0.3000 0.4000 0.9000
0.8000 0.0000 0.8000
0.0000 0.2000 0.2000
0.2000 0.8000 1.0000
0.2000 0.0000 0.2000
0.8000 0.2000 1.0000
0.0000 0.8000 0.8000
0.2000 0.5000 0.9000
0.5000 0.1000 0.8000
0.1000 0.5000 0.8000
0.5000 0.2000 0.9000
0.1000 0.2000 0.5000
0.2000 0.1000 0.5000
0.7000 0.1000 0.9000
0.1000 0.7000 0.9000
0.1000 0.1000 0.3000
0.4000 0.0000 0.6000
0.0000 0.4000 0.6000
0.4000 0.4000 1.0000
0.0000 0.7000 0.8000
0.7000 0.2000 1.0000
0.0000 0.2000 0.3000
0.2000 0.0000 0.3000
0.7000 0.0000 0.8000
0.2000 0.7000 1.0000
0.0000 0.5000 0.7000
0.5000 0.0000 0.7000
0.3000 0.0000 0.5000
0.5000 0.3000 1.0000
0.3000 0.5000 1.0000
0.0000 0.3000 0.5000
0.2000 0.2000 0.7000
0.2000 0.3000 0.8000
0.3000 0.2000 0.8000
0.6000 0.1000 0.9000
0.1000 0.6000 0.9000
0.1000 0.1000 0.4000
0.3000 0.3000 0.9000
0.1000 0.3000 0.7000
0.3000 0.1000 0.7000
0.0000 0.6000 0.8000
0.2000 0.0000 0.4000
0.2000 0.6000 1.0000
0.0000 0.2000 0.4000
0.6000 0.2000 1.0000
0.6000 0.0000 0.8000
0.0000 0.1000 0.0000
0.1000 0.0000 0.0000
0.0000 1.0000 0.9000
1.0000 0.0000 0.9000
0.2000 0.1000 0.6000
0.1000 0.2000 0.6000
0.4000 0.2000 0.9000
1.0000 0.1000 1.0000
0.1000 1.0000 1.0000
0.4000 0.1000 0.8000
0.1000 0.4000 0.8000
0.2000 0.4000 0.9000
0.9000 0.1000 1.0000
0.1000 0.0000 0.1000
0.0000 0.9000 0.9000
0.0000 0.1000 0.1000
0.1000 0.9000 1.0000
0.9000 0.0000 0.9000
0.4000 0.3000 1.0000
0.0000 0.8000 0.9000
0.4000 0.0000 0.7000
0.0000 0.4000 0.7000
0.8000 0.0000 0.9000
0.1000 0.0000 0.2000
0.8000 0.1000 1.0000
0.3000 0.4000 1.0000
0.0000 0.1000 0.2000
0.1000 0.8000 1.0000
0.3000 0.0000 0.6000
0.0000 0.3000 0.6000
0.5000 0.1000 0.9000
0.1000 0.5000 0.9000
0.1000 0.1000 0.5000
0.5000 0.0000 0.8000
0.0000 0.2000 0.5000
0.2000 0.0000 0.5000
0.0000 0.5000 0.8000
0.2000 0.5000 1.0000
0.5000 0.2000 1.0000
0.0000 0.7000 0.9000
0.1000 0.0000 0.3000
0.7000 0.1000 1.0000
0.1000 0.7000 1.0000
0.0000 0.1000 0.3000
0.7000 0.0000 0.9000
0.2000 0.2000 0.8000
0.1000 0.3000 0.8000
0.2000 0.1000 0.7000
0.3000 0.1000 0.8000
0.1000 0.2000 0.7000
0.2000 0.3000 0.9000
0.3000 0.2000 0.9000
0.1000 0.0000 0.4000
0.6000 0.1000 1.0000
0.1000 0.6000 1.0000
0.0000 0.6000 0.9000
0.0000 0.1000 0.4000
0.6000 0.0000 0.9000
0.3000 0.3000 1.0000
0.3000 0.0000 0.7000
0.1000 0.1000 0.6000
0.0000 0.3000 0.7000
0.1000 0.4000 0.9000
0.4000 0.1000 0.9000
0.4000 0.0000 0.8000
0.0000 0.0000 0.0000
0.0000 1.0000 1.0000
0.0000 0.2000 0.6000
0.2000 0.4000 1.0000
1.0000 0.0000 1.0000
0.4000 0.2000 1.0000
0.2000 0.0000 0.6000
0.0000 0.4000 0.8000
0.0000 0.0000 0.1000
0.9000 0.0000 1.0000
0.0000 0.9000 1.0000
0.0000 0.0000 0.2000
0.0000 0.8000 1.0000
0.8000 0.0000 1.0000
0.5000 0.0000 0.9000
0.1000 0.0000 0.5000
0.0000 0.5000 0.9000
0.5000 0.1000 1.0000
0.0000 0.1000 0.5000
0.1000 0.5000 1.0000
0.1000 0.2000 0.8000
0.2000 0.2000 0.9000
0.0000 0.7000 1.0000
0.0000 0.0000 0.3000
0.2000 0.1000 0.8000
0.7000 0.0000 1.0000
0.1000 0.1000 0.7000
0.3000 0.1000 0.9000
0.1000 0.3000 0.9000
0.0000 0.2000 0.7000
0.2000 0.0000 0.7000
0.3000 0.0000 0.8000
0.2000 0.3000 1.0000
0.0000 0.3000 0.8000
0.3000 0.2000 1.0000
0.0000 0.6000 1.0000
0.0000 0.0000 0.4000
0.6000 0.0000 1.0000
0.0000 0.1000 0.6000
0.4000 0.1000 1.0000
0.0000 0.4000 0.9000
0.1000 0.0000 0.6000
0.1000 0.4000 1.0000
0.4000 0.0000 0.9000
0.5000 0.0000 1.0000
0.0000 0.0000 0.5000
0.0000 0.5000 1.0000
0.1000 0.2000 0.9000
0.2000 0.1000 0.9000
0.1000 0.1000 0.8000
0.2000 0.2000 1.0000
0.0000 0.2000 0.8000
0.2000 0.0000 0.8000
0.3000 0.0000 0.9000
0.1000 0.0000 0.7000
0.0000 0.1000 0.7000
0.1000 0.3000 1.0000
0.3000 0.1000 1.0000
0.0000 0.3000 0.9000
0.0000 0.0000 0.6000
0.0000 0.4000 1.0000
0.4000 0.0000 1.0000
0.1000 0.1000 0.9000
0.0000 0.2000 0.9000
0.0000 0.1000 0.8000
0.2000 0.0000 0.9000
0.2000 0.1000 1.0000
0.1000 0.0000 0.8000
0.1000 0.2000 1.0000
0.0000 0.0000 0.7000
0.0000 0.3000 1.0000
0.3000 0.0000 1.0000
0.1000 0.0000 0.9000
0.0000 0.1000 0.9000
0.1000 0.1000 1.0000
0.0000 0.2000 1.0000
0.0000 0.0000 0.8000
0.2000 0.0000 1.0000
0.1000 0.0000 1.0000
0.0000 0.1000 1.0000
0.0000 0.0000 0.9000
0.0000 0.0000 1.0000</DataArray>
         </Points>
         <Cells>
            <DataArray Name="connectivity" format="ascii" type="Int32">
 1185 1197 1108 1249
 1249 1185 1103 1108
 1257 1199 1108 1249
 1249 1184 1199 1108
 1249 1257 1197 1108
 1184 1103 1108 1249
 1113 1011 1103 1018
 1018 1108 1103 1113
 1185 1103 1108 1113
 1113 1185 1197 1108
 1113 1122 1018 1108
 1122 1197 1108 1113
 1032 909 1011 919
 919 1018 1011 1032
 1113 1011 1018 1032
 1032 1113 1122 1018
 1032 1048 919 1018
 1048 1122 1018 1032
 952 802 909 822
 822 919 909 952
 1032 909 919 952
 952 1032 1048 919
 952 959 822 919
 959 1048 919 952
 859 710 802 719
 719 822 802 859
 952 802 822 859
 859 952 959 822
 859 881 719 822
 881 959 822 859
 798 610 710 620
 620 719 710 798
 859 710 719 798
 798 859 881 719
 798 805 620 719
 805 881 719 798
 734 565 610 581
 581 620 610 734
 798 610 620 734
 734 798 805 620
 734 750 581 620
 750 805 620 734
 682 517 565 524
 524 581 565 682
 734 565 581 682
 682 734 750 581
 682 692 524 581
 692 750 581 682
 665 488 517 496
 496 524 517 665
 682 517 524 665
 665 682 692 524
 665 674 496 524
 674 692 524 665
 476 486 496 642
 642 476 488 496
 657 674 496 642
 642 665 674 496
 642 657 486 496
 665 488 496 642
 1197 1207 1137 1257
 1257 1197 1108 1137
 1260 1210 1137 1257
 1257 1199 1210 1137
 1257 1260 1207 1137
 1199 1108 1137 1257
 1122 1018 1108 1036
 1036 1137 1108 1122
 1197 1108 1137 1122
 1122 1197 1207 1137
 1122 1142 1036 1137
 1142 1207 1137 1122
 1048 919 1018 945
 945 1036 1018 1048
 1122 1018 1036 1048
 1048 1122 1142 1036
 1048 1061 945 1036
 1061 1142 1036 1048
 959 822 919 839
 839 945 919 959
 1048 919 945 959
 959 1048 1061 945
 959 979 839 945
 979 1061 945 959
 881 719 822 755
 755 839 822 881
 959 822 839 881
 881 959 979 839
 881 897 755 839
 897 979 839 881
 805 620 719 658
 658 755 719 805
 881 719 755 805
 805 881 897 755
 805 830 658 755
 830 897 755 805
 750 581 620 595
 595 658 620 750
 805 620 658 750
 750 805 830 658
 750 766 595 658
 766 830 658 750
 692 524 581 541
 541 595 581 692
 750 581 595 692
 692 750 766 595
 692 725 541 595
 725 766 595 692
 674 496 524 527
 527 541 524 674
 692 524 541 674
 674 692 725 541
 674 691 527 541
 691 725 541 674
 486 512 527 657
 657 486 496 527
 685 691 527 657
 657 674 691 527
 657 685 512 527
 674 496 527 657
 1207 1224 1153 1260
 1260 1207 1137 1153
 1272 1227 1153 1260
 1260 1210 1227 1153
 1260 1272 1224 1153
 1210 1137 1153 1260
 1142 1036 1137 1071
 1071 1153 1137 1142
 1207 1137 1153 1142
 1142 1207 1224 1153
 1142 1160 1071 1153
 1160 1224 1153 1142
 1061 945 1036 977
 977 1071 1036 1061
 1142 1036 1071 1061
 1061 1142 1160 1071
 1061 1083 977 1071
 1083 1160 1071 1061
 979 839 945 878
 878 977 945 979
 1061 945 977 979
 979 1061 1083 977
 979 1001 878 977
 1001 1083 977 979
 897 755 839 786
 786 878 839 897
 979 839 878 897
 897 979 1001 878
 897 946 786 878
 946 1001 878 897
 830 658 755 707
 707 786 755 830
 897 755 786 830
 830 897 946 786
 830 872 707 786
 872 946 786 830
 766 595 658 632
 632 707 658 766
 830 658 707 766
 766 830 872 707
 766 824 632 707
 824 872 707 766
 725 541 595 593
 593 632 595 725
 766 595 632 725
 725 766 824 632
 725 760 593 632
 760 824 632 725
 691 527 541 580
 580 593 541 691
 725 541 593 691
 691 725 760 593
 691 744 580 593
 744 760 593 691
 512 562 580 685
 685 512 527 580
 730 744 580 685
 685 691 744 580
 685 730 562 580
 691 527 580 685
 1224 1236 1174 1272
 1272 1224 1153 1174
 1285 1240 1174 1272
 1272 1227 1240 1174
 1272 1285 1236 1174
 1227 1153 1174 1272
 1160 1071 1153 1096
 1096 1174 1153 1160
 1224 1153 1174 1160
 1160 1224 1236 1174
 1160 1179 1096 1174
 1179 1236 1174 1160
 1083 977 1071 1017
 1017 1096 1071 1083
 1160 1071 1096 1083
 1083 1160 1179 1096
 1083 1120 1017 1096
 1120 1179 1096 1083
 1001 878 977 930
 930 1017 977 1001
 1083 977 1017 1001
 1001 1083 1120 1017
 1001 1054 930 1017
 1054 1120 1017 1001
 946 786 878 853
 853 930 878 946
 1001 878 930 946
 946 1001 1054 930
 946 990 853 930
 990 1054 930 946
 872 707 786 762
 762 853 786 872
 946 786 853 872
 872 946 990 853
 872 925 762 853
 925 990 853 872
 824 632 707 703
 703 762 707 824
 872 707 762 824
 824 872 925 762
 824 864 703 762
 864 925 762 824
 760 593 632 654
 654 703 632 760
 824 632 703 760
 760 824 864 703
 760 829 654 703
 829 864 703 760
 744 580 593 615
 615 654 593 744
 760 593 654 744
 744 760 829 654
 744 809 615 654
 809 829 654 744
 562 607 615 730
 730 562 580 615
 796 809 615 730
 730 744 809 615
 730 796 607 615
 744 580 615 730
 1236 1264 1216 1285
 1285 1236 1174 1216
 1294 1267 1216 1285
 1285 1240 1267 1216
 1285 1294 1264 1216
 1240 1174 1216 1285
 1179 1096 1174 1150
 1150 1216 1174 1179
 1236 1174 1216 1179
 1179 1236 1264 1216
 1179 1219 1150 1216
 1219 1264 1216 1179
 1120 1017 1096 1080
 1080 1150 1096 1120
 1179 1096 1150 1120
 1120 1179 1219 1150
 1120 1165 1080 1150
 1165 1219 1150 1120
 1054 930 1017 995
 995 1080 1017 1054
 1120 1017 1080 1054
 1054 1120 1165 1080
 1054 1090 995 1080
 1090 1165 1080 1054
 990 853 930 918
 918 995 930 990
 1054 930 995 990
 990 1054 1090 995
 990 1044 918 995
 1044 1090 995 990
 925 762 853 846
 846 918 853 925
 990 853 918 925
 925 990 1044 918
 925 986 846 918
 986 1044 918 925
 864 703 762 787
 787 846 762 864
 925 762 846 864
 864 925 986 846
 864 943 787 846
 943 986 846 864
 829 654 703 742
 742 787 703 829
 864 703 787 829
 829 864 943 787
 829 895 742 787
 895 943 787 829
 809 615 654 716
 716 742 654 809
 829 654 742 809
 809 829 895 742
 809 880 716 742
 880 895 742 809
 607 704 716 796
 796 607 615 716
 866 880 716 796
 796 809 880 716
 796 866 704 716
 809 615 716 796
 1264 1290 1244 1294
 1294 1264 1216 1244
 1308 1287 1244 1294
 1294 1267 1287 1244
 1294 1308 1290 1244
 1267 1216 1244 1294
 1219 1150 1216 1188
 1188 1244 1216 1219
 1264 1216 1244 1219
 1219 1264 1290 1244
 1219 1255 1188 1244
 1255 1290 1244 1219
 1165 1080 1150 1135
 1135 1188 1150 1165
 1219 1150 1188 1165
 1165 1219 1255 1188
 1165 1212 1135 1188
 1212 1255 1188 1165
 1090 995 1080 1059
 1059 1135 1080 1090
 1165 1080 1135 1090
 1090 1165 1212 1135
 1090 1154 1059 1135
 1154 1212 1135 1090
 1044 918 995 996
 996 1059 995 1044
 1090 995 1059 1044
 1044 1090 1154 1059
 1044 1093 996 1059
 1093 1154 1059 1044
 986 846 918 929
 929 996 918 986
 1044 918 996 986
 986 1044 1093 996
 986 1057 929 996
 1057 1093 996 986
 943 787 846 879
 879 929 846 943
 986 846 929 943
 943 986 1057 929
 943 1009 879 929
 1009 1057 929 943
 895 742 787 835
 835 879 787 895
 943 787 879 895
 895 943 1009 879
 895 980 835 879
 980 1009 879 895
 880 716 742 825
 825 835 742 880
 895 742 835 880
 880 895 980 835
 880 962 825 835
 962 980 835 880
 704 803 825 866
 866 704 716 825
 951 962 825 866
 866 880 962 825
 866 951 803 825
 880 716 825 866
 1290 1303 1275 1308
 1308 1290 1244 1275
 1318 1304 1275 1308
 1308 1287 1304 1275
 1308 1318 1303 1275
 1287 1244 1275 1308
 1255 1188 1244 1231
 1231 1275 1244 1255
 1290 1244 1275 1255
 1255 1290 1303 1275
 1255 1279 1231 1275
 1279 1303 1275 1255
 1212 1135 1188 1177
 1177 1231 1188 1212
 1255 1188 1231 1212
 1212 1255 1279 1231
 1212 1243 1177 1231
 1243 1279 1231 1212
 1154 1059 1135 1132
 1132 1177 1135 1154
 1212 1135 1177 1154
 1154 1212 1243 1177
 1154 1204 1132 1177
 1204 1243 1177 1154
 1093 996 1059 1079
 1079 1132 1059 1093
 1154 1059 1132 1093
 1093 1154 1204 1132
 1093 1164 1079 1132
 1164 1204 1132 1093
 1057 929 996 1016
 1016 1079 996 1057
 1093 996 1079 1057
 1057 1093 1164 1079
 1057 1126 1016 1079
 1126 1164 1079 1057
 1009 879 929 975
 975 1016 929 1009
 1057 929 1016 1009
 1009 1057 1126 1016
 1009 1084 975 1016
 1084 1126 1016 1009
 980 835 879 939
 939 975 879 980
 1009 879 975 980
 980 1009 1084 975
 980 1062 939 975
 1062 1084 975 980
 962 825 835 917
 917 939 835 962
 980 835 939 962
 962 980 1062 939
 962 1046 917 939
 1046 1062 939 962
 803 908 917 951
 951 803 825 917
 1030 1046 917 951
 951 962 1046 917
 951 1030 908 917
 962 825 917 951
 1303 1316 1298 1318
 1318 1303 1275 1298
 1325 1313 1298 1318
 1318 1304 1313 1298
 1318 1325 1316 1298
 1304 1275 1298 1318
 1279 1231 1275 1273
 1273 1298 1275 1279
 1303 1275 1298 1279
 1279 1303 1316 1298
 1279 1301 1273 1298
 1301 1316 1298 1279
 1243 1177 1231 1232
 1232 1273 1231 1243
 1279 1231 1273 1243
 1243 1279 1301 1273
 1243 1280 1232 1273
 1280 1301 1273 1243
 1204 1132 1177 1193
 1193 1232 1177 1204
 1243 1177 1232 1204
 1204 1243 1280 1232
 1204 1248 1193 1232
 1248 1280 1232 1204
 1164 1079 1132 1146
 1146 1193 1132 1164
 1204 1132 1193 1164
 1164 1204 1248 1193
 1164 1217 1146 1193
 1217 1248 1193 1164
 1126 1016 1079 1098
 1098 1146 1079 1126
 1164 1079 1146 1126
 1126 1164 1217 1146
 1126 1183 1098 1146
 1183 1217 1146 1126
 1084 975 1016 1072
 1072 1098 1016 1084
 1126 1016 1098 1084
 1084 1126 1183 1098
 1084 1161 1072 1098
 1161 1183 1098 1084
 1062 939 975 1038
 1038 1072 975 1062
 1084 975 1072 1062
 1062 1084 1161 1072
 1062 1139 1038 1072
 1139 1161 1072 1062
 1046 917 939 1022
 1022 1038 939 1046
 1062 939 1038 1046
 1046 1062 1139 1038
 1046 1127 1022 1038
 1127 1139 1038 1046
 908 1005 1022 1030
 1030 908 917 1022
 1114 1127 1022 1030
 1030 1046 1127 1022
 1030 1114 1005 1022
 1046 917 1022 1030
 1316 1321 1311 1325
 1325 1316 1298 1311
 1329 1322 1311 1325
 1325 1313 1322 1311
 1325 1329 1321 1311
 1313 1298 1311 1325
 1301 1273 1298 1297
 1297 1311 1298 1301
 1316 1298 1311 1301
 1301 1316 1321 1311
 1301 1314 1297 1311
 1314 1321 1311 1301
 1280 1232 1273 1276
 1276 1297 1273 1280
 1301 1273 1297 1280
 1280 1301 1314 1297
 1280 1302 1276 1297
 1302 1314 1297 1280
 1248 1193 1232 1247
 1247 1276 1232 1248
 1280 1232 1276 1248
 1248 1280 1302 1276
 1248 1292 1247 1276
 1292 1302 1276 1248
 1217 1146 1193 1214
 1214 1247 1193 1217
 1248 1193 1247 1217
 1217 1248 1292 1247
 1217 1263 1214 1247
 1263 1292 1247 1217
 1183 1098 1146 1172
 1172 1214 1146 1183
 1217 1146 1214 1183
 1183 1217 1263 1214
 1183 1241 1172 1214
 1241 1263 1214 1183
 1161 1072 1098 1151
 1151 1172 1098 1161
 1183 1098 1172 1161
 1161 1183 1241 1172
 1161 1228 1151 1172
 1228 1241 1172 1161
 1139 1038 1072 1130
 1130 1151 1072 1139
 1161 1072 1151 1139
 1139 1161 1228 1151
 1139 1206 1130 1151
 1206 1228 1151 1139
 1127 1022 1038 1106
 1106 1130 1038 1127
 1139 1038 1130 1127
 1127 1139 1206 1130
 1127 1201 1106 1130
 1201 1206 1130 1127
 1005 1101 1106 1114
 1114 1005 1022 1106
 1187 1201 1106 1114
 1114 1127 1201 1106
 1114 1187 1101 1106
 1127 1022 1106 1114
 1322 1328 1330 1311
 1311 1322 1329 1330
 1323 1327 1330 1311
 1311 1321 1327 1330
 1311 1323 1328 1330
 1321 1329 1330 1311
 1326 1315 1297 1323
 1323 1311 1297 1326
 1314 1297 1311 1326
 1326 1314 1321 1311
 1326 1327 1323 1311
 1327 1321 1311 1326
 1320 1306 1276 1315
 1315 1297 1276 1320
 1302 1276 1297 1320
 1320 1302 1314 1297
 1320 1326 1315 1297
 1326 1314 1297 1320
 1310 1288 1247 1306
 1306 1276 1247 1310
 1292 1247 1276 1310
 1310 1292 1302 1276
 1310 1320 1306 1276
 1320 1302 1276 1310
 1293 1266 1214 1288
 1288 1247 1214 1293
 1263 1214 1247 1293
 1293 1263 1292 1247
 1293 1310 1288 1247
 1310 1292 1247 1293
 1286 1237 1172 1266
 1266 1214 1172 1286
 1241 1172 1214 1286
 1286 1241 1263 1214
 1286 1293 1266 1214
 1293 1263 1214 1286
 1274 1225 1151 1237
 1237 1172 1151 1274
 1228 1151 1172 1274
 1274 1228 1241 1172
 1274 1286 1237 1172
 1286 1241 1172 1274
 1262 1208 1130 1225
 1225 1151 1130 1262
 1206 1130 1151 1262
 1262 1206 1228 1151
 1262 1274 1225 1151
 1274 1228 1151 1262
 1258 1196 1106 1208
 1208 1130 1106 1258
 1201 1106 1130 1258
 1258 1201 1206 1130
 1258 1262 1208 1130
 1262 1206 1130 1258
 1201 1258 1253 1106
 1106 1201 1187 1253
 1196 1191 1253 1106
 1106 1101 1191 1253
 1106 1196 1258 1253
 1101 1187 1253 1106
 1103 1108 1021 1184
 1184 1103 1006 1021
 1199 1123 1021 1184
 1184 1111 1123 1021
 1184 1199 1108 1021
 1111 1006 1021 1184
 1011 1018 903 1103
 1103 1011 889 903
 1108 1021 903 1103
 1103 1006 1021 903
 1103 1108 1018 903
 1006 889 903 1103
 909 919 781 1011
 1011 909 771 781
 1018 903 781 1011
 1011 889 903 781
 1011 1018 919 781
 889 771 781 1011
 802 822 670 909
 909 802 645 670
 919 781 670 909
 909 771 781 670
 909 919 822 670
 771 645 670 909
 710 719 574 802
 802 710 558 574
 822 670 574 802
 802 645 670 574
 802 822 719 574
 645 558 574 802
 610 620 484 710
 710 610 469 484
 719 574 484 710
 710 558 574 484
 710 719 620 484
 558 469 484 710
 565 581 431 610
 610 565 413 431
 620 484 431 610
 610 469 484 431
 610 620 581 431
 469 413 431 610
 517 524 396 565
 565 517 383 396
 581 431 396 565
 565 413 431 396
 565 581 524 396
 413 383 396 565
 488 496 367 517
 517 488 359 367
 524 396 367 517
 517 383 396 367
 517 524 496 367
 383 359 367 517
 343 359 488 367
 367 496 488 343
 476 488 496 343
 343 476 486 496
 343 353 367 496
 353 486 496 343
 1108 1137 1041 1199
 1199 1108 1021 1041
 1210 1140 1041 1199
 1199 1123 1140 1041
 1199 1210 1137 1041
 1123 1021 1041 1199
 1018 1036 923 1108
 1108 1018 903 923
 1137 1041 923 1108
 1108 1021 1041 923
 1108 1137 1036 923
 1021 903 923 1108
 919 945 817 1018
 1018 919 781 817
 1036 923 817 1018
 1018 903 923 817
 1018 1036 945 817
 903 781 817 1018
 822 839 689 919
 919 822 670 689
 945 817 689 919
 919 781 817 689
 919 945 839 689
 781 670 689 919
 719 755 588 822
 822 719 574 588
 839 689 588 822
 822 670 689 588
 822 839 755 588
 670 574 588 822
 620 658 509 719
 719 620 484 509
 755 588 509 719
 719 574 588 509
 719 755 658 509
 574 484 509 719
 581 595 452 620
 620 581 431 452
 658 509 452 620
 620 484 509 452
 620 658 595 452
 484 431 452 620
 524 541 409 581
 581 524 396 409
 595 452 409 581
 581 431 452 409
 581 595 541 409
 431 396 409 581
 496 527 395 524
 524 496 367 395
 541 409 395 524
 524 396 409 395
 524 541 527 395
 396 367 395 524
 353 367 496 395
 395 527 496 353
 486 496 527 353
 353 486 512 527
 353 382 395 527
 382 512 527 353
 1137 1153 1073 1210
 1210 1137 1041 1073
 1227 1159 1073 1210
 1210 1140 1159 1073
 1210 1227 1153 1073
 1140 1041 1073 1210
 1036 1071 964 1137
 1137 1036 923 964
 1153 1073 964 1137
 1137 1041 1073 964
 1137 1153 1071 964
 1041 923 964 1137
 945 977 854 1036
 1036 945 817 854
 1071 964 854 1036
 1036 923 964 854
 1036 1071 977 854
 923 817 854 1036
 839 878 738 945
 945 839 689 738
 977 854 738 945
 945 817 854 738
 945 977 878 738
 817 689 738 945
 755 786 624 839
 839 755 588 624
 878 738 624 839
 839 689 738 624
 839 878 786 624
 689 588 624 839
 658 707 559 755
 755 658 509 559
 786 624 559 755
 755 588 624 559
 755 786 707 559
 588 509 559 755
 595 632 490 658
 658 595 452 490
 707 559 490 658
 658 509 559 490
 658 707 632 490
 509 452 490 658
 541 593 455 595
 595 541 409 455
 632 490 455 595
 595 452 490 455
 595 632 593 455
 452 409 455 595
 527 580 427 541
 541 527 395 427
 593 455 427 541
 541 409 455 427
 541 593 580 427
 409 395 427 541
 382 395 527 427
 427 580 527 382
 512 527 580 382
 382 512 562 580
 382 416 427 580
 416 562 580 382
 1153 1174 1097 1227
 1227 1153 1073 1097
 1240 1181 1097 1227
 1227 1159 1181 1097
 1227 1240 1174 1097
 1159 1073 1097 1227
 1071 1096 998 1153
 1153 1071 964 998
 1174 1097 998 1153
 1153 1073 1097 998
 1153 1174 1096 998
 1073 964 998 1153
 977 1017 906 1071
 1071 977 854 906
 1096 998 906 1071
 1071 964 998 906
 1071 1096 1017 906
 964 854 906 1071
 878 930 800 977
 977 878 738 800
 1017 906 800 977
 977 854 906 800
 977 1017 930 800
 854 738 800 977
 786 853 700 878
 878 786 624 700
 930 800 700 878
 878 738 800 700
 878 930 853 700
 738 624 700 878
 707 762 605 786
 786 707 559 605
 853 700 605 786
 786 624 700 605
 786 853 762 605
 624 559 605 786
 632 703 552 707
 707 632 490 552
 762 605 552 707
 707 559 605 552
 707 762 703 552
 559 490 552 707
 593 654 506 632
 632 593 455 506
 703 552 506 632
 632 490 552 506
 632 703 654 506
 490 455 506 632
 580 615 480 593
 593 580 427 480
 654 506 480 593
 593 455 506 480
 593 654 615 480
 455 427 480 593
 416 427 580 480
 480 615 580 416
 562 580 615 416
 416 562 607 615
 416 467 480 615
 467 607 615 416
 1174 1216 1149 1240
 1240 1174 1097 1149
 1267 1218 1149 1240
 1240 1181 1218 1149
 1240 1267 1216 1149
 1181 1097 1149 1240
 1096 1150 1065 1174
 1174 1096 998 1065
 1216 1149 1065 1174
 1174 1097 1149 1065
 1174 1216 1150 1065
 1097 998 1065 1174
 1017 1080 972 1096
 1096 1017 906 972
 1150 1065 972 1096
 1096 998 1065 972
 1096 1150 1080 972
 998 906 972 1096
 930 995 875 1017
 1017 930 800 875
 1080 972 875 1017
 1017 906 972 875
 1017 1080 995 875
 906 800 875 1017
 853 918 778 930
 930 853 700 778
 995 875 778 930
 930 800 875 778
 930 995 918 778
 800 700 778 930
 762 846 698 853
 853 762 605 698
 918 778 698 853
 853 700 778 698
 853 918 846 698
 700 605 698 853
 703 787 621 762
 762 703 552 621
 846 698 621 762
 762 605 698 621
 762 846 787 621
 605 552 621 762
 654 742 586 703
 703 654 506 586
 787 621 586 703
 703 552 621 586
 703 787 742 586
 552 506 586 703
 615 716 572 654
 654 615 480 572
 742 586 572 654
 654 506 586 572
 654 742 716 572
 506 480 572 654
 467 480 615 572
 572 716 615 467
 607 615 716 467
 467 607 704 716
 467 554 572 716
 554 704 716 467
 1216 1244 1189 1267
 1267 1216 1149 1189
 1287 1251 1189 1267
 1267 1218 1251 1189
 1267 1287 1244 1189
 1218 1149 1189 1267
 1150 1188 1110 1216
 1216 1150 1065 1110
 1244 1189 1110 1216
 1216 1149 1189 1110
 1216 1244 1188 1110
 1149 1065 1110 1216
 1080 1135 1034 1150
 1150 1080 972 1034
 1188 1110 1034 1150
 1150 1065 1110 1034
 1150 1188 1135 1034
 1065 972 1034 1150
 995 1059 956 1080
 1080 995 875 956
 1135 1034 956 1080
 1080 972 1034 956
 1080 1135 1059 956
 972 875 956 1080
 918 996 871 995
 995 918 778 871
 1059 956 871 995
 995 875 956 871
 995 1059 996 871
 875 778 871 995
 846 929 799 918
 918 846 698 799
 996 871 799 918
 918 778 871 799
 918 996 929 799
 778 698 799 918
 787 879 728 846
 846 787 621 728
 929 799 728 846
 846 698 799 728
 846 929 879 728
 698 621 728 846
 742 835 687 787
 787 742 586 687
 879 728 687 787
 787 621 728 687
 787 879 835 687
 621 586 687 787
 716 825 655 742
 742 716 572 655
 835 687 655 742
 742 586 687 655
 742 835 825 655
 586 572 655 742
 554 572 716 655
 655 825 716 554
 704 716 825 554
 554 704 803 825
 554 641 655 825
 641 803 825 554
 1244 1275 1233 1287
 1287 1244 1189 1233
 1304 1278 1233 1287
 1287 1251 1278 1233
 1287 1304 1275 1233
 1251 1189 1233 1287
 1188 1231 1169 1244
 1244 1188 1110 1169
 1275 1233 1169 1244
 1244 1189 1233 1169
 1244 1275 1231 1169
 1189 1110 1169 1244
 1135 1177 1105 1188
 1188 1135 1034 1105
 1231 1169 1105 1188
 1188 1110 1169 1105
 1188 1231 1177 1105
 1110 1034 1105 1188
 1059 1132 1042 1135
 1135 1059 956 1042
 1177 1105 1042 1135
 1135 1034 1105 1042
 1135 1177 1132 1042
 1034 956 1042 1135
 996 1079 968 1059
 1059 996 871 968
 1132 1042 968 1059
 1059 956 1042 968
 1059 1132 1079 968
 956 871 968 1059
 929 1016 904 996
 996 929 799 904
 1079 968 904 996
 996 871 968 904
 996 1079 1016 904
 871 799 904 996
 879 975 845 929
 929 879 728 845
 1016 904 845 929
 929 799 904 845
 929 1016 975 845
 799 728 845 929
 835 939 818 879
 879 835 687 818
 975 845 818 879
 879 728 845 818
 879 975 939 818
 728 687 818 879
 825 917 777 835
 835 825 655 777
 939 818 777 835
 835 687 818 777
 835 939 917 777
 687 655 777 835
 641 655 825 777
 777 917 825 641
 803 825 917 641
 641 803 908 917
 641 767 777 917
 767 908 917 641
 1275 1298 1269 1304
 1304 1275 1233 1269
 1313 1300 1269 1304
 1304 1278 1300 1269
 1304 1313 1298 1269
 1278 1233 1269 1304
 1231 1273 1229 1275
 1275 1231 1169 1229
 1298 1269 1229 1275
 1275 1233 1269 1229
 1275 1298 1273 1229
 1233 1169 1229 1275
 1177 1232 1171 1231
 1231 1177 1105 1171
 1273 1229 1171 1231
 1231 1169 1229 1171
 1231 1273 1232 1171
 1169 1105 1171 1231
 1132 1193 1116 1177
 1177 1132 1042 1116
 1232 1171 1116 1177
 1177 1105 1171 1116
 1177 1232 1193 1116
 1105 1042 1116 1177
 1079 1146 1069 1132
 1132 1079 968 1069
 1193 1116 1069 1132
 1132 1042 1116 1069
 1132 1193 1146 1069
 1042 968 1069 1132
 1016 1098 999 1079
 1079 1016 904 999
 1146 1069 999 1079
 1079 968 1069 999
 1079 1146 1098 999
 968 904 999 1079
 975 1072 963 1016
 1016 975 845 963
 1098 999 963 1016
 1016 904 999 963
 1016 1098 1072 963
 904 845 963 1016
 939 1038 926 975
 975 939 818 926
 1072 963 926 975
 975 845 963 926
 975 1072 1038 926
 845 818 926 975
 917 1022 902 939
 939 917 777 902
 1038 926 902 939
 939 818 926 902
 939 1038 1022 902
 818 777 902 939
 767 777 917 902
 902 1022 917 767
 908 917 1022 767
 767 908 1005 1022
 767 891 902 1022
 891 1005 1022 767
 1298 1311 1296 1313
 1313 1298 1269 1296
 1322 1312 1296 1313
 1313 1300 1312 1296
 1313 1322 1311 1296
 1300 1269 1296 1313
 1273 1297 1270 1298
 1298 1273 1229 1270
 1311 1296 1270 1298
 1298 1269 1296 1270
 1298 1311 1297 1270
 1269 1229 1270 1298
 1232 1276 1235 1273
 1273 1232 1171 1235
 1297 1270 1235 1273
 1273 1229 1270 1235
 1273 1297 1276 1235
 1229 1171 1235 1273
 1193 1247 1190 1232
 1232 1193 1116 1190
 1276 1235 1190 1232
 1232 1171 1235 1190
 1232 1276 1247 1190
 1171 1116 1190 1232
 1146 1214 1148 1193
 1193 1146 1069 1148
 1247 1190 1148 1193
 1193 1116 1190 1148
 1193 1247 1214 1148
 1116 1069 1148 1193
 1098 1172 1099 1146
 1146 1098 999 1099
 1214 1148 1099 1146
 1146 1069 1148 1099
 1146 1214 1172 1099
 1069 999 1099 1146
 1072 1151 1074 1098
 1098 1072 963 1074
 1172 1099 1074 1098
 1098 999 1099 1074
 1098 1172 1151 1074
 999 963 1074 1098
 1038 1130 1035 1072
 1072 1038 926 1035
 1151 1074 1035 1072
 1072 963 1074 1035
 1072 1151 1130 1035
 963 926 1035 1072
 1022 1106 1019 1038
 1038 1022 902 1019
 1130 1035 1019 1038
 1038 926 1035 1019
 1038 1130 1106 1019
 926 902 1019 1038
 891 902 1022 1019
 1019 1106 1022 891
 1005 1022 1106 891
 891 1005 1101 1106
 891 1010 1019 1106
 1010 1101 1106 891
 1312 1324 1328 1296
 1296 1312 1322 1328
 1317 1323 1328 1296
 1296 1311 1323 1328
 1296 1317 1324 1328
 1311 1322 1328 1296
 1296 1317 1323 1270
 1270 1296 1311 1323
 1299 1315 1323 1270
 1270 1297 1315 1323
 1270 1299 1317 1323
 1297 1311 1323 1270
 1270 1299 1315 1235
 1235 1270 1297 1315
 1283 1306 1315 1235
 1235 1276 1306 1315
 1235 1283 1299 1315
 1276 1297 1315 1235
 1235 1283 1306 1190
 1190 1235 1276 1306
 1254 1288 1306 1190
 1190 1247 1288 1306
 1190 1254 1283 1306
 1247 1276 1306 1190
 1190 1254 1288 1148
 1148 1190 1247 1288
 1222 1266 1288 1148
 1148 1214 1266 1288
 1148 1222 1254 1288
 1214 1247 1288 1148
 1148 1222 1266 1099
 1099 1148 1214 1266
 1182 1237 1266 1099
 1099 1172 1237 1266
 1099 1182 1222 1266
 1172 1214 1266 1099
 1099 1182 1237 1074
 1074 1099 1172 1237
 1158 1225 1237 1074
 1074 1151 1225 1237
 1074 1158 1182 1237
 1151 1172 1237 1074
 1074 1158 1225 1035
 1035 1074 1151 1225
 1143 1208 1225 1035
 1035 1130 1208 1225
 1035 1143 1158 1225
 1130 1151 1225 1035
 1035 1143 1208 1019
 1019 1035 1130 1208
 1124 1196 1208 1019
 1019 1106 1196 1208
 1019 1124 1143 1208
 1106 1130 1208 1019
 1112 1124 1019 1196
 1196 1106 1019 1112
 1010 1019 1106 1112
 1112 1010 1101 1106
 1112 1191 1196 1106
 1191 1101 1106 1112
 1006 1021 920 1111
 1111 1006 910 920
 1123 1051 920 1111
 1111 1031 1051 920
 1111 1123 1021 920
 1031 910 920 1111
 889 903 779 1006
 1006 889 764 779
 1021 920 779 1006
 1006 910 920 779
 1006 1021 903 779
 910 764 779 1006
 771 781 633 889
 889 771 616 633
 903 779 633 889
 889 764 779 633
 889 903 781 633
 764 616 633 889
 645 670 526 771
 771 645 511 526
 781 633 526 771
 771 616 633 526
 771 781 670 526
 616 511 526 771
 558 574 440 645
 645 558 426 440
 670 526 440 645
 645 511 526 440
 645 670 574 440
 511 426 440 645
 469 484 365 558
 558 469 351 365
 574 440 365 558
 558 426 440 365
 558 574 484 365
 426 351 365 558
 413 431 310 469
 469 413 302 310
 484 365 310 469
 469 351 365 310
 469 484 431 310
 351 302 310 469
 383 396 278 413
 413 383 270 278
 431 310 278 413
 413 302 310 278
 413 431 396 278
 302 270 278 413
 359 367 254 383
 383 359 242 254
 396 278 254 383
 383 270 278 254
 383 396 367 254
 270 242 254 383
 235 242 359 254
 254 367 359 235
 343 359 367 235
 235 343 353 367
 235 246 254 367
 246 353 367 235
 1021 1041 942 1123
 1123 1021 920 942
 1140 1064 942 1123
 1123 1051 1064 942
 1123 1140 1041 942
 1051 920 942 1123
 903 923 814 1021
 1021 903 779 814
 1041 942 814 1021
 1021 920 942 814
 1021 1041 923 814
 920 779 814 1021
 781 817 673 903
 903 781 633 673
 923 814 673 903
 903 779 814 673
 903 923 817 673
 779 633 673 903
 670 689 540 781
 781 670 526 540
 817 673 540 781
 781 633 673 540
 781 817 689 540
 633 526 540 781
 574 588 462 670
 670 574 440 462
 689 540 462 670
 670 526 540 462
 670 689 588 462
 526 440 462 670
 484 509 387 574
 574 484 365 387
 588 462 387 574
 574 440 462 387
 574 588 509 387
 440 365 387 574
 431 452 330 484
 484 431 310 330
 509 387 330 484
 484 365 387 330
 484 509 452 330
 365 310 330 484
 396 409 297 431
 431 396 278 297
 452 330 297 431
 431 310 330 297
 431 452 409 297
 310 278 297 431
 367 395 279 396
 396 367 254 279
 409 297 279 396
 396 278 297 279
 396 409 395 279
 278 254 279 396
 246 254 367 279
 279 395 367 246
 353 367 395 246
 246 353 382 395
 246 271 279 395
 271 382 395 246
 1041 1073 976 1140
 1140 1041 942 976
 1159 1085 976 1140
 1140 1064 1085 976
 1140 1159 1073 976
 1064 942 976 1140
 923 964 850 1041
 1041 923 814 850
 1073 976 850 1041
 1041 942 976 850
 1041 1073 964 850
 942 814 850 1041
 817 854 715 923
 923 817 673 715
 964 850 715 923
 923 814 850 715
 923 964 854 715
 814 673 715 923
 689 738 592 817
 817 689 540 592
 854 715 592 817
 817 673 715 592
 817 854 738 592
 673 540 592 817
 588 624 498 689
 689 588 462 498
 738 592 498 689
 689 540 592 498
 689 738 624 498
 540 462 498 689
 509 559 424 588
 588 509 387 424
 624 498 424 588
 588 462 498 424
 588 624 559 424
 462 387 424 588
 452 490 374 509
 509 452 330 374
 559 424 374 509
 509 387 424 374
 509 559 490 374
 387 330 374 509
 409 455 331 452
 452 409 297 331
 490 374 331 452
 452 330 374 331
 452 490 455 331
 330 297 331 452
 395 427 309 409
 409 395 279 309
 455 331 309 409
 409 297 331 309
 409 455 427 309
 297 279 309 409
 271 279 395 309
 309 427 395 271
 382 395 427 271
 271 382 416 427
 271 305 309 427
 305 416 427 271
 1073 1097 1014 1159
 1159 1073 976 1014
 1181 1128 1014 1159
 1159 1085 1128 1014
 1159 1181 1097 1014
 1085 976 1014 1159
 964 998 896 1073
 1073 964 850 896
 1097 1014 896 1073
 1073 976 1014 896
 1073 1097 998 896
 976 850 896 1073
 854 906 775 964
 964 854 715 775
 998 896 775 964
 964 850 896 775
 964 998 906 775
 850 715 775 964
 738 800 653 854
 854 738 592 653
 906 775 653 854
 854 715 775 653
 854 906 800 653
 715 592 653 854
 624 700 568 738
 738 624 498 568
 800 653 568 738
 738 592 653 568
 738 800 700 568
 592 498 568 738
 559 605 474 624
 624 559 424 474
 700 568 474 624
 624 498 568 474
 624 700 605 474
 498 424 474 624
 490 552 422 559
 559 490 374 422
 605 474 422 559
 559 424 474 422
 559 605 552 422
 424 374 422 559
 455 506 388 490
 490 455 331 388
 552 422 388 490
 490 374 422 388
 490 552 506 388
 374 331 388 490
 427 480 366 455
 455 427 309 366
 506 388 366 455
 455 331 388 366
 455 506 480 366
 331 309 366 455
 305 309 427 366
 366 480 427 305
 416 427 480 305
 305 416 467 480
 305 345 366 480
 345 467 480 305
 1097 1149 1081 1181
 1181 1097 1014 1081
 1218 1168 1081 1181
 1181 1128 1168 1081
 1181 1218 1149 1081
 1128 1014 1081 1181
 998 1065 971 1097
 1097 998 896 971
 1149 1081 971 1097
 1097 1014 1081 971
 1097 1149 1065 971
 1014 896 971 1097
 906 972 857 998
 998 906 775 857
 1065 971 857 998
 998 896 971 857
 998 1065 972 857
 896 775 857 998
 800 875 740 906
 906 800 653 740
 972 857 740 906
 906 775 857 740
 906 972 875 740
 775 653 740 906
 700 778 636 800
 800 700 568 636
 875 740 636 800
 800 653 740 636
 800 875 778 636
 653 568 636 800
 605 698 567 700
 700 605 474 567
 778 636 567 700
 700 568 636 567
 700 778 698 567
 568 474 567 700
 552 621 495 605
 605 552 422 495
 698 567 495 605
 605 474 567 495
 605 698 621 495
 474 422 495 605
 506 586 460 552
 552 506 388 460
 621 495 460 552
 552 422 495 460
 552 621 586 460
 422 388 460 552
 480 572 438 506
 506 480 366 438
 586 460 438 506
 506 388 460 438
 506 586 572 438
 388 366 438 506
 345 366 480 438
 438 572 480 345
 467 480 572 345
 345 467 554 572
 345 428 438 572
 428 554 572 345
 1149 1189 1134 1218
 1218 1149 1081 1134
 1251 1213 1134 1218
 1218 1168 1213 1134
 1218 1251 1189 1134
 1168 1081 1134 1218
 1065 1110 1040 1149
 1149 1065 971 1040
 1189 1134 1040 1149
 1149 1081 1134 1040
 1149 1189 1110 1040
 1081 971 1040 1149
 972 1034 938 1065
 1065 972 857 938
 1110 1040 938 1065
 1065 971 1040 938
 1065 1110 1034 938
 971 857 938 1065
 875 956 836 972
 972 875 740 836
 1034 938 836 972
 972 857 938 836
 972 1034 956 836
 857 740 836 972
 778 871 753 875
 875 778 636 753
 956 836 753 875
 875 740 836 753
 875 956 871 753
 740 636 753 875
 698 799 651 778
 778 698 567 651
 871 753 651 778
 778 636 753 651
 778 871 799 651
 636 567 651 778
 621 728 594 698
 698 621 495 594
 799 651 594 698
 698 567 651 594
 698 799 728 594
 567 495 594 698
 586 687 547 621
 621 586 460 547
 728 594 547 621
 621 495 594 547
 621 728 687 547
 495 460 547 621
 572 655 529 586
 586 572 438 529
 687 547 529 586
 586 460 547 529
 586 687 655 529
 460 438 529 586
 428 438 572 529
 529 655 572 428
 554 572 655 428
 428 554 641 655
 428 515 529 655
 515 641 655 428
 1189 1233 1176 1251
 1251 1189 1134 1176
 1278 1245 1176 1251
 1251 1213 1245 1176
 1251 1278 1233 1176
 1213 1134 1176 1251
 1110 1169 1102 1189
 1189 1110 1040 1102
 1233 1176 1102 1189
 1189 1134 1176 1102
 1189 1233 1169 1102
 1134 1040 1102 1189
 1034 1105 1024 1110
 1110 1034 938 1024
 1169 1102 1024 1110
 1110 1040 1102 1024
 1110 1169 1105 1024
 1040 938 1024 1110
 956 1042 935 1034
 1034 956 836 935
 1105 1024 935 1034
 1034 938 1024 935
 1034 1105 1042 935
 938 836 935 1034
 871 968 858 956
 956 871 753 858
 1042 935 858 956
 956 836 935 858
 956 1042 968 858
 836 753 858 956
 799 904 773 871
 871 799 651 773
 968 858 773 871
 871 753 858 773
 871 968 904 773
 753 651 773 871
 728 845 714 799
 799 728 594 714
 904 773 714 799
 799 651 773 714
 799 904 845 714
 651 594 714 799
 687 818 675 728
 728 687 547 675
 845 714 675 728
 728 594 714 675
 728 845 818 675
 594 547 675 728
 655 777 635 687
 687 655 529 635
 818 675 635 687
 687 547 675 635
 687 818 777 635
 547 529 635 687
 515 529 655 635
 635 777 655 515
 641 655 777 515
 515 641 767 777
 515 617 635 777
 617 767 777 515
 1233 1269 1230 1278
 1278 1233 1176 1230
 1300 1282 1230 1278
 1278 1245 1282 1230
 1278 1300 1269 1230
 1245 1176 1230 1278
 1169 1229 1170 1233
 1233 1169 1102 1170
 1269 1230 1170 1233
 1233 1176 1230 1170
 1233 1269 1229 1170
 1176 1102 1170 1233
 1105 1171 1100 1169
 1169 1105 1024 1100
 1229 1170 1100 1169
 1169 1102 1170 1100
 1169 1229 1171 1100
 1102 1024 1100 1169
 1042 1116 1026 1105
 1105 1042 935 1026
 1171 1100 1026 1105
 1105 1024 1100 1026
 1105 1171 1116 1026
 1024 935 1026 1105
 968 1069 967 1042
 1042 968 858 967
 1116 1026 967 1042
 1042 935 1026 967
 1042 1116 1069 967
 935 858 967 1042
 904 999 892 968
 968 904 773 892
 1069 967 892 968
 968 858 967 892
 968 1069 999 892
 858 773 892 968
 845 963 847 904
 904 845 714 847
 999 892 847 904
 904 773 892 847
 904 999 963 847
 773 714 847 904
 818 926 810 845
 845 818 675 810
 963 847 810 845
 845 714 847 810
 845 963 926 810
 714 675 810 845
 777 902 774 818
 818 777 635 774
 926 810 774 818
 818 675 810 774
 818 926 902 774
 675 635 774 818
 617 635 777 774
 774 902 777 617
 767 777 902 617
 617 767 891 902
 617 758 774 902
 758 891 902 617
 1269 1296 1277 1300
 1300 1269 1230 1277
 1312 1307 1277 1300
 1300 1282 1307 1277
 1300 1312 1296 1277
 1282 1230 1277 1300
 1229 1270 1234 1269
 1269 1229 1170 1234
 1296 1277 1234 1269
 1269 1230 1277 1234
 1269 1296 1270 1234
 1230 1170 1234 1269
 1171 1235 1175 1229
 1229 1171 1100 1175
 1270 1234 1175 1229
 1229 1170 1234 1175
 1229 1270 1235 1175
 1170 1100 1175 1229
 1116 1190 1131 1171
 1171 1116 1026 1131
 1235 1175 1131 1171
 1171 1100 1175 1131
 1171 1235 1190 1131
 1100 1026 1131 1171
 1069 1148 1077 1116
 1116 1069 967 1077
 1190 1131 1077 1116
 1116 1026 1131 1077
 1116 1190 1148 1077
 1026 967 1077 1116
 999 1099 1012 1069
 1069 999 892 1012
 1148 1077 1012 1069
 1069 967 1077 1012
 1069 1148 1099 1012
 967 892 1012 1069
 963 1074 974 999
 999 963 847 974
 1099 1012 974 999
 999 892 1012 974
 999 1099 1074 974
 892 847 974 999
 926 1035 934 963
 963 926 810 934
 1074 974 934 963
 963 847 974 934
 963 1074 1035 934
 847 810 934 963
 902 1019 913 926
 926 902 774 913
 1035 934 913 926
 926 810 934 913
 926 1035 1019 913
 810 774 913 926
 758 774 902 913
 913 1019 902 758
 891 902 1019 758
 758 891 1010 1019
 758 907 913 1019
 907 1010 1019 758
 1307 1319 1324 1277
 1277 1307 1312 1324
 1305 1317 1324 1277
 1277 1296 1317 1324
 1277 1305 1319 1324
 1296 1312 1324 1277
 1277 1305 1317 1234
 1234 1277 1296 1317
 1281 1299 1317 1234
 1234 1270 1299 1317
 1234 1281 1305 1317
 1270 1296 1317 1234
 1234 1281 1299 1175
 1175 1234 1270 1299
 1242 1283 1299 1175
 1175 1235 1283 1299
 1175 1242 1281 1299
 1235 1270 1299 1175
 1175 1242 1283 1131
 1131 1175 1235 1283
 1202 1254 1283 1131
 1131 1190 1254 1283
 1131 1202 1242 1283
 1190 1235 1283 1131
 1131 1202 1254 1077
 1077 1131 1190 1254
 1166 1222 1254 1077
 1077 1148 1222 1254
 1077 1166 1202 1254
 1148 1190 1254 1077
 1077 1166 1222 1012
 1012 1077 1148 1222
 1118 1182 1222 1012
 1012 1099 1182 1222
 1012 1118 1166 1222
 1099 1148 1222 1012
 1012 1118 1182 974
 974 1012 1099 1182
 1082 1158 1182 974
 974 1074 1158 1182
 974 1082 1118 1182
 1074 1099 1182 974
 974 1082 1158 934
 934 974 1074 1158
 1058 1143 1158 934
 934 1035 1143 1158
 934 1058 1082 1158
 1035 1074 1158 934
 934 1058 1143 913
 913 934 1035 1143
 1047 1124 1143 913
 913 1019 1124 1143
 913 1047 1058 1143
 1019 1035 1143 913
 1029 1047 913 1124
 1124 1019 913 1029
 907 913 1019 1029
 1029 907 1010 1019
 1029 1112 1124 1019
 1112 1010 1019 1029
 910 920 828 1031
 1031 910 812 828
 1051 958 828 1031
 1031 954 958 828
 1031 1051 920 828
 954 812 828 1031
 764 779 671 910
 910 764 646 671
 920 828 671 910
 910 812 828 671
 910 920 779 671
 812 646 671 910
 616 633 531 764
 764 616 519 531
 779 671 531 764
 764 646 671 531
 764 779 633 531
 646 519 531 764
 511 526 414 616
 616 511 405 414
 633 531 414 616
 616 519 531 414
 616 633 526 414
 519 405 414 616
 426 440 338 511
 511 426 325 338
 526 414 338 511
 511 405 414 338
 511 526 440 338
 405 325 338 511
 351 365 277 426
 426 351 261 277
 440 338 277 426
 426 325 338 277
 426 440 365 277
 325 261 277 426
 302 310 227 351
 351 302 214 227
 365 277 227 351
 351 261 277 227
 351 365 310 227
 261 214 227 351
 270 278 190 302
 302 270 182 190
 310 227 190 302
 302 214 227 190
 302 310 278 190
 214 182 190 302
 242 254 173 270
 270 242 164 173
 278 190 173 270
 270 182 190 173
 270 278 254 173
 182 164 173 270
 160 164 242 173
 173 254 242 160
 235 242 254 160
 160 235 246 254
 160 167 173 254
 167 246 254 160
 920 942 843 1051
 1051 920 828 843
 1064 982 843 1051
 1051 958 982 843
 1051 1064 942 843
 958 828 843 1051
 779 814 686 920
 920 779 671 686
 942 843 686 920
 920 828 843 686
 920 942 814 686
 828 671 686 920
 633 673 544 779
 779 633 531 544
 814 686 544 779
 779 671 686 544
 779 814 673 544
 671 531 544 779
 526 540 444 633
 633 526 414 444
 673 544 444 633
 633 531 544 444
 633 673 540 444
 531 414 444 633
 440 462 354 526
 526 440 338 354
 540 444 354 526
 526 414 444 354
 526 540 462 354
 414 338 354 526
 365 387 294 440
 440 365 277 294
 462 354 294 440
 440 338 354 294
 440 462 387 294
 338 277 294 440
 310 330 231 365
 365 310 227 231
 387 294 231 365
 365 277 294 231
 365 387 330 231
 277 227 231 365
 278 297 208 310
 310 278 190 208
 330 231 208 310
 310 227 231 208
 310 330 297 208
 227 190 208 310
 254 279 187 278
 278 254 173 187
 297 208 187 278
 278 190 208 187
 278 297 279 187
 190 173 187 278
 167 173 254 187
 187 279 254 167
 246 254 279 167
 167 246 271 279
 167 178 187 279
 178 271 279 167
 942 976 888 1064
 1064 942 843 888
 1085 1004 888 1064
 1064 982 1004 888
 1064 1085 976 888
 982 843 888 1064
 814 850 737 942
 942 814 686 737
 976 888 737 942
 942 843 888 737
 942 976 850 737
 843 686 737 942
 673 715 601 814
 814 673 544 601
 850 737 601 814
 814 686 737 601
 814 850 715 601
 686 544 601 814
 540 592 475 673
 673 540 444 475
 715 601 475 673
 673 544 601 475
 673 715 592 475
 544 444 475 673
 462 498 402 540
 540 462 354 402
 592 475 402 540
 540 444 475 402
 540 592 498 402
 444 354 402 540
 387 424 328 462
 462 387 294 328
 498 402 328 462
 462 354 402 328
 462 498 424 328
 354 294 328 462
 330 374 281 387
 387 330 231 281
 424 328 281 387
 387 294 328 281
 387 424 374 281
 294 231 281 387
 297 331 233 330
 330 297 208 233
 374 281 233 330
 330 231 281 233
 330 374 331 233
 231 208 233 330
 279 309 228 297
 297 279 187 228
 331 233 228 297
 297 208 233 228
 297 331 309 228
 208 187 228 297
 178 187 279 228
 228 309 279 178
 271 279 309 178
 178 271 305 309
 178 211 228 309
 211 305 309 178
 976 1014 931 1085
 1085 976 888 931
 1128 1055 931 1085
 1085 1004 1055 931
 1085 1128 1014 931
 1004 888 931 1085
 850 896 801 976
 976 850 737 801
 1014 931 801 976
 976 888 931 801
 976 1014 896 801
 888 737 801 976
 715 775 669 850
 850 715 601 669
 896 801 669 850
 850 737 801 669
 850 896 775 669
 737 601 669 850
 592 653 538 715
 715 592 475 538
 775 669 538 715
 715 601 669 538
 715 775 653 538
 601 475 538 715
 498 568 453 592
 592 498 402 453
 653 538 453 592
 592 475 538 453
 592 653 568 453
 475 402 453 592
 424 474 381 498
 498 424 328 381
 568 453 381 498
 498 402 453 381
 498 568 474 381
 402 328 381 498
 374 422 327 424
 424 374 281 327
 474 381 327 424
 424 328 381 327
 424 474 422 327
 328 281 327 424
 331 388 293 374
 374 331 233 293
 422 327 293 374
 374 281 327 293
 374 422 388 293
 281 233 293 374
 309 366 273 331
 331 309 228 273
 388 293 273 331
 331 233 293 273
 331 388 366 273
 233 228 273 331
 211 228 309 273
 273 366 309 211
 305 309 366 211
 211 305 345 366
 211 264 273 366
 264 345 366 211
 1014 1081 993 1128
 1128 1014 931 993
 1168 1088 993 1128
 1128 1055 1088 993
 1128 1168 1081 993
 1055 931 993 1128
 896 971 874 1014
 1014 896 801 874
 1081 993 874 1014
 1014 931 993 874
 1014 1081 971 874
 931 801 874 1014
 775 857 748 896
 896 775 669 748
 971 874 748 896
 896 801 874 748
 896 971 857 748
 801 669 748 896
 653 740 606 775
 775 653 538 606
 857 748 606 775
 775 669 748 606
 775 857 740 606
 669 538 606 775
 568 636 530 653
 653 568 453 530
 740 606 530 653
 653 538 606 530
 653 740 636 530
 538 453 530 653
 474 567 454 568
 568 474 381 454
 636 530 454 568
 568 453 530 454
 568 636 567 454
 453 381 454 568
 422 495 398 474
 474 422 327 398
 567 454 398 474
 474 381 454 398
 474 567 495 398
 381 327 398 474
 388 460 344 422
 422 388 293 344
 495 398 344 422
 422 327 398 344
 422 495 460 344
 327 293 344 422
 366 438 335 388
 388 366 273 335
 460 344 335 388
 388 293 344 335
 388 460 438 335
 293 273 335 388
 264 273 366 335
 335 438 366 264
 345 366 438 264
 264 345 428 438
 264 318 335 438
 318 428 438 264
 1081 1134 1066 1168
 1168 1081 993 1066
 1213 1155 1066 1168
 1168 1088 1155 1066
 1168 1213 1134 1066
 1088 993 1066 1168
 971 1040 957 1081
 1081 971 874 957
 1134 1066 957 1081
 1081 993 1066 957
 1081 1134 1040 957
 993 874 957 1081
 857 938 838 971
 971 857 748 838
 1040 957 838 971
 971 874 957 838
 971 1040 938 838
 874 748 838 971
 740 836 724 857
 857 740 606 724
 938 838 724 857
 857 748 838 724
 857 938 836 724
 748 606 724 857
 636 753 613 740
 740 636 530 613
 836 724 613 740
 740 606 724 613
 740 836 753 613
 606 530 613 740
 567 651 539 636
 636 567 454 539
 753 613 539 636
 636 530 613 539
 636 753 651 539
 530 454 539 636
 495 594 472 567
 567 495 398 472
 651 539 472 567
 567 454 539 472
 567 651 594 472
 454 398 472 567
 460 547 446 495
 495 460 344 446
 594 472 446 495
 495 398 472 446
 495 594 547 446
 398 344 446 495
 438 529 412 460
 460 438 335 412
 547 446 412 460
 460 344 446 412
 460 547 529 412
 344 335 412 460
 318 335 438 412
 412 529 438 318
 428 438 529 318
 318 428 515 529
 318 406 412 529
 406 515 529 318
 1134 1176 1136 1213
 1213 1134 1066 1136
 1245 1205 1136 1213
 1213 1155 1205 1136
 1213 1245 1176 1136
 1155 1066 1136 1213
 1040 1102 1037 1134
 1134 1040 957 1037
 1176 1136 1037 1134
 1134 1066 1136 1037
 1134 1176 1102 1037
 1066 957 1037 1134
 938 1024 936 1040
 1040 938 838 936
 1102 1037 936 1040
 1040 957 1037 936
 1040 1102 1024 936
 957 838 936 1040
 836 935 842 938
 938 836 724 842
 1024 936 842 938
 938 838 936 842
 938 1024 935 842
 838 724 842 938
 753 858 741 836
 836 753 613 741
 935 842 741 836
 836 724 842 741
 836 935 858 741
 724 613 741 836
 651 773 667 753
 753 651 539 667
 858 741 667 753
 753 613 741 667
 753 858 773 667
 613 539 667 753
 594 714 600 651
 651 594 472 600
 773 667 600 651
 651 539 667 600
 651 773 714 600
 539 472 600 651
 547 675 551 594
 594 547 446 551
 714 600 551 594
 594 472 600 551
 594 714 675 551
 472 446 551 594
 529 635 532 547
 547 529 412 532
 675 551 532 547
 547 446 551 532
 547 675 635 532
 446 412 532 547
 406 412 529 532
 532 635 529 406
 515 529 635 406
 406 515 617 635
 406 516 532 635
 516 617 635 406
 1176 1230 1194 1245
 1245 1176 1136 1194
 1282 1256 1194 1245
 1245 1205 1256 1194
 1245 1282 1230 1194
 1205 1136 1194 1245
 1102 1170 1117 1176
 1176 1102 1037 1117
 1230 1194 1117 1176
 1176 1136 1194 1117
 1176 1230 1170 1117
 1136 1037 1117 1176
 1024 1100 1039 1102
 1102 1024 936 1039
 1170 1117 1039 1102
 1102 1037 1117 1039
 1102 1170 1100 1039
 1037 936 1039 1102
 935 1026 955 1024
 1024 935 842 955
 1100 1039 955 1024
 1024 936 1039 955
 1024 1100 1026 955
 936 842 955 1024
 858 967 876 935
 935 858 741 876
 1026 955 876 935
 935 842 955 876
 935 1026 967 876
 842 741 876 935
 773 892 791 858
 858 773 667 791
 967 876 791 858
 858 741 876 791
 858 967 892 791
 741 667 791 858
 714 847 736 773
 773 714 600 736
 892 791 736 773
 773 667 791 736
 773 892 847 736
 667 600 736 773
 675 810 678 714
 714 675 551 678
 847 736 678 714
 714 600 736 678
 714 847 810 678
 600 551 678 714
 635 774 649 675
 675 635 532 649
 810 678 649 675
 675 551 678 649
 675 810 774 649
 551 532 649 675
 516 532 635 649
 649 774 635 516
 617 635 774 516
 516 617 758 774
 516 639 649 774
 639 758 774 516
 1230 1277 1246 1282
 1282 1230 1194 1246
 1307 1289 1246 1282
 1282 1256 1289 1246
 1282 1307 1277 1246
 1256 1194 1246 1282
 1170 1234 1195 1230
 1230 1170 1117 1195
 1277 1246 1195 1230
 1230 1194 1246 1195
 1230 1277 1234 1195
 1194 1117 1195 1230
 1100 1175 1138 1170
 1170 1100 1039 1138
 1234 1195 1138 1170
 1170 1117 1195 1138
 1170 1234 1175 1138
 1117 1039 1138 1170
 1026 1131 1067 1100
 1100 1026 955 1067
 1175 1138 1067 1100
 1100 1039 1138 1067
 1100 1175 1131 1067
 1039 955 1067 1100
 967 1077 994 1026
 1026 967 876 994
 1131 1067 994 1026
 1026 955 1067 994
 1026 1131 1077 994
 955 876 994 1026
 892 1012 932 967
 967 892 791 932
 1077 994 932 967
 967 876 994 932
 967 1077 1012 932
 876 791 932 967
 847 974 877 892
 892 847 736 877
 1012 932 877 892
 892 791 932 877
 892 1012 974 877
 791 736 877 892
 810 934 837 847
 847 810 678 837
 974 877 837 847
 847 736 877 837
 847 974 934 837
 736 678 837 847
 774 913 821 810
 810 774 649 821
 934 837 821 810
 810 678 837 821
 810 934 913 821
 678 649 821 810
 639 649 774 821
 821 913 774 639
 758 774 913 639
 639 758 907 913
 639 804 821 913
 804 907 913 639
 1289 1309 1319 1246
 1246 1289 1307 1319
 1291 1305 1319 1246
 1246 1277 1305 1319
 1246 1291 1309 1319
 1277 1307 1319 1246
 1246 1291 1305 1195
 1195 1246 1277 1305
 1252 1281 1305 1195
 1195 1234 1281 1305
 1195 1252 1291 1305
 1234 1277 1305 1195
 1195 1252 1281 1138
 1138 1195 1234 1281
 1209 1242 1281 1138
 1138 1175 1242 1281
 1138 1209 1252 1281
 1175 1234 1281 1138
 1138 1209 1242 1067
 1067 1138 1175 1242
 1156 1202 1242 1067
 1067 1131 1202 1242
 1067 1156 1209 1242
 1131 1175 1242 1067
 1067 1156 1202 994
 994 1067 1131 1202
 1094 1166 1202 994
 994 1077 1166 1202
 994 1094 1156 1202
 1077 1131 1202 994
 994 1094 1166 932
 932 994 1077 1166
 1053 1118 1166 932
 932 1012 1118 1166
 932 1053 1094 1166
 1012 1077 1166 932
 932 1053 1118 877
 877 932 1012 1118
 1003 1082 1118 877
 877 974 1082 1118
 877 1003 1053 1118
 974 1012 1118 877
 877 1003 1082 837
 837 877 974 1082
 983 1058 1082 837
 837 934 1058 1082
 837 983 1003 1082
 934 974 1082 837
 837 983 1058 821
 821 837 934 1058
 960 1047 1058 821
 821 913 1047 1058
 821 960 983 1058
 913 934 1058 821
 949 960 821 1047
 1047 913 821 949
 804 821 913 949
 949 804 907 913
 949 1029 1047 913
 1029 907 913 949
 812 828 718 954
 954 812 709 718
 958 883 718 954
 954 865 883 718
 954 958 828 718
 865 709 718 954
 646 671 577 812
 812 646 555 577
 828 718 577 812
 812 709 718 577
 812 828 671 577
 709 555 577 812
 519 531 439 646
 646 519 425 439
 671 577 439 646
 646 555 577 439
 646 671 531 439
 555 425 439 646
 405 414 333 519
 519 405 321 333
 531 439 333 519
 519 425 439 333
 519 531 414 333
 425 321 333 519
 325 338 258 405
 405 325 252 258
 414 333 258 405
 405 321 333 258
 405 414 338 258
 321 252 258 405
 261 277 204 325
 325 261 198 204
 338 258 204 325
 325 252 258 204
 325 338 277 204
 252 198 204 325
 214 227 155 261
 261 214 149 155
 277 204 155 261
 261 198 204 155
 261 277 227 155
 198 149 155 261
 182 190 131 214
 214 182 123 131
 227 155 131 214
 214 149 155 131
 214 227 190 131
 149 123 131 214
 164 173 113 182
 182 164 109 113
 190 131 113 182
 182 123 131 113
 182 190 173 113
 123 109 113 182
 92 109 164 113
 113 173 164 92
 160 164 173 92
 92 160 167 173
 92 105 113 173
 105 167 173 92
 828 843 751 958
 958 828 718 751
 982 899 751 958
 958 883 899 751
 958 982 843 751
 883 718 751 958
 671 686 589 828
 828 671 577 589
 843 751 589 828
 828 718 751 589
 828 843 686 589
 718 577 589 828
 531 544 463 671
 671 531 439 463
 686 589 463 671
 671 577 589 463
 671 686 544 463
 577 439 463 671
 414 444 350 531
 531 414 333 350
 544 463 350 531
 531 439 463 350
 531 544 444 350
 439 333 350 531
 338 354 289 414
 414 338 258 289
 444 350 289 414
 414 333 350 289
 414 444 354 289
 333 258 289 414
 277 294 221 338
 338 277 204 221
 354 289 221 338
 338 258 289 221
 338 354 294 221
 258 204 221 338
 227 231 175 277
 277 227 155 175
 294 221 175 277
 277 204 221 175
 277 294 231 175
 204 155 175 277
 190 208 141 227
 227 190 131 141
 231 175 141 227
 227 155 175 141
 227 231 208 141
 155 131 141 227
 173 187 129 190
 190 173 113 129
 208 141 129 190
 190 131 141 129
 190 208 187 129
 131 113 129 190
 105 113 173 129
 129 187 173 105
 167 173 187 105
 105 167 178 187
 105 121 129 187
 121 178 187 105
 843 888 789 982
 982 843 751 789
 1004 944 789 982
 982 899 944 789
 982 1004 888 789
 899 751 789 982
 686 737 627 843
 843 686 589 627
 888 789 627 843
 843 751 789 627
 843 888 737 627
 751 589 627 843
 544 601 499 686
 686 544 463 499
 737 627 499 686
 686 589 627 499
 686 737 601 499
 589 463 499 686
 444 475 400 544
 544 444 350 400
 601 499 400 544
 544 463 499 400
 544 601 475 400
 463 350 400 544
 354 402 316 444
 444 354 289 316
 475 400 316 444
 444 350 400 316
 444 475 402 316
 350 289 316 444
 294 328 253 354
 354 294 221 253
 402 316 253 354
 354 289 316 253
 354 402 328 253
 289 221 253 354
 231 281 207 294
 294 231 175 207
 328 253 207 294
 294 221 253 207
 294 328 281 207
 221 175 207 294
 208 233 177 231
 231 208 141 177
 281 207 177 231
 231 175 207 177
 231 281 233 177
 175 141 177 231
 187 228 156 208
 208 187 129 156
 233 177 156 208
 208 141 177 156
 208 233 228 156
 141 129 156 208
 121 129 187 156
 156 228 187 121
 178 187 228 121
 121 178 211 228
 121 146 156 228
 146 211 228 121
 888 931 851 1004
 1004 888 789 851
 1055 985 851 1004
 1004 944 985 851
 1004 1055 931 851
 944 789 851 1004
 737 801 696 888
 888 737 627 696
 931 851 696 888
 888 789 851 696
 888 931 801 696
 789 627 696 888
 601 669 570 737
 737 601 499 570
 801 696 570 737
 737 627 696 570
 737 801 669 570
 627 499 570 737
 475 538 449 601
 601 475 400 449
 669 570 449 601
 601 499 570 449
 601 669 538 449
 499 400 449 601
 402 453 370 475
 475 402 316 370
 538 449 370 475
 475 400 449 370
 475 538 453 370
 400 316 370 475
 328 381 301 402
 402 328 253 301
 453 370 301 402
 402 316 370 301
 402 453 381 301
 316 253 301 402
 281 327 251 328
 328 281 207 251
 381 301 251 328
 328 253 301 251
 328 381 327 251
 253 207 251 328
 233 293 218 281
 281 233 177 218
 327 251 218 281
 281 207 251 218
 281 327 293 218
 207 177 218 281
 228 273 202 233
 233 228 156 202
 293 218 202 233
 233 177 218 202
 233 293 273 202
 177 156 202 233
 146 156 228 202
 202 273 228 146
 211 228 273 146
 146 211 264 273
 146 192 202 273
 192 264 273 146
 931 993 915 1055
 1055 931 851 915
 1088 1045 915 1055
 1055 985 1045 915
 1055 1088 993 915
 985 851 915 1055
 801 874 780 931
 931 801 696 780
 993 915 780 931
 931 851 915 780
 931 993 874 780
 851 696 780 931
 669 748 634 801
 801 669 570 634
 874 780 634 801
 801 696 780 634
 801 874 748 634
 696 570 634 801
 538 606 523 669
 669 538 449 523
 748 634 523 669
 669 570 634 523
 669 748 606 523
 570 449 523 669
 453 530 442 538
 538 453 370 442
 606 523 442 538
 538 449 523 442
 538 606 530 442
 449 370 442 538
 381 454 369 453
 453 381 301 369
 530 442 369 453
 453 370 442 369
 453 530 454 369
 370 301 369 453
 327 398 313 381
 381 327 251 313
 454 369 313 381
 381 301 369 313
 381 454 398 313
 301 251 313 381
 293 344 287 327
 327 293 218 287
 398 313 287 327
 327 251 313 287
 327 398 344 287
 251 218 287 327
 273 335 257 293
 293 273 202 257
 344 287 257 293
 293 218 287 257
 293 344 335 257
 218 202 257 293
 192 202 273 257
 257 335 273 192
 264 273 335 192
 192 264 318 335
 192 244 257 335
 244 318 335 192
 993 1066 992 1088
 1088 993 915 992
 1155 1092 992 1088
 1088 1045 1092 992
 1088 1155 1066 992
 1045 915 992 1088
 874 957 873 993
 993 874 780 873
 1066 992 873 993
 993 915 992 873
 993 1066 957 873
 915 780 873 993
 748 838 747 874
 874 748 634 747
 957 873 747 874
 874 780 873 747
 874 957 838 747
 780 634 747 874
 606 724 609 748
 748 606 523 609
 838 747 609 748
 748 634 747 609
 748 838 724 609
 634 523 609 748
 530 613 533 606
 606 530 442 533
 724 609 533 606
 606 523 609 533
 606 724 613 533
 523 442 533 606
 454 539 451 530
 530 454 369 451
 613 533 451 530
 530 442 533 451
 530 613 539 451
 442 369 451 530
 398 472 399 454
 454 398 313 399
 539 451 399 454
 454 369 451 399
 454 539 472 399
 369 313 399 454
 344 446 357 398
 398 344 287 357
 472 399 357 398
 398 313 399 357
 398 472 446 357
 313 287 357 398
 335 412 332 344
 344 335 257 332
 446 357 332 344
 344 287 357 332
 344 446 412 332
 287 257 332 344
 244 257 335 332
 332 412 335 244
 318 335 412 244
 244 318 406 412
 244 324 332 412
 324 406 412 244
 1066 1136 1076 1155
 1155 1066 992 1076
 1205 1163 1076 1155
 1155 1092 1163 1076
 1155 1205 1136 1076
 1092 992 1076 1155
 957 1037 969 1066
 1066 957 873 969
 1136 1076 969 1066
 1066 992 1076 969
 1066 1136 1037 969
 992 873 969 1066
 838 936 856 957
 957 838 747 856
 1037 969 856 957
 957 873 969 856
 957 1037 936 856
 873 747 856 957
 724 842 739 838
 838 724 609 739
 936 856 739 838
 838 747 856 739
 838 936 842 739
 747 609 739 838
 613 741 638 724
 724 613 533 638
 842 739 638 724
 724 609 739 638
 724 842 741 638
 609 533 638 724
 539 667 561 613
 613 539 451 561
 741 638 561 613
 613 533 638 561
 613 741 667 561
 533 451 561 613
 472 600 497 539
 539 472 399 497
 667 561 497 539
 539 451 561 497
 539 667 600 497
 451 399 497 539
 446 551 459 472
 472 446 357 459
 600 497 459 472
 472 399 497 459
 472 600 551 459
 399 357 459 472
 412 532 437 446
 446 412 332 437
 551 459 437 446
 446 357 459 437
 446 551 532 437
 357 332 437 446
 324 332 412 437
 437 532 412 324
 406 412 532 324
 324 406 516 532
 324 419 437 532
 419 516 532 324
 1136 1194 1147 1205
 1205 1136 1076 1147
 1256 1220 1147 1205
 1205 1163 1220 1147
 1205 1256 1194 1147
 1163 1076 1147 1205
 1037 1117 1068 1136
 1136 1037 969 1068
 1194 1147 1068 1136
 1136 1076 1147 1068
 1136 1194 1117 1068
 1076 969 1068 1136
 936 1039 970 1037
 1037 936 856 970
 1117 1068 970 1037
 1037 969 1068 970
 1037 1117 1039 970
 969 856 970 1037
 842 955 861 936
 936 842 739 861
 1039 970 861 936
 936 856 970 861
 936 1039 955 861
 856 739 861 936
 741 876 783 842
 842 741 638 783
 955 861 783 842
 842 739 861 783
 842 955 876 783
 739 638 783 842
 667 791 701 741
 741 667 561 701
 876 783 701 741
 741 638 783 701
 741 876 791 701
 638 561 701 741
 600 736 626 667
 667 600 497 626
 791 701 626 667
 667 561 701 626
 667 791 736 626
 561 497 626 667
 551 678 590 600
 600 551 459 590
 736 626 590 600
 600 497 626 590
 600 736 678 590
 497 459 590 600
 532 649 578 551
 551 532 437 578
 678 590 578 551
 551 459 590 578
 551 678 649 578
 459 437 578 551
 419 437 532 578
 578 649 532 419
 516 532 649 419
 419 516 639 649
 419 553 578 649
 553 639 649 419
 1194 1246 1215 1256
 1256 1194 1147 1215
 1289 1265 1215 1256
 1256 1220 1265 1215
 1256 1289 1246 1215
 1220 1147 1215 1256
 1117 1195 1145 1194
 1194 1117 1068 1145
 1246 1215 1145 1194
 1194 1147 1215 1145
 1194 1246 1195 1145
 1147 1068 1145 1194
 1039 1138 1078 1117
 1117 1039 970 1078
 1195 1145 1078 1117
 1117 1068 1145 1078
 1117 1195 1138 1078
 1068 970 1078 1117
 955 1067 991 1039
 1039 955 861 991
 1138 1078 991 1039
 1039 970 1078 991
 1039 1138 1067 991
 970 861 991 1039
 876 994 921 955
 955 876 783 921
 1067 991 921 955
 955 861 991 921
 955 1067 994 921
 861 783 921 955
 791 932 849 876
 876 791 701 849
 994 921 849 876
 876 783 921 849
 876 994 932 849
 783 701 849 876
 736 877 785 791
 791 736 626 785
 932 849 785 791
 791 701 849 785
 791 932 877 785
 701 626 785 791
 678 837 752 736
 736 678 590 752
 877 785 752 736
 736 626 785 752
 736 877 837 752
 626 590 752 736
 649 821 717 678
 678 649 578 717
 837 752 717 678
 678 590 752 717
 678 837 821 717
 590 578 717 678
 553 578 649 717
 717 821 649 553
 639 649 821 553
 553 639 804 821
 553 706 717 821
 706 804 821 553
 1265 1295 1309 1215
 1215 1265 1289 1309
 1268 1291 1309 1215
 1215 1246 1291 1309
 1215 1268 1295 1309
 1246 1289 1309 1215
 1215 1268 1291 1145
 1145 1215 1246 1291
 1221 1252 1291 1145
 1145 1195 1252 1291
 1145 1221 1268 1291
 1195 1246 1291 1145
 1145 1221 1252 1078
 1078 1145 1195 1252
 1167 1209 1252 1078
 1078 1138 1209 1252
 1078 1167 1221 1252
 1138 1195 1252 1078
 1078 1167 1209 991
 991 1078 1138 1209
 1091 1156 1209 991
 991 1067 1156 1209
 991 1091 1167 1209
 1067 1138 1209 991
 991 1091 1156 921
 921 991 1067 1156
 1050 1094 1156 921
 921 994 1094 1156
 921 1050 1091 1156
 994 1067 1156 921
 921 1050 1094 849
 849 921 994 1094
 987 1053 1094 849
 849 932 1053 1094
 849 987 1050 1094
 932 994 1094 849
 849 987 1053 785
 785 849 932 1053
 941 1003 1053 785
 785 877 1003 1053
 785 941 987 1053
 877 932 1053 785
 785 941 1003 752
 752 785 877 1003
 894 983 1003 752
 752 837 983 1003
 752 894 941 1003
 837 877 1003 752
 752 894 983 717
 717 752 837 983
 886 960 983 717
 717 821 960 983
 717 886 894 983
 821 837 983 717
 863 886 717 960
 960 821 717 863
 706 717 821 863
 863 706 804 821
 863 949 960 821
 949 804 821 863
 709 718 618 865
 865 709 611 618
 883 813 618 865
 865 790 813 618
 865 883 718 618
 790 611 618 865
 555 577 483 709
 709 555 468 483
 718 618 483 709
 709 611 618 483
 709 718 577 483
 611 468 483 709
 425 439 363 555
 555 425 348 363
 577 483 363 555
 555 468 483 363
 555 577 439 363
 468 348 363 555
 321 333 267 425
 425 321 260 267
 439 363 267 425
 425 348 363 267
 425 439 333 267
 348 260 267 425
 252 258 200 321
 321 252 196 200
 333 267 200 321
 321 260 267 200
 321 333 258 200
 260 196 200 321
 198 204 136 252
 252 198 133 136
 258 200 136 252
 252 196 200 136
 252 258 204 136
 196 133 136 252
 149 155 102 198
 198 149 91 102
 204 136 102 198
 198 133 136 102
 198 204 155 102
 133 91 102 198
 123 131 79 149
 149 123 77 79
 155 102 79 149
 149 91 102 79
 149 155 131 79
 91 77 79 149
 109 113 63 123
 123 109 55 63
 131 79 63 123
 123 77 79 63
 123 131 113 63
 77 55 63 123
 53 55 109 63
 63 113 109 53
 92 109 113 53
 53 92 105 113
 53 56 63 113
 56 105 113 53
 718 751 656 883
 883 718 618 656
 899 831 656 883
 883 813 831 656
 883 899 751 656
 813 618 656 883
 577 589 507 718
 718 577 483 507
 751 656 507 718
 718 618 656 507
 718 751 589 507
 618 483 507 718
 439 463 389 577
 577 439 363 389
 589 507 389 577
 577 483 507 389
 577 589 463 389
 483 363 389 577
 333 350 292 439
 439 333 267 292
 463 389 292 439
 439 363 389 292
 439 463 350 292
 363 267 292 439
 258 289 213 333
 333 258 200 213
 350 292 213 333
 333 267 292 213
 333 350 289 213
 267 200 213 333
 204 221 157 258
 258 204 136 157
 289 213 157 258
 258 200 213 157
 258 289 221 157
 200 136 157 258
 155 175 120 204
 204 155 102 120
 221 157 120 204
 204 136 157 120
 204 221 175 120
 136 102 120 204
 131 141 89 155
 155 131 79 89
 175 120 89 155
 155 102 120 89
 155 175 141 89
 102 79 89 155
 113 129 78 131
 131 113 63 78
 141 89 78 131
 131 79 89 78
 131 141 129 78
 79 63 78 131
 56 63 113 78
 78 129 113 56
 105 113 129 56
 56 105 121 129
 56 74 78 129
 74 121 129 56
 751 789 705 899
 899 751 656 705
 944 867 705 899
 899 831 867 705
 899 944 789 705
 831 656 705 899
 589 627 557 751
 751 589 507 557
 789 705 557 751
 751 656 705 557
 751 789 627 557
 656 507 557 751
 463 499 423 589
 589 463 389 423
 627 557 423 589
 589 507 557 423
 589 627 499 423
 507 389 423 589
 350 400 320 463
 463 350 292 320
 499 423 320 463
 463 389 423 320
 463 499 400 320
 389 292 320 463
 289 316 249 350
 350 289 213 249
 400 320 249 350
 350 292 320 249
 350 400 316 249
 292 213 249 350
 221 253 185 289
 289 221 157 185
 316 249 185 289
 289 213 249 185
 289 316 253 185
 213 157 185 289
 175 207 147 221
 221 175 120 147
 253 185 147 221
 221 157 185 147
 221 253 207 147
 157 120 147 221
 141 177 125 175
 175 141 89 125
 207 147 125 175
 175 120 147 125
 175 207 177 125
 120 89 125 175
 129 156 100 141
 141 129 78 100
 177 125 100 141
 141 89 125 100
 141 177 156 100
 89 78 100 141
 74 78 129 100
 100 156 129 74
 121 129 156 74
 74 121 146 156
 74 96 100 156
 96 146 156 74
 789 851 759 944
 944 789 705 759
 985 924 759 944
 944 867 924 759
 944 985 851 759
 867 705 759 944
 627 696 604 789
 789 627 557 604
 851 759 604 789
 789 705 759 604
 789 851 696 604
 705 557 604 789
 499 570 473 627
 627 499 423 473
 696 604 473 627
 627 557 604 473
 627 696 570 473
 557 423 473 627
 400 449 379 499
 499 400 320 379
 570 473 379 499
 499 423 473 379
 499 570 449 379
 423 320 379 499
 316 370 299 400
 400 316 249 299
 449 379 299 400
 400 320 379 299
 400 449 370 299
 320 249 299 400
 253 301 229 316
 316 253 185 229
 370 299 229 316
 316 249 299 229
 316 370 301 229
 249 185 229 316
 207 251 191 253
 253 207 147 191
 301 229 191 253
 253 185 229 191
 253 301 251 191
 185 147 191 253
 177 218 162 207
 207 177 125 162
 251 191 162 207
 207 147 191 162
 207 251 218 162
 147 125 162 207
 156 202 138 177
 177 156 100 138
 218 162 138 177
 177 125 162 138
 177 218 202 138
 125 100 138 177
 96 100 156 138
 138 202 156 96
 146 156 202 96
 96 146 192 202
 96 135 138 202
 135 192 202 96
 851 915 848 985
 985 851 759 848
 1045 989 848 985
 985 924 989 848
 985 1045 915 848
 924 759 848 985
 696 780 699 851
 851 696 604 699
 915 848 699 851
 851 759 848 699
 851 915 780 699
 759 604 699 851
 570 634 564 696
 696 570 473 564
 780 699 564 696
 696 604 699 564
 696 780 634 564
 604 473 564 696
 449 523 447 570
 570 449 379 447
 634 564 447 570
 570 473 564 447
 570 634 523 447
 473 379 447 570
 370 442 364 449
 449 370 299 364
 523 447 364 449
 449 379 447 364
 449 523 442 364
 379 299 364 449
 301 369 296 370
 370 301 229 296
 442 364 296 370
 370 299 364 296
 370 442 369 296
 299 229 296 370
 251 313 240 301
 301 251 191 240
 369 296 240 301
 301 229 296 240
 301 369 313 240
 229 191 240 301
 218 287 220 251
 251 218 162 220
 313 240 220 251
 251 191 240 220
 251 313 287 220
 191 162 220 251
 202 257 199 218
 218 202 138 199
 287 220 199 218
 218 162 220 199
 218 287 257 199
 162 138 199 218
 135 138 202 199
 199 257 202 135
 192 202 257 135
 135 192 244 257
 135 189 199 257
 189 244 257 135
 915 992 933 1045
 1045 915 848 933
 1092 1056 933 1045
 1045 989 1056 933
 1045 1092 992 933
 989 848 933 1045
 780 873 797 915
 915 780 699 797
 992 933 797 915
 915 848 933 797
 915 992 873 797
 848 699 797 915
 634 747 652 780
 780 634 564 652
 873 797 652 780
 780 699 797 652
 780 873 747 652
 699 564 652 780
 523 609 537 634
 634 523 447 537
 747 652 537 634
 634 564 652 537
 634 747 609 537
 564 447 537 634
 442 533 448 523
 523 442 364 448
 609 537 448 523
 523 447 537 448
 523 609 533 448
 447 364 448 523
 369 451 378 442
 442 369 296 378
 533 448 378 442
 442 364 448 378
 442 533 451 378
 364 296 378 442
 313 399 317 369
 369 313 240 317
 451 378 317 369
 369 296 378 317
 369 451 399 317
 296 240 317 369
 287 357 291 313
 313 287 220 291
 399 317 291 313
 313 240 317 291
 313 399 357 291
 240 220 291 313
 257 332 266 287
 287 257 199 266
 357 291 266 287
 287 220 291 266
 287 357 332 266
 220 199 266 287
 189 199 257 266
 266 332 257 189
 244 257 332 189
 189 244 324 332
 189 262 266 332
 262 324 332 189
 992 1076 1020 1092
 1092 992 933 1020
 1163 1121 1020 1092
 1092 1056 1121 1020
 1092 1163 1076 1020
 1056 933 1020 1092
 873 969 900 992
 992 873 797 900
 1076 1020 900 992
 992 933 1020 900
 992 1076 969 900
 933 797 900 992
 747 856 772 873
 873 747 652 772
 969 900 772 873
 873 797 900 772
 873 969 856 772
 797 652 772 873
 609 739 648 747
 747 609 537 648
 856 772 648 747
 747 652 772 648
 747 856 739 648
 652 537 648 747
 533 638 576 609
 609 533 448 576
 739 648 576 609
 609 537 648 576
 609 739 638 576
 537 448 576 609
 451 561 471 533
 533 451 378 471
 638 576 471 533
 533 448 576 471
 533 638 561 471
 448 378 471 533
 399 497 429 451
 451 399 317 429
 561 471 429 451
 451 378 471 429
 451 561 497 429
 378 317 429 451
 357 459 397 399
 399 357 291 397
 497 429 397 399
 399 317 429 397
 399 497 459 397
 317 291 397 399
 332 437 362 357
 357 332 266 362
 459 397 362 357
 357 291 397 362
 357 459 437 362
 291 266 362 357
 262 266 332 362
 362 437 332 262
 324 332 437 262
 262 324 419 437
 262 347 362 437
 347 419 437 262
 1076 1147 1089 1163
 1163 1076 1020 1089
 1220 1178 1089 1163
 1163 1121 1178 1089
 1163 1220 1147 1089
 1121 1020 1089 1163
 969 1068 997 1076
 1076 969 900 997
 1147 1089 997 1076
 1076 1020 1089 997
 1076 1147 1068 997
 1020 900 997 1076
 856 970 893 969
 969 856 772 893
 1068 997 893 969
 969 900 997 893
 969 1068 970 893
 900 772 893 969
 739 861 792 856
 856 739 648 792
 970 893 792 856
 856 772 893 792
 856 970 861 792
 772 648 792 856
 638 783 697 739
 739 638 576 697
 861 792 697 739
 739 648 792 697
 739 861 783 697
 648 576 697 739
 561 701 603 638
 638 561 471 603
 783 697 603 638
 638 576 697 603
 638 783 701 603
 576 471 603 638
 497 626 545 561
 561 497 429 545
 701 603 545 561
 561 471 603 545
 561 701 626 545
 471 429 545 561
 459 590 508 497
 497 459 397 508
 626 545 508 497
 497 429 545 508
 497 626 590 508
 429 397 508 497
 437 578 485 459
 459 437 362 485
 590 508 485 459
 459 397 508 485
 459 590 578 485
 397 362 485 459
 347 362 437 485
 485 578 437 347
 419 437 578 347
 347 419 553 578
 347 470 485 578
 470 553 578 347
 1147 1215 1173 1220
 1220 1147 1089 1173
 1265 1239 1173 1220
 1220 1178 1239 1173
 1220 1265 1215 1173
 1178 1089 1173 1220
 1068 1145 1095 1147
 1147 1068 997 1095
 1215 1173 1095 1147
 1147 1089 1173 1095
 1147 1215 1145 1095
 1089 997 1095 1147
 970 1078 1013 1068
 1068 970 893 1013
 1145 1095 1013 1068
 1068 997 1095 1013
 1068 1145 1078 1013
 997 893 1013 1068
 861 991 928 970
 970 861 792 928
 1078 1013 928 970
 970 893 1013 928
 970 1078 991 928
 893 792 928 970
 783 921 844 861
 861 783 697 844
 991 928 844 861
 861 792 928 844
 861 991 921 844
 792 697 844 861
 701 849 757 783
 783 701 603 757
 921 844 757 783
 783 697 844 757
 783 921 849 757
 697 603 757 783
 626 785 702 701
 701 626 545 702
 849 757 702 701
 701 603 757 702
 701 849 785 702
 603 545 702 701
 590 752 666 626
 626 590 508 666
 785 702 666 626
 626 545 702 666
 626 785 752 666
 545 508 666 626
 578 717 622 590
 590 578 485 622
 752 666 622 590
 590 508 666 622
 590 752 717 622
 508 485 622 590
 470 485 578 622
 622 717 578 470
 553 578 717 470
 470 553 706 717
 470 614 622 717
 614 706 717 470
 1239 1284 1295 1173
 1173 1239 1265 1295
 1238 1268 1295 1173
 1173 1215 1268 1295
 1173 1238 1284 1295
 1215 1265 1295 1173
 1173 1238 1268 1095
 1095 1173 1215 1268
 1180 1221 1268 1095
 1095 1145 1221 1268
 1095 1180 1238 1268
 1145 1215 1268 1095
 1095 1180 1221 1013
 1013 1095 1145 1221
 1119 1167 1221 1013
 1013 1078 1167 1221
 1013 1119 1180 1221
 1078 1145 1221 1013
 1013 1119 1167 928
 928 1013 1078 1167
 1052 1091 1167 928
 928 991 1091 1167
 928 1052 1119 1167
 991 1078 1167 928
 928 1052 1091 844
 844 928 991 1091
 988 1050 1091 844
 844 921 1050 1091
 844 988 1052 1091
 921 991 1091 844
 844 988 1050 757
 757 844 921 1050
 922 987 1050 757
 757 849 987 1050
 757 922 988 1050
 849 921 1050 757
 757 922 987 702
 702 757 849 987
 868 941 987 702
 702 785 941 987
 702 868 922 987
 785 849 987 702
 702 868 941 666
 666 702 785 941
 832 894 941 666
 666 752 894 941
 666 832 868 941
 752 785 941 666
 666 832 894 622
 622 666 752 894
 811 886 894 622
 622 717 886 894
 622 811 832 894
 717 752 894 622
 795 811 622 886
 886 717 622 795
 614 622 717 795
 795 614 706 717
 795 863 886 717
 863 706 717 795
 611 618 582 790
 790 611 571 582
 813 754 582 790
 790 729 754 582
 790 813 618 582
 729 571 582 790
 468 483 436 611
 611 468 417 436
 618 582 436 611
 611 571 582 436
 611 618 483 436
 571 417 436 611
 348 363 314 468
 468 348 307 314
 483 436 314 468
 468 417 436 314
 468 483 363 314
 417 307 314 468
 260 267 224 348
 348 260 212 224
 363 314 224 348
 348 307 314 224
 348 363 267 224
 307 212 224 348
 196 200 153 260
 260 196 150 153
 267 224 153 260
 260 212 224 153
 260 267 200 153
 212 150 153 260
 133 136 99 196
 196 133 90 99
 200 153 99 196
 196 150 153 99
 196 200 136 99
 150 90 99 196
 91 102 69 133
 133 91 64 69
 136 99 69 133
 133 90 99 69
 133 136 102 69
 90 64 69 133
 77 79 45 91
 91 77 39 45
 102 69 45 91
 91 64 69 45
 91 102 79 45
 64 39 45 91
 55 63 35 77
 77 55 29 35
 79 45 35 77
 77 39 45 35
 77 79 63 35
 39 29 35 77
 26 29 55 35
 35 63 55 26
 53 55 63 26
 26 53 56 63
 26 33 35 63
 33 56 63 26
 618 656 597 813
 813 618 582 597
 831 765 597 813
 813 754 765 597
 813 831 656 597
 754 582 597 813
 483 507 458 618
 618 483 436 458
 656 597 458 618
 618 582 597 458
 618 656 507 458
 582 436 458 618
 363 389 334 483
 483 363 314 334
 507 458 334 483
 483 436 458 334
 483 507 389 334
 436 314 334 483
 267 292 237 363
 363 267 224 237
 389 334 237 363
 363 314 334 237
 363 389 292 237
 314 224 237 363
 200 213 174 267
 267 200 153 174
 292 237 174 267
 267 224 237 174
 267 292 213 174
 224 153 174 267
 136 157 117 200
 200 136 99 117
 213 174 117 200
 200 153 174 117
 200 213 157 117
 153 99 117 200
 102 120 85 136
 136 102 69 85
 157 117 85 136
 136 99 117 85
 136 157 120 85
 99 69 85 136
 79 89 54 102
 102 79 45 54
 120 85 54 102
 102 69 85 54
 102 120 89 54
 69 45 54 102
 63 78 46 79
 79 63 35 46
 89 54 46 79
 79 45 54 46
 79 89 78 46
 45 35 46 79
 33 35 63 46
 46 78 63 33
 56 63 78 33
 33 56 74 78
 33 43 46 78
 43 74 78 33
 656 705 637 831
 831 656 597 637
 867 826 637 831
 831 765 826 637
 831 867 705 637
 765 597 637 831
 507 557 493 656
 656 507 458 493
 705 637 493 656
 656 597 637 493
 656 705 557 493
 597 458 493 656
 389 423 376 507
 507 389 334 376
 557 493 376 507
 507 458 493 376
 507 557 423 376
 458 334 376 507
 292 320 280 389
 389 292 237 280
 423 376 280 389
 389 334 376 280
 389 423 320 280
 334 237 280 389
 213 249 206 292
 292 213 174 206
 320 280 206 292
 292 237 280 206
 292 320 249 206
 237 174 206 292
 157 185 142 213
 213 157 117 142
 249 206 142 213
 213 174 206 142
 213 249 185 142
 174 117 142 213
 120 147 111 157
 157 120 85 111
 185 142 111 157
 157 117 142 111
 157 185 147 111
 117 85 111 157
 89 125 84 120
 120 89 54 84
 147 111 84 120
 120 85 111 84
 120 147 125 84
 85 54 84 120
 78 100 70 89
 89 78 46 70
 125 84 70 89
 89 54 84 70
 89 125 100 70
 54 46 70 89
 43 46 78 70
 70 100 78 43
 74 78 100 43
 43 74 96 100
 43 65 70 100
 65 96 100 43
 705 759 712 867
 867 705 637 712
 924 860 712 867
 867 826 860 712
 867 924 759 712
 826 637 712 867
 557 604 560 705
 705 557 493 560
 759 712 560 705
 705 637 712 560
 705 759 604 560
 637 493 560 705
 423 473 433 557
 557 423 376 433
 604 560 433 557
 557 493 560 433
 557 604 473 433
 493 376 433 557
 320 379 326 423
 423 320 280 326
 473 433 326 423
 423 376 433 326
 423 473 379 326
 376 280 326 423
 249 299 247 320
 320 249 206 247
 379 326 247 320
 320 280 326 247
 320 379 299 247
 280 206 247 320
 185 229 186 249
 249 185 142 186
 299 247 186 249
 249 206 247 186
 249 299 229 186
 206 142 186 249
 147 191 143 185
 185 147 111 143
 229 186 143 185
 185 142 186 143
 185 229 191 143
 142 111 143 185
 125 162 115 147
 147 125 84 115
 191 143 115 147
 147 111 143 115
 147 191 162 115
 111 84 115 147
 100 138 101 125
 125 100 70 101
 162 115 101 125
 125 84 115 101
 125 162 138 101
 84 70 101 125
 65 70 100 101
 101 138 100 65
 96 100 138 65
 65 96 135 138
 65 97 101 138
 97 135 138 65
 759 848 788 924
 924 759 712 788
 989 940 788 924
 924 860 940 788
 924 989 848 788
 860 712 788 924
 604 699 628 759
 759 604 560 628
 848 788 628 759
 759 712 788 628
 759 848 699 628
 712 560 628 759
 473 564 501 604
 604 473 433 501
 699 628 501 604
 604 560 628 501
 604 699 564 501
 560 433 501 604
 379 447 401 473
 473 379 326 401
 564 501 401 473
 473 433 501 401
 473 564 447 401
 433 326 401 473
 299 364 312 379
 379 299 247 312
 447 401 312 379
 379 326 401 312
 379 447 364 312
 326 247 312 379
 229 296 245 299
 299 229 186 245
 364 312 245 299
 299 247 312 245
 299 364 296 245
 247 186 245 299
 191 240 205 229
 229 191 143 205
 296 245 205 229
 229 186 245 205
 229 296 240 205
 186 143 205 229
 162 220 169 191
 191 162 115 169
 240 205 169 191
 191 143 205 169
 191 240 220 169
 143 115 169 191
 138 199 151 162
 162 138 101 151
 220 169 151 162
 162 115 169 151
 162 220 199 151
 115 101 151 162
 97 101 138 151
 151 199 138 97
 135 138 199 97
 97 135 189 199
 97 148 151 199
 148 189 199 97
 848 933 887 989
 989 848 788 887
 1056 1007 887 989
 989 940 1007 887
 989 1056 933 887
 940 788 887 989
 699 797 735 848
 848 699 628 735
 933 887 735 848
 848 788 887 735
 848 933 797 735
 788 628 735 848
 564 652 602 699
 699 564 501 602
 797 735 602 699
 699 628 735 602
 699 797 652 602
 628 501 602 699
 447 537 478 564
 564 447 401 478
 652 602 478 564
 564 501 602 478
 564 652 537 478
 501 401 478 564
 364 448 403 447
 447 364 312 403
 537 478 403 447
 447 401 478 403
 447 537 448 403
 401 312 403 447
 296 378 323 364
 364 296 245 323
 448 403 323 364
 364 312 403 323
 364 448 378 323
 312 245 323 364
 240 317 285 296
 296 240 205 285
 378 323 285 296
 296 245 323 285
 296 378 317 285
 245 205 285 296
 220 291 230 240
 240 220 169 230
 317 285 230 240
 240 205 285 230
 240 317 291 230
 205 169 230 240
 199 266 223 220
 220 199 151 223
 291 230 223 220
 220 169 230 223
 220 291 266 223
 169 151 223 220
 148 151 199 223
 223 266 199 148
 189 199 266 148
 148 189 262 266
 148 219 223 266
 219 262 266 148
 933 1020 978 1056
 1056 933 887 978
 1121 1086 978 1056
 1056 1007 1086 978
 1056 1121 1020 978
 1007 887 978 1056
 797 900 855 933
 933 797 735 855
 1020 978 855 933
 933 887 978 855
 933 1020 900 855
 887 735 855 933
 652 772 720 797
 797 652 602 720
 900 855 720 797
 797 735 855 720
 797 900 772 720
 735 602 720 797
 537 648 596 652
 652 537 478 596
 772 720 596 652
 652 602 720 596
 652 772 648 596
 602 478 596 652
 448 576 500 537
 537 448 403 500
 648 596 500 537
 537 478 596 500
 537 648 576 500
 478 403 500 537
 378 471 421 448
 448 378 323 421
 576 500 421 448
 448 403 500 421
 448 576 471 421
 403 323 421 448
 317 429 375 378
 378 317 285 375
 471 421 375 378
 378 323 421 375
 378 471 429 375
 323 285 375 378
 291 397 329 317
 317 291 230 329
 429 375 329 317
 317 285 375 329
 317 429 397 329
 285 230 329 317
 266 362 308 291
 291 266 223 308
 397 329 308 291
 291 230 329 308
 291 397 362 308
 230 223 308 291
 219 223 266 308
 308 362 266 219
 262 266 362 219
 219 262 347 362
 219 303 308 362
 303 347 362 219
 1020 1089 1070 1121
 1121 1020 978 1070
 1178 1157 1070 1121
 1121 1086 1157 1070
 1121 1178 1089 1070
 1086 978 1070 1121
 900 997 966 1020
 1020 900 855 966
 1089 1070 966 1020
 1020 978 1070 966
 1020 1089 997 966
 978 855 966 1020
 772 893 852 900
 900 772 720 852
 997 966 852 900
 900 855 966 852
 900 997 893 852
 855 720 852 900
 648 792 727 772
 772 648 596 727
 893 852 727 772
 772 720 852 727
 772 893 792 727
 720 596 727 772
 576 697 623 648
 648 576 500 623
 792 727 623 648
 648 596 727 623
 648 792 697 623
 596 500 623 648
 471 603 546 576
 576 471 421 546
 697 623 546 576
 576 500 623 546
 576 697 603 546
 500 421 546 576
 429 545 491 471
 471 429 375 491
 603 546 491 471
 471 421 546 491
 471 603 545 491
 421 375 491 471
 397 508 457 429
 429 397 329 457
 545 491 457 429
 429 375 491 457
 429 545 508 457
 375 329 457 429
 362 485 435 397
 397 362 308 435
 508 457 435 397
 397 329 457 435
 397 508 485 435
 329 308 435 397
 303 308 362 435
 435 485 362 303
 347 362 485 303
 303 347 470 485
 303 418 435 485
 418 470 485 303
 1089 1173 1152 1178
 1178 1089 1070 1152
 1239 1223 1152 1178
 1178 1157 1223 1152
 1178 1239 1173 1152
 1157 1070 1152 1178
 997 1095 1075 1089
 1089 997 966 1075
 1173 1152 1075 1089
 1089 1070 1152 1075
 1089 1173 1095 1075
 1070 966 1075 1089
 893 1013 973 997
 997 893 852 973
 1095 1075 973 997
 997 966 1075 973
 997 1095 1013 973
 966 852 973 997
 792 928 882 893
 893 792 727 882
 1013 973 882 893
 893 852 973 882
 893 1013 928 882
 852 727 882 893
 697 844 784 792
 792 697 623 784
 928 882 784 792
 792 727 882 784
 792 928 844 784
 727 623 784 792
 603 757 711 697
 697 603 546 711
 844 784 711 697
 697 623 784 711
 697 844 757 711
 623 546 711 697
 545 702 630 603
 603 545 491 630
 757 711 630 603
 603 546 711 630
 603 757 702 630
 546 491 630 603
 508 666 591 545
 545 508 457 591
 702 630 591 545
 545 491 630 591
 545 702 666 591
 491 457 591 545
 485 622 579 508
 508 485 435 579
 666 591 579 508
 508 457 591 579
 508 666 622 579
 457 435 579 508
 418 435 485 579
 579 622 485 418
 470 485 622 418
 418 470 614 622
 418 566 579 622
 566 614 622 418
 1223 1271 1284 1152
 1152 1223 1239 1284
 1226 1238 1284 1152
 1152 1173 1238 1284
 1152 1226 1271 1284
 1173 1239 1284 1152
 1152 1226 1238 1075
 1075 1152 1173 1238
 1162 1180 1238 1075
 1075 1095 1180 1238
 1075 1162 1226 1238
 1095 1173 1238 1075
 1075 1162 1180 973
 973 1075 1095 1180
 1087 1119 1180 973
 973 1013 1119 1180
 973 1087 1162 1180
 1013 1095 1180 973
 973 1087 1119 882
 882 973 1013 1119
 1002 1052 1119 882
 882 928 1052 1119
 882 1002 1087 1119
 928 1013 1119 882
 882 1002 1052 784
 784 882 928 1052
 948 988 1052 784
 784 844 988 1052
 784 948 1002 1052
 844 928 1052 784
 784 948 988 711
 711 784 844 988
 870 922 988 711
 711 757 922 988
 711 870 948 988
 757 844 988 711
 711 870 922 630
 630 711 757 922
 823 868 922 630
 630 702 868 922
 630 823 870 922
 702 757 922 630
 630 823 868 591
 591 630 702 868
 763 832 868 591
 591 666 832 868
 591 763 823 868
 666 702 868 591
 591 763 832 579
 579 591 666 832
 745 811 832 579
 579 622 811 832
 579 745 763 832
 622 666 832 579
 732 745 579 811
 811 622 579 732
 566 579 622 732
 732 566 614 622
 732 795 811 622
 795 614 622 732
 571 582 534 729
 729 571 518 534
 754 693 534 729
 729 680 693 534
 729 754 582 534
 680 518 534 729
 417 436 394 571
 571 417 384 394
 582 534 394 571
 571 518 534 394
 571 582 436 394
 518 384 394 571
 307 314 283 417
 417 307 272 283
 436 394 283 417
 417 384 394 283
 417 436 314 283
 384 272 283 417
 212 224 197 307
 307 212 183 197
 314 283 197 307
 307 272 283 197
 307 314 224 197
 272 183 197 307
 150 153 132 212
 212 150 124 132
 224 197 132 212
 212 183 197 132
 212 224 153 132
 183 124 132 212
 90 99 81 150
 150 90 76 81
 153 132 81 150
 150 124 132 81
 150 153 99 81
 124 76 81 150
 64 69 49 90
 90 64 44 49
 99 81 49 90
 90 76 81 49
 90 99 69 49
 76 44 49 90
 39 45 27 64
 64 39 22 27
 69 49 27 64
 64 44 49 27
 64 69 45 27
 44 22 27 64
 29 35 18 39
 39 29 14 18
 45 27 18 39
 39 22 27 18
 39 45 35 18
 22 14 18 39
 8 14 29 18
 18 35 29 8
 26 29 35 8
 8 26 33 35
 8 13 18 35
 13 33 35 8
 582 597 549 754
 754 582 534 549
 765 723 549 754
 754 693 723 549
 754 765 597 549
 693 534 549 754
 436 458 408 582
 582 436 394 408
 597 549 408 582
 582 534 549 408
 582 597 458 408
 534 394 408 582
 314 334 298 436
 436 314 283 298
 458 408 298 436
 436 394 408 298
 436 458 334 298
 394 283 298 436
 224 237 210 314
 314 224 197 210
 334 298 210 314
 314 283 298 210
 314 334 237 210
 283 197 210 314
 153 174 139 224
 224 153 132 139
 237 210 139 224
 224 197 210 139
 224 237 174 139
 197 132 139 224
 99 117 87 153
 153 99 81 87
 174 139 87 153
 153 132 139 87
 153 174 117 87
 132 81 87 153
 69 85 62 99
 99 69 49 62
 117 87 62 99
 99 81 87 62
 99 117 85 62
 81 49 62 99
 45 54 38 69
 69 45 27 38
 85 62 38 69
 69 49 62 38
 69 85 54 38
 49 27 38 69
 35 46 24 45
 45 35 18 24
 54 38 24 45
 45 27 38 24
 45 54 46 24
 27 18 24 45
 13 18 35 24
 24 46 35 13
 33 35 46 13
 13 33 43 46
 13 21 24 46
 21 43 46 13
 597 637 599 765
 765 597 549 599
 826 768 599 765
 765 723 768 599
 765 826 637 599
 723 549 599 765
 458 493 456 597
 597 458 408 456
 637 599 456 597
 597 549 599 456
 597 637 493 456
 549 408 456 597
 334 376 337 458
 458 334 298 337
 493 456 337 458
 458 408 456 337
 458 493 376 337
 408 298 337 458
 237 280 238 334
 334 237 210 238
 376 337 238 334
 334 298 337 238
 334 376 280 238
 298 210 238 334
 174 206 176 237
 237 174 139 176
 280 238 176 237
 237 210 238 176
 237 280 206 176
 210 139 176 237
 117 142 122 174
 174 117 87 122
 206 176 122 174
 174 139 176 122
 174 206 142 122
 139 87 122 174
 85 111 86 117
 117 85 62 86
 142 122 86 117
 117 87 122 86
 117 142 111 86
 87 62 86 117
 54 84 59 85
 85 54 38 59
 111 86 59 85
 85 62 86 59
 85 111 84 59
 62 38 59 85
 46 70 47 54
 54 46 24 47
 84 59 47 54
 54 38 59 47
 54 84 70 47
 38 24 47 54
 21 24 46 47
 47 70 46 21
 43 46 70 21
 21 43 65 70
 21 40 47 70
 40 65 70 21
 637 712 668 826
 826 637 599 668
 860 833 668 826
 826 768 833 668
 826 860 712 668
 768 599 668 826
 493 560 505 637
 637 493 456 505
 712 668 505 637
 637 599 668 505
 637 712 560 505
 599 456 505 637
 376 433 390 493
 493 376 337 390
 560 505 390 493
 493 456 505 390
 493 560 433 390
 456 337 390 493
 280 326 295 376
 376 280 238 295
 433 390 295 376
 376 337 390 295
 376 433 326 295
 337 238 295 376
 206 247 222 280
 280 206 176 222
 326 295 222 280
 280 238 295 222
 280 326 247 222
 238 176 222 280
 142 186 161 206
 206 142 122 161
 247 222 161 206
 206 176 222 161
 206 247 186 161
 176 122 161 206
 111 143 126 142
 142 111 86 126
 186 161 126 142
 142 122 161 126
 142 186 143 126
 122 86 126 142
 84 115 88 111
 111 84 59 88
 143 126 88 111
 111 86 126 88
 111 143 115 88
 86 59 88 111
 70 101 80 84
 84 70 47 80
 115 88 80 84
 84 59 88 80
 84 115 101 80
 59 47 80 84
 40 47 70 80
 80 101 70 40
 65 70 101 40
 40 65 97 101
 40 72 80 101
 72 97 101 40
 712 788 749 860
 860 712 668 749
 940 898 749 860
 860 833 898 749
 860 940 788 749
 833 668 749 860
 560 628 587 712
 712 560 505 587
 788 749 587 712
 712 668 749 587
 712 788 628 587
 668 505 587 712
 433 501 461 560
 560 433 390 461
 628 587 461 560
 560 505 587 461
 560 628 501 461
 505 390 461 560
 326 401 346 433
 433 326 295 346
 501 461 346 433
 433 390 461 346
 433 501 401 346
 390 295 346 433
 247 312 288 326
 326 247 222 288
 401 346 288 326
 326 295 346 288
 326 401 312 288
 295 222 288 326
 186 245 217 247
 247 186 161 217
 312 288 217 247
 247 222 288 217
 247 312 245 217
 222 161 217 247
 143 205 170 186
 186 143 126 170
 245 217 170 186
 186 161 217 170
 186 245 205 170
 161 126 170 186
 115 169 137 143
 143 115 88 137
 205 170 137 143
 143 126 170 137
 143 205 169 137
 126 88 137 143
 101 151 127 115
 115 101 80 127
 169 137 127 115
 115 88 137 127
 115 169 151 127
 88 80 127 115
 72 80 101 127
 127 151 101 72
 97 101 151 72
 72 97 148 151
 72 116 127 151
 116 148 151 72
 788 887 841 940
 940 788 749 841
 1007 981 841 940
 940 898 981 841
 940 1007 887 841
 898 749 841 940
 628 735 688 788
 788 628 587 688
 887 841 688 788
 788 749 841 688
 788 887 735 688
 749 587 688 788
 501 602 543 628
 628 501 461 543
 735 688 543 628
 628 587 688 543
 628 735 602 543
 587 461 543 628
 401 478 445 501
 501 401 346 445
 602 543 445 501
 501 461 543 445
 501 602 478 445
 461 346 445 501
 312 403 360 401
 401 312 288 360
 478 445 360 401
 401 346 445 360
 401 478 403 360
 346 288 360 401
 245 323 290 312
 312 245 217 290
 403 360 290 312
 312 288 360 290
 312 403 323 290
 288 217 290 312
 205 285 236 245
 245 205 170 236
 323 290 236 245
 245 217 290 236
 245 323 285 236
 217 170 236 245
 169 230 209 205
 205 169 137 209
 285 236 209 205
 205 170 236 209
 205 285 230 209
 170 137 209 205
 151 223 184 169
 169 151 127 184
 230 209 184 169
 169 137 209 184
 169 230 223 184
 137 127 184 169
 116 127 151 184
 184 223 151 116
 148 151 223 116
 116 148 219 223
 116 181 184 223
 181 219 223 116
 887 978 937 1007
 1007 887 841 937
 1086 1063 937 1007
 1007 981 1063 937
 1007 1086 978 937
 981 841 937 1007
 735 855 808 887
 887 735 688 808
 978 937 808 887
 887 841 937 808
 887 978 855 808
 841 688 808 887
 602 720 672 735
 735 602 543 672
 855 808 672 735
 735 688 808 672
 735 855 720 672
 688 543 672 735
 478 596 548 602
 602 478 445 548
 720 672 548 602
 602 543 672 548
 602 720 596 548
 543 445 548 602
 403 500 464 478
 478 403 360 464
 596 548 464 478
 478 445 548 464
 478 596 500 464
 445 360 464 478
 323 421 393 403
 403 323 290 393
 500 464 393 403
 403 360 464 393
 403 500 421 393
 360 290 393 403
 285 375 339 323
 323 285 236 339
 421 393 339 323
 323 290 393 339
 323 421 375 339
 290 236 339 323
 230 329 300 285
 285 230 209 300
 375 339 300 285
 285 236 339 300
 285 375 329 300
 236 209 300 285
 223 308 284 230
 230 223 184 284
 329 300 284 230
 230 209 300 284
 230 329 308 284
 209 184 284 230
 181 184 223 284
 284 308 223 181
 219 223 308 181
 181 219 303 308
 181 269 284 308
 269 303 308 181
 978 1070 1027 1086
 1086 978 937 1027
 1157 1144 1027 1086
 1086 1063 1144 1027
 1086 1157 1070 1027
 1063 937 1027 1086
 855 966 927 978
 978 855 808 927
 1070 1027 927 978
 978 937 1027 927
 978 1070 966 927
 937 808 927 978
 720 852 816 855
 855 720 672 816
 966 927 816 855
 855 808 927 816
 855 966 852 816
 808 672 816 855
 596 727 679 720
 720 596 548 679
 852 816 679 720
 720 672 816 679
 720 852 727 679
 672 548 679 720
 500 623 585 596
 596 500 464 585
 727 679 585 596
 596 548 679 585
 596 727 623 585
 548 464 585 596
 421 546 504 500
 500 421 393 504
 623 585 504 500
 500 464 585 504
 500 623 546 504
 464 393 504 500
 375 491 450 421
 421 375 339 450
 546 504 450 421
 421 393 504 450
 421 546 491 450
 393 339 450 421
 329 457 404 375
 375 329 300 404
 491 450 404 375
 375 339 450 404
 375 491 457 404
 339 300 404 375
 308 435 386 329
 329 308 284 386
 457 404 386 329
 329 300 404 386
 329 457 435 386
 300 284 386 329
 269 284 308 386
 386 435 308 269
 303 308 435 269
 269 303 418 435
 269 377 386 435
 377 418 435 269
 1070 1152 1133 1157
 1157 1070 1027 1133
 1223 1203 1133 1157
 1157 1144 1203 1133
 1157 1223 1152 1133
 1144 1027 1133 1157
 966 1075 1025 1070
 1070 966 927 1025
 1152 1133 1025 1070
 1070 1027 1133 1025
 1070 1152 1075 1025
 1027 927 1025 1070
 852 973 947 966
 966 852 816 947
 1075 1025 947 966
 966 927 1025 947
 966 1075 973 947
 927 816 947 966
 727 882 840 852
 852 727 679 840
 973 947 840 852
 852 816 947 840
 852 973 882 840
 816 679 840 852
 623 784 746 727
 727 623 585 746
 882 840 746 727
 727 679 840 746
 727 882 784 746
 679 585 746 727
 546 711 663 623
 623 546 504 663
 784 746 663 623
 623 585 746 663
 623 784 711 663
 585 504 663 623
 491 630 598 546
 546 491 450 598
 711 663 598 546
 546 504 663 598
 546 711 630 598
 504 450 598 546
 457 591 542 491
 491 457 404 542
 630 598 542 491
 491 450 598 542
 491 630 591 542
 450 404 542 491
 435 579 525 457
 457 435 386 525
 591 542 525 457
 457 404 542 525
 457 591 579 525
 404 386 525 457
 377 386 435 525
 525 579 435 377
 418 435 579 377
 377 418 566 579
 377 514 525 579
 514 566 579 377
 1203 1261 1271 1133
 1133 1203 1223 1271
 1211 1226 1271 1133
 1133 1152 1226 1271
 1133 1211 1261 1271
 1152 1223 1271 1133
 1133 1211 1226 1025
 1025 1133 1152 1226
 1141 1162 1226 1025
 1025 1075 1162 1226
 1025 1141 1211 1226
 1075 1152 1226 1025
 1025 1141 1162 947
 947 1025 1075 1162
 1060 1087 1162 947
 947 973 1087 1162
 947 1060 1141 1162
 973 1075 1162 947
 947 1060 1087 840
 840 947 973 1087
 984 1002 1087 840
 840 882 1002 1087
 840 984 1060 1087
 882 973 1087 840
 840 984 1002 746
 746 840 882 1002
 901 948 1002 746
 746 784 948 1002
 746 901 984 1002
 784 882 1002 746
 746 901 948 663
 663 746 784 948
 834 870 948 663
 663 711 870 948
 663 834 901 948
 711 784 948 663
 663 834 870 598
 598 663 711 870
 770 823 870 598
 598 630 823 870
 598 770 834 870
 630 711 870 598
 598 770 823 542
 542 598 630 823
 726 763 823 542
 542 591 763 823
 542 726 770 823
 591 630 823 542
 542 726 763 525
 525 542 591 763
 695 745 763 525
 525 579 745 763
 525 695 726 763
 579 591 763 525
 681 695 525 745
 745 579 525 681
 514 525 579 681
 681 514 566 579
 681 732 745 579
 732 566 579 681
 518 534 502 680
 680 518 489 502
 693 677 502 680
 680 664 677 502
 680 693 534 502
 664 489 502 680
 384 394 373 518
 518 384 352 373
 534 502 373 518
 518 489 502 373
 518 534 394 373
 489 352 373 518
 272 283 256 384
 384 272 248 256
 394 373 256 384
 384 352 373 256
 384 394 283 256
 352 248 256 384
 183 197 171 272
 272 183 168 171
 283 256 171 272
 272 248 256 171
 272 283 197 171
 248 168 171 272
 124 132 114 183
 183 124 108 114
 197 171 114 183
 183 168 171 114
 183 197 132 114
 168 108 114 183
 76 81 68 124
 124 76 61 68
 132 114 68 124
 124 108 114 68
 124 132 81 68
 108 61 68 124
 44 49 37 76
 76 44 34 37
 81 68 37 76
 76 61 68 37
 76 81 49 37
 61 34 37 76
 22 27 19 44
 44 22 16 19
 49 37 19 44
 44 34 37 19
 44 49 27 19
 34 16 19 44
 14 18 7 22
 22 14 4 7
 27 19 7 22
 22 16 19 7
 22 27 18 7
 16 4 7 22
 1 4 14 7
 7 18 14 1
 8 14 18 1
 1 8 13 18
 1 5 7 18
 5 13 18 1
 534 549 535 693
 693 534 502 535
 723 690 535 693
 693 677 690 535
 693 723 549 535
 677 502 535 693
 394 408 392 534
 534 394 373 392
 549 535 392 534
 534 502 535 392
 534 549 408 392
 502 373 392 534
 283 298 282 394
 394 283 256 282
 408 392 282 394
 394 373 392 282
 394 408 298 282
 373 256 282 394
 197 210 194 283
 283 197 171 194
 298 282 194 283
 283 256 282 194
 283 298 210 194
 256 171 194 283
 132 139 130 197
 197 132 114 130
 210 194 130 197
 197 171 194 130
 197 210 139 130
 171 114 130 197
 81 87 83 132
 132 81 68 83
 139 130 83 132
 132 114 130 83
 132 139 87 83
 114 68 83 132
 49 62 50 81
 81 49 37 50
 87 83 50 81
 81 68 83 50
 81 87 62 50
 68 37 50 81
 27 38 28 49
 49 27 19 28
 62 50 28 49
 49 37 50 28
 49 62 38 28
 37 19 28 49
 18 24 17 27
 27 18 7 17
 38 28 17 27
 27 19 28 17
 27 38 24 17
 19 7 17 27
 5 7 18 17
 17 24 18 5
 13 18 24 5
 5 13 21 24
 5 12 17 24
 12 21 24 5
 549 599 583 723
 723 549 535 583
 768 743 583 723
 723 690 743 583
 723 768 599 583
 690 535 583 723
 408 456 432 549
 549 408 392 432
 599 583 432 549
 549 535 583 432
 549 599 456 432
 535 392 432 549
 298 337 311 408
 408 298 282 311
 456 432 311 408
 408 392 432 311
 408 456 337 311
 392 282 311 408
 210 238 225 298
 298 210 194 225
 337 311 225 298
 298 282 311 225
 298 337 238 225
 282 194 225 298
 139 176 152 210
 210 139 130 152
 238 225 152 210
 210 194 225 152
 210 238 176 152
 194 130 152 210
 87 122 107 139
 139 87 83 107
 176 152 107 139
 139 130 152 107
 139 176 122 107
 130 83 107 139
 62 86 71 87
 87 62 50 71
 122 107 71 87
 87 83 107 71
 87 122 86 71
 83 50 71 87
 38 59 48 62
 62 38 28 48
 86 71 48 62
 62 50 71 48
 62 86 59 48
 50 28 48 62
 24 47 36 38
 38 24 17 36
 59 48 36 38
 38 28 48 36
 38 59 47 36
 28 17 36 38
 12 17 24 36
 36 47 24 12
 21 24 47 12
 12 21 40 47
 12 30 36 47
 30 40 47 12
 599 668 625 768
 768 599 583 625
 833 806 625 768
 768 743 806 625
 768 833 668 625
 743 583 625 768
 456 505 481 599
 599 456 432 481
 668 625 481 599
 599 583 625 481
 599 668 505 481
 583 432 481 599
 337 390 368 456
 456 337 311 368
 505 481 368 456
 456 432 481 368
 456 505 390 368
 432 311 368 456
 238 295 275 337
 337 238 225 275
 390 368 275 337
 337 311 368 275
 337 390 295 275
 311 225 275 337
 176 222 203 238
 238 176 152 203
 295 275 203 238
 238 225 275 203
 238 295 222 203
 225 152 203 238
 122 161 140 176
 176 122 107 140
 222 203 140 176
 176 152 203 140
 176 222 161 140
 152 107 140 176
 86 126 110 122
 122 86 71 110
 161 140 110 122
 122 107 140 110
 122 161 126 110
 107 71 110 122
 59 88 82 86
 86 59 48 82
 126 110 82 86
 86 71 110 82
 86 126 88 82
 71 48 82 86
 47 80 66 59
 59 47 36 66
 88 82 66 59
 59 48 82 66
 59 88 80 66
 48 36 66 59
 30 36 47 66
 66 80 47 30
 40 47 80 30
 30 40 72 80
 30 57 66 80
 57 72 80 30
 668 749 721 833
 833 668 625 721
 898 884 721 833
 833 806 884 721
 833 898 749 721
 806 625 721 833
 505 587 575 668
 668 505 481 575
 749 721 575 668
 668 625 721 575
 668 749 587 575
 625 481 575 668
 390 461 441 505
 505 390 368 441
 587 575 441 505
 505 481 575 441
 505 587 461 441
 481 368 441 505
 295 346 336 390
 390 295 275 336
 461 441 336 390
 390 368 441 336
 390 461 346 336
 368 275 336 390
 222 288 259 295
 295 222 203 259
 346 336 259 295
 295 275 336 259
 295 346 288 259
 275 203 259 295
 161 217 201 222
 222 161 140 201
 288 259 201 222
 222 203 259 201
 222 288 217 201
 203 140 201 222
 126 170 154 161
 161 126 110 154
 217 201 154 161
 161 140 201 154
 161 217 170 154
 140 110 154 161
 88 137 128 126
 126 88 82 128
 170 154 128 126
 126 110 154 128
 126 170 137 128
 110 82 128 126
 80 127 112 88
 88 80 66 112
 137 128 112 88
 88 82 128 112
 88 137 127 112
 82 66 112 88
 57 66 80 112
 112 127 80 57
 72 80 127 57
 57 72 116 127
 57 103 112 127
 103 116 127 57
 749 841 827 898
 898 749 721 827
 981 961 827 898
 898 884 961 827
 898 981 841 827
 884 721 827 898
 587 688 660 749
 749 587 575 660
 841 827 660 749
 749 721 827 660
 749 841 688 660
 721 575 660 749
 461 543 528 587
 587 461 441 528
 688 660 528 587
 587 575 660 528
 587 688 543 528
 575 441 528 587
 346 445 411 461
 461 346 336 411
 543 528 411 461
 461 441 528 411
 461 543 445 411
 441 336 411 461
 288 360 340 346
 346 288 259 340
 445 411 340 346
 346 336 411 340
 346 445 360 340
 336 259 340 346
 217 290 276 288
 288 217 201 276
 360 340 276 288
 288 259 340 276
 288 360 290 276
 259 201 276 288
 170 236 226 217
 217 170 154 226
 290 276 226 217
 217 201 276 226
 217 290 236 226
 201 154 226 217
 137 209 195 170
 170 137 128 195
 236 226 195 170
 170 154 226 195
 170 236 209 195
 154 128 195 170
 127 184 172 137
 137 127 112 172
 209 195 172 137
 137 128 195 172
 137 209 184 172
 128 112 172 137
 103 112 127 172
 172 184 127 103
 116 127 184 103
 103 116 181 184
 103 163 172 184
 163 181 184 103
 841 937 916 981
 981 841 827 916
 1063 1043 916 981
 981 961 1043 916
 981 1063 937 916
 961 827 916 981
 688 808 776 841
 841 688 660 776
 937 916 776 841
 841 827 916 776
 841 937 808 776
 827 660 776 841
 543 672 631 688
 688 543 528 631
 808 776 631 688
 688 660 776 631
 688 808 672 631
 660 528 631 688
 445 548 522 543
 543 445 411 522
 672 631 522 543
 543 528 631 522
 543 672 548 522
 528 411 522 543
 360 464 443 445
 445 360 340 443
 548 522 443 445
 445 411 522 443
 445 548 464 443
 411 340 443 445
 290 393 371 360
 360 290 276 371
 464 443 371 360
 360 340 443 371
 360 464 393 371
 340 276 371 360
 236 339 315 290
 290 236 226 315
 393 371 315 290
 290 276 371 315
 290 393 339 315
 276 226 315 290
 209 300 286 236
 236 209 195 286
 339 315 286 236
 236 226 315 286
 236 339 300 286
 226 195 286 236
 184 284 255 209
 209 184 172 255
 300 286 255 209
 209 195 286 255
 209 300 284 255
 195 172 255 209
 163 172 184 255
 255 284 184 163
 181 184 284 163
 163 181 269 284
 163 241 255 284
 241 269 284 163
 937 1027 1023 1063
 1063 937 916 1023
 1144 1129 1023 1063
 1063 1043 1129 1023
 1063 1144 1027 1023
 1043 916 1023 1063
 808 927 905 937
 937 808 776 905
 1027 1023 905 937
 937 916 1023 905
 937 1027 927 905
 916 776 905 937
 672 816 782 808
 808 672 631 782
 927 905 782 808
 808 776 905 782
 808 927 816 782
 776 631 782 808
 548 679 650 672
 672 548 522 650
 816 782 650 672
 672 631 782 650
 672 816 679 650
 631 522 650 672
 464 585 573 548
 548 464 443 573
 679 650 573 548
 548 522 650 573
 548 679 585 573
 522 443 573 548
 393 504 482 464
 464 393 371 482
 585 573 482 464
 464 443 573 482
 464 585 504 482
 443 371 482 464
 339 450 430 393
 393 339 315 430
 504 482 430 393
 393 371 482 430
 393 504 450 430
 371 315 430 393
 300 404 391 339
 339 300 286 391
 450 430 391 339
 339 315 430 391
 339 450 404 391
 315 286 391 339
 284 386 372 300
 300 284 255 372
 404 391 372 300
 300 286 391 372
 300 404 386 372
 286 255 372 300
 241 255 284 372
 372 386 284 241
 269 284 386 241
 241 269 377 386
 241 358 372 386
 358 377 386 241
 1027 1133 1107 1144
 1144 1027 1023 1107
 1203 1198 1107 1144
 1144 1129 1198 1107
 1144 1203 1133 1107
 1129 1023 1107 1144
 927 1025 1015 1027
 1027 927 905 1015
 1133 1107 1015 1027
 1027 1023 1107 1015
 1027 1133 1025 1015
 1023 905 1015 1027
 816 947 914 927
 927 816 782 914
 1025 1015 914 927
 927 905 1015 914
 927 1025 947 914
 905 782 914 927
 679 840 820 816
 816 679 650 820
 947 914 820 816
 816 782 914 820
 816 947 840 820
 782 650 820 816
 585 746 722 679
 679 585 573 722
 840 820 722 679
 679 650 820 722
 679 840 746 722
 650 573 722 679
 504 663 629 585
 585 504 482 629
 746 722 629 585
 585 573 722 629
 585 746 663 629
 573 482 629 585
 450 598 584 504
 504 450 430 584
 663 629 584 504
 504 482 629 584
 504 663 598 584
 482 430 584 504
 404 542 536 450
 450 404 391 536
 598 584 536 450
 450 430 584 536
 450 598 542 536
 430 391 536 450
 386 525 503 404
 404 386 372 503
 542 536 503 404
 404 391 536 503
 404 542 525 503
 391 372 503 404
 358 372 386 503
 503 525 386 358
 377 386 525 358
 358 377 514 525
 358 494 503 525
 494 514 525 358
 1198 1259 1261 1107
 1107 1198 1203 1261
 1200 1211 1261 1107
 1107 1133 1211 1261
 1107 1200 1259 1261
 1133 1203 1261 1107
 1107 1200 1211 1015
 1015 1107 1133 1211
 1125 1141 1211 1015
 1015 1025 1141 1211
 1015 1125 1200 1211
 1025 1133 1211 1015
 1015 1125 1141 914
 914 1015 1025 1141
 1049 1060 1141 914
 914 947 1060 1141
 914 1049 1125 1141
 947 1025 1141 914
 914 1049 1060 820
 820 914 947 1060
 965 984 1060 820
 820 840 984 1060
 820 965 1049 1060
 840 947 1060 820
 820 965 984 722
 722 820 840 984
 885 901 984 722
 722 746 901 984
 722 885 965 984
 746 840 984 722
 722 885 901 629
 629 722 746 901
 815 834 901 629
 629 663 834 901
 629 815 885 901
 663 746 901 629
 629 815 834 584
 584 629 663 834
 756 770 834 584
 584 598 770 834
 584 756 815 834
 598 663 834 584
 584 756 770 536
 536 584 598 770
 694 726 770 536
 536 542 726 770
 536 694 756 770
 542 598 770 536
 536 694 726 503
 503 536 542 726
 676 695 726 503
 503 525 695 726
 503 676 694 726
 525 542 726 503
 661 676 503 695
 695 525 503 661
 494 503 525 661
 661 494 514 525
 661 681 695 525
 681 514 525 661
 664 677 502 640
 640 664 489 502
 659 492 502 640
 640 477 492 502
 640 659 677 502
 477 489 502 640
 489 502 373 477
 477 489 352 373
 492 355 373 477
 477 341 355 373
 477 492 502 373
 341 352 373 477
 352 373 256 341
 341 352 248 256
 355 250 256 341
 341 232 250 256
 341 355 373 256
 232 248 256 341
 248 256 171 232
 232 248 168 171
 250 166 171 232
 232 158 166 171
 232 250 256 171
 158 168 171 232
 168 171 114 158
 158 168 108 114
 166 106 114 158
 158 94 106 114
 158 166 171 114
 94 108 114 158
 108 114 68 94
 94 108 61 68
 106 58 68 94
 94 52 58 68
 94 106 114 68
 52 61 68 94
 61 68 37 52
 52 61 34 37
 58 32 37 52
 52 25 32 37
 52 58 68 37
 25 34 37 52
 34 37 19 25
 25 34 16 19
 32 11 19 25
 25 9 11 19
 25 32 37 19
 9 16 19 25
 16 19 7 9
 9 16 4 7
 11 6 7 9
 9 2 6 7
 9 11 19 7
 2 4 7 9
 2 6 7 0
 0 2 4 7
 3 5 7 0
 0 1 5 7
 0 3 6 7
 1 4 7 0
 677 690 535 659
 659 677 502 535
 683 521 535 659
 659 492 521 535
 659 683 690 535
 492 502 535 659
 502 535 392 492
 492 502 373 392
 521 380 392 492
 492 355 380 392
 492 521 535 392
 355 373 392 492
 373 392 282 355
 355 373 256 282
 380 274 282 355
 355 250 274 282
 355 380 392 282
 250 256 282 355
 256 282 194 250
 250 256 171 194
 274 179 194 250
 250 166 179 194
 250 274 282 194
 166 171 194 250
 171 194 130 166
 166 171 114 130
 179 119 130 166
 166 106 119 130
 166 179 194 130
 106 114 130 166
 114 130 83 106
 106 114 68 83
 119 75 83 106
 106 58 75 83
 106 119 130 83
 58 68 83 106
 68 83 50 58
 58 68 37 50
 75 42 50 58
 58 32 42 50
 58 75 83 50
 32 37 50 58
 37 50 28 32
 32 37 19 28
 42 20 28 32
 32 11 20 28
 32 42 50 28
 11 19 28 32
 19 28 17 11
 11 19 7 17
 20 15 17 11
 11 6 15 17
 11 20 28 17
 6 7 17 11
 6 15 17 3
 3 6 7 17
 10 12 17 3
 3 5 12 17
 3 10 15 17
 5 7 17 3
 690 743 583 683
 683 690 535 583
 731 569 583 683
 683 521 569 583
 683 731 743 583
 521 535 583 683
 535 583 432 521
 521 535 392 432
 569 415 432 521
 521 380 415 432
 521 569 583 432
 380 392 432 521
 392 432 311 380
 380 392 282 311
 415 306 311 380
 380 274 306 311
 380 415 432 311
 274 282 311 380
 282 311 225 274
 274 282 194 225
 306 216 225 274
 274 179 216 225
 274 306 311 225
 179 194 225 274
 194 225 152 179
 179 194 130 152
 216 144 152 179
 179 119 144 152
 179 216 225 152
 119 130 152 179
 130 152 107 119
 119 130 83 107
 144 93 107 119
 119 75 93 107
 119 144 152 107
 75 83 107 119
 83 107 71 75
 75 83 50 71
 93 67 71 75
 75 42 67 71
 75 93 107 71
 42 50 71 75
 50 71 48 42
 42 50 28 48
 67 41 48 42
 42 20 41 48
 42 67 71 48
 20 28 48 42
 28 48 36 20
 20 28 17 36
 41 31 36 20
 20 15 31 36
 20 41 48 36
 15 17 36 20
 15 31 36 10
 10 15 17 36
 23 30 36 10
 10 12 30 36
 10 23 31 36
 12 17 36 10
 743 806 625 731
 731 743 583 625
 794 612 625 731
 731 569 612 625
 731 794 806 625
 569 583 625 731
 583 625 481 569
 569 583 432 481
 612 466 481 569
 569 415 466 481
 569 612 625 481
 415 432 481 569
 432 481 368 415
 415 432 311 368
 466 356 368 415
 415 306 356 368
 415 466 481 368
 306 311 368 415
 311 368 275 306
 306 311 225 275
 356 265 275 306
 306 216 265 275
 306 356 368 275
 216 225 275 306
 225 275 203 216
 216 225 152 203
 265 193 203 216
 216 144 193 203
 216 265 275 203
 144 152 203 216
 152 203 140 144
 144 152 107 140
 193 134 140 144
 144 93 134 140
 144 193 203 140
 93 107 140 144
 107 140 110 93
 93 107 71 110
 134 98 110 93
 93 67 98 110
 93 134 140 110
 67 71 110 93
 71 110 82 67
 67 71 48 82
 98 73 82 67
 67 41 73 82
 67 98 110 82
 41 48 82 67
 48 82 66 41
 41 48 36 66
 73 60 66 41
 41 31 60 66
 41 73 82 66
 31 36 66 41
 31 60 66 23
 23 31 36 66
 51 57 66 23
 23 30 57 66
 23 51 60 66
 30 36 66 23
 806 884 721 794
 794 806 625 721
 862 713 721 794
 794 612 713 721
 794 862 884 721
 612 625 721 794
 625 721 575 612
 612 625 481 575
 713 556 575 612
 612 466 556 575
 612 713 721 575
 466 481 575 612
 481 575 441 466
 466 481 368 441
 556 434 441 466
 466 356 434 441
 466 556 575 441
 356 368 441 466
 368 441 336 356
 356 368 275 336
 434 319 336 356
 356 265 319 336
 356 434 441 336
 265 275 336 356
 275 336 259 265
 265 275 203 259
 319 243 259 265
 265 193 243 259
 265 319 336 259
 193 203 259 265
 203 259 201 193
 193 203 140 201
 243 188 201 193
 193 134 188 201
 193 243 259 201
 134 140 201 193
 140 201 154 134
 134 140 110 154
 188 145 154 134
 134 98 145 154
 134 188 201 154
 98 110 154 134
 110 154 128 98
 98 110 82 128
 145 118 128 98
 98 73 118 128
 98 145 154 128
 73 82 128 98
 82 128 112 73
 73 82 66 112
 118 104 112 73
 73 60 104 112
 73 118 128 112
 60 66 112 73
 60 104 112 51
 51 60 66 112
 95 103 112 51
 51 57 103 112
 51 95 104 112
 57 66 112 51
 884 961 827 862
 862 884 721 827
 953 807 827 862
 862 713 807 827
 862 953 961 827
 713 721 827 862
 721 827 660 713
 713 721 575 660
 807 644 660 713
 713 556 644 660
 713 807 827 660
 556 575 660 713
 575 660 528 556
 556 575 441 528
 644 520 528 556
 556 434 520 528
 556 644 660 528
 434 441 528 556
 441 528 411 434
 434 441 336 411
 520 407 411 434
 434 319 407 411
 434 520 528 411
 319 336 411 434
 336 411 340 319
 319 336 259 340
 407 322 340 319
 319 243 322 340
 319 407 411 340
 243 259 340 319
 259 340 276 243
 243 259 201 276
 322 263 276 243
 243 188 263 276
 243 322 340 276
 188 201 276 243
 201 276 226 188
 188 201 154 226
 263 215 226 188
 188 145 215 226
 188 263 276 226
 145 154 226 188
 154 226 195 145
 145 154 128 195
 215 180 195 145
 145 118 180 195
 145 215 226 195
 118 128 195 145
 128 195 172 118
 118 128 112 172
 180 165 172 118
 118 104 165 172
 118 180 195 172
 104 112 172 118
 104 165 172 95
 95 104 112 172
 159 163 172 95
 95 103 163 172
 95 159 165 172
 103 112 172 95
 961 1043 916 953
 953 961 827 916
 1028 911 916 953
 953 807 911 916
 953 1028 1043 916
 807 827 916 953
 827 916 776 807
 807 827 660 776
 911 769 776 807
 807 644 769 776
 807 911 916 776
 644 660 776 807
 660 776 631 644
 644 660 528 631
 769 619 631 644
 644 520 619 631
 644 769 776 631
 520 528 631 644
 528 631 522 520
 520 528 411 522
 619 513 522 520
 520 407 513 522
 520 619 631 522
 407 411 522 520
 411 522 443 407
 407 411 340 443
 513 420 443 407
 407 322 420 443
 407 513 522 443
 322 340 443 407
 340 443 371 322
 322 340 276 371
 420 349 371 322
 322 263 349 371
 322 420 443 371
 263 276 371 322
 276 371 315 263
 263 276 226 315
 349 304 315 263
 263 215 304 315
 263 349 371 315
 215 226 315 263
 226 315 286 215
 215 226 195 286
 304 268 286 215
 215 180 268 286
 215 304 315 286
 180 195 286 215
 195 286 255 180
 180 195 172 255
 268 239 255 180
 180 165 239 255
 180 268 286 255
 165 172 255 180
 165 239 255 159
 159 165 172 255
 234 241 255 159
 159 163 241 255
 159 234 239 255
 163 172 255 159
 1043 1129 1023 1028
 1028 1043 916 1023
 1115 1008 1023 1028
 1028 911 1008 1023
 1028 1115 1129 1023
 911 916 1023 1028
 916 1023 905 911
 911 916 776 905
 1008 890 905 911
 911 769 890 905
 911 1008 1023 905
 769 776 905 911
 776 905 782 769
 769 776 631 782
 890 761 782 769
 769 619 761 782
 769 890 905 782
 619 631 782 769
 631 782 650 619
 619 631 522 650
 761 647 650 619
 619 513 647 650
 619 761 782 650
 513 522 650 619
 522 650 573 513
 513 522 443 573
 647 550 573 513
 513 420 550 573
 513 647 650 573
 420 443 573 513
 443 573 482 420
 420 443 371 482
 550 465 482 420
 420 349 465 482
 420 550 573 482
 349 371 482 420
 371 482 430 349
 349 371 315 430
 465 410 430 349
 349 304 410 430
 349 465 482 430
 304 315 430 349
 315 430 391 304
 304 315 286 391
 410 385 391 304
 304 268 385 391
 304 410 430 391
 268 286 391 304
 286 391 372 268
 268 286 255 372
 385 361 372 268
 268 239 361 372
 268 385 391 372
 239 255 372 268
 239 361 372 234
 234 239 255 372
 342 358 372 234
 234 241 358 372
 234 342 361 372
 241 255 372 234
 1129 1198 1107 1115
 1115 1129 1023 1107
 1186 1104 1107 1115
 1115 1008 1104 1107
 1115 1186 1198 1107
 1008 1023 1107 1115
 1023 1107 1015 1008
 1008 1023 905 1015
 1104 1000 1015 1008
 1008 890 1000 1015
 1008 1104 1107 1015
 890 905 1015 1008
 905 1015 914 890
 890 905 782 914
 1000 912 914 890
 890 761 912 914
 890 1000 1015 914
 761 782 914 890
 782 914 820 761
 761 782 650 820
 912 819 820 761
 761 647 819 820
 761 912 914 820
 647 650 820 761
 650 820 722 647
 647 650 573 722
 819 708 722 647
 647 550 708 722
 647 819 820 722
 550 573 722 647
 573 722 629 550
 550 573 482 629
 708 608 629 550
 550 465 608 629
 550 708 722 629
 465 482 629 550
 482 629 584 465
 465 482 430 584
 608 563 584 465
 465 410 563 584
 465 608 629 584
 410 430 584 465
 430 584 536 410
 410 430 391 536
 563 510 536 410
 410 385 510 536
 410 563 584 536
 385 391 536 410
 391 536 503 385
 385 391 372 503
 510 487 503 385
 385 361 487 503
 385 510 536 503
 361 372 503 385
 361 487 503 342
 342 361 372 503
 479 494 503 342
 342 358 494 503
 342 479 487 503
 358 372 503 342
 1104 1192 1250 1107
 1107 1104 1186 1250
 1200 1259 1250 1107
 1107 1198 1259 1250
 1107 1200 1192 1250
 1198 1186 1250 1107
 1000 1109 1192 1015
 1015 1000 1104 1192
 1125 1200 1192 1015
 1015 1107 1200 1192
 1015 1125 1109 1192
 1107 1104 1192 1015
 912 1033 1109 914
 914 912 1000 1109
 1049 1125 1109 914
 914 1015 1125 1109
 914 1049 1033 1109
 1015 1000 1109 914
 819 950 1033 820
 820 819 912 1033
 965 1049 1033 820
 820 914 1049 1033
 820 965 950 1033
 914 912 1033 820
 708 869 950 722
 722 708 819 950
 885 965 950 722
 722 820 965 950
 722 885 869 950
 820 819 950 722
 608 793 869 629
 629 608 708 869
 815 885 869 629
 629 722 885 869
 629 815 793 869
 722 708 869 629
 563 733 793 584
 584 563 608 793
 756 815 793 584
 584 629 815 793
 584 756 733 793
 629 608 793 584
 510 684 733 536
 536 510 563 733
 694 756 733 536
 536 584 756 733
 536 694 684 733
 584 563 733 536
 487 662 684 503
 503 487 510 684
 676 694 684 503
 503 536 694 684
 503 676 662 684
 536 510 684 503
 494 661 643 503
 503 494 479 643
 676 662 643 503
 503 487 662 643
 503 676 661 643
 487 479 643 503</DataArray>
            <DataArray Name="offsets" format="ascii" type="Int32">4 8 12 16 20 24 28 32 36 40 44 48 52 56 60 64 68 72 76 80 84 88 92 96 100 104 108 112 116 120 124 128 132 136 140 144 148 152 156 160 164 168 172 176 180 184 188 192 196 200 204 208 212 216 220 224 228 232 236 240 244 248 252 256 260 264 268 272 276 280 284 288 292 296 300 304 308 312 316 320 324 328 332 336 340 344 348 352 356 360 364 368 372 376 380 384 388 392 396 400 404 408 412 416 420 424 428 432 436 440 444 448 452 456 460 464 468 472 476 480 484 488 492 496 500 504 508 512 516 520 524 528 532 536 540 544 548 552 556 560 564 568 572 576 580 584 588 592 596 600 604 608 612 616 620 624 628 632 636 640 644 648 652 656 660 664 668 672 676 680 684 688 692 696 700 704 708 712 716 720 724 728 732 736 740 744 748 752 756 760 764 768 772 776 780 784 788 792 796 800 804 808 812 816 820 824 828 832 836 840 844 848 852 856 860 864 868 872 876 880 884 888 892 896 900 904 908 912 916 920 924 928 932 936 940 944 948 952 956 960 964 968 972 976 980 984 988 992 996 1000 1004 1008 1012 1016 1020 1024 1028 1032 1036 1040 1044 1048 1052 1056 1060 1064 1068 1072 1076 1080 1084 1088 1092 1096 1100 1104 1108 1112 1116 1120 1124 1128 1132 1136 1140 1144 1148 1152 1156 1160 1164 1168 1172 1176 1180 1184 1188 1192 1196 1200 1204 1208 1212 1216 1220 1224 1228 1232 1236 1240 1244 1248 1252 1256 1260 1264 1268 1272 1276 1280 1284 1288 1292 1296 1300 1304 1308 1312 1316 1320 1324 1328 1332 1336 1340 1344 1348 1352 1356 1360 1364 1368 1372 1376 1380 1384 1388 1392 1396 1400 1404 1408 1412 1416 1420 1424 1428 1432 1436 1440 1444 1448 1452 1456 1460 1464 1468 1472 1476 1480 1484 1488 1492 1496 1500 1504 1508 1512 1516 1520 1524 1528 1532 1536 1540 1544 1548 1552 1556 1560 1564 1568 1572 1576 1580 1584 1588 1592 1596 1600 1604 1608 1612 1616 1620 1624 1628 1632 1636 1640 1644 1648 1652 1656 1660 1664 1668 1672 1676 1680 1684 1688 1692 1696 1700 1704 1708 1712 1716 1720 1724 1728 1732 1736 1740 1744 1748 1752 1756 1760 1764 1768 1772 1776 1780 1784 1788 1792 1796 1800 1804 1808 1812 1816 1820 1824 1828 1832 1836 1840 1844 1848 1852 1856 1860 1864 1868 1872 1876 1880 1884 1888 1892 1896 1900 1904 1908 1912 1916 1920 1924 1928 1932 1936 1940 1944 1948 1952 1956 1960 1964 1968 1972 1976 1980 1984 1988 1992 1996 2000 2004 2008 2012 2016 2020 2024 2028 2032 2036 2040 2044 2048 2052 2056 2060 2064 2068 2072 2076 2080 2084 2088 2092 2096 2100 2104 2108 2112 2116 2120 2124 2128 2132 2136 2140 2144 2148 2152 2156 2160 2164 2168 2172 2176 2180 2184 2188 2192 2196 2200 2204 2208 2212 2216 2220 2224 2228 2232 2236 2240 2244 2248 2252 2256 2260 2264 2268 2272 2276 2280 2284 2288 2292 2296 2300 2304 2308 2312 2316 2320 2324 2328 2332 2336 2340 2344 2348 2352 2356 2360 2364 2368 2372 2376 2380 2384 2388 2392 2396 2400 2404 2408 2412 2416 2420 2424 2428 2432 2436 2440 2444 2448 2452 2456 2460 2464 2468 2472 2476 2480 2484 2488 2492 2496 2500 2504 2508 2512 2516 2520 2524 2528 2532 2536 2540 2544 2548 2552 2556 2560 2564 2568 2572 2576 2580 2584 2588 2592 2596 2600 2604 2608 2612 2616 2620 2624 2628 2632 2636 2640 2644 2648 2652 2656 2660 2664 2668 2672 2676 2680 2684 2688 2692 2696 2700 2704 2708 2712 2716 2720 2724 2728 2732 2736 2740 2744 2748 2752 2756 2760 2764 2768 2772 2776 2780 2784 2788 2792 2796 2800 2804 2808 2812 2816 2820 2824 2828 2832 2836 2840 2844 2848 2852 2856 2860 2864 2868 2872 2876 2880 2884 2888 2892 2896 2900 2904 2908 2912 2916 2920 2924 2928 2932 2936 2940 2944 2948 2952 2956 2960 2964 2968 2972 2976 2980 2984 2988 2992 2996 3000 3004 3008 3012 3016 3020 3024 3028 3032 3036 3040 3044 3048 3052 3056 3060 3064 3068 3072 3076 3080 3084 3088 3092 3096 3100 3104 3108 3112 3116 3120 3124 3128 3132 3136 3140 3144 3148 3152 3156 3160 3164 3168 3172 3176 3180 3184 3188 3192 3196 3200 3204 3208 3212 3216 3220 3224 3228 3232 3236 3240 3244 3248 3252 3256 3260 3264 3268 3272 3276 3280 3284 3288 3292 3296 3300 3304 3308 3312 3316 3320 3324 3328 3332 3336 3340 3344 3348 3352 3356 3360 3364 3368 3372 3376 3380 3384 3388 3392 3396 3400 3404 3408 3412 3416 3420 3424 3428 3432 3436 3440 3444 3448 3452 3456 3460 3464 3468 3472 3476 3480 3484 3488 3492 3496 3500 3504 3508 3512 3516 3520 3524 3528 3532 3536 3540 3544 3548 3552 3556 3560 3564 3568 3572 3576 3580 3584 3588 3592 3596 3600 3604 3608 3612 3616 3620 3624 3628 3632 3636 3640 3644 3648 3652 3656 3660 3664 3668 3672 3676 3680 3684 3688 3692 3696 3700 3704 3708 3712 3716 3720 3724 3728 3732 3736 3740 3744 3748 3752 3756 3760 3764 3768 3772 3776 3780 3784 3788 3792 3796 3800 3804 3808 3812 3816 3820 3824 3828 3832 3836 3840 3844 3848 3852 3856 3860 3864 3868 3872 3876 3880 3884 3888 3892 3896 3900 3904 3908 3912 3916 3920 3924 3928 3932 3936 3940 3944 3948 3952 3956 3960 3964 3968 3972 3976 3980 3984 3988 3992 3996 4000 4004 4008 4012 4016 4020 4024 4028 4032 4036 4040 4044 4048 4052 4056 4060 4064 4068 4072 4076 4080 4084 4088 4092 4096 4100 4104 4108 4112 4116 4120 4124 4128 4132 4136 4140 4144 4148 4152 4156 4160 4164 4168 4172 4176 4180 4184 4188 4192 4196 4200 4204 4208 4212 4216 4220 4224 4228 4232 4236 4240 4244 4248 4252 4256 4260 4264 4268 4272 4276 4280 4284 4288 4292 4296 4300 4304 4308 4312 4316 4320 4324 4328 4332 4336 4340 4344 4348 4352 4356 4360 4364 4368 4372 4376 4380 4384 4388 4392 4396 4400 4404 4408 4412 4416 4420 4424 4428 4432 4436 4440 4444 4448 4452 4456 4460 4464 4468 4472 4476 4480 4484 4488 4492 4496 4500 4504 4508 4512 4516 4520 4524 4528 4532 4536 4540 4544 4548 4552 4556 4560 4564 4568 4572 4576 4580 4584 4588 4592 4596 4600 4604 4608 4612 4616 4620 4624 4628 4632 4636 4640 4644 4648 4652 4656 4660 4664 4668 4672 4676 4680 4684 4688 4692 4696 4700 4704 4708 4712 4716 4720 4724 4728 4732 4736 4740 4744 4748 4752 4756 4760 4764 4768 4772 4776 4780 4784 4788 4792 4796 4800 4804 4808 4812 4816 4820 4824 4828 4832 4836 4840 4844 4848 4852 4856 4860 4864 4868 4872 4876 4880 4884 4888 4892 4896 4900 4904 4908 4912 4916 4920 4924 4928 4932 4936 4940 4944 4948 4952 4956 4960 4964 4968 4972 4976 4980 4984 4988 4992 4996 5000 5004 5008 5012 5016 5020 5024 5028 5032 5036 5040 5044 5048 5052 5056 5060 5064 5068 5072 5076 5080 5084 5088 5092 5096 5100 5104 5108 5112 5116 5120 5124 5128 5132 5136 5140 5144 5148 5152 5156 5160 5164 5168 5172 5176 5180 5184 5188 5192 5196 5200 5204 5208 5212 5216 5220 5224 5228 5232 5236 5240 5244 5248 5252 5256 5260 5264 5268 5272 5276 5280 5284 5288 5292 5296 5300 5304 5308 5312 5316 5320 5324 5328 5332 5336 5340 5344 5348 5352 5356 5360 5364 5368 5372 5376 5380 5384 5388 5392 5396 5400 5404 5408 5412 5416 5420 5424 5428 5432 5436 5440 5444 5448 5452 5456 5460 5464 5468 5472 5476 5480 5484 5488 5492 5496 5500 5504 5508 5512 5516 5520 5524 5528 5532 5536 5540 5544 5548 5552 5556 5560 5564 5568 5572 5576 5580 5584 5588 5592 5596 5600 5604 5608 5612 5616 5620 5624 5628 5632 5636 5640 5644 5648 5652 5656 5660 5664 5668 5672 5676 5680 5684 5688 5692 5696 5700 5704 5708 5712 5716 5720 5724 5728 5732 5736 5740 5744 5748 5752 5756 5760 5764 5768 5772 5776 5780 5784 5788 5792 5796 5800 5804 5808 5812 5816 5820 5824 5828 5832 5836 5840 5844 5848 5852 5856 5860 5864 5868 5872 5876 5880 5884 5888 5892 5896 5900 5904 5908 5912 5916 5920 5924 5928 5932 5936 5940 5944 5948 5952 5956 5960 5964 5968 5972 5976 5980 5984 5988 5992 5996 6000 6004 6008 6012 6016 6020 6024 6028 6032 6036 6040 6044 6048 6052 6056 6060 6064 6068 6072 6076 6080 6084 6088 6092 6096 6100 6104 6108 6112 6116 6120 6124 6128 6132 6136 6140 6144 6148 6152 6156 6160 6164 6168 6172 6176 6180 6184 6188 6192 6196 6200 6204 6208 6212 6216 6220 6224 6228 6232 6236 6240 6244 6248 6252 6256 6260 6264 6268 6272 6276 6280 6284 6288 6292 6296 6300 6304 6308 6312 6316 6320 6324 6328 6332 6336 6340 6344 6348 6352 6356 6360 6364 6368 6372 6376 6380 6384 6388 6392 6396 6400 6404 6408 6412 6416 6420 6424 6428 6432 6436 6440 6444 6448 6452 6456 6460 6464 6468 6472 6476 6480 6484 6488 6492 6496 6500 6504 6508 6512 6516 6520 6524 6528 6532 6536 6540 6544 6548 6552 6556 6560 6564 6568 6572 6576 6580 6584 6588 6592 6596 6600 6604 6608 6612 6616 6620 6624 6628 6632 6636 6640 6644 6648 6652 6656 6660 6664 6668 6672 6676 6680 6684 6688 6692 6696 6700 6704 6708 6712 6716 6720 6724 6728 6732 6736 6740 6744 6748 6752 6756 6760 6764 6768 6772 6776 6780 6784 6788 6792 6796 6800 6804 6808 6812 6816 6820 6824 6828 6832 6836 6840 6844 6848 6852 6856 6860 6864 6868 6872 6876 6880 6884 6888 6892 6896 6900 6904 6908 6912 6916 6920 6924 6928 6932 6936 6940 6944 6948 6952 6956 6960 6964 6968 6972 6976 6980 6984 6988 6992 6996 7000 7004 7008 7012 7016 7020 7024 7028 7032 7036 7040 7044 7048 7052 7056 7060 7064 7068 7072 7076 7080 7084 7088 7092 7096 7100 7104 7108 7112 7116 7120 7124 7128 7132 7136 7140 7144 7148 7152 7156 7160 7164 7168 7172 7176 7180 7184 7188 7192 7196 7200 7204 7208 7212 7216 7220 7224 7228 7232 7236 7240 7244 7248 7252 7256 7260 7264 7268 7272 7276 7280 7284 7288 7292 7296 7300 7304 7308 7312 7316 7320 7324 7328 7332 7336 7340 7344 7348 7352 7356 7360 7364 7368 7372 7376 7380 7384 7388 7392 7396 7400 7404 7408 7412 7416 7420 7424 7428 7432 7436 7440 7444 7448 7452 7456 7460 7464 7468 7472 7476 7480 7484 7488 7492 7496 7500 7504 7508 7512 7516 7520 7524 7528 7532 7536 7540 7544 7548 7552 7556 7560 7564 7568 7572 7576 7580 7584 7588 7592 7596 7600 7604 7608 7612 7616 7620 7624 7628 7632 7636 7640 7644 7648 7652 7656 7660 7664 7668 7672 7676 7680 7684 7688 7692 7696 7700 7704 7708 7712 7716 7720 7724 7728 7732 7736 7740 7744 7748 7752 7756 7760 7764 7768 7772 7776 7780 7784 7788 7792 7796 7800 7804 7808 7812 7816 7820 7824 7828 7832 7836 7840 7844 7848 7852 7856 7860 7864 7868 7872 7876 7880 7884 7888 7892 7896 7900 7904 7908 7912 7916 7920 7924 7928 7932 7936 7940 7944 7948 7952 7956 7960 7964 7968 7972 7976 7980 7984 7988 7992 7996 8000 8004 8008 8012 8016 8020 8024 8028 8032 8036 8040 8044 8048 8052 8056 8060 8064 8068 8072 8076 8080 8084 8088 8092 8096 8100 8104 8108 8112 8116 8120 8124 8128 8132 8136 8140 8144 8148 8152 8156 8160 8164 8168 8172 8176 8180 8184 8188 8192 8196 8200 8204 8208 8212 8216 8220 8224 8228 8232 8236 8240 8244 8248 8252 8256 8260 8264 8268 8272 8276 8280 8284 8288 8292 8296 8300 8304 8308 8312 8316 8320 8324 8328 8332 8336 8340 8344 8348 8352 8356 8360 8364 8368 8372 8376 8380 8384 8388 8392 8396 8400 8404 8408 8412 8416 8420 8424 8428 8432 8436 8440 8444 8448 8452 8456 8460 8464 8468 8472 8476 8480 8484 8488 8492 8496 8500 8504 8508 8512 8516 8520 8524 8528 8532 8536 8540 8544 8548 8552 8556 8560 8564 8568 8572 8576 8580 8584 8588 8592 8596 8600 8604 8608 8612 8616 8620 8624 8628 8632 8636 8640 8644 8648 8652 8656 8660 8664 8668 8672 8676 8680 8684 8688 8692 8696 8700 8704 8708 8712 8716 8720 8724 8728 8732 8736 8740 8744 8748 8752 8756 8760 8764 8768 8772 8776 8780 8784 8788 8792 8796 8800 8804 8808 8812 8816 8820 8824 8828 8832 8836 8840 8844 8848 8852 8856 8860 8864 8868 8872 8876 8880 8884 8888 8892 8896 8900 8904 8908 8912 8916 8920 8924 8928 8932 8936 8940 8944 8948 8952 8956 8960 8964 8968 8972 8976 8980 8984 8988 8992 8996 9000 9004 9008 9012 9016 9020 9024 9028 9032 9036 9040 9044 9048 9052 9056 9060 9064 9068 9072 9076 9080 9084 9088 9092 9096 9100 9104 9108 9112 9116 9120 9124 9128 9132 9136 9140 9144 9148 9152 9156 9160 9164 9168 9172 9176 9180 9184 9188 9192 9196 9200 9204 9208 9212 9216 9220 9224 9228 9232 9236 9240 9244 9248 9252 9256 9260 9264 9268 9272 9276 9280 9284 9288 9292 9296 9300 9304 9308 9312 9316 9320 9324 9328 9332 9336 9340 9344 9348 9352 9356 9360 9364 9368 9372 9376 9380 9384 9388 9392 9396 9400 9404 9408 9412 9416 9420 9424 9428 9432 9436 9440 9444 9448 9452 9456 9460 9464 9468 9472 9476 9480 9484 9488 9492 9496 9500 9504 9508 9512 9516 9520 9524 9528 9532 9536 9540 9544 9548 9552 9556 9560 9564 9568 9572 9576 9580 9584 9588 9592 9596 9600 9604 9608 9612 9616 9620 9624 9628 9632 9636 9640 9644 9648 9652 9656 9660 9664 9668 9672 9676 9680 9684 9688 9692 9696 9700 9704 9708 9712 9716 9720 9724 9728 9732 9736 9740 9744 9748 9752 9756 9760 9764 9768 9772 9776 9780 9784 9788 9792 9796 9800 9804 9808 9812 9816 9820 9824 9828 9832 9836 9840 9844 9848 9852 9856 9860 9864 9868 9872 9876 9880 9884 9888 9892 9896 9900 9904 9908 9912 9916 9920 9924 9928 9932 9936 9940 9944 9948 9952 9956 9960 9964 9968 9972 9976 9980 9984 9988 9992 9996 10000 10004 10008 10012 10016 10020 10024 10028 10032 10036 10040 10044 10048 10052 10056 10060 10064 10068 10072 10076 10080 10084 10088 10092 10096 10100 10104 10108 10112 10116 10120 10124 10128 10132 10136 10140 10144 10148 10152 10156 10160 10164 10168 10172 10176 10180 10184 10188 10192 10196 10200 10204 10208 10212 10216 10220 10224 10228 10232 10236 10240 10244 10248 10252 10256 10260 10264 10268 10272 10276 10280 10284 10288 10292 10296 10300 10304 10308 10312 10316 10320 10324 10328 10332 10336 10340 10344 10348 10352 10356 10360 10364 10368 10372 10376 10380 10384 10388 10392 10396 10400 10404 10408 10412 10416 10420 10424 10428 10432 10436 10440 10444 10448 10452 10456 10460 10464 10468 10472 10476 10480 10484 10488 10492 10496 10500 10504 10508 10512 10516 10520 10524 10528 10532 10536 10540 10544 10548 10552 10556 10560 10564 10568 10572 10576 10580 10584 10588 10592 10596 10600 10604 10608 10612 10616 10620 10624 10628 10632 10636 10640 10644 10648 10652 10656 10660 10664 10668 10672 10676 10680 10684 10688 10692 10696 10700 10704 10708 10712 10716 10720 10724 10728 10732 10736 10740 10744 10748 10752 10756 10760 10764 10768 10772 10776 10780 10784 10788 10792 10796 10800 10804 10808 10812 10816 10820 10824 10828 10832 10836 10840 10844 10848 10852 10856 10860 10864 10868 10872 10876 10880 10884 10888 10892 10896 10900 10904 10908 10912 10916 10920 10924 10928 10932 10936 10940 10944 10948 10952 10956 10960 10964 10968 10972 10976 10980 10984 10988 10992 10996 11000 11004 11008 11012 11016 11020 11024 11028 11032 11036 11040 11044 11048 11052 11056 11060 11064 11068 11072 11076 11080 11084 11088 11092 11096 11100 11104 11108 11112 11116 11120 11124 11128 11132 11136 11140 11144 11148 11152 11156 11160 11164 11168 11172 11176 11180 11184 11188 11192 11196 11200 11204 11208 11212 11216 11220 11224 11228 11232 11236 11240 11244 11248 11252 11256 11260 11264 11268 11272 11276 11280 11284 11288 11292 11296 11300 11304 11308 11312 11316 11320 11324 11328 11332 11336 11340 11344 11348 11352 11356 11360 11364 11368 11372 11376 11380 11384 11388 11392 11396 11400 11404 11408 11412 11416 11420 11424 11428 11432 11436 11440 11444 11448 11452 11456 11460 11464 11468 11472 11476 11480 11484 11488 11492 11496 11500 11504 11508 11512 11516 11520 11524 11528 11532 11536 11540 11544 11548 11552 11556 11560 11564 11568 11572 11576 11580 11584 11588 11592 11596 11600 11604 11608 11612 11616 11620 11624 11628 11632 11636 11640 11644 11648 11652 11656 11660 11664 11668 11672 11676 11680 11684 11688 11692 11696 11700 11704 11708 11712 11716 11720 11724 11728 11732 11736 11740 11744 11748 11752 11756 11760 11764 11768 11772 11776 11780 11784 11788 11792 11796 11800 11804 11808 11812 11816 11820 11824 11828 11832 11836 11840 11844 11848 11852 11856 11860 11864 11868 11872 11876 11880 11884 11888 11892 11896 11900 11904 11908 11912 11916 11920 11924 11928 11932 11936 11940 11944 11948 11952 11956 11960 11964 11968 11972 11976 11980 11984 11988 11992 11996 12000 12004 12008 12012 12016 12020 12024 12028 12032 12036 12040 12044 12048 12052 12056 12060 12064 12068 12072 12076 12080 12084 12088 12092 12096 12100 12104 12108 12112 12116 12120 12124 12128 12132 12136 12140 12144 12148 12152 12156 12160 12164 12168 12172 12176 12180 12184 12188 12192 12196 12200 12204 12208 12212 12216 12220 12224 12228 12232 12236 12240 12244 12248 12252 12256 12260 12264 12268 12272 12276 12280 12284 12288 12292 12296 12300 12304 12308 12312 12316 12320 12324 12328 12332 12336 12340 12344 12348 12352 12356 12360 12364 12368 12372 12376 12380 12384 12388 12392 12396 12400 12404 12408 12412 12416 12420 12424 12428 12432 12436 12440 12444 12448 12452 12456 12460 12464 12468 12472 12476 12480 12484 12488 12492 12496 12500 12504 12508 12512 12516 12520 12524 12528 12532 12536 12540 12544 12548 12552 12556 12560 12564 12568 12572 12576 12580 12584 12588 12592 12596 12600 12604 12608 12612 12616 12620 12624 12628 12632 12636 12640 12644 12648 12652 12656 12660 12664 12668 12672 12676 12680 12684 12688 12692 12696 12700 12704 12708 12712 12716 12720 12724 12728 12732 12736 12740 12744 12748 12752 12756 12760 12764 12768 12772 12776 12780 12784 12788 12792 12796 12800 12804 12808 12812 12816 12820 12824 12828 12832 12836 12840 12844 12848 12852 12856 12860 12864 12868 12872 12876 12880 12884 12888 12892 12896 12900 12904 12908 12912 12916 12920 12924 12928 12932 12936 12940 12944 12948 12952 12956 12960 12964 12968 12972 12976 12980 12984 12988 12992 12996 13000 13004 13008 13012 13016 13020 13024 13028 13032 13036 13040 13044 13048 13052 13056 13060 13064 13068 13072 13076 13080 13084 13088 13092 13096 13100 13104 13108 13112 13116 13120 13124 13128 13132 13136 13140 13144 13148 13152 13156 13160 13164 13168 13172 13176 13180 13184 13188 13192 13196 13200 13204 13208 13212 13216 13220 13224 13228 13232 13236 13240 13244 13248 13252 13256 13260 13264 13268 13272 13276 13280 13284 13288 13292 13296 13300 13304 13308 13312 13316 13320 13324 13328 13332 13336 13340 13344 13348 13352 13356 13360 13364 13368 13372 13376 13380 13384 13388 13392 13396 13400 13404 13408 13412 13416 13420 13424 13428 13432 13436 13440 13444 13448 13452 13456 13460 13464 13468 13472 13476 13480 13484 13488 13492 13496 13500 13504 13508 13512 13516 13520 13524 13528 13532 13536 13540 13544 13548 13552 13556 13560 13564 13568 13572 13576 13580 13584 13588 13592 13596 13600 13604 13608 13612 13616 13620 13624 13628 13632 13636 13640 13644 13648 13652 13656 13660 13664 13668 13672 13676 13680 13684 13688 13692 13696 13700 13704 13708 13712 13716 13720 13724 13728 13732 13736 13740 13744 13748 13752 13756 13760 13764 13768 13772 13776 13780 13784 13788 13792 13796 13800 13804 13808 13812 13816 13820 13824 13828 13832 13836 13840 13844 13848 13852 13856 13860 13864 13868 13872 13876 13880 13884 13888 13892 13896 13900 13904 13908 13912 13916 13920 13924 13928 13932 13936 13940 13944 13948 13952 13956 13960 13964 13968 13972 13976 13980 13984 13988 13992 13996 14000 14004 14008 14012 14016 14020 14024 14028 14032 14036 14040 14044 14048 14052 14056 14060 14064 14068 14072 14076 14080 14084 14088 14092 14096 14100 14104 14108 14112 14116 14120 14124 14128 14132 14136 14140 14144 14148 14152 14156 14160 14164 14168 14172 14176 14180 14184 14188 14192 14196 14200 14204 14208 14212 14216 14220 14224 14228 14232 14236 14240 14244 14248 14252 14256 14260 14264 14268 14272 14276 14280 14284 14288 14292 14296 14300 14304 14308 14312 14316 14320 14324 14328 14332 14336 14340 14344 14348 14352 14356 14360 14364 14368 14372 14376 14380 14384 14388 14392 14396 14400 14404 14408 14412 14416 14420 14424 14428 14432 14436 14440 14444 14448 14452 14456 14460 14464 14468 14472 14476 14480 14484 14488 14492 14496 14500 14504 14508 14512 14516 14520 14524 14528 14532 14536 14540 14544 14548 14552 14556 14560 14564 14568 14572 14576 14580 14584 14588 14592 14596 14600 14604 14608 14612 14616 14620 14624 14628 14632 14636 14640 14644 14648 14652 14656 14660 14664 14668 14672 14676 14680 14684 14688 14692 14696 14700 14704 14708 14712 14716 14720 14724 14728 14732 14736 14740 14744 14748 14752 14756 14760 14764 14768 14772 14776 14780 14784 14788 14792 14796 14800 14804 14808 14812 14816 14820 14824 14828 14832 14836 14840 14844 14848 14852 14856 14860 14864 14868 14872 14876 14880 14884 14888 14892 14896 14900 14904 14908 14912 14916 14920 14924 14928 14932 14936 14940 14944 14948 14952 14956 14960 14964 14968 14972 14976 14980 14984 14988 14992 14996 15000 15004 15008 15012 15016 15020 15024 15028 15032 15036 15040 15044 15048 15052 15056 15060 15064 15068 15072 15076 15080 15084 15088 15092 15096 15100 15104 15108 15112 15116 15120 15124 15128 15132 15136 15140 15144 15148 15152 15156 15160 15164 15168 15172 15176 15180 15184 15188 15192 15196 15200 15204 15208 15212 15216 15220 15224 15228 15232 15236 15240 15244 15248 15252 15256 15260 15264 15268 15272 15276 15280 15284 15288 15292 15296 15300 15304 15308 15312 15316 15320 15324 15328 15332 15336 15340 15344 15348 15352 15356 15360 15364 15368 15372 15376 15380 15384 15388 15392 15396 15400 15404 15408 15412 15416 15420 15424 15428 15432 15436 15440 15444 15448 15452 15456 15460 15464 15468 15472 15476 15480 15484 15488 15492 15496 15500 15504 15508 15512 15516 15520 15524 15528 15532 15536 15540 15544 15548 15552 15556 15560 15564 15568 15572 15576 15580 15584 15588 15592 15596 15600 15604 15608 15612 15616 15620 15624 15628 15632 15636 15640 15644 15648 15652 15656 15660 15664 15668 15672 15676 15680 15684 15688 15692 15696 15700 15704 15708 15712 15716 15720 15724 15728 15732 15736 15740 15744 15748 15752 15756 15760 15764 15768 15772 15776 15780 15784 15788 15792 15796 15800 15804 15808 15812 15816 15820 15824 15828 15832 15836 15840 15844 15848 15852 15856 15860 15864 15868 15872 15876 15880 15884 15888 15892 15896 15900 15904 15908 15912 15916 15920 15924 15928 15932 15936 15940 15944 15948 15952 15956 15960 15964 15968 15972 15976 15980 15984 15988 15992 15996 16000 16004 16008 16012 16016 16020 16024 16028 16032 16036 16040 16044 16048 16052 16056 16060 16064 16068 16072 16076 16080 16084 16088 16092 16096 16100 16104 16108 16112 16116 16120 16124 16128 16132 16136 16140 16144 16148 16152 16156 16160 16164 16168 16172 16176 16180 16184 16188 16192 16196 16200 16204 16208 16212 16216 16220 16224 16228 16232 16236 16240 16244 16248 16252 16256 16260 16264 16268 16272 16276 16280 16284 16288 16292 16296 16300 16304 16308 16312 16316 16320 16324 16328 16332 16336 16340 16344 16348 16352 16356 16360 16364 16368 16372 16376 16380 16384 16388 16392 16396 16400 16404 16408 16412 16416 16420 16424 16428 16432 16436 16440 16444 16448 16452 16456 16460 16464 16468 16472 16476 16480 16484 16488 16492 16496 16500 16504 16508 16512 16516 16520 16524 16528 16532 16536 16540 16544 16548 16552 16556 16560 16564 16568 16572 16576 16580 16584 16588 16592 16596 16600 16604 16608 16612 16616 16620 16624 16628 16632 16636 16640 16644 16648 16652 16656 16660 16664 16668 16672 16676 16680 16684 16688 16692 16696 16700 16704 16708 16712 16716 16720 16724 16728 16732 16736 16740 16744 16748 16752 16756 16760 16764 16768 16772 16776 16780 16784 16788 16792 16796 16800 16804 16808 16812 16816 16820 16824 16828 16832 16836 16840 16844 16848 16852 16856 16860 16864 16868 16872 16876 16880 16884 16888 16892 16896 16900 16904 16908 16912 16916 16920 16924 16928 16932 16936 16940 16944 16948 16952 16956 16960 16964 16968 16972 16976 16980 16984 16988 16992 16996 17000 17004 17008 17012 17016 17020 17024 17028 17032 17036 17040 17044 17048 17052 17056 17060 17064 17068 17072 17076 17080 17084 17088 17092 17096 17100 17104 17108 17112 17116 17120 17124 17128 17132 17136 17140 17144 17148 17152 17156 17160 17164 17168 17172 17176 17180 17184 17188 17192 17196 17200 17204 17208 17212 17216 17220 17224 17228 17232 17236 17240 17244 17248 17252 17256 17260 17264 17268 17272 17276 17280 17284 17288 17292 17296 17300 17304 17308 17312 17316 17320 17324 17328 17332 17336 17340 17344 17348 17352 17356 17360 17364 17368 17372 17376 17380 17384 17388 17392 17396 17400 17404 17408 17412 17416 17420 17424 17428 17432 17436 17440 17444 17448 17452 17456 17460 17464 17468 17472 17476 17480 17484 17488 17492 17496 17500 17504 17508 17512 17516 17520 17524 17528 17532 17536 17540 17544 17548 17552 17556 17560 17564 17568 17572 17576 17580 17584 17588 17592 17596 17600 17604 17608 17612 17616 17620 17624 17628 17632 17636 17640 17644 17648 17652 17656 17660 17664 17668 17672 17676 17680 17684 17688 17692 17696 17700 17704 17708 17712 17716 17720 17724 17728 17732 17736 17740 17744 17748 17752 17756 17760 17764 17768 17772 17776 17780 17784 17788 17792 17796 17800 17804 17808 17812 17816 17820 17824 17828 17832 17836 17840 17844 17848 17852 17856 17860 17864 17868 17872 17876 17880 17884 17888 17892 17896 17900 17904 17908 17912 17916 17920 17924 17928 17932 17936 17940 17944 17948 17952 17956 17960 17964 17968 17972 17976 17980 17984 17988 17992 17996 18000 18004 18008 18012 18016 18020 18024 18028 18032 18036 18040 18044 18048 18052 18056 18060 18064 18068 18072 18076 18080 18084 18088 18092 18096 18100 18104 18108 18112 18116 18120 18124 18128 18132 18136 18140 18144 18148 18152 18156 18160 18164 18168 18172 18176 18180 18184 18188 18192 18196 18200 18204 18208 18212 18216 18220 18224 18228 18232 18236 18240 18244 18248 18252 18256 18260 18264 18268 18272 18276 18280 18284 18288 18292 18296 18300 18304 18308 18312 18316 18320 18324 18328 18332 18336 18340 18344 18348 18352 18356 18360 18364 18368 18372 18376 18380 18384 18388 18392 18396 18400 18404 18408 18412 18416 18420 18424 18428 18432 18436 18440 18444 18448 18452 18456 18460 18464 18468 18472 18476 18480 18484 18488 18492 18496 18500 18504 18508 18512 18516 18520 18524 18528 18532 18536 18540 18544 18548 18552 18556 18560 18564 18568 18572 18576 18580 18584 18588 18592 18596 18600 18604 18608 18612 18616 18620 18624 18628 18632 18636 18640 18644 18648 18652 18656 18660 18664 18668 18672 18676 18680 18684 18688 18692 18696 18700 18704 18708 18712 18716 18720 18724 18728 18732 18736 18740 18744 18748 18752 18756 18760 18764 18768 18772 18776 18780 18784 18788 18792 18796 18800 18804 18808 18812 18816 18820 18824 18828 18832 18836 18840 18844 18848 18852 18856 18860 18864 18868 18872 18876 18880 18884 18888 18892 18896 18900 18904 18908 18912 18916 18920 18924 18928 18932 18936 18940 18944 18948 18952 18956 18960 18964 18968 18972 18976 18980 18984 18988 18992 18996 19000 19004 19008 19012 19016 19020 19024 19028 19032 19036 19040 19044 19048 19052 19056 19060 19064 19068 19072 19076 19080 19084 19088 19092 19096 19100 19104 19108 19112 19116 19120 19124 19128 19132 19136 19140 19144 19148 19152 19156 19160 19164 19168 19172 19176 19180 19184 19188 19192 19196 19200 19204 19208 19212 19216 19220 19224 19228 19232 19236 19240 19244 19248 19252 19256 19260 19264 19268 19272 19276 19280 19284 19288 19292 19296 19300 19304 19308 19312 19316 19320 19324 19328 19332 19336 19340 19344 19348 19352 19356 19360 19364 19368 19372 19376 19380 19384 19388 19392 19396 19400 19404 19408 19412 19416 19420 19424 19428 19432 19436 19440 19444 19448 19452 19456 19460 19464 19468 19472 19476 19480 19484 19488 19492 19496 19500 19504 19508 19512 19516 19520 19524 19528 19532 19536 19540 19544 19548 19552 19556 19560 19564 19568 19572 19576 19580 19584 19588 19592 19596 19600 19604 19608 19612 19616 19620 19624 19628 19632 19636 19640 19644 19648 19652 19656 19660 19664 19668 19672 19676 19680 19684 19688 19692 19696 19700 19704 19708 19712 19716 19720 19724 19728 19732 19736 19740 19744 19748 19752 19756 19760 19764 19768 19772 19776 19780 19784 19788 19792 19796 19800 19804 19808 19812 19816 19820 19824 19828 19832 19836 19840 19844 19848 19852 19856 19860 19864 19868 19872 19876 19880 19884 19888 19892 19896 19900 19904 19908 19912 19916 19920 19924 19928 19932 19936 19940 19944 19948 19952 19956 19960 19964 19968 19972 19976 19980 19984 19988 19992 19996 20000 20004 20008 20012 20016 20020 20024 20028 20032 20036 20040 20044 20048 20052 20056 20060 20064 20068 20072 20076 20080 20084 20088 20092 20096 20100 20104 20108 20112 20116 20120 20124 20128 20132 20136 20140 20144 20148 20152 20156 20160 20164 20168 20172 20176 20180 20184 20188 20192 20196 20200 20204 20208 20212 20216 20220 20224 20228 20232 20236 20240 20244 20248 20252 20256 20260 20264 20268 20272 20276 20280 20284 20288 20292 20296 20300 20304 20308 20312 20316 20320 20324 20328 20332 20336 20340 20344 20348 20352 20356 20360 20364 20368 20372 20376 20380 20384 20388 20392 20396 20400 20404 20408 20412 20416 20420 20424 20428 20432 20436 20440 20444 20448 20452 20456 20460 20464 20468 20472 20476 20480 20484 20488 20492 20496 20500 20504 20508 20512 20516 20520 20524 20528 20532 20536 20540 20544 20548 20552 20556 20560 20564 20568 20572 20576 20580 20584 20588 20592 20596 20600 20604 20608 20612 20616 20620 20624 20628 20632 20636 20640 20644 20648 20652 20656 20660 20664 20668 20672 20676 20680 20684 20688 20692 20696 20700 20704 20708 20712 20716 20720 20724 20728 20732 20736 20740 20744 20748 20752 20756 20760 20764 20768 20772 20776 20780 20784 20788 20792 20796 20800 20804 20808 20812 20816 20820 20824 20828 20832 20836 20840 20844 20848 20852 20856 20860 20864 20868 20872 20876 20880 20884 20888 20892 20896 20900 20904 20908 20912 20916 20920 20924 20928 20932 20936 20940 20944 20948 20952 20956 20960 20964 20968 20972 20976 20980 20984 20988 20992 20996 21000 21004 21008 21012 21016 21020 21024 21028 21032 21036 21040 21044 21048 21052 21056 21060 21064 21068 21072 21076 21080 21084 21088 21092 21096 21100 21104 21108 21112 21116 21120 21124 21128 21132 21136 21140 21144 21148 21152 21156 21160 21164 21168 21172 21176 21180 21184 21188 21192 21196 21200 21204 21208 21212 21216 21220 21224 21228 21232 21236 21240 21244 21248 21252 21256 21260 21264 21268 21272 21276 21280 21284 21288 21292 21296 21300 21304 21308 21312 21316 21320 21324 21328 21332 21336 21340 21344 21348 21352 21356 21360 21364 21368 21372 21376 21380 21384 21388 21392 21396 21400 21404 21408 21412 21416 21420 21424 21428 21432 21436 21440 21444 21448 21452 21456 21460 21464 21468 21472 21476 21480 21484 21488 21492 21496 21500 21504 21508 21512 21516 21520 21524 21528 21532 21536 21540 21544 21548 21552 21556 21560 21564 21568 21572 21576 21580 21584 21588 21592 21596 21600 21604 21608 21612 21616 21620 21624 21628 21632 21636 21640 21644 21648 21652 21656 21660 21664 21668 21672 21676 21680 21684 21688 21692 21696 21700 21704 21708 21712 21716 21720 21724 21728 21732 21736 21740 21744 21748 21752 21756 21760 21764 21768 21772 21776 21780 21784 21788 21792 21796 21800 21804 21808 21812 21816 21820 21824 21828 21832 21836 21840 21844 21848 21852 21856 21860 21864 21868 21872 21876 21880 21884 21888 21892 21896 21900 21904 21908 21912 21916 21920 21924 21928 21932 21936 21940 21944 21948 21952 21956 21960 21964 21968 21972 21976 21980 21984 21988 21992 21996 22000 22004 22008 22012 22016 22020 22024 22028 22032 22036 22040 22044 22048 22052 22056 22060 22064 22068 22072 22076 22080 22084 22088 22092 22096 22100 22104 22108 22112 22116 22120 22124 22128 22132 22136 22140 22144 22148 22152 22156 22160 22164 22168 22172 22176 22180 22184 22188 22192 22196 22200 22204 22208 22212 22216 22220 22224 22228 22232 22236 22240 22244 22248 22252 22256 22260 22264 22268 22272 22276 22280 22284 22288 22292 22296 22300 22304 22308 22312 22316 22320 22324 22328 22332 22336 22340 22344 22348 22352 22356 22360 22364 22368 22372 22376 22380 22384 22388 22392 22396 22400 22404 22408 22412 22416 22420 22424 22428 22432 22436 22440 22444 22448 22452 22456 22460 22464 22468 22472 22476 22480 22484 22488 22492 22496 22500 22504 22508 22512 22516 22520 22524 22528 22532 22536 22540 22544 22548 22552 22556 22560 22564 22568 22572 22576 22580 22584 22588 22592 22596 22600 22604 22608 22612 22616 22620 22624 22628 22632 22636 22640 22644 22648 22652 22656 22660 22664 22668 22672 22676 22680 22684 22688 22692 22696 22700 22704 22708 22712 22716 22720 22724 22728 22732 22736 22740 22744 22748 22752 22756 22760 22764 22768 22772 22776 22780 22784 22788 22792 22796 22800 22804 22808 22812 22816 22820 22824 22828 22832 22836 22840 22844 22848 22852 22856 22860 22864 22868 22872 22876 22880 22884 22888 22892 22896 22900 22904 22908 22912 22916 22920 22924 22928 22932 22936 22940 22944 22948 22952 22956 22960 22964 22968 22972 22976 22980 22984 22988 22992 22996 23000 23004 23008 23012 23016 23020 23024 23028 23032 23036 23040 23044 23048 23052 23056 23060 23064 23068 23072 23076 23080 23084 23088 23092 23096 23100 23104 23108 23112 23116 23120 23124 23128 23132 23136 23140 23144 23148 23152 23156 23160 23164 23168 23172 23176 23180 23184 23188 23192 23196 23200 23204 23208 23212 23216 23220 23224 23228 23232 23236 23240 23244 23248 23252 23256 23260 23264 23268 23272 23276 23280 23284 23288 23292 23296 23300 23304 23308 23312 23316 23320 23324 23328 23332 23336 23340 23344 23348 23352 23356 23360 23364 23368 23372 23376 23380 23384 23388 23392 23396 23400 23404 23408 23412 23416 23420 23424 23428 23432 23436 23440 23444 23448 23452 23456 23460 23464 23468 23472 23476 23480 23484 23488 23492 23496 23500 23504 23508 23512 23516 23520 23524 23528 23532 23536 23540 23544 23548 23552 23556 23560 23564 23568 23572 23576 23580 23584 23588 23592 23596 23600 23604 23608 23612 23616 23620 23624 23628 23632 23636 23640 23644 23648 23652 23656 23660 23664 23668 23672 23676 23680 23684 23688 23692 23696 23700 23704 23708 23712 23716 23720 23724 23728 23732 23736 23740 23744 23748 23752 23756 23760 23764 23768 23772 23776 23780 23784 23788 23792 23796 23800 23804 23808 23812 23816 23820 23824 23828 23832 23836 23840 23844 23848 23852 23856 23860 23864 23868 23872 23876 23880 23884 23888 23892 23896 23900 23904 23908 23912 23916 23920 23924 23928 23932 23936 23940 23944 23948 23952 23956 23960 23964 23968 23972 23976 23980 23984 23988 23992 23996 24000 </DataArray>
            <DataArray Name="types" format="ascii" type="UInt8">10 10 10 10 10 10 10 10 10 10 10 10 10 10 10 10 10 10 10 10 10 10 10 10 10 10 10 10 10 10 10 10 10 10 10 10 10 10 10 10 10 10 10 10 10 10 10 10 10 10 10 10 10 10 10 10 10 10 10 10 10 10 10 10 10 10 10 10 10 10 10 10 10 10 10 10 10 10 10 10 10 10 10 10 10 10 10 10 10 10 10 10 10 10 10 10 10 10 10 10 10 10 10 10 10 10 10 10 10 10 10 10 10 10 10 10 10 10 10 10 10 10 10 10 10 10 10 10 10 10 10 10 10 10 10 10 10 10 10 10 10 10 10 10 10 10 10 10 10 10 10 10 10 10 10 10 10 10 10 10 10 10 10 10 10 10 10 10 10 10 10 10 10 10 10 10 10 10 10 10 10 10 10 10 10 10 10 10 10 10 10 10 10 10 10 10 10 10 10 10 10 10 10 10 10 10 10 10 10 10 10 10 10 10 10 10 10 10 10 10 10 10 10 10 10 10 10 10 10 10 10 10 10 10 10 10 10 10 10 10 10 10 10 10 10 10 10 10 10 10 10 10 10 10 10 10 10 10 10 10 10 10 10 10 10 10 10 10 10 10 10 10 10 10 10 10 10 10 10 10 10 10 10 10 10 10 10 10 10 10 10 10 10 10 10 10 10 10 10 10 10 10 10 10 10 10 10 10 10 10 10 10 10 10 10 10 10 10 10 10 10 10 10 10 10 10 10 10 10 10 10 10 10 10 10 10 10 10 10 10 10 10 10 10 10 10 10 10 10 10 10 10 10 10 10 10 10 10 10 10 10 10 10 10 10 10 10 10 10 10 10 10 10 10 10 10 10 10 10 10 10 10 10 10 10 10 10 10 10 10 10 10 10 10 10 10 10 10 10 10 10 10 10 10 10 10 10 10 10 10 10 10 10 10 10 10 10 10 10 10 10 10 10 10 10 10 10 10 10 10 10 10 10 10 10 10 10 10 10 10 10 10 10 10 10 10 10 10 10 10 10 10 10 10 10 10 10 10 10 10 10 10 10 10 10 10 10 10 10 10 10 10 10 10 10 10 10 10 10 10 10 10 10 10 10 10 10 10 10 10 10 10 10 10 10 10 10 10 10 10 10 10 10 10 10 10 10 10 10 10 10 10 10 10 10 10 10 10 10 10 10 10 10 10 10 10 10 10 10 10 10 10 10 10 10 10 10 10 10 10 10 10 10 10 10 10 10 10 10 10 10 10 10 10 10 10 10 10 10 10 10 10 10 10 10 10 10 10 10 10 10 10 10 10 10 10 10 10 10 10 10 10 10 10 10 10 10 10 10 10 10 10 10 10 10 10 10 10 10 10 10 10 10 10 10 10 10 10 10 10 10 10 10 10 10 10 10 10 10 10 10 10 10 10 10 10 10 10 10 10 10 10 10 10 10 10 10 10 10 10 10 10 10 10 10 10 10 10 10 10 10 10 10 10 10 10 10 10 10 10 10 10 10 10 10 10 10 10 10 10 10 10 10 10 10 10 10 10 10 10 10 10 10 10 10 10 10 10 10 10 10 10 10 10 10 10 10 10 10 10 10 10 10 10 10 10 10 10 10 10 10 10 10 10 10 10 10 10 10 10 10 10 10 10 10 10 10 10 10 10 10 10 10 10 10 10 10 10 10 10 10 10 10 10 10 10 10 10 10 10 10 10 10 10 10 10 10 10 10 10 10 10 10 10 10 10 10 10 10 10 10 10 10 10 10 10 10 10 10 10 10 10 10 10 10 10 10 10 10 10 10 10 10 10 10 10 10 10 10 10 10 10 10 10 10 10 10 10 10 10 10 10 10 10 10 10 10 10 10 10 10 10 10 10 10 10 10 10 10 10 10 10 10 10 10 10 10 10 10 10 10 10 10 10 10 10 10 10 10 10 10 10 10 10 10 10 10 10 10 10 10 10 10 10 10 10 10 10 10 10 10 10 10 10 10 10 10 10 10 10 10 10 10 10 10 10 10 10 10 10 10 10 10 10 10 10 10 10 10 10 10 10 10 10 10 10 10 10 10 10 10 10 10 10 10 10 10 10 10 10 10 10 10 10 10 10 10 10 10 10 10 10 10 10 10 10 10 10 10 10 10 10 10 10 10 10 10 10 10 10 10 10 10 10 10 10 10 10 10 10 10 10 10 10 10 10 10 10 10 10 10 10 10 10 10 10 10 10 10 10 10 10 10 10 10 10 10 10 10 10 10 10 10 10 10 10 10 10 10 10 10 10 10 10 10 10 10 10 10 10 10 10 10 10 10 10 10 10 10 10 10 10 10 10 10 10 10 10 10 10 10 10 10 10 10 10 10 10 10 10 10 10 10 10 10 10 10 10 10 10 10 10 10 10 10 10 10 10 10 10 10 10 10 10 10 10 10 10 10 10 10 10 10 10 10 10 10 10 10 10 10 10 10 10 10 10 10 10 10 10 10 10 10 10 10 10 10 10 10 10 10 10 10 10 10 10 10 10 10 10 10 10 10 10 10 10 10 10 10 10 10 10 10 10 10 10 10 10 10 10 10 10 10 10 10 10 10 10 10 10 10 10 10 10 10 10 10 10 10 10 10 10 10 10 10 10 10 10 10 10 10 10 10 10 10 10 10 10 10 10 10 10 10 10 10 10 10 10 10 10 10 10 10 10 10 10 10 10 10 10 10 10 10 10 10 10 10 10 10 10 10 10 10 10 10 10 10 10 10 10 10 10 10 10 10 10 10 10 10 10 10 10 10 10 10 10 10 10 10 10 10 10 10 10 10 10 10 10 10 10 10 10 10 10 10 10 10 10 10 10 10 10 10 10 10 10 10 10 10 10 10 10 10 10 10 10 10 10 10 10 10 10 10 10 10 10 10 10 10 10 10 10 10 10 10 10 10 10 10 10 10 10 10 10 10 10 10 10 10 10 10 10 10 10 10 10 10 10 10 10 10 10 10 10 10 10 10 10 10 10 10 10 10 10 10 10 10 10 10 10 10 10 10 10 10 10 10 10 10 10 10 10 10 10 10 10 10 10 10 10 10 10 10 10 10 10 10 10 10 10 10 10 10 10 10 10 10 10 10 10 10 10 10 10 10 10 10 10 10 10 10 10 10 10 10 10 10 10 10 10 10 10 10 10 10 10 10 10 10 10 10 10 10 10 10 10 10 10 10 10 10 10 10 10 10 10 10 10 10 10 10 10 10 10 10 10 10 10 10 10 10 10 10 10 10 10 10 10 10 10 10 10 10 10 10 10 10 10 10 10 10 10 10 10 10 10 10 10 10 10 10 10 10 10 10 10 10 10 10 10 10 10 10 10 10 10 10 10 10 10 10 10 10 10 10 10 10 10 10 10 10 10 10 10 10 10 10 10 10 10 10 10 10 10 10 10 10 10 10 10 10 10 10 10 10 10 10 10 10 10 10 10 10 10 10 10 10 10 10 10 10 10 10 10 10 10 10 10 10 10 10 10 10 10 10 10 10 10 10 10 10 10 10 10 10 10 10 10 10 10 10 10 10 10 10 10 10 10 10 10 10 10 10 10 10 10 10 10 10 10 10 10 10 10 10 10 10 10 10 10 10 10 10 10 10 10 10 10 10 10 10 10 10 10 10 10 10 10 10 10 10 10 10 10 10 10 10 10 10 10 10 10 10 10 10 10 10 10 10 10 10 10 10 10 10 10 10 10 10 10 10 10 10 10 10 10 10 10 10 10 10 10 10 10 10 10 10 10 10 10 10 10 10 10 10 10 10 10 10 10 10 10 10 10 10 10 10 10 10 10 10 10 10 10 10 10 10 10 10 10 10 10 10 10 10 10 10 10 10 10 10 10 10 10 10 10 10 10 10 10 10 10 10 10 10 10 10 10 10 10 10 10 10 10 10 10 10 10 10 10 10 10 10 10 10 10 10 10 10 10 10 10 10 10 10 10 10 10 10 10 10 10 10 10 10 10 10 10 10 10 10 10 10 10 10 10 10 10 10 10 10 10 10 10 10 10 10 10 10 10 10 10 10 10 10 10 10 10 10 10 10 10 10 10 10 10 10 10 10 10 10 10 10 10 10 10 10 10 10 10 10 10 10 10 10 10 10 10 10 10 10 10 10 10 10 10 10 10 10 10 10 10 10 10 10 10 10 10 10 10 10 10 10 10 10 10 10 10 10 10 10 10 10 10 10 10 10 10 10 10 10 10 10 10 10 10 10 10 10 10 10 10 10 10 10 10 10 10 10 10 10 10 10 10 10 10 10 10 10 10 10 10 10 10 10 10 10 10 10 10 10 10 10 10 10 10 10 10 10 10 10 10 10 10 10 10 10 10 10 10 10 10 10 10 10 10 10 10 10 10 10 10 10 10 10 10 10 10 10 10 10 10 10 10 10 10 10 10 10 10 10 10 10 10 10 10 10 10 10 10 10 10 10 10 10 10 10 10 10 10 10 10 10 10 10 10 10 10 10 10 10 10 10 10 10 10 10 10 10 10 10 10 10 10 10 10 10 10 10 10 10 10 10 10 10 10 10 10 10 10 10 10 10 10 10 10 10 10 10 10 10 10 10 10 10 10 10 10 10 10 10 10 10 10 10 10 10 10 10 10 10 10 10 10 10 10 10 10 10 10 10 10 10 10 10 10 10 10 10 10 10 10 10 10 10 10 10 10 10 10 10 10 10 10 10 10 10 10 10 10 10 10 10 10 10 10 10 10 10 10 10 10 10 10 10 10 10 10 10 10 10 10 10 10 10 10 10 10 10 10 10 10 10 10 10 10 10 10 10 10 10 10 10 10 10 10 10 10 10 10 10 10 10 10 10 10 10 10 10 10 10 10 10 10 10 10 10 10 10 10 10 10 10 10 10 10 10 10 10 10 10 10 10 10 10 10 10 10 10 10 10 10 10 10 10 10 10 10 10 10 10 10 10 10 10 10 10 10 10 10 10 10 10 10 10 10 10 10 10 10 10 10 10 10 10 10 10 10 10 10 10 10 10 10 10 10 10 10 10 10 10 10 10 10 10 10 10 10 10 10 10 10 10 10 10 10 10 10 10 10 10 10 10 10 10 10 10 10 10 10 10 10 10 10 10 10 10 10 10 10 10 10 10 10 10 10 10 10 10 10 10 10 10 10 10 10 10 10 10 10 10 10 10 10 10 10 10 10 10 10 10 10 10 10 10 10 10 10 10 10 10 10 10 10 10 10 10 10 10 10 10 10 10 10 10 10 10 10 10 10 10 10 10 10 10 10 10 10 10 10 10 10 10 10 10 10 10 10 10 10 10 10 10 10 10 10 10 10 10 10 10 10 10 10 10 10 10 10 10 10 10 10 10 10 10 10 10 10 10 10 10 10 10 10 10 10 10 10 10 10 10 10 10 10 10 10 10 10 10 10 10 10 10 10 10 10 10 10 10 10 10 10 10 10 10 10 10 10 10 10 10 10 10 10 10 10 10 10 10 10 10 10 10 10 10 10 10 10 10 10 10 10 10 10 10 10 10 10 10 10 10 10 10 10 10 10 10 10 10 10 10 10 10 10 10 10 10 10 10 10 10 10 10 10 10 10 10 10 10 10 10 10 10 10 10 10 10 10 10 10 10 10 10 10 10 10 10 10 10 10 10 10 10 10 10 10 10 10 10 10 10 10 10 10 10 10 10 10 10 10 10 10 10 10 10 10 10 10 10 10 10 10 10 10 10 10 10 10 10 10 10 10 10 10 10 10 10 10 10 10 10 10 10 10 10 10 10 10 10 10 10 10 10 10 10 10 10 10 10 10 10 10 10 10 10 10 10 10 10 10 10 10 10 10 10 10 10 10 10 10 10 10 10 10 10 10 10 10 10 10 10 10 10 10 10 10 10 10 10 10 10 10 10 10 10 10 10 10 10 10 10 10 10 10 10 10 10 10 10 10 10 10 10 10 10 10 10 10 10 10 10 10 10 10 10 10 10 10 10 10 10 10 10 10 10 10 10 10 10 10 10 10 10 10 10 10 10 10 10 10 10 10 10 10 10 10 10 10 10 10 10 10 10 10 10 10 10 10 10 10 10 10 10 10 10 10 10 10 10 10 10 10 10 10 10 10 10 10 10 10 10 10 10 10 10 10 10 10 10 10 10 10 10 10 10 10 10 10 10 10 10 10 10 10 10 10 10 10 10 10 10 10 10 10 10 10 10 10 10 10 10 10 10 10 10 10 10 10 10 10 10 10 10 10 10 10 10 10 10 10 10 10 10 10 10 10 10 10 10 10 10 10 10 10 10 10 10 10 10 10 10 10 10 10 10 10 10 10 10 10 10 10 10 10 10 10 10 10 10 10 10 10 10 10 10 10 10 10 10 10 10 10 10 10 10 10 10 10 10 10 10 10 10 10 10 10 10 10 10 10 10 10 10 10 10 10 10 10 10 10 10 10 10 10 10 10 10 10 10 10 10 10 10 10 10 10 10 10 10 10 10 10 10 10 10 10 10 10 10 10 10 10 10 10 10 10 10 10 10 10 10 10 10 10 10 10 10 10 10 10 10 10 10 10 10 10 10 10 10 10 10 10 10 10 10 10 10 10 10 10 10 10 10 10 10 10 10 10 10 10 10 10 10 10 10 10 10 10 10 10 10 10 10 10 10 10 10 10 10 10 10 10 10 10 10 10 10 10 10 10 10 10 10 10 10 10 10 10 10 10 10 10 10 10 10 10 10 10 10 10 10 10 10 10 10 10 10 10 10 10 10 10 10 10 10 10 10 10 10 10 10 10 10 10 10 10 10 10 10 10 10 10 10 10 10 10 10 10 10 10 10 10 10 10 10 10 10 10 10 10 10 10 10 10 10 10 10 10 10 10 10 10 10 10 10 10 10 10 10 10 10 10 10 10 10 10 10 10 10 10 10 10 10 10 10 10 10 10 10 10 10 10 10 10 10 10 10 10 10 10 10 10 10 10 10 10 10 10 10 10 10 10 10 10 10 10 10 10 10 10 10 10 10 10 10 10 10 10 10 10 10 10 10 10 10 10 10 10 10 10 10 10 10 10 10 10 10 10 10 10 10 10 10 10 10 10 10 10 10 10 10 10 10 10 10 10 10 10 10 10 10 10 10 10 10 10 10 10 10 10 10 10 10 10 10 10 10 10 10 10 10 10 10 10 10 10 10 10 10 10 10 10 10 10 10 10 10 10 10 10 10 10 10 10 10 10 10 10 10 10 10 10 10 10 10 10 10 10 10 10 10 10 10 10 10 10 10 10 10 10 10 10 10 10 10 10 10 10 10 10 10 10 10 10 10 10 10 10 10 10 10 10 10 10 10 10 10 10 10 10 10 10 10 10 10 10 10 10 10 10 10 10 10 10 10 10 10 10 10 10 10 10 10 10 10 10 10 10 10 10 10 10 10 10 10 10 10 10 10 10 10 10 10 10 10 10 10 10 10 10 10 10 10 10 10 10 10 10 10 10 10 10 10 10 10 10 10 10 10 10 10 10 10 10 10 10 10 10 10 10 10 10 10 10 10 10 10 10 10 10 10 10 10 10 10 10 10 10 10 10 10 10 10 10 10 10 10 10 10 10 10 10 10 10 10 10 10 10 10 10 10 10 10 10 10 10 10 10 10 10 10 10 10 10 10 10 10 10 10 10 10 10 10 10 10 10 10 10 10 10 10 10 10 10 10 10 10 10 10 10 10 10 10 10 10 10 10 10 10 10 10 10 10 10 10 10 10 10 10 10 10 10 10 10 10 10 10 10 10 10 10 10 10 10 10 10 10 10 10 10 10 10 10 10 10 10 10 10 10 10 10 10 10 10 10 10 10 10 10 10 10 10 10 10 10 10 10 10 10 10 10 10 10 10 10 10 10 10 10 10 10 10 10 10 10 10 10 10 10 10 10 10 10 10 10 10 10 10 10 10 10 10 10 10 10 10 10 10 10 10 10 10 10 10 10 10 10 10 10 10 10 10 10 10 10 10 10 10 10 10 10 10 10 10 10 10 10 10 10 10 10 10 10 10 10 10 10 10 10 10 10 10 10 10 10 10 10 10 10 10 10 10 10 10 10 10 10 10 10 10 10 10 10 10 10 10 10 10 10 10 10 10 10 10 10 10 10 10 10 10 10 10 10 10 10 10 10 10 10 10 10 10 10 10 10 10 10 10 10 10 10 10 10 10 10 10 10 10 10 10 10 10 10 10 10 10 10 10 10 10 10 10 10 10 10 10 10 10 10 10 10 10 10 10 10 10 10 10 10 10 10 10 10 10 10 10 10 10 10 10 10 10 10 10 10 10 10 10 10 10 10 10 10 10 10 10 10 10 10 10 10 10 10 10 10 10 10 10 10 10 10 10 10 10 10 10 10 10 10 10 10 10 10 10 10 10 10 10 10 10 10 10 10 10 10 10 10 10 10 10 10 10 10 10 10 10 10 10 10 10 10 10 10 10 10 10 10 10 10 10 10 10 10 10 10 10 10 10 10 10 10 10 10 10 10 10 10 10 10 10 10 10 10 10 10 10 10 10 10 10 10 10 10 10 10 10 10 10 10 10 10 10 10 10 10 10 10 10 10 10 10 10 10 10 10 10 10 10 10 10 10 10 10 10 10 10 10 10 10 10 10 10 10 10 10 10 10 10 10 10 10 10 10 10 10 10 10 10 10 10 10 10 10 10 10 10 10 10 10 10 10 10 10 10 10 10 10 10 10 10 10 10 10 10 10 10 10 10 10 10 10 10 10 10 10 10 10 10 10 10 10 10 10 10 10 10 10 10 10 10 10 10 10 10 10 10 10 10 10 10 10 10 10 10 10 10 10 10 10 10 10 10 10 10 10 10 10 10 10 10 10 10 10 10 10 10 10 10 10 10 10 10 10 10 10 10 10 10 10 10 10 10 10 10 10 10 10 10 10 10 10 10 10 10 10 10 10 10 10 10 10 10 10 10 10 10 10 10 10 10 10 10 10 10 10 10 10 10 10 10 10 10 10 10 10 10 10 10 10 10 10 10 10 10 10 10 10 10 10 10 10 10 10 10 10 10 10 10 10 10 10 10 10 10 10 10 10 10 10 10 10 10 10 10 10 10 10 10 10 10 10 10 10 10 10 10 10 10 10 10 10 10 10 10 10 10 10 10 10 10 10 10 10 10 10 10 10 10 10 10 10 10 10 10 10 10 10 10 10 10 10 10 10 10 10 10 10 10 10 10 10 10 10 10 10 10 10 10 10 10 10 10 10 10 10 10 10 10 10 10 10 10 10 10 10 10 10 10 10 10 10 10 10 10 10 10 10 10 10 10 10 10 10 10 10 10 10 10 10 10 10 10 10 10 10 10 10 10 10 10 10 10 10 10 10 10 10 10 10 10 10 10 10 10 10 10 10 10 10 10 10 10 10 10 10 10 10 10 10 10 10 10 10 10 10 10 10 10 10 10 10 10 10 10 10 10 10 10 10 10 10 10 10 10 10 10 10 10 10 10 10 10 10 10 10 10 10 10 10 10 10 10 10 10 10 10 10 10 10 10 10 10 10 10 10 10 10 10 10 10 10 10 10 10 10 10 10 10 10 10 10 10 10 10 10 10 10 10 10 10 10 10 10 10 10 10 10 10 10 10 10 10 10 10 10 10 10 10 10 10 10 10 10 10 10 10 10 10 10 10 10 10 10 10 10 10 10 10 10 10 10 10 10 10 10 10 10 10 10 10 10 10 10 10 10 10 10 10 10 10 10 10 10 10 10 10 10 10 10 10 10 10 10 10 10 10 10 10 10 10 10 10 10 10 10 10 10 10 10 10 10 10 10 10 10 10 10 10 10 10 10 10 10 10 10 10 10 10 10 10 10 10 10 10 10 10 10 10 10 10 10 10 10 10 10 10 10 10 10 10 10 10 10 10 10 10 10 10 10 10 10 10 10 10 10 10 10 10 10 10 10 10 10 10 10 10 10 10 10 10 10 10 10 10 10 10 10 10 10 10 10 10 10 10 10 10 10 10 10 10 10 10 10 10 10 10 10 10 10 10 10 10 10 10 10 10 10 10 10 10 10 10 10 10 10 10 10 10 10 10 10 10 10 10 10 10 10 10 10 10 10 10 10 10 10 10 10 10 10 10 10 10 10 10 10 10 10 10 10 10 10 10 10 10 10 10 10 10 10 10 10 10 10 10 10 10 10 10 10 10 10 10 10 10 10 10 10 10 10 10 10 10 10 10 10 10 10 10 10 10 10 10 10 10 10 10 10 10 10 10 10 10 10 10 10 10 10 10 10 10 10 10 10 10 10 10 10 10 10 10 10 10 10 10 10 10 10 10 10 10 10 10 10 10 10 10 10 10 10 10 10 10 10 10 10 10 10 10 10 10 10 10 10 10 10 10 10 10 10 10 10 10 10 10 10 10 10 10 10 10 10 10 10 10 10 10 10 10 10 10 10 10 10 10 10 10 10 10 10 10 10 10 10 10 10 10 10 10 10 10 10 10 10 10 10 10 10 10 10 10 10 10 10 10 10 10 10 10 10 10 10 10 10 10 10 10 10 10 10 10 10 10 10 10 10 10 10 10 10 10 10 10 10 10 10 10 10 10 10 10 10 10 10 10 10 10 10 10 10 10 10 10 10 10 10 10 10 10 10 10 10 10 10 10 10 10 10 10 10 10 10 10 10 10 10 10 10 10 10 10 10 10 10 10 10 10 10 10 10 10 10 10 10 10 10 10 10 10 10 10 10 10 10 10 10 10 10 10 10 10 10 10 10 10 10 10 10 10 10 10 10 10 10 10 10 10 10 10 10 10 10 10 10 10 10 10 10 10 10 10 10 10 10 10 10 10 10 10 10 10 10 10 10 10 10 10 10 10 10 10 10 10 10 10 10 10 10 10 10 10 10 10 10 10 10 10 10 10 10 10 10 10 10 10 10 10 10 10 10 10 10 10 10 10 10 10 10 10 10 10 10 10 10 10 10 10 10 10 10 10 10 10 10 10 10 10 10 10 10 10 10 10 10 10 10 10 10 10 10 10 10 10 10 10 10 10 10 10 10 10 10 10 10 10 10 10 10 10 10 10 10 10 10 10 10 10 10 10 10 10 10 10 10 10 10 10 10 10 10 10 10 10 10 10 10 10 10 10 10 10 10 10 10 10 10 10 10 10 10 10 10 10 10 10 10 10 10 10 10 10 10 10 10 10 10 10 10 10 10 10 10 10 10 10 10 10 10 10 10 10 10 10 10 10 10 10 10 10 10 10 10 10 10 10 10 10 10 10 10 10 10 10 10 10 10 10 10 10 10 10 10 10 10 10 10 10 10 10 10 10 10 10 10 10 10 10 10 10 10 10 10 10 10 10 10 10 10 10 10 10 10 10 10 10 10 10 10 10 10 10 10 10 10 10 10 10 10 10 10 10 10 10 10 10 10 10 10 10 10 10 10 10 10 10 10 10 10 10 10 10 10 10 10 10 10 10 10 10 10 10 10 10 10 10 10 10 10 10 10 10 10 10 10 10 10 10 10 10 10 10 10 10 10 10 10 10 10 10 10 10 10 10 10 10 10 10 10 10 10 10 10 10 10 10 10 10 10 10 10 10 10 10 10 10 10 10 10 10 10 10 10 10 10 10 10 10 10 10 10 10 10 10 10 10 10 10 10 10 10 10 10 10 10 10 10 10 10 10 10 10 10 10 10 10 10 10 10 10 10 10 10 10 10 10 10 10 10 10 10 10 10 10 10 10 10 10 10 10 10 10 10 10 10 10 10 10 10 10 10 10 10 10 10 10 10 10 10 10 10 10 10 10 10 10 10 10 10 10 10 10 10 10 10 10 10 10 10 10 10 10 10 10 10 10 10 10 10 10 10 10 10 10 10 10 10 10 10 10 10 10 10 10 10 10 10 10 10 10 10 10 10 10 10 10 10 10 10 10 10 10 10 10 10 10 10 10 10 10 10 10 10 10 10 10 10 10 10 10 10 10 10 10 10 10 10 10 10 10 10 10 10 10 10 10 10 10 10 10 10 10 10 10 10 10 10 10 10 10 10 10 10 10 10 10 10 10 10 10 10 10 10 10 10 10 10 10 10 10 10 10 10 10 10 10 10 10 10 10 10 10 10 10 10 10 10 10 10 10 10 10 10 10 10 10 10 10 10 10 10 10 10 10 10 10 10 10 10 10 10 10 10 10 10 10 10 10 10 10 10 10 10 10 10 10 10 10 10 10 10 10 10 10 10 10 10 10 10 10 10 10 10 10 10 10 10 10 10 10 10 10 10 10 10 10 10 10 10 10 10 10 10 10 10 10 10 10 10 10 10 10 10 10 10 10 10 10 10 10 10 10 10 10 10 10 10 10 10 10 10 10 10 10 10 10 10 10 10 10 10 10 10 10 10 10 10 10 10 10 10 10 10 10 10 10 10 10 10 10 10 10 10 10 10 10 10 10 10 10 10 10 10 10 10 10 10 10 10 10 10 10 10 10 10 10 10 10 10 10 10 10 10 10 10 10 10 10 10 10 10 10 10 10 10 10 10 10 10 10 10 10 10 10 10 10 10 10 10 10 10 10 10 10 10 10 10 10 10 10 10 10 10 10 10 10 10 10 10 10 10 10 10 10 10 10 10 10 10 10 10 10 10 10 10 10 10 10 10 10 10 10 10 10 10 10 10 10 10 10 10 10 10 10 10 10 10 10 10 10 10 10 10 10 10 10 10 10 10 10 10 10 10 10 10 10 10 10 10 10 10 10 10 10 10 10 10 10 10 10 10 10 10 10 10 10 10 10 10 10 10 10 10 10 10 10 10 10 10 10 10 10 10 10 10 10 10 10 10 10 10 10 10 10 10 10 10 10 10 10 10 10 10 10 10 10 10 10 10 10 10 10 10 10 10 10 10 10 10 10 10 10 10 10 10 10 10 10 10 10 10 10 10 10 10 10 10 10 10 10 10 10 10 10 10 10 10 10 10 10 10 10 10 10 10 10 10 10 10 10 10 10 10 10 10 10 10 10 10 10 10 10 10 10 10 10 10 10 10 10 10 10 10 10 10 10 10 10 10 10 10 10 10 10 10 10 10 10 10 10 10 10 10 10 10 10 10 10 10 10 10 10 10 10 10 10 10 10 10 10 10 10 10 10 10 10 10 10 10 10 10 10 10 10 10 10 10 10 10 10 10 10 10 10 10 10 10 10 10 10 10 10 10 10 10 10 10 10 10 10 10 10 10 10 10 10 10 10 10 10 10 10 10 10 10 10 10 10 10 10 10 10 10 10 10 10 10 10 10 10 10 10 10 10 10 10 10 10 10 10 10 10 10 10 10 10 10 10 10 10 10 10 10 10 10 10 10 10 10 10 10 10 10 10 10 10 10 10 10 10 10 10 10 10 10 10 10 10 10 10 10 10 10 10 10 10 10 10 10 10 10 10 10 10 10 10 10 10 10 10 10 10 10 10 10 10 10 10 10 10 10 10 10 10 10 10 10 10 10 10 10 10 10 10 10 10 10 10 10 10 10 10 10 10 10 10 10 10 10 10 10 10 10 10 10 10 10 10 10 10 10 10 10 10 10 10 10 10 10 10 10 10 </DataArray>
         </Cells>
         <PointData>
            <DataArray Name="displacement" NumberOfComponents="3" format="ascii" type="Float64">
 7.91209e+03  5.25656e+02 -2.36315e+02 
 8.01703e+03  5.21791e+02 -2.38145e+02 
 7.90771e+03  4.25983e+02 -1.62131e+02 
 7.99126e+03  5.22459e+02 -2.35404e+02 
 8.01897e+03  4.26027e+02 -1.61318e+02 
 8.09422e+03  5.21690e+02 -2.40398e+02 
 7.98908e+03  4.21611e+02 -1.63092e+02 
 8.09461e+03  4.23127e+02 -1.63798e+02 
 8.12163e+03  5.10277e+02 -2.39317e+02 
 7.89490e+03  3.41881e+02 -1.01831e+02 
 8.07579e+03  5.17031e+02 -2.25332e+02 
 7.97666e+03  3.36525e+02 -1.10285e+02 
 8.18122e+03  5.20256e+02 -2.33815e+02 
 8.20235e+03  5.12582e+02 -2.45121e+02 
 8.12688e+03  4.19890e+02 -1.59364e+02 
 8.07874e+03  4.12340e+02 -1.58870e+02 
 8.00845e+03  3.48359e+02 -9.99588e+01 
 8.18549e+03  4.14965e+02 -1.62269e+02 
 8.20568e+03  4.17822e+02 -1.62301e+02 
 8.07869e+03  3.45718e+02 -1.11167e+02 
 8.07231e+03  3.25876e+02 -1.13211e+02 
 8.29847e+03  5.14812e+02 -2.42067e+02 
 8.12151e+03  3.48217e+02 -9.78672e+01 
 8.15910e+03  5.11054e+02 -2.00948e+02 
 8.30655e+03  4.11724e+02 -1.62054e+02 
 7.84798e+03  2.74437e+02 -5.52100e+01 
 8.22987e+03  4.84314e+02 -2.39916e+02 
 8.19368e+03  3.46485e+02 -1.07664e+02 
 8.17252e+03  3.35650e+02 -1.16822e+02 
 8.24243e+03  4.05553e+02 -1.54789e+02 
 8.27049e+03  5.19235e+02 -2.10747e+02 
 8.16892e+03  4.00995e+02 -1.46745e+02 
 7.93563e+03  2.68263e+02 -7.65494e+01 
 8.31638e+03  4.87693e+02 -2.50242e+02 
 7.97094e+03  2.92786e+02 -5.35736e+01 
 8.32548e+03  4.03500e+02 -1.58642e+02 
 8.28017e+03  4.04332e+02 -1.51519e+02 
 8.03952e+03  2.89008e+02 -7.77371e+01 
 8.29606e+03  3.37955e+02 -1.13640e+02 
 8.24359e+03  3.40576e+02 -9.29827e+01 
 8.40440e+03  5.18510e+02 -2.19461e+02 
 8.16968e+03  3.13548e+02 -1.08777e+02 
 8.04293e+03  2.57658e+02 -8.80081e+01 
 8.42819e+03  4.90573e+02 -2.51286e+02 
 8.09498e+03  2.97412e+02 -5.30995e+01 
 8.31914e+03  3.38801e+02 -1.02196e+02 
 8.44326e+03  3.98833e+02 -1.59030e+02 
 8.41957e+03  4.02865e+02 -1.52201e+02 
 8.27198e+03  3.23363e+02 -1.13554e+02 
 8.16246e+03  2.94854e+02 -7.25442e+01 
 8.14069e+03  2.77012e+02 -9.15716e+01 
 8.22787e+03  5.05492e+02 -1.62966e+02 
 7.74330e+03  2.19929e+02 -1.93627e+01 
 8.32607e+03  4.43816e+02 -2.40496e+02 
 8.43687e+03  3.31806e+02 -1.08048e+02 
 8.34322e+03  3.83233e+02 -1.51298e+02 
 8.42014e+03  4.46000e+02 -2.54694e+02 
 8.34794e+03  5.17951e+02 -1.71274e+02 
 7.85137e+03  2.12181e+02 -6.01169e+01 
 8.41228e+03  3.27121e+02 -1.11237e+02 
 8.24279e+03  3.91449e+02 -1.27269e+02 
 7.89265e+03  2.55946e+02 -1.83476e+01 
 8.26918e+03  2.84270e+02 -8.57517e+01 
 8.43198e+03  3.80359e+02 -1.55726e+02 
 8.22951e+03  2.92219e+02 -4.92256e+01 
 8.56546e+03  4.92464e+02 -2.26303e+02 
 8.35940e+03  3.94678e+02 -1.31351e+02 
 8.15235e+03  2.45880e+02 -8.82308e+01 
 7.96874e+03  2.49442e+02 -6.13315e+01 
 8.29838e+03  2.89898e+02 -6.59339e+01 
 8.59118e+03  3.90800e+02 -1.49045e+02 
 8.24928e+03  2.63275e+02 -9.26701e+01 
 8.50710e+03  5.22352e+02 -1.78198e+02 
 8.24838e+03  3.04096e+02 -9.83228e+01 
 8.55587e+03  4.47692e+02 -2.60351e+02 
 7.98388e+03  2.01301e+02 -8.08374e+01 
 8.04117e+03  2.64321e+02 -2.10362e+01 
 8.34927e+03  3.26618e+02 -8.95551e+01 
 8.57025e+03  3.77423e+02 -1.54748e+02 
 8.42958e+03  3.23995e+02 -9.84479e+01 
 8.52093e+03  3.92910e+02 -1.32898e+02 
 8.10963e+03  2.59552e+02 -5.32610e+01 
 8.35418e+03  3.13408e+02 -1.02220e+02 
 8.08720e+03  2.33584e+02 -8.36680e+01 
 8.58548e+03  3.22723e+02 -1.06318e+02 
 8.41712e+03  2.81357e+02 -7.81192e+01 
 8.39157e+03  2.71625e+02 -8.79289e+01 
 8.22795e+03  2.45036e+02 -7.32204e+01 
 8.51433e+03  3.17703e+02 -1.01835e+02 
 8.56592e+03  3.18931e+02 -1.03602e+02 
 8.19877e+03  2.57214e+02 -1.84821e+01 
 8.34342e+03  2.78675e+02 -4.65548e+01 
 8.38953e+03  3.94389e+02 -2.43923e+02 
 8.11663e+03  1.89763e+02 -8.17857e+01 
 7.54689e+03  1.73018e+02  1.04953e+01 
 8.26489e+03  5.01709e+02 -1.16410e+02 
 8.75208e+03  4.45539e+02 -2.34147e+02 
 8.72693e+03  4.95125e+02 -1.80440e+02 
 8.24020e+03  2.37031e+02 -7.90731e+01 
 8.26490e+03  2.53321e+02 -4.43517e+01 
 8.76916e+03  3.71835e+02 -1.39387e+02 
 8.74409e+03  3.76815e+02 -1.31109e+02 
 8.41588e+03  2.76113e+02 -6.15372e+01 
 8.38609e+03  5.16438e+02 -1.20809e+02 
 8.28162e+03  3.88642e+02 -1.02200e+02 
 8.48556e+03  3.92916e+02 -2.59307e+02 
 7.70507e+03  1.62204e+02 -5.98687e+01 
 8.21407e+03  2.16690e+02 -8.51528e+01 
 7.75499e+03  2.36302e+02  1.03340e+01 
 8.40746e+03  3.55749e+02 -1.55213e+02 
 8.33857e+03  2.52571e+02 -8.26529e+01 
 8.56834e+03  2.70900e+02 -8.12544e+01 
 8.39804e+03  3.93535e+02 -1.06151e+02 
 8.49832e+03  3.51587e+02 -1.60753e+02 
 7.85613e+03  2.23591e+02 -6.02804e+01 
 8.73568e+03  3.13250e+02 -9.95843e+01 
 8.54953e+03  5.23060e+02 -1.23355e+02 
 8.38949e+03  2.41670e+02 -6.14491e+01 
 8.28931e+03  3.00661e+02 -8.25201e+01 
 7.88807e+03  1.50361e+02 -9.06417e+01 
 8.55066e+03  2.70382e+02 -7.27595e+01 
 8.62498e+03  3.91339e+02 -2.66256e+02 
 8.36368e+03  2.28474e+02 -7.59431e+01 
 8.41624e+03  3.09168e+02 -9.19666e+01 
 7.95326e+03  2.46641e+02  2.34672e+00 
 8.76192e+03  3.12408e+02 -1.00813e+02 
 8.49856e+03  2.61230e+02 -8.02937e+01 
 8.56400e+03  3.94759e+02 -1.08387e+02 
 8.39551e+03  3.10366e+02 -8.55438e+01 
 8.63983e+03  3.49912e+02 -1.61967e+02 
 8.00925e+03  2.00143e+02 -9.11413e+01 
 8.49883e+03  3.05566e+02 -1.01309e+02 
 8.03296e+03  2.37124e+02 -4.62007e+01 
 8.32729e+03  2.37859e+02 -1.62786e+01 
 8.22103e+03  1.81429e+02 -6.75706e+01 
 9.04173e+03  3.96633e+02 -1.36247e+02 
 8.39509e+03  2.34817e+02 -3.81754e+01 
 8.56092e+03  3.16306e+02 -8.68061e+01 
 9.04038e+03  3.48834e+02 -1.13486e+02 
 8.17507e+03  2.15313e+02 -7.19342e+01 
 8.31704e+03  2.03960e+02 -7.01407e+01 
 8.63961e+03  3.03239e+02 -1.07319e+02 
 8.54875e+03  2.27608e+02 -6.48694e+01 
 8.72187e+03  2.61035e+02 -7.62995e+01 
 8.06281e+03  1.39191e+02 -8.77336e+01 
 8.28542e+03  2.33604e+02 -6.31481e+01 
 8.81965e+03  3.93906e+02 -2.39939e+02 
 8.74748e+03  2.63318e+02 -7.54969e+01 
 8.76851e+03  4.96809e+02 -1.29742e+02 
 8.41346e+03  2.60911e+02 -4.82254e+01 
 8.15122e+03  2.33191e+02  3.45024e+00 
 8.78892e+03  3.82307e+02 -1.10482e+02 
 8.16877e+03  1.77769e+02 -8.82993e+01 
 8.22155e+03  2.26018e+02 -3.27055e+01 
 8.38368e+03  2.48788e+02 -6.56989e+01 
 8.48805e+03  2.57904e+02 -6.30686e+01 
 8.83971e+03  3.48901e+02 -1.49451e+02 
 8.53197e+03  2.27461e+02 -5.30183e+01 
 7.20139e+03  1.24302e+02  4.28137e+01 
 8.26699e+03  4.98298e+02 -7.29230e+01 
 8.41658e+03  3.47432e+02 -2.47469e+02 
 8.48082e+03  2.14987e+02 -6.45625e+01 
 9.03909e+03  3.00390e+02 -9.07016e+01 
 8.38706e+03  5.10649e+02 -7.27456e+01 
 8.43097e+03  3.27627e+02 -1.61143e+02 
 8.28107e+03  3.88664e+02 -7.68026e+01 
 7.46953e+03  1.08162e+02 -7.47474e+01 
 8.51224e+03  3.42136e+02 -2.59876e+02 
 7.52942e+03  2.32081e+02  4.01513e+01 
 8.78642e+03  3.14117e+02 -8.79319e+01 
 8.54882e+03  2.58725e+02 -6.61277e+01 
 7.68821e+03  2.05525e+02 -7.19596e+01 
 8.39526e+03  3.92962e+02 -7.87390e+01 
 8.52185e+03  3.22532e+02 -1.66169e+02 
 8.35981e+03  2.08686e+02 -5.27860e+01 
 8.62697e+03  2.55511e+02 -7.48432e+01 
 8.33424e+03  1.92193e+02 -7.13231e+01 
 8.83845e+03  3.00553e+02 -1.06157e+02 
 8.65109e+03  3.38140e+02 -2.62111e+02 
 7.74770e+03  9.57016e+01 -1.15787e+02 
 8.28661e+03  3.01628e+02 -6.60071e+01 
 8.54965e+03  5.13286e+02 -7.17409e+01 
 8.43822e+03  2.90620e+02 -9.76698e+01 
 7.82302e+03  2.40577e+02  2.27762e+01 
 8.55784e+03  3.92801e+02 -8.12815e+01 
 8.73404e+03  2.18168e+02 -5.54204e+01 
 8.70944e+03  2.14238e+02 -5.70120e+01 
 8.66048e+03  3.22401e+02 -1.65393e+02 
 8.27350e+03  1.78426e+02 -4.39356e+01 
 9.06677e+03  3.94795e+02 -1.37312e+02 
 8.52114e+03  2.86211e+02 -1.07116e+02 
 9.03669e+03  2.52489e+02 -6.78539e+01 
 9.09171e+03  3.97734e+02 -1.37955e+02 
 8.19474e+03  1.31912e+02 -6.21036e+01 
 7.90451e+03  1.68782e+02 -1.09972e+02 
 8.39114e+03  3.10977e+02 -6.69601e+01 
 8.30383e+03  2.02741e+02  5.45693e+00 
 7.93082e+03  2.21391e+02 -4.59173e+01 
 8.40219e+03  2.12665e+02 -1.73082e+01 
 9.06474e+03  3.46637e+02 -1.14100e+02 
 8.37230e+03  1.98477e+02 -2.32107e+01 
 8.36833e+03  1.99511e+02 -4.59835e+01 
 9.09000e+03  3.49464e+02 -1.15243e+02 
 8.29454e+03  1.61891e+02 -6.23056e+01 
 8.47170e+03  2.10354e+02 -3.83598e+01 
 8.77637e+03  2.60635e+02 -6.62992e+01 
 8.53324e+03  1.88670e+02 -5.29927e+01 
 8.82694e+03  2.53012e+02 -7.90896e+01 
 8.65875e+03  2.86164e+02 -1.12474e+02 
 8.55310e+03  3.16630e+02 -7.02351e+01 
 8.11439e+03  1.87546e+02 -7.53586e+01 
 8.85003e+03  3.41997e+02 -2.31920e+02 
 8.08708e+03  2.15930e+02  2.15908e+01 
 8.51657e+03  1.87980e+02 -3.90727e+01 
 8.43282e+03  2.42887e+02 -5.27941e+01 
 8.28094e+03  2.34301e+02 -4.55519e+01 
 7.99291e+03  8.73850e+01 -1.02332e+02 
 8.53604e+03  2.11427e+02 -4.53259e+01 
 9.08779e+03  3.01131e+02 -9.22091e+01 
 8.77354e+03  4.83835e+02 -7.85845e+01 
 9.06245e+03  2.98699e+02 -9.14554e+01 
 8.61170e+03  2.08084e+02 -5.35427e+01 
 8.46756e+03  1.73853e+02 -5.19042e+01 
 8.78215e+03  3.77988e+02 -8.94961e+01 
 8.17198e+03  2.02477e+02 -2.51139e+01 
 8.11751e+03  1.39142e+02 -9.61773e+01 
 8.37752e+03  2.49779e+02 -4.64637e+01 
 8.50836e+03  2.39541e+02 -6.83670e+01 
 8.85965e+03  3.28393e+02 -1.49693e+02 
 9.03480e+03  2.04596e+02 -4.49838e+01 
 8.77681e+03  3.12921e+02 -7.68728e+01 
 8.64462e+03  2.40294e+02 -8.00375e+01 
 6.60390e+03  5.36317e+01  9.52217e+01 
 8.85539e+03  2.89591e+02 -1.09264e+02 
 8.23730e+03  5.00408e+02 -4.03065e+01 
 8.40820e+03  3.11044e+02 -2.57041e+02 
 8.53997e+03  2.59855e+02 -5.00456e+01 
 8.33381e+03  1.76350e+02 -4.56244e+01 
 8.30938e+03  1.55710e+02 -6.74859e+01 
 8.24587e+03  3.94617e+02 -5.61911e+01 
 9.06037e+03  2.50685e+02 -6.84994e+01 
 8.34862e+03  5.09873e+02 -3.61588e+01 
 8.41699e+03  3.04501e+02 -1.73080e+02 
 8.25798e+03  1.29798e+02 -2.45947e+01 
 9.12091e+03  3.96100e+02 -1.39202e+02 
 8.76748e+03  2.12984e+02 -4.43920e+01 
 8.49779e+03  3.02683e+02 -2.66001e+02 
 8.70345e+03  1.69850e+02 -3.93356e+01 
 7.17106e+03  2.37723e+02  8.74718e+01 
 8.72673e+03  1.74795e+02 -3.75642e+01 
 7.10674e+03  2.87124e+01 -1.00537e+02 
 9.08550e+03  2.53133e+02 -6.95521e+01 
 8.38649e+03  1.64762e+02  5.23585e+00 
 8.81613e+03  2.05539e+02 -5.76966e+01 
 8.50405e+03  2.98984e+02 -1.77590e+02 
 8.35321e+03  3.98768e+02 -5.68542e+01 
 7.44770e+03  1.80543e+02 -8.79033e+01 
 9.11465e+03  3.47484e+02 -1.15727e+02 
 8.45562e+03  1.63410e+02 -2.15687e+01 
 8.35511e+03  1.56534e+02 -2.56602e+01 
 8.27627e+03  1.70836e+02  2.28005e+01 
 8.41638e+03  1.87741e+02 -2.06088e+01 
 9.08659e+03  3.94424e+02 -1.37293e+02 
 8.26548e+03  1.79163e+02 -1.82738e+01 
 9.13718e+03  3.97691e+02 -1.40925e+02 
 8.16622e+03  8.36489e+01 -5.88888e+01 
 9.08634e+03  3.45202e+02 -1.15165e+02 
 8.35268e+03  1.64167e+02 -1.13724e+01 
 8.24678e+03  3.07044e+02 -5.21788e+01 
 8.48767e+03  5.12449e+02 -3.11053e+01 
 8.42048e+03  2.75819e+02 -1.07731e+02 
 8.61466e+03  2.95714e+02 -2.67543e+02 
 7.64227e+03  2.35456e+02  5.17157e+01 
 9.13684e+03  3.50096e+02 -1.17455e+02 
 7.55833e+03  2.10141e+01 -1.47812e+02 
 8.27711e+03  1.20277e+02 -5.40570e+01 
 8.35899e+03  2.01131e+02 -1.95124e+01 
 8.48773e+03  1.86058e+02 -4.32484e+01 
 8.50117e+03  2.71495e+02 -1.17134e+02 
 8.62259e+03  2.99292e+02 -1.76546e+02 
 8.52743e+03  1.48955e+02 -4.01942e+01 
 8.84226e+03  2.43775e+02 -8.26730e+01 
 7.77421e+03  1.22910e+02 -1.26201e+02 
 7.80481e+03  1.97374e+02 -3.92296e+01 
 8.49432e+03  3.97905e+02 -5.95110e+01 
 8.76574e+03  2.60395e+02 -5.62942e+01 
 8.34641e+03  3.16278e+02 -5.15534e+01 
 9.11117e+03  2.99392e+02 -9.31884e+01 
 8.52913e+03  1.68751e+02 -2.39255e+01 
 8.60094e+03  1.61114e+02 -3.75750e+01 
 8.52516e+03  2.13516e+02 -2.41794e+01 
 9.08470e+03  2.96892e+02 -9.21337e+01 
 8.51013e+03  1.48869e+02 -2.55866e+01 
 9.13523e+03  3.02073e+02 -9.41010e+01 
 8.62612e+03  1.88716e+02 -5.89711e+01 
 8.46456e+03  1.32227e+02 -3.78418e+01 
 9.05858e+03  2.02785e+02 -4.55140e+01 
 8.62223e+03  2.74370e+02 -1.20791e+02 
 8.05297e+03  1.45679e+02 -6.73615e+01 
 9.03325e+03  1.56772e+02 -2.20826e+01 
 8.48987e+03  3.20786e+02 -5.66846e+01 
 9.08357e+03  2.05128e+02 -4.67179e+01 
 8.40754e+03  2.29584e+02 -6.08617e+01 
 8.65487e+03  4.94807e+02 -2.65004e+01 
 8.23323e+03  2.38869e+02 -3.16656e+01 
 8.75693e+03  2.89366e+02 -2.48441e+02 
 7.91367e+03  2.42646e+01 -1.12530e+02 
 8.00729e+03  1.94483e+02  4.50155e+01 
 8.66820e+03  3.83363e+02 -6.69938e+01 
 8.77163e+03  3.04698e+02 -1.62003e+02 
 8.48254e+03  2.26492e+02 -7.78971e+01 
 8.06870e+03  8.72575e+01 -9.14161e+01 
 8.76478e+03  1.67371e+02 -2.21055e+01 
 9.10874e+03  2.51319e+02 -7.02653e+01 
 8.12144e+03  1.69665e+02 -9.73627e+00 
 8.32608e+03  2.55749e+02 -3.10680e+01 
 8.81141e+03  1.58165e+02 -3.83574e+01 
 9.08292e+03  2.48888e+02 -6.90933e+01 
 9.16228e+03  3.94936e+02 -1.40851e+02 
 8.24343e+03  8.31863e+01 -3.97108e+00 
 8.72963e+03  1.30883e+02 -1.86009e+01 
 8.37089e+03  1.17677e+02  2.33003e+01 
 8.24352e+03  1.30777e+02  1.45094e+01 
 8.75553e+03  2.13704e+02 -3.16744e+01 
 9.13678e+03  3.94397e+02 -1.37992e+02 
 8.39244e+03  1.27261e+02  3.64447e+00 
 8.70792e+03  1.24828e+02 -2.03131e+01 
 9.13307e+03  2.53840e+02 -7.13585e+01 
 8.82915e+03  1.93971e+02 -6.18406e+01 
 8.66701e+03  3.15185e+02 -6.55764e+01 
 8.60487e+03  2.30726e+02 -8.86624e+01 
 8.77442e+03  2.80860e+02 -1.14805e+02 
 9.13594e+03  3.45807e+02 -1.17395e+02 
 8.44559e+03  1.17844e+02 -7.52396e+00 
 8.31712e+03  1.31863e+02 -2.67677e+01 
 9.16149e+03  3.48879e+02 -1.17509e+02 
 8.34959e+03  1.13904e+02 -3.22320e+00 
 8.29557e+03  1.05568e+02 -4.91806e+01 
 8.46466e+03  1.28389e+02 -2.60266e+01 
 8.47299e+03  2.65402e+02 -3.79262e+01 
 8.34047e+03  1.59069e+02  1.24419e+01 
 5.56296e+03 -8.14093e+01  2.04241e+02 
 8.19646e+03  5.03153e+02 -2.31357e+01 
 8.38508e+03  2.90607e+02 -2.66016e+02 
 9.15865e+03  3.00332e+02 -9.50501e+01 
 8.89861e+03  2.91949e+02 -1.96013e+02 
 8.53310e+03  1.25171e+02 -1.07241e+00 
 8.82002e+03  4.44194e+02 -3.08344e+01 
 8.24700e+03  1.35591e+02  4.24874e+01 
 8.20335e+03  1.83483e+02  1.81919e+00 
 8.60045e+03  1.15177e+02 -2.16554e+01 
 8.37690e+03  1.69961e+02 -2.69995e+01 
 6.61554e+03  2.34835e+02  1.92551e+02 
 8.46959e+03  2.82051e+02 -2.70622e+02 
 8.61008e+03  1.34077e+02 -4.35959e+01 
 6.57413e+03 -1.26882e+02 -1.20537e+02 
 8.14120e+03  3.00120e+01 -4.80239e+01 
 9.13360e+03  2.97534e+02 -9.39496e+01 
 8.30008e+03  5.08325e+02 -1.76985e+01 
 8.38691e+03  2.88871e+02 -1.84427e+02 
 8.51471e+03  1.72102e+02  5.40070e+00 
 8.19802e+03  4.01333e+02 -4.29717e+01 
 8.85992e+03  3.56230e+02 -7.92931e+01 
 8.34054e+03  1.24491e+02  6.60838e+00 
 9.05710e+03  1.54955e+02 -2.24936e+01 
 8.45024e+03  1.69066e+02 -5.34959e+01 
 8.93994e+03  3.17269e+02 -1.31791e+02 
 8.47101e+03  2.84398e+02 -1.87848e+02 
 8.27105e+03  6.89286e+01 -3.35220e+01 
 9.10678e+03  2.03324e+02 -4.72911e+01 
 9.08198e+03  1.57185e+02 -2.38269e+01 
 8.29491e+03  2.09243e+02  1.47175e+00 
 8.29995e+03  4.04519e+02 -4.26335e+01 
 7.11297e+03  1.12539e+02 -8.31308e+01 
 8.75863e+03  2.38213e+02 -8.92910e+01 
 8.65400e+03  2.63898e+02 -4.83666e+01 
 8.53464e+03  9.87291e+01 -1.58493e+01 
 8.42116e+03  5.06698e+02 -1.29785e+01 
 9.08127e+03  2.01001e+02 -4.60108e+01 
 9.03208e+03  1.08990e+02  8.73539e-01 
 7.33357e+03 -1.01699e+02 -1.51512e+02 
 9.13121e+03  2.05710e+02 -4.85170e+01 
 8.57097e+03  2.75972e+02 -2.67641e+02 
 8.38342e+03  2.66747e+02 -1.19216e+02 
 7.40985e+03  1.99809e+02  1.14395e+02 
 8.19203e+03  3.14582e+02 -4.49162e+01 
 8.42307e+03  4.02295e+02 -4.54318e+01 
 8.57800e+03  1.76477e+02 -7.00186e+01 
 8.92939e+03  2.85437e+02 -1.06802e+02 
 8.51595e+03  1.03185e+02 -3.04348e+00 
 8.47483e+03  8.07183e+01 -1.33430e+01 
 8.28709e+03  3.24260e+02 -4.33474e+01 
 7.63272e+03  2.70150e+01 -9.38396e+01 
 8.44982e+03  2.22484e+02 -8.39200e+00 
 7.66624e+03  1.29715e+02  6.75591e+00 
 8.57477e+03  2.85265e+02 -1.85535e+02 
 8.46254e+03  2.63606e+02 -1.28985e+02 
 8.85129e+03  3.04198e+02 -7.40825e+01 
 9.15644e+03  2.52040e+02 -7.20458e+01 
 9.13143e+03  2.49485e+02 -7.09130e+01 
 8.81673e+03  1.11322e+02 -1.75885e+01 
 8.77153e+03  1.20499e+02  7.91136e-01 
 8.82119e+03  1.42204e+02 -4.34678e+01 
 8.75094e+03  1.69310e+02 -4.85742e+00 
 8.41427e+03  3.27990e+02 -5.03043e+01 
 8.36571e+03  6.44100e+01  2.43575e+01 
 9.18044e+03  3.92623e+02 -1.38980e+02 
 8.21831e+03  8.38867e+01  5.06460e+01 
 8.00326e+03  5.55856e+01 -9.19767e+00 
 8.57050e+03  2.68426e+02 -1.31932e+02 
 8.16549e+03  2.46116e+02 -2.66423e+01 
 8.32676e+03  1.17117e+02  4.65695e+01 
 9.18174e+03  3.47204e+02 -1.18920e+02 
 8.35857e+03  2.24792e+02 -7.09517e+01 
 8.44505e+03  7.05398e+01 -1.11440e+01 
 7.84085e+03 -6.35606e+01 -7.95307e+01 
 8.68141e+03  2.69147e+02 -2.46726e+02 
 7.91568e+03  1.40509e+02  9.16296e+01 
 8.55481e+03  4.87777e+02 -6.69594e+00 
 8.89123e+03  3.89126e+02 -1.93142e+01 
 8.15730e+03  1.35077e+02  4.59843e+01 
 8.63845e+03  2.20831e+02 -2.24230e+01 
 8.91438e+03  2.42246e+02 -8.39298e+01 
 8.74409e+03  8.17580e+01  7.34102e+00 
 8.73883e+03  1.86987e+02 -7.18239e+01 
 8.35861e+03  7.19007e+01  4.24841e+01 
 8.32906e+03  9.93867e+01 -8.76204e-01 
 8.69086e+03  2.88852e+02 -1.71706e+02 
 8.94347e+03  2.78072e+02 -1.39089e+02 
 8.83760e+03  2.56345e+02 -5.66171e+01 
 8.25545e+03  2.65553e+02 -2.48225e+01 
 8.43467e+03  2.22998e+02 -9.03339e+01 
 8.03815e+03 -3.64500e+00 -2.87484e+01 
 8.72388e+03  7.43276e+01  5.16278e+00 
 8.23276e+03  3.21597e+01  1.96105e+01 
 8.56265e+03  3.88436e+02 -5.11567e+01 
 8.07764e+03  9.82909e+01  3.84777e+01 
 8.93061e+03  3.41512e+02 -8.00427e+01 
 8.98391e+03  3.14687e+02 -1.17372e+02 
 8.44591e+03  7.42753e+01  1.19830e+01 
 8.40747e+03  1.02526e+02 -3.80544e+01 
 8.35476e+03  6.23445e+01  2.30416e+01 
 9.10521e+03  1.55386e+02 -2.42765e+01 
 8.25601e+03  1.70734e+02  4.31976e+01 
 8.60250e+03  8.01909e+01 -2.83188e+01 
 8.51333e+03  1.29729e+02  3.56025e+01 
 9.18116e+03  2.98286e+02 -9.57822e+01 
 9.05595e+03  1.07164e+02  5.71986e-01 
 9.07988e+03  1.53181e+02 -2.28819e+01 
 9.08074e+03  1.09290e+02 -8.77646e-01 
 8.38956e+03  2.74897e+02 -3.46427e+01 
 9.12957e+03  2.01500e+02 -4.78350e+01 
 8.54782e+03  2.30285e+02 -1.00586e+02 
 9.12963e+03  1.57642e+02 -2.56303e+01 
 9.15452e+03  2.03906e+02 -4.90859e+01 
 8.69304e+03  2.76312e+02 -1.24874e+02 
 8.29531e+03  1.62103e+01  1.52301e+01 
 8.55892e+03  3.21420e+02 -5.98982e+01 
 8.31255e+03  4.94285e+01  3.01058e+01 
 8.92827e+03  2.95232e+02 -7.60820e+01 
 8.98137e+03  2.85268e+02 -9.67612e+01 
 8.54878e+03  7.24332e+01  2.39822e+01 
 8.54780e+03  1.15480e+02 -5.87581e+01 
 8.61314e+03  7.06174e+01  2.87604e+00 
 8.42611e+03  1.86453e+02  2.81467e+01 
 8.11171e+03  1.90568e+02  8.93584e+00 
 8.12227e+03 -3.98745e+01 -9.95975e+00 
 8.77855e+03  2.63076e+02 -2.00983e+02 
 8.21653e+03  8.03155e+01  7.71353e+01 
 8.30553e+03  1.65428e+02 -3.57153e+01 
 8.67533e+03  4.44461e+02 -1.41651e+00 
 8.82607e+03  2.11770e+02 -3.30387e+01 
 9.17868e+03  2.50148e+02 -7.26991e+01 
 9.03129e+03  6.12110e+01  2.39060e+01 
 8.90043e+03  1.93330e+02 -6.42505e+01 
 8.82269e+03  9.11570e+01 -2.38963e+01 
 8.36506e+03  2.85356e+02 -2.70778e+02 
 3.69418e+03 -3.24285e+02  4.01221e+02 
 8.75527e+03  1.23704e+02  2.17660e+01 
 8.16003e+03  5.04064e+02 -1.64382e+01 
 8.80081e+03  2.91661e+02 -1.46088e+02 
 8.27600e+03 -9.65151e+00  1.93996e+01 
 8.20355e+03  2.22659e+02  1.00387e+01 
 8.33704e+03  6.23696e+01  4.85685e+01 
 8.38444e+03  1.65867e+02 -6.78989e+01 
 8.69668e+03  3.65330e+02 -5.51039e+01 
 8.44561e+03  2.78139e+02 -2.73453e+02 
 8.16000e+03  4.05887e+02 -3.81085e+01 
 8.36018e+03  2.82584e+02 -1.92783e+02 
 5.81997e+03  1.47403e+02  4.74213e+02 
 8.67507e+03  2.39426e+02 -9.97775e+01 
 8.54208e+03  2.71537e+02 -4.68252e+01 
 5.87679e+03 -4.90784e+02 -6.51286e+01 
 8.55020e+03  2.03450e+01  3.88652e+01 
 8.25824e+03  5.07110e+02 -1.28725e+01 
 8.96892e+03  2.42482e+02 -7.49247e+01 
 8.44251e+03  2.80204e+02 -1.94999e+02 
 8.91736e+03  2.47522e+02 -5.98145e+01 
 8.72170e+03  1.31328e+02 -5.83954e+01 
 8.83303e+03  6.53295e+01  1.00811e+01 
 8.62688e+03  1.82077e+02  8.22456e+00 
 8.78785e+03  6.78886e+01  2.42850e+01 
 6.66083e+03 -8.05032e+01  1.09717e+01 
 8.25697e+03  4.08706e+02 -3.80509e+01 
 8.35218e+03  2.36671e+02 -4.13582e+00 
 8.49087e+03  3.56871e+00  3.59593e+01 
 8.80054e+03  2.80958e+02 -1.14009e+02 
 8.53071e+03  3.66479e+01  4.56255e+01 
 8.69267e+03  3.08384e+02 -6.75541e+01 
 8.50888e+03  1.77222e+02 -8.50704e+01 
 8.14859e+03  3.20623e+02 -4.52712e+01 
 8.26626e+03  2.14489e+01  2.34775e+01 
 8.53967e+03  2.74967e+02 -2.68707e+02 
 8.09547e+03  8.70101e+01  9.66434e+01 
 8.36907e+03  5.02997e+02 -1.15710e+01 
 8.93230e+03  2.77706e+02 -8.20141e+01 
 8.90542e+03  3.34446e+02 -2.12446e+01 
 8.34881e+03  2.65541e+02 -1.29306e+02 
 7.14647e+03  3.22203e+01  2.65836e+02 
 8.34173e+03  6.75444e+00  4.70827e+01 
 8.19202e+03  3.07296e+01  8.38776e+01 
 7.14610e+03 -2.99381e+02  1.86859e+01 
 8.21316e+03  1.32631e+02  8.83105e+01 
 9.10400e+03  1.07493e+02 -1.21572e+00 
 8.42781e+03  2.65493e+02 -1.38173e+02 
 8.36945e+03  4.04039e+02 -4.27405e+01 
 8.35857e+03  3.21774e+01 -2.50022e+01 
 8.53957e+03  2.82611e+02 -1.91379e+02 
 8.32071e+03  6.48022e+01  7.52898e+01 
 8.98137e+03  3.16564e+02 -9.34183e+01 
 9.15293e+03  1.55840e+02 -2.60798e+01 
 8.43543e+03  2.16828e+01  9.92612e+00 
 8.95412e+03  3.21016e+02 -8.44230e+01 
 9.12807e+03  1.53569e+02 -2.47101e+01 
 7.54724e+03 -6.42545e+01  1.67807e+02 
 7.54450e+03 -1.94568e+02  1.45452e+02 
 8.23851e+03  3.32446e+02 -4.44539e+01 
 9.07880e+03  1.05397e+02  2.87489e-01 
 9.12837e+03  1.09631e+02 -2.68787e+00 
 9.17673e+03  2.02044e+02 -4.96222e+01 
 8.51998e+03  5.31991e+01 -4.85034e+01 
 8.53041e+03  2.71292e+02 -1.40423e+02 
 8.35615e+03  3.33403e+02 -5.41480e+01 
 8.52219e+03  7.71145e+01  5.94127e+01 
 8.60868e+03  3.52684e+01 -3.58056e+00 
 8.67912e+03  2.59769e+02 -5.60609e+01 
 8.51875e+03  2.32429e+02 -2.07481e+01 
 8.97285e+03  2.87165e+02 -8.56505e+01 
 8.40691e+03  1.50350e+02  6.56462e+01 
 7.97926e+03 -1.49668e+02  1.81338e+02 
 8.02391e+03  1.42251e+02  5.96792e+01 
 8.94652e+03  2.84576e+02 -8.00459e+01 
 8.78593e+03  2.44990e+02 -9.05522e+01 
 8.74484e+03  3.88823e+02  5.67161e+00 
 8.82206e+03  2.55079e+02 -1.42567e+02 
 8.34871e+03  2.59496e+01  7.33311e+01 
 8.22412e+03 -3.33660e+01  4.63929e+01 
 8.76375e+03  1.88524e+01  4.97599e+01 
 8.21880e+03  9.08249e+01 -8.25793e+00 
 8.64812e+03  1.89732e+02 -8.51604e+01 
 8.74378e+03  1.04662e+01  4.44706e+01 
 8.90771e+03  1.99689e+02 -3.71932e+01 
 8.63656e+03  2.72430e+02 -2.47008e+02 
 8.11047e+03  2.52010e+02 -3.16446e+01 
 9.05511e+03  5.93884e+01  2.36834e+01 
 8.31004e+03  2.30846e+02 -8.08765e+01 
 8.48589e+03  4.83464e+02 -9.49966e+00 
 8.95750e+03  1.93838e+02 -5.24307e+01 
 8.89194e+03  1.41689e+02 -4.61852e+01 
 7.78345e+03 -1.97426e+02  7.35049e+01 
 9.07981e+03  6.14272e+01  2.21416e+01 
 7.82105e+03 -1.69590e+01  1.93544e+02 
 8.84749e+03  2.92332e+02 -1.19369e+02 
 8.12984e+03  1.90597e+02  5.81267e+01 
 8.31083e+03  9.55818e+01 -5.67577e+01 
 8.36533e+03 -1.30256e+01  5.28110e+01 
 8.82077e+03  1.69004e+02 -6.97154e+00 
 8.45523e+03  3.07725e+01  5.22607e+01 
 8.76965e+03  3.39506e+02 -5.73575e+01 
 8.49027e+03  3.89807e+02 -4.84886e+01 
 8.64151e+03  2.86843e+02 -1.77240e+02 
 8.38928e+03  2.32586e+02 -1.00612e+02 
 8.04765e+03 -7.25911e+01  1.65375e+02 
 8.02090e+03 -1.71848e+02  1.60441e+02 
 8.19690e+03  2.76939e+02 -3.07222e+01 
 8.30552e+03  2.08672e+02  3.65680e+01 
 8.85053e+03  2.82519e+02 -9.71596e+01 
 8.56685e+03 -2.75436e+00  5.04630e+01 
 8.45761e+03  1.14133e+02 -7.99937e+01 
 8.63357e+03  2.55105e+01  5.07088e+01 
 8.76823e+03  2.92339e+02 -7.09346e+01 
 8.48386e+03  3.25054e+02 -6.38931e+01 
 8.71264e+03  7.55515e+01 -4.43863e+01 
 8.63901e+03  2.78891e+02 -1.32843e+02 
 8.95837e+03  2.42817e+02 -6.45710e+01 
 8.50211e+03  2.40980e+02 -1.10136e+02 
 8.62394e+03  1.42936e+02  3.87450e+01 
 8.30965e+03 -1.14452e+02  1.66238e+02 
 8.32419e+03  2.82779e+02 -4.40761e+01 
 8.28760e+03 -1.46420e+02  1.66868e+02 
 8.93208e+03  2.38126e+02 -6.28588e+01 
 8.83645e+03  4.64820e+01  3.12654e+00 
 8.76896e+03  7.16044e+01  4.34768e+01 
 8.66381e+03  2.16811e+02 -3.28860e+01 
 9.03080e+03  1.33920e+01  4.70280e+01 
 8.76716e+03  1.97203e+02 -7.27130e+01 
 9.15170e+03  1.07831e+02 -3.02409e+00 
 8.71839e+03  2.69396e+02 -2.03658e+02 
 8.03136e+03  1.95849e+02  2.05354e-01 
 9.12692e+03  1.05680e+02 -1.54400e+00 
 8.23028e+03  1.78891e+02 -4.52175e+01 
 8.18175e+03 -3.17692e+01  1.47572e+02 
 8.09998e+03 -1.40642e+02  8.40750e+01 
 9.17516e+03  1.53989e+02 -2.64919e+01 
 8.58935e+03  4.43220e+02 -6.75308e+00 
 8.72965e+03  2.89221e+02 -1.51980e+02 
 8.19400e+03 -5.39969e+01  5.46781e+01 
 8.82026e+03  2.83986e+02 -2.88315e+01 
 8.33441e+03 -5.51478e+01  1.43185e+02 
 8.01911e+03  2.84642e+01  1.42434e+02 
 8.31836e+03  1.82983e+02 -8.04753e+01 
 8.83787e+03  2.46651e+02 -7.56192e+01 
 8.59955e+03  3.66433e+02 -5.22197e+01 
 8.49478e+03  2.00275e+02  1.25785e+01 
 8.61816e+03  1.32697e+02 -7.71693e+01 
 8.27180e+03 -1.37491e+02  1.28215e+02 
 8.75668e+03  2.44165e+02 -6.04711e+01 
 8.85313e+03  1.93055e+01  5.31124e+01 
 8.80683e+03  2.75889e+00  4.73432e+01 
 8.12421e+03  2.39782e+02  8.22004e-01 
 8.46353e+03  2.76450e+02 -5.63158e+01 
 8.17087e+03  8.10200e+01  1.22531e+02 
 8.62067e+03  2.50111e+02 -1.07293e+02 
 8.31055e+03 -2.87354e+01 -3.27047e+00 
 9.10311e+03  5.96312e+01  2.18916e+01 
 8.86397e+03  3.07684e+02 -7.82228e+01 
 8.95215e+03  1.42858e+02 -2.97006e+01 
 8.54904e+03 -1.09198e+02  1.46022e+02 
 8.90444e+03  1.52076e+02 -1.22256e+01 
 8.76594e+03  3.32364e+02  3.16690e+00 
 1.95652e-12 -6.51469e-14 -6.11606e-14 
 8.81761e+03  2.56395e+02 -8.28858e+01 
 8.36411e+03  2.84399e+02 -2.72823e+02 
 8.12795e+03  5.06199e+02 -1.34195e+01 
 8.16469e+03 -4.04296e+01  9.80136e+01 
 8.09267e+03  3.74540e+00  1.87457e+01 
 8.32388e+03 -2.99249e+01  8.19859e+01 
 7.89390e+03  9.31355e+01  1.21770e+02 
 8.82467e+03  1.25740e+02  1.80184e+01 
 8.79304e+03  3.13907e+02 -5.88058e+01 
 8.03367e+03  1.61584e+02  1.12939e+02 
 8.94461e+03  1.92752e+02 -3.96070e+01 
 9.07800e+03  5.76177e+01  2.34783e+01 
 8.89277e+03  9.06547e+01 -2.71056e+01 
 8.72916e+03  2.84284e+02 -1.18194e+02 
 8.84470e+03  2.92425e+02 -8.99519e+01 
 8.53549e+03 -7.29825e+01  1.43198e+02 
 8.44164e+03  2.80289e+02 -2.72078e+02 
 8.45140e+03  1.95147e+02 -9.72330e+01 
 5.41985e+03 -9.00410e+02  7.37818e+02 
 8.31948e+03 -1.49574e+01  8.14159e+01 
 8.22919e+03  5.04418e+02 -1.43668e+01 
 8.12311e+03  4.08256e+02 -3.87075e+01 
 8.27191e+03  2.49015e+02 -1.81934e+01 
 5.08485e+03 -7.00162e+02  8.93720e+02 
 8.36234e+03  2.82322e+02 -1.94012e+02 
 8.59704e+03  3.09458e+02 -7.14148e+01 
 8.91917e+03  1.87578e+02 -3.94180e+01 
 8.48437e+03 -1.21919e+02  1.26086e+02 
 9.12743e+03  6.16798e+01  2.03281e+01 
 8.21334e+03  1.71524e+01 -5.02979e+01 
 8.43861e+03 -1.91343e+00  5.35288e+01 
 8.39547e+03  1.01306e+02  9.10604e+01 
 8.50127e+03  1.47928e+00 -2.70999e+01 
 8.43969e+03  2.82278e+02 -1.95675e+02 
 8.86169e+03  2.78039e+02 -7.38525e+01 
 8.22949e+03  4.08300e+02 -4.12558e+01 
 6.67231e+03 -9.13578e+02  9.35276e+02 
 8.78915e+03  2.77530e+02 -7.23956e+01 
 8.25363e+03  1.83593e+02  8.00096e+01 
 6.89041e+03 -6.16014e+02  6.14883e+02 
 8.33447e+03  4.95788e+02 -1.68402e+01 
 8.34516e+03  2.71490e+02 -1.30302e+02 
 7.01040e+03 -6.33104e+02  6.40696e+02 
 8.11005e+03  3.23801e+02 -5.21243e+01 
 8.53031e+03  2.80936e+02 -2.62024e+02 
 8.62646e+03  1.20611e+01  4.75143e+01 
 8.84355e+03  2.82052e+02 -8.16521e+01 
 8.53394e+03 -1.33680e+00  6.26027e+01 
 8.39763e+03  4.69668e+01 -7.91531e+01 
 7.46056e+03 -6.39118e+02  7.50032e+02 
 8.53277e+03  2.86893e+02 -1.89516e+02 
 8.42313e+03  2.73236e+02 -1.39553e+02 
 7.48786e+03 -6.83537e+02  6.29894e+02 
 8.21774e+03  3.30309e+02 -5.66083e+01 
 8.33743e+03  4.03054e+02 -4.69713e+01 
 9.07915e+03  1.35836e+01  4.52411e+01 
 8.65291e+03  1.77526e+02 -4.25796e+00 
 8.82250e+03  1.98851e+02 -5.34026e+01 
 9.05451e+03  1.16058e+01  4.68307e+01 
 8.75107e+03  1.43418e+02 -5.78401e+01 
 8.74390e+03  1.95927e+02 -3.82753e+01 
 8.58390e+03  2.60955e+02 -6.53599e+01 
 8.71744e+03  2.56156e+02 -9.46081e+01 
 8.76084e+03  2.66212e+02 -1.46772e+02 
 8.76681e+03 -6.82888e+01  1.19384e+02 
 8.65652e+03  3.89665e+02 -3.16161e+00 
 8.58883e+03  2.06516e+02 -9.46132e+01 
 7.89201e+03  1.46549e+02  4.90762e+01 
 8.33278e+03 -2.70383e+01  1.33534e+02 
 8.09360e+03  1.11142e+02 -1.80139e+01 
 8.43210e+03  2.40387e+02 -3.40009e+01 
 8.74348e+03 -7.94126e+01  1.05776e+02 
 8.20676e+03 -1.24970e+02  7.22065e+01 
 8.84584e+03  2.33462e+02 -5.63416e+01 
 8.71620e+03  2.81231e+01 -2.05101e+01 
 8.77457e+03  2.91043e+02 -1.21437e+02 
 8.66950e+03  3.38052e+02 -5.47057e+01 
 8.46010e+03 -2.09456e+01  1.36984e+02 
 8.20681e+03  1.19516e+02 -7.49803e+01 
 8.63136e+03  9.46018e+01  6.02896e+01 
 8.36220e+03 -1.29472e+02  8.21771e+01 
 8.01043e+03  2.18559e+02  4.76520e+01 
 7.90965e+03 -5.29340e+02  5.49068e+02 
 9.17399e+03  1.05986e+02 -3.32079e+00 
 8.52366e+03  2.80027e+02 -1.40458e+02 
 8.33014e+03  3.30452e+02 -6.41559e+01 
 8.47528e+03  1.69115e+02  4.60153e+01 
 8.82954e+03  2.45165e+02 -6.08720e+01 
 7.72876e+03 -4.29007e+02  4.09679e+02 
 8.62099e+03  2.83254e+02 -2.36425e+02 
 7.71018e+03 -4.08856e+02  4.52844e+02 
 8.44432e+03  4.72842e+02 -1.96030e+01 
 8.06362e+03  2.55857e+02 -5.02577e+01 
 8.29414e+03  2.46822e+02 -8.22082e+01 
 8.78605e+03  4.42836e+00  5.15069e+01 
 8.77456e+03  2.30052e+02 -6.13226e+01 
 8.85773e+03  1.69014e+01  4.92926e+01 
 8.59072e+03  7.41223e+01 -7.02879e+01 
 8.91079e+03  1.04790e+02  1.16604e+01 
 8.95654e+03  9.27572e+01 -6.46057e+00 
 8.91273e+03  1.35256e+02 -1.32944e+01 
 8.77618e+03  2.86202e+02 -9.84942e+01 
 7.94351e+03 -4.31411e+02  5.27813e+02 
 8.62944e+03  2.93528e+02 -1.73629e+02 
 8.45384e+03  3.89481e+02 -5.42160e+01 
 8.19765e+03  2.29051e+02  1.84357e+01 
 9.12608e+03  5.78209e+01  2.16500e+01 
 9.15078e+03  5.98801e+01  2.00786e+01 
 8.56068e+03 -1.21383e+02  7.54618e+01 
 8.37900e+03  2.49506e+02 -1.03583e+02 
 8.64013e+03 -2.61263e+01  1.40100e+02 
 8.66898e+03  2.90151e+02 -7.48391e+01 
 8.93677e+03  1.40190e+02 -1.28616e+01 
 8.00334e+03 -4.62102e+02  4.24290e+02 
 8.37778e+03  1.38823e+02 -9.79660e+01 
 8.17906e+03  2.74234e+02 -5.59673e+01 
 8.56544e+03  2.19219e+02 -4.50559e+01 
 8.73641e+03  2.90026e+02 -8.59813e+00 
 9.03049e+03 -3.44984e+01  7.02312e+01 
 8.62843e+03  2.87841e+02 -1.32399e+02 
 7.71397e+03  2.80457e+01  1.83667e+02 
 8.69779e+03  2.13075e+02 -7.79692e+01 
 8.45307e+03  3.22896e+02 -7.31966e+01 
 8.12689e+03 -9.63755e+01  1.03967e+02 
 8.25288e+03 -3.87973e+02  3.96606e+02 
 8.49412e+03  2.57141e+02 -1.12211e+02 
 8.76131e+03  2.67165e+02 -3.73572e+01 
 8.22083e+03 -3.93715e+02  4.16940e+02 
 7.93250e+03 -5.81040e+01  1.54200e+02 
 8.30283e+03  2.79086e+02 -6.38248e+01 
 7.92293e+03 -8.83865e+01  5.84744e+01 
 8.83813e+03  7.72026e+01  3.66270e+01 
 8.82659e+03  1.80210e+02 -2.99891e+01 
 8.75746e+03  2.95268e+02 -5.83240e+01 
 8.90529e+03  4.56758e+01 -1.56347e+00 
 8.13349e+03 -9.30224e+00  1.13961e+02 
 8.78205e+03  2.90847e+02 -6.86346e+01 
 8.81150e+03  1.45182e+02 -3.07943e+01 
 8.27837e+03 -4.42508e+01  4.81980e+01 
 9.10248e+03  1.17925e+01  4.50404e+01 
 8.09396e+03 -5.68982e+01 -3.47514e+01 
 7.91789e+03  1.18271e+02  1.57334e+02 
 8.73684e+03  1.48256e+02 -1.07830e+01 
 8.39271e+03  2.13976e+02 -3.29546e+00 
 8.65837e+03  2.41238e+02 -6.94995e+01 
 8.54722e+03  1.54046e+02 -9.13389e+01 
 8.76688e+03  2.57667e+02 -7.65389e+01 
 8.80861e+03 -8.68082e+01  6.81279e+01 
 8.85530e+03 -2.89150e+01  1.20296e+02 
 8.12891e+03 -2.55540e+02  2.87917e+02 
 8.75739e+03  1.76691e+02 -3.82352e+01 
 8.65112e+03  1.38776e+02  2.36670e+01 
 7.95931e+03  2.01095e+02 -3.64104e+01 
 8.04589e+03 -2.91560e+02  2.68591e+02 
 8.54166e+03  4.33179e+02 -2.01245e+01 
 8.69618e+03  2.83878e+02 -1.93749e+02 
 9.07743e+03  9.80476e+00  4.66559e+01 
 8.18660e+03  2.08280e+02 -4.76301e+01 
 8.81116e+03  1.95746e+02 -3.43032e+01 
 8.74323e+03  8.88331e+01 -4.23891e+01 
 9.12675e+03  1.37980e+01  4.34338e+01 
 7.87801e+03  3.00782e+01  7.85514e+00 
 8.76263e+03  2.67673e+02 -8.85164e+01 
 8.68389e+03  3.34957e+02 -4.16432e+00 
 8.29313e+03  2.12525e+02 -8.59472e+01 
 8.20779e+03 -3.18546e+02  3.14681e+02 
 8.13162e+03 -1.42735e+02  5.83902e+01 
 8.38917e+03  1.54006e+01  7.79930e+01 
 8.70972e+03  2.98547e+02 -1.49121e+02 
 8.75334e+03  2.67318e+02 -6.72847e+01 
 8.55662e+03  3.67316e+02 -5.95143e+01 
 8.30662e+03 -2.17437e+01  1.48509e+02 
 8.29407e+03 -2.64117e+02  3.12842e+02 
 8.50107e+03 -1.05311e+01  2.80812e+01 
 8.09917e+03  2.37491e+02 -4.35415e+01 
 8.20179e+03  1.45157e+02  1.09740e+02 
 8.33382e+03 -1.27348e+01 -6.97244e+01 
 8.78055e+03  2.74790e+02 -6.77151e+01 
 7.66281e+03  9.43624e+01  1.13208e+02 
 7.84304e+03  2.08339e+02  1.04472e+02 
 8.69705e+03  3.10221e+02 -5.52710e+01 
 8.04523e+03  4.66284e+01 -8.00503e+01 
 8.43917e+03  2.73745e+02 -7.33444e+01 
 8.61306e+03  2.64835e+02 -1.08302e+02 
 8.77559e+03  2.91025e+02 -8.98503e+01 
 8.48344e+03 -3.09788e+02  3.19165e+02 
 8.30989e+03 -1.42684e+02  3.51394e+01 
 8.44312e+03  1.67195e+01  1.47054e+02 
 8.71470e+03  2.93620e+02 -1.17229e+02 
 8.43746e+03  2.21433e+02 -1.01616e+02 
 8.48515e+03 -2.32200e+02  3.03652e+02 
 8.56052e+03  3.08260e+02 -8.03562e+01 
 8.42013e+03 -3.09914e+02  2.60791e+02 
 8.24821e+03  2.46087e+02 -5.07122e+01 
 8.77451e+03  2.84989e+02 -7.93176e+01 
 8.93889e+03  8.82221e+01  1.33582e+01 
 8.69468e+03  2.72200e+02 -7.49076e+01 
 9.17322e+03  5.80423e+01  1.98659e+01 
 8.28142e+03  7.85109e+01 -1.07347e+02 
 8.10071e+03  2.16643e+02  5.78127e+01 
 8.52479e+03 -1.30726e+02  2.32435e+01 
 8.91675e+03  8.38342e+01  1.23202e+01 
 8.63534e+03  2.05698e+01  1.48170e+02 
 8.54675e+03  1.82852e+02 -1.74227e+01 
 8.76241e+03  2.36026e+02 -4.96935e+01 
 8.75160e+03  2.13987e+02 -5.42645e+01 
 8.73468e+03  2.21926e+02 -5.47314e+01 
 9.05405e+03 -3.61630e+01  6.99787e+01 
 8.64377e+03  1.92270e+02 -4.98612e+01 
 8.73785e+03  1.15913e+01  3.53829e+01 
 9.07864e+03 -3.42382e+01  6.84372e+01 
 8.46357e+03  1.25936e+02  6.65791e+01 
 8.67589e+03  1.61581e+02 -6.58207e+01 
 8.57167e+03  2.42942e+01 -5.26242e+01 
 8.64387e+03  2.08726e+01  5.66676e+01 
 8.92690e+03  5.75608e+01  2.99486e+01 
 8.97168e+03  4.84817e+01  1.76793e+01 
 8.81101e+03  1.22282e+02  9.51492e-01 
 7.98973e+03  1.57960e+02 -2.34940e+01 
 8.66962e+03 -2.42842e+02  2.05872e+02 
 8.74063e+03  1.01832e+02  1.61449e+01 
 8.15827e+03 -2.60957e+02  8.99676e+01 
 8.60637e+03  3.83536e+02 -1.82242e+01 
 8.70897e+03  2.69763e+02 -9.50026e+01 
 8.28736e+03 -8.61542e+01  2.47153e+02 
 8.73817e+03  2.83590e+02 -1.41173e+02 
 8.71277e+03 -1.86953e+02  2.32084e+02 
 8.55536e+03  2.59168e+02 -8.06389e+01 
 7.76123e+03  1.54518e+02 -1.58303e+01 
 8.40895e+03  2.38609e+02 -6.01101e+01 
 8.79563e+03  1.39894e+02 -4.34338e+00 
 8.58159e+03  2.28793e+02 -9.75531e+01 
 9.12549e+03  9.97673e+00  4.48547e+01 
 9.15013e+03  1.19908e+01  4.32205e+01 
 8.81034e+03  9.07397e+01 -7.56177e+00 
 8.74443e+03  1.20258e+02 -9.30633e+00 
 8.68090e+03  2.23207e+02 -6.91257e+01 
 8.50040e+03  9.88536e+01 -9.23379e+01 
 8.76283e+03  2.55400e+02 -5.86032e+01 
 8.75438e+03  3.01148e+02 -1.19465e+02 
 8.14846e+03  1.66233e+02 -8.46473e+01 
 8.34913e+03  1.91532e+02  2.79387e+01 
 8.41802e+03 -7.62990e+01  2.80183e+02 
 8.30645e+03 -2.89901e+02  1.15042e+02 
 7.95853e+03  2.19109e+02 -2.51009e+01 
 8.62324e+03  3.39275e+02 -6.16798e+01 
 8.78728e+03 -9.22257e+01  3.27171e+01 
 8.86106e+03  7.43831e+00  1.23361e+02 
 7.71652e+03 -1.64599e+02  1.37182e+02 
 7.48431e+03 -8.22458e+01  2.11217e+02 
 8.70255e+03  2.72888e+02 -1.66229e+01 
 8.70794e+03  1.65023e+02 -2.88728e+01 
 8.65972e+03  9.33845e+01  4.14860e+01 
 8.63005e+03  2.89951e+02 -8.37796e+01 
 8.76221e+03  2.95613e+02 -9.80765e+01 
 8.92628e+03  1.90946e+01  3.97604e+01 
 8.34832e+03  1.78059e+02 -1.05884e+02 
 8.50071e+03 -2.97102e+02  9.60184e+01 
 8.59118e+03 -7.53447e+01  2.85857e+02 
 8.85525e+03  1.45132e+01  4.02574e+01 
 8.15916e+03  2.29444e+02 -3.05980e+01 
 8.71231e+03  2.83128e+02 -5.27099e+01 
 7.96362e+03 -9.33047e+01  2.15629e+01 
 8.73549e+03  1.83699e+02 -2.04404e+01 
 7.79338e+03  2.24428e+01  1.49079e+02 
 8.74781e+03  4.15842e+01 -1.89718e+01 
 8.67445e+03  2.92632e+02 -9.73516e+00 
 8.72603e+03  2.73694e+02 -4.31152e+01 
 7.55238e+03 -5.81660e+01  4.67582e+01 
 8.08051e+03 -4.18017e+01  1.94276e+02 
 7.84365e+03 -1.95036e+02  6.22495e+01 
 7.29810e+03  1.79294e+01  1.85894e+02 
 8.68498e+03  2.88945e+02 -5.42098e+01 
 7.60807e+03  1.94263e+02  1.55747e+02 
 9.10204e+03 -3.60197e+01  6.82298e+01 
 8.10054e+03 -1.73745e+02  1.15433e+00 
 8.73468e+03  2.89516e+02 -6.52799e+01 
 8.73629e+03  1.61608e+02 -3.17295e+01 
 7.82391e+03 -2.58189e+01 -8.59727e+01 
 8.26892e+03  3.91814e+01  1.68248e+02 
 8.63105e+03  1.44187e+02 -2.29696e+01 
 8.54039e+03  2.17785e+02 -6.71770e+01 
 8.27345e+03 -4.23533e+01 -2.44201e+01 
 9.02858e+03 -8.25871e+01  9.41310e+01 
 8.69351e+03  2.32449e+02 -7.97448e+01 
 8.70466e+03  2.63787e+02 -6.03206e+01 
 8.15493e+03  5.82505e+01  9.05387e+01 
 8.53270e+03  1.49004e+02  1.06312e+01 
 8.74320e+03  2.10327e+02 -3.08051e+01 
 8.65739e+03  1.07187e+02 -5.49028e+01 
 9.12621e+03 -3.39930e+01  6.66468e+01 
 8.66084e+03  1.67104e+02 -4.89181e+01 
 9.07702e+03 -3.80838e+01  6.97725e+01 
 8.67903e+03  2.59134e+02 -6.97068e+01 
 8.80491e+03  6.46258e+01  3.13831e+01 
 8.93252e+03  3.79456e+01  3.26277e+01 
 8.37014e+03 -1.46106e+02 -1.77389e+01 
 8.95258e+03  4.21821e+01  3.46748e+01 
 8.73084e+03  2.78671e+02 -6.38633e+01 
 8.74020e+03 -2.49822e+02  8.71396e+01 
 8.62787e+03  2.40375e+02 -8.43578e+01 
 8.51584e+03  5.49838e+01  1.65255e+02 
 8.76040e+03  2.70881e+02 -7.66850e+01 
 8.80480e+03 -7.34506e+01  2.32139e+02 
 8.16517e+03  2.65149e+01 -1.13054e+02 
 8.53497e+03  1.84962e+02 -9.70365e+01 
 7.98400e+03  1.95070e+02  8.23077e+01 
 8.36222e+03  2.15173e+02 -3.95860e+01 
 8.63534e+03  3.34862e+02 -1.65859e+01 
 7.40805e+03  1.07012e+02  1.50616e+00 
 8.74372e+03  2.83757e+02 -8.99286e+01 
 7.64895e+03  9.95813e+01 -6.14783e+00 
 8.07740e+03 -3.00497e+02 -8.97099e+01 
 8.25638e+03  8.85301e+01  2.69052e+02 
 8.74162e+03  6.48792e+01  1.95343e+01 
 8.78875e+03  8.28591e+01  2.58527e+01 
 9.17276e+03  1.01666e+01  4.30298e+01 
 8.39635e+03  1.14975e+02  3.04560e+02 
 7.92222e+03  1.17411e+02 -9.73060e+01 
 8.64969e+03  3.11379e+02 -6.10194e+01 
 8.25462e+03 -3.22044e+02 -8.55023e+01 
 8.75837e+03  3.00646e+02 -9.05805e+01 
 8.67946e+03  2.23271e+02 -4.64344e+01 
 8.56711e+03  1.41431e+00  3.18992e+00 
 7.72707e+03  2.18083e+02 -1.09443e+01 
 8.45722e+03  4.42472e+01  5.02784e+01 
 8.67935e+03  1.00776e+02  4.46935e+00 
 8.70609e+03  1.22988e+02  1.57543e+01 
 8.94612e+03  9.08654e+00  3.58524e+01 
 8.75631e+03  5.69819e+01  3.41344e+01 
 8.99174e+03  1.89292e+01  4.25755e+01 
 8.82172e+03  4.32872e+01  1.65360e+01 
 8.30605e+03  1.58918e+02  4.56011e+01 
 8.65833e+03  2.11532e+02 -6.25316e+01 
 8.71199e+03  2.47243e+02 -4.53836e+01 
 8.74585e+03  4.01926e+01  1.39041e+02 
 8.45458e+03  5.05935e+01 -8.57773e+01 
 8.64113e+03 -1.03766e+02  2.31938e+00 
 8.22218e+03  1.34168e+02 -1.20946e+02 
 8.76499e+03  2.94218e+02 -7.94616e+01 
 8.46576e+03 -3.25333e+02 -7.25990e+01 
 8.58386e+03  8.25950e+01  3.09255e+02 
 8.65558e+03  2.72050e+02 -8.36213e+01 
 8.02728e+03  2.25817e+02 -1.17967e+01 
 9.07815e+03 -8.19975e+01  9.17845e+01 
 8.75068e+03  2.32368e+02 -5.49219e+01 
 8.61745e+03  1.90930e+02 -7.09836e+01 
 8.51854e+03  1.82727e+02 -4.62004e+01 
 9.05342e+03 -8.43471e+01  9.34689e+01 
 8.67190e+03  1.86694e+02 -6.93896e+01 
 8.62584e+03  9.83792e+01  4.71915e+00 
 9.12505e+03 -3.78813e+01  6.80867e+01 
 9.14963e+03 -3.58158e+01  6.63996e+01 
 8.63971e+03  1.06654e+02 -2.11093e+01 
 8.72666e+03  1.05946e+02 -8.99160e+00 
 8.72102e+03  1.55929e+02  1.92171e+00 
 8.67161e+03  2.68011e+01  3.35242e+01 
 8.76260e+03  1.62726e+01  2.54022e+01 
 8.63926e+03  1.67246e+02 -1.73512e+01 
 6.73493e+03 -1.35090e+02  2.43872e+02 
 8.47607e+03  1.38824e+02 -1.02177e+02 
 8.29928e+03  1.99433e+02 -1.87313e+01 
 8.64998e+03  2.22458e+02 -8.44007e+01 
 8.80850e+03  3.39776e+01  2.45555e+02 
 8.67890e+03  2.74662e+02 -1.99405e+01 
 7.55094e+03 -1.20306e+02  2.76622e+02 
 8.71836e+03 -2.67290e+02 -2.82356e+01 
 7.22722e+03 -2.87602e+02  9.98602e+01 
 8.76081e+03  2.68916e+02 -5.87129e+01 
 8.65288e+03  2.72529e+02 -1.20888e+01 
 7.07766e+03 -1.40126e+02  1.35277e+02 
 8.62496e+03  1.50460e+02 -4.04528e+01 
 8.52630e+03  1.09960e+02  2.84195e+01 
 8.93049e+03  1.99597e+01  1.03125e+02 
 7.29390e+03  1.33898e+02  1.58066e+02 
 8.67956e+03  2.00301e+02 -1.38157e+01 
 8.64739e+03  5.76326e+01 -3.82396e+01 
 7.53639e+03 -7.76630e+01 -6.78562e+01 
 8.65783e+03  2.76926e+02 -4.86374e+01 
 8.85687e+03 -7.54361e+01  1.44601e+01 
 7.88061e+03  1.23409e+01  1.62348e+02 
 8.68081e+03  2.82098e+02 -4.98533e+01 
 7.68220e+03 -1.98628e+02 -8.78403e+00 
 8.81194e+03  1.67806e+01  5.19902e+01 
 7.85870e+03  1.22539e+02  5.34222e+01 
 8.65527e+03  3.53560e+01  3.81964e+01 
 8.10802e+03 -1.44597e+02 -4.49568e+01 
 7.75362e+03 -4.23647e+02 -2.77671e+02 
 8.63207e+03  2.98700e+02 -1.59431e+01 
 8.71781e+03  2.84714e+02 -5.19613e+01 
 8.01088e+03  2.76328e+02  3.62038e+02 
 7.06621e+03  4.18787e+01  1.06182e+01 
 6.79005e+03  3.84757e+01 -6.59552e+00 
 8.79402e+03  3.33213e+01  4.97688e+01 
 8.64608e+03  2.54185e+02 -6.20740e+01 
 8.03828e+03  7.32110e+00 -8.36020e+01 
 8.95305e+03  4.52467e+00  3.98262e+01 
 8.67023e+03  2.68514e+02 -5.59751e+01 
 8.75230e+03  1.87717e+01  3.88964e+01 
 8.97254e+03  1.15724e+01  4.30755e+01 
 8.29488e+03  6.19995e+01  1.63274e+02 
 8.68030e+03  6.00331e+01  5.29536e+01 
 8.03294e+03 -4.25120e+02 -3.01992e+02 
 8.73706e+03  1.84802e+02 -3.27263e+01 
 9.10169e+03 -8.38410e+01  9.14151e+01 
 8.72793e+03  2.96442e+02 -6.81222e+01 
 8.64074e+03  2.89102e+02 -5.75513e+01 
 7.58471e+03  8.15501e+01 -1.17263e+02 
 7.35843e+03  2.29463e+02 -2.35417e+01 
 8.60305e+03  1.42228e+02 -4.99852e+01 
 8.21701e+03  3.17408e+02  3.95977e+02 
 8.49304e+03  1.51815e+02 -2.34509e+01 
 8.63335e+03  1.65236e+02 -7.14840e+01 
 8.64884e+03  1.36783e+02 -6.10142e+01 
 9.12568e+03 -8.15952e+01  9.00456e+01 
 9.07612e+03 -8.63083e+01  9.25563e+01 
 8.74647e+03  2.29835e+02 -3.02366e+01 
 8.64298e+03  2.58670e+02 -7.88772e+01 
 8.70191e+03  9.77815e+01  3.61903e+01 
 7.84480e+03  2.24657e+02 -9.88812e+00 
 8.05787e+03  1.02311e+02 -1.36944e+02 
 8.72964e+03  2.87922e+02 -6.53378e+01 
 8.30500e+03 -4.05200e+02 -2.37843e+02 
 8.45887e+03  2.32896e+02  3.84425e+02 
 8.84086e+03  1.62578e+01  4.07344e+01 
 9.17248e+03 -3.76435e+01  6.61373e+01 
 8.62353e+03  4.67668e+01  7.76213e+00 
 8.77502e+03  1.23026e+01  2.98178e+01 
 8.58727e+03  9.99593e+01  2.18499e+01 
 8.43860e+03 -1.20416e+02 -4.17091e+01 
 8.41876e+03  2.65177e+01 -4.25363e+01 
 8.64018e+03  2.35602e+02 -4.13180e+01 
 8.58365e+03  5.80910e+01  1.42912e+02 
 8.61539e+03  2.10810e+02 -5.37011e+01 
 8.26827e+03  8.42227e+01  2.43518e+01 
 8.94881e+03 -4.24278e+01  1.74571e+01 
 8.58176e+03  7.92453e+01 -9.71546e+00 
 8.63131e+03  5.61414e+01  2.37027e+01 
 8.63683e+03  1.42818e+02  2.74010e+01 
 8.72677e+03  5.46892e+01  1.34973e+01 
 8.99520e+03  1.33450e+01  6.66942e+01 
 8.62871e+03  2.10459e+02 -7.98680e+01 
 8.41012e+03  9.81562e+01 -1.02836e+02 
 8.71733e+03  2.62495e+02 -4.58967e+01 
 8.68795e+03  1.37394e+02  3.04044e+02 
 8.56201e+03 -3.24189e+02 -1.48098e+02 
 8.22150e+03  1.80388e+02 -8.61730e+00 
 9.14915e+03 -8.34728e+01  8.96435e+01 
 8.66341e+03 -8.32878e+01 -2.54121e+01 
 8.72427e+03  1.32187e+02 -1.03156e+01 
 8.58921e+03  9.53724e+01 -2.64880e+01 
 9.12442e+03 -8.54031e+01  9.09107e+01 
 8.72474e+03  1.81349e+02  4.13262e+00 
 8.60941e+03  1.02566e+02 -5.12121e+01 
 8.52523e+03  4.81213e+01  1.86995e+01 
 8.64741e+03  2.68716e+01 -1.01394e+00 
 8.77344e+03  4.07202e+01  1.06438e+02 
 8.58780e+03  1.86539e+02 -9.65781e+00 
 8.56291e+03  1.49968e+02 -2.91943e+01 
 8.64239e+03 -1.76125e+01  5.92947e+01 
 8.63467e+03  2.70806e+02 -1.18857e+01 
 8.82867e+03 -3.24278e+00  4.55781e+01 
 6.43465e+03 -2.50110e+02  4.38817e+02 
 5.93588e+03 -5.09022e+02  1.96777e+02 
 8.66397e+03  6.59543e+00  7.90947e+01 
 8.63407e+03  2.74502e+02 -4.48625e+01 
 6.90190e+03 -8.74176e+01 -3.80147e+00 
 7.14877e+03 -1.38731e+02 -1.67082e+01 
 5.70645e+03 -9.46607e+01 -8.86422e+01 
 8.80861e+03  6.90335e+00  5.44928e+01 
 7.41028e+03  4.80313e+02  5.51114e+02 
 8.61493e+03  2.79521e+02 -1.35459e+01 
 6.03770e+03  2.90865e+01  5.88546e+01 
 8.67787e+03  2.81290e+02 -3.12135e+01 
 6.98286e+03 -6.60675e+02 -4.82341e+02 
 8.52790e+03  2.76903e+01  6.38770e+01 
 8.76980e+03 -4.81414e+00  3.30052e+01 
 8.59613e+03  1.47803e+02 -6.75718e+01 
 8.46626e+03  1.18680e+02 -6.96712e+00 
 8.62870e+03  8.86936e+01 -4.87882e+01 
 8.78856e+03 -2.07237e+02 -9.01161e+01 
 7.09954e+03  1.08105e+02 -1.29174e+02 
 7.83911e+03  5.34137e+02  5.77709e+02 
 8.61646e+03  2.75987e+02 -5.11780e+01 
 6.78909e+03  2.33801e+02 -1.17270e+02 
 8.68867e+03  2.23743e+02 -1.24172e+01 
 8.68135e+03  2.87553e+02 -5.49056e+01 
 8.87907e+03  7.27743e+01  2.00598e+02 
 7.57293e+03 -6.30545e+02 -5.63204e+02 
 8.61753e+03  2.58926e+02 -5.72373e+01 
 8.53317e+03  3.95487e+00  2.22769e+01 
 8.58819e+03  8.06212e+01  7.28666e+01 
 7.74779e+03 -9.81394e+01 -1.01692e+02 
 8.97754e+03  7.64642e+00  2.83450e+01 
 8.69072e+03  4.46962e+01  6.44408e+01 
 8.95473e+03 -8.08848e+00  2.14121e+01 
 7.93483e+03  2.61743e+01  8.05934e+01 
 8.61871e+03 -1.51042e+00  2.74094e+01 
 8.67546e+03  2.78163e+02 -5.89615e+01 
 8.23055e+03  3.60726e+02  5.13025e+02 
 7.61242e+03  1.93473e+02 -5.45411e+01 
 7.86665e+03  1.02048e+02 -1.31286e+02 
 8.61183e+03  2.52082e+02 -7.18482e+01 
 8.03038e+03 -5.52325e+02 -3.85336e+02 
 8.64276e+03  1.62998e+01  1.88711e+01 
 8.51132e+03  1.25022e+02  3.54897e+01 
 8.77065e+03 -3.56524e+01 -1.78480e+01 
 8.48645e+03  7.43250e+01  6.28777e+00 
 8.84944e+03  3.05635e+01  6.18844e+01 
 8.73536e+03  2.14009e+01  3.46630e+01 
 8.57750e+03  2.24167e+02 -4.85407e+01 
 8.23622e+03 -9.48098e+01 -7.13255e+01 
 8.39488e+03  4.77602e+01  1.03528e+02 
 8.69941e+03  1.27555e+02  4.12185e+01 
 9.17061e+03 -8.47612e+01  8.90490e+01 
 8.58298e+03  3.82990e+01 -2.89515e+01 
 8.37441e+03 -4.09673e+02 -2.31627e+02 
 8.58481e+03  2.07479e+02 -7.34129e+01 
 8.52771e+03  2.17435e+02  3.87974e+02 
 8.34491e+03  7.66420e+01 -7.76422e+01 
 8.65065e+03  2.53387e+02 -4.29655e+01 
 8.13377e+03  1.29281e+02 -2.69504e+01 
 8.88172e+03 -9.51009e+01 -7.46384e+01 
 8.64303e+03  1.75448e+02  3.25056e+01 
 8.71605e+03  8.03613e+01  1.11083e+01 
 8.54595e+03  7.33924e+01 -4.83711e+01 
 8.57895e+03  5.15458e+01 -7.23613e+00 
 8.94661e+03  5.45383e+01  9.39902e+01 
 8.66029e+03 -1.39921e+01  7.00423e+01 
 8.64475e+03 -2.86650e+01  4.25693e+01 
 8.46853e+03 -3.54459e+01  9.35996e+01 
 8.50460e+03  1.72129e+02 -2.23971e+01 
 8.51725e+03 -6.77379e+01 -3.91914e+01 
 8.64618e+03  3.56272e+01  8.71790e+01 
 8.48727e+03 -5.95395e+01  4.23363e+01 
 8.83133e+03  2.71867e+01 -1.08393e+01 
 8.53975e+03  2.45732e+01  1.10286e+02 
 8.60589e+03 -2.49696e+02 -1.49990e+02 
 8.61260e+03  5.38158e+01 -2.19172e+01 
 8.43880e+03  6.67245e+01 -8.66533e+00 
 8.72380e+03  1.35026e+02  2.40055e+02 
 8.52865e+03  1.44438e+02 -6.20084e+01 
 8.59956e+03  2.15716e+02 -9.12443e+00 
 5.88779e+03  6.28748e+02  8.02627e+02 
 3.70309e+03  6.82876e+02  6.51499e+02 
 5.17371e+03 -9.82758e+02 -6.43960e+02 
 8.63550e+03  2.75964e+02 -2.28752e+01 
 8.68861e+03  1.27499e+01  7.07877e+01 
 8.81640e+03  2.80403e+01  1.88305e+01 
 8.38496e+03 -1.12131e+01  4.54709e+01 
 8.59969e+03  2.74699e+02 -1.34610e+01 
 3.76810e+03 -3.39975e+02 -3.04911e+02 
 8.41022e+03  5.64320e+01  8.86125e+01 
 8.76678e+03  9.29954e+00 -2.09067e+01 
 8.62567e+03 -1.95983e+01  2.00607e+01 
 8.59500e+03  2.71208e+02 -4.67837e+01 
 6.36878e+03  4.75085e+02 -2.05410e+02 
 6.78719e+03 -1.01024e+03 -8.65995e+02 
 7.19833e+03  7.40217e+02  8.41043e+02 
 5.98408e+03  1.48499e+02 -4.39995e+02 
 8.63547e+03  2.78199e+02 -5.13718e+01 
 8.48030e+03 -8.35880e+00 -2.90640e+01 
 7.64042e+03 -7.16225e+02 -4.68072e+02 
 8.58072e+03  1.22142e+02  8.44770e+01 
 8.88344e+03  1.96433e+01 -7.06482e+01 
 8.62336e+03  2.67017e+02 -6.29036e+01 
 7.64984e+03  2.24844e+02 -9.79914e+01 
 8.58309e+03  2.52840e+02 -6.60427e+01 
 8.55959e+03 -1.85401e+01 -1.16225e+01 
 7.89824e+03  4.34679e+02  6.60476e+02 
 7.35426e+03  2.94440e+01 -1.95846e+02 
 8.67496e+03  7.50599e+01  7.27936e+01 
 8.92642e+03  4.85693e+01 -1.84956e+01 
 8.38878e+03  1.05059e+02  1.80190e+01 
 8.64238e+03 -2.76258e+01 -2.72841e+01 
 8.73854e+03  2.60545e+01  5.62730e+01 
 8.51483e+03  1.68542e+02  4.04079e+01 
 8.80323e+03  1.05491e+02  8.50289e+01 
 8.71219e+03  4.01345e+01  2.75828e+01 
 8.71281e+03 -8.66778e+01 -1.23099e+02 
 8.57098e+03  9.83726e+00 -2.57993e+00 
 8.43725e+03  6.48705e+01 -4.37967e+01 
 8.17096e+03 -4.65052e+02 -2.54331e+02 
 8.27778e+03  1.14864e+02  2.50510e+00 
 8.54299e+03  2.15464e+02 -6.82031e+01 
 8.04539e+03 -2.37931e+01 -9.61102e+01 
 8.34813e+03  2.31867e+02  4.55504e+02 
 8.58575e+03  2.41229e+02 -5.52338e+01 
 8.42179e+03 -5.68919e+01  7.89342e+01 
 8.64381e+03  4.20542e+01 -4.64495e+01 
 8.49915e+03 -3.48086e+00  1.12158e+02 
 8.28770e+03 -7.57612e+00  1.36621e+02 
 8.66353e+03  4.08595e+01 -1.74863e+01 
 8.46079e+03 -6.91039e+01  2.48109e+01 
 8.26121e+03 -9.30056e+01  7.30875e+01 
 8.58969e+03  5.68835e+01  3.40025e+01 
 8.46051e+03  1.59811e+02 -5.77739e+01 
 8.40717e+03 -3.97482e+01 -4.19338e+01 
 8.46423e+03 -2.57658e+02 -1.49165e+02 
 8.60316e+03  1.30624e+02  2.60021e+02 
 8.50800e+03  2.02724e+02 -3.04256e+01 
 8.40497e+03 -8.54612e+01 -1.98577e+01 
 8.50459e+03  7.20331e+01  1.31719e+02 
 8.68594e+03  2.56032e+01  2.98619e+01 
 8.77014e+03  1.27524e+02 -1.39875e+02 
 8.62663e+03  1.08917e+01 -3.70161e+01 
 8.21845e+03  2.67331e+01  6.81369e+01 
 8.38799e+03  1.16835e+02  1.02213e+02 
 7.34204e-13 -2.20287e-14  2.42150e-13 
 4.27519e-12 -6.09164e-14 -1.78298e-13 
 8.77061e+03  1.15296e+02 -6.85001e+01 
 8.54221e+03 -5.07056e+01 -1.04346e+01 
 8.60287e+03  2.73891e+02 -1.86346e+01 
 8.30405e+03 -2.79899e+01 -2.68978e+01 
 8.65567e+03  3.62647e+01  7.83849e+01 
 8.70564e+03  7.22134e+01 -1.38330e+02 
 5.80150e+03  7.37110e+02  6.96317e+02 
 8.60163e+03  2.71563e+02 -5.18346e+01 
 5.24168e+03 -7.10591e+02 -8.78843e+02 
 7.47835e+03  4.22035e+02  5.85137e+02 
 7.11374e+03 -6.03601e+02 -5.06713e+02 
 8.58604e+03  2.59072e+02 -7.07919e+01 
 8.37197e+03  1.54747e+02  9.58981e+00 
 8.69913e+03  3.37062e+01  2.87324e+01 
 8.58852e+03 -6.46683e+01 -1.18240e+02 
 8.31840e+03  8.72672e+01 -3.99645e+01 
 8.70064e+03  9.80358e+01  7.35325e+01 
 8.55611e+03 -3.58863e+01 -2.47863e+01 
 8.41038e+03  4.37476e+01 -4.63702e+01 
 8.12936e+03 -1.32742e+02  5.56575e+01 
 7.95862e+03 -4.25061e+02 -2.57375e+02 
 8.19350e+03  2.04039e+02  4.00654e+02 
 8.15591e+03 -4.08984e+01  1.48277e+02 
 8.53696e+03  2.31588e+02 -7.45443e+01 
 8.47045e+03  3.13409e+01  2.48075e+01 
 7.98212e+03 -5.34647e+01  1.16888e+02 
 8.45383e+03  3.33177e+01 -7.06979e+01 
 8.61426e+03  1.98214e+02 -2.21269e+02 
 8.42631e+03  4.16099e+01  1.39643e+02 
 8.21099e+03  7.02163e+01  1.66420e+02 
 8.33485e+03 -1.23861e+02 -3.45479e+01 
 8.58186e+03  2.22001e+02 -2.24346e+02 
 8.12443e+03 -1.24697e+02 -2.59853e+01 
 8.35586e+03 -2.53735e+02 -1.30790e+02 
 8.53159e+03  9.71322e+01  2.21226e+02 
 8.43073e+03  1.89794e+02 -6.58980e+01 
 8.65330e+03  1.19799e+02 -1.10111e+02 
 8.09259e+03  5.59223e-01 -2.26140e+01 
 8.56347e+03  1.29761e+02 -1.49723e+02 
 8.63340e+03  3.86329e+01  1.65486e+01 
 8.52427e+03 -3.36295e+01 -4.17683e+01 
 8.15205e+03  1.03341e+02  6.30672e+01 
 8.23283e+03  1.35937e+02 -4.83207e+01 
 8.64762e+03  6.37065e+01  4.79679e+01 
 8.51008e+03 -8.47032e+01 -9.13844e+01 
 8.06162e+03  2.82959e+00 -8.30718e+01 
 7.67379e+03 -1.14504e+02  1.36012e+02 
 8.04410e+03  6.71980e+00  5.38963e+01 
 7.90574e+03 -1.98869e+02 -6.99885e+01 
 8.34984e+03  3.47363e+02 -3.63501e+02 
 7.98419e+03  4.91542e+01  2.03971e+02 
 7.81209e+03  6.24080e+01  1.26928e+02 
 8.36038e+03  7.04519e+01  2.54421e+01 
 8.44211e+03  2.17737e+02 -3.04331e+02 
 8.28493e+03 -5.72072e+01 -9.87467e+01 
 7.74956e+03 -9.23562e+01 -2.16530e+01 
 8.37410e+03  3.42906e+02 -2.66955e+02 
 8.57476e+03  8.93896e+01 -1.24017e+02 
 8.47183e+03  8.89842e+01 -1.23598e+02 
 7.88562e+03  7.45584e+01 -2.55301e+01 
 7.28212e+03 -1.53212e+02  8.08213e+01 
 7.96655e+03  5.78889e+02 -4.85551e+02 
 8.01091e+03  4.20367e+02 -5.27644e+02 
 7.30233e+03  7.25441e+01  2.02887e+02 
 7.24784e+03 -1.72263e+02 -7.78117e+01 
 7.75641e+03  1.20468e+02  1.06166e+02 
 7.72832e+03 -1.36047e+02 -1.97827e+02 
 8.26512e+03  1.92616e+02 -3.00187e+02 
 8.21072e+03  2.76914e+02 -2.43548e+02 
 7.28600e+03  1.74990e+01 -2.60115e+00 
 6.44410e+03  4.23203e+02  5.26268e+02 
 7.25407e+03  8.08644e+02 -7.97275e+02 
 6.56726e+03 -2.58828e+02 -3.76066e+02 
 7.57902e+03  4.86000e+02 -4.75994e+02 
 7.51215e+03  3.98410e+02 -4.83404e+02 
 6.22221e+03  1.62930e+01 -4.94341e+00 
 3.79435e+03  7.31186e+02 -4.87801e+02 
 5.99881e+03  6.41229e+02 -7.78322e+02 
 5.55688e+03  7.75211e+02 -6.17787e+02 
 5.77150e-13  2.53077e-13 -3.84203e-14 </DataArray>
            <DataArray Name="strain" NumberOfComponents="6" format="ascii" type="Float64">
-4.90613e+00  5.73128e+00 -1.59218e+01 -1.10488e+01 -5.38567e+01  7.64427e+00 
-4.58152e+01  7.27761e+01 -4.17204e+01 -3.27171e+00 -1.14728e+02  2.74605e+01 
 1.02409e+02 -8.76538e+00 -7.95103e+00 -1.50870e+02  9.66647e+01 -3.29347e+01 
-3.09136e+01 -2.16877e+01  4.62171e+01  5.43737e+01  4.76466e+01  7.88178e+00 
 2.11664e+01  1.97880e+01 -5.61893e+00 -2.40278e+02  5.39787e+01 -5.00172e+01 
-4.10046e+01  4.48872e+01  9.35629e+00 -1.76554e+00  1.43542e+01  3.41778e+01 
 7.33339e+01 -1.37615e+01  7.63941e+00 -1.07596e+02  2.27850e+02 -6.10467e+01 
 5.18882e+01  2.65354e+00 -2.37548e+01 -1.78751e+02  1.44718e+02 -5.22418e+01 
-8.60463e+01  1.85723e+02 -7.06020e+01 -1.42026e+02 -1.57838e+02  3.26684e+01 
 2.56549e+02 -6.00215e+01 -7.88693e+01 -3.31250e+02  2.22248e+02 -2.93115e+01 
-9.28397e+01 -5.23041e+01  1.71043e+02  1.27063e+02  1.57034e+02  3.41904e+01 
 2.45596e+02 -7.55200e+01 -6.45877e+01 -2.22912e+02  5.00950e+02 -5.80052e+01 
-1.00345e+02  1.49088e+00  1.45398e+02  3.51258e+01  1.33853e+02  6.90805e+01 
-8.64202e+01  1.65805e+02 -2.90013e+01 -1.19848e+02 -1.62960e+01  6.97191e+01 
-2.46995e+01  1.00129e+02 -9.41122e+00 -3.05739e+02  7.03381e+01 -6.13106e+01 
 2.06761e+01 -1.61240e+01  7.91288e+01 -1.32062e+02  3.18517e+02 -7.12187e+01 
 2.31398e+02 -6.28456e+01 -7.48439e+01 -5.25907e+02  1.49471e+02 -4.04548e+01 
 4.30342e+01 -1.57480e+01  5.61422e+01 -1.76732e+02  3.54521e+02 -9.10245e+01 
 4.27586e+01  9.27715e+01 -2.82858e+01 -3.41965e+02  1.55519e+02 -6.49150e+01 
 2.59233e+02 -8.45754e+01 -1.11453e+02 -4.28975e+02  3.67064e+02 -7.61959e+01 
 1.64209e+02 -7.89696e+01  6.58087e+00 -2.18947e+02  6.61253e+02 -5.91468e+01 
-1.88099e+02  1.46141e+02  1.24966e+02 -9.15288e+01  1.26730e+02  1.37096e+02 
 1.48493e+02  4.80675e+01 -8.29588e+01 -5.53926e+02  1.74450e+02 -3.74249e+01 
-1.51359e+02 -8.89507e+01  3.21940e+02  2.02464e+02  2.75537e+02  2.31635e+01 
 5.66994e+01  7.34060e+01  3.99316e+01 -4.32749e+02  4.33857e+02 -1.01079e+02 
 7.17111e+02 -1.70803e+02 -2.02359e+02 -4.93356e+02  3.28002e+02 -3.40762e+01 
-1.49194e+02  3.41240e+02 -1.09028e+02 -2.77114e+02 -2.22114e+02  1.05784e+01 
 2.11119e+02  4.00484e+01 -9.07823e+01 -6.34044e+02  4.18130e+02 -9.92801e+01 
 2.17691e+02 -9.59466e+01 -9.30158e+00 -4.02044e+02  6.70761e+02 -1.32663e+02 
-9.08656e+01  1.85860e+02 -1.39881e+01 -3.89058e+02  9.46313e+01 -7.32792e+01 
-1.42233e+02 -5.30075e+01  3.20774e+02  5.30129e+01  3.15650e+02  5.88651e+01 
-6.33283e+01 -1.14771e+01  1.61438e+02 -1.54058e+02  3.32170e+02 -7.44401e+01 
 6.09950e+02 -1.76598e+02 -1.73611e+02 -3.19322e+02  7.67663e+02 -5.52557e+01 
-1.31783e+02  3.36280e+02 -7.55852e+01 -3.06105e+02 -4.56865e+01  5.85405e+01 
 5.65851e+02 -1.54717e+02 -1.90768e+02 -9.14155e+02  2.15145e+02 -1.97755e+01 
-1.00079e+01  1.89968e+02 -3.88952e+01 -4.11316e+02  2.03845e+02 -6.33677e+01 
-6.19297e-02 -3.24889e+01  1.57427e+02 -2.17280e+02  3.72953e+02 -7.49844e+01 
 5.24196e+02 -1.82436e+02 -2.33375e+02 -7.20457e+02  5.83241e+02 -9.62779e+01 
 1.83604e+02  2.37988e+01 -2.11730e+01 -7.38065e+02  7.84544e+02 -1.53829e+02 
 6.04334e+01  1.10570e+02 -7.98407e+01 -6.28423e+02  1.95046e+02 -5.40141e+01 
-2.29967e+02  1.03052e+02  3.23098e+02 -1.87639e+00  5.08485e+02  1.31779e+02 
 8.29715e+01 -8.04544e+01  7.94944e+01 -2.31023e+02  6.62018e+02 -6.15424e+01 
 4.35918e+02 -1.61182e+02 -5.91785e+01 -2.94177e+02  9.48447e+02 -4.78953e+01 
-2.23584e+02  3.33785e+02  9.20736e+01 -5.24389e+02  8.41827e+01  1.24750e+02 
 3.89531e+02  2.52679e+01 -1.83176e+02 -8.54465e+02  2.36541e+02 -3.05031e+01 
 1.29462e+02  1.16997e+02 -8.72292e+01 -6.67858e+02  4.86314e+02 -9.56216e+01 
 2.50769e+01  1.79243e+02  3.51410e+01 -5.60564e+02  6.49772e+02 -1.09601e+02 
 3.32882e+01  5.93548e+01  1.53529e+02 -6.65185e+02  5.20607e+02 -1.11299e+02 
 1.58220e+02 -1.01228e+02  7.74186e+01 -4.52872e+02  6.61352e+02 -1.13198e+02 
 4.19247e+02  8.72382e+00 -1.75699e+02 -9.11861e+02  5.75048e+02 -1.33430e+02 
 4.16868e+02 -1.83670e+02 -6.63548e+01 -6.28485e+02  9.48182e+02 -1.65430e+02 
-1.73977e+02 -1.17648e+02  4.36523e+02  2.17246e+02  2.42181e+02  4.53771e+01 
 1.44213e+03 -3.54650e+02 -3.95557e+02 -7.22838e+02  5.21659e+02 -4.98779e+01 
-1.82418e+02  4.66542e+02 -1.35922e+02 -2.34307e+02 -2.24127e+02  3.89040e+01 
 1.27632e+02  1.03275e+02 -2.06973e+01 -8.48203e+02  1.01766e+03 -1.39541e+02 
-1.46114e+02  2.55020e+02 -1.47435e+01 -2.60049e+02  1.29899e+02 -4.62041e+01 
-1.56892e+02  4.90740e+02 -1.23227e+02 -2.15676e+02  1.13517e+01  9.64131e+01 
-1.63634e+02 -1.04441e+02  4.60028e+02 -3.51571e+01  2.30389e+02  8.77965e+01 
 1.13124e+03 -3.28051e+02 -3.20792e+02 -4.33484e+02  1.19230e+03 -5.89628e+01 
 1.45163e+02  5.08942e+00  6.65456e+01 -9.92059e+02  8.63461e+02 -1.54892e+02 
-1.34173e+02 -2.23852e+00  2.20274e+02 -1.69654e+02  1.73109e+02 -2.26408e+01 
 1.06452e+03 -2.80121e+02 -3.60456e+02 -1.50623e+03  2.97722e+02  2.24405e+00 
 3.45711e+02 -9.67972e+00 -8.10590e+01 -9.74417e+02  1.00656e+03 -2.01865e+02 
-4.95443e+01  2.63892e+02 -3.78902e+01 -2.76911e+02  2.76290e+02 -1.62216e+01 
 2.23400e+02  9.31356e+01 -1.55688e+02 -8.86089e+02  2.40367e+02 -4.38476e+01 
-1.18619e+02  4.77942e+02  4.63142e+02 -1.37016e+03  1.30315e+03 -1.33317e+02 
-2.73555e+01 -3.44734e+01  2.32964e+02 -3.02727e+02  2.36258e+02 -3.38779e+01 
 2.66854e+02 -1.46036e+02  4.90387e+01 -2.78676e+02  8.95485e+02 -4.69515e+01 
 8.78567e+02 -3.11883e+02 -3.99697e+02 -1.14178e+03  8.95608e+02 -1.40300e+02 
 2.76797e+02  9.82653e+01 -1.59020e+02 -8.88517e+02  6.09468e+02 -1.17303e+02 
-1.92795e+01  1.56072e+02  1.45846e+02 -8.79762e+02  8.22472e+02 -1.72882e+02 
 2.89616e+02 -1.72751e+02  4.95614e+01 -6.28186e+02  8.93500e+02 -1.40068e+02 
-2.49106e+02  3.44257e+01  5.02754e+02 -1.69240e+02  2.47114e+02  1.63309e+02 
 2.71707e+01 -7.82080e+01  1.33683e+02 -2.44360e+02  3.88427e+02 -6.29666e+00 
-2.41281e+02  5.25202e+02  3.44560e+01 -2.20076e+02  2.97259e+02  1.64938e+02 
 7.67704e+02 -2.76748e+02 -1.06726e+02 -3.58712e+02  1.37666e+03 -4.37493e+01 
 6.95119e+02  3.71928e+01 -3.26618e+02 -1.21598e+03  3.27723e+02 -3.08381e+01 
 7.28909e+00  1.63738e+02 -8.07436e+01 -3.79495e+02  2.29004e+02 -3.30936e+01 
 3.06625e-01  2.46346e+02  7.65002e+01 -3.95785e+02  9.35453e+02 -3.62064e+01 
 8.02128e+01  1.71679e+02 -8.23353e+01 -4.24316e+02  5.87312e+02 -5.21829e+01 
 3.23002e+01  8.72655e+01  2.18701e+02 -9.37660e+02  3.66140e+02 -5.71081e+01 
 6.47929e+02  6.37201e+00 -2.73683e+02 -1.24846e+03  7.79256e+02 -1.95341e+02 
 1.12695e+02 -9.65164e+01  1.42990e+02 -5.56038e+02  4.20735e+02 -5.61705e+01 
 6.46193e+02 -2.95414e+02 -9.77830e+01 -9.13297e+02  1.29905e+03 -2.38026e+02 
 1.17221e+02  8.24146e+01  4.19774e+01 -1.20917e+03  1.20385e+03 -1.57772e+02 
 2.49426e+02  7.41833e+01 -7.70486e+01 -1.02868e+03  1.18734e+03 -1.73935e+02 
 2.52663e+02 -2.89094e+01  3.30448e+01 -1.17746e+03  1.03796e+03 -1.88554e+02 
 4.76472e+02 -1.79427e+01 -1.17352e+02 -1.22909e+03  1.28348e+03 -2.91609e+02 
 1.24650e+02 -2.07987e+00  1.21407e+02 -1.26205e+03  5.56380e+02 -6.21232e+01 
 1.01251e+02  1.43179e+02 -5.52989e+00 -5.76837e+02  1.32079e+03 -6.86512e+01 
 3.89819e+02  1.29486e+02 -2.58349e+02 -1.21532e+03  3.00790e+02 -4.39673e+01 
 1.15360e+02  1.64686e+02 -1.37903e+02 -5.09297e+02  2.61863e+02 -2.18972e+01 
-1.70812e+02  4.96454e+02 -1.40215e+02 -1.62554e+02 -1.81145e+02 -2.65638e+01 
 4.53534e+02 -2.32772e+02  7.60760e+01 -3.10160e+02  1.23813e+03 -4.12124e+01 
 2.60379e+03 -6.37689e+02 -6.94843e+02 -1.10203e+03  8.72828e+02 -8.38954e+01 
-1.65009e+02 -1.31788e+02  4.66409e+02  2.05267e+02  1.77362e+02 -1.79578e+01 
-2.57397e+02  4.16976e+02  8.28798e+02 -8.06656e+01  2.32927e+03 -1.38042e+02 
-2.66334e+02  8.48089e+02  4.04267e+02 -2.39979e+03  1.00652e+02 -1.29630e+02 
 1.41609e+02 -1.34072e+02  1.31218e+02 -2.73831e+02  5.22894e+02 -9.69285e+00 
 3.87987e+02  1.30610e+02 -2.32839e+02 -1.16559e+03  7.57035e+02 -1.59318e+02 
 7.46344e+01  2.30929e+02  1.70115e+02 -7.60108e+02  1.55266e+03 -1.18274e+02 
 9.38506e+01  1.92585e+02  2.14346e+02 -1.84445e+03  9.25236e+02 -1.66108e+02 
 1.82631e+02  1.68462e+02 -1.45569e+02 -5.39293e+02  6.81817e+02 -6.25276e+01 
-1.41200e+02 -1.27449e+02  5.13197e+02 -1.24651e+02  2.06209e+02 -3.50148e+01 
-1.72079e+02 -1.80926e+01  2.66374e+02 -1.32778e+02 -4.39522e+01  1.15232e+01 
-1.38304e+02  5.34433e+02 -1.38041e+02 -1.77993e+02  8.17809e+01 -1.19180e+01 
 1.88015e+03 -5.45657e+02 -5.24585e+02 -5.93881e+02  1.89782e+03 -7.70475e+01 
 4.03926e+02 -2.56244e+02  7.69808e+01 -8.21242e+02  1.18196e+03 -2.03307e+02 
 1.79358e+03 -4.56397e+02 -6.10369e+02 -2.51971e+03  4.29794e+02  3.09141e+01 
-1.75748e+02  2.88813e+02 -2.63216e+01  7.20849e+00  1.34540e+02  1.04698e+01 
 1.91678e+02 -1.56154e+02  1.43022e+02 -6.88994e+02  5.57264e+02 -7.85347e+01 
 1.97199e+02  4.36337e+01  6.84764e+00 -1.30646e+03  1.32006e+03 -1.76504e+02 
-6.16013e+01 -5.74540e+01  2.76250e+02 -3.24659e+02 -8.19003e+01  4.25197e+01 
-9.01721e+01  3.04221e+02 -5.57721e+01  1.66622e+01  2.80557e+02  3.32726e+01 
 1.33771e+03 -4.89650e+02 -6.30845e+02 -1.81360e+03  1.40594e+03 -2.39016e+02 
 1.22711e+02  9.81914e+01  1.07904e+02 -2.34643e+03  1.05430e+03 -9.89368e+01 
-1.65676e+02  2.64695e+01  5.45167e+02 -2.95970e+02  3.40582e+02 -1.10120e+02 
 2.95219e+02  9.43886e+01 -1.02000e+02 -1.23921e+03  1.37736e+03 -2.46883e+02 
 1.64386e+00 -8.32588e+01  1.71994e+02 -2.13823e+02  1.53902e+01  6.86554e+00 
 1.17388e+03 -4.30830e+02 -1.29138e+02 -4.30765e+02  2.01187e+03 -4.49885e+01 
 1.86181e+02  1.34530e+02 -7.09250e+01 -6.56005e+02  1.39873e+03 -7.76734e+01 
-1.58703e+02  5.49730e+02  3.75961e+01 -3.23329e+02  4.29635e+02 -9.14768e+01 
 2.96912e+02 -3.84287e+01  5.39881e+01 -1.35700e+03  1.25574e+03 -2.69945e+02 
-1.72505e+01  1.85529e+02 -8.65217e+01  3.65361e+01  2.33366e+02  1.91409e+01 
 1.07517e+03  9.65526e+01 -5.27022e+02 -1.72255e+03  4.69352e+02 -4.59850e+01 
 1.05524e+02  1.34291e+02  7.02241e+01 -1.09201e+03  2.30699e+03 -1.70852e+02 
 1.77780e+02 -3.65292e+01  1.14378e+02 -1.40028e+03  6.61934e+02 -9.91471e+01 
-5.55029e+01  4.62412e+01  2.73751e+02 -8.50066e+02 -1.66257e+02  6.00418e+01 
 8.26604e+01 -1.02294e+02  1.85504e+02 -6.06686e+02 -1.54103e+01  1.01965e+01 
-8.58282e+01  2.93631e+02  5.31555e+01  5.90637e+01  9.24695e+02  6.22525e+01 
 9.01938e+02 -4.43105e+02 -8.93744e+01 -1.32219e+03  1.78062e+03 -3.80946e+02 
 5.61203e+01  1.96510e+02 -9.19854e+01  2.52817e+01  6.06710e+02  2.33744e+01 
 8.98005e+02  3.52434e+01 -3.79463e+02 -1.69263e+03  1.05002e+03 -3.17682e+02 
 2.03601e+02  2.35074e+02 -2.13597e+02 -6.72329e+02  3.02420e+02 -2.63832e+01 
 2.37107e+02 -2.02488e+02  1.98143e+02 -2.91311e+02  7.21421e+02 -7.56022e+00 
 1.05324e+02  3.97242e+02  3.91414e+02 -8.74236e+02  9.06928e+02 -4.68550e+02 
 2.25414e+02  2.25798e+02 -2.01323e+02 -6.86006e+02  7.89485e+02 -8.64101e+01 
 9.60137e+01 -2.84031e+01  1.69301e+02 -1.20870e+03 -4.72082e+01  1.21676e+01 
 2.19958e+01  2.43129e+02  2.58283e+02 -1.30358e+03  1.72519e+03 -2.73595e+02 
 5.75279e+02 -1.38056e+00 -1.27092e+02 -1.53538e+03  1.63204e+03 -4.49542e+02 
 2.26910e+02 -2.12695e+02  2.09769e+02 -8.21624e+02  7.19212e+02 -1.23267e+02 
 7.46527e+01  1.73165e+02 -2.18509e+01  7.11985e+01  1.31479e+03  6.55803e+01 
 1.85271e+02  5.52966e+01  2.53776e+01 -1.44329e+03  1.45962e+03 -2.51393e+02 
 1.40844e+02  4.89520e+01  9.65961e+01 -2.43113e+03  1.16389e+03 -1.36574e+02 
 6.27855e+02 -3.38862e+02  1.62516e+02 -3.38031e+02  1.70441e+03 -3.94786e+01 
 8.31308e+01 -1.34644e+02  1.76866e+02 -2.47900e+02  7.59186e+00  7.40815e+00 
-5.54993e+01  4.63359e+02  7.98419e+02 -6.18126e+02  2.28451e+03  8.70825e+01 
 1.52008e+02  1.04865e+02  2.65945e+01 -1.13674e+03  2.41290e+03 -1.29653e+02 
-6.37518e+01  8.02763e+02  4.63917e+02 -2.34237e+03  6.25618e+02  8.54029e+01 
 7.71464e+01  1.83930e+02 -1.33259e+02  3.99677e+01  2.62799e+02  1.16882e+01 
 5.57244e+02  2.13889e+02 -3.87679e+02 -1.65980e+03  3.71013e+02 -6.04445e+01 
-1.50220e+02  2.10373e+02  2.14204e+02 -1.83490e+03 -5.21742e+02  5.31528e+01 
 4.90144e+02 -3.56847e+02  1.62347e+02 -1.07082e+03  1.56213e+03 -3.17753e+02 
 4.69863e+02  2.03564e+02 -3.02267e+02 -1.51371e+03  9.28302e+02 -2.41870e+02 
 1.44843e+02 -1.52904e+02  1.91150e+02 -7.33119e+02 -9.53031e-01  1.24855e+00 
 1.46952e+02  1.89996e+02 -1.48093e+02  2.34146e+01  7.11047e+02  5.95315e+00 
-1.71143e+02  2.32713e+02  1.71216e+02  2.54136e+02  1.39532e+03  5.31664e+01 
 1.79720e+02  1.76384e+02 -8.76547e+01 -7.69209e+02  1.52732e+03 -1.25691e+02 
 4.53455e+03 -1.09682e+03 -1.17730e+03 -1.74612e+03  1.55808e+03 -1.51667e+02 
-1.15891e+02 -1.10205e+02  3.86822e+02  1.51831e+02 -1.60764e+01  1.20998e+00 
-1.30624e+02  4.23964e+02 -1.14206e+02  5.16421e+01 -1.23083e+02  1.38712e+01 
 1.65515e+02 -4.04631e+01  1.62087e+02 -1.52430e+03  7.89754e+02 -1.58746e+02 
 3.39611e+01  1.08327e+02  5.44799e+01 -1.52431e+03  1.50121e+03 -6.86467e+01 
-1.06799e+02 -9.59174e+01  4.31142e+02 -1.82175e+02 -5.57236e+01 -2.06233e+01 
-1.52602e+02  2.63102e+02 -2.42214e+01  2.55290e+02  1.50265e+02  2.32933e+01 
-1.60620e+02 -9.72430e+00  2.31960e+02 -1.10811e+02 -3.01869e+02  5.44507e+01 
 2.97237e+03 -8.62008e+02 -8.27963e+02 -8.03604e+02  3.16482e+03 -1.17225e+02 
-1.13190e+02  4.63516e+02 -9.79805e+01  8.30840e+01  1.43489e+02  1.11935e+01 
 2.90448e+03 -7.26646e+02 -9.85881e+02 -4.34978e+03  6.52750e+02  6.92845e+01 
 8.86686e+01  1.11676e+02  1.11720e+02 -2.37105e+03 -2.90753e+02 -5.92927e+00 
 1.34459e+02 -6.17645e+01  1.59661e+02 -1.35121e+03 -4.49206e+01  1.39262e+01 
 1.92895e+03 -7.39062e+02 -9.50319e+02 -2.90599e+03  2.26840e+03 -4.57155e+02 
-4.80266e+01 -5.06670e+01  2.56576e+02 -3.51483e+02 -3.13862e+02  3.36229e+01 
-7.69669e+01  2.69283e+02 -4.53394e+01  2.77925e+02  2.95516e+02  4.56237e+01 
 2.88484e+02  1.46091e+02 -9.55991e+01 -1.47843e+03  1.58353e+03 -3.73164e+02 
 1.56793e+02  1.57736e+02 -9.19830e+01  5.71799e+01  1.34000e+03  3.85673e+01 
 2.82439e+02 -2.61528e+01  1.19782e+02 -1.54619e+03  1.50671e+03 -4.03880e+02 
 8.49149e+01  9.19971e+01  1.07647e+02  3.17651e+02  2.29504e+03  3.48621e+01 
-1.34279e+02  5.02426e+02  1.00016e+02  2.37286e+02  5.63672e+02  1.64653e+00 
 1.66273e+03 -6.31732e+02 -1.05945e+02 -4.94535e+02  2.98162e+03 -4.87819e+01 
 2.09763e+01 -7.81947e+01  1.55953e+02 -1.88779e+02 -4.04951e+02  4.14126e+01 
-1.32297e+02  9.27753e+01  4.76203e+02 -4.61075e+02 -2.13339e+02 -3.42692e+01 
 2.66122e+00  1.74685e+02 -8.59097e+01  4.17473e+02  2.30700e+02  1.51798e+01 
 1.54457e+03  2.30630e+02 -8.10025e+02 -2.44174e+03  7.11133e+02 -9.44988e+01 
-4.22605e+01  5.42454e+01  2.51260e+02 -8.39681e+02 -3.59987e+02  3.57038e+01 
 1.09618e+02  1.28866e+02  4.82505e+01 -1.24236e+03  2.54655e+03 -1.75175e+02 
 1.01658e+02  6.15306e+01  1.29530e+02 -2.54972e+03  1.26648e+03 -2.10725e+02 
-6.83376e+01  2.53248e+02  7.61385e+01  3.59024e+02  9.36837e+02  8.54814e+01 
 1.46563e+02 -2.00434e+02  2.59054e+02 -2.66729e+02  3.10291e+01  1.09019e+01 
 7.56731e+01  5.05112e+02 -1.65920e+02 -8.29588e+02  6.74427e+02 -1.02777e+02 
 7.32618e+01  1.77181e+02 -9.03026e+01  4.18849e+02  5.99021e+02  4.21462e+01 
 2.33924e+01  6.29702e+01  6.54456e+01 -1.52697e+03  1.57462e+03 -8.01135e+01 
 7.50682e+01 -1.69574e+02  4.95744e+02 -6.51206e+02  8.47820e+02 -1.10747e+02 
 2.85135e+02 -2.78956e+02  3.30174e+02 -3.13187e+02  9.63099e+02 -3.35375e+00 
 1.14950e+03 -6.20969e+02  3.87040e-01 -1.87177e+03  2.39198e+03 -6.47204e+02 
 9.68402e+01 -1.01202e+02  1.75685e+02 -6.27064e+02 -4.23917e+02  5.12995e+01 
 2.61688e+02  3.59723e+02 -2.99579e+02 -8.74227e+02  3.39039e+02 -4.23388e+01 
 1.16858e+03  9.43506e+01 -4.85645e+02 -2.27382e+03  1.41349e+03 -5.38323e+02 
 1.42729e+02  2.59533e+02 -1.97374e+02  3.71768e+01  2.96547e+02  5.16005e+00 
-4.86226e+00  3.37574e+02 -8.38820e+01 -1.15538e+03 -6.58988e+02  3.08504e+01 
 2.19244e+02  3.26508e+02 -2.42976e+02 -8.59291e+02  8.95136e+02 -1.31567e+02 
 1.50994e+02 -1.94146e+02  2.66259e+02 -8.40968e+02  1.33629e+01 -1.20658e+01 
-1.83301e+01 -7.15867e+01  3.69551e+02  1.90152e+02  1.67605e+03  3.55037e+01 
 2.10109e+02 -2.68644e+02  3.35176e+02 -9.76323e+02  9.13498e+02 -1.96891e+02 
 1.70387e+02  2.54935e+02 -1.99902e+02  1.60011e+01  8.17496e+02  1.41074e+00 
 1.00752e+02  5.58295e+01  9.42074e+01 -2.47858e+03 -3.22409e+02 -2.41012e-02 
 1.15379e+02  9.49513e+01  7.70665e+01 -1.57713e+03  1.60446e+03 -3.76854e+02 
 1.21851e+02  9.49322e+01  4.78488e+01  3.18782e+02  2.43311e+03  2.15680e+01 
 1.04472e+02  1.47387e+02 -1.63301e+01  4.66855e+02  1.27830e+03  6.12111e+01 
 1.10728e+02 -2.53813e+01  1.55945e+02 -1.15985e+03 -4.99238e+02  6.80630e+01 
 6.32829e+02  2.75271e+01 -1.04112e+02 -1.88775e+03  2.05223e+03 -6.89356e+02 
-3.37959e+02  6.68023e+02  6.91587e+02  8.78525e+02  2.16238e+03  5.10143e+02 
 7.17259e+02  3.38050e+02 -5.39974e+02 -2.24049e+03  4.80911e+02 -9.65457e+01 
 1.17636e+02  2.48650e+02 -6.89617e+01 -8.83192e+02  1.64527e+03 -2.01895e+02 
 1.14408e+02  1.66512e+02 -1.36183e+02  5.63827e+02  2.59035e+02  1.84148e+01 
 1.07320e+02 -1.38937e+02  1.67090e+02 -2.24710e+02 -5.40912e+02  2.12683e+01 
 7.68948e+02 -4.57220e+02  3.22454e+02 -3.52745e+02  2.30988e+03 -3.37609e+01 
 1.08029e+02 -6.59392e+01  2.10539e+02 -1.46059e+03 -3.25792e+01  8.79482e+00 
 3.10298e+01 -7.53799e+01  4.99581e+01  1.98325e+02  1.18247e+03  4.63629e+01 
-3.46032e+02  6.70115e+02  6.63281e+02 -2.15794e+03 -8.88052e+02  4.81109e+02 
 3.70084e+01  1.10072e+02 -3.36311e+01 -1.16274e+03 -1.98320e+02  3.99296e+01 
 1.39031e+02  2.04323e+02 -1.04598e+02  4.55980e+01  1.45699e+03  2.26948e+01 
 9.06089e+01 -2.11982e+01  2.50596e+02 -1.63852e+03  9.19150e+02 -2.41923e+02 
-1.94306e+01  2.38971e+02  1.92795e+02 -2.11548e+03 -3.28808e+02  1.13942e+02 
 5.03908e+02  3.01803e+02 -3.54695e+02 -1.91515e+03  1.12799e+03 -3.72756e+02 
 5.03968e+02 -4.56734e+02  3.10491e+02 -1.35684e+03  1.99744e+03 -4.93580e+02 
 1.69052e+02 -1.52952e+02  1.83351e+02 -7.53404e+02 -5.40736e+02  5.33576e+01 
 1.75354e+02  1.67183e+02 -1.52621e+02  5.51264e+02  7.17944e+02  5.39058e+01 
-5.28731e+01  1.99857e+02  2.05478e+02  4.98057e+02  1.61134e+03  1.27448e+02 
 2.04853e+01  6.59106e+01  8.35489e+01 -1.61524e+03  1.64480e+03 -1.10975e+02 
 1.03381e+02  1.38360e+02  1.04050e+02 -2.58989e+03 -5.14499e+02  1.23613e+02 
 1.75294e+02  1.37112e+02 -9.30790e+01  5.82639e+02  1.28594e+03  8.03924e+01 
 7.83358e+03 -1.85872e+03 -1.95027e+03 -2.79424e+03  2.88970e+03 -3.12710e+02 
 1.16705e+02  8.63319e+01  1.40971e+02  4.72705e+02  2.49896e+03  1.23546e+02 
-5.93173e+01 -8.29610e+01  2.46067e+02  1.25055e+02 -1.18879e+02 -1.65816e+01 
-7.39130e+01  2.87514e+02 -8.39987e+01  1.46980e+02 -9.32152e+01  3.70173e-01 
 1.48091e+02 -6.29767e+01  1.53515e+02 -1.30533e+03 -5.95304e+02  7.52415e+01 
 2.19943e+02  2.06689e+02 -5.89035e+01 -1.70714e+03  1.78258e+03 -5.42058e+02 
 2.03537e+02 -7.01436e+00  2.21199e+02 -1.71502e+03  1.74571e+03 -5.73413e+02 
-1.09791e+02 -1.63090e+01  1.77357e+02 -4.86564e+01 -4.10222e+02  7.43835e+01 
 1.63111e+01  6.90406e+01 -3.83743e+01 -1.15732e+03 -2.46773e+02  2.94211e+01 
-5.35737e+01 -7.73188e+01  2.77693e+02 -1.11103e+02 -1.23613e+02 -6.44133e+01 
-1.06651e+02  1.98058e+02 -2.61078e+01  4.47974e+02  1.10371e+02  7.26554e+01 
 1.59019e+02 -2.70771e+02  3.99266e+02 -2.94538e+02  4.72664e+01  1.43130e+01 
 7.02693e+01 -1.86512e+02 -1.86768e+02 -5.21229e+02  5.50635e+02  2.13364e+02 
 6.43010e+01  6.36125e+01  1.17912e+02 -2.57477e+03 -3.25199e+02 -1.08819e+01 
-6.80027e+01  3.04116e+02 -6.97534e+01  1.55370e+02  9.75230e+01 -2.40193e+01 
 1.56915e+01  1.01413e+02  1.86889e+02 -2.60808e+03  1.33026e+03 -3.04219e+02 
 4.57897e+03 -1.14662e+03 -1.64452e+03 -7.74665e+03  9.48683e+02  1.29899e+02 
 2.56437e+01  1.73191e+02  1.02888e+02 -1.31218e+03  2.63857e+03 -2.62317e+02 
 4.46357e+03 -1.33624e+03 -1.26352e+03 -9.75076e+02  5.47026e+03 -1.79761e+02 
 2.03533e+01 -3.29737e+01  7.10616e+01  2.08220e+02  1.21662e+03  2.67788e+01 
 1.65424e+02  3.89148e+02 -2.66022e+02  3.52610e+01  3.20417e+02 -3.29827e+00 
 8.30346e+01  1.21702e+02  5.38171e+01  3.23218e+02  2.56415e+03  1.30327e+01 
-6.20247e+01  2.00254e+02 -3.99847e+01  4.68474e+02  2.14620e+02  8.71193e+01 
-3.26066e+01 -4.52247e+01  1.86487e+02 -2.66764e+02 -5.10720e+02  8.81739e+01 
 2.87213e+03 -1.17643e+03 -1.50424e+03 -4.85459e+03  3.86250e+03 -8.45078e+02 
 2.28192e+01 -1.44447e+02 -1.41784e+02  2.78379e+01 -6.32940e+02  7.82039e+00 
 1.39613e+02  3.63710e+02 -2.38009e+02  8.82532e+00  9.01686e+02 -2.03236e+00 
 1.01145e+02 -2.25296e+02  3.88854e+02 -9.47293e+02  2.17338e+01 -3.39867e+01 
 2.90852e+02  5.13303e+02 -3.86855e+02 -1.11670e+03  4.02914e+02 -6.74267e+01 
 2.10576e+02  2.25149e+02 -2.04139e+02  7.25157e+02  2.90058e+02  1.84646e+01 
-3.36162e+01  5.12128e+02  7.44992e+02 -1.13075e+03 -1.99635e+03  5.08500e+02 
 1.93981e+02 -2.18387e+02  2.41210e+02 -2.48790e+02 -6.88966e+02  2.23320e+01 
-3.86403e+01  7.25518e+02  5.05584e+02  1.91366e+03  1.12353e+03  5.12529e+02 
 2.79742e+02 -3.51257e+02  5.11645e+02 -3.46255e+02  1.21820e+03  3.20349e+00 
-5.21154e+01  2.94798e+02  8.56228e+01 -1.20392e+03 -6.77520e+02  2.03849e+02 
 1.63195e+02  4.36337e+02 -2.60384e+02 -1.04579e+03  1.00898e+03 -1.96800e+02 
 7.09263e+01 -7.40815e+01  1.08721e+02 -1.44406e+02 -6.30862e+02  4.48213e+01 
-8.20190e+01  5.67147e+01  2.98310e+02 -2.89574e+02 -1.80874e+02 -9.50514e+01 
 5.06311e+01  1.20440e+02 -8.37559e+01  7.07165e+02  1.97182e+02  6.23795e+01 
-8.88857e+01  3.15980e+02  6.28265e+01  2.27368e+02  3.36808e+02 -6.20809e+01 
 2.02568e+03  5.04458e+02 -1.16150e+03 -3.36852e+03  1.05857e+03 -2.12079e+02 
-5.78668e+01  1.03292e+02  3.23013e+02  1.13426e+03  1.68968e+03  2.36572e+02 
 2.13337e+03 -9.02554e+02  3.17906e+01 -5.42212e+02  4.37877e+03 -9.88516e+00 
 1.24023e+02 -3.11271e+02  4.93267e+02 -1.13501e+03  1.09071e+03 -2.94982e+02 
 1.92219e+02 -1.92351e+02  2.49964e+02 -8.65951e+02 -6.78373e+02  6.88056e+01 
 2.26294e+02  2.17823e+02 -2.14327e+02  6.88893e+02  8.42991e+02  7.61140e+01 
 1.08913e+02  1.19058e+02 -8.49973e+01  7.19608e+02  5.07289e+02  1.11042e+02 
-1.11919e+02  2.02335e+02  7.15207e+01  6.48892e+02  5.95558e+02  1.58158e+02 
-7.00973e+00  1.37002e+02  1.43941e+02 -1.66860e+03  1.71990e+03 -5.14999e+02 
 1.39139e+02  7.23450e+01  8.40140e+01  5.52505e+02  2.65936e+03  1.20152e+02 
 1.52741e+03 -9.35683e+02  2.76038e+02 -2.70527e+03  3.13752e+03 -1.07000e+03 
 1.31886e+03  2.03093e+02 -5.31585e+02 -2.89680e+03  1.76301e+03 -9.01284e+02 
-9.59331e+01  6.31894e+01  1.91798e+02 -4.85784e+02 -7.61588e+02  1.06946e+02 
 1.12516e+02  8.65511e+01  8.95376e+01 -2.71353e+03 -5.52632e+02  1.04769e+02 
 1.40007e+02 -9.88184e+01  1.25200e+02 -5.41843e+02 -7.10911e+02  9.32151e+01 
 2.93680e+01 -8.35419e+01 -4.22606e+01 -1.27604e+01 -2.32656e+00 -7.28956e+01 
 2.16519e+01 -4.66475e+01  2.94843e+02 -1.54652e+03 -2.99734e+01  1.05332e+00 
 6.56292e+01  2.80481e+02 -8.60867e+01  3.84965e+01  1.54109e+03  1.34433e+01 
 1.35200e+02 -6.99185e+01  2.00509e+02 -1.43044e+03 -6.92880e+02  1.07820e+02 
 5.44912e+01  9.07225e+01  1.01413e+02 -1.16053e+03 -1.13195e+03  1.43923e+02 
 3.04634e+00  3.17345e+02 -2.46181e+01 -9.78422e+02  1.73802e+03 -3.00619e+02 
 2.68384e+01  8.68674e+01  3.54576e+01  1.11773e+03  1.14828e+03  1.15597e+02 
 1.81984e+02  1.69293e+02 -1.05817e+02  6.91661e+02  1.41758e+03  1.17080e+02 
-3.81835e+01  3.38170e+00  3.47484e+02 -1.71156e+03  1.01097e+03 -3.26815e+02 
 1.79349e+01  6.73259e+01 -3.78444e+01 -1.21662e+03 -2.48951e+02  3.35817e+01 
 1.00951e+02  1.00992e+02  1.29444e+01  9.40674e+02  9.41765e+02  1.63703e+02 
 5.70861e+02  7.07829e+01 -4.33854e+01 -2.14548e+03  2.42693e+03 -9.92217e+02 
 1.57358e+01  8.25333e+01  1.09024e+02 -1.65223e+03  1.65103e+03 -1.56486e+02 
 1.26724e+02 -6.31304e-01  1.04476e+02 -8.44709e+02 -9.32897e+02  1.21011e+02 
 1.90802e+01 -3.13556e+01  8.20148e+01  2.18081e+02  1.25995e+03  2.82249e+01 
 2.18588e+02  9.31296e+01 -1.46151e+02  9.53929e+02  2.44538e+02  4.73171e+01 
-2.75543e+02  3.39423e+02  3.19454e+02 -6.07429e+02 -2.65973e+02 -3.46630e+01 
 2.12720e+02 -1.49502e+02  9.53075e+01 -1.97881e+02 -8.98648e+02  2.72033e+01 
-2.78068e+02  3.36828e+02  3.70483e+02  3.86442e+02  6.62848e+02  7.91654e+00 
 7.97398e+02 -5.73026e+02  5.75927e+02 -3.66979e+02  2.96338e+03 -1.68738e+01 
 8.76237e+02  4.70950e+02 -7.06397e+02 -2.90585e+03  6.36619e+02 -1.51151e+02 
-1.88026e+02  2.20781e+02  2.37007e+02 -1.29366e+03 -1.43777e+03  1.94201e+02 
-2.46151e+02  2.24944e+02  2.22490e+02  1.07701e+03  9.16364e+02  2.25234e+02 
 2.56884e+02  9.01947e+01 -1.61457e+02  9.33801e+02  6.73039e+02  1.20907e+02 
 4.53728e+02 -5.50183e+02  5.13162e+02 -1.59343e+03  2.34212e+03 -7.48160e+02 
-1.65918e+01  9.33289e+01  1.60682e+02 -2.58675e+03 -3.23717e+02 -2.21203e+01 
 1.47129e+01 -4.56780e+01 -5.74997e+01 -2.29246e+01 -2.86345e+01 -5.99217e+01 
 4.85577e+02  3.81803e+02 -3.59605e+02 -2.27526e+03  1.29644e+03 -5.35835e+02 
 2.63362e+02 -1.62162e+02  1.17342e+02 -7.05299e+02 -9.34807e+02  1.17362e+02 
 2.05380e+00  1.63577e+02  9.83865e+01  3.26569e+02  2.63468e+03  2.11084e+00 
 1.51605e+01  6.02088e+01  6.64050e+01 -1.15265e+03 -1.13854e+03  1.07120e+02 
-2.76528e+02  7.20694e+02 -9.81820e+01  1.60948e+03  3.81070e+02 -1.38501e+02 
 1.31503e+02 -3.32539e+02  5.63559e+02 -3.45096e+02  3.75973e+01  1.51224e+01 
-9.52267e+01  2.09476e+02  1.61140e+02 -1.32960e+03  2.64683e+03 -3.59379e+02 
 1.44136e+02  5.43945e+02 -3.27107e+02  1.52917e+01  3.66235e+02 -1.25467e+01 
 2.42249e+02 -3.06519e+02  3.68761e+02 -2.88894e+02 -8.87990e+02  3.13446e+01 
 8.15329e+01  9.93616e+01  1.09573e+02 -2.82334e+03 -6.03329e+02  1.39981e+02 
-2.74975e+02 -1.01005e+02  7.48578e+02 -3.46732e+02 -1.69167e+03 -1.25693e+02 
 2.63999e+02  3.43308e+02 -2.76688e+02  9.31584e+02  3.10043e+02  1.84058e+01 
-1.03758e+02  1.37806e+02  2.36096e+02 -2.56815e+03  1.33589e+03 -3.77193e+02 
 2.35768e+01  5.78711e+01  6.14010e+01  1.19074e+03  1.18936e+03  1.19208e+02 
 1.09843e+02  8.88560e+01  8.60383e+01  6.16742e+02  2.81149e+03  1.55190e+02 
 9.78033e+01  1.08770e+02  1.09987e+02 -1.66190e+03 -1.60083e+03  1.64757e+02 
 2.30186e+02  5.62751e+01 -6.35480e+01  1.09339e+03  1.02933e+03  1.65182e+02 
 1.18882e+02  1.09851e+02  1.11574e+02  1.57603e+03  1.62516e+03  2.02717e+02 
 1.06316e+02 -1.49269e+02  6.02119e+01 -6.30472e+01 -6.27880e+02 -5.30022e+01 
 5.23228e+01  4.79783e+02 -2.51156e+02 -5.82648e+00  9.84968e+02 -4.38202e+00 
 1.10653e+02  2.28932e+02  2.47719e+00 -1.82579e+03  1.85228e+03 -6.96001e+02 
 1.08236e+02  8.75641e+01 -1.36676e+02  1.14446e+03 -3.98752e+02 -6.44136e+01 
-4.01962e-01 -2.35597e+02  5.15767e+02 -1.03568e+03  1.01333e+01 -6.89094e+01 
 7.61109e+01 -4.43711e+00  3.28058e+02 -1.74223e+03  1.84560e+03 -6.99656e+02 
 2.24372e+02  3.19856e+02 -2.70267e+02  8.54649e+02  9.40856e+02  1.13736e+02 
 2.06749e+02 -4.29775e+01  7.89870e+01 -1.04336e+03 -1.13057e+03  1.67381e+02 
 1.65891e+02 -2.19904e+02  3.56890e+02 -9.74856e+02 -8.45155e+02  9.91774e+01 
 1.38013e+04 -3.11150e+03 -3.18036e+03 -4.57692e+03  5.72390e+03 -7.44777e+02 
-1.81447e+01 -5.68972e+01  1.04063e+02  1.04740e+02 -1.09249e+02 -3.59576e+01 
-2.07677e+01  1.06231e+02 -5.34629e+01  2.33783e+02 -8.08251e+01 -9.53366e+00 
 1.03811e+00  1.10064e+02 -2.42855e+01  1.14913e+03  2.13269e+02  5.39427e+01 
-5.35753e+02  6.83322e+02  6.02676e+02  1.27785e+03  4.35627e+02  3.22384e+02 
-1.04008e+02 -1.88087e+01  3.73259e+02 -1.58713e+03 -4.41851e+01 -8.17691e+00 
-5.31613e+02  5.98393e+02  6.68445e+02 -4.37708e+02 -1.14706e+03  2.93780e+02 
 2.99845e+02  6.36864e+02 -4.54105e+02 -1.33073e+03  4.72480e+02 -9.63409e+01 
 3.78732e+02 -2.56675e+02  1.35403e+02 -2.38978e+02 -1.21991e+03  2.18451e+01 
-5.97839e+01  3.48363e+02 -4.36821e+01  4.82160e+01  1.59536e+03 -1.95290e+00 
 3.97746e+02  1.19201e+02 -2.31983e+02  1.25934e+03  2.89188e+02  4.53183e+01 
 6.22720e+03 -1.58613e+03 -1.82280e+03 -1.37948e+04  5.94893e+02 -4.67276e+01 
-2.67784e+01  1.08363e+02 -2.05514e+01  2.11923e+02  8.17816e+01 -1.41762e+01 
 1.32499e+02  2.40311e+02 -9.30825e+01  8.08172e+02  1.52250e+03  1.70115e+02 
 6.02646e+03 -1.62462e+03 -1.84014e+03  5.66864e+01  9.66743e+03 -5.85068e+02 
 2.14022e+02 -3.90522e+02  6.75955e+02 -3.90989e+02  1.38739e+03  4.13666e+00 
 4.67546e+01 -6.07182e+01  1.23320e+02 -2.21713e+02 -1.15379e+03 -1.16318e+01 
-1.93313e+01 -2.62991e+01  1.04759e+02 -5.35123e+01 -1.53666e+02 -4.97516e+01 
-2.20031e+01  1.08402e+02 -1.94524e+01  4.36890e+02  9.83638e+01  5.48725e+01 
 6.56754e+01 -5.31548e+01  2.78306e+02 -1.54028e+03 -8.02976e+02  1.67353e+02 
-2.74269e+01 -1.03643e+01  9.00638e+01 -2.26211e+01 -3.66058e+02  6.87514e+01 
-1.98270e+02  2.63561e+02  4.58126e+02 -4.98497e+02 -2.61715e+03  2.91326e+02 
 7.60775e+01  4.84853e+02 -2.31881e+02 -1.18023e+03  1.07188e+03 -2.65988e+02 
 1.38318e+01  7.85156e+01 -4.05520e+01 -1.24011e+03 -2.34407e+02  3.82679e+01 
 3.79505e+02  1.16050e+02 -2.48160e+02  1.18410e+03  8.42805e+02  1.60314e+02 
-2.19087e+02  4.11337e+02  2.80582e+02  2.10901e+03  6.96096e+02  3.25085e+02 
 1.55398e+00  8.83657e+01 -2.54321e+01  4.52318e+02  1.78983e+02  6.76415e+01 
-3.55627e+00 -3.02775e+02  5.78536e+02 -1.19683e+03  1.07735e+03 -3.81273e+02 
 1.84068e+01 -4.72981e+01 -5.02403e+01 -2.05644e+01 -2.05685e+01 -6.97958e+01 
 1.50780e+01 -3.25535e+01  9.81692e+01  2.27223e+02  1.24395e+03  3.16640e+01 
 3.54806e+02 -2.18392e+02  1.61092e+02 -8.63196e+02 -1.21224e+03  1.69066e+02 
 2.02380e+01 -3.58960e+01  9.41980e+01 -1.95060e+02 -4.04132e+02  6.19432e+01 
 2.81432e+03 -1.64609e+03 -2.11227e+03 -7.37095e+03  5.75630e+03 -1.77695e+03 
 1.84594e+02  4.93001e+01  4.93622e+01  1.71191e+03  1.75839e+03  1.90237e+02 
 1.49355e+02  6.89074e+01  6.95001e+01 -1.79956e+03 -1.78479e+03  1.91740e+02 
-1.28200e+02  1.36607e+02  1.82068e+02 -1.65054e+03  1.69394e+03 -5.70367e+02 
-5.04597e+01  9.30169e+01  8.31484e+01 -1.95212e+02 -2.23447e+02 -8.73331e+01 
 1.97945e+01  6.29714e+01  6.50395e+01 -1.19980e+03 -1.19353e+03  1.27225e+02 
 6.17983e+00  9.75600e+01  1.17001e+02 -1.62205e+03  1.58580e+03 -1.95513e+02 
 2.15293e+03 -9.54884e+02  4.20846e+02 -2.46707e+02  5.66601e+03  3.43077e+02 
 1.70837e+01  6.68950e+01  7.60044e+01  1.23714e+03  1.23566e+03  1.55085e+02 
-6.19838e+01  8.61122e+01  1.07284e+02  2.26777e+02  2.28563e+02 -3.35187e+01 
 1.33021e+02  5.21975e+01 -8.36359e+01  7.17813e+02  1.86137e+02  5.25682e+01 
 2.72557e+03  9.68798e+02 -1.68557e+03 -4.35752e+03  1.71273e+03 -4.75866e+02 
 1.61089e+02 -8.29679e+01  4.33920e+01 -1.27843e+02 -5.72347e+02  4.25649e+01 
-3.16256e+01  7.82646e+01  8.32761e+01 -3.60504e+02 -4.34147e+02  7.65294e+01 
 2.96109e+02  7.25230e+01 -8.91025e+01  1.27423e+03  1.20573e+03  2.35016e+02 
 1.72304e+02  1.53823e+02  4.96515e+01  2.49325e+03  5.49184e+02  8.18895e+01 
-1.10311e+02  3.16329e+02  2.61869e+01 -1.02026e+03  1.72515e+03 -3.83764e+02 
-1.52345e+02 -2.62856e+00  3.75378e+02 -1.66197e+03  9.86022e+02 -3.47320e+02 
 2.24283e+02 -1.06257e+02  3.99042e+01 -4.61159e+02 -6.85051e+02  1.18128e+02 
 1.16557e+03 -1.17640e+03  9.42522e+02 -3.45133e+03  3.51478e+03 -1.42920e+03 
 2.41307e+02 -5.74286e+01  1.02056e+02 -1.23094e+03 -1.33831e+03  2.44059e+02 
 1.43550e+03  2.77513e+02 -3.82445e+02 -3.41759e+03  1.95416e+03 -1.33915e+03 
-2.89593e+01  7.61332e+01  7.31038e+01  5.12036e+02  4.19742e+02  1.02912e+02 
 1.75255e+02  2.05180e+01 -8.42110e+01  7.31902e+02  4.51224e+02  1.18873e+02 
 1.64600e+02  1.00788e+02  1.53495e+02 -5.81055e+02 -2.53286e+03  1.01942e+02 
 2.35766e+01  6.56063e+01 -4.63677e+01  1.21984e+03  2.07990e+02  3.30269e+01 
 1.08100e+01 -3.47978e+01  7.92888e+01 -2.30415e+02 -1.15740e+03  1.51537e+01 
-1.10917e+02  1.89189e+02  1.43895e+02  3.45354e+02  2.60876e+03 -9.27032e+00 
-1.20006e+02  1.13077e+02  1.99859e+02 -2.48532e+03 -3.12473e+02 -3.00969e+01 
 4.21329e+01  1.25492e+02  1.33627e+02  6.69338e+02  2.91449e+03  2.13219e+02 
 6.44234e+00  1.36495e+02  1.49557e+02 -2.85530e+03 -6.62835e+02  2.04541e+02 
 1.81136e+02  2.40264e+01  2.14063e+01 -7.27315e+02 -7.15518e+02  1.71282e+02 
 2.64204e+02  5.02916e+02 -3.40754e+02  1.15481e+03  3.49123e+02  1.74193e+01 
-9.37736e+01  5.55658e+02  5.76052e+02  1.47508e+03 -1.56352e+03 -7.24405e+02 
 2.64762e+02 -3.93824e+02  5.20705e+02 -3.61772e+02 -1.13330e+03  4.55588e+01 
 3.20772e+02  5.98689e+01  4.23828e+01 -2.02371e+03  2.22775e+03 -1.14824e+03 
 1.37353e+02  2.96621e+00  2.19173e+01  7.69095e+02  7.67708e+02  1.69393e+02 
 3.87561e+02 -1.86045e+02  2.45358e+01 -1.77907e+02 -8.92286e+02  3.29202e+01 
 9.57437e+01 -2.27155e+02  4.65231e+02 -1.06066e+03 -1.02009e+03  1.40345e+02 
 3.31226e+01  9.37658e+01  8.49778e+01  1.34687e+03 -9.18661e+02 -1.60167e+02 
 3.83360e+02 -3.76886e+00 -1.65909e+02  1.04202e+03  2.51007e+02  5.69125e+01 
 1.52956e+02  4.50451e+02 -3.05920e+02  1.02542e+03  1.03977e+03  1.66882e+02 
 6.54664e+02 -6.01830e+02  7.89483e+02 -2.74923e+02  3.11122e+03  1.88665e+01 
-1.38623e+02  6.48708e+01  3.46741e+02  3.44981e+02  4.20099e+02 -5.68041e+01 
 9.37399e+02  5.37845e+02 -8.31606e+02 -3.35800e+03  7.68917e+02 -2.01160e+02 
-1.37012e+02  3.17874e+02  7.41963e+01 -3.68370e+02 -3.83691e+02 -1.07921e+02 
-5.94472e+02  5.62719e+02  7.76093e+02 -1.49931e+01 -9.49855e+02  2.48014e+01 
 5.38688e+02 -3.88872e+02  2.23137e+02 -3.04121e+02 -1.65957e+03  2.82352e+01 
 1.42810e+02  8.00271e+01  8.01603e+01 -1.93071e+03 -1.92480e+03  2.71981e+02 
 1.53246e+02  8.17494e+01  7.09649e+01  2.63819e+03  5.56193e+02  1.10564e+02 
-1.86795e+02  1.83983e+02  1.71088e+02 -1.28073e+03  2.50446e+03 -3.95868e+02 
 1.93611e+02  5.56045e+01  5.14698e+01  1.86415e+03  1.90281e+03  2.44749e+02 
 1.04494e+02  6.47338e+02 -3.57949e+02 -2.65052e+01  4.12260e+02 -1.91052e+01 
 5.61033e+02  1.97003e+02 -3.30751e+02  1.67374e+03  3.26795e+02  5.67783e+01 
-1.24675e+02  9.00693e+01  2.08047e+02  6.51596e+02  5.26063e+02  1.14708e+02 
-5.92572e+02  7.72674e+02  5.93946e+02  1.08547e+03  5.44025e+01  4.06288e+01 
 1.29915e+02  8.03909e+01  9.81753e+01 -5.69554e+02 -2.73422e+03  1.13186e+02 
 4.19303e+02 -1.83756e+02  1.03118e+01 -6.64214e+02 -9.82568e+02  1.58026e+02 
 3.85463e+02 -4.10907e+01 -1.77904e+02  1.03848e+03  6.56740e+02  1.52990e+02 
 1.51824e+02 -5.32942e+02  6.30454e+02 -1.63564e+03  2.53526e+03 -1.03495e+03 
-1.93597e+02  1.17615e+02  2.17066e+02 -2.41254e+03  1.22172e+03 -3.39714e+02 
 8.58383e+01 -3.58544e+02  6.64883e+02 -4.08285e+02 -3.68259e+00  1.10639e+01 
-8.94921e+01  1.90875e+02  8.51033e+01 -6.60889e+02 -5.32042e+02  7.74590e+01 
 3.59796e+02  3.39610e+02 -2.61708e+02 -2.27741e+03  1.26726e+03 -6.47862e+02 
-1.27969e+02  1.19174e+02  5.32639e+02 -1.15202e+02 -2.51792e+03 -1.84023e+01 
-1.47127e+02  4.81107e+02  1.42702e+02  2.06213e+03 -1.51438e+02 -1.87918e+01 
-5.40420e+01  5.16039e+02 -2.15918e+02 -5.80113e+01  1.00700e+03  1.32571e+00 
 4.65189e+02  1.89612e+02 -3.44694e+02  1.50219e+03  1.00184e+03  2.39938e+02 
-9.63115e+01 -2.04879e+02  5.44216e+02 -1.01864e+03 -5.13679e+01 -1.15614e+02 
 1.29219e+01 -5.04948e+01 -5.43043e+01 -3.99986e+00 -1.34104e+00 -8.71015e+01 
 4.12864e+02 -2.69120e+02  2.46860e+02 -1.03532e+03 -1.55660e+03  2.58972e+02 
 5.93729e+00  3.32429e+02 -6.03888e+01  9.58629e+02  1.60636e+03  2.28598e+02 
-3.94131e+01 -2.73574e+01  3.50269e+02 -1.61348e+03 -8.98913e+02  2.47050e+02 
 1.94112e+01  1.01216e+02  1.12666e+02  1.48003e+03 -1.51372e+03 -1.09446e+02 
 7.95118e+00  8.54108e+01 -3.53336e+01 -1.21545e+03 -1.97120e+02  3.83015e+01 
 1.59137e+01  7.82099e+01  7.80966e+01 -1.23069e+03 -1.23282e+03  1.73281e+02 
 9.52027e+00 -3.74029e+01  9.63848e+01  2.45170e+02  1.17439e+03  3.21914e+01 
 3.13973e+02 -1.21419e+01 -1.29015e+01 -9.76337e+02 -9.76268e+02  2.36932e+02 
 1.92211e+01 -3.60047e+01  7.00395e+01 -2.49922e+02 -1.21471e+03  2.68955e+01 
 3.11931e+02 -6.78163e+01 -3.89782e+01  1.00959e+03  9.80535e+02  2.10598e+02 
 1.58386e+01  8.27210e+01  9.53623e+01  1.24217e+03  1.23675e+03  2.03395e+02 
 1.92511e+01  7.48522e+01 -3.39432e+01  1.25947e+03  2.20958e+02  3.50244e+01 
 1.25387e+02 -7.80670e+00  1.07936e+02  9.06843e+02  9.93464e+02  1.66471e+02 
-5.46295e+01 -6.63679e+01  2.62314e+02 -1.39052e+03  1.34076e+03 -4.90953e+02 
 1.17791e+02  1.03108e+02  4.86804e+00 -9.67748e+02 -8.44458e+02  1.49644e+02 
-2.20400e+01  9.58956e+01  6.59282e+01 -1.54228e+03  1.58042e+03 -6.73169e+02 
 1.19444e+02  8.24561e+01  1.21472e+02 -3.20196e+02 -2.31853e+03 -1.44039e+00 
 9.07219e+01  1.09457e+02  1.23896e+02  2.28848e+03  3.35846e+02  2.41998e+00 
-1.91848e+02 -1.18594e+01  3.61577e+02 -1.51932e+03 -7.83292e+01 -1.73263e+01 
 3.05701e+02  1.19922e+02 -9.03344e+01  1.48845e+03  1.37627e+03  3.48080e+02 
-1.69262e+02  3.37676e+02  6.31273e+00  3.44693e+00  1.53478e+03 -2.62533e+01 
 2.19880e+02 -5.31321e+01  1.59407e+02 -1.42974e+03 -1.57094e+03  3.69606e+02 
 6.93690e+02 -3.41026e+02  3.92705e+01 -2.38009e+02 -1.27693e+03  2.95023e+01 
 1.90175e+02 -3.47824e+02  6.27729e+02 -3.67167e+02  1.25206e+03 -5.98412e+00 
-2.12357e+02  8.22492e+01  5.33696e+02  5.18112e+02  2.93050e+02 -2.87693e+01 
 3.24964e+02  5.95919e+02 -4.54061e+02 -1.32927e+03  5.05184e+02 -1.01372e+02 
 6.96189e+02 -4.16417e+01 -2.79396e+02  1.46357e+03  3.23646e+02  6.43744e+01 
-2.18130e+02  5.14690e+02  9.96287e+01 -2.58768e+02 -5.64391e+02 -7.47322e+01 
 9.11834e+01  1.05013e+02  1.02147e+02 -6.14760e+02 -2.83693e+03  1.50901e+02 
 2.27665e+01  5.98320e+01  7.74242e+01  1.58830e+03 -1.54659e+03 -8.33240e+01 
 5.06168e+00  8.39869e+01  7.14912e+01 -1.53172e+03  1.43130e+03 -1.81731e+02 
 1.16996e+02  8.41455e+01  9.65564e+01  2.79334e+03  6.20284e+02  1.49572e+02 
-8.23659e+01  1.75800e+02  1.81603e+02  7.62660e+02  2.93197e+03  2.81443e+02 
 5.38558e+01  3.91253e+01 -3.66565e+01  6.29219e+01  3.03570e+00 -2.50490e+01 
 2.95138e+04 -7.01207e+03 -7.27232e+03 -1.28105e+04  1.58539e+04 -1.08105e+03 
-9.15233e+01  1.61065e+02  1.84908e+02 -2.77711e+03 -7.03231e+02  2.77624e+02 
-1.45250e+01 -4.55215e+01  9.07963e+01  6.26203e+01 -8.74746e+01 -1.77039e+01 
-2.02173e+02  1.11253e+02  2.56611e+02  8.99680e+02  2.53982e+02  8.03376e+01 
-9.75378e+01 -1.98907e+02  3.65049e+02 -1.09140e+03  9.27753e+02 -3.71687e+02 
 6.29809e+02 -2.67103e+02  1.41873e+01 -9.01837e+02 -1.36230e+03  2.38925e+02 
-1.01096e+01  3.32344e+02 -1.23927e+02 -9.94070e+02  9.51571e+02 -2.73856e+02 
 6.12981e+02 -8.17608e+01 -2.94271e+02  1.41999e+03  8.93809e+02  2.06883e+02 
-1.61841e+02  2.46806e+02  9.12292e+01 -2.65201e+02 -8.24407e+02  3.22933e+01 
 3.13402e+01  1.06324e+01  1.75479e-01  5.97796e+01  9.04720e+01 -4.83256e+01 
 2.22708e+01 -1.52243e+01  2.24260e+01 -5.31950e+00 -2.36813e+02  4.76497e+01 
 5.21313e+01  3.08735e+01 -1.31453e+01  2.32286e+02  1.07203e+02  2.53977e+01 
 1.20656e+04 -2.44554e+02 -7.33807e+03 -2.60356e+04  3.80669e+02 -9.03636e+02 
 2.24966e+02 -8.59080e+01  5.05700e+01  1.05417e+03  1.12562e+03  1.72227e+02 
 2.08206e+02  7.85865e+01 -4.15226e+01 -1.13949e+03 -1.04639e+03  1.78556e+02 
 8.46924e+03 -4.71352e+03  1.09032e+01  5.88567e+02  1.91014e+04 -7.78712e+02 
-1.61158e+02 -2.60499e-01  7.25334e+01 -1.35454e+03  1.43378e+03 -3.34101e+02 
 6.42889e+00  6.01094e+00  4.44989e+01 -5.63084e+01 -5.58850e+01 -3.96173e+01 
 1.31915e+02  4.48379e+01  8.38730e+01  2.43575e+03  3.16079e+02  1.54568e+01 
 6.39169e+01  9.51757e+00 -4.95637e+00  2.02863e+02  1.55939e+02  2.71211e+01 
 1.04220e+02  8.51916e+01  7.10751e+01 -3.04473e+02 -2.51639e+03 -2.58036e+00 
 1.43589e+02  8.48601e+01  9.46655e+01  2.00918e+03  2.05100e+03  3.55103e+02 
-1.88165e+02  1.59675e+02  1.41953e+02  3.07834e+02  2.41404e+03 -1.39697e+01 
 7.70082e+01  1.19449e+02  1.18266e+02 -2.03896e+03 -2.04216e+03  4.02413e+02 
-1.86555e+02  7.41968e+01  1.89027e+02 -2.26691e+03 -3.07867e+02 -3.66266e+01 
 5.31131e+03 -1.50403e+03 -1.62334e+02 -1.02338e+04  1.02217e+04 -4.29603e+03 
 5.77930e+01 -1.48779e+01 -1.73825e+01 -1.43209e+02 -1.71133e+02  4.01467e+01 
 4.24971e+02 -1.83407e+01 -1.78855e+01 -1.25517e+03 -1.25613e+03  3.41160e+02 
-1.23712e+02 -9.88898e+01  1.76372e+02 -1.38963e+03  7.18879e+02 -1.61003e+02 
 1.31100e+02 -2.19730e+01  1.27255e+02  1.20599e+03  5.14734e+02  8.23572e+01 
-1.70214e+02  1.21790e+02  3.60815e+01 -7.37462e+02  1.46433e+03 -3.45816e+02 
 1.14825e+02  1.53425e+02  3.96344e+00 -5.27747e+02 -1.17251e+03  7.28669e+01 
 4.57124e+02 -1.08562e+02 -6.93930e+01  1.29205e+03  1.25024e+03  2.89169e+02 
 2.40542e+02 -9.26397e+01 -5.58391e+01 -9.31614e+01 -5.09082e+02  3.94540e+01 
 6.91858e+02  3.28176e+02 -4.30148e+02  2.20455e+03  3.76467e+02  7.84824e+01 
-4.32731e+00 -2.52387e+01  1.19351e+02  4.34928e+01  2.05732e+02 -5.98535e+01 
 6.91930e+02 -5.42009e+02  3.47905e+02 -4.19525e+02 -2.23288e+03  4.84313e+01 
-1.02033e+01  1.01810e+02 -5.39659e+00 -1.34396e+02 -1.82283e+01 -8.36717e+01 
-6.03641e+02  8.49781e+02  4.52409e+02  1.38949e+03 -1.92040e+02 -1.96074e+02 
-6.09648e+02  4.35077e+02  8.76022e+02  1.50997e+02 -1.29887e+03 -1.91848e+02 
 2.23736e+02 -1.13007e+01 -8.26025e+01  4.60822e+02  2.10376e+02  4.38227e+01 
 2.64156e+03  1.59341e+03 -2.63943e+03 -4.47152e+03  2.06910e+03  3.40714e-01 
 2.13079e+02  6.44508e+02 -3.74472e+02  1.32329e+03  3.92337e+02  1.72066e+01 
 2.64935e+02 -4.53180e+02  6.30469e+02 -4.62331e+02 -1.34689e+03  6.29680e+01 
 1.48868e+03 -6.61140e+02  5.05336e+02 -6.16293e+02  4.30501e+03  8.38857e+02 
 4.23915e+02 -3.04867e+02  3.55948e+02 -1.19311e+03 -1.93301e+03  3.84634e+02 
 9.42992e+00 -4.91270e+01 -5.09297e+01  2.51319e+01  3.03975e+01 -9.47971e+01 
 2.48903e+02 -3.27821e+01 -6.51629e+01  4.05500e+02  4.42123e+02  9.56077e+01 
 2.48557e+01  9.02576e+01 -3.49925e+01 -3.21168e+02 -2.10425e+02  5.34189e+01 
 4.81454e+02  3.14406e+02 -4.27102e+02  1.85680e+03  1.18192e+03  3.62873e+02 
 3.04219e+01 -1.56366e+01  7.90018e+01  2.11976e+02  3.24642e+02  5.83532e+01 
 2.35942e+01 -1.99929e+02  4.94022e+02 -1.03628e+03 -1.13755e+03  1.75383e+02 
-5.90945e+01  4.72808e+02  1.75232e+02  2.16040e+03 -6.43650e+02 -2.18496e+02 
 1.49428e+01  8.90253e+01 -3.65316e+01  1.25048e+03  2.33785e+02  4.38033e+01 
 2.96869e+01  5.27818e+02 -2.84779e+02  1.00151e+03  1.08947e+03  2.29965e+02 
-4.71553e+01  1.48468e+02  5.09901e+02  8.22976e+02 -2.47902e+03 -2.58071e+02 
 1.36281e+01 -3.82806e+01  7.99114e+01 -2.37799e+02 -1.24777e+03  3.93399e+01 
 1.00312e+03  2.51566e+02  3.48450e+02 -2.77446e+03  1.61892e+03 -2.19877e+03 
 8.18078e+02 -9.61538e+02  1.63642e+02 -2.11564e+03 -1.40276e+03  2.07433e+02 
 2.83939e+02 -1.01471e+02 -1.03292e+02 -3.99647e+02 -4.05756e+02  8.64114e+01 
 9.09282e+00  9.06586e+01  8.80316e+01 -1.22797e+03 -1.23353e+03  2.21903e+02 
 7.41801e+00  9.16245e+01  1.07881e+02  1.23735e+03  1.21726e+03  2.34493e+02 
 2.20616e+01  7.59482e+01  6.89538e+01  1.65299e+03 -1.62549e+03 -1.03925e+02 
 2.20771e+02  2.19537e+02 -7.11269e+01  1.72782e+03  1.54333e+03  4.85096e+02 
 1.70397e+02 -4.71451e+01  2.55880e+01  4.13847e+02  7.01650e+02  1.27727e+02 
 2.29064e+02  4.19000e+01 -1.07227e+02 -6.79205e+02 -4.59529e+02  1.15362e+02 
-1.21984e+02 -2.20029e+01  3.43642e+02 -1.58270e+03 -9.08612e+02  3.16150e+02 
-1.40318e+02  3.83035e+02 -2.04001e+01  7.86156e+02  1.55952e+03  2.23304e+02 
 1.54031e+02  1.46739e+02 -5.40061e+01 -5.96792e+02 -1.32439e+03  8.57782e+01 
 2.43405e+02  1.01688e+02 -5.66102e+01 -1.34626e+03 -1.23852e+03  2.51350e+02 
 1.41053e+02  6.15644e+01  1.12366e+02  2.29786e+03 -1.08997e+03 -1.65395e+02 
 1.53815e+02 -4.63612e+01  2.29598e+02 -1.61646e+03 -1.78563e+03  5.28774e+02 
 4.02106e+02 -2.88243e+02 -4.37713e+01 -5.43281e+02  1.43588e+03 -3.10649e+02 
 1.07257e+03 -5.60675e+02  1.05669e+02 -3.40476e+02 -1.81954e+03  3.82807e+01 
 1.45093e+02  1.19448e+02  1.09677e+02  1.04240e+03 -2.28534e+03 -1.17551e+02 
 1.75241e+02 -9.97898e+01  1.35025e+02  1.30944e+03  5.75628e+02  8.75803e+01 
-2.36299e+02  5.73906e+02  4.22868e+01 -7.17563e+01 -4.85360e+02 -6.78050e+01 
-2.29413e+02  1.59717e+01  6.09242e+02  4.62238e+02  1.14004e+02 -3.45040e+01 
 1.09359e+02  5.36435e+02 -3.16495e+02 -7.01058e+01  4.07297e+02 -1.87950e+01 
 1.18392e+02 -3.02021e+02  5.25988e+02 -4.30271e+02 -9.74817e+01  1.06023e+01 
-1.85715e+02  1.14390e+01  2.31202e+01 -1.00347e+03  2.23559e+03 -2.31302e+02 
 1.06363e+03 -5.09873e+01 -4.22314e+02  2.07025e+03  4.08517e+02  8.86565e+01 
 2.93519e+02 -1.22649e+02  6.68433e+01  1.22972e+03  1.31888e+03  2.23385e+02 
-1.81044e+02 -4.69090e+01  1.93019e+01 -2.15843e+03  1.05443e+03 -3.83318e+01 
 7.13193e+01  1.13014e+02  6.88001e+01 -3.25825e+02 -2.60029e+03 -2.96355e+00 
-5.44176e+01 -8.69821e+01  3.16627e+02  5.08627e+01  2.76670e+02 -1.08575e+02 
 5.72950e+02 -2.17056e+02 -1.44495e+02 -1.33934e+02 -8.93711e+02  2.06912e+01 
 1.34346e+01  6.14072e+01 -1.25788e+01 -1.14432e+03 -1.67899e+02  1.76540e+01 
 5.71236e+02 -8.82843e+01 -1.81251e+02  7.51227e+02  2.89619e+02  6.28295e+01 
-4.72628e+01  2.88300e+02 -7.78328e+01 -2.03221e+02 -3.59280e+01 -1.41268e+02 
 8.90305e+01  4.83893e+01  1.21803e+02  2.56457e+03  3.24942e+02  8.56255e+00 
 4.57844e+01  1.16339e+02  1.39295e+02  2.89655e+03  6.68131e+02  2.11691e+02 
 5.19864e+02 -3.34271e+02  2.84304e+02 -6.08619e+01  1.74571e+03  1.23455e+02 
 1.22865e+01 -2.87391e+01  4.21189e+01  2.24039e+02  1.02901e+03  2.78269e+01 
 8.81182e+02  1.89724e+02 -7.43840e+02 -2.76147e+03  7.89725e+02  1.29268e+02 
-1.75209e+02  4.63364e+01  3.02136e+02  7.96357e+02 -9.10517e+01 -1.61752e+01 
 8.54089e+02 -3.56450e+02  5.54198e+01 -1.20553e+03 -1.86844e+03  3.90997e+02 
 8.44371e+02 -9.45717e+01 -4.40036e+02  1.93331e+03  1.18327e+03  3.16193e+02 
-1.18340e+02 -1.03978e+02  2.92114e+02 -8.37834e+02 -5.79967e+00 -1.64135e+02 
 1.20108e+01  1.47162e+02  1.34327e+02 -6.65051e+02 -2.87295e+03  2.21098e+02 
-1.30583e+02  3.03461e+02 -9.60370e+01  3.67023e+01  8.68257e+02  7.44382e+00 
-1.36474e+02  2.74953e+02  4.76203e+01 -2.28545e+01 -7.50613e+02 -2.46857e+01 
-2.57530e+01  1.87511e+02 -4.57834e+01 -3.96253e+02 -2.58204e+02  4.41826e+01 
-3.10226e+01 -3.99889e+01  1.98896e+02  2.41416e+02  3.43532e+02  3.93675e+01 
 5.34551e+02 -1.09525e+02 -1.60441e+02  6.43354e+02  6.70520e+02  1.33380e+02 
 3.26226e+02 -4.09143e+01 -1.40372e+01 -1.11676e+03  6.80600e+02 -3.61874e+02 
 3.89906e+02 -2.85356e+02  8.62212e+00 -4.36064e+02  2.52441e+02 -3.32982e+02 
 5.48662e+02 -2.00677e+02 -2.02382e+02 -6.62944e+02 -6.68036e+02  1.23995e+02 
 4.99715e+02  2.50226e+00  3.73848e+00 -1.58182e+03 -1.58536e+03  5.15589e+02 
 8.37403e+01 -2.50752e+01  1.90558e+02  1.23112e+03  8.81338e+01  5.97125e+01 
-1.31276e+02 -7.06676e+01  1.31699e+02 -1.29406e+03 -1.05819e+02 -3.73706e+01 
 5.58188e+02 -1.30773e+02 -6.71371e+01  1.63395e+03  1.56286e+03  4.33594e+02 
-2.21861e+02  1.10593e+02  2.85129e+01  1.48468e+02  1.27738e+03 -7.48416e+01 
 9.78185e+01  1.61950e+02  1.08034e+01 -6.82611e+01 -1.23732e+03  2.49960e+01 
 1.38226e+02  1.25508e+02 -9.40420e+01 -7.09004e+02 -5.37631e+02  1.00053e+02 
 1.86737e+01  1.55088e+02  1.49221e+02  2.15253e+03  2.18655e+03  4.91639e+02 
 1.08591e+02 -5.16947e+01  1.19533e+02  4.89060e+02  7.55691e+02  1.13171e+02 
 1.48528e+02  2.71750e+01  1.17420e+02  2.44116e+03 -1.17541e+03 -1.36041e+02 
 3.93676e+02 -1.12285e+02 -3.21172e+01  6.29821e+02  9.85629e+02  1.63692e+02 
-2.19011e+01  1.58695e+02  1.55747e+02 -2.08963e+03 -2.09891e+03  5.44063e+02 
 2.48974e+02 -4.10421e+02 -4.27846e+01 -6.17397e+02  6.74861e+02  9.43473e+01 
 4.22395e+02  1.09533e+01 -1.85562e+02 -9.81367e+02 -6.67206e+02  1.60598e+02 
 3.47095e+02 -3.01376e+02 -3.35229e+02 -4.69113e+02  4.28155e+02  4.07475e+02 
 1.41939e+02  8.93302e+01  6.42398e+01  1.18677e+03 -2.47950e+03 -1.43128e+02 
-1.93722e+02  2.00797e+02  1.76530e+02  6.08263e+02  2.71750e+03  2.88798e+02 
-1.70199e+02  1.19287e+02  1.71737e+02 -2.56889e+03 -6.79329e+02  3.03001e+02 
 1.39724e+02  1.97441e+02 -6.63473e+01 -7.00067e+02 -1.45087e+03  1.19055e+02 
-3.89344e+01  3.61766e+00 -8.59371e+01 -1.33503e+03  1.35073e+03 -3.67264e+01 
 1.83563e+02 -1.29558e+02  1.74469e+02  1.42551e+03  6.92741e+02  1.14102e+02 
 9.01468e+00  8.83307e+01 -3.95673e+01  1.19070e+03  2.57616e+02  5.00357e+01 
-1.13261e+02 -1.41545e+02  5.09659e+02  1.22182e+02  2.23478e+02 -9.46723e+01 
 1.07549e+03 -4.00350e+02 -2.70595e+02 -1.87529e+02 -1.50473e+03  1.07938e+00 
 7.93097e+00 -3.44973e+01  8.48088e+01 -2.03514e+02 -1.22652e+03  4.48970e+01 
 1.05691e+03 -1.88949e+02 -3.27330e+02  1.13230e+03  4.19983e+02  8.56474e+01 
 4.01660e+02  6.98298e+01 -2.50052e+02 -9.38334e+02  4.25573e+02 -9.83524e+00 
 2.82318e+02 -1.14946e+02 -2.66885e+01 -2.08003e+02  6.14650e+02  3.87469e+01 
 1.56238e+01  9.88549e+01  8.45165e+01  1.66863e+03 -1.67199e+03 -1.38786e+02 
-9.81030e+01  4.78957e+02 -1.36380e+02 -1.71377e+02 -1.04183e+02 -1.25599e+02 
-8.64176e+01 -6.21112e+01  2.88062e+02  3.18692e+02  1.57922e+02  3.50460e+01 
 7.45317e+02  5.33881e+02 -5.47890e+02  2.83312e+03  4.13279e+02  8.58751e+01 
-4.29882e+02  4.55892e+02  4.89712e+02  6.27083e+02 -5.90541e+02  3.32119e+00 
 1.94921e+02 -2.58531e+02  6.35269e+01 -5.71295e+02  4.74992e+02 -7.73047e+01 
 8.33425e+02 -6.97912e+02  4.72836e+02 -6.19881e+02 -2.86432e+03  8.52092e+01 
 8.98463e+02 -2.11120e+02 -2.84606e+02  9.09508e+02  9.87114e+02  1.89543e+02 
 1.52082e+02 -9.13502e+01  1.52778e+02  1.35701e+03  4.39374e+01  3.60199e+01 
-7.46268e+01  2.69051e+02 -5.71337e+01 -2.14705e+02 -3.27498e+02  2.76259e+01 
 2.22671e+02  1.59783e+02 -5.27878e+01 -1.57591e+03 -1.44219e+03  3.74164e+02 
 2.93184e+02 -1.38578e+02  1.23186e+02  1.42345e+03  1.54237e+03  3.29468e+02 
 4.35098e+02 -5.27335e+00 -4.26995e+02 -3.50520e+02 -2.98098e+02 -2.93337e+01 
 1.32407e+02  1.57813e+02 -5.25431e+01 -3.49802e+01 -1.37228e+03  1.23228e+01 
-1.83168e+02 -6.37236e+00 -5.32794e+00  3.74666e+02  2.10970e+03 -2.10370e+01 
-1.51880e+02 -1.06332e+02  8.19812e+01 -1.99362e+03 -2.93983e+02 -5.41259e+01 
 8.97793e+02 -3.26950e+02 -3.28995e+02 -1.04865e+03 -1.05570e+03  1.98637e+02 
 2.64217e+02  1.18280e+02 -1.61715e+02 -9.37117e+02 -7.08426e+02  1.23813e+02 
 4.01022e+02 -3.07066e+02  4.35753e+02 -1.22346e+03 -2.22335e+03  5.08888e+02 
 2.51341e+02 -1.05081e+02  7.92246e+01  6.73086e+02  9.44963e+02  1.19030e+02 
 4.95189e+02  4.36583e+02 -4.79948e+02  2.07363e+03  1.31838e+03  5.40408e+02 
 2.11969e+01 -2.60730e+01 -2.46724e+01  3.19409e+01  3.92783e+01 -6.36712e+01 
-7.94298e+01  2.63729e+02  2.82308e+02  1.16353e+03 -1.24209e+03 -2.72844e+02 
 9.37526e+00  8.27285e+01  1.64488e+02  2.63859e+03  3.34748e+02  2.86120e+00 
 3.24681e+02 -4.11948e+02 -3.13373e+02 -7.74980e+02  7.46790e+02  4.53781e+02 
-1.17392e+01  1.58543e+02  9.39915e+01 -3.24569e+02 -2.61648e+03 -4.83350e+00 
-2.11478e+02  5.10398e+02  1.96947e+01  1.45645e+02 -4.22657e+02  1.00976e+02 
 2.60444e+04  2.03438e+03  2.63227e+03 -3.34782e+04  4.32177e+04 -1.55204e+04 
-2.00922e+02 -1.62164e+01  5.38532e+02  4.44437e+02 -1.45169e+02  1.25285e+02 
-6.80470e+00 -1.28505e+01 -2.15704e+01 -9.93100e+01 -1.18995e+02 -6.10285e+01 
-2.81201e+00 -1.52906e+01 -1.35976e+01  6.32966e+01  1.10807e+01 -1.04117e+01 
 3.07715e+02 -4.27190e+02  5.48183e+02 -5.57706e+02 -1.38177e+03  7.25650e+01 
 1.49026e+03 -3.03182e+01 -5.88317e+02  2.96251e+03  5.17690e+02  1.40553e+02 
 1.53659e+02  6.05167e+02 -3.33484e+02  1.28852e+03  3.66119e+02  3.10403e+01 
 1.53885e+03 -8.73865e+02  2.53844e+02 -5.38607e+02 -2.59659e+03  7.34502e+01 
-8.82092e+01  1.85352e+02  1.55792e+02 -6.99732e+02 -2.79806e+03  2.99185e+02 
-1.21879e+02  2.22709e+02  6.21816e+01  4.21089e+02 -7.74879e+02 -1.84563e+01 
 1.07921e+03 -4.46941e+02  1.36929e+02 -1.56276e+03 -2.51233e+03  6.44809e+02 
 1.15191e+02  4.10375e+01  1.30302e+02  2.56379e+03 -1.25970e+03 -1.70659e+02 
 4.10447e+00  7.39478e+01  6.90843e+01 -1.18098e+03 -1.18846e+03  2.28544e+02 
-7.16059e+01  1.64961e+02  1.91270e+02  2.92897e+03  7.26540e+02  2.72557e+02 
 7.66657e+01 -5.29832e+01  1.75102e+02  6.03391e+02  4.52285e+02  6.91421e+01 
-1.51756e+02  4.14816e+01  2.56584e+02  7.27973e+02 -4.42070e+02  1.07887e+01 
 2.06971e+02 -4.39466e+02 -9.94613e+01 -4.12638e+02  8.59941e+02  8.00783e+01 
-1.01622e+01 -4.31750e+01  4.44440e+01 -9.42635e+01  1.82641e+01 -4.73875e+01 
 6.25476e+02 -2.05389e+02 -6.67621e+01  7.99364e+02  1.36385e+03  2.09625e+02 
-9.57688e+02 -1.66896e+03  4.30197e+03  1.93381e+03  2.36801e+04 -4.28142e+03 
-1.23138e+01 -1.15150e+02  2.82788e+02 -8.08529e+02 -9.12536e+02  1.25250e+02 
-1.83726e+01  4.88664e+01 -4.93872e+01  1.15982e+01  8.07940e+01 -1.73418e+01 
 1.15651e+02 -8.56592e+00 -1.75855e+01 -9.39111e+01 -1.15211e+02  1.29639e+01 
 6.34390e+02  1.41363e+01 -2.70023e+02 -1.36476e+03 -9.08669e+02  2.43658e+02 
-2.25016e+03  8.47004e+03 -4.17884e+03 -4.38058e+04 -4.01146e+03 -7.51205e+03 
 6.40967e+01 -3.69586e+01 -5.07802e+01 -2.85759e+01  1.48501e+01 -1.35750e+01 
 8.46240e+01  1.81627e+02 -8.72859e+01 -4.18172e+02 -6.08757e+02  4.43460e+01 
 1.07195e+02  1.22394e+02  6.69116e+01  1.27701e+03 -2.58428e+03 -1.99088e+02 
 3.55085e+02 -2.94475e+02 -4.71886e+02 -6.93736e+02  2.54298e+02  3.12506e+02 
 3.18585e+00  6.65964e+01  6.99405e+01  1.11684e+03  1.09883e+03  1.67133e+02 
 1.07283e+03 -6.22047e+01 -6.00609e+02  2.60735e+03  1.58109e+03  5.23646e+02 
-1.14794e+02  3.38293e+02 -1.67389e+02  1.01707e+03  1.00113e+03  2.51751e+02 
 8.21549e+01 -7.25769e+01  2.68885e+02 -1.70174e+03 -1.87022e+03  6.51833e+02 
 1.94251e+02  2.38700e+02 -4.56767e+01  1.67310e+03  1.56111e+03  5.59330e+02 
 7.20723e+01 -5.49933e+01  1.82825e+01  8.75980e+00  2.29875e+02  2.02417e+01 
 1.16258e+02  2.91115e+01  1.02757e+02  1.24291e+03 -1.22586e+03 -1.49362e+02 
 3.07178e+01  2.16929e+01 -1.86553e+01 -2.18674e+02 -2.78638e+01  5.35180e+01 
-5.10522e+03  5.05933e+02  2.27871e+03 -9.33215e+03  5.59639e+03 -5.98344e+02 
 1.22445e+02  1.26751e+02  4.03261e+01  5.51446e+02 -1.28928e+03 -9.08872e+01 
 5.27251e+02  4.45717e+01  4.54288e+01 -1.92821e+03 -1.93378e+03  7.68553e+02 
 1.55497e+03 -2.36716e+03 -1.61719e+03  4.04782e+03  6.33434e+02  2.85241e+03 
-4.20958e+01  1.55772e+02 -7.55827e+01 -8.69967e+01  9.59817e+01 -3.57391e+01 
 3.12333e+02 -1.16010e+02 -1.46351e+02  1.43138e+02  1.29660e+02  1.30005e-01 
 1.38335e+03  1.22058e+02 -1.82740e+03  5.47421e+02  3.76345e+03  7.51948e+02 
 2.66391e+02 -7.02941e+01 -7.52567e+01 -2.24146e+02 -2.26388e+02 -1.82837e-01 
-4.95751e+01 -7.82664e+01  1.75871e+02 -1.02983e+02  1.27779e+02 -6.72138e+01 
-2.51820e+02  1.57391e+02  1.55540e+01  7.27910e+02  1.34654e+03  7.22644e+01 
 1.01947e+02  1.53338e+01  1.24845e+02  1.25502e+03 -5.89101e+02 -5.79666e+01 
-7.51938e+01 -6.95499e+01  1.16119e+02 -1.35209e+03 -6.95657e+02  2.81230e+02 
 6.28317e+02 -1.10119e+02 -2.96104e+01  2.03885e+03  1.91701e+03  6.59558e+02 
 1.90792e+03 -5.56212e+02 -3.10352e+03 -3.35790e+03 -8.17790e+01  4.81848e+03 
 1.25203e+01 -7.20798e+01  1.09639e+02 -2.49851e+00  3.82425e+02  3.37321e+01 
 2.84664e+02 -1.27029e+02 -5.10657e+01  1.47315e+02  4.67151e+02  4.63873e+01 
-4.92338e+01 -2.36999e+03  6.97920e+01  2.07382e+03 -2.25504e+03  3.27772e+03 
 2.44409e+02 -5.29619e+01 -9.61659e+01 -4.95368e+02 -9.11835e+01  4.80784e+01 
 1.14346e+01  9.03206e+01 -2.87133e+01 -3.20229e+02 -5.05771e+01  6.98293e+01 
-3.55096e+01  1.43710e+01 -1.17454e+02  2.51923e+02  9.94096e+02  1.89337e+00 
 7.00379e+01  2.77678e+02 -5.35099e+01 -8.09695e+02 -1.56084e+03  1.79691e+02 
 1.41667e+02 -1.21520e+02  2.01612e+02  1.45775e+03  4.24081e+01  2.61975e+01 
-3.20416e+00 -3.47812e+01  7.49949e+01 -1.00295e+03 -1.62329e+02 -3.61966e+01 
 1.27924e+02 -1.26622e+02  2.50125e+02  1.53986e+03  8.03744e+02  1.68218e+02 
 1.08893e+02  2.09344e+02 -6.10469e+01 -3.30169e+01 -1.48554e+03  1.28394e+01 
 1.66726e+02  1.85379e+02 -1.49142e+02 -5.39219e+02 -7.60588e+02  5.59448e+01 
 1.61822e+02 -1.05491e+02  1.63027e+02  7.44743e+02  5.47767e+02  4.57795e+01 
-1.20733e+02 -2.07542e+02  5.93295e+02  1.29818e+02  8.61132e+01 -3.85188e+01 
 2.88716e+02 -4.17264e+02 -3.38657e+02 -7.87832e+02  1.61158e+03  2.77246e+02 
-1.15018e+02  5.57159e+02 -1.91542e+02 -4.67617e+01 -1.21492e+02 -7.15663e+01 
 3.77773e+02 -1.80136e+02  1.04012e+02  7.84919e+02  1.22640e+03  1.37720e+02 
 1.81966e+03 -6.74557e+02 -4.54219e+02 -2.82886e+02 -2.57026e+03 -2.75938e+01 
 2.50753e+02 -8.40307e+01 -1.02877e+02 -1.43628e+02  2.65545e+02 -2.03195e+01 
 1.72731e+03 -3.05068e+02 -5.33722e+02  1.71394e+03  6.07450e+02  1.36733e+02 
 3.58691e+02  1.62308e+02 -2.20593e+02 -1.21989e+03 -8.71490e+02  1.75909e+02 
 3.36668e+02 -5.57053e+02 -5.15643e+02 -1.79664e+03  7.60510e+02  6.94031e+02 
 2.54455e+02 -6.20357e+01 -1.59082e+02 -3.37170e+02 -9.77605e+01  4.48580e+01 
 1.84806e+02  1.21599e+01  5.07872e+01  1.35278e+03 -1.35009e+03 -1.83038e+02 
-7.80751e+01  1.68186e+02  1.51921e+02  1.99740e+03  2.07074e+03  5.54276e+02 
-1.08801e+02 -7.35236e+01  3.28110e+02  2.81482e+02 -1.10157e+02  4.55507e+00 
-9.29842e+01  2.92948e+02 -5.73564e+01  3.04375e+01 -2.90760e+02  3.59363e+00 
 1.78040e+02 -3.70923e+02  9.80923e+01 -2.25335e+02  3.96635e+02  2.02162e+01 
 1.34573e+03 -3.36034e+02 -4.42643e+02  1.27073e+03  1.44479e+03  2.99043e+02 
-1.15928e+02  1.56587e+02  1.50469e+02 -2.01684e+03 -2.03098e+03  5.97640e+02 
 3.67576e+02  9.23188e+01 -4.73639e+02 -2.59091e+02 -4.47756e+02 -1.57613e+02 
 1.34988e+03 -4.90591e+02 -4.94411e+02 -1.66720e+03 -1.67748e+03  3.53488e+02 
 8.89854e+02 -1.23678e+03 -9.91402e+02  6.01467e+01 -1.99662e+02  3.34048e+03 
 6.91824e+00  1.09090e+02  9.67648e+01  1.61178e+03 -1.64349e+03 -1.69538e+02 
 1.85099e+02 -1.27214e+02  3.93995e+01  1.25771e+02  6.67221e+02  6.32507e+01 
 1.67885e+02  4.65110e+01 -8.87216e+01 -5.77388e+02 -1.13993e+02  4.85356e+01 
 1.56825e+02  2.32091e+02 -4.71596e+01 -1.78913e+03 -1.63384e+03  5.33873e+02 
 1.73788e+02 -6.77438e+01  1.40048e+02  1.40143e+03 -6.86897e+02 -7.78558e+01 
 9.98267e+02 -1.86192e+03 -7.84982e+01 -1.00454e+03 -6.62397e+01  1.14888e+03 
-1.11703e+02 -1.20329e+02  3.60114e+02 -1.20664e+02  2.31032e+02 -1.09688e+02 
 8.80290e+02  2.21304e+02 -1.93260e+03  3.69832e+02  1.16888e+03  6.24771e+02 
-1.03993e+02  3.27219e+02 -1.11584e+02 -1.95390e+02  1.39944e+02 -6.57649e+01 
 7.08109e+02 -1.90890e+02 -1.94315e+02 -3.42554e+02 -3.48198e+02 -1.04922e+01 
 7.54990e+02 -2.36576e+02 -2.99211e+02  4.08048e+02  3.30242e+02  2.96499e+01 
-1.25624e+02 -9.30665e+01  1.80591e+01 -2.25791e+03 -5.05801e+02  1.50373e+02 
 1.68647e+02  1.15360e+02 -2.76786e+01  6.81782e+02 -1.42507e+03 -1.07553e+02 
-2.18443e+02  3.88494e+01 -5.42140e+00  5.23460e+02  2.36394e+03  7.72545e+01 
 2.34721e+02 -1.27587e+02  2.01528e+02  1.62374e+03  1.77807e+03  4.66254e+02 
-1.16912e+02  2.00011e+02  1.11471e+02 -3.11372e+02 -2.51850e+03 -5.26100e+00 
-1.02421e+02  1.25472e+02  1.93162e+02  2.62700e+03  3.46609e+02 -8.43937e+00 
 2.00512e+01  1.78956e+02  1.01242e+02  1.34602e+03 -2.64331e+03 -2.79408e+02 
 5.58134e+01 -5.16706e+01  2.04703e+02  6.38472e+02  4.92424e+01  1.65993e+01 
 6.65613e+02 -9.39528e+01 -2.17462e+03 -9.87884e+02  6.23800e+02  2.31143e+03 
-4.56337e+01 -9.27527e+01  2.02882e+02  6.64515e+00  4.30899e+02  3.04782e+01 
-4.97798e+01  1.80018e+02 -4.23068e+01 -3.84429e+02 -5.97854e+01  8.58191e+01 
 8.60824e+02  5.56448e+01 -3.61456e+02 -1.87617e+03 -1.21613e+03  3.99236e+02 
 1.34762e+01 -1.44655e+01  5.94618e+01 -1.75004e+02 -1.15620e+03  2.97384e+01 
 1.08798e+01  4.19636e+01 -2.77951e+01  1.04436e+03  2.35617e+02  4.52500e+01 
 3.47001e+02 -1.64929e+02 -5.18113e+02 -6.48819e+02 -1.30366e+02 -7.25962e+01 
 6.24639e+02 -2.31772e+02 -1.42463e+02  3.38635e+02  7.92977e+02  8.26780e+01 
 2.02995e+02 -4.72449e+02 -6.70035e+01 -1.12761e+02  7.49105e+02 -1.06003e+02 
 6.36619e+01  1.93697e+02 -8.85793e+01 -1.08382e+01 -5.86696e+02  4.83329e+00 
 3.20029e+01  8.87570e+01  1.74605e+02  2.65851e+03 -1.33081e+03 -2.46786e+02 
 5.29720e+02 -2.07887e+03 -5.74079e+01  8.15356e+02 -7.64198e+02  1.93230e+03 
 8.54956e+02 -3.15293e+02 -6.68392e+01  9.85155e+02  1.85777e+03  3.02418e+02 
 5.79509e+02 -1.43013e+02 -2.20558e+02 -8.87546e+02 -1.34085e+02  2.47036e+01 
 1.92793e+02  2.52751e+02 -1.92768e+02 -6.84876e+02 -8.78118e+02  7.41785e+01 
-1.45547e+02  3.08434e+02  5.12276e+01  2.79812e+02 -1.84974e+02  1.48902e+02 
 1.99408e+01 -1.41302e+02 -4.85059e+02 -1.28762e+03  1.41222e+03  2.83965e+02 
 7.68746e+01 -1.20845e+02  1.19927e+02  1.24056e+02  6.64028e+02  5.60578e+01 
 2.00856e+03 -1.27313e+03  5.47041e+02 -8.33820e+02 -3.58695e+03  1.54696e+02 
 2.19212e+02 -1.63870e+02  2.12715e+02  8.27674e+02  7.00705e+02  4.62220e+01 
 7.19111e+01  1.14787e+02 -8.16984e+01 -6.29544e+02 -1.18021e+02  5.27754e+01 
 5.41127e+02  7.62315e+02 -5.72463e+02  3.15932e+03  3.56504e+02  8.62331e+01 
 7.93627e+02 -1.50301e+03 -5.29964e+02 -4.94493e+00 -3.90897e+02  2.05863e+03 
 4.20531e+02 -2.06499e+02 -1.70784e+01  2.64721e+02  1.02192e+03  8.91001e+01 
-1.34288e+02  8.12442e+00  3.41555e+02  2.36038e+02 -2.82639e+02  1.59652e+02 
 8.58789e+02 -6.17309e+02 -1.51341e+03 -2.02635e+02 -1.50914e+02  2.34906e+03 
 8.90739e+02 -7.75797e+02  5.09974e+02 -9.25766e+02 -3.30424e+03  1.14216e+02 
 3.95238e+02  2.62060e+01 -1.89943e+02 -8.88116e+02 -1.78784e+02  3.63613e+01 
 1.95563e+03  4.81570e+01 -8.46122e+02  4.29920e+03  5.81134e+02  2.07797e+02 
-1.69027e+02  1.76924e+02  1.11649e+02 -6.70878e+02 -2.59237e+03  3.27220e+02 
 1.85489e+02  2.56054e+01  5.75943e+01  1.47536e+03 -1.47360e+03 -2.45826e+02 
-7.30306e+01  1.77679e+02  6.76856e+01  6.00143e+02 -5.28348e+02 -9.30191e+01 
-1.69639e+02  1.64882e+02  2.00268e+02  2.71960e+03  5.78413e+02  2.78945e+02 
 2.99214e+02 -2.43733e+02  3.58204e+02 -9.64841e+02 -2.03718e+03  4.89705e+02 
-8.49327e+01  3.38761e+01  2.09995e+02  4.68867e+02 -6.21417e+02 -7.71182e+01 
 6.79396e+01 -1.09512e+02  2.77327e+02  1.55045e+03  4.04417e+01  2.15120e+01 
 2.37511e+02  4.63153e+02 -4.90201e+02  2.81480e+03  1.23414e+03  8.10815e+02 
-1.31138e+01  6.21839e+01  6.58482e+01  3.76600e+01  4.27559e+01  4.04888e+01 
 1.34874e+03 -2.78242e+01 -8.50319e+02  3.44393e+03  2.04987e+03  8.83962e+02 
 1.19351e+03 -4.92079e+02  2.64793e+02 -1.77721e+03 -3.16962e+03  1.00559e+03 
 2.36632e+01  2.94644e+02 -4.59249e+01 -3.28311e+01 -1.56933e+03  1.20549e+01 
 4.19130e+02  2.49618e+02 -2.74046e+02 -1.57164e+03 -1.04707e+03  2.67657e+02 
 1.36089e+02  1.98999e+02 -1.49043e+02  5.70559e+00 -7.40298e+02 -3.63690e+00 
 4.52656e+02 -2.54171e+02  1.75758e+02  8.81849e+02  1.56210e+03  1.80166e+02 
 1.29373e+02 -1.08166e+02  1.87029e+02  7.49059e+02  1.22393e+01 -7.42585e+00 
 2.68447e+02 -6.83640e+02 -2.60729e+02 -1.70927e+03 -3.35892e+02 -4.34752e+01 
 2.94129e+02 -3.98381e+02 -3.24741e+02  1.42325e+02  1.41030e+03  3.82323e+01 
 5.95300e+02 -1.71332e+03  1.60582e+02  7.14586e+02 -2.62462e+02  5.47884e+02 
 1.61452e+02  1.63082e+02 -3.54117e+01  7.96749e+02 -1.55478e+03 -1.56724e+02 
-3.56164e+01  3.53183e+02 -3.06116e+01 -9.04995e+02 -1.63538e+03  2.63857e+02 
 1.44325e+03 -3.89749e+02 -3.93290e+02 -5.29829e+02 -5.29349e+02  5.20502e-01 
 6.91083e+02  2.27670e+02 -1.80462e+03  2.30108e+02  5.99530e+02  9.88838e+01 
-1.68465e+02  4.64104e+02 -1.27538e+02 -1.47171e+02  1.70167e+02 -7.85319e+01 
-1.66519e+02 -1.47008e+02  4.89621e+02 -1.37206e+02  1.69563e+02 -1.04099e+02 
 1.49555e+01 -2.69064e+01 -3.31212e+01 -1.07868e+03 -1.08575e+03  1.07062e+02 
 1.46779e+03 -4.05665e+02 -5.22531e+02  8.45114e+02  6.57882e+02  7.85912e+01 
 1.80935e+02 -9.99048e+01  1.72436e+02  1.52895e+03 -7.89171e+02 -1.14738e+02 
 1.94034e+01 -9.72930e+01  3.39560e+02  1.64324e+03  9.06197e+02  2.34548e+02 
-4.16894e+01 -6.85344e+01 -7.44333e+01  1.10643e+03  1.08096e+03 -1.03187e+02 
 2.66691e+03 -4.36887e+02 -8.27334e+02  2.67103e+03  8.98791e+02  2.48504e+02 
-1.03695e+02 -2.15483e+02  5.38309e+02  1.75879e+02 -6.11460e+01  7.94094e+01 
-1.16937e+02  5.05477e+02 -1.77276e+02  5.99051e+01 -1.67556e+02  5.39853e+01 
 1.11909e+03 -3.79627e+02 -2.49601e+02  6.11145e+02  1.23846e+03  1.30854e+02 
 6.55142e+02  1.53485e+02 -2.06194e+03 -3.80674e+02  5.90777e+02  9.21325e+02 
 3.71148e+02 -1.70422e+02 -3.89174e+01 -5.63864e+02 -8.97635e+02  9.90503e+01 
 6.73673e+01 -1.78065e+02  1.75877e+02 -1.52716e+03 -1.55126e+03  5.65886e+02 
-8.85209e+01 -1.09081e+02  2.75869e+02  3.22766e+01  2.64305e+02  2.74433e+01 
 1.38321e+02  7.43017e+01  3.22426e+01  8.70045e+02 -1.03614e+03 -1.67290e+02 
-9.44800e+01  2.59305e+02 -6.30751e+01 -2.69131e+02 -9.25117e+01  7.15255e+01 
 2.68472e+02  3.61948e+01 -1.19873e+02  5.36483e+02  1.53650e+02  5.64972e+00 
 5.25791e+02 -1.91148e+03  1.54334e+02  7.13013e+02 -2.66206e+02  8.58664e+02 
-1.14301e+02  1.93175e+02  5.37688e+01  2.29286e+03  1.56958e+03  5.79916e+02 
 1.08558e+03 -2.69194e+02 -4.04733e+02 -1.50528e+03 -1.87588e+02  1.25974e+00 
 5.03744e+02  8.71600e+01  8.54253e+01 -2.15796e+03 -2.16403e+03  1.05203e+03 
 6.99001e+02 -1.78115e+02  5.93494e+01  2.41021e+03  2.17842e+03  9.80739e+02 
 1.06202e+02 -1.34863e+00  1.24567e+02  1.01087e+03 -8.73332e+02 -1.77673e+02 
 2.95839e+03 -1.08908e+03 -7.48904e+02 -4.68592e+02 -4.52000e+03 -7.21348e+01 
 1.92516e+03 -7.01074e+02 -7.09859e+02 -2.66908e+03 -2.68376e+03  6.62356e+02 
-8.34627e+01  2.55397e+02 -4.50410e+01  2.81593e+02 -2.41759e+02 -2.21751e+01 
 1.90650e+03 -4.84756e+02 -6.45499e+02  1.80571e+03  2.15174e+03  5.14002e+02 
 2.15809e+02  1.00134e+02 -1.52185e+02 -8.85680e+02 -1.95405e+02  3.24884e+01 
 2.34375e+02 -1.78499e+02  9.56218e+01  2.27537e+02  9.51250e+02  6.89691e+01 
-9.41212e+01 -7.12458e+01  2.91532e+02  2.36731e+02 -3.32731e+02 -6.72403e-01 
 8.58752e+02 -1.02846e+03 -9.40520e+02 -2.34738e+02  2.12927e+02  1.60431e+03 
 3.81801e+02  8.09503e+01 -4.24375e+02 -2.51958e+02 -6.77015e+02 -1.64893e+02 
 2.19089e+02 -3.37817e+02  6.37480e+01 -8.63898e+01  3.91847e+02  1.36607e+02 
-1.46033e-01 -1.16953e+02  1.81510e+02  1.26300e+02  4.03609e+02  2.35659e+01 
 7.16044e+02 -3.14034e+02 -4.61366e+01  4.20662e+02  1.45975e+03  1.14424e+02 
 6.98145e+02 -1.55891e+03 -4.00398e+02  2.01758e+02  2.72250e+02  9.68382e+02 
 1.50200e+01  1.72208e+02 -8.55605e+01 -4.08622e+02 -1.37140e+02  3.73853e+01 
 7.23792e+02 -3.64050e+02 -1.60646e+03 -3.61840e+02  2.35939e+02  1.08145e+03 
 7.03702e+02  4.10017e+01 -3.45720e+02 -1.28777e+03 -2.41264e+02  3.13974e+01 
 7.60298e+01 -4.81388e+01  1.75300e+02  6.18494e+02 -4.15904e+02 -3.32162e+01 
-8.51105e+01  1.43365e+02  2.10774e+02  2.67379e+03 -1.34786e+03 -3.34950e+02 
 8.71980e+01  1.60028e+02 -8.52549e+01  4.31254e+02 -5.32063e+02 -6.84645e+01 
 5.62406e+00  7.19446e+01  8.18707e+01  1.45999e+03 -1.55472e+03 -1.55830e+02 
 1.08636e+03 -4.48740e+02 -2.05583e+01  1.19991e+03  2.49716e+03  4.59516e+02 
 1.08829e+03  1.39697e+02 -4.55509e+02 -2.52784e+03 -1.57709e+03  6.59021e+02 
 3.58552e+02 -1.61916e+02 -5.00495e+02 -7.07438e+02 -3.63667e+02 -3.28266e+01 
-1.00387e+02  2.30745e+02  1.35025e+02  1.36192e+03 -2.60373e+03 -3.42597e+02 
 2.44447e+02 -4.47720e+02 -8.83379e+01 -9.79754e+01  6.98793e+02 -3.10701e+02 
 1.68637e+02  3.61596e+02 -2.23451e+02 -8.61353e+02 -9.88050e+02  1.08057e+02 
 2.35757e+02 -7.84187e+01  7.56887e+01  1.18627e+03 -1.05832e+03 -1.76448e+02 
 1.63239e+02 -1.56502e+02  2.45589e+02  8.31280e+02  1.46655e+01 -2.53058e+01 
 2.35054e+02  4.23565e+01 -2.27278e+01  1.06503e+03 -1.20434e+03 -1.98087e+02 
-4.95067e+01 -1.13100e+02  1.66295e+02 -9.12983e+02 -2.41822e+02 -1.71993e+02 
 1.44782e+02  2.73597e+02 -1.93603e+02  1.12273e+01 -8.52926e+02 -1.38354e+01 
-2.82773e+02  4.24768e+01  4.76309e+01  1.90207e+03  1.85862e+03  3.96152e+02 
 8.73758e+01  4.68616e+01 -4.84717e+02  8.53237e+01  9.99756e+02 -7.35222e+01 
 8.40980e+01  2.76528e+02 -7.58867e+01 -1.87284e+03 -1.72368e+03  6.60497e+02 
 2.12822e+02 -2.12394e+02  3.12930e+02  8.84934e+02  8.65318e+02  5.38611e+01 
 1.60513e+02 -1.79017e+02  2.47097e+02  1.70092e+03  1.82887e+03  6.22068e+02 
-1.03963e+02  2.10138e+01  9.22806e+00 -1.71865e+03 -1.73494e+03  3.38735e+02 
-1.86324e+02  1.93044e+02  7.12812e+01 -3.00776e+02 -2.30124e+03 -8.74342e+00 
-1.81546e+02  1.27796e+02  1.68619e+02  2.44280e+03  3.02851e+02 -2.66686e-01 
 1.17381e+02  7.39254e+01  9.33470e+01  1.61740e+03 -1.60065e+03 -3.56624e+02 
 2.59949e+03 -6.39314e+02 -8.48674e+02  1.63031e+03  1.28288e+03  1.80557e+02 
 1.00567e+03 -1.17471e+03 -1.27272e+03 -1.13835e+03  4.42460e+02  1.15658e+03 
-1.02482e+02  3.75473e+02 -2.02267e+01 -4.68538e+01 -1.60856e+03  1.30022e+01 
 6.34158e+02  2.14421e+02 -1.80743e+03  9.12384e+01  4.77030e+02 -2.17981e+02 
-1.88249e+02  5.10485e+02 -1.24845e+02 -9.08075e+01  1.87967e+02 -4.78908e+01 
 1.11825e+02 -1.58630e+02  1.68431e+02  2.23035e+02  5.68498e+02  3.12830e+01 
 5.71521e+02 -1.73428e+03  2.60552e+02  5.19040e+02 -2.34342e+02  1.23600e+02 
-1.90949e+02 -1.58126e+02  5.41541e+02 -1.80175e+02  1.18891e+02 -5.59100e+01 
 6.41849e+02 -1.34769e+03 -1.14976e+03 -6.72961e+02  1.98586e+03  1.52953e+03 
 1.03385e+02  1.74951e+02 -1.38432e+02 -5.27407e+02 -2.23793e+02  2.74125e+01 
 2.63956e+03 -7.03062e+02 -7.08118e+02 -8.63783e+02 -8.59209e+02  2.86630e+01 
 3.83532e+02  1.40840e+02 -2.60636e+02 -1.23060e+03 -2.42208e+02  2.59034e+01 
 1.19889e+02 -8.62914e+01  2.43281e+02  1.65501e+03 -8.99646e+02 -1.81917e+02 
 3.89913e+02 -2.54856e+02  1.23679e+02  3.15924e+02  1.27062e+03  7.71675e+01 
-2.88906e+00  7.00812e+01 -3.68790e+01 -1.67643e+02 -1.01462e+03 -2.08455e+01 
-3.67612e+01 -1.09852e+02  1.65296e+01  1.01183e+03  2.54372e+02  9.36929e+00 
-5.10722e+01 -7.04034e+01  3.45727e+02  1.62110e+03  3.77845e+01  1.68369e+01 
 8.81717e+01  2.51458e+02 -2.03274e+01  9.21305e+02 -1.66315e+03 -2.28042e+02 
 1.77193e+02  1.55404e+02 -1.53346e+02  5.73092e+02 -6.97905e+02 -9.16764e+01 
 4.81998e+02 -3.28386e+02  2.86149e+02  9.71035e+02  1.94437e+03  2.41422e+02 
 1.62911e+02 -1.05785e+02  1.65855e+02  7.13862e+02 -5.51311e+02 -6.47526e+01 
-1.12873e+02 -1.09390e+02  3.02633e+02  2.11246e+01  3.21900e+01  2.26717e+01 
 1.79787e+03 -5.89634e+02 -3.65252e+02  1.02162e+03  1.95486e+03  2.18697e+02 
 4.31821e+02  3.62808e+02 -3.13364e+02 -1.95638e+03 -1.20821e+03  3.98284e+02 
 5.43505e+02 -1.89372e+03  2.57064e+02  6.10078e+02 -9.17681e+01  8.74316e+01 
 5.80626e+02  2.95833e+02 -1.98949e+03 -2.09303e+01  5.97962e+02 -3.65762e+01 
 1.83707e+03 -4.51088e+02 -6.81996e+02 -2.58116e+03 -2.83097e+02 -3.19237e+01 
-1.35376e+02  2.89198e+02 -6.04736e+01  6.94783e+00 -1.20270e+02  4.73010e+01 
 2.52747e+02 -7.81702e+02 -2.54355e+02 -1.95225e+03 -2.36569e+02 -3.57743e+02 
 3.17392e+02 -3.19719e+02 -4.39186e+02 -2.38349e+01  1.62855e+03 -3.28753e+02 
 1.81694e+03  4.24459e+02 -7.17570e+02  5.74967e+03  5.52168e+02  1.28507e+02 
 2.69080e+03 -1.88020e+03  1.02455e+03 -1.62333e+03 -4.70477e+03  3.31555e+02 
-6.55738e+01  5.81945e+01  1.08455e+02  1.94905e+02 -1.42560e+02  4.00001e+01 
 2.87034e+02  5.92897e+01 -3.47914e+01  1.27682e+03 -1.38959e+03 -2.70993e+02 
-1.20867e+02  3.53475e+02 -2.82279e+01 -9.11588e+02 -1.60605e+03  3.40035e+02 
-5.68942e+00  1.89274e+02 -8.69506e+01  7.92899e+00 -1.61226e+02  1.90431e+01 
-3.33821e+01 -1.14681e+02  1.94747e+02  1.10699e+02  2.38120e+01  6.46930e+00 
-2.18165e+02 -6.59832e+00  3.50913e+01  2.43447e+03  4.97661e+02  9.70958e+01 
 1.06089e+03 -4.48564e+02 -4.02711e+01  6.13272e+02  2.09394e+03  1.54548e+02 
 6.57156e+02 -1.82081e+02 -1.67937e+03 -3.43052e+02  4.79750e+02  9.33369e+01 
 6.52833e+02 -1.56693e+03 -1.83245e+02  4.40001e+02  2.52593e+02 -1.87061e+02 
-1.27834e+02  3.07259e+01 -1.02865e+02 -4.94247e+02 -2.28049e+03  1.73808e+02 
 1.08771e+03  1.08564e+02 -5.67975e+02 -1.84792e+03 -3.48776e+02  3.95960e+01 
-2.52428e+01  4.85431e+01  8.65091e+01  3.82283e+02 -3.89779e+02 -1.19260e+02 
 7.02794e+02  8.50827e+02 -1.39196e+03  4.29124e+03  2.37737e+03  1.08124e+03 
 2.92547e+02 -1.12747e+02  9.26747e+01  1.37920e+03 -1.27060e+03 -2.35457e+02 
 1.24280e+03 -4.34970e+02  3.09347e+02 -1.41456e+03 -3.47325e+03  1.28224e+03 
-9.94173e+01 -7.92642e+01  3.70448e+02  1.60899e+03  8.60987e+02  3.11282e+02 
-9.29076e+01  3.25669e+02 -8.52222e+01  1.45239e+02 -1.38527e+02  1.19904e+02 
-4.95635e+01 -1.51022e+02  3.55539e+02  1.36185e+02 -1.55500e+02  1.36435e+02 
 3.94417e+03 -5.77990e+02 -1.31480e+03  4.26632e+03  1.25889e+03  4.63892e+02 
 4.76806e+02  4.64344e+02 -3.58712e+02  1.53074e+03  4.52489e+01  6.77399e+01 
 8.27163e+02 -4.94108e+02  3.88726e+01 -1.19288e+03 -2.51879e+03  1.57740e+01 
 4.64866e+03 -1.75274e+03 -1.22303e+03 -7.92815e+02 -8.12590e+03 -1.72232e+02 
-5.20092e+01  1.77486e+02 -2.71894e+01  3.97274e+02 -1.77365e+02 -6.44470e+01 
 2.75284e+03 -1.02442e+03 -1.04420e+03 -4.38094e+03 -4.39714e+03  1.22059e+03 
 4.65931e+01  1.54065e+02  1.56489e+02 -7.75406e+01 -7.57992e+01  2.41071e+02 
 5.13700e+02 -5.48699e+01 -2.08402e+02 -2.07665e+02 -1.06117e+03 -1.61599e+02 
-5.99242e+01 -4.96920e+01  2.11033e+02  1.54626e+02 -4.33013e+02 -3.45852e+01 
 1.33793e+02 -1.94433e+02  3.51366e+02  8.87166e+02  1.12173e+01 -4.61533e+01 
 2.43483e+03 -7.17889e+02 -9.32231e+02  2.54665e+03  3.24140e+03  8.71101e+02 
 1.98621e+02  1.13213e+02 -1.45627e+02  5.08074e+02  2.05618e+02  6.71618e+02 
 9.75196e+01  3.95724e+02 -2.26371e+02  8.09221e+00 -9.58643e+02 -2.99788e+01 
 1.90697e+02  2.50478e+02 -2.20243e+02 -7.00703e+02 -2.54273e+02  2.63135e+01 
 1.01104e+02  4.88528e+02  4.59847e+02  3.08546e+03  2.43420e+03  1.42715e+03 
 1.59354e+02 -1.07364e+03 -7.52753e+02 -1.89892e+03  1.31972e+03  9.95559e+02 
 1.90690e+02 -2.17491e+02  2.26991e+02  2.80077e+02  7.31104e+02  2.84009e+01 
 1.76808e+02 -1.52324e+01  3.59583e+01  7.75020e+02 -7.75509e+02 -1.83733e+02 
 4.94092e+02  7.58643e+01  6.80250e+01 -1.94550e+03 -1.94937e+03  1.15761e+03 
 9.94695e+01  4.73872e+02 -2.33791e+02 -1.04353e+03 -1.07429e+03  1.55419e+02 
 2.16879e+02 -1.56370e+02  2.12916e+02  8.16949e+02 -6.97871e+02 -1.01844e+02 
 1.53814e+02 -2.50626e+02  4.36287e+02  9.29314e+02  1.03169e+03  7.17888e+01 
 1.03957e+02 -3.63565e+02 -3.73817e+02  9.67072e+02  9.68879e+02 -6.18925e+02 
 2.13410e+02  2.20521e+02 -2.11945e+02  7.29535e+02 -8.33737e+02 -1.33249e+02 
-1.31776e+02 -8.44121e+01 -9.03112e+01 -1.04465e+03 -1.05131e+03 -1.86311e+02 
 1.35659e+02  1.00250e+02 -9.33011e+01  6.67150e+02 -4.51194e+02 -1.22911e+02 
-4.09838e+00  1.38424e+02  1.35944e+02  1.73767e+03 -1.69087e+03 -4.82866e+02 
-1.95123e+02  2.21498e+02  1.14099e+02  1.25996e+03 -2.44722e+03 -3.07192e+02 
 4.05071e+02 -3.89505e+02 -3.34395e+02 -7.46089e+02 -8.02347e+02 -1.14922e+02 
-1.79912e+02  1.56762e+02  1.88794e+02  2.54444e+03 -1.30073e+03 -3.65264e+02 
 1.12125e+02 -4.81826e+01  1.21228e+02  5.17624e+02 -6.68134e+02 -8.99428e+01 
 9.53594e+02 -1.13919e+03 -1.17717e+03 -8.62424e+02  2.37406e+02 -4.10453e+01 
 6.73830e+01  1.92855e+02 -1.31666e+02  2.82844e+01 -2.52605e+02  1.05225e+01 
 1.53727e+02 -1.25117e+02 -9.29711e+01  4.49121e+02  3.02585e+02 -1.19988e+02 
 6.56395e+01 -1.55002e+02  1.89191e+02  2.09617e+02  3.88882e+01  4.54747e+00 
 4.49465e+02 -1.00622e+03 -1.20393e+03  6.59611e+02  2.15232e+03 -4.68834e+01 
 1.22838e+03 -6.19390e+02  1.22831e+02  1.42777e+03  3.30632e+03  7.25561e+02 
 5.28098e+02 -3.38668e+02  2.02979e+02  4.06719e+02  1.69380e+03  8.99711e+01 
 1.20403e+03  2.75219e+02 -5.06733e+02 -3.19683e+03 -1.79492e+03  1.03118e+03 
 5.47503e+02  2.30955e+02 -3.95237e+02 -1.68762e+03 -3.12112e+02  3.08737e+01 
-1.73270e+02  4.30697e+02 -9.42463e+01  5.08015e+01  1.63287e+02  2.12500e+01 
 4.65263e+03 -1.21704e+03 -1.22550e+03 -1.49010e+03 -1.47902e+03  1.09983e+02 
-1.67803e+02 -1.35256e+02  4.49307e+02 -1.97109e+02 -2.85647e+01  4.63988e+01 
 4.41991e+03 -1.01671e+03 -1.28961e+03  3.07726e+03  2.58960e+03  4.27244e+02 
 6.66162e+02  8.26052e+01 -1.82255e+03 -1.46245e+01  4.98396e+02 -5.05162e+02 
 6.21920e+02 -1.81408e+03  2.86288e+02  5.35161e+02 -2.45941e+02 -2.13521e+02 
-3.96532e+01  3.50844e+02  2.98784e+00  1.01081e+03 -1.73124e+03 -2.99501e+02 
 9.87712e+00 -4.55199e+01  3.13939e+02  1.76014e+03 -9.95634e+02 -2.69193e+02 
-3.86676e+01 -7.41365e+01  2.18186e+00  1.37646e+03 -1.35964e+03 -2.30496e+01 
 5.83908e+02 -1.97567e+03  2.73448e+02  5.50725e+02  4.92123e+01 -5.52405e+02 
 2.76873e+03 -8.94602e+02 -4.64560e+02  1.65257e+03  3.21660e+03  3.72746e+02 
-1.26173e+02  2.61692e+02 -4.98362e+01  2.43253e+02 -1.46703e+02  6.48238e+00 
 6.08311e+02  2.98549e+02 -2.05714e+03  3.31896e+02  7.04300e+02 -8.28344e+02 
-1.00072e+02 -9.27766e+01  2.64602e+02 -5.01702e+00 -2.29494e+02  1.24963e+01 
 3.31384e+02 -8.06593e+01 -8.07273e+00  1.00829e+03 -1.00663e+03 -2.10482e+02 
-1.47226e+02  8.88024e+01  2.14623e+02  1.94908e+03  2.22062e+03  7.60373e+02 
 2.98908e+03 -7.39107e+02 -1.10338e+03 -4.55138e+03 -4.69459e+02 -8.38893e+01 
 6.57396e+01  1.94047e+02 -1.86082e+02 -1.55235e+03 -1.55308e+03  5.80650e+02 
 2.73835e+02  1.20818e+02 -2.49339e+01  1.52765e+03 -1.57391e+03 -3.87992e+02 
 2.86282e+02 -1.11331e+02  1.41114e+02  1.59373e+03 -1.50392e+03 -3.46929e+02 
-1.57255e+02  9.34457e+01 -1.09392e+02 -2.78573e+02 -2.02393e+03 -3.12669e+01 
-1.94995e+02  3.70890e+02 -1.50377e+01 -7.40047e+01 -1.53903e+03  1.48935e+01 
-1.94196e+02 -3.08049e+00  3.26712e+00  2.16650e+03  3.60075e+02  9.42245e+00 
-1.62072e+02 -2.14795e+01  3.40462e+02  1.58468e+03  2.79398e+01  2.87725e+01 
 4.08670e+02  4.51962e+02 -3.20590e+02 -2.26065e+03 -1.24113e+03  5.32177e+02 
 2.72217e+02  7.75188e+01 -1.72690e+02  9.05274e+02 -6.39799e+02 -1.59930e+02 
 2.58166e+02 -1.11533e+02  8.87290e+01  6.37671e+02 -9.09401e+02 -1.16761e+02 
 3.11085e+02 -3.06879e+02 -3.63982e+02  8.82746e+02  8.90139e+02 -2.84046e+02 
 4.19511e+02 -3.70136e+02  4.02663e+02  1.02456e+03  2.30289e+03  3.31853e+02 
 3.74453e+02 -5.27691e+02 -5.48626e+02 -1.19559e+03 -1.20710e+03 -6.24863e+02 
 1.44302e+03 -6.19254e+02  6.78836e+00  8.38515e+02  3.01997e+03  1.89931e+02 
-1.54083e+01 -1.15730e+02  1.73017e+02  7.52944e+01 -3.62279e+02 -3.08414e+01 
 6.48410e+02 -2.26324e+02 -1.68748e+03 -1.41651e+02  7.41707e+02 -6.99498e+02 
 6.74699e+02 -1.58728e+03 -1.96351e+02  3.75886e+02  2.73373e+02 -8.58200e+02 
 1.53886e+01  1.62378e+02 -8.12187e+01  3.81233e+02 -2.01691e+02 -9.72184e+00 
 1.56064e+03  2.61908e+02 -8.86162e+02 -2.65336e+03 -5.54184e+02  7.60626e+01 
-1.14824e+02  2.56553e+02 -6.72183e+02  5.82980e+02  9.04449e+02 -2.45626e+02 
 1.24785e+02 -2.13171e+02  2.57836e+02  2.61309e+02  3.43561e+01 -3.55405e+00 
 1.33173e+02  2.74440e+02 -2.00602e+02  2.65417e+01 -2.73560e+02  1.12304e+01 
 2.43140e+02  3.80402e+02 -3.11595e+02 -9.15283e+02 -2.97861e+02  3.41702e+01 
 2.51522e+02 -1.04848e+03  1.49255e+02 -1.47098e+03  2.49873e+02 -2.32770e+02 
 2.28676e+02 -2.71832e+02  3.37550e+02  3.38584e+02  9.32000e+02  2.50891e+01 
-3.53947e+00  5.23005e+02 -2.37680e+02 -7.91011e+00 -1.04527e+03 -5.53420e+01 
-4.98366e+01  1.61044e+02 -1.14179e+02 -2.42036e+02 -9.23954e+02 -1.59243e+02 
 8.65021e+01 -4.72777e+02  4.75857e+01  1.00443e+03  9.05255e+01 -7.38302e+01 
 1.97629e+02  3.41948e+02 -2.66916e+02  9.14113e+02 -9.83630e+02 -2.00392e+02 
 5.37128e+01 -2.16324e+02  4.68013e+02  9.31721e+02  4.06916e+00 -6.37883e+01 
 2.13813e+02 -1.98715e+02  3.09520e+02  9.01906e+02 -8.67316e+02 -1.52150e+02 
-8.02415e+01  1.39096e+02 -7.96174e+01 -6.94427e+02 -1.37626e+03  3.14577e+02 
-2.25019e+02  3.47759e+01  1.57032e+02  1.53026e+03  7.69100e+02  1.95617e+02 
 4.70083e+02 -1.20263e+02 -2.11180e+01  1.28656e+03 -1.27159e+03 -2.86226e+02 
 6.45107e+03 -2.18029e+03 -1.87700e+03 -2.40528e+02 -1.45946e+04 -2.93739e+02 
 6.28132e+02 -4.19267e+02  3.29144e+02  5.06866e+02  2.21799e+03  9.30943e+01 
 7.04957e+02  3.62696e+02 -5.52475e+02 -2.28259e+03 -4.31467e+02  5.20875e+01 
 1.14946e+02  1.56185e+02 -1.30303e+02  5.49262e+02 -2.81986e+02 -1.04710e+01 
 4.69410e+02 -9.54805e+02 -1.44476e+03  1.74727e+02  2.52378e+03 -1.17900e+03 
 1.10147e+01 -8.26844e+01  1.49055e+02  1.01070e+02 -1.21645e+02  8.10067e+01 
 1.48975e+03  8.63032e+02 -7.43359e+02  3.62163e+03  1.04380e+03 -4.61495e+02 
 9.69379e+02 -1.37311e+03 -1.04825e+03 -8.47274e+02  4.44063e+02 -1.19493e+03 
 2.25051e+03 -2.34972e+03  1.62268e+03 -2.31290e+03 -4.60524e+03  3.87541e+01 
 9.98693e+01 -1.68043e+02  1.64290e+02  1.78677e+02 -4.99793e+02 -3.78147e+01 
-3.85283e+01  1.06876e+02  3.98281e+00  1.38265e+02 -1.14424e+02  8.21048e+01 
 5.47456e+03 -7.36789e+02 -1.42760e+03  7.05638e+03  1.43341e+03  1.12293e+03 
 3.84446e+02  1.10114e+02 -2.56880e+02  1.18145e+03 -8.28818e+02 -2.23503e+02 
 2.75515e+01  5.11234e+02 -2.10433e+02 -1.17292e+03 -1.05120e+03  1.99953e+02 
 3.11728e+02 -4.01760e+02 -3.28984e+02  1.63478e+03 -2.75587e+01 -2.87867e+02 
 2.60055e+03 -1.22035e+03 -1.27409e+03 -6.19773e+03 -6.23520e+03  2.05180e+03 
 3.78708e+02 -1.76769e+02  1.10545e+02  7.82504e+02 -1.19553e+03 -1.62249e+02 
 4.33445e+01 -2.59749e+02  5.12924e+02  9.22223e+02  1.13711e+03  1.16267e+02 
 3.37504e+03 -8.36075e+02 -1.53267e+03  3.70224e+03  4.87266e+03  1.59455e+03 
 3.78875e-01  6.19944e+01 -1.84035e+01  3.76557e+02 -1.54360e+02 -9.88320e+01 
 2.47831e+02 -2.32731e+02 -7.94191e+02 -2.28331e+02 -1.96744e+03 -3.38896e+02 
 2.74973e+02  5.82294e+02 -6.98587e+02 -2.04947e+03  1.56223e+03  8.18409e+02 
 6.80989e+00 -3.52961e+01  9.55615e+01  1.23710e+02 -3.34183e+02 -6.16477e+01 
 1.16125e+03 -2.56699e+02  1.78671e+02 -4.84296e+02 -2.84818e+03  1.04818e+03 
-1.28072e+02  1.81216e+02  1.40112e+02  1.72217e+03 -1.67344e+03 -5.32904e+02 
 1.24692e+03  3.37679e+02 -4.58251e+02 -3.52404e+03 -1.42074e+03  1.32631e+03 
 1.98298e+02  2.10743e+02 -4.02966e+00  1.77604e+03 -1.74069e+03 -5.36477e+02 
 7.56008e+02 -2.19504e+02 -2.36389e+02 -1.11517e+03 -1.11723e+03  6.42628e+02 
 1.10885e+03 -1.17089e+02 -2.06002e+03 -1.06293e+03 -1.08295e+03 -8.80152e+02 
-1.13075e+02  2.71285e+02 -4.90261e+01  9.33132e+01  1.17300e+02  3.91671e+01 
-1.11618e+02 -8.99523e+01  2.87638e+02 -2.09651e+02 -8.23141e+01  7.13909e+01 
 7.54580e+02 -1.99935e+03  2.31491e+02  8.82226e+02 -2.10369e+02 -7.70336e+02 
 8.24334e+03 -1.27996e+03 -1.87626e+03  6.27960e+03  5.47490e+03  1.05464e+03 
 8.10707e+03 -2.06315e+03 -2.07903e+03 -2.62875e+03 -2.60096e+03  3.36029e+02 
-1.08465e+02  8.88992e+00  3.21738e+02  1.76687e+03 -1.01233e+03 -3.36111e+02 
 2.08321e+02 -2.16283e+01 -9.76161e+01  7.25958e+02 -4.20263e+02 -1.57223e+02 
 1.30174e+03 -9.20837e+02  4.77195e+02  1.40182e+03  4.00679e+03  6.86114e+02 
-1.94654e+02  4.15721e+01 -4.84080e+01  1.10051e+03 -2.18923e+03 -2.45456e+01 
 2.01196e+02 -5.42401e+01  4.13264e+01  4.26779e+02 -6.48505e+02 -9.77902e+01 
-1.58457e+02  3.85539e+02 -2.25005e+00  1.00400e+03 -1.67568e+03 -3.11488e+02 
-1.98198e+02  2.88678e+01  2.13250e+01  2.29384e+03 -1.03163e+03 -2.09473e+02 
-2.77129e+02  2.94959e+02 -7.74420e+01 -7.88320e+02 -8.20694e+02  4.44711e+00 
 2.16398e+02 -7.61186e+01  2.05438e+02  1.80946e+03 -1.73474e+03 -5.05352e+02 
 7.87110e+02  1.32201e+02 -2.36996e+03  8.07778e+02  1.31882e+03 -2.03003e+03 
 1.39740e+02 -2.64193e+02  3.78941e+02  3.23574e+02  2.80356e+01 -1.75098e+01 
 5.33015e-01  2.59354e+02  2.60724e+02  4.60302e+02  4.63569e+02  3.62799e+02 
-6.40428e+01 -7.40466e+01  1.85896e+02 -5.90017e+01 -3.64406e+02 -2.39865e+01 
-8.94400e+01  1.77019e+02 -2.12813e+01  4.26833e+02 -1.44064e+02 -3.75423e+01 
 4.02819e+03 -1.31103e+03 -5.83205e+02  2.40721e+03  4.94196e+03  6.56179e+02 
 4.69924e+03 -1.19145e+03 -1.78109e+03 -8.20472e+03 -7.95939e+02 -2.01127e+02 
 1.49901e+02  4.15663e+02 -2.74091e+02  2.69981e+01 -3.04389e+02  1.48762e+01 
 5.71106e+02 -2.06971e+03  2.38214e+02  6.03660e+02  2.51367e+02 -1.60675e+03 
 2.69311e+02  5.37978e+02 -4.02772e+02 -1.17745e+03 -3.71916e+02  5.01300e+01 
 2.12414e+02  2.25836e+02 -2.02373e+02  7.24345e+02 -2.98815e+02 -8.47149e+00 
 2.17394e+02 -3.07528e+02  4.72799e+02  4.01999e+02  1.15601e+03  1.96977e+01 
-1.90070e+02 -6.42881e+02 -6.42352e+02  1.10808e+03  1.10462e+03 -1.07125e+03 
 3.86734e+02 -9.18773e+02 -9.28758e+02 -1.35960e+03 -1.36298e+03 -1.36622e+03 
 1.89371e+02 -2.41726e+02  2.29190e+02  2.39467e+02 -6.64214e+02 -5.40160e+01 
 7.17563e+01  9.96961e+01 -7.73287e+01  6.65291e+02 -2.22665e+02 -4.00940e+01 
 1.57465e+02 -2.25481e+02  4.25070e+02  9.83655e+02 -1.04530e+03 -2.17618e+02 
 2.03565e+03  5.70701e+02 -1.29509e+03 -3.69313e+03 -8.62739e+02  1.64132e+02 
 1.78859e+03 -7.13406e+02  1.09386e+02  1.01338e+03  4.02229e+03  2.35546e+02 
 4.84413e+01 -1.26973e+02  1.05337e+02  1.94706e+01 -6.08865e+02 -5.64396e+01 
 7.94488e+02 -5.94048e+02 -1.64419e+03 -2.19327e+02  1.29239e+03 -2.05170e+03 
 6.59824e+02 -1.35002e+03 -4.54929e+02  6.26980e+02  1.23737e+02 -1.99321e+03 
-2.23370e+02  3.76425e+01  1.32007e+02  1.38709e+03  1.41363e+02 -1.13914e+01 
 1.83061e+01 -4.62381e+02 -1.40801e+02  1.42135e+03 -1.30319e+03  2.75208e+02 
 1.07650e+02  4.97103e+02 -3.06411e+02  1.09467e+03 -1.13379e+03 -2.89093e+02 
-1.43499e+02  1.56779e+02 -7.64769e+01 -9.32077e+01 -1.31388e+03  5.66536e+00 
 5.70059e+02 -1.29682e+02 -7.01105e+00  1.63423e+03 -1.57895e+03 -4.27326e+02 
 3.99371e+02 -2.99486e+02 -4.05266e+02 -8.06401e+02 -7.66116e+02 -9.41672e+01 
 3.18909e+02 -4.15035e+02  4.68009e+02  1.05890e+03  2.32422e+03  3.32128e+02 
 4.03750e+02 -1.24657e+02  2.37754e+00  5.91491e+02 -9.44499e+02 -1.25305e+02 
 7.03373e+01  8.49832e+01 -1.99515e+02  2.62660e+02  3.29472e+02  8.26221e+01 
 4.08127e+02 -9.43997e+01 -1.89559e+02  1.04166e+03 -6.56007e+02 -1.87986e+02 
 2.96871e+02  3.92786e+02 -2.64017e+02 -2.07808e+03 -9.82895e+02  5.26646e+02 
 2.57039e+02 -2.36809e+02 -6.85831e+02 -3.22482e+02 -1.72629e+03 -3.65036e+01 
 4.64185e+02  2.01017e+02 -3.54551e+02  1.52861e+03 -1.06315e+03 -3.32611e+02 
-9.65451e+01  5.56910e+02 -2.08571e+02 -8.51392e+01 -1.02745e+03 -9.07045e+01 
 4.59852e+02 -2.40309e+02  1.74407e+02  9.41190e+02 -1.54808e+03 -2.37642e+02 
-5.31130e+01 -2.12459e+02  5.20756e+02  9.14830e+02  1.28292e+01 -5.04917e+01 
 2.79058e+02 -2.93664e+02 -3.93515e+02  1.43645e+03  1.33695e+02  6.32139e+01 
 2.33882e+02  7.73963e+01 -1.43404e+02  9.34583e+02 -2.88812e+02 -4.30771e+01 
 6.68006e+02 -4.57413e+02  4.76279e+02  5.40509e+02  2.73348e+03  1.13595e+02 
 2.07558e+02 -2.03411e+02  8.15192e+01  1.06590e+02 -8.77477e+02 -6.92695e+01 
 5.79671e+02 -1.10844e+03 -1.12714e+03  1.41491e+03  1.40766e+03 -1.88405e+03 
 9.34435e+02 -1.12790e+03 -1.15811e+03  3.75640e+02  3.78904e+02 -1.81153e+03 
 8.47130e+02  5.04658e+02 -7.14857e+02 -2.94195e+03 -6.36586e+02  9.45289e+01 
-1.10799e+02 -6.68782e+02  2.55278e+02  9.03883e+02  5.88766e+02 -2.43105e+02 
 3.46049e+02 -4.57359e+02 -1.77121e+02 -3.65418e+02 -7.23673e+02  2.79510e+00 
 1.08647e+02 -2.93677e+02  5.17718e+02  3.95242e+02  1.42444e+01 -3.31417e+01 
 1.26251e+02  5.82455e+02 -3.38641e+02  1.50268e+00 -3.54241e+02  1.72957e+01 
 2.48789e+02  1.46719e+02 -1.04983e+03  2.49116e+02 -1.47692e+03 -2.21957e+02 
 2.47551e+02 -3.13346e+02  3.50646e+02  3.30429e+02 -8.67544e+02 -8.38589e+01 
 2.62089e+02  3.60018e+02 -2.81197e+02  9.46077e+02 -3.22593e+02 -5.65758e+00 
-2.31307e+01  3.16320e+02 -1.31118e+02 -9.27409e+02 -8.20812e+02  1.59979e+02 
-1.95264e+01 -2.39651e+02  3.80654e+02  8.48493e+02  9.73608e+02  1.55829e+02 
 2.07679e+02 -1.68871e+01 -4.38542e+02  7.02892e+02 -1.38092e+02 -1.80454e+02 
 6.37435e+02 -2.10731e+02 -1.04028e+01  7.93237e+02 -1.29814e+03 -1.72637e+02 
 6.35572e+02 -1.46759e+02 -3.02635e+02  1.45856e+03 -9.46657e+02 -2.58624e+02 
 5.54456e+01  3.11598e+02  3.76496e+00  1.93056e+03 -1.76347e+03 -6.48970e+02 
 1.48952e+01 -3.56180e+01  3.80952e+01  4.71081e+01 -5.55163e+01  7.86619e+01 
-1.84389e+02  9.20838e+01  1.20793e+01  1.48794e+03 -1.38115e+03 -3.19262e+02 
 1.02716e+04 -5.18396e+02 -4.85018e+03  1.80969e+04 -1.36922e+03  1.23005e+03 
 1.17344e+04 -6.60047e+03 -1.03935e+03 -2.20709e+03 -2.70898e+04  8.81509e+02 
 1.03986e+02 -1.44869e+01  2.37948e+02  1.90831e+03 -1.84391e+03 -6.51858e+02 
 4.97283e+01 -1.16580e+01 -6.63339e-01  1.22816e+02 -1.51421e+02 -3.04231e+01 
 5.14962e+03 -9.52080e+02 -1.10809e+03 -8.08593e+03 -7.99074e+03  2.45255e+03 
 5.31738e+03 -1.23914e+03 -1.08708e+03  8.79494e+03  9.31259e+03  4.95498e+03 
 1.44021e+04 -3.49764e+03 -3.53032e+03 -4.89473e+03 -4.80804e+03  1.12036e+03 
-1.81966e+02  4.95856e+01  1.48021e+02  1.55649e+03 -7.63418e+02 -3.31927e+02 
 1.27529e+03 -2.32819e+03  4.79117e+01  3.07202e+03  4.16654e+01 -1.39952e+03 
-4.61697e+01  9.71385e+01 -3.06235e+01  1.79233e+02  7.22846e+01  1.84215e+01 
 1.10854e+04 -5.09587e+03 -4.63589e+03  9.02252e+03  8.33071e+03  1.64312e+03 
-5.71078e+01 -6.46536e+01  1.23177e+02 -1.93022e+02 -1.12019e+02  5.61425e+01 
 2.31970e+03 -1.29919e+03 -2.79990e+03 -2.49701e+03  3.46110e+03 -2.56247e+03 
 6.19548e+02 -1.04529e+02  2.63019e+01  2.04561e+03 -1.92399e+03 -6.53957e+02 
-1.43477e+02  2.04939e+02 -9.68447e+01  7.57542e+02 -1.40389e+03 -1.19823e+02 
 4.19602e+02  1.09526e+02 -2.33926e+02  1.26701e+03 -3.17861e+02 -3.93404e+01 
 2.69422e+02  6.60741e+02 -4.67399e+02 -1.40419e+03 -4.74274e+02  7.31606e+01 
 1.81711e+02 -2.87903e+02  5.73085e+02  4.44896e+02  1.31071e+03  1.51967e+01 
 9.61976e+02 -1.02020e+03 -1.38928e+03  4.42845e+02 -8.45979e+02 -1.18151e+03 
 4.76074e+03 -3.25648e+03  3.43811e+02  2.66609e+03  1.00483e+04  8.98690e+02 
 1.11513e+03 -2.97947e+03  2.28438e+02  1.57601e+02  1.69312e+03 -3.56551e+03 
-9.11906e+00  8.61440e+01 -1.32905e+01  4.20217e+02 -1.28859e+02 -7.29930e+01 
 6.52903e+03 -1.77303e+03 -2.25090e+03 -1.47804e+04 -2.56990e+02 -3.64074e+02 
 3.76716e+02 -3.09628e+02  1.09709e+02  1.75532e+02 -1.20558e+03 -9.00064e+01 
 2.92467e+00 -6.61446e+01  7.33230e+01 -7.66965e+01 -3.50802e+02 -2.15178e+01 
 4.53684e+02 -1.42027e+03 -9.45401e+02  2.52642e+03  1.63831e+02 -1.16160e+03 
 6.64771e+02 -2.30298e+02 -2.86116e+03  5.11699e+03  2.14895e+03 -4.10007e+03 
 2.71084e+02 -4.12595e+01 -7.55517e+01  3.31093e+02 -4.22496e+02 -8.34281e+01 
 4.66487e+02  3.60346e+02 -4.47790e+02  1.91104e+03 -1.33479e+03 -4.88474e+02 
 4.90213e+02 -2.91082e+02  2.72002e+02  1.12280e+03 -1.95928e+03 -3.55085e+02 
 1.14392e+03  2.41160e+02 -2.86450e+02 -2.89136e+03 -4.93281e+02  1.10522e+03 
 2.61998e+02 -2.99919e+02 -4.04212e+02  1.64829e+03 -8.03103e+02  2.59267e+02 
 6.31203e+01 -2.26898e+02  4.94396e+02  9.99909e+02 -1.14777e+03 -2.64831e+02 
 3.11008e+02 -4.71362e+02 -5.53927e+02  7.85218e+02 -1.80830e+03  6.71805e+02 
 8.08027e+02 -9.49549e+02  3.22323e+02  1.37185e+03 -7.60932e+02  1.04645e+03 
-1.39753e+01  5.89604e+02 -2.97603e+02  1.03964e+03 -1.19545e+03 -3.64718e+02 
 1.39988e+02 -1.32027e+02  6.64434e-01  2.38031e+00 -6.28411e+02 -4.78220e+01 
 1.25114e+03 -1.39698e+03 -1.23417e+03  2.84457e+02  4.32011e+02 -3.76814e+03 
 2.70964e+03  1.08856e+03 -1.91728e+03 -4.90187e+03 -1.66826e+03  3.61506e+02 
 1.82008e+03 -1.03486e+03  2.41462e+02  1.27556e+03  7.38723e+03  9.10288e+02 
 1.58073e+02  2.80309e+01 -7.72276e+01  6.83244e+02 -2.30025e+02 -6.18300e+01 
 3.57187e+02 -1.33834e+03 -1.34682e+03  2.89903e+03  2.91689e+03 -4.08703e+03 
-1.44102e+02  3.18647e+02 -1.12414e+02  1.94294e+01 -8.42553e+02 -1.33404e+02 
 8.81614e+02 -3.05090e+02  9.55131e+00  1.05743e+03 -1.76187e+03 -2.65424e+02 
 3.25137e+02 -4.68451e+02 -1.74620e+02 -1.24236e+02 -6.58502e+02 -3.85210e+01 
 8.78431e+02 -1.71819e+02 -4.46064e+02  2.03931e+03 -1.36025e+03 -3.98415e+02 
 1.74014e+02 -3.21452e+01 -4.43374e+02  7.78327e+02 -1.35762e+02 -5.75550e+01 
-9.52063e+01 -1.82158e+02  3.52428e+02  7.88878e+02 -2.45174e+01  6.66950e+00 
 5.48902e+02 -1.17327e+02 -1.69553e+02  5.23440e+02 -7.09127e+02 -1.10989e+02 
 4.96496e+02 -1.43928e+02 -8.18409e+01 -1.10338e+03 -2.18011e+02 -1.07548e+02 
 2.78720e+02 -3.69017e+02  1.65332e+02  2.47876e+02  8.00388e+02  1.00013e+03 
 2.62547e+02 -3.75420e+02  5.09914e+02  4.60176e+02 -1.10515e+03 -1.21230e+02 
 1.59704e+02 -7.33929e+02 -1.06914e+03  1.31315e+03 -1.89902e+03  9.66541e+02 
 2.61505e+02  5.40783e+02 -3.54488e+02  1.17376e+03 -3.52737e+02 -4.17986e-02 
 7.80214e+02 -1.58110e+03 -6.27289e+02  1.26864e+03 -2.18163e+02 -2.03049e+03 
 4.07946e+02 -2.11190e+01 -1.63352e+02  1.00707e+03 -2.93731e+02 -5.16115e+01 
 6.76326e+02 -5.11044e+02 -1.34203e+03  1.17737e+02  6.89721e+02 -1.96084e+03 
 5.26391e+02 -4.65247e+02  5.12467e+02  6.33969e+02  3.40752e+03  2.30756e+02 
 3.73333e+02 -2.34036e+02 -5.45142e+01  1.01900e+02 -9.54819e+02 -5.56234e+01 
 8.96777e+02  5.78797e+02 -8.02393e+02 -3.41100e+03 -9.51270e+02  1.39125e+02 
 9.38584e+02 -1.14220e+03 -1.14509e+03  2.33759e+02 -8.60646e+02 -3.77171e+01 
 5.50177e+02 -4.31216e+02  1.88252e+02  2.95692e+02 -1.64143e+03 -1.32297e+02 
 5.98458e+01 -2.59669e+02  6.02832e+02  4.55630e+02  2.02392e+00 -4.90392e+01 
 5.87094e+02  2.01933e+02 -3.41616e+02  1.71624e+03 -3.50173e+02 -4.03397e+01 
 8.11284e+01  6.91316e+02 -3.68413e+02 -4.43607e+01 -4.17633e+02  1.65214e+01 
 4.31470e+02 -1.16591e+03 -9.97573e+02  2.16173e+03  6.59301e+02 -3.86226e+01 
-5.03228e+01  8.72945e+01  1.19730e+02  1.74671e+03 -1.60166e+03 -7.01717e+02 
-1.17210e+02  2.94168e+02 -5.33966e+01  1.42558e+03 -1.42677e+03 -4.43700e+02 
 5.39898e+02  5.97649e+00  7.44844e+01  2.41106e+03 -2.16605e+03 -9.46509e+02 
 9.22752e+02 -2.22399e+02 -2.93864e+02  7.54674e+02 -1.09353e+03 -1.56172e+02 
 3.62515e+02 -3.54337e+02  5.73652e+01 -7.09199e+02 -2.56174e+02 -1.20493e+02 
 2.28153e+02 -6.81428e+01 -2.66782e+02  3.71463e+02  6.54080e+01  3.92027e+02 
 4.82277e+02  5.33861e+02 -5.34945e+02  2.11844e+03 -1.56807e+03 -6.82547e+02 
 2.79925e+02 -2.57893e+02 -3.92124e+02  7.91575e+02 -7.70065e+02  4.00159e+02 
 4.60898e+02 -3.35186e+02  3.69257e+02  1.26698e+03 -2.32605e+03 -4.88454e+02 
 6.29566e+02 -1.63315e+03 -2.44429e+02  7.29476e+02 -1.44078e+02 -6.61858e+02 
 8.57562e+01 -2.25383e+02  5.08118e+02  3.56039e+02  1.68628e+03  1.75927e+02 
 3.02604e+02  6.06629e+02 -4.47562e+02 -1.44447e+03 -5.69800e+02  9.41443e+01 
 6.60594e+02 -2.11055e+02 -1.55664e+03  2.72856e+02  3.87813e+02 -8.05906e+02 
 7.34621e+02 -5.24611e+01 -2.81863e+02  1.44218e+03 -3.52857e+02 -4.72642e+01 
 6.77170e+02 -3.80988e+02 -8.89649e+01  2.39659e+02 -1.38285e+03 -6.82056e+01 
-9.69752e+01  4.16608e+03 -2.05982e+03  2.45686e+04 -1.98197e+03  3.30325e+03 
 5.85669e+04 -1.53785e+04 -1.36742e+04  2.12604e+04  1.86231e+04 -8.15013e+03 
-1.28470e+03 -3.21530e+03  7.00253e+03  1.04457e+03 -4.56615e+04  8.67360e+03 
-1.44550e+01 -6.12806e+01  1.04698e+02 -9.25137e+01 -2.55167e+01  8.69242e+01 
 4.26827e+00 -2.06500e+02  3.85762e+02  8.75174e+02 -1.06897e+03 -2.24563e+02 
 1.59672e+02 -6.00603e+01 -3.93330e+02  9.12699e+02 -4.26910e+02  4.39890e+01 
 1.12361e+03 -1.38982e+02 -6.08946e+02  2.82491e+03 -1.94370e+03 -6.37586e+02 
 3.95387e+01  6.02297e+01 -4.06802e+01  1.34923e+01 -1.31028e+01  4.84005e+01 
 2.95175e+04 -7.24306e+03 -7.28364e+03 -1.43424e+04 -1.39395e+04  2.96513e+03 
 1.11591e+03 -3.98923e+02  6.50704e+01  1.40975e+03 -2.36350e+03 -4.36303e+02 
 3.18736e+02 -4.06505e+02 -2.94481e+02  2.75607e+02 -6.84608e+02  3.19014e+02 
-1.59842e+02  3.84262e+02 -1.99543e+02  1.01650e+03 -1.10218e+03 -3.51260e+02 
 6.49906e+01  2.56688e+01 -1.34499e+01  2.27881e+02 -1.25378e+02 -3.88197e+01 
 1.66343e+04 -8.20511e+03 -1.08379e+03 -3.84146e+03  2.39798e+04  1.90974e+03 
-3.67967e+03  4.64498e+02  1.08578e+02 -4.85959e+03 -4.92518e+03 -1.88344e+03 
-3.22317e+03  1.21064e+03  1.15195e+03  4.63722e+03  4.89476e+03  4.53017e+02 
 1.16600e+04 -6.73297e+02 -6.69656e+03 -2.75864e+04 -2.13819e+03  6.33779e+02 
 5.85837e+01 -5.07825e+01  5.50085e+01  2.31277e+01 -1.80471e+02 -1.00918e+01 
 7.28040e+02  3.56282e+02 -4.58611e+02  2.28134e+03 -3.69990e+02 -4.06623e+01 
 6.57259e+02 -2.81940e+03 -2.35649e+02  2.09899e+03  5.14609e+03 -4.00630e+03 
 7.03433e+02 -5.76767e+02  3.21235e+02  4.99690e+02 -2.22066e+03 -2.08785e+02 
 9.79565e+02 -1.22457e+03 -1.17310e+03  4.31590e+02 -1.12979e+03  1.13443e+03 
 2.24663e+02 -1.18156e+02 -3.46141e+00  8.21563e+01 -3.96853e+02 -1.07794e+01 
 4.15209e+03 -1.53174e+03  6.98886e+02  3.55119e+02  3.77034e+03 -4.00807e+02 
 2.42145e+02 -2.27369e+01 -7.75089e+01  4.43362e+02 -2.28203e+02 -5.37099e+01 
 2.02737e+02  7.01372e+02 -3.96197e+02  1.33886e+03 -3.99426e+02  2.10948e+00 
 1.06196e+03  3.37314e+02 -2.69028e+03  1.44825e+03  1.10043e+02 -3.56797e+03 
 2.25518e+03  1.76999e+03 -2.41429e+03 -4.87403e+03 -2.41374e+03  1.56543e+02 
 2.12908e+02 -3.71922e+02  6.64946e+02  5.82058e+02 -1.25306e+03 -1.58293e+02 
 6.13162e+02 -1.09484e+03 -1.33373e+03  1.98723e+03 -6.67185e+02  1.48120e+03 
 1.40198e+03 -3.54717e+02 -4.56185e+02  1.09236e+03 -1.68425e+03 -2.44267e+02 
 3.46332e+02 -3.99726e+02  7.43070e+01 -4.86973e+02 -2.55090e+02 -1.21065e+02 
 1.70782e+02 -4.09257e+00 -3.02212e+02  3.64366e+02 -2.02378e+02  2.08679e+02 
 1.05878e+03 -5.79821e+02 -9.23333e+01  4.95131e+02 -1.99719e+03 -1.07402e+02 
 6.27671e+02 -1.72758e+02 -1.53629e+03  2.53552e+02  4.52137e+02 -1.58089e+02 
-1.04964e+01 -1.79333e+02  4.69932e+02  3.09034e+02  3.12368e+02  1.17622e+02 
 6.36605e+02 -1.62286e+03 -1.99625e+02  4.63695e+02 -3.41393e+02  1.28525e+02 
 1.02910e+02  5.73840e+02 -3.14701e+02 -1.23294e+02 -4.35447e+02  2.10054e+01 
 1.12168e+03 -5.33621e+01 -4.35471e+02  2.07047e+03 -4.21166e+02 -5.11461e+01 
 7.62384e+02 -2.27476e+03  9.18624e+01  1.27290e+03  8.26468e+02 -1.96953e+03 
 1.29703e+03 -7.47828e+02  6.92012e+02 -1.79611e+02  1.42901e+03  1.02594e+02 
 5.87768e+02 -1.04518e+02 -1.75693e+02  7.24010e+02 -2.99577e+02 -7.44214e+01 
 8.08874e+02  1.77213e+02 -5.34012e+02 -2.65155e+03 -1.22143e+03  8.28878e+01 
 5.23853e+02  3.09671e+02 -1.99685e+03  2.07244e+02  5.83277e+02 -1.59553e+03 
 5.52129e+02 -2.28035e+02 -8.93642e+01  2.00941e+02 -6.67243e+02  1.02381e+01 
 3.23558e+02  1.43038e+02  1.03444e+02  2.29653e+03 -2.06463e+03 -1.15356e+03 
 2.56864e+02 -2.31361e+02 -2.85576e+02  4.41920e+02 -4.17652e+02  3.50557e+02 
 3.34330e+02 -3.34277e+02  3.99938e+02  1.25129e+03 -2.40803e+03 -6.14121e+02 
 1.25987e+03 -4.76662e+02  1.95418e+02  1.79884e+03 -3.05695e+03 -7.20691e+02 
 1.62416e+02  4.50508e+01 -3.65225e+02  7.82483e+02 -6.00510e+02 -3.52720e+01 
 1.00487e+02  5.82646e+02 -5.10841e+02  2.75687e+03 -1.63830e+03 -9.75633e+02 
 1.42647e+03 -9.31290e+01 -8.63657e+02  3.80094e+03 -2.75131e+03 -1.04905e+03 
 6.07398e+02 -2.47495e+02  9.76293e+01  1.82372e+02  2.19670e+02  4.95908e+01 
 1.09563e+03 -2.09697e+02 -3.26789e+02  1.10927e+03 -3.87922e+02 -9.48545e+01 
 3.49389e+02  7.00182e+01 -1.99898e+02 -9.76159e+02 -5.80236e+02  1.46662e+02 
 5.84039e+02 -1.97358e+03  2.70541e+02  6.76286e+02  3.41153e+02 -7.71057e+02 
 5.38036e+02  3.14780e+02 -1.91456e+03  5.37841e+01  5.40659e+02 -5.32718e+02 
 1.03152e+03 -3.95289e+02 -1.99848e+02  3.85624e+02 -1.02630e+03  3.77582e+01 
 7.64828e+02  5.88065e+02 -5.75872e+02  2.93868e+03 -4.03402e+02 -4.36065e+01 
 8.10545e+02 -5.59750e+02  4.48618e+02  7.31144e+02 -2.82220e+03 -3.19469e+02 
 1.94566e+02 -2.33252e+01 -1.68632e+02  4.30800e+02 -6.04670e+02  5.40073e+01 
 8.21434e+02 -8.78227e+02 -1.02008e+03  1.95470e+02 -2.08390e+02  1.56350e+03 
 4.13847e+02 -3.41905e+02 -1.94173e+01 -3.85335e+02 -3.34159e+02 -6.45459e+00 
 2.00798e+03 -5.16858e+02 -6.64889e+02  1.62137e+03 -2.61370e+03 -4.09879e+02 
 1.55734e+03 -8.32582e+02 -2.34148e+01  9.87844e+02 -2.90162e+03 -1.95498e+02 
 1.89913e+04  4.71397e+02  1.81895e+03  5.11229e+04  4.78744e+04  1.18880e+04 
 2.83093e+04  2.49455e+03  2.05376e+03 -3.75900e+04 -3.68153e+04  1.81293e+04 
 6.56705e+02 -3.64364e+02 -1.52090e+03  2.55844e+02  2.29177e+02  9.50123e+02 
 1.65456e+02  6.66139e+02 -3.52164e+02  1.25728e+03 -3.67252e+02 -1.22851e+01 
-2.67022e+01 -2.32697e+01 -4.80259e+00 -1.61089e+02  7.66724e+01  9.34197e+01 
 1.58005e+03 -2.00552e+01 -6.25070e+02  2.99242e+03 -4.83382e+02 -6.65240e+01 
 9.54252e+01 -3.22120e+02  5.80903e+02  3.93035e+02 -1.04779e+03  1.08696e+02 
 7.02017e+02 -1.54456e+03 -3.81601e+02  1.97982e+02 -3.46787e+02  1.10454e+03 
-1.52249e+03 -2.88608e+03  4.44078e+03  4.29596e+02  2.39050e+04  2.94490e+03 
 5.78416e+01 -4.58912e+01 -4.78503e+01 -7.37661e+01 -5.65851e+01  1.39616e+01 
-1.49714e+03  8.08117e+03 -3.56493e+03 -4.59098e+04  1.06282e+03  8.14601e+03 
 9.83647e+02 -4.44860e+02 -1.95570e+03  2.93028e+02  3.50619e+03 -1.51712e+03 
 2.25545e+03 -2.52620e+03 -1.44192e+03  3.25554e+03 -2.50592e+03 -2.25474e+03 
 2.90095e+02 -1.16190e+02 -1.39443e+02  4.81034e+01 -2.04933e+02 -6.22082e+00 
 1.71508e+03 -6.41970e+02 -3.39514e+02  7.10975e+02 -1.60163e+03  5.45318e+01 
 4.20280e+02 -1.54077e+02 -1.13730e+02  3.78283e+02 -4.70482e+02  1.31214e+02 
 5.60717e+02 -1.92602e+03  2.73194e+02  5.75477e+02 -1.40552e+01  3.73614e+01 
 1.80277e+03 -3.34948e+02 -5.46570e+02  1.70122e+03 -5.09675e+02 -1.34670e+02 
 4.75592e+02  3.11811e+02 -1.84880e+03 -6.74787e+01  6.46572e+02  7.82837e+01 
 2.27986e+02 -6.47983e+01 -8.38747e+01 -1.50993e+02 -3.45808e+02  7.30391e+01 
 2.59619e+02  1.18909e+02 -1.77245e+02  1.63011e+03 -4.23134e+02 -5.15730e+02 
 4.85360e+02  9.36882e+02 -1.14637e+03  4.72358e+03 -3.73767e+03 -1.64909e+03 
 1.07120e+03 -1.82920e+03 -1.76310e+02 -1.21164e+03 -1.08308e+03 -7.69491e+02 
 6.94159e+02  3.62457e+01 -1.89217e+03 -1.80745e+02  1.10103e+03 -8.47105e+02 
 1.34506e+03 -5.74594e+02  3.33076e+02  2.19253e+03 -3.62266e+03 -1.06801e+03 
 7.36523e+02 -2.36923e+02 -2.86004e+02  2.38897e+02 -4.39006e+02 -2.19435e+01 
 2.47792e+02 -8.95157e+01  1.55704e+02  6.71385e+02 -1.26597e+03 -3.75529e+02 
 2.60813e+03 -7.54090e+02 -9.59477e+02  2.39620e+03 -4.08581e+03 -7.79368e+02 
 4.00496e+02  1.54407e+02 -2.97403e+02  8.06332e+01 -3.24238e+02 -3.87926e+02 
 7.47944e+02 -4.69659e+02 -1.49405e+03 -5.13294e+02  7.28192e+01  2.05021e+03 
 9.15737e+02 -6.65801e+02  3.92549e+02  8.52341e+02 -3.30965e+03  9.28952e+01 
 2.21268e+03 -1.02426e+03  1.10549e+02  1.91164e+03 -3.99931e+03 -3.18368e+02 
 5.96068e+02  8.20223e+02 -5.92542e+02  3.22015e+03 -2.76485e+02 -4.81295e+01 
 8.25602e+02 -1.45150e+03 -6.41970e+02 -2.64961e+02 -1.49431e+02  2.38431e+03 
 2.03787e+03  8.83040e+01 -8.78595e+02  4.35692e+03 -5.27802e+02 -1.05381e+02 
 6.33162e+02 -1.68827e+03  4.73288e+01  4.30313e+02 -2.76983e+01 -4.16669e+02 
 6.05813e+02  1.93684e+02 -1.77567e+03 -3.18422e+02  7.27845e+02 -1.98580e+02 
 1.46347e+03 -4.14864e+02 -5.01266e+02  5.65898e+02 -8.21651e+02 -6.22112e+01 
 4.11734e+02  2.54561e+02 -1.87458e+03 -2.60127e+02  8.58936e+02  8.05270e+02 
 2.80267e+03 -4.83927e+02 -8.66646e+02  2.68271e+03 -6.80845e+02 -2.25407e+02 
 6.48394e+02 -2.03689e+03  1.32322e+02  5.63017e+02 -3.69547e+02  1.04842e+03 
 4.69354e+02 -3.02880e+02 -4.66585e+01  6.27008e+02 -1.24165e+03  3.42832e+02 
 2.48186e+02  7.93558e+01 -1.32412e+02  5.52177e+02 -2.10856e+02  3.77081e+01 
 2.72849e+03 -9.82877e+02 -5.02428e+02  1.30964e+03 -2.62186e+03  3.93858e+01 
 2.63267e+03 -6.70814e+02 -8.19024e+02  1.20101e+03 -1.52497e+03 -1.63262e+02 
 5.67833e+02  2.28910e+02 -1.74786e+03 -4.02068e+02  7.05109e+02  2.36015e+02 
 6.08936e+02 -1.72871e+03  1.90274e+02  4.14691e+02  8.75080e+01 -1.55764e+02 
 6.67908e+02  5.25504e+02 -1.02791e+03 -2.32680e+03 -1.87427e+03 -2.02026e+02 
 3.33785e+03 -7.04784e+02 -1.37882e+03  3.48320e+03 -6.39045e+03 -1.31525e+03 
 9.42122e+02  4.94006e+02  3.86656e+02  1.63666e+03 -2.87162e+03 -2.08568e+03 
 2.03549e+03  5.05833e+02 -9.14698e+02  5.77436e+03 -1.59244e+02  1.47860e+02 
 9.46847e+02 -9.38911e+02 -1.28474e+03 -3.90646e+02  1.74138e+02  3.54013e+03 
 1.92458e+03 -2.28172e+03  1.46287e+03  3.28855e+03 -5.44388e+03 -8.24796e+02 
 4.01378e+03 -1.63527e+03 -6.59037e+02  2.23734e+03 -4.36087e+03 -1.17734e+02 
 8.91755e+02 -8.98931e+02  2.58002e+02  1.19701e+03 -2.28722e+03  5.82298e+02 
 2.57958e+02  1.07410e+02 -2.02808e+03 -8.82997e+02  1.17184e+03  1.79828e+03 
 4.70041e+02  4.59263e+02 -3.52850e+02  1.62910e+03 -4.91022e+01  5.04185e+01 
 4.14619e+03 -6.45282e+02 -1.37971e+03  4.29534e+03 -8.70778e+02 -4.06952e+02 
 6.89809e+02 -2.19999e+03 -1.30530e+02  5.24979e+02 -9.57024e+02  2.57426e+03 
 5.57468e+02  1.65770e+02 -1.74450e+03 -6.08659e+02  8.76894e+02  8.33965e+02 
 6.78343e+02 -1.79265e+03  2.16443e+02  4.89955e+02  2.38066e+02  1.50298e+02 
 4.55818e+03 -1.05754e+03 -1.28057e+03  2.43677e+03 -2.88176e+03 -4.18037e+02 
 6.04420e+03 -1.07387e+03 -1.52909e+03  9.29075e+03 -9.96047e+03 -4.16839e+03 
 1.92328e+03 -3.61769e+03 -6.42602e+02 -4.39001e+02 -3.51650e+03  5.74530e+03 
-3.10385e+02  2.89436e+02 -2.48153e+03 -3.14465e+03  3.21511e+03  3.56659e+03 
 5.84564e+03 -3.51736e+03 -5.09827e+02  3.39068e+03 -9.04313e+03 -1.60775e+03 
 5.91904e+03 -8.75715e+02 -1.68921e+03  7.14049e+03 -4.39188e+02 -8.13596e+02 
 5.92166e+01 -3.51282e+03  3.48101e+03  3.05677e+03 -5.04445e+03 -2.55484e+02 
 1.43585e+03  9.07027e+02 -7.95508e+02  3.79019e+03 -7.80599e+02  6.99632e+02 
 1.19665e+03 -7.41970e+01 -2.06769e+03 -9.13343e+02 -8.89206e+02  1.55766e+03 
 9.00128e+02 -2.04391e+03  2.23017e+02  9.10614e+02  3.91964e+02  6.98106e+02 
 8.46575e+03 -1.36836e+03 -1.87424e+03  5.47659e+03 -5.79100e+03 -8.60384e+02 
 1.60518e+04 -9.54144e+03 -8.97683e+02 -1.25550e+02 -2.55796e+04 -4.45376e+03 
-4.38698e+03  2.35873e+03  7.80179e+01  5.50677e+03 -1.00011e+04  1.23137e+03 
 1.02617e+04 -9.23270e+02 -4.59921e+03  1.82465e+04  1.71135e+03 -1.04875e+03 
 1.46357e+03 -2.28178e+03  1.46262e+02  3.32453e+03  6.13113e+02  9.74993e+02 
 1.40128e+03 -1.67447e+03 -1.60940e+03  7.97381e+02  5.25424e+03  3.30497e+03 
 1.18333e+04 -4.99009e+03 -4.99649e+03  7.65604e+03 -9.35142e+03 -2.63605e+03 
 5.99173e+04 -1.54479e+04 -1.51082e+04  2.10150e+04 -1.94058e+04  5.85758e+03 
 4.48688e+02  3.97071e+03 -1.64284e+03  2.47454e+04  3.03590e+03 -4.00963e+03 
-1.49163e+02 -4.30417e+03  7.30523e+03 -4.15884e+03 -4.66345e+04 -7.34770e+03 
 2.12060e+04  1.07252e+03  4.36507e+02  5.29429e+04 -3.77141e+04 -1.35222e+04 </DataArray>
            <DataArray Name="stress" NumberOfComponents="6" format="ascii" type="Float64">
-1.44885e+01 -6.45444e+00 -2.14150e+01 -3.48983e+00 -1.88916e+01  2.65887e+00 
-4.09186e+01  4.04205e+01 -3.84983e+01 -1.43993e+00 -3.90521e+01  9.41062e+00 
 1.29263e+02  5.23578e+01  5.29368e+01 -5.21260e+01  3.34591e+01 -1.13636e+01 
-2.52272e+01 -1.90227e+01  2.78565e+01  1.83041e+01  1.67378e+01  2.66934e+00 
 3.90439e+01  3.76847e+01  2.02039e+01 -8.29381e+01  1.87515e+01 -1.72553e+01 
-1.44409e+01  4.01325e+01  1.58488e+01 -2.14856e+00  6.55718e+00  1.16742e+01 
 9.66092e+01  3.63028e+01  5.10586e+01 -3.71856e+01  7.85754e+01 -2.10360e+01 
 5.60604e+01  2.27704e+01  4.53454e+00 -6.13434e+01  4.96118e+01 -1.79733e+01 
-3.11933e+01  1.48888e+02 -2.73128e+01 -5.05607e+01 -4.94616e+01  1.09696e+01 
 2.57087e+02  3.87431e+01  2.57541e+01 -1.14184e+02  7.66332e+01 -1.01079e+01 
-3.60861e+01 -1.77092e+01  1.36572e+02  3.86000e+01  5.60577e+01  1.14874e+01 
 2.40900e+02  1.98450e+01  2.73998e+01 -7.68492e+01  1.72640e+02 -1.99813e+01 
-5.68961e+01  3.03045e+01  1.28329e+02  2.19646e+01  3.97769e+01  2.46354e+01 
-4.42701e+01  1.45341e+02  1.03936e+01 -3.55001e+01 -1.59448e+01  2.49016e+01 
 2.71139e+01  1.13875e+02  3.83277e+01 -1.05093e+02  2.37183e+01 -2.10569e+01 
 6.95431e+01  4.55993e+01  1.11096e+02 -4.44134e+01  1.09204e+02 -2.44715e+01 
 2.23532e+02  2.04888e+01  1.22241e+01 -1.81298e+02  5.15829e+01 -1.39523e+01 
 8.71238e+01  4.58530e+01  9.54379e+01 -6.11216e+01  1.22420e+02 -3.14207e+01 
 1.02965e+02  1.36849e+02  5.34794e+01 -1.18074e+02  5.38822e+01 -2.24494e+01 
 2.21474e+02 -1.52206e+01 -3.37344e+01 -1.47798e+02  1.26451e+02 -2.62523e+01 
 1.77088e+02  8.07098e+00  6.70088e+01 -7.57201e+01  2.27911e+02 -2.04174e+01 
-7.73619e+01  1.59665e+02  1.45423e+02 -3.40887e+01  4.67605e+01  4.60510e+01 
 1.79494e+02  1.10555e+02  2.02413e+01 -1.90831e+02  6.00652e+01 -1.28735e+01 
-3.44289e+01 -5.95938e+00  2.76273e+02  6.21072e+01  9.42420e+01  7.90130e+00 
 1.55775e+02  1.67886e+02  1.44706e+02 -1.49591e+02  1.49914e+02 -3.47282e+01 
 7.28614e+02  1.16487e+02  9.47257e+01 -1.70009e+02  1.13022e+02 -1.17433e+01 
-4.04222e+01  2.91396e+02 -1.73205e+01 -9.46570e+01 -7.08168e+01  3.60566e+00 
 2.55868e+02  1.36674e+02  4.65155e+01 -2.18731e+02  1.44386e+02 -3.42530e+01 
 2.27618e+02  1.03965e+01  7.00335e+01 -1.38587e+02  2.31183e+02 -4.57232e+01 
-1.09933e+01  1.82759e+02  4.48046e+01 -1.33637e+02  3.04424e+01 -2.52085e+01 
-7.35883e+01  4.55672e+01  3.02327e+02  5.30519e+01  1.02545e+02  2.14363e+01 
 6.85121e+00  5.05250e+01  1.69601e+02 -4.87277e+01  1.13601e+02 -2.54372e+01 
 5.96710e+02  5.51485e+01  5.72260e+01 -1.09982e+02  2.64532e+02 -1.90353e+01 
-5.37224e+01  3.13351e+02  2.56455e+01 -1.00504e+02 -4.96097e+01  2.12975e+01 
 5.40255e+02  4.34281e+01  1.85695e+01 -3.15037e+02  7.41711e+01 -6.81785e+00 
 9.36018e+01  2.28382e+02  7.05830e+01 -1.42375e+02  7.29503e+01 -2.18286e+01 
 8.60253e+01  6.34913e+01  1.94681e+02 -7.67262e+01  1.29115e+02 -2.58816e+01 
 4.34836e+02 -5.19263e+01 -8.70116e+01 -2.48277e+02  2.00995e+02 -3.31787e+01 
 2.47268e+02  1.43392e+02  1.12529e+02 -2.52918e+02  2.69080e+02 -5.28685e+01 
 1.04294e+02  1.38263e+02  7.08553e+00 -2.16764e+02  6.74584e+01 -1.86905e+01 
 2.47989e+02  2.40073e+02  4.05305e+02 -1.47627e+02  2.42696e+02  3.67146e+01 
 1.10334e+02  2.48175e-02  1.09990e+02 -7.86558e+01  2.27424e+02 -2.10739e+01 
 4.48380e+02  3.58272e+01  1.06154e+02 -1.01562e+02  3.26914e+02 -1.65258e+01 
 2.50575e+02  4.17437e+02  2.59243e+02 -2.42081e+02  1.79932e+02  3.45685e+01 
 4.25620e+02  1.75138e+02  3.14933e+01 -2.94342e+02  8.13748e+01 -1.04929e+01 
 1.93285e+02  1.89172e+02  4.81879e+01 -2.28979e+02  1.65882e+02 -3.26878e+01 
 1.83862e+02  2.80895e+02  1.83337e+02 -1.94563e+02  2.24069e+02 -3.83420e+01 
 2.02074e+02  2.03660e+02  2.68388e+02 -2.30356e+02  1.81255e+02 -3.85863e+01 
 1.95614e+02  2.14810e+01  1.44698e+02 -1.54952e+02  2.27753e+02 -3.89205e+01 
 4.61917e+02  1.77806e+02  5.06296e+01 -3.14340e+02  1.98310e+02 -4.59919e+01 
 4.01907e+02 -1.29426e+01  6.78584e+01 -2.16562e+02  3.26644e+02 -5.70054e+01 
-2.80801e+00  1.60690e+01  3.94653e+02  7.21657e+01  8.11625e+01  1.53983e+01 
 1.46529e+03  2.26761e+02  1.98560e+02 -2.49088e+02  1.79748e+02 -1.71874e+01 
-4.08020e+01  4.18308e+02  5.43701e+00 -7.76290e+01 -8.25621e+01  1.37549e+01 
 2.52457e+02  2.13788e+02  1.28653e+02 -2.97851e+02  3.57806e+02 -4.89652e+01 
-3.95917e+01  2.39563e+02  5.29901e+01 -8.95632e+01  4.15851e+01 -1.57928e+01 
 3.66046e+01  4.90261e+02  5.48587e+01 -8.39528e+01 -1.63690e+01  3.36189e+01 
-8.86656e+01  6.22072e+01  4.61027e+02  2.83897e+01  8.62402e+01  3.17293e+01 
 1.10776e+03  1.02382e+02  1.07389e+02 -1.49382e+02  4.10891e+02 -2.03183e+01 
 2.66021e+02  1.51645e+02  1.93184e+02 -3.45681e+02  2.98807e+02 -5.37287e+01 
-5.43467e+01  5.59261e+01  2.10581e+02 -5.05050e+01  5.99054e+01 -7.51930e+00 
 1.02253e+03  9.56322e+01  4.02518e+01 -5.19041e+02  1.02594e+02  7.73754e-01 
 4.08235e+02  1.66928e+02  1.18085e+02 -3.35983e+02  3.47087e+02 -6.95817e+01 
 9.89733e+01  3.03550e+02  9.70473e+01 -9.74011e+01  1.05554e+02 -6.42271e+00 
 2.64558e+02  1.73802e+02  2.30220e+00 -3.05601e+02  8.31643e+01 -1.51828e+01 
 2.14627e+01  7.27583e+02  7.01562e+02 -2.41390e+02  2.09183e+02 -1.75530e+01 
 1.25934e+02  9.38254e+01  2.78264e+02 -1.15752e+02  8.42021e+01 -1.25220e+01 
 3.00906e+02  1.49699e+01  1.49359e+02 -9.67843e+01  3.08442e+02 -1.62217e+01 
 7.19008e+02 -1.01238e+02 -1.61748e+02 -3.93484e+02  3.08658e+02 -4.83494e+01 
 3.34164e+02  2.14810e+02  3.76438e+01 -3.05717e+02  2.09206e+02 -4.03165e+01 
 6.36643e+01  3.14516e+02  2.98481e+02 -2.64017e+02  2.40456e+02 -5.52174e+01 
 3.10434e+02 -5.81374e+00  1.47437e+02 -2.16754e+02  3.08163e+02 -4.82818e+01 
 7.97087e+02  2.21243e+02  5.29164e+02 -4.52180e+02  1.05404e+02  4.16174e+01 
 6.44155e+01  2.45998e+00  1.48939e+02 -8.11186e+01  1.34405e+02 -2.05680e+00 
 4.43514e+02  5.92720e+02  3.17899e+02 -7.79067e+01  4.31748e+02  4.23245e+01 
 7.91295e+02  7.09407e+01  1.88130e+02 -1.23582e+02  4.74413e+02 -1.50741e+01 
 7.54891e+02  3.01889e+02  5.11802e+01 -4.19004e+02  1.12886e+02 -1.06229e+01 
 6.51556e+01  1.73495e+02  5.14941e+00 -1.30276e+02  7.77709e+01 -1.12290e+01 
 1.29057e+02  3.83546e+02  2.58003e+02 -1.16188e+02  2.62389e+02 -6.24180e+00 
 1.76888e+02  2.35010e+02  6.00233e+01 -1.48208e+02  2.05708e+02 -1.88175e+01 
 9.50122e+01  2.87143e+02  3.74613e+02 -2.53478e+02  1.01596e+02 -1.42192e+01 
 7.06609e+02  2.63578e+02  7.04998e+01 -4.30146e+02  2.68492e+02 -6.73086e+01 
 1.87470e+02  4.22865e+01  2.07496e+02 -1.88704e+02  1.44819e+02 -1.92946e+01 
 6.18454e+02 -3.13054e+01  1.04891e+02 -3.14656e+02  4.47554e+02 -8.20199e+01 
 1.93711e+02  2.24129e+02  2.00099e+02 -4.06215e+02  4.05698e+02 -5.33857e+01 
 3.54243e+02  2.18996e+02  1.13367e+02 -3.54758e+02  4.10343e+02 -5.99845e+01 
 3.61517e+02  1.55113e+02  1.97039e+02 -4.04245e+02  3.55769e+02 -6.48525e+01 
 5.57249e+02  2.19958e+02  1.51590e+02 -4.23885e+02  4.42683e+02 -1.00511e+02 
 2.25546e+02  1.63485e+02  2.50905e+02 -4.46512e+02  1.96125e+02 -2.14313e+01 
 1.89828e+02  2.62114e+02  1.58093e+02 -1.89733e+02  4.39567e+02 -1.99406e+01 
 4.47432e+02  2.66985e+02 -3.58079e-01 -4.18955e+02  1.03879e+02 -1.51812e+01 
 1.76931e+02  2.09954e+02  1.55854e+00 -1.75399e+02  9.05800e+01 -7.42678e+00 
-1.56746e+01  4.63491e+02  2.59289e+01 -5.57672e+01 -7.44292e+01 -9.09820e+00 
 5.13734e+02  4.16210e+01  2.54456e+02 -1.06076e+02  4.26140e+02 -1.41526e+01 
 2.66036e+03  4.26193e+02  3.86802e+02 -3.79747e+02  3.00757e+02 -2.89096e+01 
 6.42475e+01  2.26910e+01  4.30678e+02  6.50958e+01  6.03768e+01 -7.33059e+00 
-3.11224e+03  6.14898e+02  6.53745e+02  5.28159e+02 -1.46365e+03  7.94851e+01 
-3.79930e+03  1.10341e+03  6.50460e+02  1.50373e+03 -6.23309e+02  6.66440e+01 
 1.88337e+02  1.83391e+00  1.84455e+02 -9.59218e+01  1.80815e+02 -3.29939e+00 
 4.58672e+02  2.84571e+02  3.43015e+01 -4.01538e+02  2.60514e+02 -5.48823e+01 
 8.19363e+02  4.72810e+02  4.78144e+02 -3.88663e+02  7.88865e+02 -6.98150e+01 
 9.29832e+02  4.56197e+02  4.96297e+02 -8.95460e+02  4.60060e+02 -7.81552e+01 
 2.73477e+02  2.56599e+02  3.99809e+01 -1.87063e+02  2.36577e+02 -2.20530e+01 
-1.04322e+02  9.01161e+01  5.55926e+02 -1.37858e+01  8.43279e+01 -1.03507e+01 
-7.24198e+01  4.11229e+01  2.40151e+02 -4.03308e+01 -1.22146e+01  3.62395e+00 
 1.50354e+02  5.70229e+02  8.79521e+01 -6.74439e+01  4.85798e+01 -4.46710e+00 
 1.84701e+03  1.75446e+02  1.89966e+02 -2.04650e+02  6.54001e+02 -2.65503e+01 
 4.28780e+02 -2.37210e+01  2.05914e+02 -2.82829e+02  4.07369e+02 -7.00472e+01 
 1.73122e+03  1.80388e+02  7.42644e+01 -8.68281e+02  1.48100e+02  1.06537e+01 
-6.13269e+01  2.59772e+02  4.04532e+01  2.19348e+00  4.37590e+01  3.86945e+00 
 2.62062e+02  1.44270e+01  2.20735e+02 -2.39527e+02  1.92997e+02 -2.71777e+01 
 2.55620e+02  1.98673e+02  1.78907e+02 -4.54407e+02  4.59992e+02 -6.14473e+01 
 9.35689e+01  6.52441e+01  2.91207e+02 -1.28392e+02 -3.24331e+01  1.49267e+01 
 6.32281e+01  3.14832e+02  7.30073e+01  5.69955e+00  1.12740e+02  1.08752e+01 
 1.06969e+03 -1.89551e+02 -2.86860e+02 -6.24994e+02  4.84514e+02 -8.23667e+01 
 4.21003e+02  2.90710e+02  2.73555e+02 -7.91448e+02  3.41467e+02 -3.32432e+01 
 8.08634e+02  2.32908e+02  4.52472e+02 -3.86830e+02 -4.23876e+00 -2.77536e+01 
 4.12262e+02  2.60878e+02  1.24645e+02 -4.26205e+02  4.74326e+02 -8.50231e+01 
 9.05248e+01  5.67865e+00  1.82551e+02 -7.59248e+01  8.73274e+00  1.74434e+00 
 1.22775e+03  1.21169e+02  3.29109e+02 -1.48610e+02  6.93382e+02 -1.55162e+01 
 2.37502e+02  2.60911e+02  1.22016e+02 -2.19791e+02  4.69683e+02 -2.52104e+01 
 1.13368e+02  5.48112e+02  3.40528e+02 -3.85574e+01  2.71448e+02 -2.48013e+01 
 4.29582e+02  1.86511e+02  2.50130e+02 -4.67093e+02  4.31336e+02 -9.29976e+01 
 3.21391e+01  1.83474e+02 -5.76826e+00  1.41400e+01  7.26282e+01  7.18848e+00 
 1.17966e+03  5.05558e+02  7.58096e+01 -5.93594e+02  1.61724e+02 -1.58462e+01 
 4.65767e+02  2.85274e+02  2.37791e+02 -4.00787e+02  8.52540e+02 -6.54632e+01 
 2.43546e+02  1.46925e+02  2.50746e+02 -4.76634e+02  2.28575e+02 -3.39073e+01 
 1.55781e+02  2.19891e+02  3.89147e+02 -2.12486e+02 -3.02371e+01  1.18984e+01 
 1.60004e+02  4.18284e+01  2.40440e+02 -2.01917e+02 -8.94465e+00  3.49677e+00 
-3.95119e+01  3.77446e+02  1.86606e+02  1.89722e+01  2.11603e+02  2.01121e+01 
 8.73859e+02 -5.37936e+01  1.89997e+02 -4.55578e+02  6.13518e+02 -1.31269e+02 
 1.80600e+02  2.44118e+02  4.97455e+01  5.80640e+00  2.28990e+02  7.59159e+00 
 9.96759e+02  4.01393e+02  1.15552e+02 -5.83206e+02  3.61785e+02 -1.09469e+02 
 2.92657e+02  3.15043e+02  5.80510e+00 -2.31235e+02  1.03903e+02 -8.98271e+00 
 3.15105e+02  1.87039e+01  2.94873e+02 -9.94769e+01  2.49128e+02 -2.63570e+00 
 1.68240e+04  2.61588e+03  3.60029e+03 -7.21231e+03  7.49693e+03 -7.93752e+02 
 3.35223e+02  3.26288e+02  3.16330e+01 -2.37883e+02  2.74175e+02 -3.00417e+01 
 4.08557e+02  1.51084e+02  2.88970e+02 -4.58343e+02  3.95416e+00  3.20859e+00 
-3.30315e+02  8.67853e+02  7.17412e+02 -5.09962e+01  1.42420e+02 -6.42871e+01 
 6.97950e+02  3.03323e+02  2.16731e+02 -5.29434e+02  5.62765e+02 -1.54936e+02 
 3.13742e+02  6.37802e+00  2.97622e+02 -2.84218e+02  2.48807e+02 -4.25942e+01 
 1.89986e+02  2.78683e+02  1.36645e+02  1.81514e+01  4.21249e+02  1.44420e+01 
 2.65713e+02  2.19844e+02  2.00997e+02 -5.04743e+02  5.10960e+02 -8.70733e+01 
 4.92914e+02  2.29438e+02  2.55563e+02 -8.30406e+02  3.68796e+02 -4.56453e+01 
 7.40338e+02  7.38412e+01  4.19368e+02 -1.16281e+02  5.86920e+02 -1.35668e+01 
 1.66708e+02 -5.87288e+00  2.08800e+02 -9.09827e+01  5.84980e+00  2.29646e+00 
-1.00402e+03  1.24724e+03  8.72227e+02 -8.60330e+02 -1.28448e+03 -5.30459e+01 
 5.09450e+02  2.69862e+02  1.92791e+02 -3.94667e+02  8.54226e+02 -4.46378e+01 
-1.81306e+03  1.57750e+03  1.77257e+03  1.46327e+03  1.07123e+03 -1.08093e+02 
 1.31191e+02  2.14310e+02 -5.14322e+00  1.46166e+01  8.66625e+01  4.35942e+00 
 6.46078e+02  4.08561e+02 -6.08339e+00 -5.72078e+02  1.28012e+02 -2.08422e+01 
-8.61204e+02  3.62892e+02  3.88245e+02 -7.17727e+02 -3.37288e+02  9.89024e+01 
 5.37238e+02 -4.46878e+01  3.13123e+02 -3.68914e+02  5.38371e+02 -1.09498e+02 
 5.73979e+02  3.93033e+02  4.45407e+01 -5.21664e+02  3.19754e+02 -8.33429e+01 
 2.28480e+02  1.89012e+01  2.55832e+02 -2.51300e+02 -4.49240e+00  7.69483e-01 
 2.33684e+02  2.56404e+02  2.46984e+01  1.01924e+01  2.48191e+02  2.83373e+00 
 7.39866e+02  4.76992e+02  4.22617e+02  1.27666e+02  8.62932e+02  6.94681e+01 
 2.56613e+02  3.03466e+02  1.24378e+02 -2.62515e+02  5.19608e+02 -4.28767e+01 
 4.66460e+03  7.83351e+02  7.27880e+02 -6.01705e+02  5.36901e+02 -5.22636e+01 
 1.11841e+02  3.10803e+01  3.71356e+02  3.81446e+01 -9.92809e+00 -7.99680e-01 
 2.30523e+01  4.12029e+02  4.09951e+01  1.73965e+01 -4.65792e+01  4.57735e+00 
 2.71447e+02  1.65501e+02  3.04891e+02 -5.21884e+02  2.71554e+02 -5.43416e+01 
 5.22278e+02  2.15622e+02  2.85125e+02 -5.18259e+02  5.25720e+02 -5.32429e+01 
-4.45375e+01  1.02262e+02  4.80985e+02 -3.53395e+01 -1.66521e+00 -6.15832e+00 
-4.50883e+01  2.43309e+02  4.19138e+01  8.73843e+01  4.99008e+01  8.09544e+00 
-3.92927e+01  3.62137e+01  2.04191e+02 -4.07009e+01 -1.02516e+02  1.79987e+01 
 2.92158e+03  2.79168e+02  3.02629e+02 -2.76909e+02  1.09060e+03 -4.03957e+01 
 1.30896e+02  5.07613e+02  1.10565e+02  2.85506e+01  6.29472e+01  3.40389e+00 
 2.81356e+03  3.10874e+02  1.32206e+02 -1.49892e+03  2.24928e+02  2.38759e+01 
-1.44712e+03  2.42760e+02  2.45235e+02 -5.70279e+02 -1.84595e+02  1.56809e+01 
 3.63318e+02  1.23850e+02  2.77423e+02 -4.90756e+02  1.12275e+01  1.94133e+00 
 1.49243e+03 -3.46222e+02 -4.91820e+02 -1.00143e+03  7.81720e+02 -1.57538e+02 
-2.30913e+01  6.95015e+01  2.78001e+02 -1.15053e+02 -1.15592e+02  1.41894e+01 
 5.90414e+01  2.81792e+02  7.20316e+01  9.80990e+01  1.12523e+02  1.63276e+01 
 4.40035e+02  3.31418e+02  1.64465e+02 -5.08215e+02  5.44966e+02 -1.28539e+02 
 4.39825e+02  2.78231e+02  1.03444e+02 -1.10381e+01  4.96225e+02  3.60200e+00 
 4.60128e+02  2.38191e+02  3.38729e+02 -5.32127e+02  5.17942e+02 -1.39100e+02 
-1.07901e+03  2.08793e+02  1.92380e+02  2.78130e+02  4.79684e+02  9.81257e+01 
 2.55197e+01  5.73716e+02  3.80907e+02  8.07092e+01  1.26419e+02  1.10642e+01 
 1.77628e+03  1.94573e+02  5.56953e+02 -1.70505e+02  1.02754e+03 -1.68166e+01 
 1.62182e+02  1.50332e+01  1.76716e+02 -7.61967e+01 -1.39261e+02  1.31794e+01 
 1.94263e+02  3.24445e+02  4.92751e+02 -1.80790e+02 -1.30297e+02  1.37116e+00 
 4.69381e+01  1.82618e+02  1.12871e-01  1.43564e+02  6.81997e+01  4.91055e+00 
 1.72148e+03  8.16205e+02  9.89953e+01 -8.41430e+02  2.45046e+02 -3.25640e+01 
 7.49648e+02  2.03018e+02  3.26989e+02 -3.56004e+02 -1.20742e+02 -2.07717e+00 
 4.26099e+02  2.79063e+02  2.11281e+02 -4.03531e+02  8.69714e+02 -5.89737e+01 
 4.31682e+02  2.46702e+02  2.92089e+02 -8.67956e+02  4.08729e+02 -7.22110e+01 
 4.31780e+01  3.35707e+02  2.06341e+02  1.13273e+02  2.71716e+02  2.41412e+01 
 2.57367e+02  2.98558e+00  3.19791e+02 -9.59616e+01  1.43059e+01  3.37445e+00 
 1.50085e+04  4.08633e+02  8.89254e+02 -1.54204e+04 -5.00502e+03  8.09231e+02 
 1.86686e+02  2.39749e+02  5.36487e+01  1.45942e+02  2.24855e+02  1.72991e+01 
 2.82435e+02  2.02475e+02  2.82477e+02 -7.61958e+02  7.86984e+02 -5.69355e+01 
 1.92965e+04  4.65786e+03  4.68265e+03  4.38096e+03  1.67720e+04  6.21919e+02 
 4.21360e+02  3.65936e+01  4.56368e+02 -1.07764e+02  3.32284e+02 -1.16674e+00 
 1.15291e+03 -6.78034e+01  3.60440e+02 -6.44964e+02  8.24200e+02 -2.23018e+02 
 6.94516e+01  4.14701e+01  2.31728e+02 -1.97767e+02 -1.52162e+02  1.88019e+01 
 3.98528e+02  4.66950e+02  1.25545e+01 -3.00769e+02  1.16394e+02 -1.45324e+01 
 1.33527e+03  5.94323e+02  1.94578e+02 -7.83475e+02  4.87033e+02 -1.85501e+02 
 2.30437e+02  3.18920e+02  4.04301e+00  1.26760e+01  1.00597e+02  1.79958e+00 
 7.56611e+03 -2.15182e+02 -9.01163e+02 -2.64362e+03  7.75370e+02 -4.94074e+02 
 3.64565e+02  4.31425e+02  3.86584e+01 -2.97173e+02  3.09974e+02 -4.54498e+01 
 2.57397e+02  1.76598e+01  3.34830e+02 -2.87364e+02  7.82637e-01 -3.85796e+00 
 7.83966e+02 -1.52760e+03 -9.94019e+00 -3.34438e+02  1.49847e+03 -4.89492e+02 
 3.37090e+02  3.59665e+00  4.19819e+02 -3.37606e+02  3.15719e+02 -6.79375e+01 
 2.67311e+02  3.27179e+02  1.33205e+01  9.26734e+00  2.80533e+02  1.27591e+00 
-1.12637e+03  1.42979e+02  1.68354e+02 -6.50151e+02 -2.31181e+02  1.95182e+01 
 2.39752e+02  2.61655e+02  2.50216e+02 -5.50637e+02  5.60470e+02 -1.30400e+02 
-1.58663e+03  1.70198e+02  1.83933e+02  2.86875e+02  5.21767e+02  5.54754e+01 
 3.21738e+02  1.80833e+02  1.34643e+02  1.68407e+02  4.64080e+02  6.64420e+00 
 8.48059e+02  1.67311e+02  2.98449e+02 -4.84262e+02 -1.65266e+02  1.61720e+01 
 8.12814e+02  3.97812e+02  3.07100e+02 -6.50887e+02  7.07578e+02 -2.37587e+02 
 1.39825e+03  1.39589e+03  1.03322e+03  4.56692e+02  1.12688e+03  1.13874e+02 
 8.45956e+02  5.83922e+02 -2.12423e+01 -7.72158e+02  1.65846e+02 -3.32765e+01 
 2.44485e+02  3.73626e+02  1.56312e+02 -3.03447e+02  5.62722e+02 -6.93418e+01 
 1.76436e+02  2.12875e+02  3.88727e+00  1.93230e+02  8.47862e+01  5.17409e+00 
 2.33343e+02 -2.96529e-02  2.11118e+02 -8.76652e+01 -1.84607e+02  6.84501e+00 
 9.61732e+02  1.16668e+02  6.54023e+02 -1.21223e+02  7.95595e+02 -1.15998e+01 
 3.41756e+02  1.35008e+02  3.27069e+02 -5.31568e+02  1.59281e+01  4.45677e-01 
 1.38726e+04  5.71840e+02  5.31350e+02 -1.15587e+03  3.22452e+03 -4.05780e+02 
 1.60403e+03  1.01873e+03  1.41874e+03 -1.03578e+03 -3.83029e+02  8.15604e+01 
 1.13683e+04  1.49631e+02 -2.14472e+02 -1.98454e+03  1.70559e+02 -1.25678e+02 
 4.22463e+02  3.12405e+02  9.73255e+01 -1.18561e+01  5.33743e+02  3.13570e+00 
 2.49849e+02  2.01657e+02  3.88641e+02 -5.61308e+02  3.16191e+02 -8.32071e+01 
-1.72887e+03  6.52880e+02  8.88674e+02 -3.19797e+02  1.26159e+02  4.83953e+01 
 6.52353e+02  5.15150e+02  6.27643e+01 -6.60010e+02  3.88585e+02 -1.28452e+02 
 5.89552e+02 -7.11977e+01  4.57550e+02 -4.67464e+02  6.88351e+02 -1.70095e+02 
 1.65164e+02  2.50826e+01  2.56861e+02 -2.44233e+02 -1.94240e+02  1.93936e+01 
 1.70496e+02  2.48904e+02  2.23741e+01  1.94601e+02  2.30492e+02  2.31336e+01 
 6.21968e+02  6.95090e+02  4.88101e+02  1.29838e+02  6.68355e+02  4.42327e+01 
 2.27978e+02  1.93886e+02  2.32143e+02 -8.15352e+02  8.37669e+02 -5.69441e+01 
-2.12408e+03  3.10368e+02  2.49086e+02 -5.24028e+02 -7.99490e+01  8.42456e+01 
 9.31700e+02  2.19543e+02  9.31829e+01  1.95666e+02  6.02200e+02  1.21533e+01 
 8.13960e+03  1.45958e+03  1.39648e+03 -9.62889e+02  9.95778e+02 -1.07758e+02 
-1.03595e+03  7.39350e+02  3.02859e+02 -8.33617e+01  3.27871e+02  5.72502e+01 
 5.64865e+01  1.15673e+01  2.37610e+02  3.43453e+01 -4.55558e+01 -5.94307e+00 
 3.70725e+01  2.85491e+02  2.98448e+01  5.13560e+01 -3.12734e+01  1.31976e-01 
 7.75076e+02  1.42994e+02  2.90128e+02 -5.25276e+02 -1.90513e+02  2.22846e+01 
 4.10063e+02  3.92569e+02  2.09284e+02 -5.87100e+02  6.13612e+02 -1.86686e+02 
 4.31737e+02  2.79494e+02  4.36872e+02 -5.90263e+02  6.00305e+02 -1.97475e+02 
-1.69355e+01  2.28966e+01  1.55853e+02 -2.11534e+01 -1.43686e+02  2.53453e+01 
 1.01318e+04  4.09610e+02  2.75289e+02 -1.64371e+03  2.21277e+02 -1.05160e+02 
 7.59637e+01  5.28532e+01  2.98960e+02 -2.57328e+01 -3.31874e+01 -2.25427e+01 
-2.96521e+01  1.83150e+02  2.61347e+01  1.53523e+02  3.63300e+01  2.48594e+01 
 3.18623e+02  1.05713e+01  4.72511e+02 -1.05668e+02  1.96914e+01  4.58459e+00 
 6.88663e+04  2.75589e+04  2.71385e+04  3.80552e+03 -4.76682e+03 -9.05743e+02 
-9.39632e+02  1.41073e+02  1.71038e+02 -6.76430e+02 -2.51592e+02  1.33932e+01 
 6.46943e+01  3.25062e+02  6.59917e+01  4.96244e+01  2.81022e+01 -8.60736e+00 
 3.47984e+02  2.77883e+02  3.36275e+02 -8.85839e+02  4.31457e+02 -1.03069e+02 
 4.37336e+03  4.27194e+02  8.40440e+01 -2.66948e+03  3.26906e+02  4.47645e+01 
 3.55310e+02  3.21921e+02  2.67547e+02 -4.27714e+02  8.98256e+02 -8.92742e+01 
 4.34532e+03  3.48264e+02  3.98379e+02 -3.36001e+02  1.88506e+03 -6.19468e+01 
 1.05017e+04  2.63982e+01 -3.26216e+02 -3.90502e+02  1.97440e+03 -1.33357e+02 
 3.04168e+02  4.64937e+02  1.37035e+01  1.18063e+01  1.09575e+02 -1.17251e+00 
-1.17488e+03  2.33226e+02  2.23210e+02  2.50608e+02  6.45960e+02  2.45165e+01 
 2.87188e+01  2.04758e+02  4.13247e+01  1.62365e+02  7.69364e+01  3.05234e+01 
-9.63038e+01  4.39382e+01  2.04795e+02 -6.85558e+01 -1.69442e+02  3.24702e+01 
 2.10975e+03 -6.80410e+02 -9.06339e+02 -1.67291e+03  1.33104e+03 -2.91218e+02 
 5.22492e+04  9.98141e+02  1.61423e+03 -3.79220e+03  5.96689e+03  8.98796e+02 
 2.72938e+02  4.30233e+02  1.51984e+01  6.98217e+00  3.08391e+02 -2.97588e-01 
 2.51744e+02  2.45184e+01  4.47884e+02 -3.24326e+02  3.99456e+00 -1.14057e+01 
 4.83899e+02  6.37824e+02  1.74547e+01 -3.84384e+02  1.38475e+02 -2.31954e+01 
 3.31368e+02  3.14218e+02  1.85862e+01  2.46436e+02  1.05617e+02  4.96340e+00 
-1.20034e+03  3.25675e+03  2.79000e+03  9.32464e+02  2.17906e+03  1.13357e+02 
 3.35335e+02  6.87336e-01  3.17488e+02 -9.53824e+01 -2.35270e+02  7.31681e+00 
-7.05023e+02  2.11309e+03  2.69284e+03 -1.89016e+03 -9.13422e+02  1.08705e+02 
 4.89079e+02  5.74559e+01  6.52111e+02 -1.18975e+02  4.20097e+02  1.08948e+00 
 1.32530e+03 -6.76535e+02 -3.15369e+03 -1.73413e+03 -2.92345e+03  6.46802e+02 
 3.49254e+02  5.31920e+02  5.15604e+01 -3.61346e+02  3.48987e+02 -6.79234e+01 
 1.69570e+02  2.06685e+01  1.46432e+02 -5.88453e+01 -2.21119e+02  1.50417e+01 
-3.13474e+01  2.17201e+02  3.98556e+02 -1.07193e+02 -6.36151e+01 -3.31135e+01 
 8.33670e+01  1.39320e+02 -9.46902e-01  2.43117e+02  6.22404e+01  2.08272e+01 
 1.46375e+02  4.23898e+02  2.38819e+02  9.36645e+01  1.38794e+02 -2.17339e+01 
 2.32788e+03  1.27966e+03  1.31487e+02 -1.16081e+03  3.64785e+02 -7.30808e+01 
-2.23328e+03 -1.88550e+03  4.13114e+02  1.68748e+03  6.67751e+02  5.24257e+02 
 2.33041e+03  2.37771e+02  8.81721e+02 -1.86944e+02  1.50900e+03 -3.41314e+00 
 2.96570e+02 -5.87194e+00  5.48601e+02 -3.92159e+02  3.76708e+02 -1.01727e+02 
 2.32646e+02  3.18713e+01  3.36095e+02 -2.83310e+02 -2.41777e+02  2.47131e+01 
 1.74400e+02  3.05369e+02  7.65465e+00  2.45282e+02  2.63266e+02  2.94203e+01 
 1.83680e+02  1.98338e+02  4.33262e+01  2.44189e+02  1.76300e+02  3.88786e+01 
 1.66069e+01  2.29631e+02  1.51106e+02  2.31850e+02  2.07843e+02  5.52371e+01 
 1.55624e+02  2.82826e+02  2.87946e+02 -5.82452e+02  6.00220e+02 -1.78301e+02 
-2.61899e+03  3.84625e+02  3.47177e+02  4.59504e+01  2.86652e+02  5.48529e+01 
 1.64396e+03 -5.39848e+01  7.81139e+02 -9.32221e+02  1.08115e+03 -3.68715e+02 
 1.58378e+03  8.14359e+02  3.08020e+02 -9.98148e+02  6.07464e+02 -3.10575e+02 
 3.88587e+02  1.22857e+02  1.90411e+02 -2.60061e+02 -3.25141e+02  3.45937e+01 
-1.86938e+03  1.88099e+02  2.05793e+02 -6.34559e+02 -1.31165e+02  4.39836e+01 
 6.31663e+01  3.99080e+01  1.93311e+02 -1.65438e+02 -2.42671e+02  3.32304e+01 
 3.70600e+04  1.75184e+03 -5.74907e+02 -1.09871e+03 -1.13548e+03  5.59555e+02 
 2.70101e+02  1.60293e+02  3.96328e+02 -5.59459e+02  1.53005e+01 -2.20736e+00 
 3.52593e+02  3.76078e+02  1.21229e+02 -1.43756e+01  5.61494e+02  2.07575e+00 
 6.93965e+02  1.60384e+02  3.48782e+02 -5.65844e+02 -2.19400e+02  3.35778e+01 
 4.35828e+03 -5.50189e+01  2.00023e+02 -1.54759e+03 -1.43779e+03 -1.04719e+02 
 1.72247e+02  4.19660e+02  1.84966e+02 -3.36424e+02  5.95309e+02 -1.03365e+02 
 4.98566e+03 -1.21654e+03  4.18089e+02  2.88021e+03  2.28670e+03  3.79521e+02 
 9.56283e+02  2.73863e+02  7.05760e+01  2.29462e+02  6.02002e+02  3.34982e+01 
 1.64239e+02  2.14308e+02  4.51115e+02 -5.86543e+02  3.47562e+02 -1.12575e+02 
 8.71997e+03  4.89843e+02  4.26237e+02 -1.62117e+03  3.85698e+02 -8.08810e+01 
 2.03760e+02  1.20218e+02  1.54954e+02  3.68176e+02  3.55984e+02  6.55501e+01 
 7.99321e+02  4.56323e+02  3.77609e+02 -7.39647e+02  8.36652e+02 -3.41966e+02 
 2.47416e+02  2.50817e+02  2.85853e+02 -8.48088e+02  8.51248e+02 -7.65480e+01 
 5.85972e+02  1.60107e+02  2.37771e+02 -3.49220e+02 -3.47386e+02  3.84523e+01 
 9.04037e+03  1.18244e+02  4.62301e+00 -4.68488e+02  1.73908e+03 -7.42884e+01 
 2.78740e+02  1.67690e+02  1.06114e+01  3.30065e+02  8.75610e+01  1.48179e+01 
 1.94351e+02  4.96128e+02  3.38816e+02 -2.13836e+02 -1.50745e+02  1.62849e+01 
 2.97996e+02  6.66441e+00  1.75534e+02 -7.54216e+01 -3.11618e+02  9.30116e+00 
 3.68314e+01  4.23784e+02  5.77179e+02  9.81817e+01  1.75724e+02  2.45098e+01 
 1.09458e+03  1.50014e+02  9.41896e+02 -1.26250e+02  1.02089e+03 -5.79834e+00 
 1.04081e+03  7.60946e+02 -5.05027e+01 -1.00143e+03  2.19494e+02 -5.20966e+01 
 2.64239e+02  4.46341e+02  5.52805e+02 -2.66234e+02 -2.75241e+02  4.32556e+01 
 6.59926e+01  3.94482e+02  3.01541e+02  2.91428e+02  2.64852e+02  5.65240e+01 
 2.16560e+02  2.14417e+02  1.42822e+01  3.09834e+02  2.02250e+02  4.26872e+01 
 5.95488e+02 -9.54204e+01  6.37449e+02 -5.48955e+02  8.07068e+02 -2.57810e+02 
-7.57106e+02  1.52799e+02  1.92753e+02 -6.87956e+02 -2.50976e+02  7.77687e+00 
 3.06051e+04  1.30523e+03  1.41445e+03 -3.87980e+02 -2.46577e+02 -2.65508e+02 
 6.78913e+02  6.08910e+02  9.79695e+01 -7.84172e+02  4.46712e+02 -1.84637e+02 
 2.08015e+02  3.05392e+01  2.23520e+02 -2.23239e+02 -3.21149e+02  4.07933e+01 
-9.91250e+02  2.62568e+02  2.38130e+02  2.58134e+02  6.86038e+02  1.60200e+01 
 4.29138e+03  9.96632e+01  6.42949e+01 -1.22332e+03 -1.14246e+03  6.34646e+01 
-5.50114e+03  7.04107e+03  3.09335e+02  7.75426e+03  2.42758e+03 -2.01016e+02 
 3.46539e+02  1.86221e+01  6.36120e+02 -1.22348e+02  1.58067e+01  4.94968e+00 
 2.19379e+02  3.25817e+02  2.88344e+02 -4.31815e+02  8.98696e+02 -1.21829e+02 
 3.40416e+02  6.20785e+02  2.06449e+01  4.77660e+00  1.25876e+02 -4.33713e+00 
 4.15920e+02 -5.53502e-01  4.65139e+02 -1.08519e+02 -3.03772e+02  1.05175e+01 
-1.57873e+03  1.67576e+02  1.72311e+02 -6.93177e+02 -1.77550e+02  5.56751e+01 
-5.58401e+03  4.05847e+02  7.72604e+03 -2.49424e+03 -7.70179e+03 -1.88421e+02 
 4.38434e+02  4.62724e+02  3.51393e+01  3.17430e+02  1.12788e+02  5.57238e+00 
 2.10710e+02  2.77226e+02  3.46585e+02 -8.72529e+02  4.35028e+02 -1.27673e+02 
 3.97438e+03 -1.13876e+03 -1.06507e+03  1.67831e+03  1.56390e+03  1.61617e+02 
-1.85763e+03  3.87450e+02  4.42734e+02  1.06942e+02  6.25852e+02  5.84895e+01 
 2.38304e+02  3.30763e+02  3.19240e+02 -4.72822e+02 -4.58310e+02  5.77760e+01 
 6.24450e+02  1.14142e+02  1.18226e+02  4.51749e+02  4.74605e+02  6.54489e+01 
 6.61025e+02  5.24790e+02  2.21247e+02  3.89299e+02  5.03317e+02  4.29026e+00 
 1.96861e+04 -2.60933e+03 -1.63606e+03 -8.31481e+02 -9.02799e+03  5.76489e+02 
 2.24310e+02  5.21262e+02  1.74549e+01  1.95759e+00  3.36847e+02 -1.23122e+00 
 3.14956e+02  3.90458e+02  2.34376e+02 -6.27675e+02  6.37269e+02 -2.39783e+02 
 1.43651e+04 -1.09421e+03 -2.84923e+03  7.90162e+03  1.39694e+03  4.18765e+02 
 1.91817e+02  2.80992e+01  5.46093e+02 -3.55497e+02  8.73767e-01 -2.36246e+01 
 3.29656e+02  2.68726e+02  4.97971e+02 -6.00063e+02  6.35224e+02 -2.40967e+02 
 2.26845e+02  4.06700e+02  2.41055e+00  3.01521e+02  3.04990e+02  4.05587e+01 
 6.11776e+02  1.47097e+02  2.29307e+02 -4.11595e+02 -4.11239e+02  5.83365e+01 
 2.69397e+02  5.01547e+01  4.47504e+02 -3.22296e+02 -2.98629e+02  3.49001e+01 
 1.46255e+04  2.96920e+03  2.92174e+03 -1.57721e+03  1.97245e+03 -2.56649e+02 
-4.17497e-01 -1.99036e+01  9.06596e+01  3.58895e+01 -3.76473e+01 -1.22580e+01 
 6.98440e+00  9.44533e+01 -1.50435e+01  8.05878e+01 -2.79875e+01 -3.21061e+00 
 9.77422e+03 -3.50577e+03 -3.51729e+03  3.66394e+03 -1.00687e+03 -1.86533e+02 
 4.69602e+02  9.74890e+02  6.97523e+02  1.12934e+03  3.26670e+02  1.38192e+02 
 1.48564e+02  1.62994e+02  4.32696e+02 -5.70193e+02  7.74288e+00 -4.55877e+00 
 1.12945e+03  6.19878e+02  8.66937e+02 -3.51814e+02 -1.26474e+03  1.32770e+02 
 5.34659e+02  7.67527e+02  1.56554e+01 -4.58096e+02  1.62401e+02 -3.31755e+01 
 4.72498e+02  6.44591e-01  2.70822e+02 -8.91780e+01 -4.22091e+02  7.62450e+00 
 2.30617e+02  4.12606e+02  1.40899e+02 -1.07600e+01  5.79254e+02 -3.16069e+00 
 5.44558e+02  2.70966e+02  3.45179e+01  4.34896e+02  1.18319e+02  1.39988e+01 
 6.21099e+03  8.25974e+02  6.62856e+02 -4.75369e+03  2.04999e+02 -1.60988e+01 
 2.48167e+01  1.16515e+02  2.67986e+01  7.38642e+01  2.91304e+01 -4.99263e+00 
 7.97013e+02  3.50305e+02  1.10125e+02  2.66125e+02  6.06506e+02  5.49081e+01 
 5.89774e+03  6.24743e+02  4.76213e+02  1.95499e+01  3.33139e+03 -2.01614e+02 
 4.85189e+02  7.07077e+01  8.05736e+02 -1.34380e+02  4.78268e+02  1.49683e+00 
 1.08535e+04  6.27096e+02  1.08557e+03  3.07596e+02 -1.39254e+03 -2.37581e+02 
 5.52021e+01  2.11892e+01  1.12128e+02 -2.26244e+01 -5.70953e+01 -1.74795e+01 
 2.99306e+01  1.20632e+02  3.17728e+01  1.50150e+02  3.31034e+01  1.87783e+01 
 5.64476e+02  1.87846e+02  4.18198e+02 -5.97507e+02 -2.58800e+02  5.51422e+01 
 1.05990e+01  2.76759e+01  9.65681e+01 -8.23619e+00 -1.27182e+02  2.38235e+01 
-2.71271e+03  6.75749e+02  1.07579e+03  1.56789e+01 -6.95752e+01  2.07746e+01 
 2.81038e+02  5.58264e+02  6.41402e+01 -4.07734e+02  3.70749e+02 -9.17301e+01 
 7.09570e+03  5.35446e+02  4.78027e+02 -1.58422e+03  4.36206e+02 -5.92343e+01 
 2.48843e+02  2.59660e+02  1.33853e+00  3.98601e+02  2.47283e+02  5.61272e+01 
-3.70091e+02  8.64929e+02  5.75033e+02  4.47729e+02  2.35656e+02  4.49722e+01 
 4.58431e+01  1.06503e+02  2.71209e+01  1.55424e+02  6.17842e+01  2.32349e+01 
 1.84713e+02 -2.33040e+01  5.83985e+02 -4.13162e+02  3.71813e+02 -1.31382e+02 
 2.49478e+04  7.23219e+02  7.48623e+02 -1.98261e+02 -6.60244e+01 -5.97150e+01 
 7.30908e+03  1.91306e+02  1.60126e+02 -4.67640e+02  1.64490e+03 -6.15095e+01 
 3.49168e+02  4.49146e+01  3.05985e+02 -2.79053e+02 -4.17364e+02  5.84974e+01 
 4.41765e+01  3.19816e+01  1.23126e+02 -5.72170e+01 -1.31745e+02  2.13117e+01 
 1.29669e+03 -1.77733e+03 -2.09863e+03 -2.54003e+03  1.98363e+03 -6.12340e+02 
 1.85852e+02  3.05919e+02  1.86644e+02  3.84296e+02  4.23807e+02  2.42066e+01 
 2.13987e+02  2.56024e+02  2.57440e+02 -5.42094e+02 -5.44471e+02  5.91294e+01 
 2.23107e+01  2.25809e+02  2.56521e+02 -5.76111e+02  5.91400e+02 -1.97192e+02 
 5.88795e+01  1.57744e+02  1.50116e+02 -5.64702e+01 -6.17552e+01 -3.06852e+01 
 4.03661e+03  2.88030e+02  2.79038e+02 -1.10177e+03 -1.05023e+03  6.97473e+01 
 2.41589e+02  2.94433e+02  3.14075e+02 -8.31727e+02  8.21845e+02 -9.55837e+01 
 2.58642e+03  4.44303e+02  1.39244e+03 -8.50874e+01  1.95256e+03  1.18224e+02 
 3.97388e+03 -2.55224e+02 -2.36376e+02  1.27973e+03  1.20298e+03  8.45022e+01 
 4.27339e+01  1.51100e+02  1.66242e+02  7.10736e+01  7.31208e+01 -1.20811e+01 
 1.57319e+02  1.01242e+02  1.04243e+01  2.48452e+02  6.40967e+01  1.81835e+01 
 3.24624e+03  2.03563e+03  2.06243e+02 -1.50161e+03  5.90205e+02 -1.63987e+02 
 1.88495e+02  2.46502e+01  1.11578e+02 -4.53366e+01 -1.98436e+02  1.47930e+01 
-6.74362e+01  1.33885e+02  1.32016e+02 -1.28106e+02 -1.54999e+02  2.89482e+01 
 7.89248e+02  2.05067e+02  9.21516e+01  4.86684e+02  5.09757e+02  8.49934e+01 
-2.18845e+03  1.08873e+03  8.42285e+02 -4.47373e+02 -2.12199e+02 -8.51236e+01 
 5.94585e+01  3.77092e+02  1.77845e+02 -3.50806e+02  5.90725e+02 -1.32216e+02 
 2.96648e+01  1.47880e+02  4.08662e+02 -5.69573e+02  3.38585e+02 -1.19629e+02 
 2.34589e+02  3.45771e+01  1.34970e+02 -1.51343e+02 -2.31506e+02  4.06032e+01 
 1.43803e+03 -1.76350e+02  1.28401e+03 -1.18933e+03  1.21117e+03 -4.92513e+02 
 6.16413e+02  1.70831e+02  2.80827e+02 -4.72021e+02 -4.79173e+02  8.51745e+01 
 1.89571e+03  1.09725e+03  6.42415e+02 -1.17767e+03  6.73390e+02 -4.61451e+02 
 5.72568e+01  1.27807e+02  1.32135e+02  1.79444e+02  1.46471e+02  3.67167e+01 
 2.03044e+02  9.97638e+01  1.79993e+01  2.47230e+02  1.51799e+02  3.96233e+01 
-1.97216e+03  2.94582e+02  2.35792e+02 -8.72255e+01 -5.86776e+02  8.87661e+01 
 1.08021e+04 -3.17703e+02  3.35080e+02  2.15091e+03 -3.50124e+02 -1.67300e+02 
 1.06654e+04  4.00246e+02  4.01869e+02  2.08152e+02 -1.59093e+03 -7.97643e+01 
-8.48290e+02  2.42862e+02  2.25999e+02  2.63254e+02  6.85692e+02  1.25438e+01 
-6.23743e+02  1.46125e+02  2.01146e+02 -6.74719e+02 -2.32471e+02  2.73356e+00 
-1.65954e+03  3.10119e+02  3.33251e+02  1.86981e+02  7.03249e+02  8.18255e+01 
-1.24780e+03  1.89359e+02  1.94653e+02 -7.24729e+02 -2.06147e+02  7.21753e+01 
 1.89449e+02  1.63683e+02  1.61887e+02 -2.53344e+02 -2.49670e+02  6.01912e+01 
 4.97559e+02  6.37509e+02  5.56300e+01  3.94482e+02  1.25288e+02  5.61176e+00 
-3.14850e+03  7.37397e+03  7.55282e+03  3.17594e+03 -3.32745e+03 -1.09296e+03 
 4.78710e+02 -1.89946e+00  6.28322e+02 -1.32227e+02 -3.88839e+02  1.53557e+01 
 5.08040e+02  3.29644e+02  3.17581e+02 -6.97400e+02  7.67718e+02 -3.95737e+02 
 1.59355e+02  1.06387e+02  1.34232e+02  2.70127e+02  2.69096e+02  6.22534e+01 
 4.18049e+02  2.52428e+01  1.70397e+02 -6.21982e+01 -3.08289e+02  1.14642e+01 
 2.58140e+02  6.83613e+01  5.46057e+02 -3.54861e+02 -3.56832e+02  4.88878e+01 
-1.60055e+02  1.90532e+03  2.07810e+03  5.49855e+03 -5.42823e+03 -6.65506e+02 
 4.15986e+02  1.31970e+02  3.13275e+01  3.63920e+02  9.21650e+01  2.02314e+01 
 2.16215e+02  5.11796e+02 -7.98972e+00  3.61152e+02  3.41496e+02  5.85140e+01 
 1.02489e+03  1.58980e+02  1.11790e+03 -9.45690e+01  1.07191e+03  6.42539e+00 
 8.26217e+01  2.45813e+02  4.18398e+02  1.24282e+02  1.53953e+02 -2.30439e+01 
 1.08472e+03  8.09035e+02 -1.34801e+02 -1.15719e+03  2.65023e+02 -6.93380e+01 
-9.83896e+01  3.91435e+02  2.47824e+02 -1.18687e+02 -9.46338e+01 -4.05636e+01 
 1.11626e+03  9.31025e+02  5.33900e+02  3.54317e+02 -2.43241e+02 -1.19755e+01 
 6.53454e+02 -1.20252e+01  4.09922e+02 -1.11051e+02 -5.73337e+02  9.95531e+00 
 1.92087e+02  2.59965e+02  2.62076e+02 -5.96904e+02 -5.99274e+02  8.57656e+01 
-1.93888e+03  8.98157e+02  7.06464e+02  2.95046e+02  9.42361e+01  4.27917e+01 
 5.24779e+01  2.29242e+02  2.19279e+02 -4.16508e+02  8.50799e+02 -1.33940e+02 
 4.19058e+02  3.45027e+02  3.68900e+02  5.49487e+02  5.70493e+02  6.76348e+01 
 3.36355e+02  7.14592e+02  2.18518e+01 -9.54164e+00  1.41675e+02 -6.61409e+00 
 7.64603e+02  4.24870e+02  6.04837e+01  5.76350e+02  1.29104e+02  1.87201e+01 
 5.62890e+01  1.62642e+02  2.52433e+02  2.45599e+02  1.88586e+02  4.29852e+01 
 8.52845e+02  6.41204e+02  1.01111e+03  2.10396e+02 -3.16907e+02 -2.43076e+00 
-1.90513e+03  1.91168e+02  2.23123e+02 -1.23521e+02 -6.59583e+02  4.27617e+01 
 4.30988e+02  3.98177e+01  1.73739e+02 -2.22109e+02 -3.34697e+02  5.40463e+01 
 3.77178e+02  9.99214e+01 -1.35232e+01  3.47629e+02  2.15830e+02  4.97848e+01 
 2.73643e+02 -1.97501e+02  6.04346e+02 -5.63568e+02  8.73708e+02 -3.56617e+02 
 3.35769e+01  1.73128e+02  2.43641e+02 -8.22241e+02  4.00621e+02 -1.15111e+02 
 3.32135e+02  1.92645e+01  7.24378e+02 -1.43222e+02  6.73239e-01  3.95390e+00 
 4.56684e+02  2.31302e+02  1.45681e+02 -2.87655e+02 -2.96613e+02  2.84501e+01 
 5.44978e+02  5.32155e+02  1.17719e+02 -7.84912e+02  4.36703e+02 -2.23262e+02 
-2.12988e+03  3.69817e+02 -7.64840e+01 -1.96485e+02  9.73715e+02  7.38507e+00 
-5.94057e+02 -4.08132e+01  4.55511e+02 -8.32596e+02 -1.64249e+00  3.04608e+00 
 1.27513e+02  5.22066e+02  1.75793e+01 -1.61665e+01  3.44615e+02  7.95399e-01 
 3.80258e+02  3.48294e+02 -1.58833e+01  5.12513e+02  3.18995e+02  8.30040e+01 
 1.00914e+02  2.58461e+01  5.42190e+02 -3.50148e+02 -1.95061e+01 -4.04454e+01 
 1.97838e+04  5.69392e+02  5.72731e+02 -9.02759e+01 -7.79288e-01 -3.29642e+00 
 4.78166e+02  7.46967e+01  4.30027e+02 -3.40285e+02 -5.36169e+02  8.92170e+01 
 6.24769e+02  4.24371e+02  1.48640e+02  3.11565e+02  6.30591e+02  7.50729e+01 
 3.93546e+02  1.90250e+02  4.50267e+02 -6.14141e+02 -2.93658e+02  8.38616e+01 
 9.27414e+01  7.13681e+02  6.91474e+02  1.40057e+01  3.27513e+02 -1.23335e+02 
 5.42960e+03  5.05125e+02  4.54319e+02 -1.48198e+03  4.20221e+02 -4.39924e+01 
 3.41482e+03  3.87443e+02  3.82241e+02 -1.04054e+03 -1.01106e+03  1.03052e+02 
 5.59161e+03  1.88917e+02  1.92211e+02 -4.45017e+02  1.54283e+03 -5.62366e+01 
 3.39997e+02  1.83341e+02  1.83085e+02 -3.37998e+02 -3.37628e+02  8.26642e+01 
 8.94508e+03  4.71045e+02  5.59152e+02  3.75036e+02 -1.58015e+03 -6.85391e+01 
 2.46281e+02  9.76304e+01  1.35568e+02  3.43687e+02  3.32133e+02  7.82831e+01 
 3.44690e+03  2.85523e+01  7.13708e+01  1.11554e+03  1.09300e+03  9.19388e+01 
 8.91299e+03 -1.26227e+02  1.31151e+01  1.82945e+03 -3.81032e+02 -8.65839e+01 
 3.87173e+02  3.33220e+01  1.98279e+02  4.19189e+02  3.79853e+02  8.11647e+01 
 6.23573e+01  5.01378e+01  2.76548e+02 -4.79402e+02  4.61878e+02 -1.69235e+02 
 5.75013e+02  2.31362e+02  1.72610e+02 -3.63555e+02 -3.40522e+02  4.76793e+01 
 8.40509e+01  1.60254e+02  1.39721e+02 -5.30788e+02  5.44228e+02 -2.31731e+02 
-1.12197e+03  1.21845e+02  1.82330e+02 -1.89008e+02 -9.00443e+02  4.65468e+01 
-1.52377e+03  6.37269e+02  6.72272e+02 -4.00141e+02  7.12871e+02  6.96047e+01 
 7.55633e+00  9.91449e+01  3.55123e+02 -5.38401e+02 -1.27261e+01 -5.74360e+00 
 7.12073e+02  2.86272e+02  1.33139e+02  5.42851e+02  5.26999e+02  1.21145e+02 
 8.48878e+01  3.59560e+02  1.29879e+02 -2.52177e+01  5.56767e+02 -1.17219e+01 
 5.72089e+02  2.01386e+02  3.48827e+02 -5.36082e+02 -5.58350e+02  1.29205e+02 
 7.43429e+02  3.16717e+01  2.93746e+02 -8.28290e+01 -4.40767e+02  1.03150e+01 
 4.49206e+02  8.02307e+01  7.52633e+02 -1.26335e+02  4.31756e+02 -1.89611e+00 
 1.02689e+02  3.00305e+02  6.60644e+02  5.76611e+01  8.48525e+01 -1.40664e+01 
 5.41364e+02  7.28480e+02  4.86308e+00 -4.57710e+02  1.73745e+02 -3.48752e+01 
 7.78366e+02  2.17474e+02  6.36672e+01  5.11702e+02  1.26674e+02  2.28760e+01 
-1.49261e+02  6.44567e+02  3.10167e+02 -6.76039e+01 -2.09149e+01 -2.93333e+01 
-1.58531e+03  1.71794e+02  1.69522e+02 -1.73229e+02 -7.08396e+02  5.72812e+01 
 3.17389e+02  1.45983e+02  4.25137e+01  8.35393e+02 -8.25962e+02 -4.36594e+01 
 1.85465e+02  2.49097e+02  2.29416e+02 -7.67455e+02  7.34727e+02 -8.70973e+01 
-1.97365e+03  3.81546e+02  3.01120e+02  5.68400e+02  1.21168e+02  6.40006e+01 
-1.36679e+03  2.97977e+02  3.14686e+02  2.33424e+02  7.34756e+02  1.03143e+02 
 7.55904e+01  6.54270e+01  1.31059e+01  2.18024e+01  1.22788e+00 -8.63520e+00 
 3.07117e+04  5.53800e+03  5.35864e+03 -4.41450e+03  5.46324e+03 -3.72532e+02 
-9.65774e+02  1.96456e+02  2.06373e+02 -7.28205e+02 -2.16813e+02  9.50278e+01 
 6.70837e+00 -1.05599e+01  8.34740e+01  2.19519e+01 -2.98122e+01 -6.08138e+00 
 2.93334e+01  2.23356e+02  3.07421e+02  3.46227e+02  6.77574e+01  2.84606e+01 
-1.94811e+01 -9.14866e+01  2.97059e+02 -3.76894e+02  3.20229e+02 -1.27711e+02 
 6.68767e+02  7.11237e+01  2.64961e+02 -3.04511e+02 -4.65813e+02  8.18019e+01 
 1.31182e+02  3.64650e+02  5.01115e+01 -3.43007e+02  3.28679e+02 -9.45775e+01 
 5.51768e+02  1.12488e+02 -4.26221e+01  4.77937e+02  2.91577e+02  6.90515e+01 
 7.64079e+02  3.21003e+02  2.26416e+02 -8.13187e+01 -4.40307e+02  7.16773e+00 
 5.00123e+01  3.55162e+01  2.88832e+01  2.04498e+01  3.10062e+01 -1.65688e+01 
 3.09106e+01  9.65362e+00  3.56275e+01 -1.18451e+00 -8.09459e+01  1.64529e+01 
 8.35293e+01  6.84942e+01  3.83503e+01  8.01594e+01  3.70051e+01  8.76794e+00 
 1.13684e+04  2.88421e+03 -2.00464e+03 -8.97185e+03  1.31182e+02 -3.11393e+02 
 6.55396e+02 -6.49671e+01  9.52600e+01  5.47168e+02  4.72753e+02  8.03731e+01 
 6.19399e+02  2.33202e+02  1.48153e+02 -4.17069e+02 -4.09234e+02  6.25734e+01 
 8.40184e+03 -6.83617e+02  2.57246e+03  2.02823e+02  6.58235e+03 -2.68339e+02 
-1.85122e+02 -5.54790e+01 -5.43192e+00 -4.68255e+02  4.95796e+02 -1.16210e+02 
 3.52050e+01  4.26273e+01  6.87765e+01 -1.90944e+01 -1.92278e+01 -1.34882e+01 
-1.21035e+03  4.04108e+02  3.70516e+02  6.37249e+02  9.78637e+01  4.45001e+01 
 9.07242e+01  5.37207e+01  4.32404e+01  6.95888e+01  5.34288e+01  9.25443e+00 
-1.23212e+03  1.75689e+02  1.88602e+02 -2.26248e+02 -6.32261e+02  9.13498e+00 
 2.94889e+02  3.03327e+02  3.06807e+02  6.17225e+02  6.36974e+02  1.15463e+02 
-7.39850e+02  1.52200e+02  1.51752e+02  2.38879e+02  6.36808e+02  9.92831e+00 
 1.60295e+02  2.87656e+02  2.87389e+02 -6.40505e+02 -6.44491e+02  1.29713e+02 
-5.30266e+02  8.91551e+01  1.76269e+02 -6.28030e+02 -2.14306e+02 -1.08984e+01 
 6.14257e+03  1.44551e+03  2.37020e+03 -3.52658e+03  3.52242e+03 -1.48040e+03 
 7.87828e+01  7.80211e+00  6.26108e+00 -5.06879e+01 -6.02056e+01  1.36085e+01 
 5.03763e+02  2.47973e+02  2.48015e+02 -4.34031e+02 -4.34135e+02  1.18652e+02 
-1.28073e+02 -9.88807e+01  9.16382e+01 -4.76170e+02  2.47122e+02 -5.55538e+01 
 7.70628e+02  9.54668e+01  1.46498e+02  8.01526e+02  1.84710e+02  4.17472e+01 
-1.41413e+02  7.37718e+01  1.45211e+01 -2.56099e+02  5.04433e+02 -1.18491e+02 
 8.36147e+02  3.20772e+02  2.26184e+02 -1.78024e+02 -4.48984e+02  1.37127e+01 
 4.01512e+02  1.25662e+02  1.49549e+02  4.45439e+02  4.32301e+02  1.02818e+02 
 2.20293e+02 -1.35554e+00  2.39801e+01 -3.12007e+01 -1.74624e+02  1.36357e+01 
 9.46292e+02  6.26903e+02  1.02749e+02  7.58528e+02  1.40844e+02  2.66207e+01 
 5.97287e+01  4.34901e+01  1.42497e+02  1.72089e+01  7.20447e+01 -2.05155e+01 
 8.36060e+02 -3.16569e+01  5.81648e+02 -1.49868e+02 -7.70870e+02  1.65097e+01 
 7.57280e+01  1.26711e+02  5.35875e+01 -5.10411e+01 -1.53256e+01 -2.89200e+01 
 7.31976e+02  7.05792e+01  1.60721e+02 -2.09358e+02  4.67149e+00  1.59371e+01 
 7.08434e+02  1.64555e+02  4.23745e+01 -5.08121e+00  2.54403e+02  1.46046e+01 
 2.41595e+02  7.91814e+01  3.15166e+01  1.59503e+02  7.31335e+01  1.53441e+01 
 2.90695e+03  2.18473e+03 -7.32538e+02 -1.54087e+03  7.12987e+02  1.07907e-01 
 4.95938e+02  7.74124e+02  7.15432e+01  4.52453e+02  1.39776e+02  5.56576e+00 
 5.04157e+02 -1.16414e+01  7.34707e+02 -1.65589e+02 -4.63200e+02  2.14700e+01 
 1.93378e+03  4.51898e+02  1.25582e+03 -2.12428e+02  1.48352e+03  2.89097e+02 
 5.65352e+02  1.07518e+02  5.63517e+02 -3.97756e+02 -6.64986e+02  1.33666e+02 
 1.49008e+04  3.97398e+02  3.96383e+02 -3.39463e+01  3.59563e+00  4.46636e+01 
 2.77972e+02  7.95656e+01  5.68883e+01  1.40173e+02  1.52272e+02  3.28133e+01 
 4.83566e+01  1.19497e+02  3.39532e+01 -1.04061e+02 -6.28818e+01  1.82103e+01 
 4.63035e+02  4.69939e+02 -3.93121e+01  6.37717e+02  3.86856e+02  1.25518e+02 
 8.38050e+01  5.45920e+01  1.18951e+02  7.23000e+01  1.11765e+02  1.99125e+01 
 2.09375e+02  8.64183e+01  5.65788e+02 -3.47570e+02 -3.96170e+02  5.89194e+01 
 1.41749e+03 -5.73389e+02 -2.62868e+02 -5.75235e+02  3.49375e+02  7.93651e+01 
 7.26126e+03  7.35743e+01  1.43437e+02  1.68619e+03 -4.36539e+02 -6.14762e+01 
 1.32465e+02  5.46935e+02 -1.21608e+01  3.53266e+02  3.59505e+02  8.02493e+01 
 1.45221e+03 -2.36902e+02 -6.26513e+02 -2.60533e+02  4.71876e+02  7.79930e+01 
 7.15756e+03  4.86675e+02  5.54238e+02  4.26272e+02 -1.56617e+03 -4.46678e+01 
 1.78330e+03  1.26496e+03  1.33175e+03 -9.56071e+02  5.57892e+02 -7.57694e+02 
 5.77850e+02 -6.48893e+02  1.26588e+02 -7.28965e+02 -4.83510e+02  7.14358e+01 
 2.70343e+02 -1.48748e+01 -1.60906e+01 -1.38954e+02 -1.40893e+02  2.96598e+01 
 2.68026e+03  4.17573e+02  4.13598e+02 -9.80515e+02 -9.67111e+02  1.28301e+02 
 2.70429e+03  1.44186e+02  1.68179e+02  1.03017e+03  1.01363e+03  1.14116e+02 
 2.40336e+02  2.34733e+02  2.25543e+02  8.49283e+02 -8.28614e+02 -5.61690e+01 
 6.56496e+02  3.99849e+02  1.99168e+02  6.16185e+02  5.82890e+02  1.67326e+02 
 2.14591e+02  8.01827e+01  1.20997e+02  1.34755e+02  2.37555e+02  4.16298e+01 
 2.41623e+02  1.40453e+02  3.70699e+01 -2.28860e+02 -1.51485e+02  3.96633e+01 
 2.06839e+02  1.24763e+02  3.72498e+02 -5.89852e+02 -3.06022e+02  1.06706e+02 
 3.84820e+02  4.23964e+02  1.41930e+02  2.51829e+02  6.08786e+02  7.37684e+01 
 8.07184e+02  2.93754e+02  1.49628e+02 -1.92604e+02 -5.33729e+02  2.78323e+01 
 6.20803e+02  2.82615e+02  1.73186e+02 -4.83486e+02 -4.72919e+02  8.79632e+01 
 3.81256e+02  2.55045e+02  2.91699e+02  7.73084e+02 -3.06535e+02 -4.34847e+01 
 4.76756e+02  2.11840e+02  4.01838e+02 -5.94259e+02 -6.30243e+02  1.82560e+02 
 3.23701e+02 -1.50942e+02  1.75154e+01 -1.87451e+02  4.95065e+02 -1.06913e+02 
 1.15915e+03  3.38198e+01  4.93071e+02 -1.18093e+02 -6.27695e+02  1.34324e+01 
 5.64197e+02  3.74046e+02  4.89566e+02  4.83849e+02 -1.15644e+03 -5.25374e+01 
 9.26166e+02 -1.06169e+02  9.74098e+01  7.02691e+02  1.70193e+02  2.68840e+01 
-4.30752e+01  6.22717e+02  2.46572e+02 -6.67352e+01 -3.18058e+01 -1.44401e+01 
 6.84911e+01  2.35596e+02  6.53143e+02  4.84480e+01  7.76619e+01 -4.42348e+00 
 2.97306e+02  5.93735e+02  5.95521e+00 -2.48372e+01  1.40409e+02 -6.43482e+00 
 3.17571e+02  1.97007e+01  5.90008e+02 -1.51413e+02 -3.11369e+01  5.08230e+00 
-1.79651e+02 -9.75149e+01 -8.58311e+01 -3.17719e+02  7.49538e+02 -7.98945e+01 
 1.19099e+03  3.62803e+02  1.07446e+02  7.18644e+02  1.54376e+02  3.09480e+01 
 6.82066e+02  1.75256e+00  1.57127e+02  5.09421e+02  4.90093e+02  7.91640e+01 
-2.17218e+02 -1.79084e+02 -1.36950e+02 -7.50108e+02  3.61181e+02 -1.27784e+01 
-9.46996e+02  1.68448e+02  1.35028e+02 -2.53317e+02 -6.89596e+02  1.46284e+01 
 8.25828e+01  5.98012e+01  3.40493e+02  1.57404e+01  9.27982e+01 -3.71607e+01 
 5.31536e+02 -6.02647e+00  4.39868e+01 -4.54033e+01 -3.07284e+02  7.12367e+00 
 3.88125e+03  3.33896e+02  3.06395e+02 -1.29352e+03  3.36033e+02 -2.20521e+01 
 5.94714e+02  1.42389e+02  8.17995e+01  2.60375e+02  1.01306e+02  2.23499e+01 
 1.63355e+02  3.12311e+02  5.62172e+01 -7.25093e+01 -2.62565e+01 -4.90048e+01 
-1.21399e+03  2.32727e+02  2.26186e+02  6.07195e+02  2.67001e+02  2.61335e+01 
-1.62403e+03  3.51036e+02  3.41436e+02  6.83176e+02  1.80380e+02  8.22687e+01 
 6.78572e+02  9.01015e+01  5.16456e+02 -2.06612e+01  6.01227e+02  4.23334e+01 
 4.01678e+03  6.74517e+01  6.18322e+01 -3.83518e+02  1.35898e+03 -4.69189e+01 
 8.30285e+02  3.53433e+02 -2.89976e+02 -9.51681e+02  2.72235e+02  4.45625e+01 
-1.23916e+02  3.58572e+02  3.91599e+02  4.57528e+02 -5.03906e+01 -1.70808e+01 
 9.48359e+02  1.29447e+02  4.13217e+02 -4.09873e+02 -6.40638e+02  1.34174e+02 
 7.68685e+02  1.49921e+02 -8.53745e+01  6.59783e+02  3.98379e+02  1.07983e+02 
-3.04602e+01 -2.00973e+01  2.53146e+02 -2.86043e+02 -5.49058e+00 -5.83055e+01 
-1.24380e+03  1.93910e+02  1.88571e+02 -2.02818e+02 -7.36644e+02  7.59273e+01 
-4.07761e+01  2.61608e+02 -1.35828e+01  1.67780e+01  2.95879e+02  2.74275e+00 
 1.00654e+02  4.05913e+02  4.07768e+02  3.05532e+01 -4.65407e+02 -2.52463e+01 
-7.88169e+01  2.06548e+02  4.35941e+01 -1.30403e+02 -6.52016e+01  1.66829e+01 
 6.36112e+01  5.58734e+01  2.23670e+02  8.18564e+01  1.19246e+02  1.39135e+01 
 5.64724e+02  9.99230e+01  6.65204e+01  2.25152e+02  2.33341e+02  4.60108e+01 
 4.08741e+02  1.57006e+02  1.75494e+02 -3.84677e+02  2.34265e+02 -1.24799e+02 
 3.45102e+02 -1.19453e+02  8.31440e+01 -1.50378e+02  8.72702e+01 -1.14745e+02 
 4.93819e+02 -3.80902e+01 -3.93064e+01 -2.29599e+02 -2.31316e+02  4.26899e+01 
 6.52210e+02  3.43160e+02  3.43975e+02 -5.46853e+02 -5.47785e+02  1.78922e+02 
 3.00756e+02  3.08103e+02  3.51949e+02  7.76274e+02 -1.19151e+02 -6.43598e+00 
-1.23690e+02 -1.23167e+02  1.42518e+01 -4.64216e+02 -2.07199e+01 -4.06195e+00 
 5.15946e+02  1.52210e+02  1.91169e+02  5.60421e+02  5.35982e+02  1.51095e+02 
-1.49385e+02  2.05664e+01 -3.76390e+01  2.67545e+01  4.68713e+02 -2.78045e+01 
 3.77861e+02  3.03806e+02  1.67072e+02 -1.32166e+01 -3.70754e+02  5.50979e+00 
 6.37265e+01  1.95680e+02  4.31601e+01 -2.40843e+02 -1.67747e+02  3.58450e+01 
 2.18168e+02  3.42066e+02  3.34768e+02  6.76381e+02  6.89407e+02  1.62299e+02 
 1.39400e+02  9.96064e+01  2.11506e+02  1.31718e+02  2.57647e+02  3.50330e+01 
 5.10699e+02  1.43971e+02  2.16009e+02  8.81441e+02 -4.16216e+02 -4.26744e+01 
 4.25653e+02  1.12844e+02  1.49887e+02  1.99580e+02  3.29803e+02  5.15847e+01 
 8.96998e+01  2.94489e+02  2.92511e+02 -6.63045e+02 -6.68165e+02  1.79261e+02 
 3.60792e+01 -4.23937e+02 -1.70432e+02 -2.13047e+02  2.33267e+02  3.26900e+01 
 4.34127e+02  1.75293e+02  4.00143e+01 -3.33891e+02 -2.23621e+02  5.49056e+01 
 4.62481e+01 -4.03984e+02 -4.27230e+02 -1.60416e+02  1.45687e+02  1.39783e+02 
 4.74893e+02  2.81772e+02  2.63581e+02  3.53766e+02 -7.81647e+02 -5.01443e+01 
-1.12167e+03  2.52329e+02  2.45852e+02  1.87073e+02  6.87309e+02  1.02672e+02 
-7.68230e+02  1.19914e+02  1.65894e+02 -6.94208e+02 -2.11509e+02  1.09535e+02 
 7.02361e+02  3.50066e+02  1.68639e+02 -2.22520e+02 -5.71281e+02  3.80009e+01 
-1.00908e+02 -5.95042e+01 -1.33835e+02 -6.43404e+02  6.60359e+02 -1.70881e+01 
 8.65767e+02  2.35596e+00  2.41958e+02  5.85438e+02  2.51016e+02  3.20611e+01 
 5.51529e+03  1.31643e+02  1.57215e+02  1.58117e+03 -4.35934e+02 -4.80313e+01 
 8.89154e+01  9.07381e+01  5.27091e+02  6.32567e+01  7.82273e+01 -3.22285e+01 
 1.01093e+03 -7.90118e-01  8.86447e+01 -6.39436e+01 -5.17879e+02  3.26864e-01 
 5.40068e+03  4.43689e+02  5.01508e+02  4.24104e+02 -1.48008e+03 -3.00791e+01 
 1.08965e+03  2.36943e+02  1.44751e+02  3.91658e+02  1.46298e+02  3.03940e+01 
 4.27494e+02  1.98578e+02 -2.18552e+01 -3.23114e+02  1.46502e+02 -3.32225e+00 
 2.88673e+02  1.70738e+01  7.78763e+01 -7.18555e+01  2.12430e+02  1.34303e+01 
 2.37420e+02  2.68122e+02  2.45441e+02  8.65137e+02 -8.60368e+02 -6.96489e+01 
 1.78890e+02  4.98401e+02  8.48607e+01 -6.17894e+01 -7.13316e+01 -4.32203e+01 
 4.90066e+01  3.46878e+01  2.84304e+02  1.12222e+02  5.85453e+01  1.37147e+01 
 1.06678e+03  8.66516e+02  1.20296e+02  9.74254e+02  1.52555e+02  2.91612e+01 
 2.29347e+02  3.33871e+02  3.49319e+02  5.82857e+01 -3.84307e+01  5.20221e+01 
 1.36294e+02 -1.78240e+02  4.37428e+01 -1.97593e+02  1.64486e+02 -2.65828e+01 
 1.00337e+03 -6.53416e+01  7.41267e+02 -2.18374e+02 -9.88439e+02  2.84668e+01 
 9.24019e+02  1.22432e+02  7.42221e+01  3.19198e+02  3.45247e+02  6.53736e+01 
 4.39962e+02  3.41701e+01  2.13439e+02  5.16427e+02 -2.11917e+01  4.42414e+00 
-4.83287e+01  2.66630e+02  3.50125e+01 -8.10762e+01 -1.02383e+02  1.23379e+01 
 5.75778e+02  3.51355e+02  2.03869e+02 -5.60769e+02 -5.39415e+02  1.30988e+02 
 6.91904e+02  7.70195e+01  2.62381e+02  5.53244e+02  5.59171e+02  1.13998e+02 
 3.01913e+02 -3.78338e+00 -2.94491e+02 -1.21679e+02 -1.02048e+02 -9.41818e+00 
 3.89275e+02  2.76803e+02  1.31820e+02  1.75419e+01 -5.17516e+02  3.24742e+00 
-7.32831e+02 -1.32316e+02 -1.26133e+02  2.36949e+02  5.54682e+02  4.46192e+00 
-5.26928e+02 -1.55681e+02 -1.06615e+01 -5.86748e+02 -1.51473e+02 -3.10390e+01 
 7.95799e+02 -5.96338e+01 -6.10225e+01 -3.62345e+02 -3.64774e+02  6.84055e+01 
 2.07660e+02  2.25133e+02  3.30532e+01 -3.21396e+02 -2.24752e+02  4.27448e+01 
 6.00636e+02  1.59276e+02  6.72353e+02 -4.08561e+02 -7.65675e+02  1.75662e+02 
 1.75609e+02  1.25298e+02  2.40159e+02  1.50445e+02  3.11946e+02  3.52831e+01 
 5.49823e+02  6.07529e+02 -2.33849e+01  7.13981e+02  4.34686e+02  1.86677e+02 
 1.05821e+04  6.67674e+01  6.56653e+01 -2.13107e+00 -1.58085e+01  7.34447e+01 
 3.09399e+02  2.21300e+02  2.36861e+02  4.16847e+02 -4.41740e+02 -5.93168e+01 
-9.78686e+02  2.32830e+02  2.63378e+02  6.79265e+02  2.50875e+02  1.79695e+01 
-6.35648e+01 -5.57106e+02 -4.89339e+02 -2.69925e+02  2.60179e+02  1.58433e+02 
-7.53389e+02  1.95079e+02  1.55236e+02 -2.52555e+02 -6.98581e+02  1.14320e+01 
-1.18525e+01  5.91014e+02  3.20850e+02  1.96943e+01 -2.02533e+02  3.39960e+01 
 3.88631e+04  2.23153e+04  2.27274e+04 -1.15366e+04  1.48928e+04 -5.34835e+03 
-9.70177e-01  2.91330e+02  6.11420e+02  2.12811e+02 -2.12226e+01  4.14838e+01 
-3.25621e+01 -3.69946e+01 -4.29577e+01 -3.40542e+01 -4.08748e+01 -2.10089e+01 
-2.95899e+01 -3.22935e+01 -3.11094e+01  2.22424e+01  4.26843e+00 -3.54301e+00 
 5.17588e+02 -1.53183e+01  6.56260e+02 -1.98971e+02 -4.74088e+02  2.67968e+01 
 1.66102e+03  5.70240e+02  1.84018e+02  1.02387e+03  1.86021e+02  4.85698e+01 
 4.12241e+02  7.07073e+02  5.99310e+01  4.40416e+02  1.31077e+02  1.03759e+01 
 1.68591e+03  2.43070e+01  8.01543e+02 -1.86292e+02 -8.95359e+02  2.53575e+01 
-9.56399e+02  2.07379e+02  1.93238e+02 -2.16366e+02 -7.36792e+02  1.01143e+02 
-2.80762e+02  4.17315e+02  4.55316e+02  1.70340e+02 -4.64918e+02 -3.23362e+01 
 1.25563e+03  2.10249e+02  6.12741e+02 -5.33662e+02 -8.62829e+02  2.23188e+02 
 4.35170e+02  2.19676e+02  3.00052e+02  8.78365e+02 -4.14280e+02 -5.94379e+01 
 1.95310e+03  3.56855e+02  3.53891e+02 -8.96968e+02 -8.97159e+02  9.91268e+01 
-1.34843e+03  3.21488e+02  3.14131e+02  7.26884e+02  2.20933e+02  1.00262e+02 
 1.43295e+02  6.60130e+01  2.55099e+02  1.23260e+02  1.68830e+02  2.53646e+01 
-2.65615e+02  4.11763e+02  4.33558e+02  4.58438e+02 -1.84416e+02 -2.11124e+01 
-9.49851e+01 -5.21124e+02 -2.87220e+02 -1.37995e+02  2.90667e+02  2.57794e+01 
-1.28727e+01 -3.58971e+01  2.45446e+01 -3.25760e+01  6.12789e+00 -1.63623e+01 
 6.42868e+02  1.12757e+02  1.99943e+02  2.56246e+02  4.58189e+02  6.93102e+01 
 4.80677e+02 -9.38955e+00  4.10577e+03  6.66370e+02  8.16020e+03 -1.47538e+03 
 8.56575e+01  5.46215e+01  3.30067e+02 -2.66214e+02 -3.22346e+02  3.69625e+01 
-2.72077e+01  2.02629e+01 -4.77957e+01  3.14119e+00  2.69562e+01 -5.87308e+00 
 1.35665e+02  5.47978e+01  4.84811e+01 -3.22334e+01 -3.96096e+01  4.53548e+00 
 6.72956e+02  2.65964e+02  7.02750e+01 -4.66433e+02 -3.07101e+02  8.34035e+01 
-1.60860e+02  7.22744e+03 -1.49017e+03 -1.50954e+04 -1.38237e+03 -2.58866e+03 
 2.84472e+01 -4.10717e+01 -5.10027e+01 -9.89309e+00  5.04976e+00 -4.74548e+00 
 7.04941e+01  2.41403e+02  5.83898e+01 -1.49421e+02 -2.01694e+02  1.68570e+01 
 4.48787e+02  2.85224e+02  2.44567e+02  4.12637e+02 -8.84363e+02 -6.67830e+01 
-4.47521e+01 -4.77550e+02 -5.99812e+02 -2.38376e+02  8.96521e+01  1.06536e+02 
 1.93076e+03  8.20221e+01  8.92828e+01  9.15902e+02  8.97487e+02  9.60054e+01 
 1.00440e+03  2.38968e+02 -1.31380e+02  8.94101e+02  5.38882e+02  1.80060e+02 
-9.63345e+01  2.70317e+02 -7.74103e+01  3.58089e+02  3.29570e+02  8.76900e+01 
 3.46416e+02  1.57135e+02  3.90597e+02 -6.19386e+02 -6.58536e+02  2.16539e+02 
 5.87175e+02  4.27204e+02  2.30000e+02  5.94916e+02  5.84001e+02  1.93631e+02 
 7.20071e+01 -1.46742e+01  3.67367e+01  3.01972e+00  7.95110e+01  7.12424e+00 
 1.54669e+02  2.62743e+02  3.38197e+02  4.54166e+02 -4.75382e+02 -6.69934e+01 
 3.92480e+01  3.80737e+01  1.03169e+01 -7.45272e+01 -8.83101e+00  1.84643e+01 
-5.09889e+03 -1.23158e+03 -9.78678e+00 -3.21591e+03  1.92859e+03 -2.06166e+02 
 2.64877e+02  2.49305e+02  1.47806e+02  1.69620e+02 -3.65760e+02 -2.42214e+01 
 7.58309e+02  4.51943e+02  4.52602e+02 -6.65731e+02 -6.67313e+02  2.65594e+02 
-5.82760e+02 -3.28574e+03 -2.76887e+03  1.39487e+03  2.18278e+02  9.82944e+02 
 2.50581e+01  1.33084e+02 -2.57026e+01 -3.21766e+01  2.76859e+01 -1.25493e+01 
 2.47192e+02 -4.34987e+01 -6.63713e+01  4.79140e+01  4.35709e+01 -3.24915e-01 
 7.34183e+02 -1.35377e+02 -1.47894e+03  1.88562e+02  1.29693e+03  2.59207e+02 
 2.58190e+02  3.34379e+01  2.99552e+01 -7.69851e+01 -7.77962e+01  1.70612e-02 
-2.53967e+00 -2.03363e+01  1.53699e+02 -3.61904e+01  4.38921e+01 -2.34215e+01 
 1.02492e+01  5.55152e+01 -4.48653e+01  2.34848e+02  5.28805e+02  2.18154e+01 
 1.45414e+02  2.67152e+02  3.21729e+02  4.77568e+02 -2.33856e+02 -3.15095e+01 
 3.51941e+01 -1.60179e+02 -3.75069e+01 -5.19460e+02 -2.23147e+02  1.10893e+02 
 6.84495e+02  2.57514e+02  3.14199e+02  7.02819e+02  6.60963e+02  2.28375e+02 
 1.22346e+02 -1.57627e+03 -3.33185e+03 -1.15700e+03 -2.83900e+01  1.66042e+03 
 4.65928e+01 -1.89933e+01  1.08906e+02  1.29384e+00  1.32720e+02  1.24340e+01 
 2.62621e+02 -1.72664e+01  3.86339e+01  5.09054e+01  1.62014e+02  1.68317e+01 
-1.63348e+03 -3.23325e+03 -1.55173e+03  7.14753e+02 -7.77202e+02  1.12945e+03 
 2.25137e+02  2.81653e+01 -1.66563e+00 -1.69845e+02 -3.06196e+01  1.66064e+01 
 5.00507e+01  1.11148e+02  2.87090e+01 -1.11111e+02 -1.79244e+01  2.42259e+01 
 2.62754e+03 -2.78693e+02 -3.49551e+02 -2.48552e+02  1.15622e+03 -3.66746e+01 
 5.68459e+02  4.19561e+02  1.89599e+02 -2.61000e+02 -6.04123e+02  5.99851e+01 
 3.90385e+02  6.94221e+01  2.96539e+02  5.25579e+02  2.03643e+00  4.38321e+00 
 2.52719e+03 -1.44456e+02 -1.85849e+02 -1.08845e+03  2.78132e+02  3.42436e+01 
 7.94583e+02  7.23060e+01  3.46968e+02  6.25463e+02  2.59536e+02  5.30244e+01 
 3.42676e+02  3.30066e+02  1.44343e+02  1.61968e+01 -5.37983e+02  1.69426e+00 
 1.60930e+02  2.60567e+02  3.06978e+01 -1.93842e+02 -2.44410e+02  1.98045e+01 
 1.39807e+02  8.88712e+01  2.82652e+02  1.67261e+02  2.12119e+02  1.87294e+01 
 8.62012e+01  6.86767e+01  6.02994e+02  8.71913e+01  2.57572e+01 -1.54614e+01 
-8.16271e+01 -6.61762e+02 -6.07705e+02 -2.92623e+02  5.85881e+02  1.05481e+02 
 1.19369e+02  5.65074e+02  6.54552e+01 -1.17045e+01 -8.95711e+01 -2.68725e+01 
 3.04245e+02  1.22748e+02  3.03778e+02  2.22827e+02  4.14245e+02  4.67656e+01 
 1.72030e+03  5.01323e+00  1.56861e+02 -9.68791e+01 -8.85126e+02 -9.50832e+00 
 2.13948e+02 -1.40197e+01 -2.70617e+01 -4.97330e+01  9.12306e+01 -7.10862e+00 
 1.78850e+03  3.95169e+02  2.37412e+02  5.91691e+02  2.10612e+02  4.76357e+01 
 3.53808e+02  3.08880e+02  4.51755e+01 -4.19765e+02 -2.82254e+02  6.07228e+01 
-2.08787e+02 -8.64387e+02 -8.35814e+02 -6.02665e+02  2.34424e+02  2.28371e+02 
 1.97755e+02 -2.76674e+01 -9.48995e+01 -1.19757e+02 -3.04308e+01  1.76265e+01 
 2.42450e+02  1.77927e+02  1.94107e+02  4.57345e+02 -4.44827e+02 -6.17847e+01 
 1.08381e+02  2.91598e+02  2.80262e+02  6.30560e+02  6.56429e+02  1.83027e+02 
 6.73353e+01  1.43622e+01  3.09427e+02  8.97095e+01 -3.84257e+01  3.86194e+00 
 7.39684e+01  2.84339e+02  2.71018e+01  8.07816e+00 -9.90276e+01  3.61249e+00 
 5.89729e+01 -3.23979e+02 -4.61785e-01 -7.59954e+01  1.36186e+02  7.79341e+00 
 1.34505e+03  1.51093e+02  7.94815e+01  4.41564e+02  5.01210e+02  1.03014e+02 
-1.15081e+01  1.88530e+02  1.83736e+02 -6.49086e+02 -6.54450e+02  2.16447e+02 
 2.48164e+02  5.60892e+01 -3.33585e+02 -8.64312e+01 -1.57938e+02 -5.55279e+01 
 1.18752e+03 -8.85247e+01 -9.11547e+01 -5.75378e+02 -5.78956e+02  1.21607e+02 
-2.99390e+02 -1.76420e+03 -1.59517e+03  2.00394e+01 -6.79617e+01  1.15141e+03 
 2.36399e+02  2.99403e+02  2.90267e+02  8.37198e+02 -8.45846e+02 -8.55314e+01 
 2.21032e+02 -3.49794e+01  8.77220e+01  6.11352e+01  2.35466e+02  2.46668e+01 
 1.96362e+02  1.16760e+02  2.34960e+01 -2.00136e+02 -4.05426e+01  1.68655e+01 
 4.80826e+02  4.06569e+02  2.14336e+02 -6.31238e+02 -6.00146e+02  1.84406e+02 
 2.49302e+02  1.17050e+02  2.57210e+02  4.66115e+02 -2.29116e+02 -2.43196e+01 
 4.67177e+01 -1.92498e+03 -6.95828e+02 -3.46237e+02 -2.27114e+01  3.95933e+02 
 6.76147e+00  5.71211e+00  3.36810e+02 -4.83809e+01  7.90333e+01 -3.83749e+01 
 4.13944e+01 -4.12956e+02 -1.89739e+03  1.27841e+02  4.02318e+02  2.15071e+02 
 3.68653e+01  3.04369e+02  3.62858e+00 -6.59625e+01  4.62071e+01 -2.36687e+01 
 7.02278e+02  8.79197e+01  8.55721e+01 -1.17853e+02 -1.19822e+02 -3.58329e+00 
 6.61126e+02 -1.00341e+01 -5.57798e+01  1.37272e+02  1.11025e+02  9.71923e+00 
-7.49447e+02 -1.33228e+02 -3.96706e+01 -5.98050e+02 -1.50526e+02  7.12015e+01 
 2.41664e+02  2.53342e+02  1.62406e+02  2.42291e+02 -5.09001e+02 -3.74442e+01 
-1.05742e+03 -7.79783e+01 -1.05190e+02  1.55297e+02  6.01141e+02  3.08027e+01 
 6.16692e+02  1.12204e+02  3.42165e+02  6.11316e+02  6.34036e+02  1.60896e+02 
-6.12790e+02  2.04689e+02  1.46889e+02 -2.35453e+02 -6.84760e+02  9.67057e+00 
-8.37202e+02  2.19147e+02  2.47185e+02  6.85855e+02  2.62156e+02  1.26736e+01 
 3.50618e+02  3.30077e+02  2.77608e+02  4.35731e+02 -8.96746e+02 -9.44384e+01 
 2.28630e+02  3.43928e+01  2.48250e+02  1.46162e+02  4.10491e+01  1.32349e+01 
-6.33139e+02 -1.15578e+03 -2.58981e+03 -3.40437e+02  2.15114e+02  7.96352e+02 
 2.38079e+01 -1.54981e+01  1.83867e+02  1.55253e+01  1.47393e+02  1.09038e+01 
 5.17429e+01  1.82852e+02  2.95210e+01 -1.35473e+02 -2.69756e+01  2.95157e+01 
 9.54431e+02  4.14730e+02  1.27332e+02 -6.43188e+02 -4.13670e+02  1.36997e+02 
 3.81519e+03  2.93294e+02  3.20044e+02  3.55751e+02 -1.30433e+03 -1.22244e+01 
 3.92968e+03  2.92080e+01  4.58516e+01  1.40312e+03 -3.94030e+02 -3.52943e+01 
 1.58755e+00 -3.96502e+02 -6.43173e+02 -2.55266e+02 -1.45297e+01 -7.80100e+00 
 5.93358e+02  8.83389e+00  7.37158e+01  1.18479e+02  2.75049e+02  2.96660e+01 
-5.74184e+01 -5.33585e+02 -2.53921e+02 -4.82682e+01  2.65632e+02 -4.06884e+01 
 1.51980e+02  2.52174e+02  6.61057e+01 -5.35238e+00 -2.11922e+02  1.09343e+00 
 3.50208e+02  2.50529e+02  3.13798e+02  9.04179e+02 -4.29884e+02 -8.40155e+01 
-7.29975e+02 -2.52639e+03 -1.13327e+03  2.80898e+02 -2.63404e+02  6.65903e+02 
 8.92668e+02  1.10260e+02  2.81065e+02  3.31068e+02  6.35548e+02  1.03693e+02 
 5.39152e+02  4.80952e+01 -5.35239e+00 -3.05091e+02 -4.55189e+01  8.50687e+00 
 2.35699e+02  3.40100e+02  3.29985e+01 -2.44098e+02 -2.87864e+02  2.64930e+01 
-1.73579e+01  4.33657e+02  2.83547e+02  1.22218e+02 -1.30041e+02  4.04083e+01 
-4.00763e+02 -4.47275e+02 -6.57557e+02 -3.92746e+02  4.10540e+02  1.05178e+02 
 1.61855e+02 -3.76163e+01  1.24285e+02  8.83699e+01  2.26459e+02  2.03881e+01 
 2.25780e+03 -1.84605e+00  1.25263e+03 -2.87987e+02 -1.23667e+03  5.27509e+01 
 2.08377e+02  9.51705e+01  3.45876e+02  2.60709e+02  2.45305e+02  1.79123e+01 
 1.68996e+02  1.51105e+02  1.61880e+01 -2.20619e+02 -4.89204e+01  1.78353e+01 
 9.14216e+02  1.02381e+03  1.03430e+02  1.08655e+03  1.32713e+02  2.93165e+01 
-2.92020e+02 -1.87859e+03 -1.20755e+03  7.04722e-01 -1.36984e+02  7.08294e+02 
 4.73302e+02 -2.63602e+01  1.12299e+02  1.15885e+02  3.59748e+02  3.31089e+01 
-1.03537e+01  2.51739e+02  4.60341e+02  1.46508e+02 -1.25192e+02  4.39690e+01 
-2.70690e+02 -1.29138e+03 -1.90866e+03 -6.80068e+01 -5.46412e+01  8.09145e+02 
 1.05071e+03 -1.18354e+02  7.67537e+02 -3.23184e+02 -1.13923e+03  3.92709e+01 
 4.27013e+02  1.75244e+02  2.63499e+01 -3.06941e+02 -6.24103e+01  1.26476e+01 
 2.16951e+03  8.20987e+02  2.04428e+02  1.48348e+03  2.07190e+02  7.15992e+01 
-7.58742e+02  1.68592e+02  1.15140e+02 -2.13812e+02 -6.99648e+02  1.17823e+02 
 2.68794e+02  1.99484e+02  2.19609e+02  5.18832e+02 -5.19672e+02 -8.49055e+01 
 2.79519e+01  3.37285e+02  2.80785e+02  2.20265e+02 -2.34278e+02 -4.44730e+01 
-1.08479e+03  2.53308e+02  2.62138e+02  6.81080e+02  1.79052e+02  9.87060e+01 
 4.64386e+02  1.53198e+02  5.68797e+02 -3.21566e+02 -7.04178e+02  1.64632e+02 
 1.99003e+00  2.48237e+02  3.53217e+02  2.11640e+02 -2.28722e+02 -3.98507e+01 
 3.39931e+02  8.47310e+01  3.54318e+02  5.68064e+02 -1.46404e+01  4.78975e+00 
 2.34435e+02  4.61977e+02 -1.94357e+02  9.69403e+02  4.07439e+02  2.79765e+02 
 7.01542e+03 -7.32445e+02 -7.38253e+02  4.97306e+01 -2.12826e+00  1.11129e+02 
 1.23421e+03  3.01538e+02 -2.65588e+02  1.18296e+03  6.99816e+02  3.04272e+02 
 1.46953e+03  3.18628e+02  8.40397e+02 -6.08075e+02 -1.08963e+03  3.48725e+02 
 2.72919e+02  3.97380e+02  1.61960e+02  1.48604e+01 -5.67857e+02  1.88559e+00 
 4.85837e+02  4.34838e+02  7.41835e+01 -5.41412e+02 -3.44432e+02  9.21150e+01 
 2.21123e+02  2.63232e+02  2.19138e+01 -3.24180e+00 -2.48014e+02 -1.04740e+00 
 4.24360e+02  9.08163e+01  3.81659e+02  2.79218e+02  5.32302e+02  6.30336e+01 
 2.29390e+02  5.42244e+01  2.64156e+02  2.34513e+02  2.08130e+01  7.98489e-01 
-4.21896e+02 -5.32569e+02 -2.21203e+02 -3.80156e+02 -2.64664e+02 -1.18371e+02 
-4.24683e+02 -5.91430e+02 -5.57362e+02  9.89664e+01  4.22047e+02  1.83114e+01 
-2.42085e+02 -1.83271e+03 -5.41238e+02  2.46594e+02 -9.07598e+01  1.88747e+02 
 2.66432e+02  3.07726e+02  1.70697e+02  2.72936e+02 -5.28284e+02 -5.39313e+01 
 3.95516e+02  4.54209e+02  1.89927e+02 -2.94575e+02 -6.22137e+02  8.99350e+01 
 1.44005e+03  1.80635e+02  1.78201e+02 -1.82388e+02 -1.82209e+02  2.11226e-01 
-1.27960e+02 -4.44619e+02 -1.84533e+03  7.93029e+01  2.06883e+02  3.37547e+01 
-1.19600e+01  4.39087e+02  3.23381e+01 -4.80172e+01  6.88648e+01 -2.79986e+01 
-4.17416e+00  1.96681e+01  4.59303e+02 -6.04785e+01  5.90137e+01 -3.61757e+01 
 1.21848e+03  1.88065e+02  1.84053e+02 -7.71151e+02 -7.83798e+02 -1.10693e+02 
 1.36689e+03  9.05831e+01  8.65235e+00  2.88126e+02  2.23918e+02  2.68086e+01 
 2.47347e+02  1.10870e+02  2.96520e+02  5.20918e+02 -2.72580e+02 -3.95842e+01 
 6.16246e+02  1.06895e+02  4.14969e+02  6.44851e+02  2.96030e+02  7.69434e+01 
 1.14945e+03 -3.01748e+02 -3.05538e+02  8.25408e+02  7.99799e+02 -1.12945e+01 
 2.78370e+03  6.53785e+02  3.83693e+02  9.20874e+02  3.09941e+02  8.58588e+01 
 8.28942e+01  7.64199e+00  5.31708e+02  7.08587e+01 -3.11581e+01  2.53140e+01 
 7.79551e+01  5.00125e+02  2.33180e+01  3.09941e+01 -6.78939e+01  1.66831e+01 
 1.09657e+03  7.11525e+01  1.61170e+02  2.12376e+02  4.27917e+02  4.56772e+01 
-4.02883e+02 -7.48517e+02 -2.27539e+03 -1.31665e+02  2.04171e+02  3.17935e+02 
 3.71781e+02 -2.54363e+01  6.48435e+01 -1.99056e+02 -3.06701e+02  3.71624e+01 
 1.74909e+02 -1.49634e+02  9.28668e+01 -5.55388e+02 -5.43849e+02  1.92470e+02 
-1.75704e+01  2.49181e+00  2.52341e+02  3.65663e+01  8.54138e+01  7.64304e+00 
 3.02289e+02  1.90956e+02  1.51313e+02  2.96279e+02 -3.40789e+02 -5.32776e+01 
 4.73590e+01  2.50188e+02  2.96705e+01 -9.25035e+01 -3.96780e+01  2.39888e+01 
 3.19337e+02  1.52824e+02  4.49583e+01  1.82327e+02  5.59397e+01  1.43647e+00 
-4.73403e+02 -2.15800e+03 -7.34027e+02  2.44598e+02 -9.02543e+01  2.96311e+02 
 1.46524e+02  2.21556e+02  1.24615e+02  8.06336e+02  5.81288e+02  2.00711e+02 
 1.02271e+03  9.44387e+01  1.03750e+00 -5.18044e+02 -6.39919e+01  3.88477e-01 
 7.91723e+02  5.37536e+02  5.36542e+02 -7.45361e+02 -7.47293e+02  3.59418e+02 
 8.08067e+02  2.70928e+02  4.34492e+02  8.30996e+02  7.51100e+02  3.39169e+02 
 2.55646e+02  1.37381e+02  2.23274e+02  3.31964e+02 -2.82124e+02 -5.83502e+01 
 2.79882e+03  1.17596e+01  2.46205e+02 -1.60952e+02 -1.55707e+03 -2.46873e+01 
 1.68319e+03 -1.33803e+02 -1.39876e+02 -9.20470e+02 -9.25582e+02  2.28052e+02 
 7.33892e+01  2.46535e+02  2.27820e+01  1.00697e+02 -6.99845e+01 -5.71945e+00 
 1.87006e+03  1.93974e+02  8.33538e+01  6.24689e+02  7.43734e+02  1.76999e+02 
 3.04270e+02  1.82439e+02  8.67681e+00 -3.07621e+02 -7.38894e+01  1.11214e+01 
 3.49436e+02 -3.91832e+01  1.53449e+02  1.15070e+02  3.26534e+02  2.37452e+01 
 6.30351e+01 -4.58571e+00  2.64748e+02  5.99691e+01 -1.17752e+02  2.63119e+00 
-1.85907e+02 -1.47938e+03 -1.42102e+03 -9.76892e+01  9.26693e+01  5.59474e+02 
 2.88863e+02  1.02673e+02 -2.45133e+02 -8.07585e+01 -2.38600e+02 -6.17574e+01 
 8.14517e+01 -2.75845e+02  1.40846e+00 -2.47610e+01  1.25769e+02  4.82772e+01 
 5.98433e+01 -1.89192e+01  1.72796e+02  8.68121e+01  1.25878e+02  5.43808e+00 
 7.84047e+02  1.52882e+01  2.03798e+02  1.58686e+02  5.07856e+02  3.98042e+01 
-3.92085e+02 -1.92450e+03 -1.12746e+03  6.95789e+01  9.09244e+01  3.33579e+02 
 1.54770e+02  1.91596e+02  1.50356e+01 -1.40518e+02 -5.60872e+01  1.17455e+01 
-3.53199e+02 -1.09252e+03 -1.94923e+03 -1.24513e+02  8.25235e+01  3.70512e+02 
 7.55164e+02  2.99769e+02  3.32131e+01 -4.44574e+02 -8.38675e+01  1.09693e+01 
 2.20359e+02  6.79239e+01  2.31447e+02  1.95695e+02 -1.39221e+02 -7.61012e+00 
 2.20963e+02  2.71114e+02  3.21561e+02  9.07914e+02 -4.37487e+02 -1.13526e+02 
 1.66193e+02  2.29091e+02  6.73778e+01  1.50860e+02 -1.93337e+02 -2.50533e+01 
 1.85596e+02  2.28654e+02  2.48989e+02  7.49408e+02 -7.80860e+02 -7.73873e+01 
 1.15049e+03  1.12420e+02  4.07639e+02  4.06129e+02  8.56165e+02  1.57951e+02 
 1.26425e+03  6.16939e+02  2.06569e+02 -8.68197e+02 -5.38611e+02  2.28076e+02 
 8.75654e+01 -4.76393e+02 -7.12256e+02 -2.82807e+02 -1.04115e+02  1.64561e+01 
 2.09265e+02  3.39787e+02  2.71621e+02  4.43317e+02 -8.83781e+02 -1.15604e+02 
 1.24266e+02 -4.96819e+02 -2.48402e+02 -4.38368e+01  2.79824e+02 -1.08730e+02 
 2.74432e+02  4.53557e+02  5.05375e+01 -3.04422e+02 -3.26755e+02  3.78461e+01 
 3.34041e+02  1.03358e+02  2.10218e+02  4.12102e+02 -3.67201e+02 -6.06845e+01 
 2.78072e+02  6.68839e+01  3.43338e+02  2.88095e+02  6.61366e+00 -8.37038e+00 
 3.45380e+02  2.07981e+02  1.67626e+02  3.68275e+02 -4.22126e+02 -6.93303e+01 
 1.72825e+03 -9.43969e+02 -8.41688e+02 -1.14512e+03  2.30104e+02  1.17127e+02 
 2.55547e+02  3.40897e+02  1.88886e+01  8.36865e-02 -2.92467e+02 -4.38586e+00 
-3.23988e+02 -9.30116e+01 -8.95462e+01  6.07313e+02  5.92909e+02  1.29531e+02 
 1.97183e+03 -8.03497e+02 -1.02704e+03 -2.26873e+02  7.67322e+02  5.07613e+01 
 3.50914e+02  4.00180e+02  1.59000e+02 -6.58518e+02 -6.27563e+02  2.19475e+02 
 2.51629e+02  7.00949e+01  4.28333e+02  2.86675e+02  3.02603e+02  2.02045e+01 
 4.56188e+02  2.90462e+01  3.25995e+02  6.33308e+02  6.48091e+02  2.15264e+02 
-2.02276e+02 -8.34183e+01 -9.22287e+01 -5.47573e+02 -5.52051e+02  1.55105e+02 
-5.19485e+02  1.79817e+02  8.92587e+01 -2.16798e+02 -6.37337e+02 -1.62474e+00 
-7.21856e+02  1.49269e+02  1.62421e+02  6.40546e+02  2.38897e+02  1.38121e+01 
 2.39064e+02  2.47157e+02  2.60350e+02  5.65138e+02 -5.59205e+02 -1.23566e+02 
 2.53768e+03  3.17276e+02  1.72794e+02  5.60044e+02  4.40466e+02  6.21455e+01 
-2.19752e+02 -1.77568e+03 -1.83444e+03 -3.44048e+02  8.84117e+01  3.89008e+02 
 1.50096e+02  4.35625e+02  1.63582e+02  7.50368e+00 -5.78028e+02  2.86538e+00 
-2.18007e+02 -5.07002e+02 -1.90058e+03  3.04039e+01  1.65831e+02 -7.42476e+01 
-2.40144e+01  4.89657e+02  5.67096e+01 -3.41157e+01  7.15031e+01 -1.66983e+01 
 1.93050e+02 -3.11877e+01  1.94385e+02  9.16864e+01  1.88691e+02  9.29297e+00 
-2.22393e+02 -1.80829e+03 -4.33550e+02  1.78584e+02 -8.11735e+01  4.23998e+01 
-1.63527e+01  2.96963e+01  5.06839e+02 -6.58427e+01  4.48223e+01 -1.93929e+01 
-7.51470e+02 -2.14312e+03 -1.99677e+03 -1.69363e+02  6.29688e+02  4.99992e+02 
 2.35060e+02  2.19431e+02  3.07932e+00 -1.80372e+02 -8.58352e+01  8.94953e+00 
 2.65269e+03  3.51606e+02  3.48110e+02 -2.97509e+02 -2.95920e+02  9.94420e+00 
 4.80425e+02  2.78967e+02  2.04720e+00 -4.25970e+02 -9.00679e+01  9.08420e+00 
 2.31631e+02  1.29889e+02  3.54790e+02  5.64993e+02 -3.08026e+02 -6.22101e+01 
 5.22355e+02 -1.07097e+01  2.54957e+02  1.22390e+02  4.38623e+02  2.57322e+01 
 2.46646e+03 -1.82128e+02 -1.57791e+02  3.08630e+02 -1.10799e+03  3.55274e+01 
 2.55499e+03 -3.51270e+02 -2.92096e+02  1.20457e+03 -2.73757e+02 -2.86590e+01 
 2.21905e+02  1.08074e+02  3.97179e+02  5.89091e+02 -1.41161e+01  3.19023e+00 
 2.47954e+02  3.88362e+02  2.01148e+02  3.17096e+02 -5.70374e+02 -7.84301e+01 
 2.52933e+02  2.28171e+02  1.30476e+01  1.97163e+02 -2.37564e+02 -3.13472e+01 
 5.07045e+02  7.59279e+01  4.97253e+02  3.11403e+02  6.68776e+02  8.38289e+01 
 2.70890e+02  7.82649e+01  2.66304e+02  2.50025e+02 -1.92451e+02 -2.27170e+01 
-4.97231e+01  9.56551e+00  2.79827e+02  2.81264e+01  6.89881e+00  5.10378e+00 
 1.80459e+03  1.67209e+02  3.21432e+02  3.52596e+02  6.74060e+02  7.55427e+01 
 5.75743e+02  5.72538e+02  1.06034e+02 -6.73400e+02 -4.02773e+02  1.38353e+02 
-3.72441e+02 -2.05068e+03 -5.68482e+02  2.13554e+02 -3.35057e+01  2.99062e+01 
-3.56666e+02 -5.59528e+02 -2.13466e+03 -8.84794e+00  2.07307e+02 -1.13756e+01 
 1.74123e+03  1.67947e+02  8.80598e+00 -8.88876e+02 -9.69572e+01 -1.10011e+01 
-2.22794e+01  2.68064e+02  3.23908e+01  4.44133e+00 -4.60897e+01  1.52938e+01 
-7.49883e+02 -3.87078e+02 -1.54498e+01 -5.11587e+02 -9.35927e+01 -1.95019e+02 
-6.51958e+02 -4.64828e+02 -5.57243e+02 -2.19946e+01  4.25674e+02 -1.25706e+02 
 2.31634e+03  1.33034e+03  5.43112e+02  1.98299e+03  1.96938e+02  4.43168e+01 
 3.10507e+03 -4.54126e+01  1.95655e+03 -5.59767e+02 -1.62166e+03  1.13395e+02 
 2.19179e+01  1.20358e+02  1.55012e+02  7.09883e+01 -5.31901e+01  1.16777e+01 
 4.22185e+02  2.52894e+02  1.87345e+02  4.37527e+02 -4.75703e+02 -9.32035e+01 
 2.08124e+02  3.83126e+02  1.23331e+02 -3.05239e+02 -5.98928e+02  1.14759e+02 
 8.27845e+01  2.00350e+02  1.10171e+01  5.55772e+00 -5.50764e+01  5.67946e+00 
-5.67682e+00 -2.95675e+01  1.77045e+02  5.18910e+01  1.85837e+00  5.55698e-02 
-1.04730e+03 -1.05055e+02 -8.08144e+01  6.16648e+02  1.52156e+02  3.67358e+01 
 1.16232e+03  7.77610e+01  3.60009e+02  2.19380e+02  7.24267e+02  5.31230e+01 
-3.78540e+02 -9.45980e+02 -1.97827e+03 -1.20549e+02  1.69795e+02  3.44739e+01 
-2.45675e+02 -1.87234e+03 -9.15307e+02  1.22248e+02  1.18031e+02 -5.39298e+01 
-7.43668e+02 -3.42587e+01 -1.38346e+02 -1.52651e+02 -6.01992e+02  8.05358e+01 
 1.17690e+03  5.02386e+02  3.60794e+01 -6.37528e+02 -1.20900e+02  1.38883e+01 
 5.98842e+01  1.02744e+02  1.28723e+02  1.33806e+02 -1.36306e+02 -4.15075e+01 
 5.85188e+02  6.96946e+02 -8.48639e+02  1.47532e+03  8.13683e+02  3.72171e+02 
 4.01165e+02  1.06434e+02  2.48934e+02  4.75367e+02 -4.37261e+02 -8.11130e+01 
 1.60903e+03  4.72793e+02  9.85836e+02 -4.85348e+02 -1.19607e+03  4.43074e+02 
 3.89681e+02  7.77868e+01  3.93667e+02  6.27913e+02  2.77320e+02  1.04219e+02 
 5.49966e+01  3.12407e+02  1.78357e+01  4.93114e+01 -3.13549e+01  4.29256e+01 
 8.91026e+01 -1.96864e+01  3.38930e+02  3.14932e+01 -5.26775e+01  4.85103e+01 
 4.10757e+03  9.98313e+02  4.90655e+02  1.47071e+03  4.34258e+02  1.60007e+02 
 7.52497e+02  7.18558e+02  1.50912e+02  5.25724e+02  2.27472e+01  2.28803e+01 
 8.28811e+02 -1.00106e+02  2.67120e+02 -4.12974e+02 -8.67556e+02  6.27889e+00 
 4.34063e+03 -6.80063e+01  2.97079e+02 -2.72765e+02 -2.79973e+03 -5.92223e+01 
 3.87669e+01  1.75165e+02  2.74954e+01  1.35217e+02 -4.80698e+01 -2.04188e+01 
 2.36756e+03 -2.44705e+02 -2.58370e+02 -1.51024e+03 -1.51586e+03  4.21109e+02 
 4.51789e+03 -1.14877e+03 -1.15773e+03  3.24281e+01 -1.18528e+01 -5.12889e+02 
 5.19334e+02  1.59016e+02  5.33749e+01 -6.85471e+01 -3.68122e+02 -5.92251e+01 
 4.18441e+01  7.91471e+00  1.95269e+02  3.66802e+01 -1.46623e+02 -9.31414e+00 
 2.88184e+02  6.22776e+01  4.38639e+02  3.03807e+02  7.15830e+00 -1.54659e+01 
 2.23348e+03  3.91814e+01 -1.08744e+02  8.79270e+02  1.11859e+03  3.00066e+02 
 2.02238e+02  1.89439e+02  1.13612e+01  1.74749e+02  5.79532e+01  2.31674e+02 
 2.50638e+02  4.54202e+02  2.54361e+01 -8.10251e-01 -3.28039e+02 -1.00570e+01 
 3.36859e+02  3.26810e+02  2.07247e+00 -2.39368e+02 -9.75290e+01  8.84988e+00 
 7.32883e+02  1.05056e+03  1.03061e+03  1.06317e+03  8.38908e+02  4.92919e+02 
-1.48986e+03 -2.78905e+03 -2.66800e+03 -1.40093e+03  1.24505e+03  6.35072e+02 
 2.95582e+02 -1.64448e+01  2.91719e+02  9.84408e+01  2.50573e+02  9.20484e+00 
 2.50632e+02  1.23316e+02  1.59163e+02  2.68151e+02 -2.68185e+02 -6.33080e+01 
 7.67794e+02  5.04921e+02  4.99706e+02 -6.70434e+02 -6.71823e+02  3.91606e+02 
 2.65259e+02  5.55899e+02  6.77631e+01 -3.65283e+02 -3.59344e+02  5.40653e+01 
 3.43350e+02  7.80171e+01  3.32801e+02  2.83212e+02 -2.40856e+02 -3.53686e+01 
 2.43837e+02  5.91568e+01  5.30565e+02  3.01744e+02  3.63834e+02  2.58672e+01 
 7.10761e+02 -1.07592e+03 -1.08964e+03  6.31350e+02  6.20225e+02 -1.38199e+02 
 3.03654e+02  3.03705e+02  5.94751e+00  2.52739e+02 -2.89706e+02 -4.60265e+01 
 9.32258e+02 -1.09959e+03 -1.10694e+03 -7.29664e+02 -7.44634e+02 -2.36971e+02 
 1.81805e+02  1.71054e+02  3.98024e+01  2.29891e+02 -1.58177e+02 -4.30105e+01 
 1.55117e+02  2.81464e+02  2.79422e+02  6.06493e+02 -5.90276e+02 -1.67217e+02 
 3.06764e+01  2.45875e+02  1.69856e+02  4.13722e+02 -8.33698e+02 -1.03849e+02 
 9.99910e+01 -5.91287e+02 -5.53746e+02 -2.66573e+02 -2.74283e+02 -3.39660e+01 
 5.34480e+01  2.07211e+02  2.30043e+02  8.64679e+02 -4.22857e+02 -1.23429e+02 
 1.99286e+02  9.25415e+01  2.08888e+02  1.79387e+02 -2.31868e+02 -3.08224e+01 
-2.67108e+02 -1.42304e+03 -1.44317e+03 -2.08919e+02  7.30990e+00 -9.11682e+01 
 1.58932e+02  2.21124e+02 -4.24250e+00  1.28319e+01 -8.98702e+01  3.44942e+00 
 1.59454e+02 -1.36028e+02 -1.13596e+02  1.66858e+02  1.33829e+02 -3.92160e+01 
 1.08998e+02 -3.95036e+01  1.98255e+02  6.88583e+01  1.28294e+01  1.55437e+00 
-1.20154e+03 -1.36064e+03 -1.51583e+03  4.22948e+02  4.86104e+02 -1.09463e+02 
 1.33058e+03  7.27068e+01  5.83781e+02  4.85609e+02  1.13547e+03  2.49666e+02 
 6.98509e+02  3.26234e+01  4.07518e+02  1.51530e+02  5.82715e+02  3.03323e+01 
 1.48117e+03  8.51872e+02  3.12785e+02 -1.09913e+03 -6.14083e+02  3.57563e+02 
 6.66433e+02  4.22272e+02 -9.40958e+00 -5.83087e+02 -1.13692e+02  1.09001e+01 
-2.20838e+01  4.14313e+02  5.99270e+01  1.51626e+01  4.93533e+01  6.71630e+00 
 4.70954e+03  6.66262e+02  6.60437e+02 -5.13361e+02 -5.09525e+02  3.79673e+01 
-3.01666e+01  2.25516e+01  4.17580e+02 -5.85147e+01 -8.26520e+00  1.49855e+01 
 4.47697e+03  7.38873e+02  5.50912e+02  1.05914e+03  8.91195e+02  1.47208e+02 
-2.72917e+02 -6.81402e+02 -1.99449e+03 -5.85369e+00  1.73135e+02 -1.72545e+02 
-1.75350e+02 -1.86682e+03 -4.19093e+02  1.81398e+02 -8.05959e+01 -7.37955e+01 
 1.64503e+02  4.54563e+02  2.15234e+02  3.47468e+02 -5.93340e+02 -1.03223e+02 
 1.65824e+02  1.59023e+02  4.05809e+02  6.02959e+02 -3.42904e+02 -9.25109e+01 
-9.04434e+01 -1.13229e+02 -5.11659e+01  6.72055e+02 -6.55701e+02 -1.24701e+01 
-4.13078e+02 -2.11041e+03 -5.62092e+02  1.97751e+02  3.94835e-01 -1.91654e+02 
 2.86181e+03  3.43053e+02  6.39456e+02  5.70127e+02  1.10912e+03  1.28620e+02 
-4.46767e+01  2.44893e+02  3.67296e+01  8.38905e+01 -5.52385e+01  1.30420e+00 
-3.59386e+02 -5.85553e+02 -2.20923e+03  1.12123e+02  2.43258e+02 -2.84501e+02 
-3.07935e+01  2.82518e-01  2.42109e+02  6.29287e+00 -7.95994e+01  2.84576e+00 
 3.88836e+02  1.11004e+02  1.61002e+02  3.47011e+02 -3.46631e+02 -7.27163e+01 
 1.37695e+02  1.63999e+02  2.52007e+02  7.13087e+02  7.80756e+02  2.62990e+02 
 2.83781e+03  2.70794e+02  1.97384e+01 -1.56790e+03 -1.61237e+02 -2.87387e+01 
 1.78982e+02  1.12026e+02 -1.49288e+02 -5.43331e+02 -5.64906e+02  1.97241e+02 
 4.50159e+02  3.34972e+02  2.34561e+02  5.25268e+02 -5.42043e+02 -1.33594e+02 
 4.22701e+02  1.38417e+02  3.12894e+02  5.48456e+02 -5.16952e+02 -1.19560e+02 
-5.22157e+02 -5.91111e+00 -1.55603e+02 -1.50953e+02 -5.94739e+02 -2.16291e+01 
 6.58226e+00  3.64044e+02  9.89773e+01 -1.05701e+01 -5.45615e+02  5.27477e+00 
-7.26793e+02 -1.20754e+02 -1.22014e+02  5.67538e+02  2.35749e+02  1.39048e+01 
 7.65047e+01  9.75195e+01  3.48716e+02  5.74768e+02 -1.68306e+01  7.33566e+00 
 6.13420e+02  6.90241e+02  1.57027e+02 -7.78935e+02 -4.14413e+02  1.83797e+02 
 3.06712e+02  1.72329e+02 -1.04417e+00  3.11880e+02 -2.19214e+02 -5.48431e+01 
 3.34516e+02  8.53764e+01  2.23160e+02  2.20306e+02 -3.14337e+02 -4.04729e+01 
-5.36608e+01 -4.23251e+02 -4.62311e+02  2.66289e+02  2.69376e+02 -1.06483e+02 
 4.99875e+02  5.39775e+01  5.85107e+02  3.33329e+02  7.92570e+02  1.14792e+02 
-2.87084e+02 -7.05483e+02 -7.19943e+02 -4.04574e+02 -4.07524e+02 -1.83891e+02 
 1.59557e+03  1.37915e+02  5.69912e+02  2.96597e+02  1.04266e+03  6.54493e+01 
 1.69349e+01 -4.98064e+01  1.49610e+02  2.42754e+01 -1.23635e+02 -1.07217e+01 
-4.25124e+02 -1.03697e+03 -2.04398e+03 -4.81462e+01  2.60570e+02 -2.35807e+02 
-6.06275e+01 -1.97623e+03 -1.00719e+03  1.07449e+02  1.70906e+02 -2.83406e+02 
 6.03662e+01  1.79729e+02  1.41166e+01  1.30640e+02 -6.71017e+01 -3.54722e+00 
 1.71287e+03  8.19036e+02  2.77918e+01 -9.14964e+02 -1.91618e+02  2.62608e+01 
 4.81159e+02 -3.63879e+03 -4.26121e+03 -7.17446e+02  1.75058e+03  3.69800e+02 
 1.95124e+02 -3.08849e+01  2.93456e+02  8.83910e+01  1.19823e+01 -1.11456e+00 
 2.50499e+02  3.31736e+02  4.58434e+00  1.29844e+01 -9.97982e+01  3.60527e+00 
 4.21273e+02  4.78141e+02  1.14964e+00 -3.13160e+02 -1.11492e+02  1.15442e+01 
 7.42268e+02 -4.56850e+03 -3.77544e+03 -1.29089e+03  4.73092e+02  6.15247e+02 
 3.81472e+02  1.40957e+01  4.34413e+02  1.21971e+02  3.17804e+02  8.20001e+00 
 1.91078e+02  5.52412e+02  2.79912e+01 -5.41618e+00 -3.58737e+02 -1.89418e+01 
 1.69168e+03 -8.12800e+02 -9.49528e+02  2.48291e+02 -1.15365e+03  1.08511e+02 
 1.93034e+03 -9.91545e+02 -8.08750e+02  7.98170e+02 -2.43550e+02  4.86487e+01 
 3.25577e+02  4.21838e+02  2.16993e+00  3.15894e+02 -3.39928e+02 -6.91464e+01 
 2.41888e+02  5.84109e+01  5.30141e+02  3.18320e+02  5.36394e+00 -2.17297e+01 
 3.75704e+02  8.37068e+01  4.34286e+02  3.12370e+02 -2.99846e+02 -5.25347e+01 
 3.57107e+01 -1.38922e+01 -1.61629e+02 -2.21660e+02 -5.28144e+02  1.21602e+02 
 5.48998e+01 -2.23210e+00  8.54306e+01  5.94181e+02  2.47984e+02  6.46184e+01 
 5.44436e+02  1.40710e+02  2.08705e+02  4.43673e+02 -4.38289e+02 -9.85771e+01 
 6.07460e+03  1.29630e+02  3.38669e+02 -8.26541e+01 -5.02907e+03 -1.01329e+02 
 8.54728e+02  7.70628e+01  5.93839e+02  1.85546e+02  7.62089e+02  3.16263e+01 
 8.56654e+02  6.03619e+02 -2.70784e+01 -7.87959e+02 -1.53971e+02  1.77890e+01 
 1.72883e+02  2.01063e+02  9.57395e-01  1.89673e+02 -9.49956e+01 -3.21688e+00 
-1.62179e+03 -1.28842e+03 -1.65608e+03  6.07570e+01  5.96785e+02 -4.40244e+02 
 6.65194e+01 -1.62101e+01  1.45069e+02  2.80858e+01 -3.82138e+01  2.94016e+01 
 2.14037e+03  1.69100e+03  5.83701e+02  1.24933e+03  3.64877e+02 -1.58965e+02 
-3.70003e+02 -1.56763e+03 -1.34273e+03 -2.75086e+02  1.22449e+02 -4.58019e+02 
 2.58946e+03 -5.83184e+02  2.15460e+03 -7.97138e+02 -1.58707e+03  1.29245e+01 
 1.34478e+02 -5.21989e+01  1.77156e+02  5.97577e+01 -1.71014e+02 -1.26478e+01 
 2.86218e+01  1.12769e+02  3.97609e+01  4.39517e+01 -3.23530e+01  2.97973e+01 
 6.02152e+03  1.74631e+03  1.27027e+03  2.43219e+03  4.94551e+02  3.87128e+02 
 4.24071e+02  2.37873e+02 -1.47770e+01  4.07410e+02 -2.86052e+02 -7.70748e+01 
 2.19783e+02  5.84501e+02  8.64433e+01 -4.08679e+02 -3.52550e+02  6.75051e+01 
-6.30725e+02 -5.16713e+02 -4.52303e+02  4.19559e+02 -1.70455e+01 -1.12073e+02 
 1.86635e+03 -7.73438e+02 -8.10504e+02 -2.13594e+03 -2.14885e+03  7.07841e+02 
 4.70781e+02  9.11046e+01  2.88947e+02  2.69103e+02 -4.11734e+02 -5.58738e+01 
 1.59299e+02  2.19339e+01  5.53117e+02  3.01600e+02  3.99752e+02  4.10750e+01 
 3.02840e+03  1.09095e+02 -3.70878e+02  1.27739e+03  1.68070e+03  5.49365e+02 
 3.31114e+01  6.88779e+01  1.25892e+01  1.27558e+02 -4.97376e+01 -3.33161e+01 
-7.48025e+02 -6.18834e+00 -3.94112e+02 -9.35490e+01 -5.16130e+02 -1.85509e+02 
 2.89462e+02  5.10429e+02 -3.72324e+02 -7.09038e+02  5.33775e+02  2.81520e+02 
 5.40967e+01  1.52706e+01  1.06260e+02  3.81073e+01 -1.12021e+02 -2.02771e+01 
 1.53496e+03  5.70272e+02  8.70355e+02 -1.66534e+02 -9.81770e+02  3.60933e+02 
 2.47324e+01  2.57906e+02  2.30301e+02  6.01176e+02 -5.84208e+02 -1.84288e+02 
 1.61817e+03  1.01154e+03  4.62971e+02 -1.21367e+03 -4.87403e+02  4.58293e+02 
 4.19411e+02  4.21079e+02  2.72975e+02  6.10719e+02 -5.99027e+02 -1.84746e+02 
 7.27139e+02  5.45066e+01  4.29090e+01 -3.84133e+02 -3.84921e+02  2.17600e+02 
 3.74149e+01 -8.14211e+02 -2.15330e+03 -3.66495e+02 -3.72616e+02 -3.02506e+02 
-8.11687e+00  2.68430e+02  5.08934e+01  3.40581e+01  3.32302e+01  1.24784e+01 
-2.55469e+01  8.47056e+00  2.65522e+02 -6.42324e+01 -3.07826e+01  2.33506e+01 
-1.36152e+02 -2.07069e+03 -5.32878e+02  3.02236e+02 -6.27945e+01 -2.65383e+02 
 9.13870e+03  2.58218e+03  2.17118e+03  2.16284e+03  1.88556e+03  3.63404e+02 
 8.28595e+03  1.27913e+03  1.26820e+03 -9.05779e+02 -8.96185e+02  1.15687e+02 
 5.43552e+01  1.59363e+02  3.74239e+02  6.04948e+02 -3.48095e+02 -1.15811e+02 
 2.05076e+02  4.65533e+01 -5.52089e+00  2.50362e+02 -1.45742e+02 -5.42920e+01 
 1.47182e+03 -4.97316e+01  9.13534e+02  4.77238e+02  1.37737e+03  2.35999e+02 
-2.23602e+02 -1.17856e+02 -1.75823e+02  3.77341e+02 -7.60538e+02 -7.93133e+00 
 2.67044e+02  9.24714e+01  1.58287e+02  1.47315e+02 -2.23566e+02 -3.38548e+01 
 2.88608e+01  4.18761e+02  1.51217e+02  3.44649e+02 -5.74267e+02 -1.07295e+02 
-1.87961e+02 -8.03103e+01 -8.92506e+01  7.70041e+02 -3.27382e+02 -7.23320e+01 
-2.62640e+02  1.59216e+02 -9.74759e+01 -2.71076e+02 -2.82054e+02  2.62151e+00 
 3.92521e+02  1.82271e+02  3.76472e+02  6.22817e+02 -5.96431e+02 -1.74023e+02 
-4.41886e+02 -9.00116e+02 -2.62464e+03  2.77345e+02  4.54082e+02 -6.99801e+02 
 2.64084e+02 -8.22506e+00  4.34708e+02  1.11380e+02  9.03586e+00 -6.04509e+00 
 3.09379e+03 -7.16794e+03 -7.16599e+03  5.33392e+01  8.76983e+00  6.98320e+01 
-1.13355e+01 -1.62200e+01  1.62800e+02 -1.88073e+01 -1.26232e+02 -8.62607e+00 
-2.41329e+01  1.72537e+02  3.92604e+01  1.47004e+02 -5.40587e+01 -1.36109e+01 
 4.22415e+03  5.49416e+02  1.05112e+03  8.30101e+02  1.70361e+03  2.26279e+02 
 4.41213e+03  3.55468e+02 -5.09026e+01 -2.82691e+03 -2.73821e+02 -6.91797e+01 
 3.14470e+02  4.86459e+02  1.10830e+01  1.27532e+01 -1.08739e+02  4.77370e+00 
-5.35910e+02 -2.26672e+03 -6.77613e+02  2.06832e+02  6.52073e+01 -5.55254e+02 
 4.90256e+02  6.48944e+02  6.15016e-01 -4.03902e+02 -1.35786e+02  1.69702e+01 
 3.00359e+02  3.16577e+02  2.25030e+01  2.50516e+02 -1.04306e+02 -3.03435e+00 
 4.29569e+02  4.90096e+01  5.87192e+02  1.43327e+02  3.94677e+02  6.42614e+00 
-8.81957e+02 -3.42037e+03 -3.41990e+03  9.38677e+02  9.38916e+02 -5.68230e+02 
-2.43466e+02 -3.77930e+03 -3.79099e+03 -4.28898e+02 -4.32272e+02 -4.40940e+02 
 2.50020e+02 -4.58592e+01  2.78582e+02  8.27306e+01 -2.28813e+02 -1.86049e+01 
 1.07673e+02  1.35184e+02  1.56160e+01  2.28292e+02 -7.92883e+01 -1.40192e+01 
 3.57562e+02  8.77764e+01  5.36372e+02  3.40360e+02 -3.61227e+02 -7.51162e+01 
 2.29606e+03  1.28852e+03  2.64823e+00 -1.27327e+03 -2.97945e+02  5.60049e+01 
 2.06626e+03  3.14377e+02  8.81915e+02  3.55978e+02  1.38779e+03  8.12096e+01 
 5.39565e+01 -7.16059e+01  8.90177e+01  5.63179e+00 -2.09305e+02 -1.92347e+01 
-4.36070e+02 -1.41194e+03 -2.13574e+03 -7.48278e+01  4.47606e+02 -7.03821e+02 
-1.92727e+02 -1.78559e+03 -1.16497e+03  2.35156e+02  9.27319e+01 -6.82368e+02 
-1.32346e+02 -1.21990e+01  5.47135e+01  5.07229e+02  2.39559e+01 -5.77958e+00 
-3.79841e+02 -6.12102e+02 -4.27537e+02  4.15720e+02 -4.00585e+02  9.92689e+01 
 2.80013e+02  5.45981e+02 -7.80385e+00  3.78107e+02 -3.91764e+02 -9.96867e+01 
-1.27484e+02  3.77896e+01 -1.22129e+02 -1.61901e+01 -4.71009e+02  1.03849e+01 
 6.85226e+02  2.05795e+02  2.90343e+02  5.63602e+02 -5.44614e+02 -1.47292e+02 
 1.05099e+02 -5.19760e+02 -5.92918e+02 -2.75424e+02 -2.73569e+02 -2.70671e+01 
 3.99970e+02 -3.20691e+01  5.75377e+02  3.46174e+02  8.00576e+02  1.14753e+02 
 4.71229e+02  1.05337e+02  1.92806e+02  2.03761e+02 -3.25218e+02 -4.31166e+01 
 1.13912e+02  2.25706e+01 -1.74007e+02  1.21287e+02  1.24571e+02  3.06955e+01 
 3.67098e+02  1.91761e+01 -4.64409e+01  3.58994e+02 -2.26018e+02 -6.47424e+01 
 4.71079e+02  6.00216e+02  1.47280e+02 -7.18456e+02 -3.27740e+02  1.77553e+02 
-4.21381e+02 -2.08779e+02 -5.29065e+02 -2.59753e+02 -3.88287e+02 -1.12539e+02 
 5.29501e+02  3.50000e+02 -3.29097e+01  5.26772e+02 -3.66135e+02 -1.14620e+02 
 1.06690e+02  5.56764e+02  2.92388e+01 -3.11575e+01 -3.53174e+02 -3.18311e+01 
 5.82457e+02  1.02803e+02  3.88496e+02  3.24101e+02 -5.33481e+02 -8.18785e+01 
 1.34607e+02  2.61141e+01  5.31386e+02  3.12822e+02  8.31214e+00 -1.70557e+01 
-4.12473e+02 -5.23241e+02 -5.71806e+02  4.25358e+02  9.99068e+01  2.67593e+01 
 2.79229e+02  1.65135e+02  1.11501e+01  3.21727e+02 -9.75132e+01 -1.44784e+01 
 9.70690e+02  1.52237e+02  7.96448e+02  1.96234e+02  9.39804e+02  3.87652e+01 
 2.02079e+02 -8.18380e+01  1.14483e+02  3.72060e+01 -3.02565e+02 -2.39005e+01 
-6.94776e+02 -1.80219e+03 -1.81548e+03  4.28398e+02  4.25198e+02 -6.37777e+02 
-3.00768e+02 -1.60389e+03 -1.62445e+03  1.26732e+02  1.27996e+02 -6.24854e+02 
 1.03210e+03  7.82680e+02 -5.75746e+01 -1.01506e+03 -2.24210e+02  3.16678e+01 
 4.56286e+02 -4.20685e+03 -3.63463e+03  1.75145e+03 -7.09699e+02  3.60756e+02 
 8.93350e+01 -6.69680e+02 -4.75780e+02 -1.04727e+02 -2.87950e+02  2.79238e+01 
 2.97237e+02  2.43336e+01  5.83435e+02  1.35757e+02  4.50024e+00 -1.14300e+01 
 3.47970e+02  6.54247e+02  1.94660e+01  3.47659e+00 -1.25622e+02  5.72725e+00 
 7.32446e+02 -3.72976e+03 -4.55437e+03  4.73372e+02 -1.28184e+03  5.98574e+02 
 3.64083e+02 -2.21094e+01  4.35520e+02  1.13480e+02 -2.98518e+02 -2.88657e+01 
 4.08152e+02  4.79993e+02  3.79086e+01  3.26315e+02 -1.10305e+02 -1.98018e+00 
 8.28869e+01  3.57087e+02  4.80965e+01 -3.27501e+02 -2.70541e+02  4.91407e+01 
 1.34676e+01 -8.21350e+01  3.44346e+02  2.76131e+02  3.43360e+02  5.45762e+01 
 1.24858e+02 -1.69957e+02 -4.61600e+02  2.83322e+02 -5.91551e+01 -6.35809e+01 
 7.23747e+02  1.38181e+02  2.76340e+02  2.73383e+02 -4.47396e+02 -5.94897e+01 
 5.65560e+02  2.57605e+01 -8.16114e+01  5.02507e+02 -3.26179e+02 -8.91383e+01 
 2.95598e+02  4.66889e+02  2.54627e+02  6.64506e+02 -6.07355e+02 -2.23492e+02 
 2.13795e+01 -1.21850e+01  3.86694e+01  1.65277e+01 -1.94484e+01  2.71208e+01 
-1.94740e+02  1.41619e+01 -4.08775e+01  5.14444e+02 -4.77532e+02 -1.11120e+02 
 1.04143e+04  2.98115e+03 -4.36128e+00  6.23671e+03 -4.71383e+02  4.24048e+02 
 1.08751e+04 -1.75924e+03  2.07348e+03 -7.60525e+02 -9.33511e+03  3.03593e+02 
 3.00297e+02  2.12721e+02  3.86708e+02  6.56589e+02 -6.33918e+02 -2.24572e+02 
 5.84698e+01  1.87646e+01  2.63980e+01  4.33112e+01 -5.31920e+01 -1.06514e+01 
 5.65276e+03  1.44677e+03  1.33924e+03 -2.78636e+03 -2.75355e+03  8.45487e+02 
 5.71142e+03  1.18319e+03  1.28801e+03  3.03174e+03  3.21008e+03  1.70739e+03 
 1.49467e+04  2.61260e+03  2.59009e+03 -1.68667e+03 -1.65679e+03  3.85746e+02 
-1.29915e+02  4.29990e+01  1.10996e+02  5.36012e+02 -2.64970e+02 -1.13722e+02 
 2.14719e+02 -2.29183e+03 -6.54066e+02  1.06052e+03  2.11652e+01 -4.81881e+02 
-1.89101e+01  8.23647e+01 -5.55301e+00  6.25635e+01  2.39504e+01  6.04147e+00 
 8.55636e+03 -2.59027e+03 -2.27329e+03  3.10814e+03  2.86982e+03  5.66188e+02 
-3.92106e+01 -4.15372e+01  8.77703e+01 -6.53419e+01 -3.94784e+01  1.90069e+01 
 3.87669e+02 -2.10890e+03 -3.14320e+03 -8.60529e+02  1.19272e+03 -8.82962e+02 
 7.93506e+02  2.96675e+02  3.86840e+02  7.05299e+02 -6.63373e+02 -2.25392e+02 
-1.33972e+02  1.18742e+02 -9.00391e+01  2.60281e+02 -4.81022e+02 -4.13343e+01 
 4.88509e+02  2.77358e+02  4.15983e+01  4.36371e+02 -1.10293e+02 -1.36948e+01 
 5.20903e+02  7.69652e+02 -7.48992e+00 -4.82717e+02 -1.69837e+02  2.49557e+01 
 4.58162e+02  1.19707e+02  7.13396e+02  1.58129e+02  4.48068e+02  4.91904e+00 
-3.72202e+02 -1.32314e+03 -1.57632e+03  1.22379e+02 -2.75464e+02 -4.52456e+02 
 4.53640e+03 -9.86247e+02  1.49506e+03  9.19474e+02  3.46324e+03  3.09878e+02 
-3.54220e+02 -3.16123e+03 -9.50633e+02  4.99958e+01  5.76565e+02 -1.22947e+03 
 3.60645e+01  1.05059e+02  3.73124e+01  1.45425e+02 -4.64668e+01 -2.54906e+01 
 6.20415e+03  4.86134e+02  1.56792e+02 -5.09311e+03 -8.83157e+01 -1.25566e+02 
 3.80859e+02 -9.29254e+01  1.96112e+02  6.07201e+01 -4.15582e+02 -3.10575e+01 
 9.08463e+00 -3.95461e+01  5.67073e+01 -2.67316e+01 -1.20933e+02 -7.36273e+00 
-1.60947e+03 -1.63506e+03 -1.26610e+03  5.91218e+02  6.10878e+01 -4.33054e+02 
-1.19419e+03 -1.80952e+03 -3.62270e+03  1.76327e+03  7.40340e+02 -1.41341e+03 
 2.91637e+02  7.66342e+01  5.30494e+01  1.14171e+02 -1.45718e+02 -2.87754e+01 
 5.78271e+02  5.06412e+02 -5.05394e+01  6.58580e+02 -4.59884e+02 -1.68336e+02 
 6.56610e+02  1.20300e+02  5.08286e+02  3.86797e+02 -6.75222e+02 -1.22356e+02 
 1.53352e+03  9.23859e+02  5.60262e+02 -9.96670e+02 -1.69618e+02  3.80604e+02 
-8.48512e+01 -5.64479e+02 -6.36495e+02  5.98514e+02 -2.97529e+02  9.94031e+01 
 2.73151e+02  6.86022e+01  5.65885e+02  3.46003e+02 -3.96544e+02 -9.13321e+01 
-2.13457e+02 -7.92281e+02 -8.47815e+02  2.43988e+02 -6.07353e+02  2.20864e+02 
 6.72765e+02 -5.30325e+02  3.46271e+02  4.68544e+02 -2.64575e+02  3.60159e+02 
 1.81443e+02  5.95591e+02 -1.57688e+01  3.58851e+02 -4.12709e+02 -1.25682e+02 
 1.01870e+02 -8.52299e+01  6.17445e+00  7.98698e-01 -2.16558e+02 -1.64511e+01 
-1.30770e+02 -1.89858e+03 -1.78617e+03  9.75470e+01  1.48987e+02 -1.29923e+03 
 3.14921e+03  2.03182e+03 -3.97881e+01 -1.68956e+03 -5.75267e+02  1.23715e+02 
 1.97359e+03 -1.44941e+01  8.65371e+02  4.45684e+02  2.54685e+03  3.13797e+02 
 1.83288e+02  9.57221e+01  2.39324e+01  2.36219e+02 -8.16073e+01 -2.16296e+01 
-1.33633e+03 -2.51449e+03 -2.52036e+03  9.98829e+02  1.00497e+03 -1.40804e+03 
-5.35234e+01  2.66015e+02 -3.11753e+01  3.27970e+00 -2.87743e+02 -4.76740e+01 
 1.00746e+03  1.88812e+02  4.05693e+02  3.64346e+02 -6.07057e+02 -9.14636e+01 
-8.57827e-01 -5.95162e+02 -3.90530e+02 -1.29357e+01 -2.57963e+02  3.54853e+00 
 7.83496e+02  5.89964e+01 -1.30029e+02  7.02643e+02 -4.68657e+02 -1.37283e+02 
-5.47120e+01 -2.06433e+02 -4.89995e+02  2.76311e+02 -5.66351e+01 -2.38609e+01 
-1.78378e+01 -7.41316e+01  2.94151e+02  2.68334e+02 -4.20612e+00  2.47491e+00 
 5.56458e+02  9.75809e+01  6.15782e+01  1.80358e+02 -2.44323e+02 -3.82505e+01 
 5.21293e+02  1.11373e+02  1.54191e+02 -3.82652e+02 -7.21706e+01 -4.05115e+01 
 2.02123e+02 -2.04304e+02  1.63620e+02  7.36754e+01  2.75834e+02  3.44800e+02 
 4.50890e+02  1.15784e+01  6.21733e+02  1.58158e+02 -3.80356e+02 -4.17432e+01 
-1.46384e+03 -2.61555e+03 -2.76812e+03  1.22801e+03 -1.38662e+03  6.21094e+02 
 4.81893e+02  6.77403e+02  6.04324e+01  4.04811e+02 -1.21379e+02 -2.34207e-02 
-4.35275e+02 -2.08154e+03 -1.42426e+03  4.39353e+02 -7.43497e+01 -6.96537e+02 
 4.35420e+02  1.36402e+02  3.78528e+01  3.47048e+02 -1.00341e+02 -1.76382e+01 
-2.04403e+02 -1.22445e+03 -1.80244e+03  9.25598e+01  2.55465e+02 -6.71229e+02 
 7.82910e+02  7.04344e+01  7.44683e+02  2.26852e+02  1.17215e+03  7.91790e+01 
 3.14455e+02 -1.03237e+02  2.04610e+01  3.51698e+01 -3.29108e+02 -1.92009e+01 
 1.08763e+03  8.47966e+02 -1.03802e+02 -1.17590e+03 -3.32044e+02  4.78051e+01 
-2.68914e+02 -1.41420e+03 -1.41959e+03  7.51293e+00 -2.10453e+02 -8.83101e+01 
 5.89140e+02 -8.80575e+01  3.38922e+02  1.01979e+02 -5.65691e+02 -4.55933e+01 
 3.12719e+02  9.55222e+01  6.89894e+02  1.56923e+02  8.91840e-02 -1.68813e+01 
 7.09486e+02  4.43544e+02  6.86424e+01  5.90831e+02 -1.19806e+02 -1.38243e+01 
 3.36811e+02  7.50749e+02  2.05476e+01 -1.32372e+01 -1.46504e+02  5.81481e+00 
-1.18729e+03 -1.48357e+03 -1.33491e+03  4.86758e+02  4.23468e+02 -1.04133e+02 
 7.59414e+01  1.65960e+02  1.88170e+02  6.01550e+02 -5.51238e+02 -2.41569e+02 
 7.00384e+00  2.86333e+02  4.69440e+01  4.91138e+02 -4.91895e+02 -1.52943e+02 
 7.93065e+02  4.26673e+02  4.73921e+02  8.31184e+02 -7.46741e+02 -3.26215e+02 
 9.12543e+02  1.23516e+02  7.42442e+01  2.60068e+02 -3.76825e+02 -5.38143e+01 
 2.94010e+02 -1.78692e+02  1.04810e+02 -2.49590e+02 -8.23533e+01 -4.63478e+01 
 5.72313e+01 -1.23905e+02 -2.61371e+02  1.19590e+02  2.71338e+01  1.36085e+02 
 6.59104e+02  6.95642e+02 -4.09892e+01  7.29981e+02 -5.40220e+02 -2.35202e+02 
-7.30046e+01 -4.29685e+02 -5.22419e+02  2.75438e+02 -2.68149e+02  1.39855e+02 
 6.53172e+02  1.06107e+02  5.91576e+02  4.36552e+02 -8.01693e+02 -1.68312e+02 
-4.26123e+02 -1.99457e+03 -1.03749e+03  2.56154e+02 -4.87850e+01 -2.22885e+02 
 3.19577e+02  9.65725e+01  6.02345e+02  1.26362e+02  5.78237e+02  6.02300e+01 
 5.36348e+02  7.19294e+02 -6.88898e+00 -4.95556e+02 -2.03189e+02  3.41349e+01 
-7.32277e+01 -1.01351e+03 -1.95510e+03  1.73885e+02  1.09476e+02 -2.65671e+02 
 7.78933e+02  2.37118e+02  7.93067e+01  4.97015e+02 -1.22036e+02 -1.63817e+01 
 6.07463e+02 -1.21500e+02  7.97451e+01  8.25056e+01 -4.76487e+02 -2.34927e+01 
 1.29667e+03  4.23885e+03 -5.20069e+01  8.46691e+03 -6.82485e+02  1.13851e+03 
 6.04612e+04  9.49933e+03  1.06739e+04  7.32612e+03  6.41739e+03 -2.80852e+03 
 8.18828e+02 -5.11548e+02  6.53058e+03  3.59937e+02 -1.57350e+04  2.98880e+03 
 1.06070e+01 -2.36650e+01  9.07376e+01 -3.26111e+01 -8.13780e+00  3.00978e+01 
 1.31035e+02 -1.69605e+01  3.91319e+02  3.02406e+02 -3.68823e+02 -7.75767e+01 
-1.01141e+02 -2.34173e+02 -4.63197e+02  3.08734e+02 -1.42888e+02  1.33634e+01 
 1.03071e+03  1.60030e+02 -1.63876e+02  9.73389e+02 -6.69755e+02 -2.19702e+02 
 6.84735e+01  8.06085e+01  1.09698e+01  3.91663e+00 -3.69895e+00  1.68422e+01 
 3.05517e+04  5.21700e+03  5.18904e+03 -4.94241e+03 -4.80357e+03  1.02154e+03 
 1.30221e+03  2.57596e+02  5.77389e+02  4.85741e+02 -8.14369e+02 -1.50345e+02 
-4.98871e+01 -5.35135e+02 -4.57855e+02  9.68577e+01 -2.35176e+02  1.08868e+02 
-9.22192e+01  2.80578e+02 -1.21690e+02  3.50830e+02 -3.80608e+02 -1.20691e+02 
 9.73090e+01  7.03274e+01  4.34630e+01  7.85925e+01 -4.34036e+01 -1.34168e+01 
 1.64668e+04 -6.53256e+02  4.25475e+03 -1.32325e+03  8.26367e+03  6.58180e+02 
-4.65204e+03 -1.79405e+03 -2.03935e+03 -1.67458e+03 -1.69718e+03 -6.49101e+02 
-2.79122e+03  2.47078e+02  2.06599e+02  1.60021e+03  1.68879e+03  1.56237e+02 
 1.09570e+04  2.45898e+03 -1.69225e+03 -9.50624e+03 -7.36781e+02  2.18226e+02 
 8.35178e+01  7.39221e+00  8.02744e+01  7.65323e+00 -6.18269e+01 -3.40507e+00 
 9.27848e+02  6.71587e+02  1.10012e+02  7.85796e+02 -1.27343e+02 -1.39817e+01 
-1.17970e+03 -3.57426e+03 -1.79353e+03  7.23136e+02  1.77328e+03 -1.38109e+03 
 7.90357e+02 -9.25018e+01  5.26421e+02  1.72321e+02 -7.65322e+02 -7.19573e+01 
-2.22457e+02 -1.78527e+03 -1.75797e+03  8.61266e+01 -3.42192e+02  3.81071e+02 
 2.25068e+02 -1.10450e+01  6.79823e+01  2.84096e+01 -1.36788e+02 -3.73476e+00 
 5.12726e+03  1.20504e+03  2.74244e+03  1.23881e+02  1.29949e+03 -1.38110e+02 
 2.62983e+02  8.11418e+01  4.33827e+01  1.53020e+02 -7.87383e+01 -1.85815e+01 
 4.83186e+02  8.29043e+02  7.25878e+01  4.61528e+02 -1.37263e+02  7.90011e-01 
-1.56969e+02 -6.40715e+02 -2.72696e+03  4.91574e+02  3.36453e+01 -1.23034e+03 
 2.65219e+03  2.31564e+03 -5.68161e+02 -1.67967e+03 -8.31903e+02  5.35119e+01 
 4.90931e+02  8.81371e+01  8.02718e+02  2.00228e+02 -4.31417e+02 -5.45032e+01 
-7.46358e+02 -1.93510e+03 -2.10697e+03  6.31664e+02 -1.68702e+02  4.84028e+02 
 1.36857e+03  1.58041e+02  8.81067e+01  3.76466e+02 -5.80433e+02 -8.41773e+01 
 2.57063e+02 -2.59099e+02  6.72677e+01 -1.71358e+02 -8.51340e+01 -4.29281e+01 
 2.63474e+01 -9.81125e+01 -3.03908e+02  1.25167e+02 -6.82758e+01  7.26159e+01 
 9.92658e+02 -1.36325e+02  1.99638e+02  1.70612e+02 -6.88243e+02 -3.70085e+01 
-2.53120e+02 -8.95000e+02 -1.84028e+03  1.19115e+02  1.25997e+02 -4.43214e+01 
 1.81217e+02  6.74657e+01  5.14976e+02  1.06262e+02  1.07305e+02  4.04585e+01 
-3.80006e+02 -1.92686e+03 -9.45466e+02  1.64076e+02 -1.19830e+02  4.66186e+01 
 3.20272e+02  6.36604e+02  2.43976e+01 -4.00015e+01 -1.53191e+02  8.61014e+00 
 1.20485e+03  3.94012e+02  1.30505e+02  7.13526e+02 -1.45057e+02 -1.75956e+01 
-4.38432e+02 -2.53847e+03 -9.07396e+02  4.38298e+02  2.83758e+02 -6.78970e+02 
 1.74345e+03  3.31815e+02  1.32438e+03 -6.08565e+01  4.91766e+02  3.50714e+01 
 6.14019e+02  1.37170e+02  8.80409e+01  2.49330e+02 -1.02882e+02 -2.55993e+01 
 8.70760e+02  4.17166e+02 -7.30099e+01 -9.13263e+02 -4.22823e+02  2.93638e+01 
-5.03411e+02 -5.62487e+02 -2.15005e+03  4.83201e+01  2.00668e+02 -5.51396e+02 
 5.40608e+02  2.60123e+00  9.81905e+01  6.92244e+01 -2.29915e+02  3.53401e+00 
 6.10107e+02  4.87084e+02  4.59809e+02  7.91410e+02 -7.11502e+02 -3.97574e+02 
 3.98615e+00 -3.35699e+02 -3.73069e+02  1.50503e+02 -1.42729e+02  1.20174e+02 
 5.01771e+02  4.20220e+01  5.48051e+02  4.31202e+02 -8.29934e+02 -2.11632e+02 
 1.53513e+03  3.37877e+02  8.01073e+02  6.19808e+02 -1.05333e+03 -2.48343e+02 
 7.92705e+00 -7.83065e+01 -3.61192e+02  2.70381e+02 -2.07230e+02 -1.19648e+01 
 1.85820e+02  5.18940e+02 -2.34731e+02  9.50060e+02 -5.64480e+02 -3.36175e+02 
 1.30330e+03  2.55630e+02 -2.75421e+02  1.30976e+03 -9.48084e+02 -3.61493e+02 
 7.27495e+02  1.43100e+02  3.81216e+02  6.20839e+01  7.53580e+01  1.67249e+01 
 1.13541e+03  2.36347e+02  1.55668e+02  3.82274e+02 -1.33764e+02 -3.27003e+01 
 3.96059e+02  1.79494e+02 -6.40047e+00 -3.33754e+02 -2.04652e+02  5.34766e+01 
-3.54848e+02 -2.13021e+03 -5.83546e+02  2.33635e+02  1.15311e+02 -2.64804e+02 
-4.05988e+02 -4.95569e+02 -2.02962e+03  8.26305e-01  1.95054e+02 -1.84821e+02 
 1.00826e+03  2.47064e+01  1.59414e+02  1.32885e+02 -3.53656e+02  1.30132e+01 
 1.05626e+03  9.34414e+02  1.32205e+02  1.01236e+03 -1.38757e+02 -1.50115e+01 
 1.03530e+03  9.05111e+01  7.85489e+02  2.52033e+02 -9.72572e+02 -1.10102e+02 
 1.37697e+02 -1.42677e+01 -1.14451e+02  1.49221e+02 -2.09043e+02  1.86575e+01 
-1.88374e+02 -1.35468e+03 -1.45080e+03  8.61717e+01 -8.82143e+01  5.45331e+02 
 3.21120e+02 -2.01934e+02  2.03320e+01 -1.32119e+02 -1.16024e+02 -1.55650e+00 
 1.94642e+03  2.06424e+02  1.04402e+02  5.58752e+02 -9.00709e+02 -1.41247e+02 
 1.55067e+03 -9.62101e+01  4.61461e+02  3.40409e+02 -9.99913e+02 -6.73684e+01 
 2.75756e+04  1.48174e+04  1.57461e+04  1.76157e+04  1.64964e+04  4.09652e+03 
 4.18860e+04  2.40937e+04  2.37899e+04 -1.29535e+04 -1.26866e+04  6.24735e+03 
-3.97954e+02 -1.08030e+03 -1.87594e+03  8.50896e+01  7.91322e+01  3.27246e+02 
 4.38587e+02  7.85494e+02  8.36118e+01  4.33530e+02 -1.26350e+02 -4.06850e+00 
-5.53763e+01 -5.35889e+01 -4.08901e+01 -5.57167e+01  2.66554e+01  3.22063e+01 
 1.72599e+03  6.22911e+02  2.05976e+02  1.03129e+03 -1.66763e+02 -2.29390e+01 
 3.06778e+02  1.90394e+01  6.41390e+02  1.35209e+02 -3.60787e+02  3.74998e+01 
-3.52867e+02 -1.89145e+03 -1.08937e+03  6.94180e+01 -1.19342e+02  3.78564e+02 
-1.03183e+03 -1.96780e+03  3.08184e+03  1.48766e+02  8.23830e+03  1.01503e+03 
 1.58580e+01 -5.64639e+01 -5.78465e+01 -2.57330e+01 -1.91864e+01  4.87688e+00 
 1.02418e+03  7.62574e+03 -4.00750e+02 -1.58206e+04  3.66221e+02  2.80700e+03 
-2.64331e+02 -1.27436e+03 -2.31582e+03  1.08849e+02  1.20991e+03 -5.22401e+02 
 3.88819e+02 -2.90912e+03 -2.16184e+03  1.12189e+03 -8.63601e+02 -7.76919e+02 
 2.23605e+02 -5.65855e+01 -7.26040e+01  1.65796e+01 -7.06775e+01 -2.13853e+00 
 1.68172e+03  5.71101e+01  2.65566e+02  2.45000e+02 -5.51911e+02  1.87909e+01 
 3.90882e+02 -1.88313e+00  2.60031e+01  1.29465e+02 -1.61567e+02  4.50950e+01 
-3.56133e+02 -2.07654e+03 -5.60855e+02  1.99546e+02 -6.44905e+00  1.40646e+01 
 1.86955e+03  3.96412e+02  2.50545e+02  5.86268e+02 -1.75614e+02 -4.63983e+01 
-3.97516e+02 -5.09368e+02 -1.99820e+03 -2.52226e+01  2.26233e+02  2.67968e+01 
 2.10851e+02  1.57620e+00 -1.13685e+01 -4.88260e+01 -1.22664e+02  2.72843e+01 
 3.14878e+02  2.19009e+02  1.49113e+01  5.61982e+02 -1.46039e+02 -1.77590e+02 
 5.22643e+02  8.33529e+02 -6.02245e+02  1.62773e+03 -1.28800e+03 -5.68285e+02 
 1.02689e+02 -1.90296e+03 -7.63805e+02 -4.16971e+02 -3.73422e+02 -2.64386e+02 
-2.76917e+02 -7.68948e+02 -2.09843e+03 -5.13265e+01  3.77041e+02 -2.91802e+02 
 1.67877e+03  3.55394e+02  9.80952e+02  7.55530e+02 -1.24834e+03 -3.68018e+02 
 6.53259e+02 -1.78131e+01 -5.16321e+01  8.23507e+01 -1.51323e+02 -7.56668e+00 
 3.83861e+02  1.52504e+02  3.21551e+02  2.31115e+02 -4.36122e+02 -1.29493e+02 
 2.40660e+03  8.94586e+01 -5.20908e+01  8.25753e+02 -1.40799e+03 -2.68575e+02 
 4.50697e+02  2.81900e+02 -2.94761e+01  2.80534e+01 -1.11837e+02 -1.33674e+02 
-3.07616e+02 -1.15012e+03 -1.85642e+03 -1.79077e+02  2.74397e+01  7.05423e+02 
 1.06891e+03 -2.13922e+01  7.08019e+02  2.93806e+02 -1.14056e+03  3.20174e+01 
 2.40935e+03  1.78635e+02  9.60747e+02  6.58745e+02 -1.37817e+03 -1.09711e+02 
 9.71869e+02  1.12642e+03  1.52728e+02  1.10945e+03 -9.51103e+01 -1.66564e+01 
-2.90851e+02 -1.86324e+03 -1.30559e+03 -9.38708e+01 -4.97216e+01  8.21277e+02 
 2.25435e+03  9.10436e+02  2.44042e+02  1.50146e+03 -1.81951e+02 -3.63194e+01 
-2.50691e+02 -1.85693e+03 -6.60743e+02  1.49634e+02 -1.03118e+01 -1.42075e+02 
-2.33739e+02 -5.31105e+02 -1.88862e+03 -1.04976e+02  2.47385e+02 -6.85964e+01 
 1.38149e+03  8.68018e+01  2.72575e+01  1.94986e+02 -2.83122e+02 -2.14376e+01 
-5.36357e+02 -6.49170e+02 -2.11686e+03 -8.81087e+01  2.94851e+02  2.77901e+02 
 2.92016e+03  6.55324e+02  3.91570e+02  9.24470e+02 -2.34624e+02 -7.76806e+01 
-4.09460e+02 -2.26005e+03 -7.65037e+02  1.94583e+02 -1.27811e+02  3.61725e+02 
 4.05529e+02 -1.27489e+02  4.90728e+01  2.16127e+02 -4.27744e+02  1.18188e+02 
 3.02254e+02  1.88036e+02  4.21125e+01  1.90873e+02 -7.28204e+01  1.30784e+01 
 2.72715e+03  1.69165e+02  5.00292e+02  4.51293e+02 -9.03479e+02  1.35733e+01 
 2.59277e+03  3.15909e+02  2.13761e+02  4.13847e+02 -5.25494e+02 -5.62590e+01 
-2.58303e+02 -4.88744e+02 -1.85103e+03 -1.38952e+02  2.42627e+02  8.11643e+01 
-2.15368e+02 -1.82631e+03 -5.03637e+02  1.44302e+02  2.91620e+01 -5.28143e+01 
 5.73303e+02  4.74935e+02 -5.95678e+02 -8.01930e+02 -6.45792e+02 -6.96630e+01 
 3.15448e+03  3.68381e+02 -9.61662e+01  1.20032e+03 -2.20215e+03 -4.53238e+02 
 1.89078e+03  1.58164e+03  1.50765e+03  5.63997e+02 -9.89547e+02 -7.18723e+02 
 2.51073e+03  1.45628e+03  4.77261e+02  1.98990e+03 -5.49542e+01  5.09520e+01 
-2.18183e+02 -1.51707e+03 -1.75535e+03 -1.33800e+02  5.93393e+01  1.22021e+03 
 2.07927e+03 -8.19568e+02  1.76121e+03  1.13322e+03 -1.87596e+03 -2.84229e+02 
 3.93728e+03  4.38637e+01  7.16687e+02  7.70983e+02 -1.50275e+03 -4.05692e+01 
 7.85551e+02 -4.48786e+02  3.48564e+02  4.12613e+02 -7.88310e+02  2.00682e+02 
-9.55484e+02 -1.05790e+03 -2.52960e+03 -3.04360e+02  4.03753e+02  6.19714e+02 
 7.16784e+02  7.09574e+02  1.49852e+02  5.61050e+02 -1.66158e+01  1.71709e+01 
 4.30185e+03  9.99729e+02  4.93559e+02  1.48017e+03 -3.00051e+02 -1.40236e+02 
-6.42171e+02 -2.63302e+03 -1.20671e+03  1.81057e+02 -3.29803e+02  8.86933e+02 
-3.11691e+02 -5.81109e+02 -1.89763e+03 -2.10113e+02  3.02563e+02  2.87331e+02 
-1.44905e+02 -1.84529e+03 -4.60540e+02  1.69112e+02  8.20481e+01  5.14880e+01 
 4.65337e+03  7.82936e+02  6.29222e+02  8.39701e+02 -9.93048e+02 -1.44054e+02 
 6.50898e+03  1.60325e+03  1.28952e+03  3.20161e+03 -3.43239e+03 -1.43642e+03 
-2.65574e+02 -4.08472e+03 -2.03431e+03 -1.51483e+02 -1.21165e+03  1.97980e+03 
-1.91768e+03 -1.50458e+03 -3.41434e+03 -1.08376e+03  1.10804e+03  1.22899e+03 
 5.26718e+03 -1.18586e+03  8.86928e+02  1.16843e+03 -3.11626e+03 -5.54031e+02 
 6.36331e+03  1.68050e+03  1.11984e+03  2.46061e+03 -1.51331e+02 -2.80365e+02 
 5.93585e+01 -2.40231e+03  2.41784e+03  1.05332e+03 -1.73829e+03 -8.80490e+01 
 2.04343e+03  1.67874e+03  5.05359e+02  1.30612e+03 -2.69048e+02  2.41118e+02 
 1.81369e+02 -6.94954e+02 -2.06889e+03 -3.14622e+02 -3.06487e+02  5.36795e+02 
-6.07179e+00 -2.03525e+03 -4.72907e+02  3.13332e+02  1.35456e+02  2.40346e+02 
 9.39144e+03  2.61371e+03  2.26505e+03  1.88723e+03 -1.99558e+03 -2.96486e+02 
 1.48849e+04 -2.75396e+03  3.20332e+03 -4.32579e+01 -8.81474e+03 -1.53477e+03 
-4.35168e+03  2.97569e+02 -1.27430e+03  1.89770e+03 -3.44643e+03  4.24354e+02 
 1.02996e+04  2.59096e+03  5.74960e+01  6.28776e+03  5.89735e+02 -3.61395e+02 
 5.51156e+02 -2.03041e+03 -3.57007e+02  1.14567e+03  2.11201e+02  3.36065e+02 
-3.16331e+02 -2.43600e+03 -2.39114e+03  2.74778e+02  1.81060e+03  1.13890e+03 
 9.41316e+03 -2.18159e+03 -2.18600e+03  2.63827e+03 -3.22250e+03 -9.08386e+02 
 6.12891e+04  9.34740e+03  9.58150e+03  7.24175e+03 -6.68725e+03  2.01852e+03 
 2.19986e+03  4.62738e+03  7.58525e+02  8.52731e+03  1.04615e+03 -1.38172e+03 
 1.83931e+03 -1.02438e+03  6.97682e+03 -1.43316e+03 -1.60702e+04 -2.53202e+03 
 3.00834e+04  1.62073e+04  1.57690e+04  1.82441e+04 -1.29963e+04 -4.65976e+03 </DataArray>
         </PointData>
         <CellData/>
      </Piece>
   </UnstructuredGrid>
</VTKFile>