<?xml version="1.0" encoding="utf-8"?>
<VTKFile byte_order="LittleEndian" type="UnstructuredGrid" version="0.1">
   <UnstructuredGrid>
      <Piece NumberOfCells="1444" NumberOfPoints="761">
         <Points>
            <DataArray Name="Points" NumberOfComponents="3" format="ascii" type="Float32">
0.0000 1.0000 0.0000
0.0000 1.0526 0.0000
0.0000 1.1053 0.0000
0.0000 1.1579 0.0000
0.0000 1.2105 0.0000
0.0000 1.2632 0.0000
0.0000 1.3158 0.0000
0.0000 1.3684 0.0000
0.0000 1.4211 0.0000
0.0000 1.4737 0.0000
0.0000 1.5263 0.0000
0.0000 1.5789 0.0000
0.0000 1.6316 0.0000
0.0000 1.6842 0.0000
0.0000 1.7368 0.0000
0.0000 1.7895 0.0000
0.0000 1.8421 0.0000
0.0000 1.8947 0.0000
0.0000 1.9474 0.0000
0.0000 2.0000 0.0000
0.1053 1.0000 0.0000
0.1053 1.0526 0.0000
0.1053 1.1053 0.0000
0.1053 1.1579 0.0000
0.1053 1.2105 0.0000
0.1053 1.2632 0.0000
0.1053 1.3158 0.0000
0.1053 1.3684 0.0000
0.1053 1.4211 0.0000
0.1053 1.4737 0.0000
0.1053 1.5263 0.0000
0.1053 1.5789 0.0000
0.1053 1.6316 0.0000
0.1053 1.6842 0.0000
0.1053 1.7368 0.0000
0.1053 1.7895 0.0000
0.1053 1.8421 0.0000
0.1053 1.8947 0.0000
0.1053 1.9474 0.0000
0.1053 2.0000 0.0000
0.2105 1.0000 0.0000
0.2105 1.0526 0.0000
0.2105 1.1053 0.0000
0.2105 1.1579 0.0000
0.2105 1.2105 0.0000
0.2105 1.2632 0.0000
0.2105 1.3158 0.0000
0.2105 1.3684 0.0000
0.2105 1.4211 0.0000
0.2105 1.4737 0.0000
0.2105 1.5263 0.0000
0.2105 1.5789 0.0000
0.2105 1.6316 0.0000
0.2105 1.6842 0.0000
0.2105 1.7368 0.0000
0.2105 1.7895 0.0000
0.2105 1.8421 0.0000
0.2105 1.8947 0.0000
0.2105 1.9474 0.0000
0.2105 2.0000 0.0000
0.3158 1.0000 0.0000
0.3158 1.0526 0.0000
0.3158 1.1053 0.0000
0.3158 1.1579 0.0000
0.3158 1.2105 0.0000
0.3158 1.2632 0.0000
0.3158 1.3158 0.0000
0.3158 1.3684 0.0000
0.3158 1.4211 0.0000
0.3158 1.4737 0.0000
0.3158 1.5263 0.0000
0.3158 1.5789 0.0000
0.3158 1.6316 0.0000
0.3158 1.6842 0.0000
0.3158 1.7368 0.0000
0.3158 1.7895 0.0000
0.3158 1.8421 0.0000
0.3158 1.8947 0.0000
0.3158 1.9474 0.0000
0.3158 2.0000 0.0000
0.4211 1.0000 0.0000
0.4211 1.0526 0.0000
0.4211 1.1053 0.0000
0.4211 1.1579 0.0000
0.4211 1.2105 0.0000
0.4211 1.2632 0.0000
0.4211 1.3158 0.0000
0.4211 1.3684 0.0000
0.4211 1.4211 0.0000
0.4211 1.4737 0.0000
0.4211 1.5263 0.0000
0.4211 1.5789 0.0000
0.4211 1.6316 0.0000
0.4211 1.6842 0.0000
0.4211 1.7368 0.0000
0.4211 1.7895 0.0000
0.4211 1.8421 0.0000
0.4211 1.8947 0.0000
0.4211 1.9474 0.0000
0.4211 2.0000 0.0000
0.5263 1.0000 0.0000
0.5263 1.0526 0.0000
0.5263 1.1053 0.0000
0.5263 1.1579 0.0000
0.5263 1.2105 0.0000
0.5263 1.2632 0.0000
0.5263 1.3158 0.0000
0.5263 1.3684 0.0000
0.5263 1.4211 0.0000
0.5263 1.4737 0.0000
0.5263 1.5263 0.0000
0.5263 1.5789 0.0000
0.5263 1.6316 0.0000
0.5263 1.6842 0.0000
0.5263 1.7368 0.0000
0.5263 1.7895 0.0000
0.5263 1.8421 0.0000
0.5263 1.8947 0.0000
0.5263 1.9474 0.0000
0.5263 2.0000 0.0000
0.6316 1.0000 0.0000
0.6316 1.0526 0.0000
0.6316 1.1053 0.0000
0.6316 1.1579 0.0000
0.6316 1.2105 0.0000
0.6316 1.2632 0.0000
0.6316 1.3158 0.0000
0.6316 1.3684 0.0000
0.6316 1.4211 0.0000
0.6316 1.4737 0.0000
0.6316 1.5263 0.0000
0.6316 1.5789 0.0000
0.6316 1.6316 0.0000
0.6316 1.6842 0.0000
0.6316 1.7368 0.0000
0.6316 1.7895 0.0000
0.6316 1.8421 0.0000
0.6316 1.8947 0.0000
0.6316 1.9474 0.0000
0.6316 2.0000 0.0000
0.7368 1.0000 0.0000
0.7368 1.0526 0.0000
0.7368 1.1053 0.0000
0.7368 1.1579 0.0000
0.7368 1.2105 0.0000
0.7368 1.2632 0.0000
0.7368 1.3158 0.0000
0.7368 1.3684 0.0000
0.7368 1.4211 0.0000
0.7368 1.4737 0.0000
0.7368 1.5263 0.0000
0.7368 1.5789 0.0000
0.7368 1.6316 0.0000
0.7368 1.6842 0.0000
0.7368 1.7368 0.0000
0.7368 1.7895 0.0000
0.7368 1.8421 0.0000
0.7368 1.8947 0.0000
0.7368 1.9474 0.0000
0.7368 2.0000 0.0000
0.8421 1.0000 0.0000
0.8421 1.0526 0.0000
0.8421 1.1053 0.0000
0.8421 1.1579 0.0000
0.8421 1.2105 0.0000
0.8421 1.2632 0.0000
0.8421 1.3158 0.0000
0.8421 1.3684 0.0000
0.8421 1.4211 0.0000
0.8421 1.4737 0.0000
0.8421 1.5263 0.0000
0.8421 1.5789 0.0000
0.8421 1.6316 0.0000
0.8421 1.6842 0.0000
0.8421 1.7368 0.0000
0.8421 1.7895 0.0000
0.8421 1.8421 0.0000
0.8421 1.8947 0.0000
0.8421 1.9474 0.0000
0.8421 2.0000 0.0000
0.9474 1.0000 0.0000
0.9474 1.0526 0.0000
0.9474 1.1053 0.0000
0.9474 1.1579 0.0000
0.9474 1.2105 0.0000
0.9474 1.2632 0.0000
0.9474 1.3158 0.0000
0.9474 1.3684 0.0000
0.9474 1.4211 0.0000
0.9474 1.4737 0.0000
0.9474 1.5263 0.0000
0.9474 1.5789 0.0000
0.9474 1.6316 0.0000
0.9474 1.6842 0.0000
0.9474 1.7368 0.0000
0.9474 1.7895 0.0000
0.9474 1.8421 0.0000
0.9474 1.8947 0.0000
0.9474 1.9474 0.0000
0.9474 2.0000 0.0000
1.0526 1.0000 0.0000
1.0526 1.0526 0.0000
1.0526 1.1053 0.0000
1.0526 1.1579 0.0000
1.0526 1.2105 0.0000
1.0526 1.2632 0.0000
1.0526 1.3158 0.0000
1.0526 1.3684 0.0000
1.0526 1.4211 0.0000
1.0526 1.4737 0.0000
1.0526 1.5263 0.0000
1.0526 1.5789 0.0000
1.0526 1.6316 0.0000
1.0526 1.6842 0.0000
1.0526 1.7368 0.0000
1.0526 1.7895 0.0000
1.0526 1.8421 0.0000
1.0526 1.8947 0.0000
1.0526 1.9474 0.0000
1.0526 2.0000 0.0000
1.1579 1.0000 0.0000
1.1579 1.0526 0.0000
1.1579 1.1053 0.0000
1.1579 1.1579 0.0000
1.1579 1.2105 0.0000
1.1579 1.2632 0.0000
1.1579 1.3158 0.0000
1.1579 1.3684 0.0000
1.1579 1.4211 0.0000
1.1579 1.4737 0.0000
1.1579 1.5263 0.0000
1.1579 1.5789 0.0000
1.1579 1.6316 0.0000
1.1579 1.6842 0.0000
1.1579 1.7368 0.0000
1.1579 1.7895 0.0000
1.1579 1.8421 0.0000
1.1579 1.8947 0.0000
1.1579 1.9474 0.0000
1.1579 2.0000 0.0000
1.2632 1.0000 0.0000
1.2632 1.0526 0.0000
1.2632 1.1053 0.0000
1.2632 1.1579 0.0000
1.2632 1.2105 0.0000
1.2632 1.2632 0.0000
1.2632 1.3158 0.0000
1.2632 1.3684 0.0000
1.2632 1.4211 0.0000
1.2632 1.4737 0.0000
1.2632 1.5263 0.0000
1.2632 1.5789 0.0000
1.2632 1.6316 0.0000
1.2632 1.6842 0.0000
1.2632 1.7368 0.0000
1.2632 1.7895 0.0000
1.2632 1.8421 0.0000
1.2632 1.8947 0.0000
1.2632 1.9474 0.0000
1.2632 2.0000 0.0000
1.3684 1.0000 0.0000
1.3684 1.0526 0.0000
1.3684 1.1053 0.0000
1.3684 1.1579 0.0000
1.3684 1.2105 0.0000
1.3684 1.2632 0.0000
1.3684 1.3158 0.0000
1.3684 1.3684 0.0000
1.3684 1.4211 0.0000
1.3684 1.4737 0.0000
1.3684 1.5263 0.0000
1.3684 1.5789 0.0000
1.3684 1.6316 0.0000
1.3684 1.6842 0.0000
1.3684 1.7368 0.0000
1.3684 1.7895 0.0000
1.3684 1.8421 0.0000
1.3684 1.8947 0.0000
1.3684 1.9474 0.0000
1.3684 2.0000 0.0000
1.4737 1.0000 0.0000
1.4737 1.0526 0.0000
1.4737 1.1053 0.0000
1.4737 1.1579 0.0000
1.4737 1.2105 0.0000
1.4737 1.2632 0.0000
1.4737 1.3158 0.0000
1.4737 1.3684 0.0000
1.4737 1.4211 0.0000
1.4737 1.4737 0.0000
1.4737 1.5263 0.0000
1.4737 1.5789 0.0000
1.4737 1.6316 0.0000
1.4737 1.6842 0.0000
1.4737 1.7368 0.0000
1.4737 1.7895 0.0000
1.4737 1.8421 0.0000
1.4737 1.8947 0.0000
1.4737 1.9474 0.0000
1.4737 2.0000 0.0000
1.5789 1.0000 0.0000
1.5789 1.0526 0.0000
1.5789 1.1053 0.0000
1.5789 1.1579 0.0000
1.5789 1.2105 0.0000
1.5789 1.2632 0.0000
1.5789 1.3158 0.0000
1.5789 1.3684 0.0000
1.5789 1.4211 0.0000
1.5789 1.4737 0.0000
1.5789 1.5263 0.0000
1.5789 1.5789 0.0000
1.5789 1.6316 0.0000
1.5789 1.6842 0.0000
1.5789 1.7368 0.0000
1.5789 1.7895 0.0000
1.5789 1.8421 0.0000
1.5789 1.8947 0.0000
1.5789 1.9474 0.0000
1.5789 2.0000 0.0000
1.6842 1.0000 0.0000
1.6842 1.0526 0.0000
1.6842 1.1053 0.0000
1.6842 1.1579 0.0000
1.6842 1.2105 0.0000
1.6842 1.2632 0.0000
1.6842 1.3158 0.0000
1.6842 1.3684 0.0000
1.6842 1.4211 0.0000
1.6842 1.4737 0.0000
1.6842 1.5263 0.0000
1.6842 1.5789 0.0000
1.6842 1.6316 0.0000
1.6842 1.6842 0.0000
1.6842 1.7368 0.0000
1.6842 1.7895 0.0000
1.6842 1.8421 0.0000
1.6842 1.8947 0.0000
1.6842 1.9474 0.0000
1.6842 2.0000 0.0000
1.7895 1.0000 0.0000
1.7895 1.0526 0.0000
1.7895 1.1053 0.0000
1.7895 1.1579 0.0000
1.7895 1.2105 0.0000
1.7895 1.2632 0.0000
1.7895 1.3158 0.0000
1.7895 1.3684 0.0000
1.7895 1.4211 0.0000
1.7895 1.4737 0.0000
1.7895 1.5263 0.0000
1.7895 1.5789 0.0000
1.7895 1.6316 0.0000
1.7895 1.6842 0.0000
1.7895 1.7368 0.0000
1.7895 1.7895 0.0000
1.7895 1.8421 0.0000
1.7895 1.8947 0.0000
1.7895 1.9474 0.0000
1.7895 2.0000 0.0000
1.8947 1.0000 0.0000
1.8947 1.0526 0.0000
1.8947 1.1053 0.0000
1.8947 1.1579 0.0000
1.8947 1.2105 0.0000
1.8947 1.2632 0.0000
1.8947 1.3158 0.0000
1.8947 1.3684 0.0000
1.8947 1.4211 0.0000
1.8947 1.4737 0.0000
1.8947 1.5263 0.0000
1.8947 1.5789 0.0000
1.8947 1.6316 0.0000
1.8947 1.6842 0.0000
1.8947 1.7368 0.0000
1.8947 1.7895 0.0000
1.8947 1.8421 0.0000
1.8947 1.8947 0.0000
1.8947 1.9474 0.0000
1.8947 2.0000 0.0000
2.0000 1.0000 0.0000
2.0000 1.0526 0.0000
2.0000 1.1053 0.0000
2.0000 1.1579 0.0000
2.0000 1.2105 0.0000
2.0000 1.2632 0.0000
2.0000 1.3158 0.0000
2.0000 1.3684 0.0000
2.0000 1.4211 0.0000
2.0000 1.4737 0.0000
2.0000 1.5263 0.0000
2.0000 1.5789 0.0000
2.0000 1.6316 0.0000
2.0000 1.6842 0.0000
2.0000 1.7368 0.0000
2.0000 1.7895 0.0000
2.0000 1.8421 0.0000
2.0000 1.8947 0.0000
2.0000 1.9474 0.0000
2.0000 2.0000 0.0000
0.0526 1.0263 0.0000
0.0526 1.0789 0.0000
0.0526 1.1316 0.0000
0.0526 1.1842 0.0000
0.0526 1.2368 0.0000
0.0526 1.2895 0.0000
0.0526 1.3421 0.0000
0.0526 1.3947 0.0000
0.0526 1.4474 0.0000
0.0526 1.5000 0.0000
0.0526 1.5526 0.0000
0.0526 1.6053 0.0000
0.0526 1.6579 0.0000
0.0526 1.7105 0.0000
0.0526 1.7632 0.0000
0.0526 1.8158 0.0000
0.0526 1.8684 0.0000
0.0526 1.9211 0.0000
0.0526 1.9737 0.0000
0.1579 1.0263 0.0000
0.1579 1.0789 0.0000
0.1579 1.1316 0.0000
0.1579 1.1842 0.0000
0.1579 1.2368 0.0000
0.1579 1.2895 0.0000
0.1579 1.3421 0.0000
0.1579 1.3947 0.0000
0.1579 1.4474 0.0000
0.1579 1.5000 0.0000
0.1579 1.5526 0.0000
0.1579 1.6053 0.0000
0.1579 1.6579 0.0000
0.1579 1.7105 0.0000
0.1579 1.7632 0.0000
0.1579 1.8158 0.0000
0.1579 1.8684 0.0000
0.1579 1.9211 0.0000
0.1579 1.9737 0.0000
0.2632 1.0263 0.0000
0.2632 1.0789 0.0000
0.2632 1.1316 0.0000
0.2632 1.1842 0.0000
0.2632 1.2368 0.0000
0.2632 1.2895 0.0000
0.2632 1.3421 0.0000
0.2632 1.3947 0.0000
0.2632 1.4474 0.0000
0.2632 1.5000 0.0000
0.2632 1.5526 0.0000
0.2632 1.6053 0.0000
0.2632 1.6579 0.0000
0.2632 1.7105 0.0000
0.2632 1.7632 0.0000
0.2632 1.8158 0.0000
0.2632 1.8684 0.0000
0.2632 1.9211 0.0000
0.2632 1.9737 0.0000
0.3684 1.0263 0.0000
0.3684 1.0789 0.0000
0.3684 1.1316 0.0000
0.3684 1.1842 0.0000
0.3684 1.2368 0.0000
0.3684 1.2895 0.0000
0.3684 1.3421 0.0000
0.3684 1.3947 0.0000
0.3684 1.4474 0.0000
0.3684 1.5000 0.0000
0.3684 1.5526 0.0000
0.3684 1.6053 0.0000
0.3684 1.6579 0.0000
0.3684 1.7105 0.0000
0.3684 1.7632 0.0000
0.3684 1.8158 0.0000
0.3684 1.8684 0.0000
0.3684 1.9211 0.0000
0.3684 1.9737 0.0000
0.4737 1.0263 0.0000
0.4737 1.0789 0.0000
0.4737 1.1316 0.0000
0.4737 1.1842 0.0000
0.4737 1.2368 0.0000
0.4737 1.2895 0.0000
0.4737 1.3421 0.0000
0.4737 1.3947 0.0000
0.4737 1.4474 0.0000
0.4737 1.5000 0.0000
0.4737 1.5526 0.0000
0.4737 1.6053 0.0000
0.4737 1.6579 0.0000
0.4737 1.7105 0.0000
0.4737 1.7632 0.0000
0.4737 1.8158 0.0000
0.4737 1.8684 0.0000
0.4737 1.9211 0.0000
0.4737 1.9737 0.0000
0.5789 1.0263 0.0000
0.5789 1.0789 0.0000
0.5789 1.1316 0.0000
0.5789 1.1842 0.0000
0.5789 1.2368 0.0000
0.5789 1.2895 0.0000
0.5789 1.3421 0.0000
0.5789 1.3947 0.0000
0.5789 1.4474 0.0000
0.5789 1.5000 0.0000
0.5789 1.5526 0.0000
0.5789 1.6053 0.0000
0.5789 1.6579 0.0000
0.5789 1.7105 0.0000
0.5789 1.7632 0.0000
0.5789 1.8158 0.0000
0.5789 1.8684 0.0000
0.5789 1.9211 0.0000
0.5789 1.9737 0.0000
0.6842 1.0263 0.0000
0.6842 1.0789 0.0000
0.6842 1.1316 0.0000
0.6842 1.1842 0.0000
0.6842 1.2368 0.0000
0.6842 1.2895 0.0000
0.6842 1.3421 0.0000
0.6842 1.3947 0.0000
0.6842 1.4474 0.0000
0.6842 1.5000 0.0000
0.6842 1.5526 0.0000
0.6842 1.6053 0.0000
0.6842 1.6579 0.0000
0.6842 1.7105 0.0000
0.6842 1.7632 0.0000
0.6842 1.8158 0.0000
0.6842 1.8684 0.0000
0.6842 1.9211 0.0000
0.6842 1.9737 0.0000
0.7895 1.0263 0.0000
0.7895 1.0789 0.0000
0.7895 1.1316 0.0000
0.7895 1.1842 0.0000
0.7895 1.2368 0.0000
0.7895 1.2895 0.0000
0.7895 1.3421 0.0000
0.7895 1.3947 0.0000
0.7895 1.4474 0.0000
0.7895 1.5000 0.0000
0.7895 1.5526 0.0000
0.7895 1.6053 0.0000
0.7895 1.6579 0.0000
0.7895 1.7105 0.0000
0.7895 1.7632 0.0000
0.7895 1.8158 0.0000
0.7895 1.8684 0.0000
0.7895 1.9211 0.0000
0.7895 1.9737 0.0000
0.8947 1.0263 0.0000
0.8947 1.0789 0.0000
0.8947 1.1316 0.0000
0.8947 1.1842 0.0000
0.8947 1.2368 0.0000
0.8947 1.2895 0.0000
0.8947 1.3421 0.0000
0.8947 1.3947 0.0000
0.8947 1.4474 0.0000
0.8947 1.5000 0.0000
0.8947 1.5526 0.0000
0.8947 1.6053 0.0000
0.8947 1.6579 0.0000
0.8947 1.7105 0.0000
0.8947 1.7632 0.0000
0.8947 1.8158 0.0000
0.8947 1.8684 0.0000
0.8947 1.9211 0.0000
0.8947 1.9737 0.0000
1.0000 1.0263 0.0000
1.0000 1.0789 0.0000
1.0000 1.1316 0.0000
1.0000 1.1842 0.0000
1.0000 1.2368 0.0000
1.0000 1.2895 0.0000
1.0000 1.3421 0.0000
1.0000 1.3947 0.0000
1.0000 1.4474 0.0000
1.0000 1.5000 0.0000
1.0000 1.5526 0.0000
1.0000 1.6053 0.0000
1.0000 1.6579 0.0000
1.0000 1.7105 0.0000
1.0000 1.7632 0.0000
1.0000 1.8158 0.0000
1.0000 1.8684 0.0000
1.0000 1.9211 0.0000
1.0000 1.9737 0.0000
1.1053 1.0263 0.0000
1.1053 1.0789 0.0000
1.1053 1.1316 0.0000
1.1053 1.1842 0.0000
1.1053 1.2368 0.0000
1.1053 1.2895 0.0000
1.1053 1.3421 0.0000
1.1053 1.3947 0.0000
1.1053 1.4474 0.0000
1.1053 1.5000 0.0000
1.1053 1.5526 0.0000
1.1053 1.6053 0.0000
1.1053 1.6579 0.0000
1.1053 1.7105 0.0000
1.1053 1.7632 0.0000
1.1053 1.8158 0.0000
1.1053 1.8684 0.0000
1.1053 1.9211 0.0000
1.1053 1.9737 0.0000
1.2105 1.0263 0.0000
1.2105 1.0789 0.0000
1.2105 1.1316 0.0000
1.2105 1.1842 0.0000
1.2105 1.2368 0.0000
1.2105 1.2895 0.0000
1.2105 1.3421 0.0000
1.2105 1.3947 0.0000
1.2105 1.4474 0.0000
1.2105 1.5000 0.0000
1.2105 1.5526 0.0000
1.2105 1.6053 0.0000
1.2105 1.6579 0.0000
1.2105 1.7105 0.0000
1.2105 1.7632 0.0000
1.2105 1.8158 0.0000
1.2105 1.8684 0.0000
1.2105 1.9211 0.0000
1.2105 1.9737 0.0000
1.3158 1.0263 0.0000
1.3158 1.0789 0.0000
1.3158 1.1316 0.0000
1.3158 1.1842 0.0000
1.3158 1.2368 0.0000
1.3158 1.2895 0.0000
1.3158 1.3421 0.0000
1.3158 1.3947 0.0000
1.3158 1.4474 0.0000
1.3158 1.5000 0.0000
1.3158 1.5526 0.0000
1.3158 1.6053 0.0000
1.3158 1.6579 0.0000
1.3158 1.7105 0.0000
1.3158 1.7632 0.0000
1.3158 1.8158 0.0000
1.3158 1.8684 0.0000
1.3158 1.9211 0.0000
1.3158 1.9737 0.0000
1.4211 1.0263 0.0000
1.4211 1.0789 0.0000
1.4211 1.1316 0.0000
1.4211 1.1842 0.0000
1.4211 1.2368 0.0000
1.4211 1.2895 0.0000
1.4211 1.3421 0.0000
1.4211 1.3947 0.0000
1.4211 1.4474 0.0000
1.4211 1.5000 0.0000
1.4211 1.5526 0.0000
1.4211 1.6053 0.0000
1.4211 1.6579 0.0000
1.4211 1.7105 0.0000
1.4211 1.7632 0.0000
1.4211 1.8158 0.0000
1.4211 1.8684 0.0000
1.4211 1.9211 0.0000
1.4211 1.9737 0.0000
1.5263 1.0263 0.0000
1.5263 1.0789 0.0000
1.5263 1.1316 0.0000
1.5263 1.1842 0.0000
1.5263 1.2368 0.0000
1.5263 1.2895 0.0000
1.5263 1.3421 0.0000
1.5263 1.3947 0.0000
1.5263 1.4474 0.0000
1.5263 1.5000 0.0000
1.5263 1.5526 0.0000
1.5263 1.6053 0.0000
1.5263 1.6579 0.0000
1.5263 1.7105 0.0000
1.5263 1.7632 0.0000
1.5263 1.8158 0.0000
1.5263 1.8684 0.0000
1.5263 1.9211 0.0000
1.5263 1.9737 0.0000
1.6316 1.0263 0.0000
1.6316 1.0789 0.0000
1.6316 1.1316 0.0000
1.6316 1.1842 0.0000
1.6316 1.2368 0.0000
1.6316 1.2895 0.0000
1.6316 1.3421 0.0000
1.6316 1.3947 0.0000
1.6316 1.4474 0.0000
1.6316 1.5000 0.0000
1.6316 1.5526 0.0000
1.6316 1.6053 0.0000
1.6316 1.6579 0.0000
1.6316 1.7105 0.0000
1.6316 1.7632 0.0000
1.6316 1.8158 0.0000
1.6316 1.8684 0.0000
1.6316 1.9211 0.0000
1.6316 1.9737 0.0000
1.7368 1.0263 0.0000
1.7368 1.0789 0.0000
1.7368 1.1316 0.0000
1.7368 1.1842 0.0000
1.7368 1.2368 0.0000
1.7368 1.2895 0.0000
1.7368 1.3421 0.0000
1.7368 1.3947 0.0000
1.7368 1.4474 0.0000
1.7368 1.5000 0.0000
1.7368 1.5526 0.0000
1.7368 1.6053 0.0000
1.7368 1.6579 0.0000
1.7368 1.7105 0.0000
1.7368 1.7632 0.0000
1.7368 1.8158 0.0000
1.7368 1.8684 0.0000
1.7368 1.9211 0.0000
1.7368 1.9737 0.0000
1.8421 1.0263 0.0000
1.8421 1.0789 0.0000
1.8421 1.1316 0.0000
1.8421 1.1842 0.0000
1.8421 1.2368 0.0000
1.8421 1.2895 0.0000
1.8421 1.3421 0.0000
1.8421 1.3947 0.0000
1.8421 1.4474 0.0000
1.8421 1.5000 0.0000
1.8421 1.5526 0.0000
1.8421 1.6053 0.0000
1.8421 1.6579 0.0000
1.8421 1.7105 0.0000
1.8421 1.7632 0.0000
1.8421 1.8158 0.0000
1.8421 1.8684 0.0000
1.8421 1.9211 0.0000
1.8421 1.9737 0.0000
1.9474 1.0263 0.0000
1.9474 1.0789 0.0000
1.9474 1.1316 0.0000
1.9474 1.1842 0.0000
1.9474 1.2368 0.0000
1.9474 1.2895 0.0000
1.9474 1.3421 0.0000
1.9474 1.3947 0.0000
1.9474 1.4474 0.0000
1.9474 1.5000 0.0000
1.9474 1.5526 0.0000
1.9474 1.6053 0.0000
1.9474 1.6579 0.0000
1.9474 1.7105 0.0000
1.9474 1.7632 0.0000
1.9474 1.8158 0.0000
1.9474 1.8684 0.0000
1.9474 1.9211 0.0000
1.9474 1.9737 0.0000</DataArray>
         </Points>
         <Cells>
            <DataArray Name="connectivity" format="ascii" type="Int32">
 1 0 400
 2 1 401
 3 2 402
 4 3 403
 5 4 404
 6 5 405
 7 6 406
 8 7 407
 9 8 408
 10 9 409
 11 10 410
 12 11 411
 13 12 412
 14 13 413
 15 14 414
 16 15 415
 17 16 416
 18 17 417
 19 18 418
 21 20 419
 22 21 420
 23 22 421
 24 23 422
 25 24 423
 26 25 424
 27 26 425
 28 27 426
 29 28 427
 30 29 428
 31 30 429
 32 31 430
 33 32 431
 34 33 432
 35 34 433
 36 35 434
 37 36 435
 38 37 436
 39 38 437
 41 40 438
 42 41 439
 43 42 440
 44 43 441
 45 44 442
 46 45 443
 47 46 444
 48 47 445
 49 48 446
 50 49 447
 51 50 448
 52 51 449
 53 52 450
 54 53 451
 55 54 452
 56 55 453
 57 56 454
 58 57 455
 59 58 456
 61 60 457
 62 61 458
 63 62 459
 64 63 460
 65 64 461
 66 65 462
 67 66 463
 68 67 464
 69 68 465
 70 69 466
 71 70 467
 72 71 468
 73 72 469
 74 73 470
 75 74 471
 76 75 472
 77 76 473
 78 77 474
 79 78 475
 81 80 476
 82 81 477
 83 82 478
 84 83 479
 85 84 480
 86 85 481
 87 86 482
 88 87 483
 89 88 484
 90 89 485
 91 90 486
 92 91 487
 93 92 488
 94 93 489
 95 94 490
 96 95 491
 97 96 492
 98 97 493
 99 98 494
 101 100 495
 102 101 496
 103 102 497
 104 103 498
 105 104 499
 106 105 500
 107 106 501
 108 107 502
 109 108 503
 110 109 504
 111 110 505
 112 111 506
 113 112 507
 114 113 508
 115 114 509
 116 115 510
 117 116 511
 118 117 512
 119 118 513
 121 120 514
 122 121 515
 123 122 516
 124 123 517
 125 124 518
 126 125 519
 127 126 520
 128 127 521
 129 128 522
 130 129 523
 131 130 524
 132 131 525
 133 132 526
 134 133 527
 135 134 528
 136 135 529
 137 136 530
 138 137 531
 139 138 532
 141 140 533
 142 141 534
 143 142 535
 144 143 536
 145 144 537
 146 145 538
 147 146 539
 148 147 540
 149 148 541
 150 149 542
 151 150 543
 152 151 544
 153 152 545
 154 153 546
 155 154 547
 156 155 548
 157 156 549
 158 157 550
 159 158 551
 161 160 552
 162 161 553
 163 162 554
 164 163 555
 165 164 556
 166 165 557
 167 166 558
 168 167 559
 169 168 560
 170 169 561
 171 170 562
 172 171 563
 173 172 564
 174 173 565
 175 174 566
 176 175 567
 177 176 568
 178 177 569
 179 178 570
 181 180 571
 182 181 572
 183 182 573
 184 183 574
 185 184 575
 186 185 576
 187 186 577
 188 187 578
 189 188 579
 190 189 580
 191 190 581
 192 191 582
 193 192 583
 194 193 584
 195 194 585
 196 195 586
 197 196 587
 198 197 588
 199 198 589
 201 200 590
 202 201 591
 203 202 592
 204 203 593
 205 204 594
 206 205 595
 207 206 596
 208 207 597
 209 208 598
 210 209 599
 211 210 600
 212 211 601
 213 212 602
 214 213 603
 215 214 604
 216 215 605
 217 216 606
 218 217 607
 219 218 608
 221 220 609
 222 221 610
 223 222 611
 224 223 612
 225 224 613
 226 225 614
 227 226 615
 228 227 616
 229 228 617
 230 229 618
 231 230 619
 232 231 620
 233 232 621
 234 233 622
 235 234 623
 236 235 624
 237 236 625
 238 237 626
 239 238 627
 241 240 628
 242 241 629
 243 242 630
 244 243 631
 245 244 632
 246 245 633
 247 246 634
 248 247 635
 249 248 636
 250 249 637
 251 250 638
 252 251 639
 253 252 640
 254 253 641
 255 254 642
 256 255 643
 257 256 644
 258 257 645
 259 258 646
 261 260 647
 262 261 648
 263 262 649
 264 263 650
 265 264 651
 266 265 652
 267 266 653
 268 267 654
 269 268 655
 270 269 656
 271 270 657
 272 271 658
 273 272 659
 274 273 660
 275 274 661
 276 275 662
 277 276 663
 278 277 664
 279 278 665
 281 280 666
 282 281 667
 283 282 668
 284 283 669
 285 284 670
 286 285 671
 287 286 672
 288 287 673
 289 288 674
 290 289 675
 291 290 676
 292 291 677
 293 292 678
 294 293 679
 295 294 680
 296 295 681
 297 296 682
 298 297 683
 299 298 684
 301 300 685
 302 301 686
 303 302 687
 304 303 688
 305 304 689
 306 305 690
 307 306 691
 308 307 692
 309 308 693
 310 309 694
 311 310 695
 312 311 696
 313 312 697
 314 313 698
 315 314 699
 316 315 700
 317 316 701
 318 317 702
 319 318 703
 321 320 704
 322 321 705
 323 322 706
 324 323 707
 325 324 708
 326 325 709
 327 326 710
 328 327 711
 329 328 712
 330 329 713
 331 330 714
 332 331 715
 333 332 716
 334 333 717
 335 334 718
 336 335 719
 337 336 720
 338 337 721
 339 338 722
 341 340 723
 342 341 724
 343 342 725
 344 343 726
 345 344 727
 346 345 728
 347 346 729
 348 347 730
 349 348 731
 350 349 732
 351 350 733
 352 351 734
 353 352 735
 354 353 736
 355 354 737
 356 355 738
 357 356 739
 358 357 740
 359 358 741
 361 360 742
 362 361 743
 363 362 744
 364 363 745
 365 364 746
 366 365 747
 367 366 748
 368 367 749
 369 368 750
 370 369 751
 371 370 752
 372 371 753
 373 372 754
 374 373 755
 375 374 756
 376 375 757
 377 376 758
 378 377 759
 379 378 760
 21 1 400
 22 2 401
 23 3 402
 24 4 403
 25 5 404
 26 6 405
 27 7 406
 28 8 407
 29 9 408
 30 10 409
 31 11 410
 32 12 411
 33 13 412
 34 14 413
 35 15 414
 36 16 415
 37 17 416
 38 18 417
 39 19 418
 41 21 419
 42 22 420
 43 23 421
 44 24 422
 45 25 423
 46 26 424
 47 27 425
 48 28 426
 49 29 427
 50 30 428
 51 31 429
 52 32 430
 53 33 431
 54 34 432
 55 35 433
 56 36 434
 57 37 435
 58 38 436
 59 39 437
 61 41 438
 62 42 439
 63 43 440
 64 44 441
 65 45 442
 66 46 443
 67 47 444
 68 48 445
 69 49 446
 70 50 447
 71 51 448
 72 52 449
 73 53 450
 74 54 451
 75 55 452
 76 56 453
 77 57 454
 78 58 455
 79 59 456
 81 61 457
 82 62 458
 83 63 459
 84 64 460
 85 65 461
 86 66 462
 87 67 463
 88 68 464
 89 69 465
 90 70 466
 91 71 467
 92 72 468
 93 73 469
 94 74 470
 95 75 471
 96 76 472
 97 77 473
 98 78 474
 99 79 475
 101 81 476
 102 82 477
 103 83 478
 104 84 479
 105 85 480
 106 86 481
 107 87 482
 108 88 483
 109 89 484
 110 90 485
 111 91 486
 112 92 487
 113 93 488
 114 94 489
 115 95 490
 116 96 491
 117 97 492
 118 98 493
 119 99 494
 121 101 495
 122 102 496
 123 103 497
 124 104 498
 125 105 499
 126 106 500
 127 107 501
 128 108 502
 129 109 503
 130 110 504
 131 111 505
 132 112 506
 133 113 507
 134 114 508
 135 115 509
 136 116 510
 137 117 511
 138 118 512
 139 119 513
 141 121 514
 142 122 515
 143 123 516
 144 124 517
 145 125 518
 146 126 519
 147 127 520
 148 128 521
 149 129 522
 150 130 523
 151 131 524
 152 132 525
 153 133 526
 154 134 527
 155 135 528
 156 136 529
 157 137 530
 158 138 531
 159 139 532
 161 141 533
 162 142 534
 163 143 535
 164 144 536
 165 145 537
 166 146 538
 167 147 539
 168 148 540
 169 149 541
 170 150 542
 171 151 543
 172 152 544
 173 153 545
 174 154 546
 175 155 547
 176 156 548
 177 157 549
 178 158 550
 179 159 551
 181 161 552
 182 162 553
 183 163 554
 184 164 555
 185 165 556
 186 166 557
 187 167 558
 188 168 559
 189 169 560
 190 170 561
 191 171 562
 192 172 563
 193 173 564
 194 174 565
 195 175 566
 196 176 567
 197 177 568
 198 178 569
 199 179 570
 201 181 571
 202 182 572
 203 183 573
 204 184 574
 205 185 575
 206 186 576
 207 187 577
 208 188 578
 209 189 579
 210 190 580
 211 191 581
 212 192 582
 213 193 583
 214 194 584
 215 195 585
 216 196 586
 217 197 587
 218 198 588
 219 199 589
 221 201 590
 222 202 591
 223 203 592
 224 204 593
 225 205 594
 226 206 595
 227 207 596
 228 208 597
 229 209 598
 230 210 599
 231 211 600
 232 212 601
 233 213 602
 234 214 603
 235 215 604
 236 216 605
 237 217 606
 238 218 607
 239 219 608
 241 221 609
 242 222 610
 243 223 611
 244 224 612
 245 225 613
 246 226 614
 247 227 615
 248 228 616
 249 229 617
 250 230 618
 251 231 619
 252 232 620
 253 233 621
 254 234 622
 255 235 623
 256 236 624
 257 237 625
 258 238 626
 259 239 627
 261 241 628
 262 242 629
 263 243 630
 264 244 631
 265 245 632
 266 246 633
 267 247 634
 268 248 635
 269 249 636
 270 250 637
 271 251 638
 272 252 639
 273 253 640
 274 254 641
 275 255 642
 276 256 643
 277 257 644
 278 258 645
 279 259 646
 281 261 647
 282 262 648
 283 263 649
 284 264 650
 285 265 651
 286 266 652
 287 267 653
 288 268 654
 289 269 655
 290 270 656
 291 271 657
 292 272 658
 293 273 659
 294 274 660
 295 275 661
 296 276 662
 297 277 663
 298 278 664
 299 279 665
 301 281 666
 302 282 667
 303 283 668
 304 284 669
 305 285 670
 306 286 671
 307 287 672
 308 288 673
 309 289 674
 310 290 675
 311 291 676
 312 292 677
 313 293 678
 314 294 679
 315 295 680
 316 296 681
 317 297 682
 318 298 683
 319 299 684
 321 301 685
 322 302 686
 323 303 687
 324 304 688
 325 305 689
 326 306 690
 327 307 691
 328 308 692
 329 309 693
 330 310 694
 331 311 695
 332 312 696
 333 313 697
 334 314 698
 335 315 699
 336 316 700
 337 317 701
 338 318 702
 339 319 703
 341 321 704
 342 322 705
 343 323 706
 344 324 707
 345 325 708
 346 326 709
 347 327 710
 348 328 711
 349 329 712
 350 330 713
 351 331 714
 352 332 715
 353 333 716
 354 334 717
 355 335 718
 356 336 719
 357 337 720
 358 338 721
 359 339 722
 361 341 723
 362 342 724
 363 343 725
 364 344 726
 365 345 727
 366 346 728
 367 347 729
 368 348 730
 369 349 731
 370 350 732
 371 351 733
 372 352 734
 373 353 735
 374 354 736
 375 355 737
 376 356 738
 377 357 739
 378 358 740
 379 359 741
 381 361 742
 382 362 743
 383 363 744
 384 364 745
 385 365 746
 386 366 747
 387 367 748
 388 368 749
 389 369 750
 390 370 751
 391 371 752
 392 372 753
 393 373 754
 394 374 755
 395 375 756
 396 376 757
 397 377 758
 398 378 759
 399 379 760
 20 21 400
 21 22 401
 22 23 402
 23 24 403
 24 25 404
 25 26 405
 26 27 406
 27 28 407
 28 29 408
 29 30 409
 30 31 410
 31 32 411
 32 33 412
 33 34 413
 34 35 414
 35 36 415
 36 37 416
 37 38 417
 38 39 418
 40 41 419
 41 42 420
 42 43 421
 43 44 422
 44 45 423
 45 46 424
 46 47 425
 47 48 426
 48 49 427
 49 50 428
 50 51 429
 51 52 430
 52 53 431
 53 54 432
 54 55 433
 55 56 434
 56 57 435
 57 58 436
 58 59 437
 60 61 438
 61 62 439
 62 63 440
 63 64 441
 64 65 442
 65 66 443
 66 67 444
 67 68 445
 68 69 446
 69 70 447
 70 71 448
 71 72 449
 72 73 450
 73 74 451
 74 75 452
 75 76 453
 76 77 454
 77 78 455
 78 79 456
 80 81 457
 81 82 458
 82 83 459
 83 84 460
 84 85 461
 85 86 462
 86 87 463
 87 88 464
 88 89 465
 89 90 466
 90 91 467
 91 92 468
 92 93 469
 93 94 470
 94 95 471
 95 96 472
 96 97 473
 97 98 474
 98 99 475
 100 101 476
 101 102 477
 102 103 478
 103 104 479
 104 105 480
 105 106 481
 106 107 482
 107 108 483
 108 109 484
 109 110 485
 110 111 486
 111 112 487
 112 113 488
 113 114 489
 114 115 490
 115 116 491
 116 117 492
 117 118 493
 118 119 494
 120 121 495
 121 122 496
 122 123 497
 123 124 498
 124 125 499
 125 126 500
 126 127 501
 127 128 502
 128 129 503
 129 130 504
 130 131 505
 131 132 506
 132 133 507
 133 134 508
 134 135 509
 135 136 510
 136 137 511
 137 138 512
 138 139 513
 140 141 514
 141 142 515
 142 143 516
 143 144 517
 144 145 518
 145 146 519
 146 147 520
 147 148 521
 148 149 522
 149 150 523
 150 151 524
 151 152 525
 152 153 526
 153 154 527
 154 155 528
 155 156 529
 156 157 530
 157 158 531
 158 159 532
 160 161 533
 161 162 534
 162 163 535
 163 164 536
 164 165 537
 165 166 538
 166 167 539
 167 168 540
 168 169 541
 169 170 542
 170 171 543
 171 172 544
 172 173 545
 173 174 546
 174 175 547
 175 176 548
 176 177 549
 177 178 550
 178 179 551
 180 181 552
 181 182 553
 182 183 554
 183 184 555
 184 185 556
 185 186 557
 186 187 558
 187 188 559
 188 189 560
 189 190 561
 190 191 562
 191 192 563
 192 193 564
 193 194 565
 194 195 566
 195 196 567
 196 197 568
 197 198 569
 198 199 570
 200 201 571
 201 202 572
 202 203 573
 203 204 574
 204 205 575
 205 206 576
 206 207 577
 207 208 578
 208 209 579
 209 210 580
 210 211 581
 211 212 582
 212 213 583
 213 214 584
 214 215 585
 215 216 586
 216 217 587
 217 218 588
 218 219 589
 220 221 590
 221 222 591
 222 223 592
 223 224 593
 224 225 594
 225 226 595
 226 227 596
 227 228 597
 228 229 598
 229 230 599
 230 231 600
 231 232 601
 232 233 602
 233 234 603
 234 235 604
 235 236 605
 236 237 606
 237 238 607
 238 239 608
 240 241 609
 241 242 610
 242 243 611
 243 244 612
 244 245 613
 245 246 614
 246 247 615
 247 248 616
 248 249 617
 249 250 618
 250 251 619
 251 252 620
 252 253 621
 253 254 622
 254 255 623
 255 256 624
 256 257 625
 257 258 626
 258 259 627
 260 261 628
 261 262 629
 262 263 630
 263 264 631
 264 265 632
 265 266 633
 266 267 634
 267 268 635
 268 269 636
 269 270 637
 270 271 638
 271 272 639
 272 273 640
 273 274 641
 274 275 642
 275 276 643
 276 277 644
 277 278 645
 278 279 646
 280 281 647
 281 282 648
 282 283 649
 283 284 650
 284 285 651
 285 286 652
 286 287 653
 287 288 654
 288 289 655
 289 290 656
 290 291 657
 291 292 658
 292 293 659
 293 294 660
 294 295 661
 295 296 662
 296 297 663
 297 298 664
 298 299 665
 300 301 666
 301 302 667
 302 303 668
 303 304 669
 304 305 670
 305 306 671
 306 307 672
 307 308 673
 308 309 674
 309 310 675
 310 311 676
 311 312 677
 312 313 678
 313 314 679
 314 315 680
 315 316 681
 316 317 682
 317 318 683
 318 319 684
 320 321 685
 321 322 686
 322 323 687
 323 324 688
 324 325 689
 325 326 690
 326 327 691
 327 328 692
 328 329 693
 329 330 694
 330 331 695
 331 332 696
 332 333 697
 333 334 698
 334 335 699
 335 336 700
 336 337 701
 337 338 702
 338 339 703
 340 341 704
 341 342 705
 342 343 706
 343 344 707
 344 345 708
 345 346 709
 346 347 710
 347 348 711
 348 349 712
 349 350 713
 350 351 714
 351 352 715
 352 353 716
 353 354 717
 354 355 718
 355 356 719
 356 357 720
 357 358 721
 358 359 722
 360 361 723
 361 362 724
 362 363 725
 363 364 726
 364 365 727
 365 366 728
 366 367 729
 367 368 730
 368 369 731
 369 370 732
 370 371 733
 371 372 734
 372 373 735
 373 374 736
 374 375 737
 375 376 738
 376 377 739
 377 378 740
 378 379 741
 380 381 742
 381 382 743
 382 383 744
 383 384 745
 384 385 746
 385 386 747
 386 387 748
 387 388 749
 388 389 750
 389 390 751
 390 391 752
 391 392 753
 392 393 754
 393 394 755
 394 395 756
 395 396 757
 396 397 758
 397 398 759
 398 399 760
 0 20 400
 1 21 401
 2 22 402
 3 23 403
 4 24 404
 5 25 405
 6 26 406
 7 27 407
 8 28 408
 9 29 409
 10 30 410
 11 31 411
 12 32 412
 13 33 413
 14 34 414
 15 35 415
 16 36 416
 17 37 417
 18 38 418
 20 40 419
 21 41 420
 22 42 421
 23 43 422
 24 44 423
 25 45 424
 26 46 425
 27 47 426
 28 48 427
 29 49 428
 30 50 429
 31 51 430
 32 52 431
 33 53 432
 34 54 433
 35 55 434
 36 56 435
 37 57 436
 38 58 437
 40 60 438
 41 61 439
 42 62 440
 43 63 441
 44 64 442
 45 65 443
 46 66 444
 47 67 445
 48 68 446
 49 69 447
 50 70 448
 51 71 449
 52 72 450
 53 73 451
 54 74 452
 55 75 453
 56 76 454
 57 77 455
 58 78 456
 60 80 457
 61 81 458
 62 82 459
 63 83 460
 64 84 461
 65 85 462
 66 86 463
 67 87 464
 68 88 465
 69 89 466
 70 90 467
 71 91 468
 72 92 469
 73 93 470
 74 94 471
 75 95 472
 76 96 473
 77 97 474
 78 98 475
 80 100 476
 81 101 477
 82 102 478
 83 103 479
 84 104 480
 85 105 481
 86 106 482
 87 107 483
 88 108 484
 89 109 485
 90 110 486
 91 111 487
 92 112 488
 93 113 489
 94 114 490
 95 115 491
 96 116 492
 97 117 493
 98 118 494
 100 120 495
 101 121 496
 102 122 497
 103 123 498
 104 124 499
 105 125 500
 106 126 501
 107 127 502
 108 128 503
 109 129 504
 110 130 505
 111 131 506
 112 132 507
 113 133 508
 114 134 509
 115 135 510
 116 136 511
 117 137 512
 118 138 513
 120 140 514
 121 141 515
 122 142 516
 123 143 517
 124 144 518
 125 145 519
 126 146 520
 127 147 521
 128 148 522
 129 149 523
 130 150 524
 131 151 525
 132 152 526
 133 153 527
 134 154 528
 135 155 529
 136 156 530
 137 157 531
 138 158 532
 140 160 533
 141 161 534
 142 162 535
 143 163 536
 144 164 537
 145 165 538
 146 166 539
 147 167 540
 148 168 541
 149 169 542
 150 170 543
 151 171 544
 152 172 545
 153 173 546
 154 174 547
 155 175 548
 156 176 549
 157 177 550
 158 178 551
 160 180 552
 161 181 553
 162 182 554
 163 183 555
 164 184 556
 165 185 557
 166 186 558
 167 187 559
 168 188 560
 169 189 561
 170 190 562
 171 191 563
 172 192 564
 173 193 565
 174 194 566
 175 195 567
 176 196 568
 177 197 569
 178 198 570
 180 200 571
 181 201 572
 182 202 573
 183 203 574
 184 204 575
 185 205 576
 186 206 577
 187 207 578
 188 208 579
 189 209 580
 190 210 581
 191 211 582
 192 212 583
 193 213 584
 194 214 585
 195 215 586
 196 216 587
 197 217 588
 198 218 589
 200 220 590
 201 221 591
 202 222 592
 203 223 593
 204 224 594
 205 225 595
 206 226 596
 207 227 597
 208 228 598
 209 229 599
 210 230 600
 211 231 601
 212 232 602
 213 233 603
 214 234 604
 215 235 605
 216 236 606
 217 237 607
 218 238 608
 220 240 609
 221 241 610
 222 242 611
 223 243 612
 224 244 613
 225 245 614
 226 246 615
 227 247 616
 228 248 617
 229 249 618
 230 250 619
 231 251 620
 232 252 621
 233 253 622
 234 254 623
 235 255 624
 236 256 625
 237 257 626
 238 258 627
 240 260 628
 241 261 629
 242 262 630
 243 263 631
 244 264 632
 245 265 633
 246 266 634
 247 267 635
 248 268 636
 249 269 637
 250 270 638
 251 271 639
 252 272 640
 253 273 641
 254 274 642
 255 275 643
 256 276 644
 257 277 645
 258 278 646
 260 280 647
 261 281 648
 262 282 649
 263 283 650
 264 284 651
 265 285 652
 266 286 653
 267 287 654
 268 288 655
 269 289 656
 270 290 657
 271 291 658
 272 292 659
 273 293 660
 274 294 661
 275 295 662
 276 296 663
 277 297 664
 278 298 665
 280 300 666
 281 301 667
 282 302 668
 283 303 669
 284 304 670
 285 305 671
 286 306 672
 287 307 673
 288 308 674
 289 309 675
 290 310 676
 291 311 677
 292 312 678
 293 313 679
 294 314 680
 295 315 681
 296 316 682
 297 317 683
 298 318 684
 300 320 685
 301 321 686
 302 322 687
 303 323 688
 304 324 689
 305 325 690
 306 326 691
 307 327 692
 308 328 693
 309 329 694
 310 330 695
 311 331 696
 312 332 697
 313 333 698
 314 334 699
 315 335 700
 316 336 701
 317 337 702
 318 338 703
 320 340 704
 321 341 705
 322 342 706
 323 343 707
 324 344 708
 325 345 709
 326 346 710
 327 347 711
 328 348 712
 329 349 713
 330 350 714
 331 351 715
 332 352 716
 333 353 717
 334 354 718
 335 355 719
 336 356 720
 337 357 721
 338 358 722
 340 360 723
 341 361 724
 342 362 725
 343 363 726
 344 364 727
 345 365 728
 346 366 729
 347 367 730
 348 368 731
 349 369 732
 350 370 733
 351 371 734
 352 372 735
 353 373 736
 354 374 737
 355 375 738
 356 376 739
 357 377 740
 358 378 741
 360 380 742
 361 381 743
 362 382 744
 363 383 745
 364 384 746
 365 385 747
 366 386 748
 367 387 749
 368 388 750
 369 389 751
 370 390 752
 371 391 753
 372 392 754
 373 393 755
 374 394 756
 375 395 757
 376 396 758
 377 397 759
 378 398 760</DataArray>
            <DataArray Name="offsets" format="ascii" type="Int32">3 6 9 12 15 18 21 24 27 30 33 36 39 42 45 48 51 54 57 60 63 66 69 72 75 78 81 84 87 90 93 96 99 102 105 108 111 114 117 120 123 126 129 132 135 138 141 144 147 150 153 156 159 162 165 168 171 174 177 180 183 186 189 192 195 198 201 204 207 210 213 216 219 222 225 228 231 234 237 240 243 246 249 252 255 258 261 264 267 270 273 276 279 282 285 288 291 294 297 300 303 306 309 312 315 318 321 324 327 330 333 336 339 342 345 348 351 354 357 360 363 366 369 372 375 378 381 384 387 390 393 396 399 402 405 408 411 414 417 420 423 426 429 432 435 438 441 444 447 450 453 456 459 462 465 468 471 474 477 480 483 486 489 492 495 498 501 504 507 510 513 516 519 522 525 528 531 534 537 540 543 546 549 552 555 558 561 564 567 570 573 576 579 582 585 588 591 594 597 600 603 606 609 612 615 618 621 624 627 630 633 636 639 642 645 648 651 654 657 660 663 666 669 672 675 678 681 684 687 690 693 696 699 702 705 708 711 714 717 720 723 726 729 732 735 738 741 744 747 750 753 756 759 762 765 768 771 774 777 780 783 786 789 792 795 798 801 804 807 810 813 816 819 822 825 828 831 834 837 840 843 846 849 852 855 858 861 864 867 870 873 876 879 882 885 888 891 894 897 900 903 906 909 912 915 918 921 924 927 930 933 936 939 942 945 948 951 954 957 960 963 966 969 972 975 978 981 984 987 990 993 996 999 1002 1005 1008 1011 1014 1017 1020 1023 1026 1029 1032 1035 1038 1041 1044 1047 1050 1053 1056 1059 1062 1065 1068 1071 1074 1077 1080 1083 1086 1089 1092 1095 1098 1101 1104 1107 1110 1113 1116 1119 1122 1125 1128 1131 1134 1137 1140 1143 1146 1149 1152 1155 1158 1161 1164 1167 1170 1173 1176 1179 1182 1185 1188 1191 1194 1197 1200 1203 1206 1209 1212 1215 1218 1221 1224 1227 1230 1233 1236 1239 1242 1245 1248 1251 1254 1257 1260 1263 1266 1269 1272 1275 1278 1281 1284 1287 1290 1293 1296 1299 1302 1305 1308 1311 1314 1317 1320 1323 1326 1329 1332 1335 1338 1341 1344 1347 1350 1353 1356 1359 1362 1365 1368 1371 1374 1377 1380 1383 1386 1389 1392 1395 1398 1401 1404 1407 1410 1413 1416 1419 1422 1425 1428 1431 1434 1437 1440 1443 1446 1449 1452 1455 1458 1461 1464 1467 1470 1473 1476 1479 1482 1485 1488 1491 1494 1497 1500 1503 1506 1509 1512 1515 1518 1521 1524 1527 1530 1533 1536 1539 1542 1545 1548 1551 1554 1557 1560 1563 1566 1569 1572 1575 1578 1581 1584 1587 1590 1593 1596 1599 1602 1605 1608 1611 1614 1617 1620 1623 1626 1629 1632 1635 1638 1641 1644 1647 1650 1653 1656 1659 1662 1665 1668 1671 1674 1677 1680 1683 1686 1689 1692 1695 1698 1701 1704 1707 1710 1713 1716 1719 1722 1725 1728 1731 1734 1737 1740 1743 1746 1749 1752 1755 1758 1761 1764 1767 1770 1773 1776 1779 1782 1785 1788 1791 1794 1797 1800 1803 1806 1809 1812 1815 1818 1821 1824 1827 1830 1833 1836 1839 1842 1845 1848 1851 1854 1857 1860 1863 1866 1869 1872 1875 1878 1881 1884 1887 1890 1893 1896 1899 1902 1905 1908 1911 1914 1917 1920 1923 1926 1929 1932 1935 1938 1941 1944 1947 1950 1953 1956 1959 1962 1965 1968 1971 1974 1977 1980 1983 1986 1989 1992 1995 1998 2001 2004 2007 2010 2013 2016 2019 2022 2025 2028 2031 2034 2037 2040 2043 2046 2049 2052 2055 2058 2061 2064 2067 2070 2073 2076 2079 2082 2085 2088 2091 2094 2097 2100 2103 2106 2109 2112 2115 2118 2121 2124 2127 2130 2133 2136 2139 2142 2145 2148 2151 2154 2157 2160 2163 2166 2169 2172 2175 2178 2181 2184 2187 2190 2193 2196 2199 2202 2205 2208 2211 2214 2217 2220 2223 2226 2229 2232 2235 2238 2241 2244 2247 2250 2253 2256 2259 2262 2265 2268 2271 2274 2277 2280 2283 2286 2289 2292 2295 2298 2301 2304 2307 2310 2313 2316 2319 2322 2325 2328 2331 2334 2337 2340 2343 2346 2349 2352 2355 2358 2361 2364 2367 2370 2373 2376 2379 2382 2385 2388 2391 2394 2397 2400 2403 2406 2409 2412 2415 2418 2421 2424 2427 2430 2433 2436 2439 2442 2445 2448 2451 2454 2457 2460 2463 2466 2469 2472 2475 2478 2481 2484 2487 2490 2493 2496 2499 2502 2505 2508 2511 2514 2517 2520 2523 2526 2529 2532 2535 2538 2541 2544 2547 2550 2553 2556 2559 2562 2565 2568 2571 2574 2577 2580 2583 2586 2589 2592 2595 2598 2601 2604 2607 2610 2613 2616 2619 2622 2625 2628 2631 2634 2637 2640 2643 2646 2649 2652 2655 2658 2661 2664 2667 2670 2673 2676 2679 2682 2685 2688 2691 2694 2697 2700 2703 2706 2709 2712 2715 2718 2721 2724 2727 2730 2733 2736 2739 2742 2745 2748 2751 2754 2757 2760 2763 2766 2769 2772 2775 2778 2781 2784 2787 2790 2793 2796 2799 2802 2805 2808 2811 2814 2817 2820 2823 2826 2829 2832 2835 2838 2841 2844 2847 2850 2853 2856 2859 2862 2865 2868 2871 2874 2877 2880 2883 2886 2889 2892 2895 2898 2901 2904 2907 2910 2913 2916 2919 2922 2925 2928 2931 2934 2937 2940 2943 2946 2949 2952 2955 2958 2961 2964 2967 2970 2973 2976 2979 2982 2985 2988 2991 2994 2997 3000 3003 3006 3009 3012 3015 3018 3021 3024 3027 3030 3033 3036 3039 3042 3045 3048 3051 3054 3057 3060 3063 3066 3069 3072 3075 3078 3081 3084 3087 3090 3093 3096 3099 3102 3105 3108 3111 3114 3117 3120 3123 3126 3129 3132 3135 3138 3141 3144 3147 3150 3153 3156 3159 3162 3165 3168 3171 3174 3177 3180 3183 3186 3189 3192 3195 3198 3201 3204 3207 3210 3213 3216 3219 3222 3225 3228 3231 3234 3237 3240 3243 3246 3249 3252 3255 3258 3261 3264 3267 3270 3273 3276 3279 3282 3285 3288 3291 3294 3297 3300 3303 3306 3309 3312 3315 3318 3321 3324 3327 3330 3333 3336 3339 3342 3345 3348 3351 3354 3357 3360 3363 3366 3369 3372 3375 3378 3381 3384 3387 3390 3393 3396 3399 3402 3405 3408 3411 3414 3417 3420 3423 3426 3429 3432 3435 3438 3441 3444 3447 3450 3453 3456 3459 3462 3465 3468 3471 3474 3477 3480 3483 3486 3489 3492 3495 3498 3501 3504 3507 3510 3513 3516 3519 3522 3525 3528 3531 3534 3537 3540 3543 3546 3549 3552 3555 3558 3561 3564 3567 3570 3573 3576 3579 3582 3585 3588 3591 3594 3597 3600 3603 3606 3609 3612 3615 3618 3621 3624 3627 3630 3633 3636 3639 3642 3645 3648 3651 3654 3657 3660 3663 3666 3669 3672 3675 3678 3681 3684 3687 3690 3693 3696 3699 3702 3705 3708 3711 3714 3717 3720 3723 3726 3729 3732 3735 3738 3741 3744 3747 3750 3753 3756 3759 3762 3765 3768 3771 3774 3777 3780 3783 3786 3789 3792 3795 3798 3801 3804 3807 3810 3813 3816 3819 3822 3825 3828 3831 3834 3837 3840 3843 3846 3849 3852 3855 3858 3861 3864 3867 3870 3873 3876 3879 3882 3885 3888 3891 3894 3897 3900 3903 3906 3909 3912 3915 3918 3921 3924 3927 3930 3933 3936 3939 3942 3945 3948 3951 3954 3957 3960 3963 3966 3969 3972 3975 3978 3981 3984 3987 3990 3993 3996 3999 4002 4005 4008 4011 4014 4017 4020 4023 4026 4029 4032 4035 4038 4041 4044 4047 4050 4053 4056 4059 4062 4065 4068 4071 4074 4077 4080 4083 4086 4089 4092 4095 4098 4101 4104 4107 4110 4113 4116 4119 4122 4125 4128 4131 4134 4137 4140 4143 4146 4149 4152 4155 4158 4161 4164 4167 4170 4173 4176 4179 4182 4185 4188 4191 4194 4197 4200 4203 4206 4209 4212 4215 4218 4221 4224 4227 4230 4233 4236 4239 4242 4245 4248 4251 4254 4257 4260 4263 4266 4269 4272 4275 4278 4281 4284 4287 4290 4293 4296 4299 4302 4305 4308 4311 4314 4317 4320 4323 4326 4329 4332 </DataArray>
            <DataArray Name="types" format="ascii" type="UInt8">5 5 5 5 5 5 5 5 5 5 5 5 5 5 5 5 5 5 5 5 5 5 5 5 5 5 5 5 5 5 5 5 5 5 5 5 5 5 5 5 5 5 5 5 5 5 5 5 5 5 5 5 5 5 5 5 5 5 5 5 5 5 5 5 5 5 5 5 5 5 5 5 5 5 5 5 5 5 5 5 5 5 5 5 5 5 5 5 5 5 5 5 5 5 5 5 5 5 5 5 5 5 5 5 5 5 5 5 5 5 5 5 5 5 5 5 5 5 5 5 5 5 5 5 5 5 5 5 5 5 5 5 5 5 5 5 5 5 5 5 5 5 5 5 5 5 5 5 5 5 5 5 5 5 5 5 5 5 5 5 5 5 5 5 5 5 5 5 5 5 5 5 5 5 5 5 5 5 5 5 5 5 5 5 5 5 5 5 5 5 5 5 5 5 5 5 5 5 5 5 5 5 5 5 5 5 5 5 5 5 5 5 5 5 5 5 5 5 5 5 5 5 5 5 5 5 5 5 5 5 5 5 5 5 5 5 5 5 5 5 5 5 5 5 5 5 5 5 5 5 5 5 5 5 5 5 5 5 5 5 5 5 5 5 5 5 5 5 5 5 5 5 5 5 5 5 5 5 5 5 5 5 5 5 5 5 5 5 5 5 5 5 5 5 5 5 5 5 5 5 5 5 5 5 5 5 5 5 5 5 5 5 5 5 5 5 5 5 5 5 5 5 5 5 5 5 5 5 5 5 5 5 5 5 5 5 5 5 5 5 5 5 5 5 5 5 5 5 5 5 5 5 5 5 5 5 5 5 5 5 5 5 5 5 5 5 5 5 5 5 5 5 5 5 5 5 5 5 5 5 5 5 5 5 5 5 5 5 5 5 5 5 5 5 5 5 5 5 5 5 5 5 5 5 5 5 5 5 5 5 5 5 5 5 5 5 5 5 5 5 5 5 5 5 5 5 5 5 5 5 5 5 5 5 5 5 5 5 5 5 5 5 5 5 5 5 5 5 5 5 5 5 5 5 5 5 5 5 5 5 5 5 5 5 5 5 5 5 5 5 5 5 5 5 5 5 5 5 5 5 5 5 5 5 5 5 5 5 5 5 5 5 5 5 5 5 5 5 5 5 5 5 5 5 5 5 5 5 5 5 5 5 5 5 5 5 5 5 5 5 5 5 5 5 5 5 5 5 5 5 5 5 5 5 5 5 5 5 5 5 5 5 5 5 5 5 5 5 5 5 5 5 5 5 5 5 5 5 5 5 5 5 5 5 5 5 5 5 5 5 5 5 5 5 5 5 5 5 5 5 5 5 5 5 5 5 5 5 5 5 5 5 5 5 5 5 5 5 5 5 5 5 5 5 5 5 5 5 5 5 5 5 5 5 5 5 5 5 5 5 5 5 5 5 5 5 5 5 5 5 5 5 5 5 5 5 5 5 5 5 5 5 5 5 5 5 5 5 5 5 5 5 5 5 5 5 5 5 5 5 5 5 5 5 5 5 5 5 5 5 5 5 5 5 5 5 5 5 5 5 5 5 5 5 5 5 5 5 5 5 5 5 5 5 5 5 5 5 5 5 5 5 5 5 5 5 5 5 5 5 5 5 5 5 5 5 5 5 5 5 5 5 5 5 5 5 5 5 5 5 5 5 5 5 5 5 5 5 5 5 5 5 5 5 5 5 5 5 5 5 5 5 5 5 5 5 5 5 5 5 5 5 5 5 5 5 5 5 5 5 5 5 5 5 5 5 5 5 5 5 5 5 5 5 5 5 5 5 5 5 5 5 5 5 5 5 5 5 5 5 5 5 5 5 5 5 5 5 5 5 5 5 5 5 5 5 5 5 5 5 5 5 5 5 5 5 5 5 5 5 5 5 5 5 5 5 5 5 5 5 5 5 5 5 5 5 5 5 5 5 5 5 5 5 5 5 5 5 5 5 5 5 5 5 5 5 5 5 5 5 5 5 5 5 5 5 5 5 5 5 5 5 5 5 5 5 5 5 5 5 5 5 5 5 5 5 5 5 5 5 5 5 5 5 5 5 5 5 5 5 5 5 5 5 5 5 5 5 5 5 5 5 5 5 5 5 5 5 5 5 5 5 5 5 5 5 5 5 5 5 5 5 5 5 5 5 5 5 5 5 5 5 5 5 5 5 5 5 5 5 5 5 5 5 5 5 5 5 5 5 5 5 5 5 5 5 5 5 5 5 5 5 5 5 5 5 5 5 5 5 5 5 5 5 5 5 5 5 5 5 5 5 5 5 5 5 5 5 5 5 5 5 5 5 5 5 5 5 5 5 5 5 5 5 5 5 5 5 5 5 5 5 5 5 5 5 5 5 5 5 5 5 5 5 5 5 5 5 5 5 5 5 5 5 5 5 5 5 5 5 5 5 5 5 5 5 5 5 5 5 5 5 5 5 5 5 5 5 5 5 5 5 5 5 5 5 5 5 5 5 5 5 5 5 5 5 5 5 5 5 5 5 5 5 5 5 5 5 5 5 5 5 5 5 5 5 5 5 5 5 5 5 5 5 5 5 5 5 5 5 5 5 5 5 5 5 5 5 5 5 5 5 5 5 5 5 5 5 5 5 5 5 5 5 5 5 5 5 5 5 5 5 5 5 5 5 5 5 5 5 5 5 5 5 5 5 5 5 5 5 5 5 5 5 5 5 5 5 5 5 5 5 5 5 5 5 5 5 5 5 5 5 5 5 5 5 5 5 5 5 5 5 5 5 5 5 5 5 5 5 5 5 5 5 5 5 5 5 5 5 5 5 5 5 5 5 5 5 5 5 5 5 5 5 5 5 5 5 5 5 5 5 5 5 5 5 5 5 5 5 5 5 5 5 5 5 5 5 5 5 5 5 5 5 5 5 5 5 5 5 5 5 5 5 5 5 5 5 5 5 5 5 5 5 5 5 5 5 5 5 5 5 5 5 5 5 5 5 5 5 5 5 5 5 5 5 5 5 5 5 5 5 5 5 5 5 5 5 5 5 5 5 5 5 5 5 5 5 5 5 5 5 5 5 5 5 5 5 5 5 5 5 5 5 5 5 5 5 5 5 5 5 5 5 5 5 5 5 5 5 5 5 5 5 5 5 5 5 5 5 5 5 5 5 5 5 5 5 5 5 5 5 5 5 5 5 5 5 5 5 5 5 5 5 5 5 5 5 5 5 5 5 5 5 5 5 5 5 5 5 5 5 5 5 5 5 5 5 5 5 5 5 5 5 5 5 5 5 5 5 5 5 5 5 </DataArray>
         </Cells>
         <PointData>
            <DataArray Name="displacement" NumberOfComponents="2" format="ascii" type="Float64">
 6.79070e+13  2.99975e+00 
 6.64613e+13  9.29605e-01 
 6.50156e+13  1.65838e+00 
 6.35698e+13  2.21962e+00 
 6.21241e+13  2.64469e+00 
 6.06784e+13  2.99410e+00 
 5.92327e+13  3.26384e+00 
 5.77869e+13  3.46881e+00 
 5.63412e+13  3.59781e+00 
 5.48955e+13  3.69886e+00 
 5.34497e+13  3.78906e+00 
 5.20040e+13  3.87774e+00 
 5.05583e+13  3.93195e+00 
 4.91126e+13  3.98108e+00 
 4.76668e+13  4.02932e+00 
 4.62211e+13  4.05530e+00 
 4.47754e+13  4.07602e+00 
 4.33296e+13  4.08554e+00 
 4.18839e+13  4.08672e+00 
 4.04382e+13  4.08908e+00 
 6.79070e+13  2.89146e+12 
 6.64613e+13  2.89146e+12 
 6.50156e+13  2.89146e+12 
 6.35698e+13  2.89146e+12 
 6.21241e+13  2.89146e+12 
 6.06784e+13  2.89146e+12 
 5.92327e+13  2.89146e+12 
 5.77869e+13  2.89146e+12 
 5.63412e+13  2.89146e+12 
 5.48955e+13  2.89146e+12 
 5.34497e+13  2.89146e+12 
 5.20040e+13  2.89146e+12 
 5.05583e+13  2.89146e+12 
 4.91126e+13  2.89146e+12 
 4.76668e+13  2.89146e+12 
 4.62211e+13  2.89146e+12 
 4.47754e+13  2.89146e+12 
 4.33296e+13  2.89146e+12 
 4.18839e+13  2.89146e+12 
 4.04382e+13  2.89146e+12 
 6.79070e+13  5.78291e+12 
 6.64613e+13  5.78291e+12 
 6.50156e+13  5.78291e+12 
 6.35698e+13  5.78291e+12 
 6.21241e+13  5.78291e+12 
 6.06784e+13  5.78291e+12 
 5.92327e+13  5.78291e+12 
 5.77869e+13  5.78291e+12 
 5.63412e+13  5.78291e+12 
 5.48955e+13  5.78291e+12 
 5.34497e+13  5.78291e+12 
 5.20040e+13  5.78291e+12 
 5.05583e+13  5.78291e+12 
 4.91126e+13  5.78291e+12 
 4.76668e+13  5.78291e+12 
 4.62211e+13  5.78291e+12 
 4.47754e+13  5.78291e+12 
 4.33296e+13  5.78291e+12 
 4.18839e+13  5.78291e+12 
 4.04382e+13  5.78291e+12 
 6.79070e+13  8.67437e+12 
 6.64613e+13  8.67437e+12 
 6.50156e+13  8.67437e+12 
 6.35698e+13  8.67437e+12 
 6.21241e+13  8.67437e+12 
 6.06784e+13  8.67437e+12 
 5.92327e+13  8.67437e+12 
 5.77869e+13  8.67437e+12 
 5.63412e+13  8.67437e+12 
 5.48955e+13  8.67437e+12 
 5.34497e+13  8.67437e+12 
 5.20040e+13  8.67437e+12 
 5.05583e+13  8.67437e+12 
 4.91126e+13  8.67437e+12 
 4.76668e+13  8.67437e+12 
 4.62211e+13  8.67437e+12 
 4.47754e+13  8.67437e+12 
 4.33296e+13  8.67437e+12 
 4.18839e+13  8.67437e+12 
 4.04382e+13  8.67437e+12 
 6.79070e+13  1.15658e+13 
 6.64613e+13  1.15658e+13 
 6.50156e+13  1.15658e+13 
 6.35698e+13  1.15658e+13 
 6.21241e+13  1.15658e+13 
 6.06784e+13  1.15658e+13 
 5.92327e+13  1.15658e+13 
 5.77869e+13  1.15658e+13 
 5.63412e+13  1.15658e+13 
 5.48955e+13  1.15658e+13 
 5.34497e+13  1.15658e+13 
 5.20040e+13  1.15658e+13 
 5.05583e+13  1.15658e+13 
 4.91126e+13  1.15658e+13 
 4.76668e+13  1.15658e+13 
 4.62211e+13  1.15658e+13 
 4.47754e+13  1.15658e+13 
43329648336220  1.15658e+13 
 4.18839e+13  1.15658e+13 
 4.04382e+13  1.15658e+13 
 6.79070e+13  1.44573e+13 
 6.64613e+13  1.44573e+13 
 6.50156e+13  1.44573e+13 
 6.35698e+13  1.44573e+13 
 6.21241e+13  1.44573e+13 
 6.06784e+13  1.44573e+13 
 5.92327e+13  1.44573e+13 
 5.77869e+13  1.44573e+13 
 5.63412e+13  1.44573e+13 
 5.48955e+13  1.44573e+13 
 5.34497e+13  1.44573e+13 
 5.20040e+13  1.44573e+13 
 5.05583e+13  1.44573e+13 
 4.91126e+13  1.44573e+13 
 4.76668e+13  1.44573e+13 
 4.62211e+13  1.44573e+13 
 4.47754e+13  1.44573e+13 
 4.33296e+13  1.44573e+13 
 4.18839e+13  1.44573e+13 
 4.04382e+13  1.44573e+13 
 6.79070e+13  1.73487e+13 
 6.64613e+13  1.73487e+13 
 6.50156e+13  1.73487e+13 
 6.35698e+13  1.73487e+13 
 6.21241e+13  1.73487e+13 
 6.06784e+13  1.73487e+13 
 5.92327e+13  1.73487e+13 
 5.77869e+13  1.73487e+13 
 5.63412e+13  1.73487e+13 
 5.48955e+13  1.73487e+13 
 5.34497e+13  1.73487e+13 
 5.20040e+13  1.73487e+13 
 5.05583e+13  1.73487e+13 
 4.91126e+13  1.73487e+13 
 4.76668e+13  1.73487e+13 
 4.62211e+13  1.73487e+13 
 4.47754e+13  1.73487e+13 
 4.33296e+13  1.73487e+13 
 4.18839e+13  1.73487e+13 
 4.04382e+13  1.73487e+13 
 6.79070e+13  2.02402e+13 
 6.64613e+13  2.02402e+13 
 6.50156e+13  2.02402e+13 
 6.35698e+13  2.02402e+13 
 6.21241e+13  2.02402e+13 
 6.06784e+13  2.02402e+13 
 5.92327e+13  2.02402e+13 
 5.77869e+13  2.02402e+13 
 5.63412e+13  2.02402e+13 
 5.48955e+13  2.02402e+13 
 5.34497e+13  2.02402e+13 
 5.20040e+13  2.02402e+13 
 5.05583e+13  2.02402e+13 
 4.91126e+13  2.02402e+13 
 4.76668e+13  2.02402e+13 
 4.62211e+13  2.02402e+13 
 4.47754e+13  2.02402e+13 
 4.33296e+13  2.02402e+13 
 4.18839e+13  2.02402e+13 
 4.04382e+13  2.02402e+13 
 6.79070e+13  2.31316e+13 
 6.64613e+13  2.31316e+13 
 6.50156e+13  2.31316e+13 
 6.35698e+13  2.31316e+13 
 6.21241e+13  2.31316e+13 
 6.06784e+13  2.31316e+13 
 5.92327e+13  2.31316e+13 
 5.77869e+13  2.31316e+13 
 5.63412e+13  2.31316e+13 
 5.48955e+13  2.31316e+13 
 5.34497e+13  2.31316e+13 
 5.20040e+13  2.31316e+13 
 5.05583e+13  2.31316e+13 
 4.91126e+13  2.31316e+13 
 4.76668e+13  2.31316e+13 
 4.62211e+13  2.31316e+13 
 4.47754e+13  2.31316e+13 
 4.33296e+13  2.31316e+13 
 4.18839e+13  2.31316e+13 
 4.04382e+13  2.31316e+13 
 6.79070e+13  2.60231e+13 
 6.64613e+13  2.60231e+13 
 6.50156e+13  2.60231e+13 
 6.35698e+13  2.60231e+13 
 6.21241e+13  2.60231e+13 
 6.06784e+13  2.60231e+13 
 5.92327e+13  2.60231e+13 
 5.77869e+13  2.60231e+13 
 5.63412e+13  2.60231e+13 
 5.48955e+13  2.60231e+13 
 5.34497e+13  2.60231e+13 
 5.20040e+13  2.60231e+13 
 5.05583e+13  2.60231e+13 
 4.91126e+13  2.60231e+13 
 4.76668e+13  2.60231e+13 
 4.62211e+13  2.60231e+13 
 4.47754e+13  2.60231e+13 
 4.33296e+13  2.60231e+13 
41883920732131  2.60231e+13 
 4.04382e+13  2.60231e+13 
 6.79070e+13  2.89146e+13 
 6.64613e+13  2.89146e+13 
 6.50156e+13  2.89146e+13 
 6.35698e+13  2.89146e+13 
 6.21241e+13  2.89146e+13 
 6.06784e+13  2.89146e+13 
 5.92327e+13  2.89146e+13 
 5.77869e+13  2.89146e+13 
 5.63412e+13  2.89146e+13 
 5.48955e+13  2.89146e+13 
 5.34497e+13  2.89146e+13 
 5.20040e+13  2.89146e+13 
 5.05583e+13  2.89146e+13 
 4.91126e+13  2.89146e+13 
 4.76668e+13  2.89146e+13 
 4.62211e+13  2.89146e+13 
 4.47754e+13  2.89146e+13 
 4.33296e+13  2.89146e+13 
 4.18839e+13  2.89146e+13 
 4.04382e+13  2.89146e+13 
 6.79070e+13  3.18060e+13 
 6.64613e+13  3.18060e+13 
 6.50156e+13  3.18060e+13 
 6.35698e+13  3.18060e+13 
 6.21241e+13  3.18060e+13 
 6.06784e+13  3.18060e+13 
 5.92327e+13  3.18060e+13 
 5.77869e+13  3.18060e+13 
 5.63412e+13  3.18060e+13 
 5.48955e+13  3.18060e+13 
 5.34497e+13  3.18060e+13 
 5.20040e+13  3.18060e+13 
 5.05583e+13  3.18060e+13 
 4.91126e+13  3.18060e+13 
 4.76668e+13  3.18060e+13 
 4.62211e+13  3.18060e+13 
 4.47754e+13  3.18060e+13 
 4.33296e+13  3.18060e+13 
 4.18839e+13  3.18060e+13 
 4.04382e+13  3.18060e+13 
 6.79070e+13  3.46975e+13 
 6.64613e+13  3.46975e+13 
 6.50156e+13  3.46975e+13 
 6.35698e+13 34697462498177 
 6.21241e+13  3.46975e+13 
 6.06784e+13  3.46975e+13 
 5.92327e+13  3.46975e+13 
 5.77869e+13  3.46975e+13 
 5.63412e+13  3.46975e+13 
 5.48955e+13  3.46975e+13 
 5.34497e+13  3.46975e+13 
 5.20040e+13  3.46975e+13 
 5.05583e+13  3.46975e+13 
 4.91126e+13  3.46975e+13 
 4.76668e+13  3.46975e+13 
 4.62211e+13  3.46975e+13 
 4.47754e+13  3.46975e+13 
 4.33296e+13  3.46975e+13 
 4.18839e+13  3.46975e+13 
 4.04382e+13  3.46975e+13 
 6.79070e+13  3.75889e+13 
 6.64613e+13  3.75889e+13 
 6.50156e+13  3.75889e+13 
 6.35698e+13  3.75889e+13 
 6.21241e+13  3.75889e+13 
 6.06784e+13  3.75889e+13 
 5.92327e+13  3.75889e+13 
 5.77869e+13  3.75889e+13 
 5.63412e+13  3.75889e+13 
 5.48955e+13  3.75889e+13 
 5.34497e+13  3.75889e+13 
 5.20040e+13  3.75889e+13 
 5.05583e+13  3.75889e+13 
 4.91126e+13  3.75889e+13 
 4.76668e+13  3.75889e+13 
 4.62211e+13  3.75889e+13 
 4.47754e+13  3.75889e+13 
 4.33296e+13  3.75889e+13 
 4.18839e+13  3.75889e+13 
 4.04382e+13  3.75889e+13 
 6.79070e+13  4.04804e+13 
 6.64613e+13  4.04804e+13 
 6.50156e+13  4.04804e+13 
 6.35698e+13  4.04804e+13 
 6.21241e+13  4.04804e+13 
 6.06784e+13  4.04804e+13 
 5.92327e+13  4.04804e+13 
 5.77869e+13  4.04804e+13 
 5.63412e+13  4.04804e+13 
 5.48955e+13  4.04804e+13 
 5.34497e+13  4.04804e+13 
 5.20040e+13  4.04804e+13 
 5.05583e+13  4.04804e+13 
 4.91126e+13  4.04804e+13 
 4.76668e+13  4.04804e+13 
 4.62211e+13  4.04804e+13 
 4.47754e+13  4.04804e+13 
 4.33296e+13  4.04804e+13 
 4.18839e+13  4.04804e+13 
 4.04382e+13  4.04804e+13 
 6.79070e+13  4.33718e+13 
 6.64613e+13  4.33718e+13 
 6.50156e+13  4.33718e+13 
 6.35698e+13  4.33718e+13 
 6.21241e+13  4.33718e+13 
 6.06784e+13  4.33718e+13 
 5.92327e+13  4.33718e+13 
 5.77869e+13  4.33718e+13 
 5.63412e+13  4.33718e+13 
 5.48955e+13  4.33718e+13 
 5.34497e+13  4.33718e+13 
 5.20040e+13  4.33718e+13 
 5.05583e+13  4.33718e+13 
 4.91126e+13  4.33718e+13 
 4.76668e+13  4.33718e+13 
 4.62211e+13  4.33718e+13 
 4.47754e+13  4.33718e+13 
 4.33296e+13  4.33718e+13 
 4.18839e+13  4.33718e+13 
 4.04382e+13  4.33718e+13 
 6.79070e+13  4.62633e+13 
 6.64613e+13  4.62633e+13 
 6.50156e+13  4.62633e+13 
 6.35698e+13  4.62633e+13 
 6.21241e+13  4.62633e+13 
 6.06784e+13  4.62633e+13 
 5.92327e+13  4.62633e+13 
 5.77869e+13  4.62633e+13 
 5.63412e+13  4.62633e+13 
 5.48955e+13  4.62633e+13 
 5.34497e+13  4.62633e+13 
 5.20040e+13  4.62633e+13 
 5.05583e+13  4.62633e+13 
 4.91126e+13  4.62633e+13 
 4.76668e+13  4.62633e+13 
 4.62211e+13  4.62633e+13 
 4.47754e+13  4.62633e+13 
 4.33296e+13  4.62633e+13 
 4.18839e+13  4.62633e+13 
 4.04382e+13  4.62633e+13 
 6.79070e+13  4.91547e+13 
 6.64613e+13  4.91547e+13 
 6.50156e+13  4.91547e+13 
 6.35698e+13  4.91547e+13 
 6.21241e+13  4.91547e+13 
 6.06784e+13  4.91547e+13 
 5.92327e+13  4.91547e+13 
 5.77869e+13  4.91547e+13 
 5.63412e+13  4.91547e+13 
 5.48955e+13  4.91547e+13 
 5.34497e+13  4.91547e+13 
 5.20040e+13  4.91547e+13 
 5.05583e+13  4.91547e+13 
 4.91126e+13  4.91547e+13 
 4.76668e+13  4.91547e+13 
 4.62211e+13  4.91547e+13 
 4.47754e+13  4.91547e+13 
 4.33296e+13  4.91547e+13 
 4.18839e+13  4.91547e+13 
 4.04382e+13  4.91547e+13 
 6.79070e+13  5.20462e+13 
 6.64613e+13  5.20462e+13 
 6.50156e+13  5.20462e+13 
 6.35698e+13  5.20462e+13 
 6.21241e+13  5.20462e+13 
 6.06784e+13  5.20462e+13 
 5.92327e+13  5.20462e+13 
 5.77869e+13  5.20462e+13 
 5.63412e+13  5.20462e+13 
 5.48955e+13  5.20462e+13 
 5.34497e+13  5.20462e+13 
 5.20040e+13  5.20462e+13 
 5.05583e+13  5.20462e+13 
 4.91126e+13  5.20462e+13 
 4.76668e+13  5.20462e+13 
 4.62211e+13  5.20462e+13 
 4.47754e+13  5.20462e+13 
 4.33296e+13  5.20462e+13 
 4.18839e+13  5.20462e+13 
 4.04382e+13  5.20462e+13 
 6.79070e+13  5.49376e+13 
 6.64613e+13  5.49376e+13 
 6.50156e+13  5.49376e+13 
 6.35698e+13  5.49376e+13 
 6.21241e+13  5.49376e+13 
 6.06784e+13  5.49376e+13 
 5.92327e+13  5.49376e+13 
 5.77869e+13  5.49376e+13 
 5.63412e+13  5.49376e+13 
 5.48955e+13  5.49376e+13 
 5.34497e+13  5.49376e+13 
 5.20040e+13  5.49376e+13 
 5.05583e+13  5.49376e+13 
 4.91126e+13  5.49376e+13 
 4.76668e+13  5.49376e+13 
 4.62211e+13  5.49376e+13 
 4.47754e+13  5.49376e+13 
 4.33296e+13  5.49376e+13 
 4.18839e+13  5.49376e+13 
 4.04382e+13  5.49376e+13 
 6.71842e+13  1.44573e+12 
 6.57384e+13  1.44573e+12 
 6.42927e+13  1.44573e+12 
 6.28470e+13  1.44573e+12 
 6.14012e+13  1.44573e+12 
 5.99555e+13  1.44573e+12 
 5.85098e+13  1.44573e+12 
 5.70641e+13  1.44573e+12 
 5.56183e+13  1.44573e+12 
 5.41726e+13  1.44573e+12 
 5.27269e+13  1.44573e+12 
 5.12812e+13  1.44573e+12 
 4.98354e+13  1.44573e+12 
 4.83897e+13  1.44573e+12 
 4.69440e+13  1.44573e+12 
 4.54982e+13  1.44573e+12 
 4.40525e+13  1.44573e+12 
 4.26068e+13  1.44573e+12 
 4.11611e+13  1.44573e+12 
 6.71842e+13  4.33718e+12 
 6.57384e+13  4.33718e+12 
 6.42927e+13  4.33718e+12 
 6.28470e+13  4.33718e+12 
 6.14012e+13  4.33718e+12 
 5.99555e+13  4.33718e+12 
 5.85098e+13  4.33718e+12 
 5.70641e+13  4.33718e+12 
 5.56183e+13  4.33718e+12 
 5.41726e+13  4.33718e+12 
 5.27269e+13  4.33718e+12 
 5.12812e+13  4.33718e+12 
 4.98354e+13  4.33718e+12 
 4.83897e+13  4.33718e+12 
 4.69440e+13  4.33718e+12 
 4.54982e+13  4.33718e+12 
 4.40525e+13  4.33718e+12 
 4.26068e+13  4.33718e+12 
 4.11611e+13  4.33718e+12 
 6.71842e+13  7.22864e+12 
 6.57384e+13  7.22864e+12 
 6.42927e+13  7.22864e+12 
 6.28470e+13  7.22864e+12 
 6.14012e+13  7.22864e+12 
 5.99555e+13  7.22864e+12 
 5.85098e+13  7.22864e+12 
 5.70641e+13  7.22864e+12 
 5.56183e+13  7.22864e+12 
 5.41726e+13  7.22864e+12 
 5.27269e+13  7.22864e+12 
 5.12812e+13  7.22864e+12 
 4.98354e+13  7.22864e+12 
 4.83897e+13  7.22864e+12 
 4.69440e+13  7.22864e+12 
 4.54982e+13  7.22864e+12 
 4.40525e+13  7.22864e+12 
 4.26068e+13  7.22864e+12 
 4.11611e+13  7.22864e+12 
 6.71842e+13  1.01201e+13 
 6.57384e+13  1.01201e+13 
 6.42927e+13  1.01201e+13 
62846970991442  1.01201e+13 
 6.14012e+13  1.01201e+13 
 5.99555e+13  1.01201e+13 
 5.85098e+13  1.01201e+13 
 5.70641e+13  1.01201e+13 
 5.56183e+13  1.01201e+13 
 5.41726e+13  1.01201e+13 
 5.27269e+13  1.01201e+13 
 5.12812e+13  1.01201e+13 
 4.98354e+13  1.01201e+13 
 4.83897e+13  1.01201e+13 
 4.69440e+13  1.01201e+13 
 4.54982e+13  1.01201e+13 
 4.40525e+13  1.01201e+13 
 4.26068e+13  1.01201e+13 
41161056930084  1.01201e+13 
 6.71842e+13  1.30115e+13 
 6.57384e+13  1.30115e+13 
 6.42927e+13  1.30115e+13 
 6.28470e+13  1.30115e+13 
 6.14012e+13  1.30115e+13 
 5.99555e+13  1.30115e+13 
 5.85098e+13  1.30115e+13 
 5.70641e+13  1.30115e+13 
 5.56183e+13  1.30115e+13 
 5.41726e+13  1.30115e+13 
 5.27269e+13  1.30115e+13 
 5.12812e+13  1.30115e+13 
 4.98354e+13  1.30115e+13 
 4.83897e+13  1.30115e+13 
 4.69440e+13  1.30115e+13 
 4.54982e+13  1.30115e+13 
 4.40525e+13  1.30115e+13 
 4.26068e+13  1.30115e+13 
 4.11611e+13  1.30115e+13 
 6.71842e+13  1.59030e+13 
 6.57384e+13  1.59030e+13 
 6.42927e+13  1.59030e+13 
 6.28470e+13  1.59030e+13 
 6.14012e+13  1.59030e+13 
 5.99555e+13  1.59030e+13 
 5.85098e+13  1.59030e+13 
 5.70641e+13  1.59030e+13 
 5.56183e+13  1.59030e+13 
 5.41726e+13  1.59030e+13 
 5.27269e+13  1.59030e+13 
 5.12812e+13  1.59030e+13 
 4.98354e+13  1.59030e+13 
 4.83897e+13  1.59030e+13 
 4.69440e+13  1.59030e+13 
 4.54982e+13  1.59030e+13 
 4.40525e+13  1.59030e+13 
 4.26068e+13  1.59030e+13 
 4.11611e+13  1.59030e+13 
 6.71842e+13  1.87945e+13 
 6.57384e+13  1.87945e+13 
 6.42927e+13  1.87945e+13 
 6.28470e+13  1.87945e+13 
 6.14012e+13  1.87945e+13 
 5.99555e+13  1.87945e+13 
 5.85098e+13  1.87945e+13 
 5.70641e+13  1.87945e+13 
 5.56183e+13  1.87945e+13 
 5.41726e+13  1.87945e+13 
 5.27269e+13  1.87945e+13 
 5.12812e+13  1.87945e+13 
 4.98354e+13  1.87945e+13 
 4.83897e+13  1.87945e+13 
 4.69440e+13  1.87945e+13 
 4.54982e+13  1.87945e+13 
 4.40525e+13  1.87945e+13 
 4.26068e+13  1.87945e+13 
 4.11611e+13  1.87945e+13 
 6.71842e+13  2.16859e+13 
 6.57384e+13  2.16859e+13 
 6.42927e+13  2.16859e+13 
 6.28470e+13  2.16859e+13 
 6.14012e+13  2.16859e+13 
59955515783260  2.16859e+13 
 5.85098e+13  2.16859e+13 
 5.70641e+13  2.16859e+13 
 5.56183e+13  2.16859e+13 
 5.41726e+13  2.16859e+13 
 5.27269e+13  2.16859e+13 
 5.12812e+13  2.16859e+13 
 4.98354e+13  2.16859e+13 
 4.83897e+13  2.16859e+13 
 4.69440e+13  2.16859e+13 
 4.54982e+13  2.16859e+13 
 4.40525e+13  2.16859e+13 
 4.26068e+13  2.16859e+13 
 4.11611e+13  2.16859e+13 
 6.71842e+13  2.45774e+13 
 6.57384e+13  2.45774e+13 
 6.42927e+13  2.45774e+13 
 6.28470e+13  2.45774e+13 
 6.14012e+13  2.45774e+13 
 5.99555e+13  2.45774e+13 
 5.85098e+13  2.45774e+13 
 5.70641e+13  2.45774e+13 
 5.56183e+13  2.45774e+13 
 5.41726e+13  2.45774e+13 
 5.27269e+13  2.45774e+13 
 5.12812e+13  2.45774e+13 
 4.98354e+13  2.45774e+13 
 4.83897e+13  2.45774e+13 
 4.69440e+13  2.45774e+13 
 4.54982e+13  2.45774e+13 
 4.40525e+13  2.45774e+13 
 4.26068e+13  2.45774e+13 
 4.11611e+13  2.45774e+13 
 6.71842e+13  2.74688e+13 
 6.57384e+13  2.74688e+13 
 6.42927e+13  2.74688e+13 
 6.28470e+13  2.74688e+13 
 6.14012e+13  2.74688e+13 
 5.99555e+13  2.74688e+13 
 5.85098e+13  2.74688e+13 
 5.70641e+13  2.74688e+13 
 5.56183e+13  2.74688e+13 
 5.41726e+13  2.74688e+13 
 5.27269e+13  2.74688e+13 
 5.12812e+13  2.74688e+13 
 4.98354e+13  2.74688e+13 
 4.83897e+13  2.74688e+13 
 4.69440e+13  2.74688e+13 
 4.54982e+13  2.74688e+13 
 4.40525e+13  2.74688e+13 
 4.26068e+13  2.74688e+13 
 4.11611e+13  2.74688e+13 
 6.71842e+13  3.03603e+13 
 6.57384e+13  3.03603e+13 
 6.42927e+13  3.03603e+13 
 6.28470e+13  3.03603e+13 
 6.14012e+13  3.03603e+13 
 5.99555e+13  3.03603e+13 
 5.85098e+13  3.03603e+13 
 5.70641e+13  3.03603e+13 
 5.56183e+13  3.03603e+13 
 5.41726e+13  3.03603e+13 
 5.27269e+13  3.03603e+13 
 5.12812e+13  3.03603e+13 
 4.98354e+13  3.03603e+13 
 4.83897e+13  3.03603e+13 
 4.69440e+13  3.03603e+13 
 4.54982e+13  3.03603e+13 
 4.40525e+13  3.03603e+13 
 4.26068e+13  3.03603e+13 
 4.11611e+13  3.03603e+13 
 6.71842e+13  3.32517e+13 
 6.57384e+13  3.32517e+13 
 6.42927e+13  3.32517e+13 
 6.28470e+13  3.32517e+13 
 6.14012e+13  3.32517e+13 
 5.99555e+13  3.32517e+13 
 5.85098e+13  3.32517e+13 
 5.70641e+13  3.32517e+13 
 5.56183e+13  3.32517e+13 
 5.41726e+13  3.32517e+13 
 5.27269e+13  3.32517e+13 
 5.12812e+13  3.32517e+13 
 4.98354e+13  3.32517e+13 
 4.83897e+13  3.32517e+13 
 4.69440e+13  3.32517e+13 
 4.54982e+13  3.32517e+13 
 4.40525e+13  3.32517e+13 
 4.26068e+13  3.32517e+13 
 4.11611e+13  3.32517e+13 
 6.71842e+13  3.61432e+13 
 6.57384e+13  3.61432e+13 
 6.42927e+13  3.61432e+13 
 6.28470e+13  3.61432e+13 
 6.14012e+13  3.61432e+13 
 5.99555e+13  3.61432e+13 
 5.85098e+13  3.61432e+13 
 5.70641e+13  3.61432e+13 
 5.56183e+13  3.61432e+13 
 5.41726e+13  3.61432e+13 
 5.27269e+13  3.61432e+13 
 5.12812e+13  3.61432e+13 
 4.98354e+13  3.61432e+13 
 4.83897e+13  3.61432e+13 
 4.69440e+13  3.61432e+13 
 4.54982e+13  3.61432e+13 
 4.40525e+13  3.61432e+13 
 4.26068e+13  3.61432e+13 
 4.11611e+13  3.61432e+13 
 6.71842e+13  3.90346e+13 
 6.57384e+13  3.90346e+13 
 6.42927e+13  3.90346e+13 
 6.28470e+13  3.90346e+13 
 6.14012e+13  3.90346e+13 
 5.99555e+13  3.90346e+13 
 5.85098e+13  3.90346e+13 
 5.70641e+13  3.90346e+13 
 5.56183e+13  3.90346e+13 
 5.41726e+13  3.90346e+13 
 5.27269e+13  3.90346e+13 
 5.12812e+13  3.90346e+13 
 4.98354e+13  3.90346e+13 
 4.83897e+13  3.90346e+13 
 4.69440e+13  3.90346e+13 
 4.54982e+13  3.90346e+13 
 4.40525e+13  3.90346e+13 
 4.26068e+13  3.90346e+13 
 4.11611e+13  3.90346e+13 
 6.71842e+13  4.19261e+13 
 6.57384e+13  4.19261e+13 
 6.42927e+13  4.19261e+13 
 6.28470e+13  4.19261e+13 
 6.14012e+13  4.19261e+13 
 5.99555e+13  4.19261e+13 
 5.85098e+13  4.19261e+13 
 5.70641e+13  4.19261e+13 
 5.56183e+13  4.19261e+13 
 5.41726e+13  4.19261e+13 
 5.27269e+13  4.19261e+13 
 5.12812e+13  4.19261e+13 
 4.98354e+13  4.19261e+13 
 4.83897e+13  4.19261e+13 
 4.69440e+13  4.19261e+13 
 4.54982e+13  4.19261e+13 
 4.40525e+13  4.19261e+13 
 4.26068e+13  4.19261e+13 
 4.11611e+13  4.19261e+13 
 6.71842e+13  4.48176e+13 
 6.57384e+13  4.48176e+13 
 6.42927e+13  4.48176e+13 
 6.28470e+13  4.48176e+13 
 6.14012e+13  4.48176e+13 
 5.99555e+13  4.48176e+13 
 5.85098e+13  4.48176e+13 
 5.70641e+13  4.48176e+13 
 5.56183e+13  4.48176e+13 
 5.41726e+13  4.48176e+13 
 5.27269e+13  4.48176e+13 
 5.12812e+13  4.48176e+13 
 4.98354e+13  4.48176e+13 
 4.83897e+13  4.48176e+13 
 4.69440e+13  4.48176e+13 
 4.54982e+13  4.48176e+13 
 4.40525e+13  4.48176e+13 
 4.26068e+13  4.48176e+13 
 4.11611e+13  4.48176e+13 
 6.71842e+13  4.77090e+13 
 6.57384e+13  4.77090e+13 
 6.42927e+13  4.77090e+13 
 6.28470e+13  4.77090e+13 
 6.14012e+13  4.77090e+13 
 5.99555e+13  4.77090e+13 
 5.85098e+13  4.77090e+13 
 5.70641e+13  4.77090e+13 
 5.56183e+13  4.77090e+13 
 5.41726e+13  4.77090e+13 
 5.27269e+13  4.77090e+13 
 5.12812e+13  4.77090e+13 
 4.98354e+13  4.77090e+13 
 4.83897e+13  4.77090e+13 
 4.69440e+13  4.77090e+13 
 4.54982e+13  4.77090e+13 
 4.40525e+13  4.77090e+13 
 4.26068e+13  4.77090e+13 
 4.11611e+13  4.77090e+13 
 6.71842e+13  5.06005e+13 
 6.57384e+13  5.06005e+13 
 6.42927e+13  5.06005e+13 
 6.28470e+13  5.06005e+13 
 6.14012e+13  5.06005e+13 
 5.99555e+13  5.06005e+13 
 5.85098e+13  5.06005e+13 
 5.70641e+13  5.06005e+13 
 5.56183e+13  5.06005e+13 
 5.41726e+13  5.06005e+13 
 5.27269e+13  5.06005e+13 
 5.12812e+13  5.06005e+13 
 4.98354e+13  5.06005e+13 
 4.83897e+13  5.06005e+13 
 4.69440e+13  5.06005e+13 
 4.54982e+13  5.06005e+13 
 4.40525e+13  5.06005e+13 
 4.26068e+13  5.06005e+13 
 4.11611e+13  5.06005e+13 
 6.71842e+13  5.34919e+13 
 6.57384e+13  5.34919e+13 
 6.42927e+13  5.34919e+13 
 6.28470e+13  5.34919e+13 
 6.14012e+13  5.34919e+13 
 5.99555e+13  5.34919e+13 
 5.85098e+13  5.34919e+13 
 5.70641e+13  5.34919e+13 
 5.56183e+13  5.34919e+13 
 5.41726e+13  5.34919e+13 
 5.27269e+13  5.34919e+13 
 5.12812e+13  5.34919e+13 
 4.98354e+13  5.34919e+13 
 4.83897e+13  5.34919e+13 
 4.69440e+13  5.34919e+13 
 4.54982e+13  5.34919e+13 
 4.40525e+13  5.34919e+13 
 4.26068e+13  5.34919e+13 
 4.11611e+13  5.34919e+13 </DataArray>
            <DataArray Name="strain" NumberOfComponents="3" format="ascii" type="Float64">
-1.03602e+01 -7.43009e+01 -4.64369e+01 
-6.40410e+00  3.91751e+00 -2.16346e+00 
-4.57347e+00  1.35800e+01  5.98437e+00 
-3.38060e+00  8.97792e+00  5.42132e+00 
-2.98787e+00  7.40577e+00  3.39839e+00 
-2.40581e+00  5.76053e+00  2.59618e+00 
-1.89725e+00  4.54950e+00  3.80168e+00 
-1.75923e+00  3.23336e+00  2.82146e+00 
-1.03706e+00  2.03334e+00  1.50463e+00 
-1.00042e+00  1.85151e+00  5.74426e-01 
-1.06335e+00  1.77097e+00 -9.35577e-02 
-6.07286e-01  1.26448e+00  1.65279e+00 
-3.90550e-01  1.04480e+00  2.38856e-01 
-2.45415e-01  8.38292e-01  7.08647e-01 
-5.04662e-01  7.77646e-01  5.41887e-01 
-4.12480e-01  4.05274e-01  4.29880e-01 
-4.30514e-02  2.59044e-01  4.88222e-01 
-8.29299e-02  1.38793e-01  4.58595e-01 
-2.37535e-01  1.16364e-02  1.30615e-01 
-4.24091e-02  2.04644e-02 -8.61257e-02 
-5.19855e+00 -1.05332e+01 -5.34224e+00 
-8.74039e-01  6.25680e+00  5.27182e+00 
-6.40547e-01 -6.43348e-02  2.48860e+00 
-1.22034e+00  2.46659e+00  4.96317e+00 
-1.18981e+00  2.44833e+00  3.90648e+00 
-1.02589e+00  2.54557e+00  4.03073e+00 
-1.05344e+00  2.40967e+00  4.84996e+00 
-1.05760e+00  2.13995e+00  4.06818e+00 
-1.37535e+00  2.16831e+00  2.92122e+00 
-9.71533e-01  1.67091e+00  1.70369e+00 
-7.99045e-01  1.37547e+00  1.29857e+00 
-6.21161e-01  1.02343e+00  1.52179e+00 
-7.74186e-01  9.94330e-01  1.31057e+00 
-3.72614e-01  6.83526e-01  1.49225e+00 
-1.77063e-01  4.75806e-01  1.25074e+00 
-7.96733e-02  3.09527e-01  9.21675e-01 
-1.79710e-01  1.99164e-01  5.31666e-01 
-2.52877e-01  1.97801e-01  7.32429e-01 
-1.42648e-01  3.86779e-02  5.66115e-01 
-2.33249e-01  1.19019e-01  1.94630e-01 
-5.44488e+00  4.30596e+00  7.65743e-01 
-2.67875e+00  1.01476e-01 -1.25542e+00 
-6.88429e-01  5.16249e-01 -3.72259e-01 
 6.55777e-02  3.05509e-02  2.18514e+00 
 3.94014e-02  4.48764e-01  3.50812e+00 
-2.33401e-01  6.86539e-01  3.68278e+00 
-7.69203e-01  1.07320e+00  5.51220e+00 
-7.22840e-01  1.03962e+00  4.59433e+00 
-9.80992e-01  1.32032e+00  3.81605e+00 
-6.21673e-01  9.43037e-01  3.16871e+00 
-3.39507e-01  7.82781e-01  2.79264e+00 
-1.34978e-01  6.31661e-01  2.78976e+00 
 1.44918e-01  2.48226e-01  2.01784e+00 
-1.68340e-01  4.49225e-01  2.20331e+00 
-1.62915e-01  2.50792e-01  1.97009e+00 
 3.74512e-03  2.02037e-02  2.00737e+00 
 3.23760e-01 -1.41376e-02  1.18353e+00 
 2.31094e-01 -6.16104e-02  1.42376e+00 
 2.78887e-02 -2.67096e-02  9.78415e-01 
-2.41449e-01  2.88270e-01  8.81037e-02 
-3.25144e+00  1.25871e+00 -2.08684e-01 
-2.91176e+00  1.45507e+00 -7.14753e-01 
-2.00279e+00  7.48321e-01  8.89724e-01 
-1.28289e+00  2.52276e-01  1.00072e+00 
-1.13519e+00  3.25242e-01  2.30160e+00 
-8.53300e-01  2.97893e-01  3.01751e+00 
-7.49775e-01  5.20712e-01  4.43121e+00 
-1.11980e+00  9.26180e-01  5.26365e+00 
-1.66124e-01  4.76979e-01  4.79817e+00 
 3.41710e-02  4.87782e-01  4.09895e+00 
 5.42957e-01  1.57857e-01  3.55976e+00 
 4.01836e-01 -1.33303e-03  3.33137e+00 
 4.23051e-01 -7.86998e-02  2.90462e+00 
 4.65725e-01  3.46182e-02  2.40668e+00 
 2.14889e-01  1.99303e-01  3.18020e+00 
 6.71398e-01 -4.45441e-02  3.33613e+00 
 6.26887e-01 -2.74046e-01  1.62921e+00 
 5.90464e-01 -1.38088e-01  2.01243e+00 
 5.44569e-01 -2.13656e-01  1.15505e+00 
 4.59677e-01 -2.45113e-01  4.61254e-01 
-4.54782e+00  2.12933e+00  4.05290e-01 
-3.15761e+00  1.11595e+00 -2.74407e-03 
-2.77928e+00  1.08323e+00  2.68278e-01 
-2.38207e+00  9.43658e-01  1.14615e+00 
-1.65158e+00  8.61033e-01  2.00495e+00 
-9.82247e-01  5.09718e-01  3.16507e+00 
-4.62264e-01  2.29925e-01  3.81392e+00 
-4.64333e-01  2.10956e-01  4.79951e+00 
-5.97955e-01  2.43642e-01  5.00215e+00 
-2.96760e-01  1.80153e-01  4.75728e+00 
 1.67043e-01  7.72086e-02  4.29005e+00 
 2.83282e-01  1.70535e-01  2.88991e+00 
 5.07569e-01 -7.03331e-02  3.66892e+00 
 1.03056e+00 -1.57659e-01  2.92097e+00 
 1.30103e+00 -6.97538e-01  3.53898e+00 
 9.51411e-01 -2.69639e-01  3.65217e+00 
 1.43114e+00 -4.65958e-01  2.48506e+00 
 1.40009e+00 -6.56449e-01  1.70940e+00 
 9.80476e-01 -4.58680e-01  1.17644e+00 
 1.10020e+00 -4.46013e-01  4.86599e-01 
-4.80999e+00  2.39293e+00  1.05357e+00 
-4.38433e+00  1.92653e+00  2.59465e-01 
-3.59520e+00  1.59741e+00 -9.36383e-02 
-2.76616e+00  1.38217e+00  1.40783e+00 
-2.42469e+00  9.71346e-01  2.48313e+00 
-1.44016e+00  3.01524e-01  2.77930e+00 
-1.25785e+00  7.10558e-01  3.66861e+00 
-8.13532e-01  3.16196e-01  3.76445e+00 
-5.64668e-01  2.55399e-01  4.61411e+00 
-4.52365e-01  4.01293e-01  4.46515e+00 
-6.94662e-01  3.23903e-01  3.31948e+00 
-3.86802e-01  2.51496e-01  3.77889e+00 
 4.14850e-01 -1.76492e-01  4.27194e+00 
 6.59654e-01 -2.38739e-01  2.87524e+00 
 1.29575e+00 -6.77559e-01  3.34764e+00 
 1.61726e+00 -7.81012e-01  3.26921e+00 
 1.54364e+00 -4.63182e-01  2.20620e+00 
 1.73674e+00 -8.47302e-01  9.51664e-01 
 2.21503e+00 -1.06225e+00  1.09274e+00 
 2.43621e+00 -1.36926e+00  5.27527e-01 
-4.79555e+00  2.14859e+00  2.52411e-01 
-4.54431e+00  2.20351e+00  2.41894e-01 
-3.85295e+00  2.01370e+00  4.55945e-01 
-3.64712e+00  1.58821e+00  1.02586e+00 
-3.01681e+00  1.44403e+00  3.03182e+00 
-2.62916e+00  1.13362e+00  3.32582e+00 
-2.03158e+00  8.70674e-01  3.50504e+00 
-1.38898e+00  7.27961e-01  3.78106e+00 
-1.28875e+00  6.93979e-01  4.21635e+00 
-9.65836e-01  4.04809e-01  3.84706e+00 
-4.90408e-01  3.62400e-01  3.87277e+00 
 4.53720e-01 -3.13925e-01  3.82746e+00 
 1.49734e-01 -2.56855e-01  3.50087e+00 
 8.33563e-01 -4.57088e-01  3.84262e+00 
 1.53641e+00 -5.97565e-01  3.53316e+00 
 1.56907e+00 -7.16984e-01  2.93877e+00 
 1.98449e+00 -7.99495e-01  2.30141e+00 
 2.96564e+00 -1.30105e+00  1.36284e+00 
 3.10648e+00 -1.34120e+00  6.44812e-01 
 3.44974e+00 -1.49730e+00  1.07541e-01 
-5.13823e+00  2.12287e+00 -3.70796e-01 
-4.79016e+00  2.63910e+00  1.25336e+00 
-4.34336e+00  2.10334e+00  1.03249e+00 
-3.70195e+00  1.67075e+00  2.10279e+00 
-2.93183e+00  1.69417e+00  3.23637e+00 
-3.07793e+00  1.35322e+00  3.11848e+00 
-2.88492e+00  1.42928e+00  3.60412e+00 
-2.24929e+00  1.28579e+00  4.48799e+00 
-1.57532e+00  8.20943e-01  4.18065e+00 
-9.34271e-01  4.71368e-01  4.12356e+00 
-1.65327e-01  2.92474e-01  3.95903e+00 
-2.02204e-01  7.00571e-05  3.66360e+00 
 6.64934e-01 -3.90574e-01  3.71949e+00 
 1.10604e+00 -6.93439e-01  4.06104e+00 
 1.24293e+00 -6.27044e-01  3.06989e+00 
 1.89426e+00 -7.88494e-01  2.83957e+00 
 2.54142e+00 -1.55341e+00  2.89215e+00 
 3.18200e+00 -1.66330e+00  1.74139e+00 
 3.50727e+00 -1.90330e+00  5.90866e-01 
 3.77680e+00 -1.57665e+00  3.92131e-01 
-5.34401e+00  2.30975e+00  7.19544e-01 
-4.86073e+00  2.50317e+00  4.20639e-01 
-4.90530e+00  2.28857e+00  9.39640e-01 
-4.06272e+00  1.82280e+00  2.34992e+00 
-3.59951e+00  1.82680e+00  2.05241e+00 
-3.54471e+00  1.85667e+00  2.46531e+00 
-2.64028e+00  1.35105e+00  4.05384e+00 
-2.21294e+00  1.02316e+00  4.11123e+00 
-1.64396e+00  9.64105e-01  3.93018e+00 
-1.14864e+00  9.10970e-01  4.33511e+00 
-3.21704e-01  4.11201e-01  3.89670e+00 
 8.84421e-01 -3.22490e-01  3.14404e+00 
 1.30115e+00 -7.33815e-01  3.36042e+00 
 1.28088e+00 -7.10659e-01  3.19088e+00 
 1.90139e+00 -6.98778e-01  3.08536e+00 
 2.61965e+00 -1.35406e+00  2.52303e+00 
 3.06301e+00 -1.48499e+00  2.62308e+00 
 3.37791e+00 -1.72084e+00  1.35382e+00 
 3.97640e+00 -2.02878e+00 -1.61008e-01 
 4.61848e+00 -2.24295e+00  2.67203e-01 
-5.74213e+00  2.57654e+00  8.20635e-01 
-5.37784e+00  2.27812e+00  1.11375e-01 
-4.71136e+00  2.44212e+00  1.03089e+00 
-4.43477e+00  2.23499e+00  2.01027e+00 
-4.30257e+00  2.21608e+00  2.52059e+00 
-3.00540e+00  1.69580e+00  2.44281e+00 
-2.90376e+00  1.60104e+00  3.50266e+00 
-2.43786e+00  1.31480e+00  4.13727e+00 
-1.66605e+00  1.00372e+00  4.23298e+00 
-8.65350e-01  5.65576e-01  4.07854e+00 
-4.10836e-01  8.95375e-02  4.75590e+00 
 3.13354e-01 -3.32393e-01  3.75508e+00 
 8.56222e-01  1.68967e-01  2.76292e+00 
 1.71307e+00 -6.55580e-01  2.93418e+00 
 2.39393e+00 -1.11302e+00  3.23688e+00 
 3.10024e+00 -1.53784e+00  3.15924e+00 
 3.83980e+00 -2.01533e+00  2.04804e+00 
 3.97047e+00 -2.00239e+00  1.21518e+00 
 4.82684e+00 -2.32028e+00  7.13060e-01 
 5.44587e+00 -2.56311e+00  2.42970e-01 
-6.89334e+00  3.41655e+00  8.72296e-01 
-6.27213e+00  2.72592e+00  3.82842e-01 
-5.60949e+00  2.39298e+00  1.58453e+00 
-5.12722e+00  2.21690e+00  1.62820e+00 
-4.46695e+00  2.21721e+00  2.83265e+00 
-3.75050e+00  1.72848e+00  3.37201e+00 
-2.94748e+00  1.26684e+00  3.18103e+00 
-2.60930e+00  1.22783e+00  4.19325e+00 
-2.18735e+00  1.31900e+00  4.07138e+00 
-1.32260e+00  7.69126e-01  5.06857e+00 
-4.23053e-01  3.13529e-01  4.02344e+00 
 1.14923e-01 -1.84728e-01  3.75000e+00 
 8.56963e-01 -1.70345e-01  3.31255e+00 
 1.56307e+00 -1.08533e+00  3.12643e+00 
 2.46960e+00 -1.23338e+00  3.34548e+00 
 2.93491e+00 -1.51579e+00  2.77842e+00 
 3.69938e+00 -1.88888e+00  2.38997e+00 
 4.49802e+00 -2.04185e+00  9.02336e-01 
 5.14447e+00 -2.23581e+00  1.08247e+00 
 5.98159e+00 -2.99750e+00 -4.23434e-01 
-8.19796e+00  3.65136e+00  1.00026e-01 
-7.61324e+00  3.23339e+00  7.87119e-01 
-6.70592e+00  2.67282e+00  1.41616e+00 
-6.02313e+00  2.37244e+00  1.99926e+00 
-4.41110e+00  1.55235e+00  3.28790e+00 
-3.79409e+00  1.33133e+00  2.79184e+00 
-3.69945e+00  1.80029e+00  2.97670e+00 
-2.34319e+00  3.44993e-01  4.16115e+00 
-1.49788e+00  4.65596e-01  3.61285e+00 
-1.29114e+00  2.64269e-01  3.77450e+00 
-6.16956e-01  2.76429e-01  3.40155e+00 
-3.48303e-01  6.82092e-01  2.81266e+00 
 8.12343e-01 -4.71554e-01  2.76207e+00 
 1.75996e+00 -1.23406e+00  2.48969e+00 
 2.30257e+00 -8.10221e-01  3.12944e+00 
 3.58954e+00 -1.40586e+00  2.07029e+00 
 4.10864e+00 -1.76051e+00  1.99891e+00 
 5.06022e+00 -2.35943e+00  9.29998e-01 
 6.04326e+00 -2.42360e+00  3.65656e-01 
 7.01805e+00 -3.36915e+00  5.98877e-01 
-9.63742e+00  4.75521e+00 -9.69464e-01 
-7.75663e+00  3.90669e+00  8.07093e-01 
-6.14586e+00  2.50873e+00  1.02672e+00 
-4.64316e+00  1.25453e+00  2.25471e+00 
-4.20005e+00  1.70265e+00  2.64669e+00 
-3.45826e+00  1.01315e+00  9.72076e-01 
-2.38362e+00  9.04191e-01  2.29101e+00 
-1.95321e+00  5.08444e-01  3.22277e+00 
-1.36055e+00 -7.59163e-02  1.91735e+00 
-5.44881e-01 -3.89033e-01  2.83640e+00 
-2.05097e-02  3.37156e-01  2.13752e+00 
 4.36798e-01  1.13743e-01  1.52215e+00 
 1.32833e+00 -5.38980e-01  2.34008e+00 
 2.32472e+00 -1.44480e+00  9.11847e-01 
 2.87945e+00 -1.23482e+00  1.69790e+00 
 3.17140e+00 -7.31532e-01  1.57685e+00 
 4.24373e+00 -1.64299e+00  3.76949e-01 
 5.49832e+00 -2.47430e+00  5.58807e-01 
 6.76992e+00 -3.32200e+00 -2.20527e-01 
 8.09363e+00 -3.79501e+00  4.47980e-02 
-8.89623e+00  4.01391e+00  3.07690e-01 
-7.16812e+00  2.56814e+00  1.16228e+00 
-6.26471e+00  2.43007e+00  5.38033e-01 
-5.52041e+00  2.34857e+00  7.06595e-01 
-4.15557e+00  1.33643e+00  2.73225e-01 
-2.84983e+00  1.84687e-01  6.85534e-01 
-1.89543e+00 -7.51467e-02  7.60476e-01 
-1.39199e+00  4.49825e-01 -1.26169e-01 
-8.05859e-01  2.91880e-01  1.24918e+00 
-4.22618e-01  6.90309e-02  5.93615e-01 
 2.24409e-01 -4.87736e-01  6.26674e-01 
 1.36153e+00 -1.04821e+00  1.93407e-01 
 1.95266e+00 -7.68210e-01  5.47161e-01 
 2.22315e+00 -8.82903e-01 -4.87046e-01 
 2.90639e+00 -1.18584e+00  4.92947e-02 
 3.71223e+00 -1.39705e+00 -3.21913e-01 
 4.58153e+00 -2.08776e+00 -3.79428e-01 
 5.55718e+00 -1.94955e+00 -7.38511e-01 
 6.60670e+00 -3.05658e+00 -2.67727e-01 
 8.15624e+00 -3.83692e+00 -6.87065e-01 
-8.90572e+00  4.05398e+00 -1.18979e+00 
-7.66996e+00  3.23352e+00 -4.59121e-01 
-5.94327e+00  2.00837e+00 -9.36199e-01 
-4.64750e+00  1.51475e+00 -1.24394e+00 
-3.70422e+00  1.36174e+00 -6.83524e-01 
-2.90597e+00  8.29945e-02 -2.12193e+00 
-2.46281e+00  1.67520e-01 -1.66654e+00 
-1.43116e+00  2.03751e-01 -1.41192e+00 
-5.65046e-01 -4.28342e-02 -2.30852e+00 
-2.40196e-01 -1.00309e-01 -2.01753e+00 
 8.79754e-01 -6.55936e-01 -9.85681e-01 
 1.72805e+00 -1.37692e+00 -1.54142e+00 
 1.86904e+00 -7.80288e-01 -1.76741e+00 
 2.62393e+00 -5.52680e-01 -2.76401e+00 
 3.53686e+00 -1.82025e+00 -2.04427e+00 
 3.96214e+00 -1.64467e+00 -2.15509e+00 
 4.52541e+00 -2.21910e+00 -2.11088e+00 
 5.47799e+00 -2.02429e+00 -1.94325e+00 
 6.64115e+00 -2.68926e+00 -6.62045e-01 
 8.16674e+00 -3.88624e+00 -3.98013e-01 
-8.50547e+00  4.27698e+00 -2.16582e+00 
-6.50362e+00  2.44557e+00 -1.22073e+00 
-4.88386e+00  1.71983e+00 -2.15416e+00 
-4.15160e+00  1.16845e+00 -3.50009e+00 
-3.46482e+00  4.51037e-01 -4.18898e+00 
-3.29397e+00  4.47580e-01 -5.09398e+00 
-2.59806e+00  6.84586e-01 -5.02587e+00 
-2.08415e+00  1.50825e-01 -3.35207e+00 
-1.03124e+00  5.04376e-01 -4.67408e+00 
 1.85537e-01 -6.96421e-02 -3.83755e+00 
 6.67450e-01 -7.65946e-01 -3.26900e+00 
 1.26808e+00 -2.79206e-01 -3.95109e+00 
 2.42257e+00 -2.05907e+00 -4.71127e+00 
 2.93477e+00 -1.40150e+00 -4.68186e+00 
 3.56604e+00 -1.73179e+00 -4.98855e+00 
 4.02882e+00 -2.01548e+00 -5.21534e+00 
 4.24260e+00 -2.44913e+00 -4.65859e+00 
 4.44166e+00 -1.68432e+00 -3.85159e+00 
 5.40873e+00 -2.17101e+00 -2.45632e+00 
 6.61747e+00 -3.35480e+00 -1.64072e+00 
-5.64082e+00  2.60950e+00 -1.82270e+00 
-4.71043e+00  1.44885e+00 -1.31624e+00 
-3.90111e+00  1.16261e+00 -3.54735e+00 
-3.46942e+00  7.78189e-01 -6.70582e+00 
-3.62729e+00  1.11163e+00 -7.04629e+00 
-3.29626e+00  6.81922e-01 -7.61763e+00 
-2.59203e+00  9.42429e-01 -7.76884e+00 
-2.10311e+00  6.16444e-01 -5.96078e+00 
-1.56335e+00  4.24305e-01 -6.50944e+00 
-4.04370e-01 -1.72038e-01 -6.12406e+00 
 8.01970e-01 -2.43347e-01 -6.44221e+00 
 2.00082e+00 -7.93471e-01 -5.90700e+00 
 3.09322e+00 -1.87902e+00 -7.16756e+00 
 3.80931e+00 -2.36102e+00 -7.58882e+00 
 3.76825e+00 -1.92165e+00 -7.96803e+00 
 3.61622e+00 -1.74954e+00 -8.36552e+00 
 3.50031e+00 -1.62286e+00 -6.99190e+00 
 3.97874e+00 -1.74073e+00 -5.31601e+00 
 4.41580e+00 -1.64997e+00 -2.70298e+00 
 5.05315e+00 -2.39371e+00 -1.83435e+00 
-3.39384e+00  1.52828e+00 -1.27150e+00 
-3.03797e+00  7.90400e-01 -2.36682e+00 
-3.02585e+00  5.58804e-01 -4.92839e+00 
-2.71708e+00 -9.00135e-02 -7.44735e+00 
-2.31344e+00 -2.35026e-01 -9.44871e+00 
-2.23924e+00 -7.98190e-01 -1.03021e+01 
-3.04905e+00  6.00119e-01 -1.09275e+01 
-3.42732e+00  1.25394e+00 -1.02178e+01 
-2.66736e+00  2.64360e-01 -9.84592e+00 
-1.23511e+00  4.71695e-01 -8.06659e+00 
 1.33688e+00 -9.03843e-01 -7.89619e+00 
 2.56321e+00 -1.45715e+00 -9.16913e+00 
 2.92391e+00 -1.45578e+00 -1.03545e+01 
 3.28230e+00 -1.31337e+00 -1.07628e+01 
 2.65514e+00 -1.43119e-01 -1.10931e+01 
 2.43363e+00 -5.46684e-01 -9.76661e+00 
 2.50247e+00 -6.26478e-01 -7.87817e+00 
 2.53467e+00 -1.07522e+00 -5.62612e+00 
 2.53580e+00 -1.55846e+00 -3.45034e+00 
 2.25140e+00 -1.06275e+00 -2.17911e+00 
-1.31185e+00  2.35256e-01 -1.44071e+00 
-1.33196e+00  1.22667e-01 -1.60678e+00 
-1.13342e+00 -3.08964e-01 -4.83091e+00 
-7.91119e-01 -1.09514e+00 -6.87591e+00 
-6.16038e-01 -2.22200e+00 -8.01881e+00 
-1.18789e-01 -3.44283e+00 -1.14936e+01 
-2.93477e-01 -3.72301e+00 -1.49735e+01 
-1.70927e+00  4.81301e-02 -1.62971e+01 
-1.57373e+00 -4.75190e-01 -1.66604e+01 
-1.93352e-01 -7.40946e-01 -1.69623e+01 
 3.95700e-01  1.46770e-01 -1.66594e+01 
 1.70620e+00 -1.52328e-02 -1.66495e+01 
 1.53968e+00  3.38638e-01 -1.54558e+01 
-6.50110e-02  3.78609e+00 -1.33925e+01 
-1.00059e-01  3.83993e+00 -1.20003e+01 
 1.57074e-03  2.68359e+00 -8.37907e+00 
 8.98871e-01  4.76328e-01 -6.43661e+00 
 1.08270e+00 -2.15849e-02 -4.54574e+00 
 1.10508e+00 -7.04216e-01 -2.40544e+00 
 7.51584e-01 -7.15058e-01 -1.36579e+00 
 1.08195e-01  2.32577e-01 -1.93787e+00 
-7.77477e-01  5.09375e-01 -1.47601e+00 
-1.00486e+00 -9.32865e-01 -2.58108e+00 
 7.39244e-01 -1.80382e+00 -4.70971e+00 
 1.48823e+00 -4.15439e+00 -6.58083e+00 
 1.99776e+00 -7.37866e+00 -8.86550e+00 
 4.12118e+00 -1.23537e+01 -1.28074e+01 
 6.81460e+00 -2.06181e+01 -1.97994e+01 
 5.65074e+00 -1.82878e+01 -2.50404e+01 
 1.94489e+00 -5.34538e+00 -2.94481e+01 
-2.04559e+00  5.52658e+00 -2.93313e+01 
-5.71013e+00  1.94235e+01 -2.47070e+01 
-6.48961e+00  2.10601e+01 -1.89613e+01 
-4.24843e+00  1.25792e+01 -1.18400e+01 
-2.71276e+00  8.93804e+00 -9.07429e+00 
-1.26129e+00  4.82811e+00 -5.89088e+00 
-7.08567e-01  2.66745e+00 -4.00707e+00 
 2.17749e-01  1.03693e+00 -2.81168e+00 
 3.73621e-01  1.30754e-01 -1.37998e+00 
-7.43042e-02  3.04298e-01 -9.69239e-01 
-5.72828e+00 -2.07968e+01 -5.64675e+00 
-3.31446e+00  8.32975e+00  8.67693e+00 
-2.60876e+00  6.31297e+00  6.01024e+00 
-2.36784e+00  5.22971e+00  5.23586e+00 
-2.09765e+00  4.60798e+00  2.05221e+00 
-2.06065e+00  3.85530e+00  3.11982e+00 
-1.83937e+00  3.00115e+00  3.16156e+00 
-1.59894e+00  2.23985e+00  1.97972e+00 
-1.24766e+00  1.89497e+00  6.24790e-01 
-9.78912e-01  1.57125e+00  1.44843e-01 
-6.64790e-01  1.45221e+00  3.64086e-01 
-6.82954e-01  9.98735e-01  3.05328e-01 
-5.54309e-01  9.31286e-01  3.41717e-01 
-3.93811e-01  7.41363e-01  8.86383e-01 
-3.31531e-01  4.44771e-01  8.68250e-01 
-1.65021e-01  2.61965e-01 -2.58876e-01 
-1.10358e-01  2.61639e-01  1.66022e-01 
-1.64753e-01  5.14573e-03  9.18686e-01 
-1.79790e-01  6.06947e-02 -4.35684e-01 
-3.95094e+00  1.76412e+00 -5.98302e+00 
-5.92058e-01 -5.69734e-01 -2.09764e+00 
-2.54065e-01  1.13774e+00  2.58423e+00 
-3.61205e-01  1.53816e+00  4.90029e+00 
-4.60073e-01  1.46770e+00  4.72969e+00 
-2.92015e-01  1.79001e+00  5.49671e+00 
-3.80479e-01  1.61173e+00  6.31414e+00 
-8.09555e-01  1.67670e+00  4.59341e+00 
-1.04386e+00  1.55248e+00  4.08196e+00 
-9.10810e-01  1.15070e+00  1.63410e+00 
-9.32577e-01  9.64634e-01  2.83290e+00 
-4.34898e-01  6.31057e-01  1.94352e+00 
-3.94944e-01  7.18673e-01  1.94323e+00 
-3.11017e-01  4.14069e-01  1.47207e+00 
-3.02273e-01  2.43730e-01  1.88831e+00 
-2.98280e-01  5.09983e-02  1.18269e+00 
-6.18167e-02  1.89227e-01  7.68481e-01 
 3.41356e-02 -9.69601e-03  1.29943e+00 
-1.02636e-01  1.13936e-01 -3.16191e-01 
-3.11579e+00  1.42282e+00 -1.31469e+00 
-2.49207e+00  1.16191e+00 -2.77745e+00 
-1.14787e+00  1.99088e-01 -5.46923e-01 
-6.09224e-01  3.21729e-01  2.18470e+00 
-3.91877e-01  4.04141e-01  2.84125e+00 
-6.29830e-01  6.05414e-01  4.00314e+00 
-9.09597e-01  1.00070e+00  6.03793e+00 
-6.90062e-01  9.96724e-01  3.96789e+00 
-4.72596e-01  7.08596e-01  5.40844e+00 
-9.14868e-02  5.94636e-01  2.42702e+00 
 3.86734e-02  5.44758e-01  3.02615e+00 
-5.24565e-02  3.16150e-03  3.22348e+00 
 1.27412e-01  2.27283e-01  2.22626e+00 
-2.48395e-02  3.29016e-01  1.86852e+00 
 1.93221e-01 -1.26886e-02  2.87655e+00 
 3.74803e-01 -1.32806e-01  2.12891e+00 
 2.13199e-01 -6.55295e-02  1.64089e+00 
 2.64963e-02 -7.74840e-02  2.10368e+00 
-7.26714e-02 -5.22604e-02  8.98177e-03 
-3.47034e+00  1.36961e+00 -3.38400e-02 
-2.53714e+00  1.11811e+00 -2.97626e-01 
-1.88824e+00  9.77505e-01  7.12844e-01 
-1.63707e+00  3.73198e-01  2.60540e+00 
-1.03192e+00  6.26528e-01  2.98709e+00 
-5.19354e-01  3.13563e-01  4.94776e+00 
-4.88458e-01  4.49932e-01  5.75105e+00 
-3.50448e-01  5.82436e-01  5.07319e+00 
 6.66705e-03  2.93486e-01  5.26555e+00 
 3.25647e-01  2.43000e-01  4.35474e+00 
 8.69971e-01  1.95808e-01  3.43535e+00 
 8.14816e-01 -5.19174e-02  4.20755e+00 
 7.05775e-01 -1.01065e-02  4.14970e+00 
 8.40700e-01 -4.78058e-02  2.96485e+00 
 7.46568e-01 -4.06270e-01  4.44032e+00 
 1.01729e+00 -2.67703e-01  3.23998e+00 
 1.11286e+00 -4.91365e-01  2.17379e+00 
 8.71101e-01 -2.42657e-01  1.76792e+00 
 5.10020e-01 -2.99760e-01  6.72352e-01 
-4.15006e+00  1.79632e+00 -1.63271e-01 
-3.45839e+00  1.44422e+00 -7.01590e-01 
-2.74432e+00  1.20151e+00  4.81907e-01 
-2.19388e+00  1.00732e+00  2.00511e+00 
-1.50033e+00  7.29720e-01  2.45439e+00 
-1.18312e+00  4.37069e-01  3.45577e+00 
-7.81757e-01  2.58091e-01  3.11338e+00 
-6.71128e-01  3.05952e-01  5.19713e+00 
-2.09563e-01  2.45503e-01  4.22783e+00 
-1.49564e-01  3.16861e-01  3.98732e+00 
-2.17216e-01  4.42144e-02  3.50073e+00 
 4.51525e-01  1.90573e-01  4.07415e+00 
 1.06559e+00 -7.35691e-02  3.72979e+00 
 1.33450e+00 -4.47751e-01  3.01679e+00 
 1.55239e+00 -6.74813e-01  4.13394e+00 
 1.30164e+00 -6.30053e-01  3.58903e+00 
 1.22210e+00 -6.57402e-01  2.01348e+00 
 1.35442e+00 -6.34455e-01  1.96275e+00 
 1.66077e+00 -7.75326e-01  4.91674e-01 
-4.80395e+00  2.06649e+00  6.10664e-01 
-4.40580e+00  2.09596e+00 -1.20810e+00 
-3.84714e+00  1.57338e+00  9.10376e-01 
-3.03631e+00  1.30981e+00  9.34715e-01 
-2.49730e+00  1.19362e+00  3.26686e+00 
-2.00407e+00  6.52155e-01  3.66468e+00 
-1.47077e+00  4.99903e-01  3.58583e+00 
-1.14227e+00  7.51616e-01  4.37476e+00 
-1.30710e+00  2.48630e-01  4.40183e+00 
-9.42932e-01  4.39399e-01  4.06138e+00 
-3.45462e-01  1.40907e-01  3.83160e+00 
-1.26626e-01 -2.66681e-01  4.27240e+00 
 1.10550e-01  1.04368e-03  2.92421e+00 
 8.87406e-01 -6.01012e-01  3.53783e+00 
 1.49538e+00 -7.91095e-01  2.59499e+00 
 1.85263e+00 -6.53582e-01  3.00861e+00 
 2.50487e+00 -8.34742e-01  1.79447e+00 
 2.90028e+00 -1.11205e+00  1.27605e+00 
 3.10439e+00 -1.21375e+00  1.33407e-01 
-4.49544e+00  2.12773e+00 -1.09842e-01 
-4.11730e+00  2.35384e+00  8.63452e-01 
-3.67616e+00  1.87475e+00  1.20510e+00 
-2.92557e+00  1.52571e+00  2.11954e+00 
-2.77357e+00  1.53124e+00  2.35313e+00 
-2.62536e+00  1.08455e+00  3.17414e+00 
-2.11131e+00  1.04657e+00  4.65545e+00 
-1.53067e+00  9.61582e-01  3.53661e+00 
-9.65208e-01  5.27225e-01  4.78309e+00 
-3.92290e-01  3.67237e-01  3.92439e+00 
-1.48945e-01  1.95995e-01  4.27866e+00 
 2.95954e-01 -4.15929e-01  3.86902e+00 
 9.05183e-01 -1.75511e-01  4.01587e+00 
 1.22651e+00 -7.81216e-01  3.93582e+00 
 1.65808e+00 -8.17478e-01  3.34215e+00 
 2.15894e+00 -7.85405e-01  3.03828e+00 
 2.61286e+00 -1.29569e+00  2.40993e+00 
 3.12215e+00 -1.69779e+00  4.15022e-01 
 3.63368e+00 -1.48289e+00  1.92876e-02 
-5.59172e+00  2.26253e+00  1.10369e+00 
-5.08761e+00  2.46020e+00  1.16659e+00 
-4.62167e+00  1.99738e+00  2.62817e+00 
-4.17600e+00  1.65262e+00  3.76775e+00 
-3.77400e+00  1.69229e+00  1.93811e+00 
-3.21304e+00  1.62744e+00  4.64269e+00 
-2.47189e+00  1.07143e+00  5.52946e+00 
-1.82962e+00  1.13275e+00  3.82249e+00 
-1.45570e+00  6.45653e-01  4.77950e+00 
-8.57514e-01  5.09747e-01  4.32765e+00 
 4.49535e-02 -3.28139e-02  4.49041e+00 
 5.87924e-01 -1.38298e-01  4.15311e+00 
 1.03675e+00 -7.11628e-01  3.24517e+00 
 1.33594e+00 -5.98770e-01  3.74196e+00 
 1.77294e+00 -1.00791e+00  3.27679e+00 
 2.03291e+00 -1.07976e+00  2.95242e+00 
 2.74016e+00 -1.42562e+00  2.95677e+00 
 3.30161e+00 -2.17095e+00  1.08748e+00 
 3.59277e+00 -1.68708e+00  7.58952e-01 
-4.98132e+00  2.14561e+00 -3.77423e-01 
-4.53619e+00  2.59075e+00 -1.28189e+00 
-4.53396e+00  2.27163e+00  1.13607e+00 
-4.02511e+00  1.72483e+00  2.18858e+00 
-3.38695e+00  1.97616e+00  6.14093e-01 
-2.94521e+00  1.62386e+00  3.47760e+00 
-2.70129e+00  1.45874e+00  3.79875e+00 
-2.07230e+00  9.86053e-01  3.72521e+00 
-1.13775e+00  7.63907e-01  3.49642e+00 
-5.94617e-01  3.80679e-01  3.43656e+00 
 1.96191e-01  1.32286e-01  3.69019e+00 
 1.12996e+00 -2.26317e-01  2.83813e+00 
 1.39967e+00 -5.48478e-01  2.06290e+00 
 1.70893e+00 -6.74240e-01  2.98192e+00 
 2.43370e+00 -1.32407e+00  2.79575e+00 
 3.34432e+00 -1.49569e+00  2.33353e+00 
 3.74970e+00 -1.72536e+00  1.33060e+00 
 4.11834e+00 -2.23193e+00 -3.74012e-01 
 4.97060e+00 -2.24247e+00 -6.09306e-01 
-5.55364e+00  2.40697e+00  6.87588e-01 
-5.31980e+00  2.88396e+00 -3.24285e-01 
-4.59179e+00  2.27200e+00  2.76465e+00 
-4.16712e+00  2.15370e+00  3.29895e+00 
-3.49365e+00  2.19186e+00  2.64548e+00 
-3.12946e+00  1.48946e+00  4.04725e+00 
-2.58790e+00  1.49112e+00  4.46520e+00 
-2.24361e+00  1.18991e+00  4.12253e+00 
-1.58341e+00  6.16894e-01  5.32463e+00 
-4.63289e-01  4.40558e-01  4.72151e+00 
 7.01530e-02  1.22264e-01  6.35077e+00 
 5.27134e-01 -1.20375e-01  3.79236e+00 
 1.40892e+00 -3.14429e-01  3.09098e+00 
 2.43383e+00 -9.78173e-01  3.69863e+00 
 3.08783e+00 -1.49374e+00  3.79187e+00 
 3.54392e+00 -1.63554e+00  3.46858e+00 
 4.18558e+00 -2.10664e+00  1.53299e+00 
 4.76505e+00 -2.06867e+00  1.83424e+00 
 4.99406e+00 -2.56457e+00  8.14982e-01 
-7.38083e+00  3.08694e+00  3.55054e-01 
-6.57481e+00  2.74372e+00  9.88586e-01 
-5.82106e+00  2.39872e+00  2.12421e+00 
-5.36790e+00  2.22277e+00  2.79737e+00 
-4.64434e+00  1.73016e+00  2.91328e+00 
-3.51462e+00  1.74951e+00  3.48211e+00 
-3.10015e+00  7.77509e-01  4.45009e+00 
-2.27807e+00  9.73144e-01  4.11534e+00 
-1.55026e+00  7.01752e-01  4.75880e+00 
-1.05531e+00  3.75412e-01  3.32361e+00 
-5.56653e-01  3.53169e-01  4.12809e+00 
 1.60184e-02 -1.20116e-01  2.57506e+00 
 8.45666e-01 -7.59678e-01  2.88982e+00 
 1.75745e+00 -9.71753e-01  3.72724e+00 
 2.76959e+00 -1.16494e+00  3.43472e+00 
 3.51063e+00 -1.76349e+00  3.61248e+00 
 4.15844e+00 -2.04983e+00  1.10095e+00 
 5.03226e+00 -2.20358e+00  1.50801e+00 
 6.32816e+00 -2.74348e+00  5.00357e-01 
-8.19869e+00  3.98834e+00  3.18807e-01 
-7.50709e+00  2.85709e+00  2.33448e+00 
-6.55798e+00  2.11037e+00  2.82579e+00 
-5.18064e+00  1.59201e+00  3.42161e+00 
-4.03413e+00  1.91263e+00  2.66912e+00 
-3.63490e+00  8.62758e-01  2.74209e+00 
-2.68638e+00  8.60520e-01  3.83709e+00 
-1.93004e+00  1.26721e-01  3.67772e+00 
-1.57639e+00  1.21271e-01  3.99598e+00 
-7.56629e-01  6.52945e-02  3.55626e+00 
-3.62758e-01  3.97645e-01  2.40653e+00 
 4.42707e-01  1.78675e-01  3.32826e+00 
 1.59991e+00 -7.65152e-01  1.90533e+00 
 1.96457e+00 -1.31902e+00  1.88028e+00 
 2.63926e+00 -9.54392e-01  2.56888e+00 
 3.84667e+00 -1.55228e+00  2.21300e+00 
 5.02227e+00 -2.25319e+00  5.65084e-01 
 6.15707e+00 -2.41766e+00  3.10267e-01 
 7.14379e+00 -2.96006e+00 -2.59701e-01 
-8.94790e+00  3.75151e+00  1.73100e-01 
-6.72867e+00  2.58409e+00  4.60217e-01 
-5.16896e+00  2.11453e+00  1.14974e+00 
-4.05770e+00  1.71445e+00  2.43594e+00 
-3.45907e+00  1.50327e+00  1.01187e+00 
-2.47821e+00 -6.72055e-03  8.85226e-01 
-1.87519e+00  8.03172e-01  1.52548e+00 
-1.40335e+00  1.89417e-02  1.18422e+00 
-4.04024e-01 -3.64905e-02  2.13211e+00 
-5.91003e-02 -1.32355e-01  1.45145e+00 
 5.93193e-01 -4.12391e-02  5.98812e-01 
 1.26142e+00 -3.77086e-01  2.00555e+00 
 1.79278e+00 -1.15378e+00  2.96989e-01 
 2.85407e+00 -1.31291e+00  8.20015e-02 
 3.30138e+00 -8.62686e-01  9.68218e-01 
 3.66653e+00 -1.59767e+00  8.11885e-01 
 4.90481e+00 -2.39885e+00 -1.10704e-01 
 6.29822e+00 -2.36189e+00 -3.33010e-01 
 7.49963e+00 -3.43487e+00  9.51303e-02 
-8.02749e+00  3.22011e+00  1.34851e-02 
-6.86349e+00  2.31497e+00  6.11251e-01 
-6.34353e+00  2.11206e+00  2.65129e-01 
-5.05558e+00  1.73463e+00  6.74412e-01 
-3.40860e+00  7.58535e-01  8.66745e-02 
-2.44024e+00 -9.00136e-02 -1.01883e-01 
-1.45465e+00  6.88513e-01  4.23538e-01 
-5.45235e-01 -3.81555e-02  5.55605e-01 
-7.10320e-01 -1.79442e-01 -1.91687e-01 
-7.90873e-02 -1.87624e-02 -8.55186e-02 
 9.51566e-01 -6.07801e-01 -1.66994e-01 
 1.70968e+00 -1.06909e+00 -1.39183e-01 
 2.33281e+00 -1.00398e+00 -8.19674e-01 
 2.92742e+00 -1.01458e+00 -4.07244e-01 
 3.81435e+00 -1.48805e+00 -1.13201e+00 
 4.39842e+00 -1.72535e+00 -9.14423e-01 
 5.08947e+00 -2.36732e+00 -4.56983e-01 
 6.08549e+00 -2.13258e+00 -9.09617e-01 
 7.63854e+00 -3.32025e+00  9.74623e-02 
-8.22881e+00  3.18498e+00 -7.41136e-01 
-6.49982e+00  2.33567e+00 -1.52620e+00 
-4.78094e+00  1.77215e+00 -3.04140e+00 
-3.82047e+00  8.76002e-01 -1.53336e+00 
-3.40775e+00  8.51661e-01 -3.72790e+00 
-2.68480e+00  1.54330e-01 -4.27292e+00 
-2.13721e+00  5.10830e-01 -3.41715e+00 
-1.65960e+00 -1.65296e-02 -3.81335e+00 
-5.56013e-01  1.77102e-01 -3.72808e+00 
 4.39364e-01 -4.77042e-01 -1.81631e+00 
 1.27042e+00 -4.17999e-01 -2.34445e+00 
 1.86557e+00 -1.12613e+00 -2.75720e+00 
 2.41242e+00 -1.30161e+00 -3.17512e+00 
 3.02210e+00 -1.37344e+00 -3.50533e+00 
 3.63279e+00 -1.94695e+00 -3.74294e+00 
 4.40401e+00 -2.23040e+00 -4.52753e+00 
 4.89059e+00 -1.71829e+00 -3.82767e+00 
 5.69512e+00 -2.04528e+00 -2.89670e+00 
 6.79148e+00 -2.84967e+00 -4.29477e-01 
-6.72242e+00  2.42977e+00 -1.24363e+00 
-5.25024e+00  1.30578e+00 -3.62788e+00 
-4.39850e+00  1.54273e+00 -6.36689e+00 
-3.82172e+00  9.97673e-01 -5.26470e+00 
-3.45442e+00  5.76958e-01 -6.88828e+00 
-2.83617e+00  4.35871e-01 -5.65467e+00 
-2.12442e+00  7.13929e-01 -5.56686e+00 
-1.24204e+00  5.76012e-01 -5.06341e+00 
-1.53927e-02  2.65750e-01 -4.74497e+00 
 9.06103e-01 -8.74757e-01 -5.17555e+00 
 1.15917e+00 -3.54508e-01 -4.79518e+00 
 2.24133e+00 -8.72307e-01 -5.06577e+00 
 3.18503e+00 -2.38735e+00 -6.74388e+00 
 3.48041e+00 -2.02101e+00 -6.56819e+00 
 3.81767e+00 -1.64538e+00 -7.36564e+00 
 4.02801e+00 -2.47825e+00 -6.72341e+00 
 4.24042e+00 -1.43824e+00 -6.98298e+00 
 4.78252e+00 -1.43849e+00 -4.60578e+00 
 5.84496e+00 -2.42013e+00 -1.81016e+00 
-4.30424e+00  1.78074e+00 -5.55687e-01 
-3.95616e+00  3.84835e-01 -2.83530e+00 
-3.09663e+00  9.60103e-01 -6.43652e+00 
-3.03069e+00  4.21306e-01 -7.24421e+00 
-3.13094e+00 -6.50837e-02 -9.27133e+00 
-2.95586e+00  3.93430e-01 -9.28350e+00 
-2.80087e+00  8.34266e-01 -9.06251e+00 
-2.34096e+00  6.72737e-01 -8.02275e+00 
-1.68870e+00  3.77919e-01 -5.98850e+00 
-1.56094e-01 -4.75617e-01 -5.49274e+00 
 1.82428e+00 -7.13046e-01 -6.30262e+00 
 2.79221e+00 -8.53644e-01 -7.35044e+00 
 3.37907e+00 -2.18520e+00 -9.43782e+00 
 3.90250e+00 -1.50271e+00 -9.95932e+00 
 3.75669e+00 -9.72252e-01 -9.57670e+00 
 3.23684e+00 -1.30111e+00 -9.21820e+00 
 3.15220e+00 -1.23368e+00 -7.42195e+00 
 3.60250e+00 -1.43141e+00 -5.03864e+00 
 3.46722e+00 -1.64628e+00 -1.61455e+00 
-2.10610e+00  8.93349e-01 -2.60980e+00 
-1.86770e+00 -4.07266e-02 -4.69177e+00 
-2.08313e+00  1.71328e-01 -8.41686e+00 
-1.95308e+00 -8.39456e-01 -1.06148e+01 
-1.67812e+00 -1.63799e+00 -1.12155e+01 
-2.54361e+00 -1.90902e+00 -1.48258e+01 
-4.00522e+00 -1.29479e+00 -1.48960e+01 
-3.90558e+00  7.27189e-01 -1.12447e+01 
-2.42636e+00 -5.67480e-01 -7.52245e+00 
-1.69781e-01 -5.59191e-02 -5.13513e+00 
 2.03075e+00 -4.42635e-01 -7.06271e+00 
 3.37925e+00 -6.65118e-01 -1.13740e+01 
 3.07978e+00  6.61106e-01 -1.46961e+01 
 2.05691e+00  1.70762e+00 -1.41253e+01 
 1.40868e+00  1.35407e+00 -1.20965e+01 
 1.60336e+00  6.28311e-01 -1.00099e+01 
 1.87032e+00 -3.13261e-01 -7.50334e+00 
 1.49794e+00 -9.72630e-01 -5.58684e+00 
 1.33904e+00 -9.89880e-01 -2.49358e+00 
-1.71727e-01  1.62532e-01 -4.09088e-02 
-4.38071e-01 -2.22553e-01 -1.18880e+00 
 1.10038e-01 -5.89804e-01 -3.06310e+00 
 9.82422e-01 -2.05616e+00 -5.14118e+00 
 1.31221e+00 -4.26303e+00 -6.47908e+00 
 2.51083e+00 -6.02545e+00 -1.13713e+01 
 3.64174e+00 -9.33833e+00 -1.58431e+01 
 3.42317e+00 -1.39168e+01 -2.44882e+01 
 2.16786e+00 -5.22517e+00 -3.35659e+01 
 1.93338e-01 -5.21756e-01 -3.42435e+01 
-2.02404e+00  5.97959e+00 -3.24445e+01 
-3.32403e+00  1.42983e+01 -2.36816e+01 
-3.52791e+00  9.12151e+00 -1.49938e+01 
-2.81219e+00  7.27669e+00 -9.73572e+00 
-1.73187e+00  4.67758e+00 -7.35137e+00 
-1.01390e+00  2.27363e+00 -4.16534e+00 
-2.78939e-01  8.97718e-01 -3.26847e+00 
 2.42714e-01 -1.72972e-01 -9.95538e-01 
 8.60061e-02 -6.64445e-02  8.11364e-01 </DataArray>
            <DataArray Name="stress" NumberOfComponents="3" format="ascii" type="Float64">
-5.50669e+01 -9.91348e+01 -1.60022e+01 
-5.82136e+00  1.29229e+00 -7.45529e-01 
 1.94653e+00  1.44579e+01  2.06221e+00 
 8.38738e-01  9.35623e+00  1.86819e+00 
 4.41731e-01  7.60503e+00  1.17109e+00 
 2.41023e-01  5.86927e+00  8.94642e-01 
 1.93850e-01  4.63696e+00  1.31006e+00 
-3.77961e-01  3.06294e+00  9.72274e-01 
-1.50742e-01  1.96537e+00  5.18495e-01 
-2.07693e-01  1.75786e+00  1.97947e-01 
-3.32277e-01  1.62114e+00 -3.22400e-02 
-4.65072e-02  1.24351e+00  5.69550e-01 
 1.01205e-01  1.09045e+00  8.23098e-02 
 1.66488e-01  9.13379e-01  2.44200e-01 
-1.93277e-01  6.90490e-01  1.86734e-01 
-2.88360e-01  2.75236e-01  1.48137e-01 
 9.26022e-02  3.00806e-01  1.68241e-01 
-2.55309e-02  1.27281e-01  1.58032e-01 
-2.91590e-01 -1.19861e-01  4.50099e-02 
-4.16512e-02  1.68118e-03 -2.96789e-02 
-1.24886e+01 -1.61652e+01 -1.84094e+00 
 2.44479e+00  7.35937e+00  1.81667e+00 
-8.40498e-01 -4.43373e-01  8.57572e-01 
-1.35560e-01  2.40547e+00  1.71031e+00 
-1.07576e-01  2.39983e+00  1.34617e+00 
 1.53245e-01  2.61470e+00  1.38899e+00 
 4.17255e-02  2.42850e+00  1.67130e+00 
-1.16178e-01  2.08757e+00  1.40190e+00 
-4.98997e-01  1.94329e+00  1.00665e+00 
-2.73664e-01  1.54751e+00  5.87091e-01 
-2.24389e-01  1.27428e+00  4.47487e-01 
-2.00380e-01  9.33071e-01  5.24410e-01 
-4.08945e-01  8.09916e-01  4.51621e-01 
-8.07989e-02  6.47093e-01  5.14230e-01 
 4.70870e-02  4.97045e-01  4.31006e-01 
 7.52090e-02  3.43446e-01  3.17609e-01 
-1.12844e-01  1.48277e-01  1.83212e-01 
-2.05461e-01  1.05146e-01  2.52395e-01 
-1.57171e-01 -3.22007e-02  1.95083e-01 
-2.25422e-01  1.73615e-02  6.70695e-02 
-4.39735e+00  2.32292e+00  2.63875e-01 
-3.30519e+00 -1.38906e+00 -4.32619e-01 
-5.71936e-01  2.58328e-01 -1.28280e-01 
 9.96145e-02  7.54741e-02  7.52998e-01 
 3.03506e-01  5.85638e-01  1.20890e+00 
 9.56610e-02  7.29684e-01  1.26908e+00 
-3.58041e-01  9.11744e-01  1.89950e+00 
-3.18849e-01  8.95841e-01  1.58321e+00 
-4.84007e-01  1.10206e+00  1.31501e+00 
-2.46533e-01  8.31865e-01  1.09194e+00 
 1.69486e-02  7.90430e-01  9.62345e-01 
 1.88145e-01  7.16512e-01  9.61353e-01 
 3.22436e-01  3.93636e-01  6.95349e-01 
 4.29882e-02  4.68614e-01  7.59261e-01 
-6.25341e-02  2.22593e-01  6.78893e-01 
 1.61386e-02  2.74818e-02  6.91741e-01 
 3.98413e-01  1.65534e-01  4.07846e-01 
 2.55214e-01  5.34826e-02  4.90628e-01 
 1.98884e-02 -1.77408e-02  3.37162e-01 
-1.39901e-01  2.25182e-01  3.03605e-02 
-3.36897e+00 -2.60577e-01 -7.19123e-02 
-2.83141e+00  1.78209e-01 -2.46304e-01 
-2.09048e+00 -1.94413e-01  3.06599e-01 
-1.46760e+00 -4.09562e-01  3.44848e-01 
-1.24089e+00 -2.34356e-01  7.93130e-01 
-9.02511e-01 -1.09108e-01  1.03984e+00 
-6.46417e-01  2.29202e-01  1.52700e+00 
-8.81369e-01  5.28718e-01  1.81385e+00 
 6.14831e-02  5.04710e-01  1.65345e+00 
 3.19028e-01  6.31657e-01  1.41250e+00 
 7.70937e-01  5.05526e-01  1.22669e+00 
 5.03670e-01  2.25806e-01  1.14799e+00 
 4.86504e-01  1.40697e-01  1.00093e+00 
 6.04221e-01  3.07103e-01  8.29341e-01 
 3.82576e-01  3.71833e-01  1.09590e+00 
 8.17590e-01  3.24162e-01  1.14963e+00 
 6.31793e-01  1.08704e-02  5.61424e-01 
 6.63038e-01  1.60920e-01  6.93483e-01 
 5.62646e-01  4.00777e-02  3.98030e-01 
 4.38274e-01 -4.74674e-02  1.58948e-01 
-4.50346e+00  9.84235e-02  1.39663e-01 
-3.33201e+00 -3.86672e-01 -9.45607e-04 
-2.87561e+00 -2.13574e-01  9.24485e-02 
-2.45601e+00 -1.63919e-01  3.94964e-01 
-1.58579e+00  1.45898e-01  6.90904e-01 
-9.44463e-01  8.37992e-02  1.09068e+00 
-4.50119e-01  2.69376e-02  1.31428e+00 
-4.63455e-01  1.95399e-03  1.65391e+00 
-6.12688e-01 -3.26587e-02  1.72374e+00 
-2.70538e-01  5.81503e-02  1.63936e+00 
 2.53397e-01  1.91483e-01  1.47835e+00 
 4.52144e-01  3.74439e-01  9.95861e-01 
 5.97336e-01  1.99046e-01  1.26431e+00 
 1.20441e+00  3.85488e-01  1.00657e+00 
 1.23831e+00 -1.39107e-01  1.21953e+00 
 1.04166e+00  2.00116e-01  1.25854e+00 
 1.53273e+00  2.25249e-01  8.56352e-01 
 1.38592e+00 -3.14503e-02  5.89060e-01 
 9.71133e-01 -2.07331e-02  4.05401e-01 
 1.12859e+00  6.29419e-02  1.67682e-01 
-4.68335e+00  2.80905e-01  3.63061e-01 
-4.41305e+00 -6.36023e-02  8.94115e-02 
-3.60876e+00 -3.00111e-02 -3.22678e-02 
-2.68991e+00  1.69114e-01  4.85138e-01 
-2.49383e+00 -1.53284e-01  8.55686e-01 
-1.63713e+00 -4.36769e-01  9.57748e-01 
-1.17673e+00  1.79897e-01  1.26420e+00 
-8.42228e-01 -6.36201e-02  1.29723e+00 
-5.64247e-01  9.42979e-04  1.59002e+00 
-3.40682e-01  2.47659e-01  1.53869e+00 
-6.88648e-01  1.33471e-02  1.14389e+00 
-3.43180e-01  9.67341e-02  1.30220e+00 
 4.20850e-01  1.32965e-02  1.47211e+00 
 6.92914e-01  7.37410e-02  9.90809e-01 
 1.24298e+00 -1.17019e-01  1.15360e+00 
 1.58802e+00 -6.48719e-02  1.12657e+00 
 1.67553e+00  2.92423e-01  7.60255e-01 
 1.70047e+00 -8.04490e-02  3.27944e-01 
 2.17919e+00 -7.95109e-02  3.76559e-01 
 2.28304e+00 -3.39687e-01  1.81786e-01 
-4.80353e+00 -1.76283e-02  8.69810e-02 
-4.45707e+00  1.93526e-01  8.33565e-02 
-3.69665e+00  3.46643e-01  1.57119e-01 
-3.67914e+00 -7.09513e-02  3.53511e-01 
-2.96953e+00  1.04882e-01  1.04477e+00 
-2.65863e+00 -6.53272e-02  1.14608e+00 
-2.05735e+00 -5.71179e-02  1.20784e+00 
-1.33149e+00  1.27508e-01  1.30295e+00 
-1.22490e+00  1.41594e-01  1.45296e+00 
-9.83251e-01 -3.86034e-02  1.32570e+00 
-4.10455e-01  1.77301e-01  1.33456e+00 
 3.91841e-01 -1.37220e-01  1.31894e+00 
 4.25552e-02 -2.37666e-01  1.20640e+00 
 7.87614e-01 -1.01903e-01  1.32417e+00 
 1.59038e+00  1.19640e-01  1.21753e+00 
 1.56377e+00 -1.17813e-02  1.01270e+00 
 2.03854e+00  1.19814e-01  7.93065e-01 
 2.98624e+00  4.56350e-02  4.69636e-01 
 3.14031e+00  7.49644e-02  2.22202e-01 
 3.48283e+00  7.33335e-02  3.70587e-02 
-5.24826e+00 -2.43915e-01 -1.27776e-01 
-4.51909e+00  6.01154e-01  4.31908e-01 
-4.26152e+00  1.81541e-01  3.55798e-01 
-3.70124e+00  1.62338e-03  7.24620e-01 
-2.72126e+00  4.66979e-01  1.11525e+00 
-3.09767e+00 -4.37222e-02  1.07463e+00 
-2.81232e+00  1.61030e-01  1.24198e+00 
-2.09565e+00  3.40726e-01  1.54656e+00 
-1.51276e+00  1.38744e-01  1.44065e+00 
-9.05949e-01  6.28172e-02  1.42098e+00 
-4.19655e-02  2.73551e-01  1.36428e+00 
-2.53787e-01 -1.14380e-01  1.26248e+00 
 6.13587e-01 -1.13869e-01  1.28174e+00 
 9.95854e-01 -2.44345e-01  1.39943e+00 
 1.20528e+00 -8.35071e-02  1.05789e+00 
 1.93149e+00  8.25412e-02  9.78514e-01 
 2.31086e+00 -5.11293e-01  9.96633e-01 
 3.05277e+00 -2.86607e-01  6.00083e-01 
 3.32521e+00 -4.03744e-01  2.03612e-01 
 3.84847e+00  1.58872e-01  1.35128e-01 
-5.40079e+00 -1.25819e-01  2.47955e-01 
-4.68463e+00  3.90571e-01  1.44952e-01 
-4.86206e+00  9.59581e-02  3.23800e-01 
-4.06804e+00 -1.17395e-02  8.09781e-01 
-3.48432e+00  2.55493e-01  7.07260e-01 
-3.39861e+00  3.24023e-01  8.49546e-01 
-2.54952e+00  2.01306e-01  1.39695e+00 
-2.19869e+00  3.16294e-02  1.41673e+00 
-1.51788e+00  2.79596e-01  1.35434e+00 
-9.26189e-01  4.93295e-01  1.49388e+00 
-1.71054e-01  3.34064e-01  1.34280e+00 
 9.27652e-01  9.58490e-02  1.08344e+00 
 1.21793e+00 -1.84575e-01  1.15800e+00 
 1.20559e+00 -1.66983e-01  1.09958e+00 
 1.99123e+00  1.99199e-01  1.06322e+00 
 2.52192e+00 -2.16762e-01  8.69438e-01 
 3.00435e+00 -1.30137e-01  9.03914e-01 
 3.26613e+00 -2.47929e-01  4.66525e-01 
 3.84308e+00 -2.95683e-01 -5.54833e-02 
 4.52784e+00 -2.01053e-01  9.20781e-02 
-5.74952e+00 -1.62906e-02  2.82791e-01 
-5.46116e+00 -1.84670e-01  3.83797e-02 
-4.53168e+00  3.98498e-01  3.55245e-01 
-4.30174e+00  2.95062e-01  6.92739e-01 
-4.14649e+00  3.46162e-01  8.68597e-01 
-2.81268e+00  4.27380e-01  8.41794e-01 
-2.73875e+00  3.65966e-01  1.20702e+00 
-2.31593e+00  2.70402e-01  1.42570e+00 
-1.52319e+00  3.16816e-01  1.45868e+00 
-7.66101e-01  2.20093e-01  1.40546e+00 
-4.65035e-01 -1.20178e-01  1.63888e+00 
 2.05185e-01 -2.39863e-01  1.29400e+00 
 1.17047e+00  6.96811e-01  9.52104e-01 
 1.77929e+00  1.46819e-01  1.01112e+00 
 2.37501e+00 -4.19780e-02  1.11543e+00 
 3.02116e+00 -1.75407e-01  1.08867e+00 
 3.67921e+00 -3.56140e-01  7.05755e-01 
 3.85058e+00 -2.65914e-01  4.18751e-01 
 4.74562e+00 -1.80178e-01  2.45721e-01 
 5.38522e+00 -1.34570e-01  8.37274e-02 
-6.71910e+00  3.86483e-01  3.00593e-01 
-6.33026e+00 -1.28804e-01  1.31927e-01 
-5.68693e+00 -1.71626e-01  5.46029e-01 
-5.18122e+00 -1.19650e-01  5.61078e-01 
-4.35220e+00  2.54527e-01  9.76132e-01 
-3.72951e+00  4.65997e-02  1.16199e+00 
-2.98281e+00 -7.83004e-02  1.09618e+00 
-2.58038e+00  6.41762e-02  1.44499e+00 
-1.99910e+00  4.17485e-01  1.40300e+00 
-1.22486e+00  2.16757e-01  1.74663e+00 
-3.53570e-01  1.54083e-01  1.38648e+00 
 3.96886e-02 -1.66831e-01  1.29225e+00 
 9.79314e-01  2.71293e-01  1.14150e+00 
 1.34772e+00 -4.77556e-01  1.07737e+00 
 2.40188e+00 -1.50219e-01  1.15285e+00 
 2.82610e+00 -2.41323e-01  9.57444e-01 
 3.57454e+00 -2.76886e-01  8.23585e-01 
 4.49047e+00 -1.68034e-02  3.10945e-01 
 5.19216e+00  1.05676e-01  3.73021e-01 
 5.81180e+00 -3.76585e-01 -1.45915e-01 
-8.22387e+00 -5.73130e-02  3.44690e-02 
-7.72648e+00 -2.50985e-01  2.71241e-01 
-6.90485e+00 -4.41029e-01  4.88010e-01 
-6.21779e+00 -4.31566e-01  6.88944e-01 
-4.65847e+00 -5.48458e-01  1.13301e+00 
-4.00905e+00 -4.76610e-01  9.62068e-01 
-3.62477e+00  1.65650e-01  1.02577e+00 
-2.74611e+00 -8.93411e-01  1.43393e+00 
-1.61671e+00 -2.63486e-01  1.24499e+00 
-1.47116e+00 -3.99175e-01  1.30069e+00 
-6.17978e-01 -2.25716e-03  1.17217e+00 
-5.10924e-02  6.59056e-01  9.69244e-01 
 7.52787e-01 -1.32075e-01  9.51809e-01 
 1.51068e+00 -5.52803e-01  8.57949e-01 
 2.43175e+00  2.86414e-01  1.07840e+00 
 3.71010e+00  2.67268e-01  7.13421e-01 
 4.16095e+00  1.15938e-01  6.88825e-01 
 5.01641e+00 -9.72098e-02  3.20477e-01 
 6.21410e+00  3.78740e-01  1.26005e-01 
 6.90248e+00 -2.56377e-01  2.06373e-01 
-9.40593e+00  5.13465e-01 -3.34077e-01 
-7.52532e+00  5.13038e-01  2.78124e-01 
-6.29471e+00 -3.29968e-01  3.53809e-01 
-5.11836e+00 -1.05368e+00  7.76972e-01 
-4.30845e+00 -2.40314e-01  9.12051e-01 
-3.76761e+00 -6.85915e-01  3.34978e-01 
-2.48030e+00 -2.14336e-01  7.89482e-01 
-2.16404e+00 -4.67463e-01  1.11057e+00 
-1.75087e+00 -8.65503e-01  6.60717e-01 
-9.04220e-01 -7.96810e-01  9.77425e-01 
 1.65118e-01  4.11622e-01  7.36590e-01 
 6.12703e-01  3.90053e-01  5.24532e-01 
 1.36234e+00  7.53872e-02  8.06392e-01 
 2.10032e+00 -4.97629e-01  3.14222e-01 
 2.91555e+00  7.99841e-02  5.85096e-01 
 3.56694e+00  8.77038e-01  5.43382e-01 
 4.39706e+00  3.39931e-01  1.29897e-01 
 5.50134e+00  6.60698e-03  1.92565e-01 
 6.61770e+00 -3.37656e-01 -7.59937e-02 
 8.01158e+00 -1.82069e-01  1.54374e-02 
-8.89516e+00  2.50605e-03  1.06030e-01 
-7.54431e+00 -8.34084e-01  4.00522e-01 
-6.48843e+00 -4.95989e-01  1.85406e-01 
-5.60025e+00 -1.76947e-01  2.43493e-01 
-4.45993e+00 -6.74842e-01  9.41534e-02 
-3.47284e+00 -1.38145e+00  2.36235e-01 
-2.42188e+00 -1.16734e+00  2.62060e-01 
-1.49272e+00 -2.23339e-01 -4.34778e-02 
-8.46362e-01 -8.97998e-02  4.30469e-01 
-4.91433e-01 -1.52589e-01  2.04560e-01 
 5.59355e-03 -4.85217e-01  2.15952e-01 
 1.11574e+00 -5.45053e-01  6.66481e-02 
 2.01629e+00  1.41064e-01  1.88552e-01 
 2.29091e+00  1.50219e-01 -1.67836e-01 
 2.97708e+00  1.56716e-01  1.69870e-02 
 3.86909e+00  3.47772e-01 -1.10931e-01 
 4.56931e+00 -2.71685e-02 -1.30751e-01 
 5.87229e+00  6.98648e-01 -2.54491e-01 
 6.56306e+00 -9.68756e-02 -9.22588e-02 
 8.06644e+00 -1.99238e-01 -2.36762e-01 
-8.88439e+00  4.74362e-02 -4.10002e-01 
-7.79760e+00 -2.82921e-01 -1.58213e-01 
-6.32365e+00 -8.43380e-01 -3.22614e-01 
-4.97650e+00 -7.29479e-01 -4.28663e-01 
-3.87902e+00 -3.87559e-01 -2.35542e-01 
-3.60088e+00 -1.54089e+00 -7.31218e-01 
-2.99673e+00 -1.18391e+00 -5.74291e-01 
-1.68120e+00 -5.54414e-01 -4.86547e-01 
-7.33551e-01 -3.73642e-01 -7.95515e-01 
-3.58304e-01 -2.61894e-01 -6.95242e-01 
 7.33030e-01 -3.25368e-01 -3.39666e-01 
 1.38974e+00 -7.50198e-01 -5.31175e-01 
 1.90449e+00  7.85688e-02 -6.09050e-01 
 2.98095e+00  7.91627e-01 -9.52477e-01 
 3.40937e+00 -2.82744e-01 -7.04454e-01 
 4.04263e+00  1.78413e-01 -7.42643e-01 
 4.42451e+00 -2.23799e-01 -7.27409e-01 
 5.73057e+00  5.60003e-01 -6.69644e-01 
 6.81424e+00  3.83724e-01 -2.28141e-01 
 8.05171e+00 -2.55202e-01 -1.37155e-01 
-8.25572e+00  5.53947e-01 -7.46340e-01 
-6.77956e+00 -6.11772e-01 -4.20663e-01 
-5.15711e+00 -6.05848e-01 -7.42323e-01 
-4.55004e+00 -8.83457e-01 -1.20613e+00 
-4.09406e+00 -1.39525e+00 -1.44352e+00 
-3.88154e+00 -1.30287e+00 -1.75538e+00 
-2.87380e+00 -6.11400e-01 -1.73192e+00 
-2.53085e+00 -9.90504e-01 -1.15512e+00 
-1.00899e+00  4.93566e-02 -1.61069e+00 
 1.93481e-01  1.76110e-02 -1.32242e+00 
 4.04249e-01 -5.83648e-01 -1.12650e+00 
 1.43376e+00  3.67372e-01 -1.36155e+00 
 1.87541e+00 -1.21334e+00 -1.62350e+00 
 2.89063e+00 -9.79300e-02 -1.61337e+00 
 3.49609e+00 -1.55181e-01 -1.71905e+00 
 3.91641e+00 -2.49326e-01 -1.79721e+00 
 3.93928e+00 -6.72662e-01 -1.60535e+00 
 4.62213e+00  4.00102e-01 -1.32726e+00 
 5.56057e+00  3.36615e-01 -8.46448e-01 
 6.40776e+00 -4.65136e-01 -5.65391e-01 
-5.60368e+00  8.24411e-02 -6.28101e-01 
-5.09281e+00 -8.47835e-01 -4.53576e-01 
-4.23891e+00 -7.48996e-01 -1.22242e+00 
-3.91463e+00 -9.87180e-01 -2.31083e+00 
-3.92404e+00 -6.57980e-01 -2.42815e+00 
-3.75176e+00 -1.01000e+00 -2.62504e+00 
-2.72026e+00 -2.84315e-01 -2.67714e+00 
-2.29106e+00 -4.16747e-01 -2.05409e+00 
-1.72228e+00 -3.52384e-01 -2.24315e+00 
-6.04997e-01 -4.44874e-01 -2.11035e+00 
 8.68954e-01  1.48522e-01 -2.21999e+00 
 2.06244e+00  1.36618e-01 -2.03555e+00 
 2.81921e+00 -6.07661e-01 -2.46994e+00 
 3.44525e+00 -8.07346e-01 -2.61511e+00 
 3.64244e+00 -2.79034e-01 -2.74578e+00 
 3.54903e+00 -1.49057e-01 -2.88276e+00 
 3.47524e+00 -5.56443e-02 -2.40941e+00 
 4.00909e+00  6.72310e-02 -1.83190e+00 
 4.60910e+00  4.28570e-01 -9.31448e-01 
 4.98814e+00 -1.44239e-01 -6.32116e-01 
-3.39513e+00 -2.80110e-03 -4.38159e-01 
-3.36611e+00 -7.27603e-01 -8.15605e-01 
-3.48201e+00 -1.01147e+00 -1.69832e+00 
-3.46171e+00 -1.65113e+00 -2.56636e+00 
-3.03711e+00 -1.60467e+00 -3.25603e+00 
-3.26277e+00 -2.26960e+00 -3.55009e+00 
-3.48774e+00 -9.72736e-01 -3.76561e+00 
-3.59246e+00 -3.66131e-01 -3.52107e+00 
-3.19868e+00 -1.17814e+00 -3.39290e+00 
-1.28340e+00 -1.07075e-01 -2.77975e+00 
 1.16652e+00 -3.77785e-01 -2.72103e+00 
 2.39271e+00 -3.78131e-01 -3.15968e+00 
 2.84627e+00 -1.72214e-01 -3.56817e+00 
 3.37677e+00  2.09434e-01 -3.70887e+00 
 3.25197e+00  1.32342e+00 -3.82267e+00 
 2.74545e+00  6.91424e-01 -3.36558e+00 
 2.78671e+00  6.30232e-01 -2.71482e+00 
 2.57308e+00  8.51474e-02 -1.93876e+00 
 2.30094e+00 -5.20815e-01 -1.18899e+00 
 2.22455e+00 -5.95555e-02 -7.50923e-01 
-1.51358e+00 -4.47320e-01 -4.96467e-01 
-1.60257e+00 -6.00040e-01 -5.53698e-01 
-1.59768e+00 -1.02947e+00 -1.66473e+00 
-1.61305e+00 -1.82258e+00 -2.36944e+00 
-2.03119e+00 -3.13801e+00 -2.76328e+00 
-2.09810e+00 -4.38903e+00 -3.96068e+00 
-2.47600e+00 -4.83964e+00 -5.15988e+00 
-2.11840e+00 -9.07201e-01 -5.61598e+00 
-2.24451e+00 -1.48740e+00 -5.74116e+00 
-6.62164e-01 -1.03957e+00 -5.84522e+00 
 5.79808e-01  4.08246e-01 -5.74082e+00 
 2.13317e+00  9.46759e-01 -5.73741e+00 
 2.12446e+00  1.29670e+00 -5.32608e+00 
 2.06170e+00  4.71587e+00 -4.61506e+00 
 2.04818e+00  4.76362e+00 -4.13529e+00 
 1.52115e+00  3.36960e+00 -2.88743e+00 
 1.39800e+00  1.10679e+00 -2.21806e+00 
 1.34689e+00  5.85821e-01 -1.56646e+00 
 9.88544e-01 -2.58419e-01 -8.28916e-01 
 5.38669e-01 -4.72141e-01 -4.70652e-01 
 2.67478e-01  3.53202e-01 -6.67789e-01 
-6.87610e-01  1.99288e-01 -5.08632e-01 
-1.78949e+00 -1.73988e+00 -8.89441e-01 
-9.31674e-02 -1.84584e+00 -1.62297e+00 
-4.83632e-01 -4.37252e+00 -2.26775e+00 
-1.66927e+00 -8.13150e+00 -3.05505e+00 
-1.82012e+00 -1.31746e+01 -4.41343e+00 
-3.11752e+00 -2.20241e+01 -6.82288e+00 
-3.25934e+00 -1.97578e+01 -8.62894e+00 
-5.84593e-01 -5.60905e+00 -1.01478e+01 
 5.60764e-01  5.77951e+00 -1.01076e+01 
 3.82773e+00  2.11498e+01 -8.51405e+00 
 3.77569e+00  2.27629e+01 -6.53407e+00 
 1.78801e+00  1.33856e+01 -4.08008e+00 
 1.65450e+00  9.68423e+00 -3.12700e+00 
 1.14990e+00  5.34672e+00 -2.03000e+00 
 6.20580e-01  2.94733e+00 -1.38084e+00 
 8.60349e-01  1.42493e+00 -9.68905e-01 
 5.43026e-01  3.75642e-01 -4.75541e-01 
 7.89892e-02  3.39922e-01 -3.34000e-01 
-1.89638e+01 -2.93490e+01 -1.94587e+00 
 5.54826e-01  8.58001e+00  2.99007e+00 
 2.98992e-01  6.44785e+00  2.07113e+00 
-1.18175e-02  5.22441e+00  1.80428e+00 
-2.46032e-02  4.59692e+00  7.07192e-01 
-4.04247e-01  3.67303e+00  1.07509e+00 
-6.10004e-01  2.72608e+00  1.08947e+00 
-7.39173e-01  1.90652e+00  6.82212e-01 
-4.93444e-01  1.67246e+00  2.15303e-01 
-3.39342e-01  1.41823e+00  4.99129e-02 
-1.24135e-02  1.44662e+00  1.25464e-01 
-2.91929e-01  8.67091e-01  1.05216e-01 
-1.68623e-01  8.55249e-01  1.17756e-01 
-7.46659e-02  7.07696e-01  3.05448e-01 
-1.64386e-01  3.70641e-01  2.99199e-01 
-5.88529e-02  2.35426e-01 -8.92088e-02 
 9.58148e-03  2.65962e-01  5.72112e-02 
-2.03901e-01 -8.68070e-02  3.16579e-01 
-1.91331e-01 -2.55889e-02 -1.50137e-01 
-3.96095e+00 -2.21290e-02 -2.06175e+00 
-1.06574e+00 -1.05035e+00 -7.22846e-01 
 3.25145e-01  1.28437e+00  8.90525e-01 
 4.17332e-01  1.72637e+00  1.68864e+00 
 2.53335e-01  1.58196e+00  1.62985e+00 
 6.46755e-01  2.08168e+00  1.89417e+00 
 4.34787e-01  1.80782e+00  2.17585e+00 
-6.70547e-02  1.64647e+00  1.58289e+00 
-4.31501e-01  1.35790e+00  1.40664e+00 
-4.91928e-01  9.28866e-01  5.63110e-01 
-6.24585e-01  6.82974e-01  9.76217e-01 
-1.88686e-01  5.45970e-01  6.69738e-01 
-8.89325e-02  6.78573e-01  6.69635e-01 
-1.56015e-01  3.43714e-01  5.07276e-01 
-2.41468e-01  1.34838e-01  6.50712e-01 
-3.45561e-01 -1.04838e-01  4.07554e-01 
 2.95229e-02  2.02542e-01  2.64818e-01 
 3.73615e-02  7.15277e-03  4.47783e-01 
-6.43394e-02  8.49215e-02 -1.08959e-01 
-3.10580e+00  2.22149e-02 -4.53042e-01 
-2.47054e+00  4.77833e-02 -9.57108e-01 
-1.32821e+00 -3.99892e-01 -1.88470e-01 
-5.82628e-01  5.89851e-02  7.52848e-01 
-2.63139e-01  2.85476e-01  9.79094e-01 
-4.47901e-01  4.03429e-01  1.37948e+00 
-5.75323e-01  7.41250e-01  2.08067e+00 
-3.01990e-01  8.60544e-01  1.36733e+00 
-1.92113e-01  6.21964e-01  1.86375e+00 
 2.21780e-01  6.94655e-01  8.36349e-01 
 3.56934e-01  7.05728e-01  1.04281e+00 
-6.40589e-02 -2.57270e-02  1.11081e+00 
 2.88605e-01  3.57436e-01  7.67170e-01 
 1.55075e-01  3.98952e-01  6.43893e-01 
 2.35367e-01  9.34543e-02  9.91259e-01 
 3.95308e-01  4.54637e-02  7.33622e-01 
 2.30532e-01  3.84327e-02  5.65452e-01 
-1.06029e-02 -8.22661e-02  7.24928e-01 
-1.20809e-01 -1.06742e-01  3.09512e-03 
-3.58099e+00 -2.45291e-01 -1.16613e-02 
-2.55191e+00 -3.27157e-02 -1.02562e-01 
-1.81694e+00  1.58128e-01  2.45646e-01 
-1.84374e+00 -4.58269e-01  8.97820e-01 
-9.40693e-01  2.02310e-01  1.02935e+00 
-4.74437e-01  9.96095e-02  1.70500e+00 
-3.58455e-01  2.88283e-01  1.98181e+00 
-1.10201e-01  5.32743e-01  1.74822e+00 
 1.74511e-01  3.72187e-01  1.81451e+00 
 5.46347e-01  4.89387e-01  1.50064e+00 
 1.20292e+00  7.38288e-01  1.18382e+00 
 9.93447e-01  3.96095e-01  1.44992e+00 
 8.80238e-01  3.86852e-01  1.42999e+00 
 1.02827e+00  4.15910e-01  1.02169e+00 
 7.07177e-01 -8.73592e-02  1.53013e+00 
 1.12546e+00  2.39841e-01  1.11650e+00 
 1.11881e+00  1.31776e-02  7.49087e-01 
 9.56125e-01  1.88523e-01  6.09225e-01 
 4.70535e-01 -8.75657e-02  2.31693e-01 
-4.19268e+00 -9.44323e-02 -5.62631e-02 
-3.52375e+00 -1.44866e-01 -2.41768e-01 
-2.76477e+00 -4.53073e-02  1.66065e-01 
-2.18373e+00  2.25396e-02  6.90961e-01 
-1.47028e+00  6.66778e-02  8.45782e-01 
-1.23775e+00 -1.21113e-01  1.19086e+00 
-8.35234e-01 -1.18570e-01  1.07287e+00 
-6.69267e-01  4.13607e-03  1.79093e+00 
-1.24085e-01  1.89547e-01  1.45691e+00 
-8.37298e-03  3.13087e-01  1.37403e+00 
-2.47641e-01 -6.74634e-02  1.20635e+00 
 6.74683e-01  4.94835e-01  1.40395e+00 
 1.29599e+00  5.10881e-01  1.28529e+00 
 1.42173e+00  1.93401e-01  1.03959e+00 
 1.56670e+00  3.17139e-02  1.42456e+00 
 1.27727e+00 -5.40480e-02  1.23678e+00 
 1.16194e+00 -1.33407e-01  6.93846e-01 
 1.34103e+00 -2.96970e-02  6.76364e-01 
 1.64585e+00 -3.31043e-02  1.69431e-01 
-4.86056e+00 -1.25458e-01  2.10435e-01 
-4.34408e+00  1.36939e-01 -4.16313e-01 
-3.93863e+00 -2.02808e-01  3.13715e-01 
-3.06999e+00 -7.46496e-02  3.22103e-01 
-2.45915e+00  8.46277e-02  1.12576e+00 
-2.14652e+00 -3.15852e-01  1.26285e+00 
-1.56326e+00 -2.05073e-01  1.23568e+00 
-1.00840e+00  2.96866e-01  1.50754e+00 
-1.50005e+00 -4.27842e-01  1.51687e+00 
-9.34919e-01  1.77834e-02  1.39955e+00 
-3.53891e-01 -1.86859e-02  1.32037e+00 
-3.09921e-01 -4.06447e-01  1.47227e+00 
 1.39364e-01  6.38922e-02  1.00768e+00 
 7.73727e-01 -2.52090e-01  1.21914e+00 
 1.42931e+00 -1.46528e-01  8.94235e-01 
 1.95562e+00  2.28335e-01  1.03677e+00 
 2.67182e+00  3.70157e-01  6.18375e-01 
 3.01119e+00  2.45893e-01  4.39726e-01 
 3.20983e+00  2.33775e-01  4.59721e-02 
-4.43861e+00  1.26075e-01 -3.78516e-02 
-3.83594e+00  6.23968e-01  2.97545e-01 
-3.55338e+00  2.72302e-01  4.15279e-01 
-2.80877e+00  2.59054e-01  7.30393e-01 
-2.61483e+00  3.52047e-01  8.10888e-01 
-2.68165e+00 -1.24778e-01  1.09381e+00 
-2.05786e+00  1.18551e-01  1.60427e+00 
-1.37709e+00  3.40564e-01  1.21872e+00 
-9.13164e-01  1.15422e-01  1.64825e+00 
-2.84548e-01  2.38918e-01  1.35235e+00 
-7.60178e-02  1.61715e-01  1.47443e+00 
 1.36054e-01 -3.54576e-01  1.33326e+00 
 1.03692e+00  2.92105e-01  1.38387e+00 
 1.09740e+00 -2.86331e-01  1.35628e+00 
 1.61862e+00 -8.75389e-02  1.15171e+00 
 2.26550e+00  2.36258e-01  1.04699e+00 
 2.54644e+00 -1.47334e-01  8.30461e-01 
 2.95812e+00 -3.63781e-01  1.43016e-01 
 3.72190e+00  1.95559e-01  6.64651e-03 
-5.73847e+00 -3.25319e-01  3.80331e-01 
-4.99376e+00  2.08197e-01  4.02008e-01 
-4.67086e+00 -1.09011e-01  9.05666e-01 
-4.30658e+00 -2.89498e-01  1.29837e+00 
-3.77950e+00 -1.21369e-02  6.67872e-01 
-3.11204e+00  2.24028e-01  1.59987e+00 
-2.49643e+00 -5.43728e-02  1.90545e+00 
-1.65548e+00  3.86192e-01  1.31723e+00 
-1.46184e+00 -1.35849e-02  1.64702e+00 
-7.87870e-01  1.54446e-01  1.49131e+00 
 3.78542e-02 -1.57431e-02  1.54739e+00 
 6.59730e-01  1.59219e-01  1.43116e+00 
 8.98577e-01 -3.06404e-01  1.11829e+00 
 1.33804e+00  4.64027e-03  1.28948e+00 
 1.65500e+00 -2.61561e-01  1.12918e+00 
 1.94066e+00 -2.04593e-01  1.01740e+00 
 2.63269e+00 -2.38371e-01  1.01890e+00 
 2.91553e+00 -8.56153e-01  3.74747e-01 
 3.55494e+00 -8.39289e-02  2.61535e-01 
-5.03843e+00 -1.26548e-01 -1.30060e-01 
-4.22766e+00  6.84233e-01 -4.41738e-01 
-4.40552e+00  2.84896e-01  3.91490e-01 
-4.07629e+00 -1.13432e-01  7.54184e-01 
-3.13294e+00  5.63323e-01  2.11617e-01 
-2.77786e+00  3.71147e-01  1.19838e+00 
-2.56514e+00  3.01952e-01  1.30905e+00 
-2.04315e+00  6.46642e-02  1.28371e+00 
-9.95769e-01  3.14853e-01  1.20487e+00 
-5.30921e-01  1.41253e-01  1.18424e+00 
 3.21166e-01  2.77122e-01  1.27164e+00 
 1.29032e+00  3.55576e-01  9.78020e-01 
 1.44651e+00  1.03848e-01  7.10875e-01 
 1.76354e+00  1.21055e-01  1.02757e+00 
 2.30546e+00 -2.84394e-01  9.63414e-01 
 3.35142e+00  1.56771e-02  8.04133e-01 
 3.73027e+00 -4.31417e-02  4.58523e-01 
 3.90626e+00 -4.70346e-01 -1.28884e-01 
 4.97014e+00 -1.11337e-03 -2.09967e-01 
-5.60890e+00 -1.22451e-01  2.36943e-01 
-5.04533e+00  6.08703e-01 -1.11748e-01 
-4.47789e+00  2.52632e-01  9.52699e-01 
-4.01178e+00  3.44537e-01  1.13682e+00 
-3.14476e+00  7.73686e-01  9.11633e-01 
-3.08523e+00  9.81293e-02  1.39468e+00 
-2.40447e+00  4.06792e-01  1.53871e+00 
-2.14280e+00  2.23587e-01  1.42062e+00 
-1.63843e+00 -1.21981e-01  1.83487e+00 
-3.32167e-01  2.90764e-01  1.62703e+00 
 1.57276e-01  1.93191e-01  2.18848e+00 
 5.93568e-01  1.47304e-01  1.30685e+00 
 1.59062e+00  4.02887e-01  1.06515e+00 
 2.50145e+00  1.49893e-01  1.27455e+00 
 3.03055e+00 -1.27072e-01  1.30668e+00 
 3.52280e+00 -4.68798e-02  1.19527e+00 
 4.06160e+00 -2.75005e-01  5.28269e-01 
 4.81049e+00  1.00696e-01  6.32078e-01 
 4.81724e+00 -3.92173e-01  2.80843e-01 
-7.51764e+00 -3.03248e-01  1.22352e-01 
-6.70013e+00 -2.77802e-01  3.40667e-01 
-5.94926e+00 -2.84195e-01  7.32004e-01 
-5.48001e+00 -2.48519e-01  9.63975e-01 
-4.85060e+00 -4.57296e-01  1.00391e+00 
-3.42150e+00  2.06537e-01  1.19993e+00 
-3.45146e+00 -7.78985e-01  1.53350e+00 
-2.30877e+00 -6.80285e-02  1.41815e+00 
-1.54878e+00  3.30800e-03  1.63988e+00 
-1.11221e+00 -1.26158e-01  1.14532e+00 
-4.98837e-01  1.28212e-01  1.42254e+00 
-4.78899e-02 -1.41714e-01  8.87364e-01 
 6.31511e-01 -4.74893e-01  9.95830e-01 
 1.65602e+00 -2.24950e-01  1.28441e+00 
 2.81720e+00  1.05521e-01  1.18360e+00 
 3.40858e+00 -2.26343e-01  1.24486e+00 
 4.05967e+00 -2.19066e-01  3.79386e-01 
 5.06955e+00  8.26118e-02  5.19660e-01 
 6.39065e+00  1.38474e-01  1.72423e-01 
-8.03401e+00  3.65286e-01  1.09861e-01 
-7.80625e+00 -6.63252e-01  8.04460e-01 
-7.03756e+00 -1.06333e+00  9.73766e-01 
-5.60203e+00 -9.34315e-01  1.17909e+00 
-3.98130e+00  1.17205e-01  9.19780e-01 
-4.07448e+00 -9.74694e-01  9.44925e-01 
-2.88508e+00 -4.40550e-01  1.32226e+00 
-2.35105e+00 -9.33525e-01  1.26734e+00 
-1.91019e+00 -7.40163e-01  1.37701e+00 
-9.12834e-01 -3.46364e-01  1.22549e+00 
-2.30263e-01  2.93807e-01  8.29290e-01 
 6.56878e-01  4.74907e-01  1.14692e+00 
 1.57522e+00 -5.47858e-02  6.56576e-01 
 1.71943e+00 -5.43626e-01  6.47945e-01 
 2.77278e+00  2.96036e-01  8.85236e-01 
 3.94998e+00  2.29025e-01  7.62600e-01 
 5.02893e+00  1.46773e-02  1.94728e-01 
 6.36033e+00  4.50623e-01  1.06918e-01 
 7.29190e+00  3.28334e-01 -8.94929e-02 
-9.10857e+00 -3.56131e-01  5.96503e-02 
-6.98365e+00 -5.65287e-01  1.58591e-01 
-5.29157e+00 -2.71786e-01  3.96199e-01 
-4.12308e+00 -1.44911e-01  8.39427e-01 
-3.49117e+00 -7.11259e-02  3.48690e-01 
-3.11471e+00 -1.41135e+00  3.05049e-01 
-1.89925e+00 -5.33219e-02  5.25680e-01 
-1.75090e+00 -7.70658e-01  4.08081e-01 
-5.27829e-01 -2.74525e-01  7.34726e-01 
-1.49115e-01 -1.99602e-01  5.00168e-01 
 7.21290e-01  2.84039e-01  2.06351e-01 
 1.36999e+00  2.40734e-01  6.91113e-01 
 1.59733e+00 -4.33442e-01  1.02343e-01 
 2.83948e+00 -3.24038e-02  2.82577e-02 
 3.65586e+00  7.85982e-01  3.33648e-01 
 3.69815e+00  7.00725e-02  2.79776e-01 
 4.79902e+00 -2.34661e-01 -3.81488e-02 
 6.56909e+00  6.00541e-01 -1.14755e-01 
 7.46980e+00 -6.62559e-02  3.27819e-02 
-8.25401e+00 -5.02159e-01  4.64696e-03 
-7.30523e+00 -9.79431e-01  2.10637e-01 
-6.76739e+00 -9.39801e-01  9.13634e-02 
-5.36429e+00 -6.84487e-01  2.32402e-01 
-3.84941e+00 -9.77421e-01  2.98680e-02 
-3.11419e+00 -1.49441e+00 -3.51090e-02 
-1.43626e+00  4.08122e-02  1.45951e-01 
-7.06034e-01 -3.56554e-01  1.91461e-01 
-9.93247e-01 -6.27366e-01 -6.60554e-02 
-1.09900e-01 -6.83238e-02 -2.94697e-02 
 8.50424e-01 -2.24291e-01 -5.75461e-02 
 1.54095e+00 -3.74183e-01 -4.79625e-02 
 2.36002e+00  6.03052e-02 -2.82460e-01 
 3.10043e+00  3.83608e-01 -1.40336e-01 
 3.94577e+00  2.91358e-01 -3.90090e-01 
 4.54462e+00  3.24111e-01 -3.15110e-01 
 5.04867e+00 -9.05522e-02 -1.57476e-01 
 6.43187e+00  7.67972e-01 -3.13454e-01 
 7.70907e+00  1.56270e-01  3.35855e-02 
-8.52660e+00 -6.60216e-01 -2.55396e-01 
-6.83700e+00 -7.47576e-01 -5.25928e-01 
-4.99830e+00 -4.81915e-01 -1.04807e+00 
-4.29993e+00 -1.06312e+00 -5.28397e-01 
-3.79563e+00 -8.60040e-01 -1.28463e+00 
-3.28286e+00 -1.32613e+00 -1.47245e+00 
-2.39365e+00 -5.68628e-01 -1.17755e+00 
-2.09265e+00 -9.60249e-01 -1.31408e+00 
-5.97705e-01 -9.24423e-02 -1.28470e+00 
 2.81480e-01 -3.50107e-01 -6.25900e-01 
 1.35813e+00  1.94470e-01 -8.07898e-01 
 1.70434e+00 -3.57532e-01 -9.50132e-01 
 2.29147e+00 -2.68244e-01 -1.09414e+00 
 3.01613e+00 -1.32743e-02 -1.20794e+00 
 3.45807e+00 -3.87488e-01 -1.28982e+00 
 4.26572e+00 -3.06716e-01 -1.56019e+00 
 5.16643e+00  6.11589e-01 -1.31902e+00 
 5.99125e+00  6.56564e-01 -9.98203e-01 
 6.91214e+00  2.67462e-01 -1.47998e-01 
-7.06315e+00 -7.55464e-01 -4.28555e-01 
-5.85143e+00 -1.33301e+00 -1.25017e+00 
-4.64810e+00 -5.53405e-01 -2.19403e+00 
-4.23262e+00 -9.11096e-01 -1.81422e+00 
-4.00971e+00 -1.23129e+00 -2.37370e+00 
-3.31350e+00 -1.05841e+00 -1.94860e+00 
-2.26262e+00 -3.06437e-01 -1.91834e+00 
-1.23305e+00  1.99509e-02 -1.74485e+00 
 1.31119e-01  3.24882e-01 -1.63512e+00 
 6.42231e-01 -5.85137e-01 -1.78349e+00 
 1.25442e+00  2.11193e-01 -1.65242e+00 
 2.31973e+00  1.73809e-01 -1.74566e+00 
 2.64670e+00 -1.19379e+00 -2.32394e+00 
 3.22486e+00 -5.66715e-01 -2.26340e+00 
 3.86086e+00  9.57305e-02 -2.53820e+00 
 3.65343e+00 -8.30684e-01 -2.31689e+00 
 4.50881e+00  5.95078e-01 -2.40633e+00 
 5.18916e+00  9.01642e-01 -1.58715e+00 
 5.96715e+00  2.70851e-01 -6.23781e-01 
-4.39503e+00 -2.01263e-01 -1.91490e-01 
-4.74831e+00 -1.75650e+00 -9.77045e-01 
-3.34369e+00 -5.47788e-01 -2.21803e+00 
-3.56593e+00 -1.18681e+00 -2.49635e+00 
-3.96712e+00 -1.85413e+00 -3.19490e+00 
-3.48777e+00 -1.17944e+00 -3.19909e+00 
-3.04366e+00 -5.38321e-01 -3.12294e+00 
-2.55778e+00 -4.80733e-01 -2.76464e+00 
-1.90589e+00 -4.81572e-01 -2.06364e+00 
-4.65191e-01 -6.85406e-01 -1.89280e+00 
 1.88636e+00  1.37638e-01 -2.17188e+00 
 3.02181e+00  5.09091e-01 -2.53296e+00 
 3.00470e+00 -8.30194e-01 -3.25227e+00 
 4.04813e+00  3.22855e-01 -3.43198e+00 
 4.16538e+00  9.06194e-01 -3.30013e+00 
 3.32665e+00  1.99092e-01 -3.17659e+00 
 3.25857e+00  2.35824e-01 -2.55760e+00 
 3.71190e+00  2.42532e-01 -1.73631e+00 
 3.42044e+00 -1.03781e-01 -5.56375e-01 
-2.13806e+00 -7.08401e-02 -8.99337e-01 
-2.36758e+00 -1.10843e+00 -1.61679e+00 
-2.51797e+00 -9.64194e-01 -2.90045e+00 
-2.92692e+00 -2.15941e+00 -3.65786e+00 
-3.03381e+00 -3.00615e+00 -3.86485e+00 
-4.27369e+00 -3.83633e+00 -5.10899e+00 
-5.76074e+00 -3.89271e+00 -5.13317e+00 
-4.49101e+00 -1.29811e+00 -3.87492e+00 
-3.36706e+00 -2.08592e+00 -2.59224e+00 
-2.44782e-01 -1.66308e-01 -1.76957e+00 
 2.29863e+00  5.93968e-01 -2.43381e+00 
 3.86545e+00  1.07807e+00 -3.91948e+00 
 4.24030e+00  2.57335e+00 -5.06427e+00 
 3.54872e+00  3.30799e+00 -4.86759e+00 
 2.53486e+00  2.49722e+00 -4.16845e+00 
 2.36839e+00  1.69638e+00 -3.44941e+00 
 2.17048e+00  6.65553e-01 -2.58565e+00 
 1.32976e+00 -3.72959e-01 -1.92522e+00 
 1.12052e+00 -4.84567e-01 -8.59287e-01 
-1.23560e-01  1.06811e-01 -1.40972e-02 
-6.75898e-01 -5.27363e-01 -4.09662e-01 
-1.95758e-01 -6.78089e-01 -1.05554e+00 
 6.92399e-02 -2.02495e+00 -1.77165e+00 
-7.66084e-01 -4.60854e+00 -2.23269e+00 
-2.59159e-01 -6.14236e+00 -3.91853e+00 
-7.14952e-01 -9.66082e+00 -5.45954e+00 
-3.58118e+00 -1.55319e+01 -8.43862e+00 
-2.36654e-01 -5.33194e+00 -1.15668e+01 
-5.26694e-02 -5.45512e-01 -1.18003e+01 
 8.44263e-01  6.36037e+00 -1.11804e+01 
 3.92158e+00  1.60669e+01 -8.16067e+00 
 7.35107e-01  9.45309e+00 -5.16687e+00 
 5.89200e-01  7.54246e+00 -3.35493e+00 
 4.73967e-01  4.89136e+00 -2.53328e+00 
 1.43564e-02  2.28012e+00 -1.43538e+00 
 1.58047e-01  9.68998e-01 -1.12632e+00 
 2.06759e-01 -7.97313e-02 -3.43062e-01 
 7.03493e-02 -3.47197e-02  2.79596e-01 </DataArray>
         </PointData>
         <CellData/>
      </Piece>
   </UnstructuredGrid>
</VTKFile>