<?xml version="1.0" encoding="utf-8"?>
<VTKFile byte_order="LittleEndian" type="UnstructuredGrid" version="0.1">
   <UnstructuredGrid>
      <Piece NumberOfCells="16" NumberOfPoints="13">
         <Points>
            <DataArray Name="Points" NumberOfComponents="3" format="ascii" type="Float32">
0.0000 1.0000 0.0000
0.0000 1.5000 0.0000
0.0000 2.0000 0.0000
1.0000 1.0000 0.0000
1.0000 1.5000 0.0000
1.0000 2.0000 0.0000
2.0000 1.0000 0.0000
2.0000 1.5000 0.0000
2.0000 2.0000 0.0000
0.5000 1.2500 0.0000
0.5000 1.7500 0.0000
1.5000 1.2500 0.0000
1.5000 1.7500 0.0000</DataArray>
         </Points>
         <Cells>
            <DataArray Name="connectivity" format="ascii" type="Int32">
 1 0 9
 2 1 10
 4 3 11
 5 4 12
 4 1 9
 5 2 10
 7 4 11
 8 5 12
 3 4 9
 4 5 10
 6 7 11
 7 8 12
 0 3 9
 1 4 10
 3 6 11
 4 7 12</DataArray>
            <DataArray Name="offsets" format="ascii" type="Int32">3 6 9 12 15 18 21 24 27 30 33 36 39 42 45 48 </DataArray>
            <DataArray Name="types" format="ascii" type="UInt8">5 5 5 5 5 5 5 5 5 5 5 5 5 5 5 5 </DataArray>
         </Cells>
         <PointData>
            <DataArray Name="displacement" NumberOfComponents="3" format="ascii" type="Float64">
-2.71948e-16  2.71948e-16        00000 
-3.05523e-16 -1.01841e-16        00000 
 7.63807e-17  2.97408e-16        00000 
-5.63279e+00 -8.86463e+00        00000 
 3.14837e-16 -8.20471e+00        00000 
 5.63279e+00 -8.86463e+00        00000 
-7.60874e+00 -2.45564e+01        00000 
 9.34667e-16 -2.47998e+01        00000 
 7.60874e+00 -2.45564e+01        00000 
-1.29410e+00 -3.78933e+00        00000 
 1.29410e+00 -3.78933e+00        00000 
-3.46655e+00 -1.64387e+01        00000 
 3.46655e+00 -1.64387e+01        00000 </DataArray>
            <DataArray Name="strain" NumberOfComponents="3" format="ascii" type="Float64">
-5.58172e+00  1.77492e+00 -7.40233e+00 
-1.24755e-15  3.81903e-17 -7.75500e+00 
 5.58172e+00 -1.77492e+00 -7.40233e+00 
-4.16472e+00  2.87175e+00 -1.40711e+00 
 9.63031e-16 -2.31498e-18 -1.36049e+00 
 4.16472e+00 -2.87175e+00 -1.40711e+00 
-1.30631e+00 -1.99933e-01 -1.48427e+00 
 5.19259e-16  5.19259e-17 -1.03836e+00 
 1.30631e+00  1.99933e-01 -1.48427e+00 
-3.19617e+00  1.58170e-01 -1.32255e+00 
 3.19617e+00 -1.58170e-01 -1.32255e+00 
-6.08196e-01  1.65180e-01 -4.48125e+00 
 6.08196e-01 -1.65180e-01 -4.48125e+00 </DataArray>
            <DataArray Name="stress" NumberOfComponents="3" format="ascii" type="Float64">
-6.00195e+00 -9.31748e-01 -2.55084e+00 
-1.12025e-15 -7.25616e-16 -2.67237e+00 
 6.00195e+00  9.31748e-01 -2.55084e+00 
-3.60228e+00  1.24726e+00 -4.84892e-01 
 1.11119e-15  3.70397e-16 -4.68826e-01 
 3.60228e+00 -1.24726e+00 -4.84892e-01 
-1.75300e+00 -9.90480e-01 -5.11479e-01 
 1.09044e-15  4.54352e-16 -3.57818e-01 
 1.75300e+00  9.90480e-01 -5.11479e-01 
-3.92262e+00 -1.61080e+00 -4.55749e-01 
 3.92262e+00  1.61080e+00 -4.55749e-01 
-6.69959e-01 -1.36949e-01 -1.54424e+00 
 6.69959e-01  1.36949e-01 -1.54424e+00 </DataArray>
         </PointData>
         <CellData/>
      </Piece>
   </UnstructuredGrid>
</VTKFile>