<?xml version="1.0" encoding="utf-8"?>
<VTKFile byte_order="LittleEndian" type="UnstructuredGrid" version="0.1">
   <UnstructuredGrid>
      <Piece NumberOfCells="16" NumberOfPoints="13">
         <Points>
            <DataArray Name="Points" NumberOfComponents="3" format="ascii" type="Float32">
0.0000 0.0000 0.0000
0.0100 0.0100 0.0000
0.0000 0.0200 0.0000
0.0200 0.0000 0.0000
0.0200 0.0200 0.0000
0.0100 0.0300 0.0000
0.0300 0.0100 0.0000
0.0000 0.0400 0.0000
0.0400 0.0000 0.0000
0.0300 0.0300 0.0000
0.0400 0.0200 0.0000
0.0200 0.0400 0.0000
0.0400 0.0400 0.0000</DataArray>
         </Points>
         <Cells>
            <DataArray Name="connectivity" format="ascii" type="Int32">
 4 1 3
 2 1 4
 0 1 2
 3 1 0
 11 5 4
 7 5 11
 2 5 7
 4 5 2
 10 6 8
 4 6 10
 3 6 4
 8 6 3
 12 9 10
 11 9 12
 4 9 11
 10 9 4</DataArray>
            <DataArray Name="offsets" format="ascii" type="Int32">3 6 9 12 15 18 21 24 27 30 33 36 39 42 45 48 </DataArray>
            <DataArray Name="types" format="ascii" type="UInt8">5 5 5 5 5 5 5 5 5 5 5 5 5 5 5 5 </DataArray>
         </Cells>
         <PointData>
            <DataArray Name="displacement" NumberOfComponents="3" format="ascii" type="Float64">
 1.50231e-16 -3.00463e-16        00000 
-4.19043e-01 -8.99050e-01        00000 
-2.87861e-17  1.15144e-16        00000 
-1.85906e+00 -2.44576e+00        00000 
       00000 -2.07997e+00        00000 
 4.19043e-01 -8.99050e-01        00000 
-1.18498e+00 -3.92680e+00        00000 
 7.19653e-18 -1.79018e-16        00000 
-2.40092e+00 -5.42913e+00        00000 
 1.18498e+00 -3.92680e+00        00000 
 2.86853e-17 -6.02324e+00        00000 
 1.85906e+00 -2.44576e+00        00000 
 2.40092e+00 -5.42913e+00        00000 </DataArray>
            <DataArray Name="strain" NumberOfComponents="4" format="ascii" type="Float64">
-9.08538e+01 -4.86196e+01 -4.86196e+01  2.10125e+01 
-5.24722e+01 -2.95819e+01 -2.95819e+01  3.33153e+00 
 7.70158e-14 -4.12854e+01 -4.12854e+01  1.93342e-14 
-7.10703e+01 -2.73605e+01 -2.73605e+01  3.88188e+01 
-3.32434e-14 -3.10736e+01 -3.10736e+01  1.26325e-14 
 5.24722e+01 -2.95819e+01 -2.95819e+01 -3.33153e+00 
-7.55079e+00 -3.70848e+01 -3.70848e+01 -1.31824e+01 
 9.08538e+01 -4.86196e+01 -4.86196e+01 -2.10125e+01 
-7.09739e+00 -2.25665e+01 -2.25665e+01 -3.17539e+01 
 7.55079e+00 -3.70848e+01 -3.70848e+01  1.31824e+01 
 1.19331e-14 -3.73270e+01 -3.73270e+01 -1.34018e-13 
 7.10703e+01 -2.73605e+01 -2.73605e+01 -3.88188e+01 
 7.09739e+00 -2.25665e+01 -2.25665e+01  3.17539e+01 </DataArray>
            <DataArray Name="stress" NumberOfComponents="4" format="ascii" type="Float64">
-9.43308e+01 -3.64647e+01 -3.64647e+01 -1.04311e+01 
-5.77819e+01 -2.21864e+01 -2.21864e+01 -1.59291e+01 
 9.12146e-14 -3.09640e+01 -3.09640e+01  4.27810e-14 
-6.53971e+01 -2.05203e+01 -2.05203e+01  1.70197e+01 
-2.52650e-14 -2.33052e+01 -2.33052e+01  5.31895e-15 
 5.77819e+01 -2.21864e+01 -2.21864e+01  1.59291e+01 
-1.34380e+01 -2.78136e+01 -2.78136e+01 -1.76617e+01 
 9.43308e+01 -3.64647e+01 -3.64647e+01  1.04311e+01 
-1.98923e+01 -1.69249e+01 -1.69249e+01 -3.83846e+01 
 1.34380e+01 -2.78136e+01 -2.78136e+01  1.76617e+01 
-3.57992e-14 -2.79953e+01 -2.79953e+01 -1.45262e-13 
 6.53971e+01 -2.05203e+01 -2.05203e+01 -1.70197e+01 
 1.98923e+01 -1.69249e+01 -1.69249e+01  3.83846e+01 </DataArray>
         </PointData>
         <CellData/>
      </Piece>
   </UnstructuredGrid>
</VTKFile>