<?xml version="1.0" encoding="utf-8"?>
<VTKFile byte_order="LittleEndian" type="UnstructuredGrid" version="0.1">
   <UnstructuredGrid>
      <Piece NumberOfCells="16" NumberOfPoints="13">
         <Points>
            <DataArray Name="Points" NumberOfComponents="3" format="ascii" type="Float32">
0.0000 1.0000 0.0000
0.0000 1.5000 0.0000
0.0000 2.0000 0.0000
1.0000 1.0000 0.0000
1.0000 1.5000 0.0000
1.0000 2.0000 0.0000
2.0000 1.0000 0.0000
2.0000 1.5000 0.0000
2.0000 2.0000 0.0000
0.5000 1.2500 0.0000
0.5000 1.7500 0.0000
1.5000 1.2500 0.0000
1.5000 1.7500 0.0000</DataArray>
         </Points>
         <Cells>
            <DataArray Name="connectivity" format="ascii" type="Int32">
 1 0 9
 2 1 10
 4 3 11
 5 4 12
 4 1 9
 5 2 10
 7 4 11
 8 5 12
 3 4 9
 4 5 10
 6 7 11
 7 8 12
 0 3 9
 1 4 10
 3 6 11
 4 7 12</DataArray>
            <DataArray Name="offsets" format="ascii" type="Int32">3 6 9 12 15 18 21 24 27 30 33 36 39 42 45 48 </DataArray>
            <DataArray Name="types" format="ascii" type="UInt8">5 5 5 5 5 5 5 5 5 5 5 5 5 5 5 5 </DataArray>
         </Cells>
         <PointData>
            <DataArray Name="displacement" NumberOfComponents="3" format="ascii" type="Float64">
       00000        00000        00000 
 2.54602e-17 -1.52761e-16        00000 
-2.78313e-16  1.39793e-15        00000 
-5.63280e+00 -8.86467e+00        00000 
-4.42112e-08 -8.20475e+00        00000 
 5.63280e+00 -8.86467e+00        00000 
-7.60876e+00 -2.45565e+01        00000 
-1.35341e-08 -2.47999e+01        00000 
 7.60876e+00 -2.45565e+01        00000 
-1.29410e+00 -3.78935e+00        00000 
 1.29410e+00 -3.78935e+00        00000 
-3.46656e+00 -1.64388e+01        00000 
 3.46656e+00 -1.64388e+01        00000 </DataArray>
            <DataArray Name="strain" NumberOfComponents="3" format="ascii" type="Float64">
-5.58174e+00  1.77493e+00 -7.40236e+00 
-5.32498e-08  7.34178e-09 -7.75503e+00 
 5.58174e+00 -1.77493e+00 -7.40236e+00 
-4.16474e+00  2.87176e+00 -1.40712e+00 
-2.45012e-08 -4.34768e-08 -1.36050e+00 
 4.16474e+00 -2.87176e+00 -1.40712e+00 
-1.30632e+00 -1.99934e-01 -1.48427e+00 
 7.51841e-08 -2.99441e-07 -1.03836e+00 
 1.30632e+00  1.99933e-01 -1.48427e+00 
-3.19619e+00  1.58171e-01 -1.32256e+00 
 3.19619e+00 -1.58171e-01 -1.32256e+00 
-6.08196e-01  1.65182e-01 -4.48126e+00 
 6.08196e-01 -1.65183e-01 -4.48126e+00 </DataArray>
            <DataArray Name="stress" NumberOfComponents="3" format="ascii" type="Float64">
-6.00197e+00 -9.31752e-01 -2.55085e+00 
-6.26883e-08 -2.09286e-08 -2.67238e+00 
 6.00197e+00  9.31751e-01 -2.55085e+00 
-3.60229e+00  1.24726e+00 -4.84894e-01 
-5.53686e-08 -6.84466e-08 -4.68828e-01 
 3.60229e+00 -1.24726e+00 -4.84894e-01 
-1.75300e+00 -9.90483e-01 -5.11480e-01 
-7.51348e-08 -3.33326e-07 -3.57819e-01 
 1.75300e+00  9.90482e-01 -5.11480e-01 
-3.92263e+00 -1.61081e+00 -4.55754e-01 
 3.92263e+00  1.61081e+00 -4.55754e-01 
-6.69959e-01 -1.36947e-01 -1.54424e+00 
 6.69959e-01  1.36946e-01 -1.54424e+00 </DataArray>
         </PointData>
         <CellData/>
      </Piece>
   </UnstructuredGrid>
</VTKFile>