<?xml version="1.0" encoding="utf-8"?>
<VTKFile byte_order="LittleEndian" type="UnstructuredGrid" version="0.1">
   <UnstructuredGrid>
      <Piece NumberOfCells="2970" NumberOfPoints="2181">
         <Points>
            <DataArray Name="Points" NumberOfComponents="3" format="ascii" type="Float32">
0.0000 0.4500 0.0000
0.0000 0.4600 0.0000
0.0104 0.4550 0.0000
0.0084 0.4416 0.0000
0.0104 0.4650 0.0000
0.0000 0.4700 0.0000
0.0242 0.4461 0.0000
0.0104 0.4750 0.0000
0.0193 0.4307 0.0000
0.0258 0.4652 0.0000
0.0000 0.4800 0.0000
0.0092 0.4860 0.0000
0.0000 0.4900 0.0000
0.0401 0.4326 0.0000
0.0090 0.4942 0.0000
0.0329 0.4171 0.0000
0.0253 0.4900 0.0000
0.0000 0.5000 0.0000
0.0500 0.4500 0.0000
0.0500 0.4750 0.0000
0.0104 0.5050 0.0000
0.0000 0.5100 0.0000
0.0104 0.5150 0.0000
0.0260 0.5143 0.0000
0.0000 0.5200 0.0000
0.0678 0.4322 0.0000
0.0498 0.4002 0.0000
0.0500 0.5000 0.0000
0.0104 0.5250 0.0000
0.0000 0.5300 0.0000
0.0104 0.5350 0.0000
0.0257 0.5355 0.0000
0.0000 0.5400 0.0000
0.0500 0.5250 0.0000
0.0104 0.5450 0.0000
0.0889 0.4111 0.0000
0.0706 0.3794 0.0000
0.0000 0.5500 0.0000
0.0231 0.5540 0.0000
0.0080 0.5580 0.0000
0.0500 0.5500 0.0000
0.0181 0.5681 0.0000
0.0393 0.5695 0.0000
0.1144 0.3856 0.0000
0.0306 0.5806 0.0000
0.0960 0.3540 0.0000
0.0681 0.5681 0.0000
0.0462 0.5962 0.0000
0.0901 0.5901 0.0000
0.1448 0.3552 0.0000
0.0654 0.6154 0.0000
0.1269 0.3231 0.0000
0.1166 0.6166 0.0000
0.0890 0.6390 0.0000
0.1809 0.3191 0.0000
0.1639 0.2861 0.0000
0.1481 0.6481 0.0000
0.1177 0.6677 0.0000
0.2229 0.2771 0.0000
0.2079 0.2421 0.0000
0.1523 0.7023 0.0000
0.1853 0.6853 0.0000
0.2714 0.2286 0.0000
0.1936 0.7436 0.0000
0.2286 0.7286 0.0000
0.2564 0.1936 0.0000
0.3147 0.1853 0.0000
0.2421 0.7921 0.0000
0.2977 0.1523 0.0000
0.2771 0.7771 0.0000
0.3519 0.1481 0.0000
0.3323 0.1177 0.0000
0.2861 0.8361 0.0000
0.3191 0.8191 0.0000
0.3834 0.1166 0.0000
0.3610 0.0890 0.0000
0.3231 0.8731 0.0000
0.3552 0.8552 0.0000
0.3846 0.0654 0.0000
0.4099 0.0901 0.0000
0.4038 0.0462 0.0000
0.3540 0.9040 0.0000
0.4319 0.0681 0.0000
0.3856 0.8856 0.0000
0.4194 0.0306 0.0000
0.4305 0.0393 0.0000
0.4500 0.0500 0.0000
0.4319 0.0181 0.0000
0.3794 0.9294 0.0000
0.4460 0.0231 0.0000
0.4111 0.9111 0.0000
0.4750 0.0500 0.0000
0.4420 0.0080 0.0000
0.4637 0.0257 0.0000
0.4550 0.0104 0.0000
0.4500 0.0000 0.0000
0.4650 0.0104 0.0000
0.5000 0.0500 0.0000
0.4002 0.9502 0.0000
0.4600 0.0000 0.0000
0.4862 0.0260 0.0000
0.4750 0.0104 0.0000
0.4322 0.9322 0.0000
0.4700 0.0000 0.0000
0.4850 0.0104 0.0000
0.4800 0.0000 0.0000
0.5250 0.0500 0.0000
0.4950 0.0104 0.0000
0.5100 0.0253 0.0000
0.4171 0.9671 0.0000
0.4900 0.0000 0.0000
0.4326 0.9599 0.0000
0.5058 0.0090 0.0000
0.4500 0.9500 0.0000
0.5000 0.0000 0.0000
0.5140 0.0092 0.0000
0.5500 0.0500 0.0000
0.5100 0.0000 0.0000
0.5348 0.0258 0.0000
0.4307 0.9807 0.0000
0.5678 0.0678 0.0000
0.5250 0.0104 0.0000
0.5200 0.0000 0.0000
0.4461 0.9758 0.0000
0.4750 0.9500 0.0000
0.5889 0.0889 0.0000
0.5350 0.0104 0.0000
0.5300 0.0000 0.0000
0.5539 0.0242 0.0000
0.4416 0.9916 0.0000
0.5674 0.0401 0.0000
0.6144 0.1144 0.0000
0.5450 0.0104 0.0000
0.4652 0.9742 0.0000
0.5400 0.0000 0.0000
0.4550 0.9896 0.0000
0.5000 0.9500 0.0000
0.4500 1.0000 0.0000
0.5500 0.0000 0.0000
0.5584 0.0084 0.0000
0.4650 0.9896 0.0000
0.6448 0.1448 0.0000
0.5693 0.0193 0.0000
0.5829 0.0329 0.0000
0.4600 1.0000 0.0000
0.4900 0.9747 0.0000
0.4750 0.9896 0.0000
0.5998 0.0498 0.0000
0.4700 1.0000 0.0000
0.5250 0.9500 0.0000
0.4860 0.9908 0.0000
0.6206 0.0706 0.0000
0.4800 1.0000 0.0000
0.6809 0.1809 0.0000
0.4942 0.9910 0.0000
0.5143 0.9740 0.0000
0.4900 1.0000 0.0000
0.6460 0.0960 0.0000
0.5050 0.9896 0.0000
0.5500 0.9500 0.0000
0.5000 1.0000 0.0000
0.5681 0.9319 0.0000
0.5150 0.9896 0.0000
0.5901 0.9099 0.0000
0.5355 0.9742 0.0000
0.6769 0.1269 0.0000
0.5100 1.0000 0.0000
0.5250 0.9896 0.0000
0.6166 0.8834 0.0000
0.5200 1.0000 0.0000
0.7229 0.2229 0.0000
0.5350 0.9896 0.0000
0.6481 0.8519 0.0000
0.5300 1.0000 0.0000
0.5540 0.9769 0.0000
0.5695 0.9607 0.0000
0.5450 0.9896 0.0000
0.7139 0.1639 0.0000
0.5400 1.0000 0.0000
0.6853 0.8147 0.0000
0.5500 1.0000 0.0000
0.5580 0.9920 0.0000
0.5681 0.9819 0.0000
0.5806 0.9694 0.0000
0.5962 0.9538 0.0000
0.6154 0.9346 0.0000
0.6390 0.9110 0.0000
0.7714 0.2714 0.0000
0.6677 0.8823 0.0000
0.7579 0.2079 0.0000
0.7286 0.7714 0.0000
0.7023 0.8477 0.0000
0.7771 0.7229 0.0000
0.7436 0.8064 0.0000
0.8147 0.3147 0.0000
0.8064 0.2564 0.0000
0.7921 0.7579 0.0000
0.8191 0.6809 0.0000
0.8519 0.3519 0.0000
0.8477 0.2977 0.0000
0.8361 0.7139 0.0000
0.8552 0.6448 0.0000
0.8834 0.3834 0.0000
0.8823 0.3323 0.0000
0.8856 0.6144 0.0000
0.8731 0.6769 0.0000
0.9099 0.4099 0.0000
0.9110 0.3610 0.0000
0.9111 0.5889 0.0000
0.9040 0.6460 0.0000
0.9319 0.4319 0.0000
0.9346 0.3846 0.0000
0.9322 0.5678 0.0000
0.9294 0.6206 0.0000
0.9500 0.4500 0.0000
0.9500 0.4750 0.0000
0.9500 0.5000 0.0000
0.9500 0.5250 0.0000
0.9538 0.4038 0.0000
0.9500 0.5500 0.0000
0.9607 0.4305 0.0000
0.9502 0.5998 0.0000
0.9599 0.5674 0.0000
0.9694 0.4194 0.0000
0.9747 0.4600 0.0000
0.9671 0.5829 0.0000
0.9769 0.4460 0.0000
0.9765 0.4823 0.0000
0.9747 0.5200 0.0000
0.9742 0.5363 0.0000
0.9780 0.5025 0.0000
0.9758 0.5539 0.0000
0.9819 0.4319 0.0000
0.9807 0.5693 0.0000
0.9896 0.4550 0.0000
0.9896 0.4650 0.0000
0.9896 0.4850 0.0000
0.9896 0.4950 0.0000
0.9908 0.4760 0.0000
0.9896 0.5050 0.0000
0.9896 0.5150 0.0000
0.9920 0.4420 0.0000
0.9896 0.5250 0.0000
0.9896 0.5350 0.0000
0.9896 0.5450 0.0000
0.9916 0.5584 0.0000
1.0000 0.4500 0.0000
1.0000 0.4600 0.0000
1.0000 0.4700 0.0000
1.0000 0.4800 0.0000
1.0000 0.4900 0.0000
1.0000 0.5000 0.0000
1.0000 0.5100 0.0000
1.0000 0.5200 0.0000
1.0000 0.5300 0.0000
1.0000 0.5400 0.0000
1.0000 0.5500 0.0000
1.0104 0.4550 0.0000
1.0084 0.4416 0.0000
1.0104 0.4650 0.0000
1.0242 0.4461 0.0000
1.0104 0.4750 0.0000
1.0193 0.4307 0.0000
1.0258 0.4652 0.0000
1.0092 0.4860 0.0000
1.0401 0.4326 0.0000
1.0090 0.4942 0.0000
1.0329 0.4171 0.0000
1.0253 0.4900 0.0000
1.0500 0.4500 0.0000
1.0500 0.4750 0.0000
1.0104 0.5050 0.0000
1.0104 0.5150 0.0000
1.0260 0.5143 0.0000
1.0678 0.4322 0.0000
1.0498 0.4002 0.0000
1.0500 0.5000 0.0000
1.0104 0.5250 0.0000
1.0104 0.5350 0.0000
1.0257 0.5355 0.0000
1.0500 0.5250 0.0000
1.0104 0.5450 0.0000
1.0889 0.4111 0.0000
1.0706 0.3794 0.0000
1.0231 0.5540 0.0000
1.0080 0.5580 0.0000
1.0500 0.5500 0.0000
1.0181 0.5681 0.0000
1.0393 0.5695 0.0000
1.1144 0.3856 0.0000
1.0306 0.5806 0.0000
1.0960 0.3540 0.0000
1.0681 0.5681 0.0000
1.0462 0.5962 0.0000
1.0901 0.5901 0.0000
1.1448 0.3552 0.0000
1.0654 0.6154 0.0000
1.1269 0.3231 0.0000
1.1166 0.6166 0.0000
1.0890 0.6390 0.0000
1.1809 0.3191 0.0000
1.1639 0.2861 0.0000
1.1481 0.6481 0.0000
1.1177 0.6677 0.0000
1.2229 0.2771 0.0000
1.2079 0.2421 0.0000
1.1523 0.7023 0.0000
1.1853 0.6853 0.0000
1.2714 0.2286 0.0000
1.1936 0.7436 0.0000
1.2286 0.7286 0.0000
1.2564 0.1936 0.0000
1.3147 0.1853 0.0000
1.2421 0.7921 0.0000
1.2977 0.1523 0.0000
1.2771 0.7771 0.0000
1.3519 0.1481 0.0000
1.3323 0.1177 0.0000
1.2861 0.8361 0.0000
1.3191 0.8191 0.0000
1.3834 0.1166 0.0000
1.3610 0.0890 0.0000
1.3231 0.8731 0.0000
1.3552 0.8552 0.0000
1.3846 0.0654 0.0000
1.4099 0.0901 0.0000
1.4038 0.0462 0.0000
1.3540 0.9040 0.0000
1.4319 0.0681 0.0000
1.3856 0.8856 0.0000
1.4194 0.0306 0.0000
1.4305 0.0393 0.0000
1.4500 0.0500 0.0000
1.4319 0.0181 0.0000
1.3794 0.9294 0.0000
1.4460 0.0231 0.0000
1.4111 0.9111 0.0000
1.4750 0.0500 0.0000
1.4420 0.0080 0.0000
1.4637 0.0257 0.0000
1.4550 0.0104 0.0000
1.4500 0.0000 0.0000
1.4650 0.0104 0.0000
1.5000 0.0500 0.0000
1.4002 0.9502 0.0000
1.4600 0.0000 0.0000
1.4862 0.0260 0.0000
1.4750 0.0104 0.0000
1.4322 0.9322 0.0000
1.4700 0.0000 0.0000
1.4850 0.0104 0.0000
1.4800 0.0000 0.0000
1.5250 0.0500 0.0000
1.4950 0.0104 0.0000
1.5100 0.0253 0.0000
1.4171 0.9671 0.0000
1.4900 0.0000 0.0000
1.4326 0.9599 0.0000
1.5058 0.0090 0.0000
1.4500 0.9500 0.0000
1.5000 0.0000 0.0000
1.5140 0.0092 0.0000
1.5500 0.0500 0.0000
1.5100 0.0000 0.0000
1.5348 0.0258 0.0000
1.4307 0.9807 0.0000
1.5678 0.0678 0.0000
1.5250 0.0104 0.0000
1.5200 0.0000 0.0000
1.4461 0.9758 0.0000
1.4750 0.9500 0.0000
1.5889 0.0889 0.0000
1.5350 0.0104 0.0000
1.5300 0.0000 0.0000
1.5539 0.0242 0.0000
1.4416 0.9916 0.0000
1.5674 0.0401 0.0000
1.6144 0.1144 0.0000
1.5450 0.0104 0.0000
1.4652 0.9742 0.0000
1.5400 0.0000 0.0000
1.4550 0.9896 0.0000
1.5000 0.9500 0.0000
1.4500 1.0000 0.0000
1.5500 0.0000 0.0000
1.5584 0.0084 0.0000
1.4650 0.9896 0.0000
1.6448 0.1448 0.0000
1.5693 0.0193 0.0000
1.5829 0.0329 0.0000
1.4600 1.0000 0.0000
1.4900 0.9747 0.0000
1.4750 0.9896 0.0000
1.5998 0.0498 0.0000
1.4700 1.0000 0.0000
1.5250 0.9500 0.0000
1.4860 0.9908 0.0000
1.6206 0.0706 0.0000
1.4800 1.0000 0.0000
1.6809 0.1809 0.0000
1.4942 0.9910 0.0000
1.5143 0.9740 0.0000
1.4900 1.0000 0.0000
1.6460 0.0960 0.0000
1.5050 0.9896 0.0000
1.5500 0.9500 0.0000
1.5000 1.0000 0.0000
1.5681 0.9319 0.0000
1.5150 0.9896 0.0000
1.5901 0.9099 0.0000
1.5355 0.9742 0.0000
1.6769 0.1269 0.0000
1.5100 1.0000 0.0000
1.5250 0.9896 0.0000
1.6166 0.8834 0.0000
1.5200 1.0000 0.0000
1.7229 0.2229 0.0000
1.5350 0.9896 0.0000
1.6481 0.8519 0.0000
1.5300 1.0000 0.0000
1.5540 0.9769 0.0000
1.5695 0.9607 0.0000
1.5450 0.9896 0.0000
1.7139 0.1639 0.0000
1.5400 1.0000 0.0000
1.6853 0.8147 0.0000
1.5500 1.0000 0.0000
1.5580 0.9920 0.0000
1.5681 0.9819 0.0000
1.5806 0.9694 0.0000
1.5962 0.9538 0.0000
1.6154 0.9346 0.0000
1.6390 0.9110 0.0000
1.7714 0.2714 0.0000
1.6677 0.8823 0.0000
1.7579 0.2079 0.0000
1.7286 0.7714 0.0000
1.7023 0.8477 0.0000
1.7771 0.7229 0.0000
1.7436 0.8064 0.0000
1.8147 0.3147 0.0000
1.8064 0.2564 0.0000
1.7921 0.7579 0.0000
1.8191 0.6809 0.0000
1.8519 0.3519 0.0000
1.8477 0.2977 0.0000
1.8361 0.7139 0.0000
1.8552 0.6448 0.0000
1.8834 0.3834 0.0000
1.8823 0.3323 0.0000
1.8856 0.6144 0.0000
1.8731 0.6769 0.0000
1.9099 0.4099 0.0000
1.9110 0.3610 0.0000
1.9111 0.5889 0.0000
1.9040 0.6460 0.0000
1.9319 0.4319 0.0000
1.9346 0.3846 0.0000
1.9322 0.5678 0.0000
1.9294 0.6206 0.0000
1.9500 0.4500 0.0000
1.9500 0.4750 0.0000
1.9500 0.5000 0.0000
1.9500 0.5250 0.0000
1.9538 0.4038 0.0000
1.9500 0.5500 0.0000
1.9607 0.4305 0.0000
1.9502 0.5998 0.0000
1.9599 0.5674 0.0000
1.9694 0.4194 0.0000
1.9747 0.4600 0.0000
1.9671 0.5829 0.0000
1.9769 0.4460 0.0000
1.9765 0.4823 0.0000
1.9747 0.5200 0.0000
1.9742 0.5363 0.0000
1.9780 0.5025 0.0000
1.9758 0.5539 0.0000
1.9819 0.4319 0.0000
1.9807 0.5693 0.0000
1.9896 0.4550 0.0000
1.9896 0.4650 0.0000
1.9896 0.4850 0.0000
1.9896 0.4950 0.0000
1.9908 0.4760 0.0000
1.9896 0.5050 0.0000
1.9896 0.5150 0.0000
1.9920 0.4420 0.0000
1.9896 0.5250 0.0000
1.9896 0.5350 0.0000
1.9896 0.5450 0.0000
1.9916 0.5584 0.0000
2.0000 0.4500 0.0000
2.0000 0.4600 0.0000
2.0000 0.4700 0.0000
2.0000 0.4800 0.0000
2.0000 0.4900 0.0000
2.0000 0.5000 0.0000
2.0000 0.5100 0.0000
2.0000 0.5200 0.0000
2.0000 0.5300 0.0000
2.0000 0.5400 0.0000
2.0000 0.5500 0.0000
2.0104 0.4550 0.0000
2.0084 0.4416 0.0000
2.0104 0.4650 0.0000
2.0242 0.4461 0.0000
2.0104 0.4750 0.0000
2.0193 0.4307 0.0000
2.0258 0.4652 0.0000
2.0092 0.4860 0.0000
2.0401 0.4326 0.0000
2.0090 0.4942 0.0000
2.0329 0.4171 0.0000
2.0253 0.4900 0.0000
2.0500 0.4500 0.0000
2.0500 0.4750 0.0000
2.0104 0.5050 0.0000
2.0104 0.5150 0.0000
2.0260 0.5143 0.0000
2.0678 0.4322 0.0000
2.0498 0.4002 0.0000
2.0500 0.5000 0.0000
2.0104 0.5250 0.0000
2.0104 0.5350 0.0000
2.0257 0.5355 0.0000
2.0500 0.5250 0.0000
2.0104 0.5450 0.0000
2.0889 0.4111 0.0000
2.0706 0.3794 0.0000
2.0231 0.5540 0.0000
2.0080 0.5580 0.0000
2.0500 0.5500 0.0000
2.0181 0.5681 0.0000
2.0393 0.5695 0.0000
2.1144 0.3856 0.0000
2.0306 0.5806 0.0000
2.0960 0.3540 0.0000
2.0681 0.5681 0.0000
2.0462 0.5962 0.0000
2.0901 0.5901 0.0000
2.1448 0.3552 0.0000
2.0654 0.6154 0.0000
2.1269 0.3231 0.0000
2.1166 0.6166 0.0000
2.0890 0.6390 0.0000
2.1809 0.3191 0.0000
2.1639 0.2861 0.0000
2.1481 0.6481 0.0000
2.1177 0.6677 0.0000
2.2229 0.2771 0.0000
2.2079 0.2421 0.0000
2.1523 0.7023 0.0000
2.1853 0.6853 0.0000
2.2714 0.2286 0.0000
2.1936 0.7436 0.0000
2.2286 0.7286 0.0000
2.2564 0.1936 0.0000
2.3147 0.1853 0.0000
2.2421 0.7921 0.0000
2.2977 0.1523 0.0000
2.2771 0.7771 0.0000
2.3519 0.1481 0.0000
2.3323 0.1177 0.0000
2.2861 0.8361 0.0000
2.3191 0.8191 0.0000
2.3834 0.1166 0.0000
2.3610 0.0890 0.0000
2.3231 0.8731 0.0000
2.3552 0.8552 0.0000
2.3846 0.0654 0.0000
2.4099 0.0901 0.0000
2.4038 0.0462 0.0000
2.3540 0.9040 0.0000
2.4319 0.0681 0.0000
2.3856 0.8856 0.0000
2.4194 0.0306 0.0000
2.4305 0.0393 0.0000
2.4500 0.0500 0.0000
2.4319 0.0181 0.0000
2.3794 0.9294 0.0000
2.4460 0.0231 0.0000
2.4111 0.9111 0.0000
2.4750 0.0500 0.0000
2.4420 0.0080 0.0000
2.4637 0.0257 0.0000
2.4550 0.0104 0.0000
2.4500 0.0000 0.0000
2.4650 0.0104 0.0000
2.5000 0.0500 0.0000
2.4002 0.9502 0.0000
2.4600 0.0000 0.0000
2.4862 0.0260 0.0000
2.4750 0.0104 0.0000
2.4322 0.9322 0.0000
2.4700 0.0000 0.0000
2.4850 0.0104 0.0000
2.4800 0.0000 0.0000
2.5250 0.0500 0.0000
2.4950 0.0104 0.0000
2.5100 0.0253 0.0000
2.4171 0.9671 0.0000
2.4900 0.0000 0.0000
2.4326 0.9599 0.0000
2.5058 0.0090 0.0000
2.4500 0.9500 0.0000
2.5000 0.0000 0.0000
2.5140 0.0092 0.0000
2.5500 0.0500 0.0000
2.5100 0.0000 0.0000
2.5348 0.0258 0.0000
2.4307 0.9807 0.0000
2.5678 0.0678 0.0000
2.5250 0.0104 0.0000
2.5200 0.0000 0.0000
2.4461 0.9758 0.0000
2.4750 0.9500 0.0000
2.5889 0.0889 0.0000
2.5350 0.0104 0.0000
2.5300 0.0000 0.0000
2.5539 0.0242 0.0000
2.4416 0.9916 0.0000
2.5674 0.0401 0.0000
2.6144 0.1144 0.0000
2.5450 0.0104 0.0000
2.4652 0.9742 0.0000
2.5400 0.0000 0.0000
2.4550 0.9896 0.0000
2.5000 0.9500 0.0000
2.4500 1.0000 0.0000
2.5500 0.0000 0.0000
2.5584 0.0084 0.0000
2.4650 0.9896 0.0000
2.6448 0.1448 0.0000
2.5693 0.0193 0.0000
2.5829 0.0329 0.0000
2.4600 1.0000 0.0000
2.4900 0.9747 0.0000
2.4750 0.9896 0.0000
2.5998 0.0498 0.0000
2.4700 1.0000 0.0000
2.5250 0.9500 0.0000
2.4860 0.9908 0.0000
2.6206 0.0706 0.0000
2.4800 1.0000 0.0000
2.6809 0.1809 0.0000
2.4942 0.9910 0.0000
2.5143 0.9740 0.0000
2.4900 1.0000 0.0000
2.6460 0.0960 0.0000
2.5050 0.9896 0.0000
2.5500 0.9500 0.0000
2.5000 1.0000 0.0000
2.5681 0.9319 0.0000
2.5150 0.9896 0.0000
2.5901 0.9099 0.0000
2.5355 0.9742 0.0000
2.6769 0.1269 0.0000
2.5100 1.0000 0.0000
2.5250 0.9896 0.0000
2.6166 0.8834 0.0000
2.5200 1.0000 0.0000
2.7229 0.2229 0.0000
2.5350 0.9896 0.0000
2.6481 0.8519 0.0000
2.5300 1.0000 0.0000
2.5540 0.9769 0.0000
2.5695 0.9607 0.0000
2.5450 0.9896 0.0000
2.7139 0.1639 0.0000
2.5400 1.0000 0.0000
2.6853 0.8147 0.0000
2.5500 1.0000 0.0000
2.5580 0.9920 0.0000
2.5681 0.9819 0.0000
2.5806 0.9694 0.0000
2.5962 0.9538 0.0000
2.6154 0.9346 0.0000
2.6390 0.9110 0.0000
2.7714 0.2714 0.0000
2.6677 0.8823 0.0000
2.7579 0.2079 0.0000
2.7286 0.7714 0.0000
2.7023 0.8477 0.0000
2.7771 0.7229 0.0000
2.7436 0.8064 0.0000
2.8147 0.3147 0.0000
2.8064 0.2564 0.0000
2.7921 0.7579 0.0000
2.8191 0.6809 0.0000
2.8519 0.3519 0.0000
2.8477 0.2977 0.0000
2.8361 0.7139 0.0000
2.8552 0.6448 0.0000
2.8834 0.3834 0.0000
2.8823 0.3323 0.0000
2.8856 0.6144 0.0000
2.8731 0.6769 0.0000
2.9099 0.4099 0.0000
2.9110 0.3610 0.0000
2.9111 0.5889 0.0000
2.9040 0.6460 0.0000
2.9319 0.4319 0.0000
2.9346 0.3846 0.0000
2.9322 0.5678 0.0000
2.9294 0.6206 0.0000
2.9500 0.4500 0.0000
2.9500 0.4750 0.0000
2.9500 0.5000 0.0000
2.9500 0.5250 0.0000
2.9538 0.4038 0.0000
2.9500 0.5500 0.0000
2.9607 0.4305 0.0000
2.9502 0.5998 0.0000
2.9599 0.5674 0.0000
2.9694 0.4194 0.0000
2.9747 0.4600 0.0000
2.9671 0.5829 0.0000
2.9769 0.4460 0.0000
2.9765 0.4823 0.0000
2.9747 0.5200 0.0000
2.9742 0.5363 0.0000
2.9780 0.5025 0.0000
2.9758 0.5539 0.0000
2.9819 0.4319 0.0000
2.9807 0.5693 0.0000
2.9896 0.4550 0.0000
2.9896 0.4650 0.0000
2.9896 0.4850 0.0000
2.9896 0.4950 0.0000
2.9908 0.4760 0.0000
2.9896 0.5050 0.0000
2.9896 0.5150 0.0000
2.9920 0.4420 0.0000
2.9896 0.5250 0.0000
2.9896 0.5350 0.0000
2.9896 0.5450 0.0000
2.9916 0.5584 0.0000
3.0000 0.4500 0.0000
3.0000 0.4600 0.0000
3.0000 0.4700 0.0000
3.0000 0.4800 0.0000
3.0000 0.4900 0.0000
3.0000 0.5000 0.0000
3.0000 0.5100 0.0000
3.0000 0.5200 0.0000
3.0000 0.5300 0.0000
3.0000 0.5400 0.0000
3.0000 0.5500 0.0000
0.0000 1.4500 0.0000
0.0000 1.4600 0.0000
0.0104 1.4550 0.0000
0.0084 1.4416 0.0000
0.0104 1.4650 0.0000
0.0000 1.4700 0.0000
0.0242 1.4461 0.0000
0.0104 1.4750 0.0000
0.0193 1.4307 0.0000
0.0258 1.4652 0.0000
0.0000 1.4800 0.0000
0.0092 1.4860 0.0000
0.0000 1.4900 0.0000
0.0401 1.4326 0.0000
0.0090 1.4942 0.0000
0.0329 1.4171 0.0000
0.0253 1.4900 0.0000
0.0000 1.5000 0.0000
0.0500 1.4500 0.0000
0.0500 1.4750 0.0000
0.0104 1.5050 0.0000
0.0000 1.5100 0.0000
0.0104 1.5150 0.0000
0.0260 1.5143 0.0000
0.0000 1.5200 0.0000
0.0678 1.4322 0.0000
0.0498 1.4002 0.0000
0.0500 1.5000 0.0000
0.0104 1.5250 0.0000
0.0000 1.5300 0.0000
0.0104 1.5350 0.0000
0.0257 1.5355 0.0000
0.0000 1.5400 0.0000
0.0500 1.5250 0.0000
0.0104 1.5450 0.0000
0.0889 1.4111 0.0000
0.0706 1.3794 0.0000
0.0000 1.5500 0.0000
0.0231 1.5540 0.0000
0.0080 1.5580 0.0000
0.0500 1.5500 0.0000
0.0181 1.5681 0.0000
0.0393 1.5695 0.0000
0.1144 1.3856 0.0000
0.0306 1.5806 0.0000
0.0960 1.3540 0.0000
0.0681 1.5681 0.0000
0.0462 1.5962 0.0000
0.0901 1.5901 0.0000
0.1448 1.3552 0.0000
0.0654 1.6154 0.0000
0.1269 1.3231 0.0000
0.1166 1.6166 0.0000
0.0890 1.6390 0.0000
0.1809 1.3191 0.0000
0.1639 1.2861 0.0000
0.1481 1.6481 0.0000
0.1177 1.6677 0.0000
0.2229 1.2771 0.0000
0.2079 1.2421 0.0000
0.1523 1.7023 0.0000
0.1853 1.6853 0.0000
0.2714 1.2286 0.0000
0.1936 1.7436 0.0000
0.2286 1.7286 0.0000
0.2564 1.1936 0.0000
0.3147 1.1853 0.0000
0.2421 1.7921 0.0000
0.2977 1.1523 0.0000
0.2771 1.7771 0.0000
0.3519 1.1481 0.0000
0.3323 1.1177 0.0000
0.2861 1.8361 0.0000
0.3191 1.8191 0.0000
0.3834 1.1166 0.0000
0.3610 1.0890 0.0000
0.3231 1.8731 0.0000
0.3552 1.8552 0.0000
0.3846 1.0654 0.0000
0.4099 1.0901 0.0000
0.4038 1.0462 0.0000
0.3540 1.9040 0.0000
0.4319 1.0681 0.0000
0.3856 1.8856 0.0000
0.4194 1.0306 0.0000
0.4305 1.0393 0.0000
0.4500 1.0500 0.0000
0.4319 1.0181 0.0000
0.3794 1.9294 0.0000
0.4460 1.0231 0.0000
0.4111 1.9111 0.0000
0.4750 1.0500 0.0000
0.4420 1.0080 0.0000
0.4637 1.0257 0.0000
0.4550 1.0104 0.0000
0.4650 1.0104 0.0000
0.5000 1.0500 0.0000
0.4002 1.9502 0.0000
0.4862 1.0260 0.0000
0.4750 1.0104 0.0000
0.4322 1.9322 0.0000
0.4850 1.0104 0.0000
0.5250 1.0500 0.0000
0.4950 1.0104 0.0000
0.5100 1.0253 0.0000
0.4171 1.9671 0.0000
0.4326 1.9599 0.0000
0.5058 1.0090 0.0000
0.4500 1.9500 0.0000
0.5140 1.0092 0.0000
0.5500 1.0500 0.0000
0.5348 1.0258 0.0000
0.4307 1.9807 0.0000
0.5678 1.0678 0.0000
0.5250 1.0104 0.0000
0.4461 1.9758 0.0000
0.4750 1.9500 0.0000
0.5889 1.0889 0.0000
0.5350 1.0104 0.0000
0.5539 1.0242 0.0000
0.4416 1.9916 0.0000
0.5674 1.0401 0.0000
0.6144 1.1144 0.0000
0.5450 1.0104 0.0000
0.4652 1.9742 0.0000
0.4550 1.9896 0.0000
0.5000 1.9500 0.0000
0.4500 2.0000 0.0000
0.5584 1.0084 0.0000
0.4650 1.9896 0.0000
0.6448 1.1448 0.0000
0.5693 1.0193 0.0000
0.5829 1.0329 0.0000
0.4600 2.0000 0.0000
0.4900 1.9747 0.0000
0.4750 1.9896 0.0000
0.5998 1.0498 0.0000
0.4700 2.0000 0.0000
0.5250 1.9500 0.0000
0.4860 1.9908 0.0000
0.6206 1.0706 0.0000
0.4800 2.0000 0.0000
0.6809 1.1809 0.0000
0.4942 1.9910 0.0000
0.5143 1.9740 0.0000
0.4900 2.0000 0.0000
0.6460 1.0960 0.0000
0.5050 1.9896 0.0000
0.5500 1.9500 0.0000
0.5000 2.0000 0.0000
0.5681 1.9319 0.0000
0.5150 1.9896 0.0000
0.5901 1.9099 0.0000
0.5355 1.9743 0.0000
0.6769 1.1269 0.0000
0.5100 2.0000 0.0000
0.5250 1.9896 0.0000
0.6166 1.8834 0.0000
0.5200 2.0000 0.0000
0.7229 1.2229 0.0000
0.5350 1.9896 0.0000
0.6481 1.8519 0.0000
0.5300 2.0000 0.0000
0.5540 1.9769 0.0000
0.5695 1.9607 0.0000
0.5450 1.9896 0.0000
0.7139 1.1639 0.0000
0.5400 2.0000 0.0000
0.6853 1.8147 0.0000
0.5500 2.0000 0.0000
0.5580 1.9920 0.0000
0.5681 1.9819 0.0000
0.5806 1.9694 0.0000
0.5962 1.9538 0.0000
0.6154 1.9346 0.0000
0.6390 1.9110 0.0000
0.7714 1.2714 0.0000
0.6677 1.8823 0.0000
0.7579 1.2079 0.0000
0.7286 1.7714 0.0000
0.7023 1.8477 0.0000
0.7771 1.7229 0.0000
0.7436 1.8064 0.0000
0.8147 1.3147 0.0000
0.8064 1.2564 0.0000
0.7921 1.7579 0.0000
0.8191 1.6809 0.0000
0.8519 1.3519 0.0000
0.8477 1.2977 0.0000
0.8361 1.7139 0.0000
0.8552 1.6448 0.0000
0.8834 1.3834 0.0000
0.8823 1.3323 0.0000
0.8856 1.6144 0.0000
0.8731 1.6769 0.0000
0.9099 1.4099 0.0000
0.9110 1.3610 0.0000
0.9111 1.5889 0.0000
0.9040 1.6460 0.0000
0.9319 1.4319 0.0000
0.9346 1.3846 0.0000
0.9322 1.5678 0.0000
0.9294 1.6206 0.0000
0.9500 1.4500 0.0000
0.9500 1.4750 0.0000
0.9500 1.5000 0.0000
0.9500 1.5250 0.0000
0.9538 1.4038 0.0000
0.9500 1.5500 0.0000
0.9607 1.4305 0.0000
0.9502 1.5998 0.0000
0.9599 1.5674 0.0000
0.9694 1.4194 0.0000
0.9747 1.4600 0.0000
0.9671 1.5829 0.0000
0.9769 1.4460 0.0000
0.9765 1.4823 0.0000
0.9747 1.5200 0.0000
0.9742 1.5363 0.0000
0.9780 1.5025 0.0000
0.9758 1.5539 0.0000
0.9819 1.4319 0.0000
0.9807 1.5693 0.0000
0.9896 1.4550 0.0000
0.9896 1.4650 0.0000
0.9896 1.4850 0.0000
0.9896 1.4950 0.0000
0.9908 1.4760 0.0000
0.9896 1.5050 0.0000
0.9896 1.5150 0.0000
0.9920 1.4420 0.0000
0.9896 1.5250 0.0000
0.9896 1.5350 0.0000
0.9896 1.5450 0.0000
0.9916 1.5584 0.0000
1.0000 1.4500 0.0000
1.0000 1.4600 0.0000
1.0000 1.4700 0.0000
1.0000 1.4800 0.0000
1.0000 1.4900 0.0000
1.0000 1.5000 0.0000
1.0000 1.5100 0.0000
1.0000 1.5200 0.0000
1.0000 1.5300 0.0000
1.0000 1.5400 0.0000
1.0000 1.5500 0.0000
1.0104 1.4550 0.0000
1.0084 1.4416 0.0000
1.0104 1.4650 0.0000
1.0242 1.4461 0.0000
1.0104 1.4750 0.0000
1.0193 1.4307 0.0000
1.0258 1.4652 0.0000
1.0092 1.4860 0.0000
1.0401 1.4326 0.0000
1.0090 1.4942 0.0000
1.0329 1.4171 0.0000
1.0253 1.4900 0.0000
1.0500 1.4500 0.0000
1.0500 1.4750 0.0000
1.0104 1.5050 0.0000
1.0104 1.5150 0.0000
1.0260 1.5143 0.0000
1.0678 1.4322 0.0000
1.0498 1.4002 0.0000
1.0500 1.5000 0.0000
1.0104 1.5250 0.0000
1.0104 1.5350 0.0000
1.0257 1.5355 0.0000
1.0500 1.5250 0.0000
1.0104 1.5450 0.0000
1.0889 1.4111 0.0000
1.0706 1.3794 0.0000
1.0231 1.5540 0.0000
1.0080 1.5580 0.0000
1.0500 1.5500 0.0000
1.0181 1.5681 0.0000
1.0393 1.5695 0.0000
1.1144 1.3856 0.0000
1.0306 1.5806 0.0000
1.0960 1.3540 0.0000
1.0681 1.5681 0.0000
1.0462 1.5962 0.0000
1.0901 1.5901 0.0000
1.1448 1.3552 0.0000
1.0654 1.6154 0.0000
1.1269 1.3231 0.0000
1.1166 1.6166 0.0000
1.0890 1.6390 0.0000
1.1809 1.3191 0.0000
1.1639 1.2861 0.0000
1.1481 1.6481 0.0000
1.1177 1.6677 0.0000
1.2229 1.2771 0.0000
1.2079 1.2421 0.0000
1.1523 1.7023 0.0000
1.1853 1.6853 0.0000
1.2714 1.2286 0.0000
1.1936 1.7436 0.0000
1.2286 1.7286 0.0000
1.2564 1.1936 0.0000
1.3147 1.1853 0.0000
1.2421 1.7921 0.0000
1.2977 1.1523 0.0000
1.2771 1.7771 0.0000
1.3519 1.1481 0.0000
1.3323 1.1177 0.0000
1.2861 1.8361 0.0000
1.3191 1.8191 0.0000
1.3834 1.1166 0.0000
1.3610 1.0890 0.0000
1.3231 1.8731 0.0000
1.3552 1.8552 0.0000
1.3846 1.0654 0.0000
1.4099 1.0901 0.0000
1.4038 1.0462 0.0000
1.3540 1.9040 0.0000
1.4319 1.0681 0.0000
1.3856 1.8856 0.0000
1.4194 1.0306 0.0000
1.4305 1.0393 0.0000
1.4500 1.0500 0.0000
1.4319 1.0181 0.0000
1.3794 1.9294 0.0000
1.4460 1.0231 0.0000
1.4111 1.9111 0.0000
1.4750 1.0500 0.0000
1.4420 1.0080 0.0000
1.4637 1.0257 0.0000
1.4550 1.0104 0.0000
1.4650 1.0104 0.0000
1.5000 1.0500 0.0000
1.4002 1.9502 0.0000
1.4862 1.0260 0.0000
1.4750 1.0104 0.0000
1.4322 1.9322 0.0000
1.4850 1.0104 0.0000
1.5250 1.0500 0.0000
1.4950 1.0104 0.0000
1.5100 1.0253 0.0000
1.4171 1.9671 0.0000
1.4326 1.9599 0.0000
1.5058 1.0090 0.0000
1.4500 1.9500 0.0000
1.5140 1.0092 0.0000
1.5500 1.0500 0.0000
1.5348 1.0258 0.0000
1.4307 1.9807 0.0000
1.5678 1.0678 0.0000
1.5250 1.0104 0.0000
1.4461 1.9758 0.0000
1.4750 1.9500 0.0000
1.5889 1.0889 0.0000
1.5350 1.0104 0.0000
1.5539 1.0242 0.0000
1.4416 1.9916 0.0000
1.5674 1.0401 0.0000
1.6144 1.1144 0.0000
1.5450 1.0104 0.0000
1.4652 1.9742 0.0000
1.4550 1.9896 0.0000
1.5000 1.9500 0.0000
1.4500 2.0000 0.0000
1.5584 1.0084 0.0000
1.4650 1.9896 0.0000
1.6448 1.1448 0.0000
1.5693 1.0193 0.0000
1.5829 1.0329 0.0000
1.4600 2.0000 0.0000
1.4900 1.9747 0.0000
1.4750 1.9896 0.0000
1.5998 1.0498 0.0000
1.4700 2.0000 0.0000
1.5250 1.9500 0.0000
1.4860 1.9908 0.0000
1.6206 1.0706 0.0000
1.4800 2.0000 0.0000
1.6809 1.1809 0.0000
1.4942 1.9910 0.0000
1.5143 1.9740 0.0000
1.4900 2.0000 0.0000
1.6460 1.0960 0.0000
1.5050 1.9896 0.0000
1.5500 1.9500 0.0000
1.5000 2.0000 0.0000
1.5681 1.9319 0.0000
1.5150 1.9896 0.0000
1.5901 1.9099 0.0000
1.5355 1.9743 0.0000
1.6769 1.1269 0.0000
1.5100 2.0000 0.0000
1.5250 1.9896 0.0000
1.6166 1.8834 0.0000
1.5200 2.0000 0.0000
1.7229 1.2229 0.0000
1.5350 1.9896 0.0000
1.6481 1.8519 0.0000
1.5300 2.0000 0.0000
1.5540 1.9769 0.0000
1.5695 1.9607 0.0000
1.5450 1.9896 0.0000
1.7139 1.1639 0.0000
1.5400 2.0000 0.0000
1.6853 1.8147 0.0000
1.5500 2.0000 0.0000
1.5580 1.9920 0.0000
1.5681 1.9819 0.0000
1.5806 1.9694 0.0000
1.5962 1.9538 0.0000
1.6154 1.9346 0.0000
1.6390 1.9110 0.0000
1.7714 1.2714 0.0000
1.6677 1.8823 0.0000
1.7579 1.2079 0.0000
1.7286 1.7714 0.0000
1.7023 1.8477 0.0000
1.7771 1.7229 0.0000
1.7436 1.8064 0.0000
1.8147 1.3147 0.0000
1.8064 1.2564 0.0000
1.7921 1.7579 0.0000
1.8191 1.6809 0.0000
1.8519 1.3519 0.0000
1.8477 1.2977 0.0000
1.8361 1.7139 0.0000
1.8552 1.6448 0.0000
1.8834 1.3834 0.0000
1.8823 1.3323 0.0000
1.8856 1.6144 0.0000
1.8731 1.6769 0.0000
1.9099 1.4099 0.0000
1.9110 1.3610 0.0000
1.9111 1.5889 0.0000
1.9040 1.6460 0.0000
1.9319 1.4319 0.0000
1.9346 1.3846 0.0000
1.9322 1.5678 0.0000
1.9294 1.6206 0.0000
1.9500 1.4500 0.0000
1.9500 1.4750 0.0000
1.9500 1.5000 0.0000
1.9500 1.5250 0.0000
1.9538 1.4038 0.0000
1.9500 1.5500 0.0000
1.9607 1.4305 0.0000
1.9502 1.5998 0.0000
1.9599 1.5674 0.0000
1.9694 1.4194 0.0000
1.9747 1.4600 0.0000
1.9671 1.5829 0.0000
1.9769 1.4460 0.0000
1.9765 1.4823 0.0000
1.9747 1.5200 0.0000
1.9742 1.5363 0.0000
1.9780 1.5025 0.0000
1.9758 1.5539 0.0000
1.9819 1.4319 0.0000
1.9807 1.5693 0.0000
1.9896 1.4550 0.0000
1.9896 1.4650 0.0000
1.9896 1.4850 0.0000
1.9896 1.4950 0.0000
1.9908 1.4760 0.0000
1.9896 1.5050 0.0000
1.9896 1.5150 0.0000
1.9920 1.4420 0.0000
1.9896 1.5250 0.0000
1.9896 1.5350 0.0000
1.9896 1.5450 0.0000
1.9916 1.5584 0.0000
2.0000 1.4500 0.0000
2.0000 1.4600 0.0000
2.0000 1.4700 0.0000
2.0000 1.4800 0.0000
2.0000 1.4900 0.0000
2.0000 1.5000 0.0000
2.0000 1.5100 0.0000
2.0000 1.5200 0.0000
2.0000 1.5300 0.0000
2.0000 1.5400 0.0000
2.0000 1.5500 0.0000
2.0104 1.4550 0.0000
2.0084 1.4416 0.0000
2.0104 1.4650 0.0000
2.0242 1.4461 0.0000
2.0104 1.4750 0.0000
2.0193 1.4307 0.0000
2.0258 1.4652 0.0000
2.0092 1.4860 0.0000
2.0401 1.4326 0.0000
2.0090 1.4942 0.0000
2.0329 1.4171 0.0000
2.0253 1.4900 0.0000
2.0500 1.4500 0.0000
2.0500 1.4750 0.0000
2.0104 1.5050 0.0000
2.0104 1.5150 0.0000
2.0260 1.5143 0.0000
2.0678 1.4322 0.0000
2.0498 1.4002 0.0000
2.0500 1.5000 0.0000
2.0104 1.5250 0.0000
2.0104 1.5350 0.0000
2.0257 1.5355 0.0000
2.0500 1.5250 0.0000
2.0104 1.5450 0.0000
2.0889 1.4111 0.0000
2.0706 1.3794 0.0000
2.0231 1.5540 0.0000
2.0080 1.5580 0.0000
2.0500 1.5500 0.0000
2.0181 1.5681 0.0000
2.0393 1.5695 0.0000
2.1144 1.3856 0.0000
2.0306 1.5806 0.0000
2.0960 1.3540 0.0000
2.0681 1.5681 0.0000
2.0462 1.5962 0.0000
2.0901 1.5901 0.0000
2.1448 1.3552 0.0000
2.0654 1.6154 0.0000
2.1269 1.3231 0.0000
2.1166 1.6166 0.0000
2.0890 1.6390 0.0000
2.1809 1.3191 0.0000
2.1639 1.2861 0.0000
2.1481 1.6481 0.0000
2.1177 1.6677 0.0000
2.2229 1.2771 0.0000
2.2079 1.2421 0.0000
2.1523 1.7023 0.0000
2.1853 1.6853 0.0000
2.2714 1.2286 0.0000
2.1936 1.7436 0.0000
2.2286 1.7286 0.0000
2.2564 1.1936 0.0000
2.3147 1.1853 0.0000
2.2421 1.7921 0.0000
2.2977 1.1523 0.0000
2.2771 1.7771 0.0000
2.3519 1.1481 0.0000
2.3323 1.1177 0.0000
2.2861 1.8361 0.0000
2.3191 1.8191 0.0000
2.3834 1.1166 0.0000
2.3610 1.0890 0.0000
2.3231 1.8731 0.0000
2.3552 1.8552 0.0000
2.3846 1.0654 0.0000
2.4099 1.0901 0.0000
2.4038 1.0462 0.0000
2.3540 1.9040 0.0000
2.4319 1.0681 0.0000
2.3856 1.8856 0.0000
2.4194 1.0306 0.0000
2.4305 1.0393 0.0000
2.4500 1.0500 0.0000
2.4319 1.0181 0.0000
2.3794 1.9294 0.0000
2.4460 1.0231 0.0000
2.4111 1.9111 0.0000
2.4750 1.0500 0.0000
2.4420 1.0080 0.0000
2.4637 1.0257 0.0000
2.4550 1.0104 0.0000
2.4650 1.0104 0.0000
2.5000 1.0500 0.0000
2.4002 1.9502 0.0000
2.4862 1.0260 0.0000
2.4750 1.0104 0.0000
2.4322 1.9322 0.0000
2.4850 1.0104 0.0000
2.5250 1.0500 0.0000
2.4950 1.0104 0.0000
2.5100 1.0253 0.0000
2.4171 1.9671 0.0000
2.4326 1.9599 0.0000
2.5058 1.0090 0.0000
2.4500 1.9500 0.0000
2.5140 1.0092 0.0000
2.5500 1.0500 0.0000
2.5348 1.0258 0.0000
2.4307 1.9807 0.0000
2.5678 1.0678 0.0000
2.5250 1.0104 0.0000
2.4461 1.9758 0.0000
2.4750 1.9500 0.0000
2.5889 1.0889 0.0000
2.5350 1.0104 0.0000
2.5539 1.0242 0.0000
2.4416 1.9916 0.0000
2.5674 1.0401 0.0000
2.6144 1.1144 0.0000
2.5450 1.0104 0.0000
2.4652 1.9742 0.0000
2.4550 1.9896 0.0000
2.5000 1.9500 0.0000
2.4500 2.0000 0.0000
2.5584 1.0084 0.0000
2.4650 1.9896 0.0000
2.6448 1.1448 0.0000
2.5693 1.0193 0.0000
2.5829 1.0329 0.0000
2.4600 2.0000 0.0000
2.4900 1.9747 0.0000
2.4750 1.9896 0.0000
2.5998 1.0498 0.0000
2.4700 2.0000 0.0000
2.5250 1.9500 0.0000
2.4860 1.9908 0.0000
2.6206 1.0706 0.0000
2.4800 2.0000 0.0000
2.6809 1.1809 0.0000
2.4942 1.9910 0.0000
2.5143 1.9740 0.0000
2.4900 2.0000 0.0000
2.6460 1.0960 0.0000
2.5050 1.9896 0.0000
2.5500 1.9500 0.0000
2.5000 2.0000 0.0000
2.5681 1.9319 0.0000
2.5150 1.9896 0.0000
2.5901 1.9099 0.0000
2.5355 1.9743 0.0000
2.6769 1.1269 0.0000
2.5100 2.0000 0.0000
2.5250 1.9896 0.0000
2.6166 1.8834 0.0000
2.5200 2.0000 0.0000
2.7229 1.2229 0.0000
2.5350 1.9896 0.0000
2.6481 1.8519 0.0000
2.5300 2.0000 0.0000
2.5540 1.9769 0.0000
2.5695 1.9607 0.0000
2.5450 1.9896 0.0000
2.7139 1.1639 0.0000
2.5400 2.0000 0.0000
2.6853 1.8147 0.0000
2.5500 2.0000 0.0000
2.5580 1.9920 0.0000
2.5681 1.9819 0.0000
2.5806 1.9694 0.0000
2.5962 1.9538 0.0000
2.6154 1.9346 0.0000
2.6390 1.9110 0.0000
2.7714 1.2714 0.0000
2.6677 1.8823 0.0000
2.7579 1.2079 0.0000
2.7286 1.7714 0.0000
2.7023 1.8477 0.0000
2.7771 1.7229 0.0000
2.7436 1.8064 0.0000
2.8147 1.3147 0.0000
2.8064 1.2564 0.0000
2.7921 1.7579 0.0000
2.8191 1.6809 0.0000
2.8519 1.3519 0.0000
2.8477 1.2977 0.0000
2.8361 1.7139 0.0000
2.8552 1.6448 0.0000
2.8834 1.3834 0.0000
2.8823 1.3323 0.0000
2.8856 1.6144 0.0000
2.8731 1.6769 0.0000
2.9099 1.4099 0.0000
2.9110 1.3610 0.0000
2.9111 1.5889 0.0000
2.9040 1.6460 0.0000
2.9319 1.4319 0.0000
2.9346 1.3846 0.0000
2.9322 1.5678 0.0000
2.9294 1.6206 0.0000
2.9500 1.4500 0.0000
2.9500 1.4750 0.0000
2.9500 1.5000 0.0000
2.9500 1.5250 0.0000
2.9538 1.4038 0.0000
2.9500 1.5500 0.0000
2.9607 1.4305 0.0000
2.9502 1.5998 0.0000
2.9599 1.5674 0.0000
2.9694 1.4194 0.0000
2.9747 1.4600 0.0000
2.9671 1.5829 0.0000
2.9769 1.4460 0.0000
2.9765 1.4823 0.0000
2.9747 1.5200 0.0000
2.9742 1.5363 0.0000
2.9780 1.5025 0.0000
2.9758 1.5539 0.0000
2.9819 1.4319 0.0000
2.9807 1.5693 0.0000
2.9896 1.4550 0.0000
2.9896 1.4650 0.0000
2.9896 1.4850 0.0000
2.9896 1.4950 0.0000
2.9908 1.4760 0.0000
2.9896 1.5050 0.0000
2.9896 1.5150 0.0000
2.9920 1.4420 0.0000
2.9896 1.5250 0.0000
2.9896 1.5350 0.0000
2.9896 1.5450 0.0000
2.9916 1.5584 0.0000
3.0000 1.4500 0.0000
3.0000 1.4600 0.0000
3.0000 1.4700 0.0000
3.0000 1.4800 0.0000
3.0000 1.4900 0.0000
3.0000 1.5000 0.0000
3.0000 1.5100 0.0000
3.0000 1.5200 0.0000
3.0000 1.5300 0.0000
3.0000 1.5400 0.0000
3.0000 1.5500 0.0000
0.0000 2.4500 0.0000
0.0000 2.4600 0.0000
0.0104 2.4550 0.0000
0.0084 2.4416 0.0000
0.0104 2.4650 0.0000
0.0000 2.4700 0.0000
0.0242 2.4461 0.0000
0.0104 2.4750 0.0000
0.0193 2.4307 0.0000
0.0258 2.4652 0.0000
0.0000 2.4800 0.0000
0.0092 2.4860 0.0000
0.0000 2.4900 0.0000
0.0401 2.4326 0.0000
0.0090 2.4942 0.0000
0.0329 2.4171 0.0000
0.0253 2.4900 0.0000
0.0000 2.5000 0.0000
0.0500 2.4500 0.0000
0.0500 2.4750 0.0000
0.0104 2.5050 0.0000
0.0000 2.5100 0.0000
0.0104 2.5150 0.0000
0.0260 2.5143 0.0000
0.0000 2.5200 0.0000
0.0678 2.4322 0.0000
0.0498 2.4002 0.0000
0.0500 2.5000 0.0000
0.0104 2.5250 0.0000
0.0000 2.5300 0.0000
0.0104 2.5350 0.0000
0.0257 2.5355 0.0000
0.0000 2.5400 0.0000
0.0500 2.5250 0.0000
0.0104 2.5450 0.0000
0.0889 2.4111 0.0000
0.0706 2.3794 0.0000
0.0000 2.5500 0.0000
0.0231 2.5540 0.0000
0.0080 2.5580 0.0000
0.0500 2.5500 0.0000
0.0181 2.5681 0.0000
0.0393 2.5695 0.0000
0.1144 2.3856 0.0000
0.0306 2.5806 0.0000
0.0960 2.3540 0.0000
0.0681 2.5681 0.0000
0.0462 2.5962 0.0000
0.0901 2.5901 0.0000
0.1448 2.3552 0.0000
0.0654 2.6154 0.0000
0.1269 2.3231 0.0000
0.1166 2.6166 0.0000
0.0890 2.6390 0.0000
0.1809 2.3191 0.0000
0.1639 2.2861 0.0000
0.1481 2.6481 0.0000
0.1177 2.6677 0.0000
0.2229 2.2771 0.0000
0.2079 2.2421 0.0000
0.1523 2.7023 0.0000
0.1853 2.6853 0.0000
0.2714 2.2286 0.0000
0.1936 2.7436 0.0000
0.2286 2.7286 0.0000
0.2564 2.1936 0.0000
0.3147 2.1853 0.0000
0.2421 2.7921 0.0000
0.2977 2.1523 0.0000
0.2771 2.7771 0.0000
0.3519 2.1481 0.0000
0.3323 2.1177 0.0000
0.2861 2.8361 0.0000
0.3191 2.8191 0.0000
0.3834 2.1166 0.0000
0.3610 2.0890 0.0000
0.3231 2.8731 0.0000
0.3552 2.8552 0.0000
0.3846 2.0654 0.0000
0.4099 2.0901 0.0000
0.4038 2.0462 0.0000
0.3540 2.9040 0.0000
0.4319 2.0681 0.0000
0.3856 2.8856 0.0000
0.4194 2.0306 0.0000
0.4305 2.0393 0.0000
0.4500 2.0500 0.0000
0.4319 2.0181 0.0000
0.3794 2.9294 0.0000
0.4460 2.0231 0.0000
0.4111 2.9111 0.0000
0.4750 2.0500 0.0000
0.4420 2.0080 0.0000
0.4637 2.0257 0.0000
0.4550 2.0104 0.0000
0.4650 2.0104 0.0000
0.5000 2.0500 0.0000
0.4002 2.9502 0.0000
0.4862 2.0260 0.0000
0.4750 2.0104 0.0000
0.4322 2.9322 0.0000
0.4850 2.0104 0.0000
0.5250 2.0500 0.0000
0.4950 2.0104 0.0000
0.5100 2.0253 0.0000
0.4171 2.9671 0.0000
0.4326 2.9599 0.0000
0.5058 2.0090 0.0000
0.4500 2.9500 0.0000
0.5140 2.0092 0.0000
0.5500 2.0500 0.0000
0.5348 2.0258 0.0000
0.4307 2.9807 0.0000
0.5678 2.0678 0.0000
0.5250 2.0104 0.0000
0.4461 2.9758 0.0000
0.4750 2.9500 0.0000
0.5889 2.0889 0.0000
0.5350 2.0104 0.0000
0.5539 2.0242 0.0000
0.4416 2.9916 0.0000
0.5674 2.0401 0.0000
0.6144 2.1144 0.0000
0.5450 2.0104 0.0000
0.4652 2.9742 0.0000
0.4550 2.9896 0.0000
0.5000 2.9500 0.0000
0.4500 3.0000 0.0000
0.5584 2.0084 0.0000
0.4650 2.9896 0.0000
0.6448 2.1448 0.0000
0.5693 2.0193 0.0000
0.5829 2.0329 0.0000
0.4600 3.0000 0.0000
0.4900 2.9747 0.0000
0.4750 2.9896 0.0000
0.5998 2.0498 0.0000
0.4700 3.0000 0.0000
0.5250 2.9500 0.0000
0.4860 2.9908 0.0000
0.6206 2.0706 0.0000
0.4800 3.0000 0.0000
0.6809 2.1809 0.0000
0.4942 2.9910 0.0000
0.5143 2.9740 0.0000
0.4900 3.0000 0.0000
0.6460 2.0960 0.0000
0.5050 2.9896 0.0000
0.5500 2.9500 0.0000
0.5000 3.0000 0.0000
0.5681 2.9319 0.0000
0.5150 2.9896 0.0000
0.5901 2.9099 0.0000
0.5355 2.9743 0.0000
0.6769 2.1269 0.0000
0.5100 3.0000 0.0000
0.5250 2.9896 0.0000
0.6166 2.8834 0.0000
0.5200 3.0000 0.0000
0.7229 2.2229 0.0000
0.5350 2.9896 0.0000
0.6481 2.8519 0.0000
0.5300 3.0000 0.0000
0.5540 2.9769 0.0000
0.5695 2.9607 0.0000
0.5450 2.9896 0.0000
0.7139 2.1639 0.0000
0.5400 3.0000 0.0000
0.6853 2.8147 0.0000
0.5500 3.0000 0.0000
0.5580 2.9920 0.0000
0.5681 2.9819 0.0000
0.5806 2.9694 0.0000
0.5962 2.9538 0.0000
0.6154 2.9346 0.0000
0.6390 2.9110 0.0000
0.7714 2.2714 0.0000
0.6677 2.8823 0.0000
0.7579 2.2079 0.0000
0.7286 2.7714 0.0000
0.7023 2.8477 0.0000
0.7771 2.7229 0.0000
0.7436 2.8064 0.0000
0.8147 2.3147 0.0000
0.8064 2.2564 0.0000
0.7921 2.7579 0.0000
0.8191 2.6809 0.0000
0.8519 2.3519 0.0000
0.8477 2.2977 0.0000
0.8361 2.7139 0.0000
0.8552 2.6448 0.0000
0.8834 2.3834 0.0000
0.8823 2.3323 0.0000
0.8856 2.6144 0.0000
0.8731 2.6769 0.0000
0.9099 2.4099 0.0000
0.9110 2.3610 0.0000
0.9111 2.5889 0.0000
0.9040 2.6460 0.0000
0.9319 2.4319 0.0000
0.9346 2.3846 0.0000
0.9322 2.5678 0.0000
0.9294 2.6206 0.0000
0.9500 2.4500 0.0000
0.9500 2.4750 0.0000
0.9500 2.5000 0.0000
0.9500 2.5250 0.0000
0.9538 2.4038 0.0000
0.9500 2.5500 0.0000
0.9607 2.4305 0.0000
0.9502 2.5998 0.0000
0.9599 2.5674 0.0000
0.9694 2.4194 0.0000
0.9747 2.4600 0.0000
0.9671 2.5829 0.0000
0.9769 2.4460 0.0000
0.9765 2.4823 0.0000
0.9747 2.5200 0.0000
0.9742 2.5363 0.0000
0.9780 2.5025 0.0000
0.9758 2.5539 0.0000
0.9819 2.4319 0.0000
0.9807 2.5693 0.0000
0.9896 2.4550 0.0000
0.9896 2.4650 0.0000
0.9896 2.4850 0.0000
0.9896 2.4950 0.0000
0.9908 2.4760 0.0000
0.9896 2.5050 0.0000
0.9896 2.5150 0.0000
0.9920 2.4420 0.0000
0.9896 2.5250 0.0000
0.9896 2.5350 0.0000
0.9896 2.5450 0.0000
0.9916 2.5584 0.0000
1.0000 2.4500 0.0000
1.0000 2.4600 0.0000
1.0000 2.4700 0.0000
1.0000 2.4800 0.0000
1.0000 2.4900 0.0000
1.0000 2.5000 0.0000
1.0000 2.5100 0.0000
1.0000 2.5200 0.0000
1.0000 2.5300 0.0000
1.0000 2.5400 0.0000
1.0000 2.5500 0.0000
1.0104 2.4550 0.0000
1.0084 2.4416 0.0000
1.0104 2.4650 0.0000
1.0242 2.4461 0.0000
1.0104 2.4750 0.0000
1.0193 2.4307 0.0000
1.0258 2.4652 0.0000
1.0092 2.4860 0.0000
1.0401 2.4326 0.0000
1.0090 2.4942 0.0000
1.0329 2.4171 0.0000
1.0253 2.4900 0.0000
1.0500 2.4500 0.0000
1.0500 2.4750 0.0000
1.0104 2.5050 0.0000
1.0104 2.5150 0.0000
1.0260 2.5143 0.0000
1.0678 2.4322 0.0000
1.0498 2.4002 0.0000
1.0500 2.5000 0.0000
1.0104 2.5250 0.0000
1.0104 2.5350 0.0000
1.0257 2.5355 0.0000
1.0500 2.5250 0.0000
1.0104 2.5450 0.0000
1.0889 2.4111 0.0000
1.0706 2.3794 0.0000
1.0231 2.5540 0.0000
1.0080 2.5580 0.0000
1.0500 2.5500 0.0000
1.0181 2.5681 0.0000
1.0393 2.5695 0.0000
1.1144 2.3856 0.0000
1.0306 2.5806 0.0000
1.0960 2.3540 0.0000
1.0681 2.5681 0.0000
1.0462 2.5962 0.0000
1.0901 2.5901 0.0000
1.1448 2.3552 0.0000
1.0654 2.6154 0.0000
1.1269 2.3231 0.0000
1.1166 2.6166 0.0000
1.0890 2.6390 0.0000
1.1809 2.3191 0.0000
1.1639 2.2861 0.0000
1.1481 2.6481 0.0000
1.1177 2.6677 0.0000
1.2229 2.2771 0.0000
1.2079 2.2421 0.0000
1.1523 2.7023 0.0000
1.1853 2.6853 0.0000
1.2714 2.2286 0.0000
1.1936 2.7436 0.0000
1.2286 2.7286 0.0000
1.2564 2.1936 0.0000
1.3147 2.1853 0.0000
1.2421 2.7921 0.0000
1.2977 2.1523 0.0000
1.2771 2.7771 0.0000
1.3519 2.1481 0.0000
1.3323 2.1177 0.0000
1.2861 2.8361 0.0000
1.3191 2.8191 0.0000
1.3834 2.1166 0.0000
1.3610 2.0890 0.0000
1.3231 2.8731 0.0000
1.3552 2.8552 0.0000
1.3846 2.0654 0.0000
1.4099 2.0901 0.0000
1.4038 2.0462 0.0000
1.3540 2.9040 0.0000
1.4319 2.0681 0.0000
1.3856 2.8856 0.0000
1.4194 2.0306 0.0000
1.4305 2.0393 0.0000
1.4500 2.0500 0.0000
1.4319 2.0181 0.0000
1.3794 2.9294 0.0000
1.4460 2.0231 0.0000
1.4111 2.9111 0.0000
1.4750 2.0500 0.0000
1.4420 2.0080 0.0000
1.4637 2.0257 0.0000
1.4550 2.0104 0.0000
1.4650 2.0104 0.0000
1.5000 2.0500 0.0000
1.4002 2.9502 0.0000
1.4862 2.0260 0.0000
1.4750 2.0104 0.0000
1.4322 2.9322 0.0000
1.4850 2.0104 0.0000
1.5250 2.0500 0.0000
1.4950 2.0104 0.0000
1.5100 2.0253 0.0000
1.4171 2.9671 0.0000
1.4326 2.9599 0.0000
1.5058 2.0090 0.0000
1.4500 2.9500 0.0000
1.5140 2.0092 0.0000
1.5500 2.0500 0.0000
1.5348 2.0258 0.0000
1.4307 2.9807 0.0000
1.5678 2.0678 0.0000
1.5250 2.0104 0.0000
1.4461 2.9758 0.0000
1.4750 2.9500 0.0000
1.5889 2.0889 0.0000
1.5350 2.0104 0.0000
1.5539 2.0242 0.0000
1.4416 2.9916 0.0000
1.5674 2.0401 0.0000
1.6144 2.1144 0.0000
1.5450 2.0104 0.0000
1.4652 2.9742 0.0000
1.4550 2.9896 0.0000
1.5000 2.9500 0.0000
1.4500 3.0000 0.0000
1.5584 2.0084 0.0000
1.4650 2.9896 0.0000
1.6448 2.1448 0.0000
1.5693 2.0193 0.0000
1.5829 2.0329 0.0000
1.4600 3.0000 0.0000
1.4900 2.9747 0.0000
1.4750 2.9896 0.0000
1.5998 2.0498 0.0000
1.4700 3.0000 0.0000
1.5250 2.9500 0.0000
1.4860 2.9908 0.0000
1.6206 2.0706 0.0000
1.4800 3.0000 0.0000
1.6809 2.1809 0.0000
1.4942 2.9910 0.0000
1.5143 2.9740 0.0000
1.4900 3.0000 0.0000
1.6460 2.0960 0.0000
1.5050 2.9896 0.0000
1.5500 2.9500 0.0000
1.5000 3.0000 0.0000
1.5681 2.9319 0.0000
1.5150 2.9896 0.0000
1.5901 2.9099 0.0000
1.5355 2.9743 0.0000
1.6769 2.1269 0.0000
1.5100 3.0000 0.0000
1.5250 2.9896 0.0000
1.6166 2.8834 0.0000
1.5200 3.0000 0.0000
1.7229 2.2229 0.0000
1.5350 2.9896 0.0000
1.6481 2.8519 0.0000
1.5300 3.0000 0.0000
1.5540 2.9769 0.0000
1.5695 2.9607 0.0000
1.5450 2.9896 0.0000
1.7139 2.1639 0.0000
1.5400 3.0000 0.0000
1.6853 2.8147 0.0000
1.5500 3.0000 0.0000
1.5580 2.9920 0.0000
1.5681 2.9819 0.0000
1.5806 2.9694 0.0000
1.5962 2.9538 0.0000
1.6154 2.9346 0.0000
1.6390 2.9110 0.0000
1.7714 2.2714 0.0000
1.6677 2.8823 0.0000
1.7579 2.2079 0.0000
1.7286 2.7714 0.0000
1.7023 2.8477 0.0000
1.7771 2.7229 0.0000
1.7436 2.8064 0.0000
1.8147 2.3147 0.0000
1.8064 2.2564 0.0000
1.7921 2.7579 0.0000
1.8191 2.6809 0.0000
1.8519 2.3519 0.0000
1.8477 2.2977 0.0000
1.8361 2.7139 0.0000
1.8552 2.6448 0.0000
1.8834 2.3834 0.0000
1.8823 2.3323 0.0000
1.8856 2.6144 0.0000
1.8731 2.6769 0.0000
1.9099 2.4099 0.0000
1.9110 2.3610 0.0000
1.9111 2.5889 0.0000
1.9040 2.6460 0.0000
1.9319 2.4319 0.0000
1.9346 2.3846 0.0000
1.9322 2.5678 0.0000
1.9294 2.6206 0.0000
1.9500 2.4500 0.0000
1.9500 2.4750 0.0000
1.9500 2.5000 0.0000
1.9500 2.5250 0.0000
1.9538 2.4038 0.0000
1.9500 2.5500 0.0000
1.9607 2.4305 0.0000
1.9502 2.5998 0.0000
1.9599 2.5674 0.0000
1.9694 2.4194 0.0000
1.9747 2.4600 0.0000
1.9671 2.5829 0.0000
1.9769 2.4460 0.0000
1.9765 2.4823 0.0000
1.9747 2.5200 0.0000
1.9742 2.5363 0.0000
1.9780 2.5025 0.0000
1.9758 2.5539 0.0000
1.9819 2.4319 0.0000
1.9807 2.5693 0.0000
1.9896 2.4550 0.0000
1.9896 2.4650 0.0000
1.9896 2.4850 0.0000
1.9896 2.4950 0.0000
1.9908 2.4760 0.0000
1.9896 2.5050 0.0000
1.9896 2.5150 0.0000
1.9920 2.4420 0.0000
1.9896 2.5250 0.0000
1.9896 2.5350 0.0000
1.9896 2.5450 0.0000
1.9916 2.5584 0.0000
2.0000 2.4500 0.0000
2.0000 2.4600 0.0000
2.0000 2.4700 0.0000
2.0000 2.4800 0.0000
2.0000 2.4900 0.0000
2.0000 2.5000 0.0000
2.0000 2.5100 0.0000
2.0000 2.5200 0.0000
2.0000 2.5300 0.0000
2.0000 2.5400 0.0000
2.0000 2.5500 0.0000
2.0104 2.4550 0.0000
2.0084 2.4416 0.0000
2.0104 2.4650 0.0000
2.0242 2.4461 0.0000
2.0104 2.4750 0.0000
2.0193 2.4307 0.0000
2.0258 2.4652 0.0000
2.0092 2.4860 0.0000
2.0401 2.4326 0.0000
2.0090 2.4942 0.0000
2.0329 2.4171 0.0000
2.0253 2.4900 0.0000
2.0500 2.4500 0.0000
2.0500 2.4750 0.0000
2.0104 2.5050 0.0000
2.0104 2.5150 0.0000
2.0260 2.5143 0.0000
2.0678 2.4322 0.0000
2.0498 2.4002 0.0000
2.0500 2.5000 0.0000
2.0104 2.5250 0.0000
2.0104 2.5350 0.0000
2.0257 2.5355 0.0000
2.0500 2.5250 0.0000
2.0104 2.5450 0.0000
2.0889 2.4111 0.0000
2.0706 2.3794 0.0000
2.0231 2.5540 0.0000
2.0080 2.5580 0.0000
2.0500 2.5500 0.0000
2.0181 2.5681 0.0000
2.0393 2.5695 0.0000
2.1144 2.3856 0.0000
2.0306 2.5806 0.0000
2.0960 2.3540 0.0000
2.0681 2.5681 0.0000
2.0462 2.5962 0.0000
2.0901 2.5901 0.0000
2.1448 2.3552 0.0000
2.0654 2.6154 0.0000
2.1269 2.3231 0.0000
2.1166 2.6166 0.0000
2.0890 2.6390 0.0000
2.1809 2.3191 0.0000
2.1639 2.2861 0.0000
2.1481 2.6481 0.0000
2.1177 2.6677 0.0000
2.2229 2.2771 0.0000
2.2079 2.2421 0.0000
2.1523 2.7023 0.0000
2.1853 2.6853 0.0000
2.2714 2.2286 0.0000
2.1936 2.7436 0.0000
2.2286 2.7286 0.0000
2.2564 2.1936 0.0000
2.3147 2.1853 0.0000
2.2421 2.7921 0.0000
2.2977 2.1523 0.0000
2.2771 2.7771 0.0000
2.3519 2.1481 0.0000
2.3323 2.1177 0.0000
2.2861 2.8361 0.0000
2.3191 2.8191 0.0000
2.3834 2.1166 0.0000
2.3610 2.0890 0.0000
2.3231 2.8731 0.0000
2.3552 2.8552 0.0000
2.3846 2.0654 0.0000
2.4099 2.0901 0.0000
2.4038 2.0462 0.0000
2.3540 2.9040 0.0000
2.4319 2.0681 0.0000
2.3856 2.8856 0.0000
2.4194 2.0306 0.0000
2.4305 2.0393 0.0000
2.4500 2.0500 0.0000
2.4319 2.0181 0.0000
2.3794 2.9294 0.0000
2.4460 2.0231 0.0000
2.4111 2.9111 0.0000
2.4750 2.0500 0.0000
2.4420 2.0080 0.0000
2.4637 2.0257 0.0000
2.4550 2.0104 0.0000
2.4650 2.0104 0.0000
2.5000 2.0500 0.0000
2.4002 2.9502 0.0000
2.4862 2.0260 0.0000
2.4750 2.0104 0.0000
2.4322 2.9322 0.0000
2.4850 2.0104 0.0000
2.5250 2.0500 0.0000
2.4950 2.0104 0.0000
2.5100 2.0253 0.0000
2.4171 2.9671 0.0000
2.4326 2.9599 0.0000
2.5058 2.0090 0.0000
2.4500 2.9500 0.0000
2.5140 2.0092 0.0000
2.5500 2.0500 0.0000
2.5348 2.0258 0.0000
2.4307 2.9807 0.0000
2.5678 2.0678 0.0000
2.5250 2.0104 0.0000
2.4461 2.9758 0.0000
2.4750 2.9500 0.0000
2.5889 2.0889 0.0000
2.5350 2.0104 0.0000
2.5539 2.0242 0.0000
2.4416 2.9916 0.0000
2.5674 2.0401 0.0000
2.6144 2.1144 0.0000
2.5450 2.0104 0.0000
2.4652 2.9742 0.0000
2.4550 2.9896 0.0000
2.5000 2.9500 0.0000
2.4500 3.0000 0.0000
2.5584 2.0084 0.0000
2.4650 2.9896 0.0000
2.6448 2.1448 0.0000
2.5693 2.0193 0.0000
2.5829 2.0329 0.0000
2.4600 3.0000 0.0000
2.4900 2.9747 0.0000
2.4750 2.9896 0.0000
2.5998 2.0498 0.0000
2.4700 3.0000 0.0000
2.5250 2.9500 0.0000
2.4860 2.9908 0.0000
2.6206 2.0706 0.0000
2.4800 3.0000 0.0000
2.6809 2.1809 0.0000
2.4942 2.9910 0.0000
2.5143 2.9740 0.0000
2.4900 3.0000 0.0000
2.6460 2.0960 0.0000
2.5050 2.9896 0.0000
2.5500 2.9500 0.0000
2.5000 3.0000 0.0000
2.5681 2.9319 0.0000
2.5150 2.9896 0.0000
2.5901 2.9099 0.0000
2.5355 2.9743 0.0000
2.6769 2.1269 0.0000
2.5100 3.0000 0.0000
2.5250 2.9896 0.0000
2.6166 2.8834 0.0000
2.5200 3.0000 0.0000
2.7229 2.2229 0.0000
2.5350 2.9896 0.0000
2.6481 2.8519 0.0000
2.5300 3.0000 0.0000
2.5540 2.9769 0.0000
2.5695 2.9607 0.0000
2.5450 2.9896 0.0000
2.7139 2.1639 0.0000
2.5400 3.0000 0.0000
2.6853 2.8147 0.0000
2.5500 3.0000 0.0000
2.5580 2.9920 0.0000
2.5681 2.9819 0.0000
2.5806 2.9694 0.0000
2.5962 2.9538 0.0000
2.6154 2.9346 0.0000
2.6390 2.9110 0.0000
2.7714 2.2714 0.0000
2.6677 2.8823 0.0000
2.7579 2.2079 0.0000
2.7286 2.7714 0.0000
2.7023 2.8477 0.0000
2.7771 2.7229 0.0000
2.7436 2.8064 0.0000
2.8147 2.3147 0.0000
2.8064 2.2564 0.0000
2.7921 2.7579 0.0000
2.8191 2.6809 0.0000
2.8519 2.3519 0.0000
2.8477 2.2977 0.0000
2.8361 2.7139 0.0000
2.8552 2.6448 0.0000
2.8834 2.3834 0.0000
2.8823 2.3323 0.0000
2.8856 2.6144 0.0000
2.8731 2.6769 0.0000
2.9099 2.4099 0.0000
2.9110 2.3610 0.0000
2.9111 2.5889 0.0000
2.9040 2.6460 0.0000
2.9319 2.4319 0.0000
2.9346 2.3846 0.0000
2.9322 2.5678 0.0000
2.9294 2.6206 0.0000
2.9500 2.4500 0.0000
2.9500 2.4750 0.0000
2.9500 2.5000 0.0000
2.9500 2.5250 0.0000
2.9538 2.4038 0.0000
2.9500 2.5500 0.0000
2.9607 2.4305 0.0000
2.9502 2.5998 0.0000
2.9599 2.5674 0.0000
2.9694 2.4194 0.0000
2.9747 2.4600 0.0000
2.9671 2.5829 0.0000
2.9769 2.4460 0.0000
2.9765 2.4823 0.0000
2.9747 2.5200 0.0000
2.9742 2.5363 0.0000
2.9780 2.5025 0.0000
2.9758 2.5539 0.0000
2.9819 2.4319 0.0000
2.9807 2.5693 0.0000
2.9896 2.4550 0.0000
2.9896 2.4650 0.0000
2.9896 2.4850 0.0000
2.9896 2.4950 0.0000
2.9908 2.4760 0.0000
2.9896 2.5050 0.0000
2.9896 2.5150 0.0000
2.9920 2.4420 0.0000
2.9896 2.5250 0.0000
2.9896 2.5350 0.0000
2.9896 2.5450 0.0000
2.9916 2.5584 0.0000
3.0000 2.4500 0.0000
3.0000 2.4600 0.0000
3.0000 2.4700 0.0000
3.0000 2.4800 0.0000
3.0000 2.4900 0.0000
3.0000 2.5000 0.0000
3.0000 2.5100 0.0000
3.0000 2.5200 0.0000
3.0000 2.5300 0.0000
3.0000 2.5400 0.0000
3.0000 2.5500 0.0000</DataArray>
         </Points>
         <Cells>
            <DataArray Name="connectivity" format="ascii" type="Int32">
 95 99 94
 252 253 240
 29 24 28
 127 134 126
 166 160 158
 110 114 107
 180 178 176
 12 10 11
 248 249 238
 148 144 140
 103 105 101
 254 255 243
 21 17 20
 246 247 234
 156 152 150
 117 122 115
 173 169 167
 5 1 4
 250 251 237
 37 32 34
 99 103 96
 253 254 242
 24 21 22
 134 138 132
 160 156 154
 114 117 112
 178 173 171
 10 5 7
 249 250 236
 144 137 135
 105 110 104
 255 256 244
 17 12 14
 247 248 235
 152 148 146
 122 127 121
 169 166 162
 1 0 2
 251 252 239
 32 29 30
 92 95 94
 241 246 234
 181 180 176
 39 37 34
 94 99 96
 94 96 93
 167 169 162
 167 162 155
 14 12 11
 14 11 16
 238 249 236
 238 236 227
 154 156 150
 154 150 145
 158 160 154
 158 154 145
 96 103 101
 96 101 93
 162 166 158
 162 158 155
 20 17 14
 20 14 16
 236 250 237
 236 237 227
 28 24 22
 28 22 23
 237 251 239
 237 239 230
 146 148 140
 146 140 133
 101 105 104
 101 104 100
 171 173 167
 171 167 164
 176 178 171
 176 171 164
 22 21 20
 22 20 23
 239 252 240
 239 240 230
 150 152 146
 150 146 145
 104 110 107
 104 107 100
 240 253 242
 240 242 228
 4 1 2
 4 2 9
 235 248 238
 235 238 227
 140 144 135
 140 135 133
 112 117 115
 112 115 108
 107 114 112
 107 112 108
 242 254 243
 242 229 228
 2 0 3
 234 247 235
 234 235 224
 135 137 129
 126 134 132
 126 132 118
 34 32 30
 34 30 31
 121 127 126
 121 126 118
 243 255 244
 243 244 229
 7 5 4
 7 4 9
 11 10 7
 11 7 16
 132 138 139
 30 29 28
 30 28 31
 115 122 121
 115 121 108
 244 256 245
 92 94 89
 241 234 226
 181 176 174
 39 34 38
 2 3 6
 135 129 123
 132 139 128
 244 245 231
 87 92 89
 232 241 226
 182 181 174
 41 39 38
 87 89 85
 232 226 220
 182 174 175
 41 38 42
 3 8 6
 139 142 128
 245 233 231
 129 119 123
 89 94 93
 89 93 86
 226 234 224
 226 224 214
 174 176 164
 174 164 159
 38 34 31
 38 31 40
 101 100 93
 237 230 227
 9 2 6
 9 6 18
 28 23 31
 224 235 227
 243 229 242
 146 133 145
 118 132 128
 118 128 116
 164 167 155
 240 228 230
 229 244 231
 229 231 219
 6 8 13
 128 142 130
 231 233 222
 123 119 111
 135 123 133
 84 87 85
 84 85 80
 223 232 220
 223 220 218
 183 182 175
 183 175 184
 44 41 42
 44 42 47
 85 89 86
 220 226 214
 175 174 159
 42 38 40
 8 15 13
 13 15 26
 142 143 130
 130 143 147
 233 225 222
 222 225 221
 119 109 111
 111 109 98
 93 100 91
 31 23 33
 228 229 217
 164 155 149
 227 230 216
 224 227 215
 145 133 124
 230 228 216
 6 13 18
 18 13 25
 128 130 116
 116 130 120
 231 222 219
 219 222 212
 123 111 113
 113 111 102
 158 145 155
 16 7 9
 107 108 100
 108 121 118
 23 20 16
 85 86 82
 220 214 210
 175 159 161
 42 40 46
 133 123 113
 113 124 133
 219 217 229
 116 106 118
 18 19 9
 136 149 155
 216 215 227
 97 91 100
 27 33 23
 124 136 145
 217 216 228
 106 97 108
 19 27 16
 149 159 164
 215 214 224
 91 86 93
 33 40 31
 145 136 155
 16 27 23
 108 97 100
 78 80 79
 185 184 163
 211 218 206
 50 47 48
 25 13 26
 120 130 147
 212 222 221
 102 111 98
 118 106 108
 9 19 16
 26 36 35
 147 151 125
 221 213 208
 98 88 90
 90 102 98
 208 212 221
 125 120 147
 35 25 26
 80 85 82
 218 220 210
 184 175 161
 47 42 46
 46 48 47
 161 163 184
 210 206 218
 82 79 80
 75 78 79
 207 211 206
 186 185 163
 53 50 48
 36 45 43
 151 157 131
 213 209 204
 88 81 83
 83 90 88
 204 208 213
 131 125 151
 43 35 36
 43 45 49
 131 157 141
 204 209 201
 83 81 77
 48 52 53
 53 52 57
 163 168 186
 186 168 188
 206 202 207
 207 202 203
 79 74 75
 75 74 71
 45 51 49
 49 51 54
 157 165 141
 141 165 153
 209 205 201
 201 205 197
 81 76 77
 77 76 73
 52 56 57
 57 56 60
 168 172 188
 188 172 191
 202 198 203
 203 198 199
 74 70 71
 71 70 68
 51 55 54
 54 55 58
 165 177 153
 153 177 170
 205 200 197
 197 200 192
 76 72 73
 73 72 69
 56 61 60
 60 61 63
 172 179 191
 191 179 193
 198 194 199
 199 194 195
 70 66 68
 68 66 65
 63 61 64
 63 64 67
 193 179 190
 193 190 196
 195 194 187
 195 187 189
 65 66 62
 65 62 59
 58 55 59
 58 59 62
 170 177 189
 170 189 187
 192 200 196
 192 196 190
 69 72 67
 69 67 64
 341 345 340
 498 499 486
 254 253 277
 373 380 372
 412 406 404
 356 360 353
 426 424 422
 250 249 264
 494 495 484
 394 390 386
 349 351 347
 500 501 489
 252 251 271
 492 493 480
 402 398 396
 363 368 361
 419 415 413
 248 247 259
 496 497 483
 256 255 281
 345 349 342
 499 500 488
 253 252 272
 380 384 378
 406 402 400
 360 363 358
 424 419 417
 249 248 261
 495 496 482
 390 383 381
 351 356 350
 501 502 490
 251 250 266
 493 494 481
 398 394 392
 368 373 367
 415 412 408
 247 246 257
 497 498 485
 255 254 278
 338 341 340
 487 492 480
 427 426 422
 285 256 281
 340 345 342
 340 342 339
 413 415 408
 413 408 401
 266 250 264
 266 264 268
 484 495 482
 484 482 473
 400 402 396
 400 396 391
 404 406 400
 404 400 391
 342 349 347
 342 347 339
 408 412 404
 408 404 401
 271 251 266
 271 266 268
 482 496 483
 482 483 473
 277 253 272
 277 272 273
 483 497 485
 483 485 476
 392 394 386
 392 386 379
 347 351 350
 347 350 346
 417 419 413
 417 413 410
 422 424 417
 422 417 410
 272 252 271
 272 271 273
 485 498 486
 485 486 476
 396 398 392
 396 392 391
 350 356 353
 350 353 346
 486 499 488
 486 488 474
 259 247 257
 259 257 263
 481 494 484
 481 484 473
 386 390 381
 386 381 379
 358 363 361
 358 361 354
 353 360 358
 353 358 354
 488 500 489
 488 475 474
 257 246 258
 480 493 481
 480 481 470
 381 383 375
 372 380 378
 372 378 364
 281 255 278
 281 278 279
 367 373 372
 367 372 364
 489 501 490
 489 490 475
 261 248 259
 261 259 263
 264 249 261
 264 261 268
 378 384 385
 278 254 277
 278 277 279
 361 368 367
 361 367 354
 490 502 491
 338 340 335
 487 480 472
 427 422 420
 285 281 284
 257 258 260
 381 375 369
 378 385 374
 490 491 477
 333 338 335
 478 487 472
 428 427 420
 287 285 284
 333 335 331
 478 472 466
 428 420 421
 287 284 288
 258 262 260
 385 388 374
 491 479 477
 375 365 369
 335 340 339
 335 339 332
 472 480 470
 472 470 460
 420 422 410
 420 410 405
 284 281 279
 284 279 286
 347 346 339
 483 476 473
 263 257 260
 263 260 269
 277 273 279
 470 481 473
 489 475 488
 392 379 391
 364 378 374
 364 374 362
 410 413 401
 486 474 476
 475 490 477
 475 477 465
 260 262 265
 374 388 376
 477 479 468
 369 365 357
 381 369 379
 330 333 331
 330 331 326
 469 478 466
 469 466 464
 429 428 421
 429 421 430
 290 287 288
 290 288 293
 331 335 332
 466 472 460
 421 420 405
 288 284 286
 262 267 265
 265 267 275
 388 389 376
 376 389 393
 479 471 468
 468 471 467
 365 355 357
 357 355 344
 339 346 337
 279 273 280
 474 475 463
 410 401 395
 473 476 462
 470 473 461
 391 379 370
 476 474 462
 260 265 269
 269 265 274
 374 376 362
 362 376 366
 477 468 465
 465 468 458
 369 357 359
 359 357 348
 404 391 401
 268 261 263
 353 354 346
 354 367 364
 273 271 268
 331 332 328
 466 460 456
 421 405 407
 288 286 292
 379 369 359
 359 370 379
 465 463 475
 362 352 364
 269 270 263
 382 395 401
 462 461 473
 343 337 346
 276 280 273
 370 382 391
 463 462 474
 352 343 354
 270 276 268
 395 405 410
 461 460 470
 337 332 339
 280 286 279
 391 382 401
 268 276 273
 354 343 346
 324 326 325
 431 430 409
 457 464 452
 296 293 294
 274 265 275
 366 376 393
 458 468 467
 348 357 344
 364 352 354
 263 270 268
 275 283 282
 393 397 371
 467 459 454
 344 334 336
 336 348 344
 454 458 467
 371 366 393
 282 274 275
 326 331 328
 464 466 456
 430 421 407
 293 288 292
 292 294 293
 407 409 430
 456 452 464
 328 325 326
 321 324 325
 453 457 452
 432 431 409
 299 296 294
 283 291 289
 397 403 377
 459 455 450
 334 327 329
 329 336 334
 450 454 459
 377 371 397
 289 282 283
 289 291 295
 377 403 387
 450 455 447
 329 327 323
 294 298 299
 299 298 303
 409 414 432
 432 414 434
 452 448 453
 453 448 449
 325 320 321
 321 320 317
 291 297 295
 295 297 300
 403 411 387
 387 411 399
 455 451 447
 447 451 443
 327 322 323
 323 322 319
 298 302 303
 303 302 306
 414 418 434
 434 418 437
 448 444 449
 449 444 445
 320 316 317
 317 316 314
 297 301 300
 300 301 304
 411 423 399
 399 423 416
 451 446 443
 443 446 438
 322 318 319
 319 318 315
 302 307 306
 306 307 309
 418 425 437
 437 425 439
 444 440 445
 445 440 441
 316 312 314
 314 312 311
 309 307 310
 309 310 313
 439 425 436
 439 436 442
 441 440 433
 441 433 435
 311 312 308
 311 308 305
 304 301 305
 304 305 308
 416 423 435
 416 435 433
 438 446 442
 438 442 436
 315 318 313
 315 313 310
 587 591 586
 744 745 732
 500 499 523
 619 626 618
 658 652 650
 602 606 599
 672 670 668
 496 495 510
 740 741 730
 640 636 632
 595 597 593
 746 747 735
 498 497 517
 738 739 726
 648 644 642
 609 614 607
 665 661 659
 494 493 505
 742 743 729
 502 501 527
 591 595 588
 745 746 734
 499 498 518
 626 630 624
 652 648 646
 606 609 604
 670 665 663
 495 494 507
 741 742 728
 636 629 627
 597 602 596
 747 748 736
 497 496 512
 739 740 727
 644 640 638
 614 619 613
 661 658 654
 493 492 503
 743 744 731
 501 500 524
 584 587 586
 733 738 726
 673 672 668
 531 502 527
 586 591 588
 586 588 585
 659 661 654
 659 654 647
 512 496 510
 512 510 514
 730 741 728
 730 728 719
 646 648 642
 646 642 637
 650 652 646
 650 646 637
 588 595 593
 588 593 585
 654 658 650
 654 650 647
 517 497 512
 517 512 514
 728 742 729
 728 729 719
 523 499 518
 523 518 519
 729 743 731
 729 731 722
 638 640 632
 638 632 625
 593 597 596
 593 596 592
 663 665 659
 663 659 656
 668 670 663
 668 663 656
 518 498 517
 518 517 519
 731 744 732
 731 732 722
 642 644 638
 642 638 637
 596 602 599
 596 599 592
 732 745 734
 732 734 720
 505 493 503
 505 503 509
 727 740 730
 727 730 719
 632 636 627
 632 627 625
 604 609 607
 604 607 600
 599 606 604
 599 604 600
 734 746 735
 734 721 720
 503 492 504
 726 739 727
 726 727 716
 627 629 621
 618 626 624
 618 624 610
 527 501 524
 527 524 525
 613 619 618
 613 618 610
 735 747 736
 735 736 721
 507 494 505
 507 505 509
 510 495 507
 510 507 514
 624 630 631
 524 500 523
 524 523 525
 607 614 613
 607 613 600
 736 748 737
 584 586 581
 733 726 718
 673 668 666
 531 527 530
 503 504 506
 627 621 615
 624 631 620
 736 737 723
 579 584 581
 724 733 718
 674 673 666
 533 531 530
 579 581 577
 724 718 712
 674 666 667
 533 530 534
 504 508 506
 631 634 620
 737 725 723
 621 611 615
 581 586 585
 581 585 578
 718 726 716
 718 716 706
 666 668 656
 666 656 651
 530 527 525
 530 525 532
 593 592 585
 729 722 719
 509 503 506
 509 506 515
 523 519 525
 716 727 719
 735 721 734
 638 625 637
 610 624 620
 610 620 608
 656 659 647
 732 720 722
 721 736 723
 721 723 711
 506 508 511
 620 634 622
 723 725 714
 615 611 603
 627 615 625
 576 579 577
 576 577 572
 715 724 712
 715 712 710
 675 674 667
 675 667 676
 536 533 534
 536 534 539
 577 581 578
 712 718 706
 667 666 651
 534 530 532
 508 513 511
 511 513 521
 634 635 622
 622 635 639
 725 717 714
 714 717 713
 611 601 603
 603 601 590
 585 592 583
 525 519 526
 720 721 709
 656 647 641
 719 722 708
 716 719 707
 637 625 616
 722 720 708
 506 511 515
 515 511 520
 620 622 608
 608 622 612
 723 714 711
 711 714 704
 615 603 605
 605 603 594
 650 637 647
 514 507 509
 599 600 592
 600 613 610
 519 517 514
 577 578 574
 712 706 702
 667 651 653
 534 532 538
 625 615 605
 605 616 625
 711 709 721
 608 598 610
 515 516 509
 628 641 647
 708 707 719
 589 583 592
 522 526 519
 616 628 637
 709 708 720
 598 589 600
 516 522 514
 641 651 656
 707 706 716
 583 578 585
 526 532 525
 637 628 647
 514 522 519
 600 589 592
 570 572 571
 677 676 655
 703 710 698
 542 539 540
 520 511 521
 612 622 639
 704 714 713
 594 603 590
 610 598 600
 509 516 514
 521 529 528
 639 643 617
 713 705 700
 590 580 582
 582 594 590
 700 704 713
 617 612 639
 528 520 521
 572 577 574
 710 712 702
 676 667 653
 539 534 538
 538 540 539
 653 655 676
 702 698 710
 574 571 572
 567 570 571
 699 703 698
 678 677 655
 545 542 540
 529 537 535
 643 649 623
 705 701 696
 580 573 575
 575 582 580
 696 700 705
 623 617 643
 535 528 529
 535 537 541
 623 649 633
 696 701 693
 575 573 569
 540 544 545
 545 544 549
 655 660 678
 678 660 680
 698 694 699
 699 694 695
 571 566 567
 567 566 563
 537 543 541
 541 543 546
 649 657 633
 633 657 645
 701 697 693
 693 697 689
 573 568 569
 569 568 565
 544 548 549
 549 548 552
 660 664 680
 680 664 683
 694 690 695
 695 690 691
 566 562 563
 563 562 560
 543 547 546
 546 547 550
 657 669 645
 645 669 662
 697 692 689
 689 692 684
 568 564 565
 565 564 561
 548 553 552
 552 553 555
 664 671 683
 683 671 685
 690 686 691
 691 686 687
 562 558 560
 560 558 557
 555 553 556
 555 556 559
 685 671 682
 685 682 688
 687 686 679
 687 679 681
 557 558 554
 557 554 551
 550 547 551
 550 551 554
 662 669 681
 662 681 679
 684 692 688
 684 688 682
 561 564 559
 561 559 556
 137 144 843
 990 991 978
 778 773 777
 173 178 867
 904 898 896
 156 160 852
 918 916 914
 761 759 760
 986 987 976
 886 882 878
 148 152 848
 992 993 981
 770 766 769
 984 985 972
 894 890 888
 166 169 858
 911 907 905
 754 750 753
 988 989 975
 786 781 783
 144 148 844
 991 992 980
 773 770 771
 178 180 872
 898 894 892
 160 166 856
 916 911 909
 759 754 756
 987 988 974
 882 876 874
 152 156 850
 993 994 982
 766 761 763
 985 986 973
 890 886 884
 169 173 863
 907 904 900
 750 749 751
 989 990 977
 781 778 779
 841 137 843
 979 984 972
 919 918 914
 788 786 783
 843 144 844
 843 844 842
 905 907 900
 905 900 893
 763 761 760
 763 760 765
 976 987 974
 976 974 965
 892 894 888
 892 888 883
 896 898 892
 896 892 883
 844 148 848
 844 848 842
 900 904 896
 900 896 893
 769 766 763
 769 763 765
 974 988 975
 974 975 965
 777 773 771
 777 771 772
 975 989 977
 975 977 968
 884 886 878
 884 878 873
 848 152 850
 848 850 847
 909 911 905
 909 905 902
 914 916 909
 914 909 902
 771 770 769
 771 769 772
 977 990 978
 977 978 968
 888 890 884
 888 884 883
 850 156 852
 850 852 847
 978 991 980
 978 980 966
 753 750 751
 753 751 758
 973 986 976
 973 976 965
 878 882 874
 878 874 873
 856 166 858
 856 858 853
 852 160 856
 852 856 853
 980 992 981
 980 967 966
 751 749 752
 972 985 973
 972 973 962
 874 876 869
 867 178 872
 867 872 860
 783 781 779
 783 779 780
 863 173 867
 863 867 860
 981 993 982
 981 982 967
 756 754 753
 756 753 758
 760 759 756
 760 756 765
 872 180 877
 779 778 777
 779 777 780
 858 169 863
 858 863 853
 982 994 983
 841 843 838
 979 972 964
 919 914 912
 788 783 787
 751 752 755
 874 869 864
 872 877 868
 982 983 969
 836 841 838
 970 979 964
 920 919 912
 790 788 787
 836 838 834
 970 964 958
 920 912 913
 790 787 791
 752 757 755
 877 880 868
 983 971 969
 869 861 864
 838 843 842
 838 842 835
 964 972 962
 964 962 952
 912 914 902
 912 902 897
 787 783 780
 787 780 789
 848 847 842
 975 968 965
 758 751 755
 758 755 767
 777 772 780
 962 973 965
 981 967 980
 884 873 883
 860 872 868
 860 868 859
 902 905 893
 978 966 968
 967 982 969
 967 969 957
 755 757 762
 868 880 870
 969 971 960
 864 861 855
 874 864 873
 833 836 834
 833 834 829
 961 970 958
 961 958 956
 921 920 913
 921 913 922
 793 790 791
 793 791 796
 834 838 835
 958 964 952
 913 912 897
 791 787 789
 757 764 762
 762 764 775
 880 881 870
 870 881 885
 971 963 960
 960 963 959
 861 854 855
 855 854 846
 842 847 840
 780 772 782
 966 967 955
 902 893 887
 965 968 954
 962 965 953
 883 873 865
 968 966 954
 755 762 767
 767 762 774
 868 870 859
 859 870 862
 969 960 957
 957 960 950
 864 855 857
 857 855 849
 896 883 893
 765 756 758
 852 853 847
 853 863 860
 772 769 765
 834 835 831
 958 952 948
 913 897 899
 791 789 795
 873 864 857
 857 865 873
 957 955 967
 859 851 860
 767 768 758
 875 887 893
 954 953 965
 845 840 847
 776 782 772
 865 875 883
 955 954 966
 851 845 853
 768 776 765
 887 897 902
 953 952 962
 840 835 842
 782 789 780
 883 875 893
 765 776 772
 853 845 847
 827 829 828
 923 922 901
 949 956 944
 799 796 797
 774 762 775
 862 870 885
 950 960 959
 849 855 846
 860 851 853
 758 768 765
 775 785 784
 885 889 866
 959 951 946
 846 837 839
 839 849 846
 946 950 959
 866 862 885
 784 774 775
 829 834 831
 956 958 948
 922 913 899
 796 791 795
 795 797 796
 899 901 922
 948 944 956
 831 828 829
 824 827 828
 945 949 944
 924 923 901
 802 799 797
 785 794 792
 889 895 871
 951 947 942
 837 830 832
 832 839 837
 942 946 951
 871 866 889
 792 784 785
 792 794 798
 871 895 879
 942 947 939
 832 830 826
 797 801 802
 802 801 806
 901 906 924
 924 906 926
 944 940 945
 945 940 941
 828 823 824
 824 823 820
 794 800 798
 798 800 803
 895 903 879
 879 903 891
 947 943 939
 939 943 935
 830 825 826
 826 825 822
 801 805 806
 806 805 809
 906 910 926
 926 910 929
 940 936 941
 941 936 937
 823 819 820
 820 819 817
 800 804 803
 803 804 807
 903 915 891
 891 915 908
 943 938 935
 935 938 930
 825 821 822
 822 821 818
 805 810 809
 809 810 812
 910 917 929
 929 917 931
 936 932 937
 937 932 933
 819 815 817
 817 815 814
 812 810 813
 812 813 816
 931 917 928
 931 928 934
 933 932 925
 933 925 927
 814 815 811
 814 811 808
 807 804 808
 807 808 811
 908 915 927
 908 927 925
 930 938 934
 930 934 928
 818 821 816
 818 816 813
 383 390 1078
 1225 1226 1213
 992 991 1015
 419 424 1102
 1139 1133 1131
 402 406 1087
 1153 1151 1149
 988 987 1002
 1221 1222 1211
 1121 1117 1113
 394 398 1083
 1227 1228 1216
 990 989 1009
 1219 1220 1207
 1129 1125 1123
 412 415 1093
 1146 1142 1140
 986 985 997
 1223 1224 1210
 994 993 1019
 390 394 1079
 1226 1227 1215
 991 990 1010
 424 426 1107
 1133 1129 1127
 406 412 1091
 1151 1146 1144
 987 986 999
 1222 1223 1209
 1117 1111 1109
 398 402 1085
 1228 1229 1217
 989 988 1004
 1220 1221 1208
 1125 1121 1119
 415 419 1098
 1142 1139 1135
 985 984 995
 1224 1225 1212
 993 992 1016
 1076 383 1078
 1214 1219 1207
 1154 1153 1149
 1023 994 1019
 1078 390 1079
 1078 1079 1077
 1140 1142 1135
 1140 1135 1128
 1004 988 1002
 1004 1002 1006
 1211 1222 1209
 1211 1209 1200
 1127 1129 1123
 1127 1123 1118
 1131 1133 1127
 1131 1127 1118
 1079 394 1083
 1079 1083 1077
 1135 1139 1131
 1135 1131 1128
 1009 989 1004
 1009 1004 1006
 1209 1223 1210
 1209 1210 1200
 1015 991 1010
 1015 1010 1011
 1210 1224 1212
 1210 1212 1203
 1119 1121 1113
 1119 1113 1108
 1083 398 1085
 1083 1085 1082
 1144 1146 1140
 1144 1140 1137
 1149 1151 1144
 1149 1144 1137
 1010 990 1009
 1010 1009 1011
 1212 1225 1213
 1212 1213 1203
 1123 1125 1119
 1123 1119 1118
 1085 402 1087
 1085 1087 1082
 1213 1226 1215
 1213 1215 1201
 997 985 995
 997 995 1001
 1208 1221 1211
 1208 1211 1200
 1113 1117 1109
 1113 1109 1108
 1091 412 1093
 1091 1093 1088
 1087 406 1091
 1087 1091 1088
 1215 1227 1216
 1215 1202 1201
 995 984 996
 1207 1220 1208
 1207 1208 1197
 1109 1111 1104
 1102 424 1107
 1102 1107 1095
 1019 993 1016
 1019 1016 1017
 1098 419 1102
 1098 1102 1095
 1216 1228 1217
 1216 1217 1202
 999 986 997
 999 997 1001
 1002 987 999
 1002 999 1006
 1107 426 1112
 1016 992 1015
 1016 1015 1017
 1093 415 1098
 1093 1098 1088
 1217 1229 1218
 1076 1078 1073
 1214 1207 1199
 1154 1149 1147
 1023 1019 1022
 995 996 998
 1109 1104 1099
 1107 1112 1103
 1217 1218 1204
 1071 1076 1073
 1205 1214 1199
 1155 1154 1147
 1025 1023 1022
 1071 1073 1069
 1205 1199 1193
 1155 1147 1148
 1025 1022 1026
 996 1000 998
 1112 1115 1103
 1218 1206 1204
 1104 1096 1099
 1073 1078 1077
 1073 1077 1070
 1199 1207 1197
 1199 1197 1187
 1147 1149 1137
 1147 1137 1132
 1022 1019 1017
 1022 1017 1024
 1083 1082 1077
 1210 1203 1200
 1001 995 998
 1001 998 1007
 1015 1011 1017
 1197 1208 1200
 1216 1202 1215
 1119 1108 1118
 1095 1107 1103
 1095 1103 1094
 1137 1140 1128
 1213 1201 1203
 1202 1217 1204
 1202 1204 1192
 998 1000 1003
 1103 1115 1105
 1204 1206 1195
 1099 1096 1090
 1109 1099 1108
 1068 1071 1069
 1068 1069 1064
 1196 1205 1193
 1196 1193 1191
 1156 1155 1148
 1156 1148 1157
 1028 1025 1026
 1028 1026 1031
 1069 1073 1070
 1193 1199 1187
 1148 1147 1132
 1026 1022 1024
 1000 1005 1003
 1003 1005 1013
 1115 1116 1105
 1105 1116 1120
 1206 1198 1195
 1195 1198 1194
 1096 1089 1090
 1090 1089 1081
 1077 1082 1075
 1017 1011 1018
 1201 1202 1190
 1137 1128 1122
 1200 1203 1189
 1197 1200 1188
 1118 1108 1100
 1203 1201 1189
 998 1003 1007
 1007 1003 1012
 1103 1105 1094
 1094 1105 1097
 1204 1195 1192
 1192 1195 1185
 1099 1090 1092
 1092 1090 1084
 1131 1118 1128
 1006 999 1001
 1087 1088 1082
 1088 1098 1095
 1011 1009 1006
 1069 1070 1066
 1193 1187 1183
 1148 1132 1134
 1026 1024 1030
 1108 1099 1092
 1092 1100 1108
 1192 1190 1202
 1094 1086 1095
 1007 1008 1001
 1110 1122 1128
 1189 1188 1200
 1080 1075 1082
 1014 1018 1011
 1100 1110 1118
 1190 1189 1201
 1086 1080 1088
 1008 1014 1006
 1122 1132 1137
 1188 1187 1197
 1075 1070 1077
 1018 1024 1017
 1118 1110 1128
 1006 1014 1011
 1088 1080 1082
 1062 1064 1063
 1158 1157 1136
 1184 1191 1179
 1034 1031 1032
 1012 1003 1013
 1097 1105 1120
 1185 1195 1194
 1084 1090 1081
 1095 1086 1088
 1001 1008 1006
 1013 1021 1020
 1120 1124 1101
 1194 1186 1181
 1081 1072 1074
 1074 1084 1081
 1181 1185 1194
 1101 1097 1120
 1020 1012 1013
 1064 1069 1066
 1191 1193 1183
 1157 1148 1134
 1031 1026 1030
 1030 1032 1031
 1134 1136 1157
 1183 1179 1191
 1066 1063 1064
 1059 1062 1063
 1180 1184 1179
 1159 1158 1136
 1037 1034 1032
 1021 1029 1027
 1124 1130 1106
 1186 1182 1177
 1072 1065 1067
 1067 1074 1072
 1177 1181 1186
 1106 1101 1124
 1027 1020 1021
 1027 1029 1033
 1106 1130 1114
 1177 1182 1174
 1067 1065 1061
 1032 1036 1037
 1037 1036 1041
 1136 1141 1159
 1159 1141 1161
 1179 1175 1180
 1180 1175 1176
 1063 1058 1059
 1059 1058 1055
 1029 1035 1033
 1033 1035 1038
 1130 1138 1114
 1114 1138 1126
 1182 1178 1174
 1174 1178 1170
 1065 1060 1061
 1061 1060 1057
 1036 1040 1041
 1041 1040 1044
 1141 1145 1161
 1161 1145 1164
 1175 1171 1176
 1176 1171 1172
 1058 1054 1055
 1055 1054 1052
 1035 1039 1038
 1038 1039 1042
 1138 1150 1126
 1126 1150 1143
 1178 1173 1170
 1170 1173 1165
 1060 1056 1057
 1057 1056 1053
 1040 1045 1044
 1044 1045 1047
 1145 1152 1164
 1164 1152 1166
 1171 1167 1172
 1172 1167 1168
 1054 1050 1052
 1052 1050 1049
 1047 1045 1048
 1047 1048 1051
 1166 1152 1163
 1166 1163 1169
 1168 1167 1160
 1168 1160 1162
 1049 1050 1046
 1049 1046 1043
 1042 1039 1043
 1042 1043 1046
 1143 1150 1162
 1143 1162 1160
 1165 1173 1169
 1165 1169 1163
 1053 1056 1051
 1053 1051 1048
 629 636 1313
 1460 1461 1448
 1227 1226 1250
 665 670 1337
 1374 1368 1366
 648 652 1322
 1388 1386 1384
 1223 1222 1237
 1456 1457 1446
 1356 1352 1348
 640 644 1318
 1462 1463 1451
 1225 1224 1244
 1454 1455 1442
 1364 1360 1358
 658 661 1328
 1381 1377 1375
 1221 1220 1232
 1458 1459 1445
 1229 1228 1254
 636 640 1314
 1461 1462 1450
 1226 1225 1245
 670 672 1342
 1368 1364 1362
 652 658 1326
 1386 1381 1379
 1222 1221 1234
 1457 1458 1444
 1352 1346 1344
 644 648 1320
 1463 1464 1452
 1224 1223 1239
 1455 1456 1443
 1360 1356 1354
 661 665 1333
 1377 1374 1370
 1220 1219 1230
 1459 1460 1447
 1228 1227 1251
 1311 629 1313
 1449 1454 1442
 1389 1388 1384
 1258 1229 1254
 1313 636 1314
 1313 1314 1312
 1375 1377 1370
 1375 1370 1363
 1239 1223 1237
 1239 1237 1241
 1446 1457 1444
 1446 1444 1435
 1362 1364 1358
 1362 1358 1353
 1366 1368 1362
 1366 1362 1353
 1314 640 1318
 1314 1318 1312
 1370 1374 1366
 1370 1366 1363
 1244 1224 1239
 1244 1239 1241
 1444 1458 1445
 1444 1445 1435
 1250 1226 1245
 1250 1245 1246
 1445 1459 1447
 1445 1447 1438
 1354 1356 1348
 1354 1348 1343
 1318 644 1320
 1318 1320 1317
 1379 1381 1375
 1379 1375 1372
 1384 1386 1379
 1384 1379 1372
 1245 1225 1244
 1245 1244 1246
 1447 1460 1448
 1447 1448 1438
 1358 1360 1354
 1358 1354 1353
 1320 648 1322
 1320 1322 1317
 1448 1461 1450
 1448 1450 1436
 1232 1220 1230
 1232 1230 1236
 1443 1456 1446
 1443 1446 1435
 1348 1352 1344
 1348 1344 1343
 1326 658 1328
 1326 1328 1323
 1322 652 1326
 1322 1326 1323
 1450 1462 1451
 1450 1437 1436
 1230 1219 1231
 1442 1455 1443
 1442 1443 1432
 1344 1346 1339
 1337 670 1342
 1337 1342 1330
 1254 1228 1251
 1254 1251 1252
 1333 665 1337
 1333 1337 1330
 1451 1463 1452
 1451 1452 1437
 1234 1221 1232
 1234 1232 1236
 1237 1222 1234
 1237 1234 1241
 1342 672 1347
 1251 1227 1250
 1251 1250 1252
 1328 661 1333
 1328 1333 1323
 1452 1464 1453
 1311 1313 1308
 1449 1442 1434
 1389 1384 1382
 1258 1254 1257
 1230 1231 1233
 1344 1339 1334
 1342 1347 1338
 1452 1453 1439
 1306 1311 1308
 1440 1449 1434
 1390 1389 1382
 1260 1258 1257
 1306 1308 1304
 1440 1434 1428
 1390 1382 1383
 1260 1257 1261
 1231 1235 1233
 1347 1350 1338
 1453 1441 1439
 1339 1331 1334
 1308 1313 1312
 1308 1312 1305
 1434 1442 1432
 1434 1432 1422
 1382 1384 1372
 1382 1372 1367
 1257 1254 1252
 1257 1252 1259
 1318 1317 1312
 1445 1438 1435
 1236 1230 1233
 1236 1233 1242
 1250 1246 1252
 1432 1443 1435
 1451 1437 1450
 1354 1343 1353
 1330 1342 1338
 1330 1338 1329
 1372 1375 1363
 1448 1436 1438
 1437 1452 1439
 1437 1439 1427
 1233 1235 1238
 1338 1350 1340
 1439 1441 1430
 1334 1331 1325
 1344 1334 1343
 1303 1306 1304
 1303 1304 1299
 1431 1440 1428
 1431 1428 1426
 1391 1390 1383
 1391 1383 1392
 1263 1260 1261
 1263 1261 1266
 1304 1308 1305
 1428 1434 1422
 1383 1382 1367
 1261 1257 1259
 1235 1240 1238
 1238 1240 1248
 1350 1351 1340
 1340 1351 1355
 1441 1433 1430
 1430 1433 1429
 1331 1324 1325
 1325 1324 1316
 1312 1317 1310
 1252 1246 1253
 1436 1437 1425
 1372 1363 1357
 1435 1438 1424
 1432 1435 1423
 1353 1343 1335
 1438 1436 1424
 1233 1238 1242
 1242 1238 1247
 1338 1340 1329
 1329 1340 1332
 1439 1430 1427
 1427 1430 1420
 1334 1325 1327
 1327 1325 1319
 1366 1353 1363
 1241 1234 1236
 1322 1323 1317
 1323 1333 1330
 1246 1244 1241
 1304 1305 1301
 1428 1422 1418
 1383 1367 1369
 1261 1259 1265
 1343 1334 1327
 1327 1335 1343
 1427 1425 1437
 1329 1321 1330
 1242 1243 1236
 1345 1357 1363
 1424 1423 1435
 1315 1310 1317
 1249 1253 1246
 1335 1345 1353
 1425 1424 1436
 1321 1315 1323
 1243 1249 1241
 1357 1367 1372
 1423 1422 1432
 1310 1305 1312
 1253 1259 1252
 1353 1345 1363
 1241 1249 1246
 1323 1315 1317
 1297 1299 1298
 1393 1392 1371
 1419 1426 1414
 1269 1266 1267
 1247 1238 1248
 1332 1340 1355
 1420 1430 1429
 1319 1325 1316
 1330 1321 1323
 1236 1243 1241
 1248 1256 1255
 1355 1359 1336
 1429 1421 1416
 1316 1307 1309
 1309 1319 1316
 1416 1420 1429
 1336 1332 1355
 1255 1247 1248
 1299 1304 1301
 1426 1428 1418
 1392 1383 1369
 1266 1261 1265
 1265 1267 1266
 1369 1371 1392
 1418 1414 1426
 1301 1298 1299
 1294 1297 1298
 1415 1419 1414
 1394 1393 1371
 1272 1269 1267
 1256 1264 1262
 1359 1365 1341
 1421 1417 1412
 1307 1300 1302
 1302 1309 1307
 1412 1416 1421
 1341 1336 1359
 1262 1255 1256
 1262 1264 1268
 1341 1365 1349
 1412 1417 1409
 1302 1300 1296
 1267 1271 1272
 1272 1271 1276
 1371 1376 1394
 1394 1376 1396
 1414 1410 1415
 1415 1410 1411
 1298 1293 1294
 1294 1293 1290
 1264 1270 1268
 1268 1270 1273
 1365 1373 1349
 1349 1373 1361
 1417 1413 1409
 1409 1413 1405
 1300 1295 1296
 1296 1295 1292
 1271 1275 1276
 1276 1275 1279
 1376 1380 1396
 1396 1380 1399
 1410 1406 1411
 1411 1406 1407
 1293 1289 1290
 1290 1289 1287
 1270 1274 1273
 1273 1274 1277
 1373 1385 1361
 1361 1385 1378
 1413 1408 1405
 1405 1408 1400
 1295 1291 1292
 1292 1291 1288
 1275 1280 1279
 1279 1280 1282
 1380 1387 1399
 1399 1387 1401
 1406 1402 1407
 1407 1402 1403
 1289 1285 1287
 1287 1285 1284
 1282 1280 1283
 1282 1283 1286
 1401 1387 1398
 1401 1398 1404
 1403 1402 1395
 1403 1395 1397
 1284 1285 1281
 1284 1281 1278
 1277 1274 1278
 1277 1278 1281
 1378 1385 1397
 1378 1397 1395
 1400 1408 1404
 1400 1404 1398
 1288 1291 1286
 1288 1286 1283
 876 882 1559
 1706 1707 1694
 1494 1489 1493
 911 916 1583
 1620 1614 1612
 894 898 1568
 1634 1632 1630
 1477 1475 1476
 1702 1703 1692
 1602 1598 1594
 886 890 1564
 1708 1709 1697
 1486 1482 1485
 1700 1701 1688
 1610 1606 1604
 904 907 1574
 1627 1623 1621
 1470 1466 1469
 1704 1705 1691
 1502 1497 1499
 882 886 1560
 1707 1708 1696
 1489 1486 1487
 916 918 1588
 1614 1610 1608
 898 904 1572
 1632 1627 1625
 1475 1470 1472
 1703 1704 1690
 1598 1592 1590
 890 894 1566
 1709 1710 1698
 1482 1477 1479
 1701 1702 1689
 1606 1602 1600
 907 911 1579
 1623 1620 1616
 1466 1465 1467
 1705 1706 1693
 1497 1494 1495
 1557 876 1559
 1695 1700 1688
 1635 1634 1630
 1504 1502 1499
 1559 882 1560
 1559 1560 1558
 1621 1623 1616
 1621 1616 1609
 1479 1477 1476
 1479 1476 1481
 1692 1703 1690
 1692 1690 1681
 1608 1610 1604
 1608 1604 1599
 1612 1614 1608
 1612 1608 1599
 1560 886 1564
 1560 1564 1558
 1616 1620 1612
 1616 1612 1609
 1485 1482 1479
 1485 1479 1481
 1690 1704 1691
 1690 1691 1681
 1493 1489 1487
 1493 1487 1488
 1691 1705 1693
 1691 1693 1684
 1600 1602 1594
 1600 1594 1589
 1564 890 1566
 1564 1566 1563
 1625 1627 1621
 1625 1621 1618
 1630 1632 1625
 1630 1625 1618
 1487 1486 1485
 1487 1485 1488
 1693 1706 1694
 1693 1694 1684
 1604 1606 1600
 1604 1600 1599
 1566 894 1568
 1566 1568 1563
 1694 1707 1696
 1694 1696 1682
 1469 1466 1467
 1469 1467 1474
 1689 1702 1692
 1689 1692 1681
 1594 1598 1590
 1594 1590 1589
 1572 904 1574
 1572 1574 1569
 1568 898 1572
 1568 1572 1569
 1696 1708 1697
 1696 1683 1682
 1467 1465 1468
 1688 1701 1689
 1688 1689 1678
 1590 1592 1585
 1583 916 1588
 1583 1588 1576
 1499 1497 1495
 1499 1495 1496
 1579 911 1583
 1579 1583 1576
 1697 1709 1698
 1697 1698 1683
 1472 1470 1469
 1472 1469 1474
 1476 1475 1472
 1476 1472 1481
 1588 918 1593
 1495 1494 1493
 1495 1493 1496
 1574 907 1579
 1574 1579 1569
 1698 1710 1699
 1557 1559 1554
 1695 1688 1680
 1635 1630 1628
 1504 1499 1503
 1467 1468 1471
 1590 1585 1580
 1588 1593 1584
 1698 1699 1685
 1552 1557 1554
 1686 1695 1680
 1636 1635 1628
 1506 1504 1503
 1552 1554 1550
 1686 1680 1674
 1636 1628 1629
 1506 1503 1507
 1468 1473 1471
 1593 1596 1584
 1699 1687 1685
 1585 1577 1580
 1554 1559 1558
 1554 1558 1551
 1680 1688 1678
 1680 1678 1668
 1628 1630 1618
 1628 1618 1613
 1503 1499 1496
 1503 1496 1505
 1564 1563 1558
 1691 1684 1681
 1474 1467 1471
 1474 1471 1483
 1493 1488 1496
 1678 1689 1681
 1697 1683 1696
 1600 1589 1599
 1576 1588 1584
 1576 1584 1575
 1618 1621 1609
 1694 1682 1684
 1683 1698 1685
 1683 1685 1673
 1471 1473 1478
 1584 1596 1586
 1685 1687 1676
 1580 1577 1571
 1590 1580 1589
 1549 1552 1550
 1549 1550 1545
 1677 1686 1674
 1677 1674 1672
 1637 1636 1629
 1637 1629 1638
 1509 1506 1507
 1509 1507 1512
 1550 1554 1551
 1674 1680 1668
 1629 1628 1613
 1507 1503 1505
 1473 1480 1478
 1478 1480 1491
 1596 1597 1586
 1586 1597 1601
 1687 1679 1676
 1676 1679 1675
 1577 1570 1571
 1571 1570 1562
 1558 1563 1556
 1496 1488 1498
 1682 1683 1671
 1618 1609 1603
 1681 1684 1670
 1678 1681 1669
 1599 1589 1581
 1684 1682 1670
 1471 1478 1483
 1483 1478 1490
 1584 1586 1575
 1575 1586 1578
 1685 1676 1673
 1673 1676 1666
 1580 1571 1573
 1573 1571 1565
 1612 1599 1609
 1481 1472 1474
 1568 1569 1563
 1569 1579 1576
 1488 1485 1481
 1550 1551 1547
 1674 1668 1664
 1629 1613 1615
 1507 1505 1511
 1589 1580 1573
 1573 1581 1589
 1673 1671 1683
 1575 1567 1576
 1483 1484 1474
 1591 1603 1609
 1670 1669 1681
 1561 1556 1563
 1492 1498 1488
 1581 1591 1599
 1671 1670 1682
 1567 1561 1569
 1484 1492 1481
 1603 1613 1618
 1669 1668 1678
 1556 1551 1558
 1498 1505 1496
 1599 1591 1609
 1481 1492 1488
 1569 1561 1563
 1543 1545 1544
 1639 1638 1617
 1665 1672 1660
 1515 1512 1513
 1490 1478 1491
 1578 1586 1601
 1666 1676 1675
 1565 1571 1562
 1576 1567 1569
 1474 1484 1481
 1491 1501 1500
 1601 1605 1582
 1675 1667 1662
 1562 1553 1555
 1555 1565 1562
 1662 1666 1675
 1582 1578 1601
 1500 1490 1491
 1545 1550 1547
 1672 1674 1664
 1638 1629 1615
 1512 1507 1511
 1511 1513 1512
 1615 1617 1638
 1664 1660 1672
 1547 1544 1545
 1540 1543 1544
 1661 1665 1660
 1640 1639 1617
 1518 1515 1513
 1501 1510 1508
 1605 1611 1587
 1667 1663 1658
 1553 1546 1548
 1548 1555 1553
 1658 1662 1667
 1587 1582 1605
 1508 1500 1501
 1508 1510 1514
 1587 1611 1595
 1658 1663 1655
 1548 1546 1542
 1513 1517 1518
 1518 1517 1522
 1617 1622 1640
 1640 1622 1642
 1660 1656 1661
 1661 1656 1657
 1544 1539 1540
 1540 1539 1536
 1510 1516 1514
 1514 1516 1519
 1611 1619 1595
 1595 1619 1607
 1663 1659 1655
 1655 1659 1651
 1546 1541 1542
 1542 1541 1538
 1517 1521 1522
 1522 1521 1525
 1622 1626 1642
 1642 1626 1645
 1656 1652 1657
 1657 1652 1653
 1539 1535 1536
 1536 1535 1533
 1516 1520 1519
 1519 1520 1523
 1619 1631 1607
 1607 1631 1624
 1659 1654 1651
 1651 1654 1646
 1541 1537 1538
 1538 1537 1534
 1521 1526 1525
 1525 1526 1528
 1626 1633 1645
 1645 1633 1647
 1652 1648 1653
 1653 1648 1649
 1535 1531 1533
 1533 1531 1530
 1528 1526 1529
 1528 1529 1532
 1647 1633 1644
 1647 1644 1650
 1649 1648 1641
 1649 1641 1643
 1530 1531 1527
 1530 1527 1524
 1523 1520 1524
 1523 1524 1527
 1624 1631 1643
 1624 1643 1641
 1646 1654 1650
 1646 1650 1644
 1534 1537 1532
 1534 1532 1529
 1111 1117 1794
 1941 1942 1929
 1708 1707 1731
 1146 1151 1818
 1855 1849 1847
 1129 1133 1803
 1869 1867 1865
 1704 1703 1718
 1937 1938 1927
 1837 1833 1829
 1121 1125 1799
 1943 1944 1932
 1706 1705 1725
 1935 1936 1923
 1845 1841 1839
 1139 1142 1809
 1862 1858 1856
 1702 1701 1713
 1939 1940 1926
 1710 1709 1735
 1117 1121 1795
 1942 1943 1931
 1707 1706 1726
 1151 1153 1823
 1849 1845 1843
 1133 1139 1807
 1867 1862 1860
 1703 1702 1715
 1938 1939 1925
 1833 1827 1825
 1125 1129 1801
 1944 1945 1933
 1705 1704 1720
 1936 1937 1924
 1841 1837 1835
 1142 1146 1814
 1858 1855 1851
 1701 1700 1711
 1940 1941 1928
 1709 1708 1732
 1792 1111 1794
 1930 1935 1923
 1870 1869 1865
 1739 1710 1735
 1794 1117 1795
 1794 1795 1793
 1856 1858 1851
 1856 1851 1844
 1720 1704 1718
 1720 1718 1722
 1927 1938 1925
 1927 1925 1916
 1843 1845 1839
 1843 1839 1834
 1847 1849 1843
 1847 1843 1834
 1795 1121 1799
 1795 1799 1793
 1851 1855 1847
 1851 1847 1844
 1725 1705 1720
 1725 1720 1722
 1925 1939 1926
 1925 1926 1916
 1731 1707 1726
 1731 1726 1727
 1926 1940 1928
 1926 1928 1919
 1835 1837 1829
 1835 1829 1824
 1799 1125 1801
 1799 1801 1798
 1860 1862 1856
 1860 1856 1853
 1865 1867 1860
 1865 1860 1853
 1726 1706 1725
 1726 1725 1727
 1928 1941 1929
 1928 1929 1919
 1839 1841 1835
 1839 1835 1834
 1801 1129 1803
 1801 1803 1798
 1929 1942 1931
 1929 1931 1917
 1713 1701 1711
 1713 1711 1717
 1924 1937 1927
 1924 1927 1916
 1829 1833 1825
 1829 1825 1824
 1807 1139 1809
 1807 1809 1804
 1803 1133 1807
 1803 1807 1804
 1931 1943 1932
 1931 1918 1917
 1711 1700 1712
 1923 1936 1924
 1923 1924 1913
 1825 1827 1820
 1818 1151 1823
 1818 1823 1811
 1735 1709 1732
 1735 1732 1733
 1814 1146 1818
 1814 1818 1811
 1932 1944 1933
 1932 1933 1918
 1715 1702 1713
 1715 1713 1717
 1718 1703 1715
 1718 1715 1722
 1823 1153 1828
 1732 1708 1731
 1732 1731 1733
 1809 1142 1814
 1809 1814 1804
 1933 1945 1934
 1792 1794 1789
 1930 1923 1915
 1870 1865 1863
 1739 1735 1738
 1711 1712 1714
 1825 1820 1815
 1823 1828 1819
 1933 1934 1920
 1787 1792 1789
 1921 1930 1915
 1871 1870 1863
 1741 1739 1738
 1787 1789 1785
 1921 1915 1909
 1871 1863 1864
 1741 1738 1742
 1712 1716 1714
 1828 1831 1819
 1934 1922 1920
 1820 1812 1815
 1789 1794 1793
 1789 1793 1786
 1915 1923 1913
 1915 1913 1903
 1863 1865 1853
 1863 1853 1848
 1738 1735 1733
 1738 1733 1740
 1799 1798 1793
 1926 1919 1916
 1717 1711 1714
 1717 1714 1723
 1731 1727 1733
 1913 1924 1916
 1932 1918 1931
 1835 1824 1834
 1811 1823 1819
 1811 1819 1810
 1853 1856 1844
 1929 1917 1919
 1918 1933 1920
 1918 1920 1908
 1714 1716 1719
 1819 1831 1821
 1920 1922 1911
 1815 1812 1806
 1825 1815 1824
 1784 1787 1785
 1784 1785 1780
 1912 1921 1909
 1912 1909 1907
 1872 1871 1864
 1872 1864 1873
 1744 1741 1742
 1744 1742 1747
 1785 1789 1786
 1909 1915 1903
 1864 1863 1848
 1742 1738 1740
 1716 1721 1719
 1719 1721 1729
 1831 1832 1821
 1821 1832 1836
 1922 1914 1911
 1911 1914 1910
 1812 1805 1806
 1806 1805 1797
 1793 1798 1791
 1733 1727 1734
 1917 1918 1906
 1853 1844 1838
 1916 1919 1905
 1913 1916 1904
 1834 1824 1816
 1919 1917 1905
 1714 1719 1723
 1723 1719 1728
 1819 1821 1810
 1810 1821 1813
 1920 1911 1908
 1908 1911 1901
 1815 1806 1808
 1808 1806 1800
 1847 1834 1844
 1722 1715 1717
 1803 1804 1798
 1804 1814 1811
 1727 1725 1722
 1785 1786 1782
 1909 1903 1899
 1864 1848 1850
 1742 1740 1746
 1824 1815 1808
 1808 1816 1824
 1908 1906 1918
 1810 1802 1811
 1723 1724 1717
 1826 1838 1844
 1905 1904 1916
 1796 1791 1798
 1730 1734 1727
 1816 1826 1834
 1906 1905 1917
 1802 1796 1804
 1724 1730 1722
 1838 1848 1853
 1904 1903 1913
 1791 1786 1793
 1734 1740 1733
 1834 1826 1844
 1722 1730 1727
 1804 1796 1798
 1778 1780 1779
 1874 1873 1852
 1900 1907 1895
 1750 1747 1748
 1728 1719 1729
 1813 1821 1836
 1901 1911 1910
 1800 1806 1797
 1811 1802 1804
 1717 1724 1722
 1729 1737 1736
 1836 1840 1817
 1910 1902 1897
 1797 1788 1790
 1790 1800 1797
 1897 1901 1910
 1817 1813 1836
 1736 1728 1729
 1780 1785 1782
 1907 1909 1899
 1873 1864 1850
 1747 1742 1746
 1746 1748 1747
 1850 1852 1873
 1899 1895 1907
 1782 1779 1780
 1775 1778 1779
 1896 1900 1895
 1875 1874 1852
 1753 1750 1748
 1737 1745 1743
 1840 1846 1822
 1902 1898 1893
 1788 1781 1783
 1783 1790 1788
 1893 1897 1902
 1822 1817 1840
 1743 1736 1737
 1743 1745 1749
 1822 1846 1830
 1893 1898 1890
 1783 1781 1777
 1748 1752 1753
 1753 1752 1757
 1852 1857 1875
 1875 1857 1877
 1895 1891 1896
 1896 1891 1892
 1779 1774 1775
 1775 1774 1771
 1745 1751 1749
 1749 1751 1754
 1846 1854 1830
 1830 1854 1842
 1898 1894 1890
 1890 1894 1886
 1781 1776 1777
 1777 1776 1773
 1752 1756 1757
 1757 1756 1760
 1857 1861 1877
 1877 1861 1880
 1891 1887 1892
 1892 1887 1888
 1774 1770 1771
 1771 1770 1768
 1751 1755 1754
 1754 1755 1758
 1854 1866 1842
 1842 1866 1859
 1894 1889 1886
 1886 1889 1881
 1776 1772 1773
 1773 1772 1769
 1756 1761 1760
 1760 1761 1763
 1861 1868 1880
 1880 1868 1882
 1887 1883 1888
 1888 1883 1884
 1770 1766 1768
 1768 1766 1765
 1763 1761 1764
 1763 1764 1767
 1882 1868 1879
 1882 1879 1885
 1884 1883 1876
 1884 1876 1878
 1765 1766 1762
 1765 1762 1759
 1758 1755 1759
 1758 1759 1762
 1859 1866 1878
 1859 1878 1876
 1881 1889 1885
 1881 1885 1879
 1769 1772 1767
 1769 1767 1764
 1346 1352 2029
 2176 2177 2164
 1943 1942 1966
 1381 1386 2053
 2090 2084 2082
 1364 1368 2038
 2104 2102 2100
 1939 1938 1953
 2172 2173 2162
 2072 2068 2064
 1356 1360 2034
 2178 2179 2167
 1941 1940 1960
 2170 2171 2158
 2080 2076 2074
 1374 1377 2044
 2097 2093 2091
 1937 1936 1948
 2174 2175 2161
 1945 1944 1970
 1352 1356 2030
 2177 2178 2166
 1942 1941 1961
 1386 1388 2058
 2084 2080 2078
 1368 1374 2042
 2102 2097 2095
 1938 1937 1950
 2173 2174 2160
 2068 2062 2060
 1360 1364 2036
 2179 2180 2168
 1940 1939 1955
 2171 2172 2159
 2076 2072 2070
 1377 1381 2049
 2093 2090 2086
 1936 1935 1946
 2175 2176 2163
 1944 1943 1967
 2027 1346 2029
 2165 2170 2158
 2105 2104 2100
 1974 1945 1970
 2029 1352 2030
 2029 2030 2028
 2091 2093 2086
 2091 2086 2079
 1955 1939 1953
 1955 1953 1957
 2162 2173 2160
 2162 2160 2151
 2078 2080 2074
 2078 2074 2069
 2082 2084 2078
 2082 2078 2069
 2030 1356 2034
 2030 2034 2028
 2086 2090 2082
 2086 2082 2079
 1960 1940 1955
 1960 1955 1957
 2160 2174 2161
 2160 2161 2151
 1966 1942 1961
 1966 1961 1962
 2161 2175 2163
 2161 2163 2154
 2070 2072 2064
 2070 2064 2059
 2034 1360 2036
 2034 2036 2033
 2095 2097 2091
 2095 2091 2088
 2100 2102 2095
 2100 2095 2088
 1961 1941 1960
 1961 1960 1962
 2163 2176 2164
 2163 2164 2154
 2074 2076 2070
 2074 2070 2069
 2036 1364 2038
 2036 2038 2033
 2164 2177 2166
 2164 2166 2152
 1948 1936 1946
 1948 1946 1952
 2159 2172 2162
 2159 2162 2151
 2064 2068 2060
 2064 2060 2059
 2042 1374 2044
 2042 2044 2039
 2038 1368 2042
 2038 2042 2039
 2166 2178 2167
 2166 2153 2152
 1946 1935 1947
 2158 2171 2159
 2158 2159 2148
 2060 2062 2055
 2053 1386 2058
 2053 2058 2046
 1970 1944 1967
 1970 1967 1968
 2049 1381 2053
 2049 2053 2046
 2167 2179 2168
 2167 2168 2153
 1950 1937 1948
 1950 1948 1952
 1953 1938 1950
 1953 1950 1957
 2058 1388 2063
 1967 1943 1966
 1967 1966 1968
 2044 1377 2049
 2044 2049 2039
 2168 2180 2169
 2027 2029 2024
 2165 2158 2150
 2105 2100 2098
 1974 1970 1973
 1946 1947 1949
 2060 2055 2050
 2058 2063 2054
 2168 2169 2155
 2022 2027 2024
 2156 2165 2150
 2106 2105 2098
 1976 1974 1973
 2022 2024 2020
 2156 2150 2144
 2106 2098 2099
 1976 1973 1977
 1947 1951 1949
 2063 2066 2054
 2169 2157 2155
 2055 2047 2050
 2024 2029 2028
 2024 2028 2021
 2150 2158 2148
 2150 2148 2138
 2098 2100 2088
 2098 2088 2083
 1973 1970 1968
 1973 1968 1975
 2034 2033 2028
 2161 2154 2151
 1952 1946 1949
 1952 1949 1958
 1966 1962 1968
 2148 2159 2151
 2167 2153 2166
 2070 2059 2069
 2046 2058 2054
 2046 2054 2045
 2088 2091 2079
 2164 2152 2154
 2153 2168 2155
 2153 2155 2143
 1949 1951 1954
 2054 2066 2056
 2155 2157 2146
 2050 2047 2041
 2060 2050 2059
 2019 2022 2020
 2019 2020 2015
 2147 2156 2144
 2147 2144 2142
 2107 2106 2099
 2107 2099 2108
 1979 1976 1977
 1979 1977 1982
 2020 2024 2021
 2144 2150 2138
 2099 2098 2083
 1977 1973 1975
 1951 1956 1954
 1954 1956 1964
 2066 2067 2056
 2056 2067 2071
 2157 2149 2146
 2146 2149 2145
 2047 2040 2041
 2041 2040 2032
 2028 2033 2026
 1968 1962 1969
 2152 2153 2141
 2088 2079 2073
 2151 2154 2140
 2148 2151 2139
 2069 2059 2051
 2154 2152 2140
 1949 1954 1958
 1958 1954 1963
 2054 2056 2045
 2045 2056 2048
 2155 2146 2143
 2143 2146 2136
 2050 2041 2043
 2043 2041 2035
 2082 2069 2079
 1957 1950 1952
 2038 2039 2033
 2039 2049 2046
 1962 1960 1957
 2020 2021 2017
 2144 2138 2134
 2099 2083 2085
 1977 1975 1981
 2059 2050 2043
 2043 2051 2059
 2143 2141 2153
 2045 2037 2046
 1958 1959 1952
 2061 2073 2079
 2140 2139 2151
 2031 2026 2033
 1965 1969 1962
 2051 2061 2069
 2141 2140 2152
 2037 2031 2039
 1959 1965 1957
 2073 2083 2088
 2139 2138 2148
 2026 2021 2028
 1969 1975 1968
 2069 2061 2079
 1957 1965 1962
 2039 2031 2033
 2013 2015 2014
 2109 2108 2087
 2135 2142 2130
 1985 1982 1983
 1963 1954 1964
 2048 2056 2071
 2136 2146 2145
 2035 2041 2032
 2046 2037 2039
 1952 1959 1957
 1964 1972 1971
 2071 2075 2052
 2145 2137 2132
 2032 2023 2025
 2025 2035 2032
 2132 2136 2145
 2052 2048 2071
 1971 1963 1964
 2015 2020 2017
 2142 2144 2134
 2108 2099 2085
 1982 1977 1981
 1981 1983 1982
 2085 2087 2108
 2134 2130 2142
 2017 2014 2015
 2010 2013 2014
 2131 2135 2130
 2110 2109 2087
 1988 1985 1983
 1972 1980 1978
 2075 2081 2057
 2137 2133 2128
 2023 2016 2018
 2018 2025 2023
 2128 2132 2137
 2057 2052 2075
 1978 1971 1972
 1978 1980 1984
 2057 2081 2065
 2128 2133 2125
 2018 2016 2012
 1983 1987 1988
 1988 1987 1992
 2087 2092 2110
 2110 2092 2112
 2130 2126 2131
 2131 2126 2127
 2014 2009 2010
 2010 2009 2006
 1980 1986 1984
 1984 1986 1989
 2081 2089 2065
 2065 2089 2077
 2133 2129 2125
 2125 2129 2121
 2016 2011 2012
 2012 2011 2008
 1987 1991 1992
 1992 1991 1995
 2092 2096 2112
 2112 2096 2115
 2126 2122 2127
 2127 2122 2123
 2009 2005 2006
 2006 2005 2003
 1986 1990 1989
 1989 1990 1993
 2089 2101 2077
 2077 2101 2094
 2129 2124 2121
 2121 2124 2116
 2011 2007 2008
 2008 2007 2004
 1991 1996 1995
 1995 1996 1998
 2096 2103 2115
 2115 2103 2117
 2122 2118 2123
 2123 2118 2119
 2005 2001 2003
 2003 2001 2000
 1998 1996 1999
 1998 1999 2002
 2117 2103 2114
 2117 2114 2120
 2119 2118 2111
 2119 2111 2113
 2000 2001 1997
 2000 1997 1994
 1993 1990 1994
 1993 1994 1997
 2094 2101 2113
 2094 2113 2111
 2116 2124 2120
 2116 2120 2114
 2004 2007 2002
 2004 2002 1999</DataArray>
            <DataArray Name="offsets" format="ascii" type="Int32">3 6 9 12 15 18 21 24 27 30 33 36 39 42 45 48 51 54 57 60 63 66 69 72 75 78 81 84 87 90 93 96 99 102 105 108 111 114 117 120 123 126 129 132 135 138 141 144 147 150 153 156 159 162 165 168 171 174 177 180 183 186 189 192 195 198 201 204 207 210 213 216 219 222 225 228 231 234 237 240 243 246 249 252 255 258 261 264 267 270 273 276 279 282 285 288 291 294 297 300 303 306 309 312 315 318 321 324 327 330 333 336 339 342 345 348 351 354 357 360 363 366 369 372 375 378 381 384 387 390 393 396 399 402 405 408 411 414 417 420 423 426 429 432 435 438 441 444 447 450 453 456 459 462 465 468 471 474 477 480 483 486 489 492 495 498 501 504 507 510 513 516 519 522 525 528 531 534 537 540 543 546 549 552 555 558 561 564 567 570 573 576 579 582 585 588 591 594 597 600 603 606 609 612 615 618 621 624 627 630 633 636 639 642 645 648 651 654 657 660 663 666 669 672 675 678 681 684 687 690 693 696 699 702 705 708 711 714 717 720 723 726 729 732 735 738 741 744 747 750 753 756 759 762 765 768 771 774 777 780 783 786 789 792 795 798 801 804 807 810 813 816 819 822 825 828 831 834 837 840 843 846 849 852 855 858 861 864 867 870 873 876 879 882 885 888 891 894 897 900 903 906 909 912 915 918 921 924 927 930 933 936 939 942 945 948 951 954 957 960 963 966 969 972 975 978 981 984 987 990 993 996 999 1002 1005 1008 1011 1014 1017 1020 1023 1026 1029 1032 1035 1038 1041 1044 1047 1050 1053 1056 1059 1062 1065 1068 1071 1074 1077 1080 1083 1086 1089 1092 1095 1098 1101 1104 1107 1110 1113 1116 1119 1122 1125 1128 1131 1134 1137 1140 1143 1146 1149 1152 1155 1158 1161 1164 1167 1170 1173 1176 1179 1182 1185 1188 1191 1194 1197 1200 1203 1206 1209 1212 1215 1218 1221 1224 1227 1230 1233 1236 1239 1242 1245 1248 1251 1254 1257 1260 1263 1266 1269 1272 1275 1278 1281 1284 1287 1290 1293 1296 1299 1302 1305 1308 1311 1314 1317 1320 1323 1326 1329 1332 1335 1338 1341 1344 1347 1350 1353 1356 1359 1362 1365 1368 1371 1374 1377 1380 1383 1386 1389 1392 1395 1398 1401 1404 1407 1410 1413 1416 1419 1422 1425 1428 1431 1434 1437 1440 1443 1446 1449 1452 1455 1458 1461 1464 1467 1470 1473 1476 1479 1482 1485 1488 1491 1494 1497 1500 1503 1506 1509 1512 1515 1518 1521 1524 1527 1530 1533 1536 1539 1542 1545 1548 1551 1554 1557 1560 1563 1566 1569 1572 1575 1578 1581 1584 1587 1590 1593 1596 1599 1602 1605 1608 1611 1614 1617 1620 1623 1626 1629 1632 1635 1638 1641 1644 1647 1650 1653 1656 1659 1662 1665 1668 1671 1674 1677 1680 1683 1686 1689 1692 1695 1698 1701 1704 1707 1710 1713 1716 1719 1722 1725 1728 1731 1734 1737 1740 1743 1746 1749 1752 1755 1758 1761 1764 1767 1770 1773 1776 1779 1782 1785 1788 1791 1794 1797 1800 1803 1806 1809 1812 1815 1818 1821 1824 1827 1830 1833 1836 1839 1842 1845 1848 1851 1854 1857 1860 1863 1866 1869 1872 1875 1878 1881 1884 1887 1890 1893 1896 1899 1902 1905 1908 1911 1914 1917 1920 1923 1926 1929 1932 1935 1938 1941 1944 1947 1950 1953 1956 1959 1962 1965 1968 1971 1974 1977 1980 1983 1986 1989 1992 1995 1998 2001 2004 2007 2010 2013 2016 2019 2022 2025 2028 2031 2034 2037 2040 2043 2046 2049 2052 2055 2058 2061 2064 2067 2070 2073 2076 2079 2082 2085 2088 2091 2094 2097 2100 2103 2106 2109 2112 2115 2118 2121 2124 2127 2130 2133 2136 2139 2142 2145 2148 2151 2154 2157 2160 2163 2166 2169 2172 2175 2178 2181 2184 2187 2190 2193 2196 2199 2202 2205 2208 2211 2214 2217 2220 2223 2226 2229 2232 2235 2238 2241 2244 2247 2250 2253 2256 2259 2262 2265 2268 2271 2274 2277 2280 2283 2286 2289 2292 2295 2298 2301 2304 2307 2310 2313 2316 2319 2322 2325 2328 2331 2334 2337 2340 2343 2346 2349 2352 2355 2358 2361 2364 2367 2370 2373 2376 2379 2382 2385 2388 2391 2394 2397 2400 2403 2406 2409 2412 2415 2418 2421 2424 2427 2430 2433 2436 2439 2442 2445 2448 2451 2454 2457 2460 2463 2466 2469 2472 2475 2478 2481 2484 2487 2490 2493 2496 2499 2502 2505 2508 2511 2514 2517 2520 2523 2526 2529 2532 2535 2538 2541 2544 2547 2550 2553 2556 2559 2562 2565 2568 2571 2574 2577 2580 2583 2586 2589 2592 2595 2598 2601 2604 2607 2610 2613 2616 2619 2622 2625 2628 2631 2634 2637 2640 2643 2646 2649 2652 2655 2658 2661 2664 2667 2670 2673 2676 2679 2682 2685 2688 2691 2694 2697 2700 2703 2706 2709 2712 2715 2718 2721 2724 2727 2730 2733 2736 2739 2742 2745 2748 2751 2754 2757 2760 2763 2766 2769 2772 2775 2778 2781 2784 2787 2790 2793 2796 2799 2802 2805 2808 2811 2814 2817 2820 2823 2826 2829 2832 2835 2838 2841 2844 2847 2850 2853 2856 2859 2862 2865 2868 2871 2874 2877 2880 2883 2886 2889 2892 2895 2898 2901 2904 2907 2910 2913 2916 2919 2922 2925 2928 2931 2934 2937 2940 2943 2946 2949 2952 2955 2958 2961 2964 2967 2970 2973 2976 2979 2982 2985 2988 2991 2994 2997 3000 3003 3006 3009 3012 3015 3018 3021 3024 3027 3030 3033 3036 3039 3042 3045 3048 3051 3054 3057 3060 3063 3066 3069 3072 3075 3078 3081 3084 3087 3090 3093 3096 3099 3102 3105 3108 3111 3114 3117 3120 3123 3126 3129 3132 3135 3138 3141 3144 3147 3150 3153 3156 3159 3162 3165 3168 3171 3174 3177 3180 3183 3186 3189 3192 3195 3198 3201 3204 3207 3210 3213 3216 3219 3222 3225 3228 3231 3234 3237 3240 3243 3246 3249 3252 3255 3258 3261 3264 3267 3270 3273 3276 3279 3282 3285 3288 3291 3294 3297 3300 3303 3306 3309 3312 3315 3318 3321 3324 3327 3330 3333 3336 3339 3342 3345 3348 3351 3354 3357 3360 3363 3366 3369 3372 3375 3378 3381 3384 3387 3390 3393 3396 3399 3402 3405 3408 3411 3414 3417 3420 3423 3426 3429 3432 3435 3438 3441 3444 3447 3450 3453 3456 3459 3462 3465 3468 3471 3474 3477 3480 3483 3486 3489 3492 3495 3498 3501 3504 3507 3510 3513 3516 3519 3522 3525 3528 3531 3534 3537 3540 3543 3546 3549 3552 3555 3558 3561 3564 3567 3570 3573 3576 3579 3582 3585 3588 3591 3594 3597 3600 3603 3606 3609 3612 3615 3618 3621 3624 3627 3630 3633 3636 3639 3642 3645 3648 3651 3654 3657 3660 3663 3666 3669 3672 3675 3678 3681 3684 3687 3690 3693 3696 3699 3702 3705 3708 3711 3714 3717 3720 3723 3726 3729 3732 3735 3738 3741 3744 3747 3750 3753 3756 3759 3762 3765 3768 3771 3774 3777 3780 3783 3786 3789 3792 3795 3798 3801 3804 3807 3810 3813 3816 3819 3822 3825 3828 3831 3834 3837 3840 3843 3846 3849 3852 3855 3858 3861 3864 3867 3870 3873 3876 3879 3882 3885 3888 3891 3894 3897 3900 3903 3906 3909 3912 3915 3918 3921 3924 3927 3930 3933 3936 3939 3942 3945 3948 3951 3954 3957 3960 3963 3966 3969 3972 3975 3978 3981 3984 3987 3990 3993 3996 3999 4002 4005 4008 4011 4014 4017 4020 4023 4026 4029 4032 4035 4038 4041 4044 4047 4050 4053 4056 4059 4062 4065 4068 4071 4074 4077 4080 4083 4086 4089 4092 4095 4098 4101 4104 4107 4110 4113 4116 4119 4122 4125 4128 4131 4134 4137 4140 4143 4146 4149 4152 4155 4158 4161 4164 4167 4170 4173 4176 4179 4182 4185 4188 4191 4194 4197 4200 4203 4206 4209 4212 4215 4218 4221 4224 4227 4230 4233 4236 4239 4242 4245 4248 4251 4254 4257 4260 4263 4266 4269 4272 4275 4278 4281 4284 4287 4290 4293 4296 4299 4302 4305 4308 4311 4314 4317 4320 4323 4326 4329 4332 4335 4338 4341 4344 4347 4350 4353 4356 4359 4362 4365 4368 4371 4374 4377 4380 4383 4386 4389 4392 4395 4398 4401 4404 4407 4410 4413 4416 4419 4422 4425 4428 4431 4434 4437 4440 4443 4446 4449 4452 4455 4458 4461 4464 4467 4470 4473 4476 4479 4482 4485 4488 4491 4494 4497 4500 4503 4506 4509 4512 4515 4518 4521 4524 4527 4530 4533 4536 4539 4542 4545 4548 4551 4554 4557 4560 4563 4566 4569 4572 4575 4578 4581 4584 4587 4590 4593 4596 4599 4602 4605 4608 4611 4614 4617 4620 4623 4626 4629 4632 4635 4638 4641 4644 4647 4650 4653 4656 4659 4662 4665 4668 4671 4674 4677 4680 4683 4686 4689 4692 4695 4698 4701 4704 4707 4710 4713 4716 4719 4722 4725 4728 4731 4734 4737 4740 4743 4746 4749 4752 4755 4758 4761 4764 4767 4770 4773 4776 4779 4782 4785 4788 4791 4794 4797 4800 4803 4806 4809 4812 4815 4818 4821 4824 4827 4830 4833 4836 4839 4842 4845 4848 4851 4854 4857 4860 4863 4866 4869 4872 4875 4878 4881 4884 4887 4890 4893 4896 4899 4902 4905 4908 4911 4914 4917 4920 4923 4926 4929 4932 4935 4938 4941 4944 4947 4950 4953 4956 4959 4962 4965 4968 4971 4974 4977 4980 4983 4986 4989 4992 4995 4998 5001 5004 5007 5010 5013 5016 5019 5022 5025 5028 5031 5034 5037 5040 5043 5046 5049 5052 5055 5058 5061 5064 5067 5070 5073 5076 5079 5082 5085 5088 5091 5094 5097 5100 5103 5106 5109 5112 5115 5118 5121 5124 5127 5130 5133 5136 5139 5142 5145 5148 5151 5154 5157 5160 5163 5166 5169 5172 5175 5178 5181 5184 5187 5190 5193 5196 5199 5202 5205 5208 5211 5214 5217 5220 5223 5226 5229 5232 5235 5238 5241 5244 5247 5250 5253 5256 5259 5262 5265 5268 5271 5274 5277 5280 5283 5286 5289 5292 5295 5298 5301 5304 5307 5310 5313 5316 5319 5322 5325 5328 5331 5334 5337 5340 5343 5346 5349 5352 5355 5358 5361 5364 5367 5370 5373 5376 5379 5382 5385 5388 5391 5394 5397 5400 5403 5406 5409 5412 5415 5418 5421 5424 5427 5430 5433 5436 5439 5442 5445 5448 5451 5454 5457 5460 5463 5466 5469 5472 5475 5478 5481 5484 5487 5490 5493 5496 5499 5502 5505 5508 5511 5514 5517 5520 5523 5526 5529 5532 5535 5538 5541 5544 5547 5550 5553 5556 5559 5562 5565 5568 5571 5574 5577 5580 5583 5586 5589 5592 5595 5598 5601 5604 5607 5610 5613 5616 5619 5622 5625 5628 5631 5634 5637 5640 5643 5646 5649 5652 5655 5658 5661 5664 5667 5670 5673 5676 5679 5682 5685 5688 5691 5694 5697 5700 5703 5706 5709 5712 5715 5718 5721 5724 5727 5730 5733 5736 5739 5742 5745 5748 5751 5754 5757 5760 5763 5766 5769 5772 5775 5778 5781 5784 5787 5790 5793 5796 5799 5802 5805 5808 5811 5814 5817 5820 5823 5826 5829 5832 5835 5838 5841 5844 5847 5850 5853 5856 5859 5862 5865 5868 5871 5874 5877 5880 5883 5886 5889 5892 5895 5898 5901 5904 5907 5910 5913 5916 5919 5922 5925 5928 5931 5934 5937 5940 5943 5946 5949 5952 5955 5958 5961 5964 5967 5970 5973 5976 5979 5982 5985 5988 5991 5994 5997 6000 6003 6006 6009 6012 6015 6018 6021 6024 6027 6030 6033 6036 6039 6042 6045 6048 6051 6054 6057 6060 6063 6066 6069 6072 6075 6078 6081 6084 6087 6090 6093 6096 6099 6102 6105 6108 6111 6114 6117 6120 6123 6126 6129 6132 6135 6138 6141 6144 6147 6150 6153 6156 6159 6162 6165 6168 6171 6174 6177 6180 6183 6186 6189 6192 6195 6198 6201 6204 6207 6210 6213 6216 6219 6222 6225 6228 6231 6234 6237 6240 6243 6246 6249 6252 6255 6258 6261 6264 6267 6270 6273 6276 6279 6282 6285 6288 6291 6294 6297 6300 6303 6306 6309 6312 6315 6318 6321 6324 6327 6330 6333 6336 6339 6342 6345 6348 6351 6354 6357 6360 6363 6366 6369 6372 6375 6378 6381 6384 6387 6390 6393 6396 6399 6402 6405 6408 6411 6414 6417 6420 6423 6426 6429 6432 6435 6438 6441 6444 6447 6450 6453 6456 6459 6462 6465 6468 6471 6474 6477 6480 6483 6486 6489 6492 6495 6498 6501 6504 6507 6510 6513 6516 6519 6522 6525 6528 6531 6534 6537 6540 6543 6546 6549 6552 6555 6558 6561 6564 6567 6570 6573 6576 6579 6582 6585 6588 6591 6594 6597 6600 6603 6606 6609 6612 6615 6618 6621 6624 6627 6630 6633 6636 6639 6642 6645 6648 6651 6654 6657 6660 6663 6666 6669 6672 6675 6678 6681 6684 6687 6690 6693 6696 6699 6702 6705 6708 6711 6714 6717 6720 6723 6726 6729 6732 6735 6738 6741 6744 6747 6750 6753 6756 6759 6762 6765 6768 6771 6774 6777 6780 6783 6786 6789 6792 6795 6798 6801 6804 6807 6810 6813 6816 6819 6822 6825 6828 6831 6834 6837 6840 6843 6846 6849 6852 6855 6858 6861 6864 6867 6870 6873 6876 6879 6882 6885 6888 6891 6894 6897 6900 6903 6906 6909 6912 6915 6918 6921 6924 6927 6930 6933 6936 6939 6942 6945 6948 6951 6954 6957 6960 6963 6966 6969 6972 6975 6978 6981 6984 6987 6990 6993 6996 6999 7002 7005 7008 7011 7014 7017 7020 7023 7026 7029 7032 7035 7038 7041 7044 7047 7050 7053 7056 7059 7062 7065 7068 7071 7074 7077 7080 7083 7086 7089 7092 7095 7098 7101 7104 7107 7110 7113 7116 7119 7122 7125 7128 7131 7134 7137 7140 7143 7146 7149 7152 7155 7158 7161 7164 7167 7170 7173 7176 7179 7182 7185 7188 7191 7194 7197 7200 7203 7206 7209 7212 7215 7218 7221 7224 7227 7230 7233 7236 7239 7242 7245 7248 7251 7254 7257 7260 7263 7266 7269 7272 7275 7278 7281 7284 7287 7290 7293 7296 7299 7302 7305 7308 7311 7314 7317 7320 7323 7326 7329 7332 7335 7338 7341 7344 7347 7350 7353 7356 7359 7362 7365 7368 7371 7374 7377 7380 7383 7386 7389 7392 7395 7398 7401 7404 7407 7410 7413 7416 7419 7422 7425 7428 7431 7434 7437 7440 7443 7446 7449 7452 7455 7458 7461 7464 7467 7470 7473 7476 7479 7482 7485 7488 7491 7494 7497 7500 7503 7506 7509 7512 7515 7518 7521 7524 7527 7530 7533 7536 7539 7542 7545 7548 7551 7554 7557 7560 7563 7566 7569 7572 7575 7578 7581 7584 7587 7590 7593 7596 7599 7602 7605 7608 7611 7614 7617 7620 7623 7626 7629 7632 7635 7638 7641 7644 7647 7650 7653 7656 7659 7662 7665 7668 7671 7674 7677 7680 7683 7686 7689 7692 7695 7698 7701 7704 7707 7710 7713 7716 7719 7722 7725 7728 7731 7734 7737 7740 7743 7746 7749 7752 7755 7758 7761 7764 7767 7770 7773 7776 7779 7782 7785 7788 7791 7794 7797 7800 7803 7806 7809 7812 7815 7818 7821 7824 7827 7830 7833 7836 7839 7842 7845 7848 7851 7854 7857 7860 7863 7866 7869 7872 7875 7878 7881 7884 7887 7890 7893 7896 7899 7902 7905 7908 7911 7914 7917 7920 7923 7926 7929 7932 7935 7938 7941 7944 7947 7950 7953 7956 7959 7962 7965 7968 7971 7974 7977 7980 7983 7986 7989 7992 7995 7998 8001 8004 8007 8010 8013 8016 8019 8022 8025 8028 8031 8034 8037 8040 8043 8046 8049 8052 8055 8058 8061 8064 8067 8070 8073 8076 8079 8082 8085 8088 8091 8094 8097 8100 8103 8106 8109 8112 8115 8118 8121 8124 8127 8130 8133 8136 8139 8142 8145 8148 8151 8154 8157 8160 8163 8166 8169 8172 8175 8178 8181 8184 8187 8190 8193 8196 8199 8202 8205 8208 8211 8214 8217 8220 8223 8226 8229 8232 8235 8238 8241 8244 8247 8250 8253 8256 8259 8262 8265 8268 8271 8274 8277 8280 8283 8286 8289 8292 8295 8298 8301 8304 8307 8310 8313 8316 8319 8322 8325 8328 8331 8334 8337 8340 8343 8346 8349 8352 8355 8358 8361 8364 8367 8370 8373 8376 8379 8382 8385 8388 8391 8394 8397 8400 8403 8406 8409 8412 8415 8418 8421 8424 8427 8430 8433 8436 8439 8442 8445 8448 8451 8454 8457 8460 8463 8466 8469 8472 8475 8478 8481 8484 8487 8490 8493 8496 8499 8502 8505 8508 8511 8514 8517 8520 8523 8526 8529 8532 8535 8538 8541 8544 8547 8550 8553 8556 8559 8562 8565 8568 8571 8574 8577 8580 8583 8586 8589 8592 8595 8598 8601 8604 8607 8610 8613 8616 8619 8622 8625 8628 8631 8634 8637 8640 8643 8646 8649 8652 8655 8658 8661 8664 8667 8670 8673 8676 8679 8682 8685 8688 8691 8694 8697 8700 8703 8706 8709 8712 8715 8718 8721 8724 8727 8730 8733 8736 8739 8742 8745 8748 8751 8754 8757 8760 8763 8766 8769 8772 8775 8778 8781 8784 8787 8790 8793 8796 8799 8802 8805 8808 8811 8814 8817 8820 8823 8826 8829 8832 8835 8838 8841 8844 8847 8850 8853 8856 8859 8862 8865 8868 8871 8874 8877 8880 8883 8886 8889 8892 8895 8898 8901 8904 8907 8910 </DataArray>
            <DataArray Name="types" format="ascii" type="UInt8">5 5 5 5 5 5 5 5 5 5 5 5 5 5 5 5 5 5 5 5 5 5 5 5 5 5 5 5 5 5 5 5 5 5 5 5 5 5 5 5 5 5 5 5 5 5 5 5 5 5 5 5 5 5 5 5 5 5 5 5 5 5 5 5 5 5 5 5 5 5 5 5 5 5 5 5 5 5 5 5 5 5 5 5 5 5 5 5 5 5 5 5 5 5 5 5 5 5 5 5 5 5 5 5 5 5 5 5 5 5 5 5 5 5 5 5 5 5 5 5 5 5 5 5 5 5 5 5 5 5 5 5 5 5 5 5 5 5 5 5 5 5 5 5 5 5 5 5 5 5 5 5 5 5 5 5 5 5 5 5 5 5 5 5 5 5 5 5 5 5 5 5 5 5 5 5 5 5 5 5 5 5 5 5 5 5 5 5 5 5 5 5 5 5 5 5 5 5 5 5 5 5 5 5 5 5 5 5 5 5 5 5 5 5 5 5 5 5 5 5 5 5 5 5 5 5 5 5 5 5 5 5 5 5 5 5 5 5 5 5 5 5 5 5 5 5 5 5 5 5 5 5 5 5 5 5 5 5 5 5 5 5 5 5 5 5 5 5 5 5 5 5 5 5 5 5 5 5 5 5 5 5 5 5 5 5 5 5 5 5 5 5 5 5 5 5 5 5 5 5 5 5 5 5 5 5 5 5 5 5 5 5 5 5 5 5 5 5 5 5 5 5 5 5 5 5 5 5 5 5 5 5 5 5 5 5 5 5 5 5 5 5 5 5 5 5 5 5 5 5 5 5 5 5 5 5 5 5 5 5 5 5 5 5 5 5 5 5 5 5 5 5 5 5 5 5 5 5 5 5 5 5 5 5 5 5 5 5 5 5 5 5 5 5 5 5 5 5 5 5 5 5 5 5 5 5 5 5 5 5 5 5 5 5 5 5 5 5 5 5 5 5 5 5 5 5 5 5 5 5 5 5 5 5 5 5 5 5 5 5 5 5 5 5 5 5 5 5 5 5 5 5 5 5 5 5 5 5 5 5 5 5 5 5 5 5 5 5 5 5 5 5 5 5 5 5 5 5 5 5 5 5 5 5 5 5 5 5 5 5 5 5 5 5 5 5 5 5 5 5 5 5 5 5 5 5 5 5 5 5 5 5 5 5 5 5 5 5 5 5 5 5 5 5 5 5 5 5 5 5 5 5 5 5 5 5 5 5 5 5 5 5 5 5 5 5 5 5 5 5 5 5 5 5 5 5 5 5 5 5 5 5 5 5 5 5 5 5 5 5 5 5 5 5 5 5 5 5 5 5 5 5 5 5 5 5 5 5 5 5 5 5 5 5 5 5 5 5 5 5 5 5 5 5 5 5 5 5 5 5 5 5 5 5 5 5 5 5 5 5 5 5 5 5 5 5 5 5 5 5 5 5 5 5 5 5 5 5 5 5 5 5 5 5 5 5 5 5 5 5 5 5 5 5 5 5 5 5 5 5 5 5 5 5 5 5 5 5 5 5 5 5 5 5 5 5 5 5 5 5 5 5 5 5 5 5 5 5 5 5 5 5 5 5 5 5 5 5 5 5 5 5 5 5 5 5 5 5 5 5 5 5 5 5 5 5 5 5 5 5 5 5 5 5 5 5 5 5 5 5 5 5 5 5 5 5 5 5 5 5 5 5 5 5 5 5 5 5 5 5 5 5 5 5 5 5 5 5 5 5 5 5 5 5 5 5 5 5 5 5 5 5 5 5 5 5 5 5 5 5 5 5 5 5 5 5 5 5 5 5 5 5 5 5 5 5 5 5 5 5 5 5 5 5 5 5 5 5 5 5 5 5 5 5 5 5 5 5 5 5 5 5 5 5 5 5 5 5 5 5 5 5 5 5 5 5 5 5 5 5 5 5 5 5 5 5 5 5 5 5 5 5 5 5 5 5 5 5 5 5 5 5 5 5 5 5 5 5 5 5 5 5 5 5 5 5 5 5 5 5 5 5 5 5 5 5 5 5 5 5 5 5 5 5 5 5 5 5 5 5 5 5 5 5 5 5 5 5 5 5 5 5 5 5 5 5 5 5 5 5 5 5 5 5 5 5 5 5 5 5 5 5 5 5 5 5 5 5 5 5 5 5 5 5 5 5 5 5 5 5 5 5 5 5 5 5 5 5 5 5 5 5 5 5 5 5 5 5 5 5 5 5 5 5 5 5 5 5 5 5 5 5 5 5 5 5 5 5 5 5 5 5 5 5 5 5 5 5 5 5 5 5 5 5 5 5 5 5 5 5 5 5 5 5 5 5 5 5 5 5 5 5 5 5 5 5 5 5 5 5 5 5 5 5 5 5 5 5 5 5 5 5 5 5 5 5 5 5 5 5 5 5 5 5 5 5 5 5 5 5 5 5 5 5 5 5 5 5 5 5 5 5 5 5 5 5 5 5 5 5 5 5 5 5 5 5 5 5 5 5 5 5 5 5 5 5 5 5 5 5 5 5 5 5 5 5 5 5 5 5 5 5 5 5 5 5 5 5 5 5 5 5 5 5 5 5 5 5 5 5 5 5 5 5 5 5 5 5 5 5 5 5 5 5 5 5 5 5 5 5 5 5 5 5 5 5 5 5 5 5 5 5 5 5 5 5 5 5 5 5 5 5 5 5 5 5 5 5 5 5 5 5 5 5 5 5 5 5 5 5 5 5 5 5 5 5 5 5 5 5 5 5 5 5 5 5 5 5 5 5 5 5 5 5 5 5 5 5 5 5 5 5 5 5 5 5 5 5 5 5 5 5 5 5 5 5 5 5 5 5 5 5 5 5 5 5 5 5 5 5 5 5 5 5 5 5 5 5 5 5 5 5 5 5 5 5 5 5 5 5 5 5 5 5 5 5 5 5 5 5 5 5 5 5 5 5 5 5 5 5 5 5 5 5 5 5 5 5 5 5 5 5 5 5 5 5 5 5 5 5 5 5 5 5 5 5 5 5 5 5 5 5 5 5 5 5 5 5 5 5 5 5 5 5 5 5 5 5 5 5 5 5 5 5 5 5 5 5 5 5 5 5 5 5 5 5 5 5 5 5 5 5 5 5 5 5 5 5 5 5 5 5 5 5 5 5 5 5 5 5 5 5 5 5 5 5 5 5 5 5 5 5 5 5 5 5 5 5 5 5 5 5 5 5 5 5 5 5 5 5 5 5 5 5 5 5 5 5 5 5 5 5 5 5 5 5 5 5 5 5 5 5 5 5 5 5 5 5 5 5 5 5 5 5 5 5 5 5 5 5 5 5 5 5 5 5 5 5 5 5 5 5 5 5 5 5 5 5 5 5 5 5 5 5 5 5 5 5 5 5 5 5 5 5 5 5 5 5 5 5 5 5 5 5 5 5 5 5 5 5 5 5 5 5 5 5 5 5 5 5 5 5 5 5 5 5 5 5 5 5 5 5 5 5 5 5 5 5 5 5 5 5 5 5 5 5 5 5 5 5 5 5 5 5 5 5 5 5 5 5 5 5 5 5 5 5 5 5 5 5 5 5 5 5 5 5 5 5 5 5 5 5 5 5 5 5 5 5 5 5 5 5 5 5 5 5 5 5 5 5 5 5 5 5 5 5 5 5 5 5 5 5 5 5 5 5 5 5 5 5 5 5 5 5 5 5 5 5 5 5 5 5 5 5 5 5 5 5 5 5 5 5 5 5 5 5 5 5 5 5 5 5 5 5 5 5 5 5 5 5 5 5 5 5 5 5 5 5 5 5 5 5 5 5 5 5 5 5 5 5 5 5 5 5 5 5 5 5 5 5 5 5 5 5 5 5 5 5 5 5 5 5 5 5 5 5 5 5 5 5 5 5 5 5 5 5 5 5 5 5 5 5 5 5 5 5 5 5 5 5 5 5 5 5 5 5 5 5 5 5 5 5 5 5 5 5 5 5 5 5 5 5 5 5 5 5 5 5 5 5 5 5 5 5 5 5 5 5 5 5 5 5 5 5 5 5 5 5 5 5 5 5 5 5 5 5 5 5 5 5 5 5 5 5 5 5 5 5 5 5 5 5 5 5 5 5 5 5 5 5 5 5 5 5 5 5 5 5 5 5 5 5 5 5 5 5 5 5 5 5 5 5 5 5 5 5 5 5 5 5 5 5 5 5 5 5 5 5 5 5 5 5 5 5 5 5 5 5 5 5 5 5 5 5 5 5 5 5 5 5 5 5 5 5 5 5 5 5 5 5 5 5 5 5 5 5 5 5 5 5 5 5 5 5 5 5 5 5 5 5 5 5 5 5 5 5 5 5 5 5 5 5 5 5 5 5 5 5 5 5 5 5 5 5 5 5 5 5 5 5 5 5 5 5 5 5 5 5 5 5 5 5 5 5 5 5 5 5 5 5 5 5 5 5 5 5 5 5 5 5 5 5 5 5 5 5 5 5 5 5 5 5 5 5 5 5 5 5 5 5 5 5 5 5 5 5 5 5 5 5 5 5 5 5 5 5 5 5 5 5 5 5 5 5 5 5 5 5 5 5 5 5 5 5 5 5 5 5 5 5 5 5 5 5 5 5 5 5 5 5 5 5 5 5 5 5 5 5 5 5 5 5 5 5 5 5 5 5 5 5 5 5 5 5 5 5 5 5 5 5 5 5 5 5 5 5 5 5 5 5 5 5 5 5 5 5 5 5 5 5 5 5 5 5 5 5 5 5 5 5 5 5 5 5 5 5 5 5 5 5 5 5 5 5 5 5 5 5 5 5 5 5 5 5 5 5 5 5 5 5 5 5 5 5 5 5 5 5 5 5 5 5 5 5 5 5 5 5 5 5 5 5 5 5 5 5 5 5 5 5 5 5 5 5 5 5 5 5 5 5 5 5 5 5 5 5 5 5 5 5 5 5 5 5 5 5 5 5 5 5 5 5 5 5 5 5 5 5 5 5 5 5 5 5 5 5 5 5 5 5 5 5 5 5 5 5 5 5 5 5 5 5 5 5 5 5 5 5 5 5 5 5 5 5 5 5 5 5 5 5 5 5 5 5 5 5 5 5 5 5 5 5 5 5 5 5 5 5 5 5 5 5 5 5 5 5 5 5 5 5 5 5 5 5 5 5 5 5 5 5 5 5 5 5 5 5 5 5 5 5 5 5 5 5 5 5 5 5 5 5 5 5 5 5 5 5 5 5 5 5 5 5 5 5 5 5 5 5 5 5 5 5 5 5 5 5 5 5 5 5 5 5 5 5 5 5 5 5 5 5 5 5 5 5 5 5 5 5 5 5 5 5 5 5 5 5 5 5 5 5 5 5 5 5 5 5 5 5 5 5 5 5 5 5 5 5 5 5 5 5 5 5 5 5 5 5 5 5 5 5 5 5 5 5 5 5 5 5 5 5 5 5 5 5 5 5 5 5 5 5 5 5 5 5 5 5 5 5 5 5 5 5 5 5 5 5 5 5 5 5 5 5 5 5 5 5 5 5 5 5 5 5 5 5 5 5 5 5 5 5 5 5 5 5 5 5 5 5 5 5 5 5 5 5 5 5 5 5 5 5 5 5 5 5 5 5 5 5 5 5 5 5 5 5 5 5 5 5 5 5 5 5 5 5 5 5 5 5 5 5 5 5 5 5 5 5 5 5 5 5 5 5 5 5 5 5 5 5 5 5 5 5 5 5 5 5 5 5 5 5 5 5 5 5 5 5 5 5 5 5 5 5 5 5 5 5 5 5 5 5 5 5 5 5 5 5 5 5 5 5 5 5 5 5 5 5 5 5 5 5 5 5 5 5 5 5 5 5 5 5 5 5 5 5 5 5 5 5 5 5 5 5 5 5 5 5 5 5 5 5 5 5 5 5 5 5 5 5 5 5 5 5 5 5 5 5 5 5 5 5 5 5 5 5 5 5 5 5 5 5 5 5 5 5 5 5 5 5 5 5 5 5 5 5 5 5 5 5 5 5 5 5 5 5 5 5 5 5 5 5 5 5 5 5 5 5 5 5 5 5 5 5 5 5 5 5 5 5 5 5 5 5 5 5 5 5 5 5 5 5 5 5 5 5 5 5 5 5 5 5 5 5 5 5 5 5 5 5 5 5 5 5 5 5 5 5 5 5 5 5 5 5 5 5 5 5 5 5 5 5 5 5 5 5 5 5 5 5 5 5 5 5 5 5 5 5 5 5 5 5 5 5 5 5 5 5 5 5 5 5 5 5 5 5 5 5 5 5 5 5 5 5 5 5 5 5 5 5 5 5 5 5 5 5 5 5 5 5 5 5 5 5 5 5 5 5 5 5 5 5 5 5 5 5 5 5 5 5 5 5 5 5 5 5 5 5 5 5 5 5 5 5 5 5 5 5 5 5 5 5 5 5 5 5 5 5 5 5 5 5 5 5 5 5 5 5 5 5 5 5 5 5 5 5 5 5 5 5 5 5 5 5 5 5 5 5 5 5 5 5 5 5 5 5 5 5 5 5 5 5 5 5 5 5 5 5 5 5 5 5 5 5 5 5 5 5 5 5 5 5 5 5 5 5 5 5 5 5 5 5 5 5 5 5 5 5 5 5 5 5 5 5 5 5 5 5 5 5 5 5 5 5 5 5 5 5 5 5 5 5 5 5 5 5 5 5 5 5 5 5 5 5 5 5 5 5 5 5 5 5 5 5 5 5 5 5 5 5 5 5 5 5 5 5 5 5 5 5 5 5 5 5 5 5 5 5 5 5 5 5 </DataArray>
         </Cells>
         <PointData>
            <DataArray Name="displacement" NumberOfComponents="2" format="ascii" type="Float64">
       00000 -5.03468e-14 
-1.15298e-14 -3.45894e-14 
 1.89989e+02 -2.68180e+02 
 1.27732e+03 -5.11387e+02 
-6.70001e+01 -5.41092e+01 
-3.26835e-14 -1.25287e-13 
 9.41200e+02  1.33050e+02 
-1.34611e+02  1.03331e+02 
 3.22419e+03 -6.53371e+02 
-3.41862e+02  6.05494e+02 
-2.91164e-14 -1.33935e-13 
-7.10350e+01  1.59577e+02 
-8.15020e-15 -1.57374e-14 
 2.90888e+03  1.62264e+03 
-6.89944e+01  1.87860e+02 
 7.44066e+03  3.30885e+02 
-2.17414e+02  5.92314e+02 
-2.64278e-14 -4.69828e-14 
 9.62263e+01  3.29243e+03 
-1.64649e+02  1.76254e+03 
-7.08661e+01  2.53162e+02 
-1.03271e-14  3.46002e-14 
-4.35551e+01  2.64779e+02 
-1.11714e+02  5.64119e+02 
 1.29376e-14 -1.15001e-14 
 2.83637e+03  9.84683e+03 
 1.35035e+04  3.58718e+03 
-9.87959e+01  1.06939e+03 
-3.75986e+01  2.85545e+02 
-2.72362e-15        00000 
-1.69303e+01  3.18950e+02 
-7.03500e+01  5.74628e+02 
-4.32643e-15 -9.22971e-14 
-5.91601e+01  7.40231e+02 
 1.82318e+01  3.75571e+02 
 9.53802e+03  1.86877e+04 
 2.29804e+04  1.09818e+04 
-1.75350e-14 -2.55055e-14 
 9.78018e+01  6.54570e+02 
 7.54707e+01  4.04364e+02 
 1.52409e+01  5.52132e+02 
 3.46278e+02  6.84550e+02 
 4.97873e+02  7.24912e+02 
 2.02893e+04  3.15473e+04 
 8.94623e+02  8.13608e+02 
 3.65256e+04  2.22547e+04 
 5.37875e+02 -4.78784e+01 
 1.73569e+03  7.09731e+02 
 1.60478e+03 -8.62456e+02 
 3.61307e+04  4.93870e+04 
 3.01754e+03  1.13656e+02 
 5.53685e+04  3.87817e+04 
 3.29182e+03 -2.13867e+03 
 4.63492e+03 -7.31922e+02 
 5.82279e+04  7.31877e+04 
 8.06474e+04  6.19151e+04 
 5.52888e+03 -3.79329e+03 
 6.77797e+03 -2.09518e+03 
 8.73698e+04  1.03545e+05 
 1.13079e+05  9.26607e+04 
 9.44362e+03 -3.92356e+03 
 8.36142e+03 -5.79463e+03 
 1.23580e+05  1.40304e+05 
 1.24844e+04 -6.12020e+03 
 1.16349e+04 -7.89890e+03 
 1.50286e+05  1.29012e+05 
 1.56966e+05  1.73464e+05 
 1.55213e+04 -8.35872e+03 
 1.82036e+05  1.60679e+05 
 1.48889e+04 -9.65256e+03 
 1.85514e+05  2.01163e+05 
 2.07874e+05  1.86930e+05 
 1.73948e+04 -9.77562e+03 
 1.70310e+04 -1.02842e+04 
 2.08934e+05  2.23435e+05 
 2.28230e+05  2.07929e+05 
 1.79884e+04 -1.01874e+04 
 1.80611e+04 -9.83067e+03 
 2.43481e+05  2.24287e+05 
 2.27787e+05  2.41059e+05 
 2.55443e+05  2.37389e+05 
 1.75728e+04 -9.76734e+03 
 2.42138e+05  2.54002e+05 
 1.81551e+04 -8.51098e+03 
 2.63327e+05  2.46970e+05 
 2.59005e+05  2.53202e+05 
 2.53660e+05  2.63041e+05 
 2.68658e+05  2.53913e+05 
 1.64742e+04 -8.76664e+03 
 2.66186e+05  2.60703e+05 
 1.75562e+04 -6.60556e+03 
 2.55076e+05  2.73097e+05 
 2.72561e+05  2.58750e+05 
 2.64744e+05  2.68840e+05 
 2.71287e+05  2.64671e+05 
 2.75724e+05  2.62341e+05 
 2.70993e+05  2.69072e+05 
 2.56468e+05  2.82312e+05 
 1.50033e+04 -7.43676e+03 
 2.75462e+05  2.66727e+05 
 2.64634e+05  2.77700e+05 
 2.70706e+05  2.73244e+05 
 1.64758e+04 -4.32913e+03 
 2.75052e+05  2.71002e+05 
 2.70451e+05  2.77050e+05 
 2.74566e+05  2.75002e+05 
 2.57843e+05  2.90313e+05 
 2.70181e+05  2.80762e+05 
 2.64955e+05  2.85978e+05 
 1.29578e+04 -5.84632e+03 
 2.74111e+05  2.78756e+05 
 1.39294e+04 -4.12343e+03 
 2.70363e+05  2.84370e+05 
 1.53018e+04 -1.54008e+03 
 2.73613e+05  2.82295e+05 
 2.70042e+05  2.87018e+05 
 2.59317e+05  2.97434e+05 
 2.73133e+05  2.85580e+05 
 2.64842e+05  2.93405e+05 
 1.07787e+04 -4.32170e+03 
 2.58721e+05  3.00780e+05 
 2.69391e+05  2.90431e+05 
 2.72659e+05  2.88743e+05 
 1.14466e+04 -1.92918e+03 
 1.59200e+04  3.11961e+03 
 2.58650e+05  3.02503e+05 
 2.69090e+05  2.93121e+05 
 2.72163e+05  2.91614e+05 
 2.64898e+05  2.97813e+05 
 8.74949e+03 -2.59191e+03 
 2.61124e+05  3.00590e+05 
 2.60002e+05  3.02781e+05 
 2.68794e+05  2.95588e+05 
 1.16209e+04  1.25187e+03 
 2.71744e+05  2.94208e+05 
 8.99010e+03 -3.01467e+02 
 1.64701e+04  7.61098e+03 
 7.04723e+03 -1.03734e+03 
 2.71467e+05  2.96669e+05 
 2.68987e+05  2.98667e+05 
 8.94572e+03  1.37275e+03 
 2.63158e+05  3.01167e+05 
 2.65703e+05  3.00842e+05 
 2.62350e+05  3.02125e+05 
 7.05221e+03  6.11493e+02 
 1.16769e+04  5.70734e+03 
 8.92406e+03  3.07759e+03 
 2.59731e+05  3.03013e+05 
 7.06626e+03  2.28270e+03 
 1.72395e+04  1.22239e+04 
 8.71890e+03  5.05864e+03 
 2.58799e+05  3.02770e+05 
 7.06653e+03  4.02155e+03 
 2.68440e+05  2.97196e+05 
 8.67203e+03  6.53919e+03 
 1.19333e+04  1.00786e+04 
 7.06275e+03  5.82375e+03 
 2.59138e+05  3.01218e+05 
 8.90930e+03  8.46423e+03 
 1.85351e+04  1.70574e+04 
 7.03553e+03  7.64071e+03 
 2.70451e+04  2.25754e+04 
 8.84781e+03  1.03450e+04 
 3.79052e+04  3.16922e+04 
 1.19367e+04  1.39971e+04 
 2.61380e+05  2.97863e+05 
 6.96603e+03  9.50207e+03 
 8.74855e+03  1.21815e+04 
 5.30399e+04  4.52236e+04 
 6.86982e+03  1.13991e+04 
 2.75832e+05  2.90740e+05 
 8.56689e+03  1.41740e+04 
 7.25452e+04  6.30545e+04 
 6.69567e+03  1.33318e+04 
 1.09894e+04  1.85674e+04 
 1.51184e+04  2.31907e+04 
 8.34467e+03  1.63274e+04 
 2.66055e+05  2.92361e+05 
 6.49768e+03  1.53075e+04 
 9.73986e+04  8.63225e+04 
 6.34508e+03  1.72664e+04 
 7.68315e+03  1.95651e+04 
 9.53182e+03  2.26652e+04 
 1.24292e+04  2.74723e+04 
 1.73777e+04  3.44389e+04 
 2.61563e+04  4.46534e+04 
 3.76275e+04  5.75894e+04 
 2.84718e+05  2.82259e+05 
 5.39149e+04  7.48958e+04 
 2.73347e+05  2.84767e+05 
 1.27877e+05  1.15623e+05 
 7.55263e+04  9.74593e+04 
 1.62574e+05  1.49818e+05 
 1.03392e+05  1.25962e+05 
 2.91878e+05  2.74782e+05 
 2.82247e+05  2.76290e+05 
 1.37742e+05  1.60356e+05 
 1.92216e+05  1.79602e+05 
 2.96541e+05  2.69288e+05 
 2.89484e+05  2.69985e+05 
 1.69211e+05  1.91204e+05 
 2.16376e+05  2.04387e+05 
 2.98898e+05  2.65892e+05 
 2.94550e+05  2.66109e+05 
 2.35305e+05  2.24269e+05 
 1.95198e+05  2.16095e+05 
 2.99628e+05  2.64087e+05 
 2.97600e+05  2.64278e+05 
 2.49690e+05  2.39789e+05 
 2.15862e+05  2.35422e+05 
 2.98351e+05  2.64094e+05 
 2.99006e+05  2.64450e+05 
 2.60266e+05  2.51600e+05 
 2.31850e+05  2.50011e+05 
 2.95493e+05  2.64496e+05 
 2.88947e+05  2.63368e+05 
 2.82072e+05  2.62765e+05 
 2.74799e+05  2.62132e+05 
 2.99872e+05  2.65096e+05 
 2.67349e+05  2.61021e+05 
 2.98449e+05  2.66113e+05 
 2.44007e+05  2.60838e+05 
 2.60391e+05  2.64969e+05 
 2.99422e+05  2.67544e+05 
 2.93090e+05  2.69378e+05 
 2.52883e+05  2.67911e+05 
 2.95948e+05  2.69607e+05 
 2.86968e+05  2.70005e+05 
 2.76341e+05  2.69827e+05 
 2.71720e+05  2.69766e+05 
 2.81149e+05  2.70619e+05 
 2.65657e+05  2.70571e+05 
 2.98340e+05  2.70496e+05 
 2.59588e+05  2.72528e+05 
 2.94190e+05  2.72767e+05 
 2.91589e+05  2.73024e+05 
 2.85937e+05  2.73536e+05 
 2.83122e+05  2.73759e+05 
 2.88458e+05  2.73624e+05 
 2.80254e+05  2.73968e+05 
 2.77495e+05  2.74188e+05 
 2.96850e+05  2.73228e+05 
 2.74724e+05  2.74419e+05 
 2.71841e+05  2.74667e+05 
 2.68824e+05  2.74922e+05 
 2.64060e+05  2.75693e+05 
 2.95683e+05  2.75386e+05 
 2.92836e+05  2.75634e+05 
 2.89965e+05  2.75965e+05 
 2.87106e+05  2.76281e+05 
 2.84298e+05  2.76542e+05 
 2.81456e+05  2.76790e+05 
 2.78645e+05  2.77030e+05 
 2.75865e+05  2.77283e+05 
 2.73072e+05  2.77594e+05 
 2.70289e+05  2.77902e+05 
 2.67488e+05  2.78131e+05 
 2.94327e+05  2.78614e+05 
 2.99201e+05  2.77801e+05 
 2.91223e+05  2.78895e+05 
 2.97541e+05  2.83015e+05 
 2.88265e+05  2.79167e+05 
 3.03854e+05  2.80962e+05 
 2.90888e+05  2.83893e+05 
 2.85225e+05  2.79086e+05 
 3.03000e+05  2.88776e+05 
 2.82909e+05  2.79196e+05 
 3.11000e+05  2.85689e+05 
 2.83795e+05  2.83879e+05 
 2.95733e+05  2.92918e+05 
 2.88140e+05  2.91657e+05 
 2.79795e+05  2.79821e+05 
 2.77043e+05  2.80026e+05 
 2.76976e+05  2.84189e+05 
 3.03098e+05  3.03063e+05 
 3.20525e+05  2.93116e+05 
 2.81016e+05  2.90925e+05 
 2.74201e+05  2.80256e+05 
 2.71513e+05  2.80516e+05 
 2.71114e+05  2.84237e+05 
 2.74112e+05  2.90189e+05 
 2.68971e+05  2.80784e+05 
 3.14382e+05  3.15868e+05 
 3.33723e+05  3.04761e+05 
 2.67135e+05  2.83966e+05 
 2.66257e+05  2.80337e+05 
 2.67560e+05  2.89006e+05 
 2.64777e+05  2.83084e+05 
 2.64678e+05  2.87415e+05 
 3.29936e+05  3.32876e+05 
 2.63743e+05  2.86008e+05 
 3.51252e+05  3.20626e+05 
 2.64785e+05  2.89320e+05 
 2.63366e+05  2.88388e+05 
 2.63616e+05  2.89237e+05 
 3.50658e+05  3.54906e+05 
 2.64288e+05  2.88949e+05 
 3.74164e+05  3.41889e+05 
 2.64437e+05  2.87382e+05 
 2.65741e+05  2.89023e+05 
 3.77464e+05  3.82721e+05 
 4.03361e+05  3.69641e+05 
 2.66839e+05  2.84040e+05 
 2.68758e+05  2.87135e+05 
 4.10861e+05  4.16667e+05 
 4.39302e+05  4.04579e+05 
 2.73585e+05  2.83336e+05 
 2.71374e+05  2.78864e+05 
 4.50664e+05  4.56399e+05 
 2.80139e+05  2.77455e+05 
 2.77997e+05  2.72228e+05 
 4.79301e+05  4.44271e+05 
 4.86336e+05  4.91320e+05 
 2.87572e+05  2.70069e+05 
 5.12606e+05  4.77901e+05 
 2.85658e+05  2.65364e+05 
 5.16177e+05  5.19942e+05 
 5.39246e+05  5.05235e+05 
 2.92745e+05  2.64110e+05 
 2.91313e+05  2.61088e+05 
 5.40293e+05  5.42673e+05 
 5.60005e+05  5.26815e+05 
 2.94870e+05  2.60646e+05 
 2.94454e+05  2.59738e+05 
 5.75417e+05  5.43477e+05 
 5.59528e+05  5.60531e+05 
 5.87475e+05  5.56783e+05 
 2.94345e+05  2.59561e+05 
 5.74039e+05  5.73516e+05 
 2.95230e+05  2.60992e+05 
 5.95325e+05  5.66427e+05 
 5.91010e+05  5.72683e+05 
 5.85652e+05  5.82507e+05 
 6.00603e+05  5.73384e+05 
 2.91897e+05  2.60337e+05 
 5.98133e+05  5.80147e+05 
 2.94125e+05  2.64200e+05 
 5.87092e+05  5.92435e+05 
 6.04453e+05  5.78199e+05 
 5.96678e+05  5.88234e+05 
 6.03179e+05  5.84079e+05 
 6.07580e+05  5.81762e+05 
 6.02876e+05  5.88449e+05 
 5.88490e+05  6.01530e+05 
 2.88319e+05  2.62338e+05 
 6.07311e+05  5.86116e+05 
 5.96566e+05  5.96985e+05 
 6.02581e+05  5.92580e+05 
 2.91631e+05  2.68797e+05 
 6.06891e+05  5.90355e+05 
 6.02322e+05  5.96339e+05 
 6.06396e+05  5.94312e+05 
 5.89851e+05  6.09411e+05 
 6.02049e+05  6.00002e+05 
 5.96880e+05  6.05143e+05 
 2.83014e+05  2.65378e+05 
 6.05936e+05  5.98018e+05 
 2.85395e+05  2.69098e+05 
 6.02225e+05  6.03557e+05 
 2.88793e+05  2.75177e+05 
 6.05435e+05  6.01510e+05 
 6.01906e+05  6.06165e+05 
 5.91290e+05  6.16413e+05 
 6.04957e+05  6.04747e+05 
 5.96768e+05  6.12453e+05 
 2.77251e+05  2.68464e+05 
 5.90610e+05  6.19716e+05 
 6.01262e+05  6.09527e+05 
 6.04486e+05  6.07863e+05 
 2.78898e+05  2.74082e+05 
 2.90308e+05  2.87269e+05 
 5.90393e+05  6.21483e+05 
 6.00966e+05  6.12177e+05 
 6.03997e+05  6.10693e+05 
 5.96833e+05  6.16804e+05 
 2.71853e+05  2.72248e+05 
 5.93099e+05  6.19548e+05 
 5.91463e+05  6.21910e+05 
 6.00676e+05  6.14612e+05 
 2.79263e+05  2.82225e+05 
 6.03587e+05  6.13251e+05 
 2.72532e+05  2.77818e+05 
 2.91158e+05  2.99796e+05 
 2.67551e+05  2.75359e+05 
 6.03315e+05  6.15681e+05 
 6.00872e+05  6.17654e+05 
 2.72277e+05  2.82446e+05 
 5.94116e+05  6.20622e+05 
 5.97638e+05  6.19807e+05 
 5.94326e+05  6.21118e+05 
 2.67365e+05  2.80174e+05 
 2.79043e+05  2.94619e+05 
 2.72052e+05  2.87268e+05 
 5.91716e+05  6.22066e+05 
 2.67122e+05  2.85024e+05 
 2.91764e+05  3.12521e+05 
 2.71321e+05  2.92815e+05 
 5.90692e+05  6.21973e+05 
 2.66891e+05  2.89942e+05 
 5.98539e+05  6.17280e+05 
 2.71105e+05  2.96920e+05 
 2.79411e+05  3.06957e+05 
 2.66733e+05  2.94935e+05 
 5.90828e+05  6.20711e+05 
 2.71690e+05  3.02330e+05 
 2.92403e+05  3.25315e+05 
 2.66598e+05  2.99944e+05 
 3.03889e+05  3.35531e+05 
 2.71619e+05  3.07438e+05 
 3.18053e+05  3.49037e+05 
 2.79315e+05  3.17778e+05 
 5.92670e+05  6.17883e+05 
 2.66488e+05  3.04986e+05 
 2.71546e+05  3.12523e+05 
 3.36026e+05  3.66462e+05 
 2.66401e+05  3.10074e+05 
 6.04522e+05  6.11944e+05 
 2.71448e+05  3.17699e+05 
 3.58064e+05  3.87985e+05 
 2.66309e+05  3.15202e+05 
 2.77754e+05  3.27718e+05 
 2.86380e+05  3.36355e+05 
 2.71329e+05  3.22932e+05 
 5.96605e+05  6.13304e+05 
 2.66231e+05  3.20369e+05 
 3.84776e+05  4.14314e+05 
 2.66177e+05  3.25526e+05 
 2.70015e+05  3.29860e+05 
 2.74980e+05  3.35491e+05 
 2.81496e+05  3.42996e+05 
 2.90246e+05  3.52795e+05 
 3.02301e+05  3.65630e+05 
 3.17418e+05  3.81555e+05 
 6.11201e+05  6.05306e+05 
 3.36867e+05  4.01617e+05 
 6.02601e+05  6.07259e+05 
 4.16335e+05  4.45784e+05 
 3.61157e+05  4.26486e+05 
 4.51538e+05  4.81296e+05 
 3.90897e+05  4.56648e+05 
 6.15756e+05  6.00011e+05 
 6.09496e+05  6.01076e+05 
 4.26254e+05  4.92133e+05 
 4.81430e+05  5.11785e+05 
 6.17603e+05  5.96918e+05 
 6.14480e+05  5.97336e+05 
 4.58082e+05  5.23685e+05 
 5.06026e+05  5.37183e+05 
 6.17122e+05  5.95996e+05 
 6.17170e+05  5.96132e+05 
 5.25751e+05  5.57831e+05 
 4.84289e+05  5.49335e+05 
 6.15174e+05  5.96557e+05 
 6.17878e+05  5.96899e+05 
 5.41278e+05  5.74324e+05 
 5.05331e+05  5.69676e+05 
 6.11267e+05  5.98872e+05 
 6.17077e+05  5.99582e+05 
 5.53274e+05  5.87292e+05 
 5.21926e+05  5.85528e+05 
 6.05884e+05  6.01273e+05 
 5.95453e+05  5.99945e+05 
 5.84610e+05  5.99210e+05 
 5.73374e+05  5.98609e+05 
 6.16073e+05  6.02379e+05 
 5.62210e+05  5.97858e+05 
 6.11506e+05  6.04322e+05 
 5.34870e+05  5.97761e+05 
 5.53417e+05  6.02888e+05 
 6.13858e+05  6.06961e+05 
 6.01945e+05  6.09690e+05 
 5.44725e+05  6.06583e+05 
 6.06842e+05  6.10205e+05 
 5.92394e+05  6.10542e+05 
 5.75737e+05  6.09828e+05 
 5.68483e+05  6.09597e+05 
 5.83406e+05  6.11251e+05 
 5.60105e+05  6.10527e+05 
 6.11218e+05  6.11811e+05 
 5.52375e+05  6.13001e+05 
 6.03733e+05  6.15386e+05 
 5.99680e+05  6.15654e+05 
 5.91010e+05  6.16073e+05 
 5.86636e+05  6.16223e+05 
 5.94894e+05  6.16395e+05 
 5.82202e+05  6.16331e+05 
 5.77816e+05  6.16429e+05 
 6.08328e+05  6.16172e+05 
 5.73394e+05  6.16522e+05 
 5.68877e+05  6.16631e+05 
 5.64278e+05  6.16759e+05 
 5.57891e+05  6.17784e+05 
 6.05935e+05  6.19744e+05 
 6.01652e+05  6.19960e+05 
 5.97344e+05  6.20244e+05 
 5.92999e+05  6.20490e+05 
 5.88667e+05  6.20683e+05 
 5.84289e+05  6.20842e+05 
 5.79895e+05  6.20966e+05 
 5.75495e+05  6.21076e+05 
 5.71035e+05  6.21190e+05 
 5.66522e+05  6.21288e+05 
 5.61986e+05  6.21360e+05 
 6.03876e+05  6.24659e+05 
 6.10532e+05  6.23650e+05 
 5.99377e+05  6.24856e+05 
 6.08293e+05  6.31178e+05 
 5.94984e+05  6.25059e+05 
 6.16395e+05  6.28585e+05 
 5.99135e+05  6.32165e+05 
 5.90269e+05  6.24725e+05 
 6.15315e+05  6.39053e+05 
 5.86703e+05  6.24745e+05 
 6.24540e+05  6.35186e+05 
 5.88344e+05  6.32091e+05 
 6.06137e+05  6.44307e+05 
 5.94874e+05  6.43526e+05 
 5.81961e+05  6.25517e+05 
 5.77598e+05  6.25618e+05 
 5.77796e+05  6.32536e+05 
 6.15460e+05  6.55507e+05 
 6.35070e+05  6.44362e+05 
 5.83969e+05  6.43267e+05 
 5.73173e+05  6.25714e+05 
 5.68736e+05  6.25778e+05 
 5.68502e+05  6.32539e+05 
 5.73059e+05  6.43251e+05 
 5.64266e+05  6.25817e+05 
 6.28223e+05  6.69344e+05 
 6.49037e+05  6.57319e+05 
 5.60339e+05  6.31376e+05 
 5.58562e+05  6.24766e+05 
 5.62157e+05  6.43307e+05 
 5.54166e+05  6.29149e+05 
 5.53551e+05  6.38558e+05 
 6.44920e+05  6.87120e+05 
 5.48600e+05  6.34673e+05 
 6.67109e+05  6.74278e+05 
 5.54206e+05  6.51548e+05 
 5.41633e+05  6.41590e+05 
 5.44424e+05  6.61595e+05 
 6.66370e+05  7.09623e+05 
 5.32877e+05  6.50320e+05 
 6.90276e+05  6.96288e+05 
 5.32428e+05  6.73900e+05 
 5.22073e+05  6.61088e+05 
 6.93466e+05  7.37664e+05 
 7.19511e+05  7.24419e+05 
 5.17931e+05  6.88818e+05 
 5.08692e+05  6.74436e+05 
 7.26905e+05  7.71851e+05 
 7.55594e+05  7.59578e+05 
 4.92167e+05  6.90869e+05 
 5.00430e+05  7.06891e+05 
 7.66985e+05  8.12410e+05 
 4.71826e+05  7.11043e+05 
 4.79370e+05  7.28685e+05 
 7.96417e+05  7.99848e+05 
 8.03589e+05  8.49158e+05 
 4.46960e+05  7.35667e+05 
 8.31540e+05  8.34771e+05 
 4.54861e+05  7.54029e+05 
 8.35257e+05  8.80670e+05 
 8.60926e+05  8.64196e+05 
 4.23374e+05  7.58876e+05 
 4.32665e+05  7.77053e+05 
 8.61977e+05  9.07063e+05 
 8.85001e+05  8.88440e+05 
 4.02523e+05  7.79311e+05 
 4.12819e+05  7.97711e+05 
 9.04295e+05  9.08092e+05 
 8.84183e+05  9.28872e+05 
 9.19854e+05  9.24037e+05 
 3.84378e+05  7.97040e+05 
 9.02210e+05  9.46420e+05 
 3.95338e+05  8.15962e+05 
 9.31820e+05  9.36603e+05 
 9.25139e+05  9.45348e+05 
 9.16982e+05  9.60318e+05 
 9.41082e+05  9.46446e+05 
 3.68827e+05  8.12203e+05 
 9.37237e+05  9.57120e+05 
 3.80150e+05  8.31858e+05 
 9.17505e+05  9.78591e+05 
 9.48371e+05  9.54073e+05 
 9.35232e+05  9.70448e+05 
 9.46529e+05  9.63842e+05 
 9.54211e+05  9.60073e+05 
 9.46422e+05  9.71286e+05 
 9.18030e+05  9.96543e+05 
 3.55690e+05  8.24998e+05 
 9.54114e+05  9.67511e+05 
 9.34982e+05  9.86837e+05 
 9.46316e+05  9.78648e+05 
 3.67096e+05  8.45561e+05 
 9.53964e+05  9.74910e+05 
 9.46221e+05  9.85874e+05 
 9.53783e+05  9.82207e+05 
 9.18557e+05  1.01403e+06 
 9.46119e+05  9.93064e+05 
 9.35508e+05  1.00372e+06 
 3.44414e+05  8.35760e+05 
 9.53613e+05  9.89413e+05 
 3.49245e+05  8.45920e+05 
 9.46997e+05  1.00068e+06 
 3.55917e+05  8.57712e+05 
 9.53424e+05  9.96538e+05 
 9.46740e+05  1.00642e+06 
 9.19133e+05  1.03119e+06 
 9.53241e+05  1.00357e+06 
 9.35183e+05  1.02090e+06 
 3.34961e+05  8.44606e+05 
 9.08724e+05  1.04271e+06 
 9.45817e+05  1.01408e+06 
 9.53059e+05  1.01055e+06 
 3.38226e+05  8.55173e+05 
 3.56292e+05  8.75489e+05 
 8.96609e+05  1.05551e+06 
 9.45700e+05  1.02088e+06 
 9.52866e+05  1.01742e+06 
 9.36134e+05  1.03356e+06 
 3.27186e+05  8.52045e+05 
 9.25506e+05  1.04239e+06 
 8.82617e+05  1.07020e+06 
 9.45583e+05  1.02759e+06 
 3.39276e+05  8.68438e+05 
 9.52703e+05  1.02418e+06 
 3.28512e+05  8.61374e+05 
 3.56520e+05  8.93314e+05 
 3.21151e+05  8.57853e+05 
 9.52594e+05  1.03088e+06 
 9.46784e+05  1.03650e+06 
 3.28459e+05  8.68403e+05 
 8.66586e+05  1.08692e+06 
 9.39225e+05  1.04362e+06 
 9.30101e+05  1.05192e+06 
 3.21123e+05  8.64905e+05 
 3.38950e+05  8.86139e+05 
 3.28416e+05  8.75481e+05 
 9.19395e+05  1.06193e+06 
 3.21086e+05  8.71975e+05 
 3.56709e+05  9.11205e+05 
 3.27559e+05  8.83330e+05 
 9.07129e+05  1.07371e+06 
 3.21047e+05  8.79078e+05 
 8.48381e+05  1.10577e+06 
 3.27368e+05  8.89182e+05 
 3.39426e+05  9.03503e+05 
 3.21016e+05  8.86210e+05 
 8.92731e+05  1.08759e+06 
 3.28341e+05  8.96887e+05 
 3.56938e+05  9.29189e+05 
 3.20984e+05  8.93350e+05 
 3.70791e+05  9.42653e+05 
 3.28314e+05  9.04053e+05 
 3.87663e+05  9.59397e+05 
 3.39258e+05  9.18683e+05 
 8.76053e+05  1.10376e+06 
 3.20949e+05  9.00502e+05 
 3.28279e+05  9.11209e+05 
 4.08285e+05  9.79965e+05 
 3.20914e+05  9.07667e+05 
 8.27850e+05  1.12683e+06 
 3.28233e+05  9.18397e+05 
 4.33036e+05  1.00473e+06 
 3.20867e+05  9.14838e+05 
 3.37280e+05  9.32199e+05 
 3.49062e+05  9.43656e+05 
 3.28179e+05  9.25610e+05 
 8.56940e+05  1.12243e+06 
 3.20820e+05  9.22014e+05 
 4.62378e+05  1.03420e+06 
 3.20786e+05  9.29176e+05 
 3.26449e+05  9.35096e+05 
 3.33583e+05  9.42550e+05 
 3.42617e+05  9.52025e+05 
 3.54089e+05  9.63965e+05 
 3.68722e+05  9.78970e+05 
 3.86800e+05  9.97441e+05 
 8.04729e+05  1.15034e+06 
 4.09168e+05  1.02014e+06 
 8.35213e+05  1.14387e+06 
 4.96494e+05  1.06865e+06 
 4.36385e+05  1.04766e+06 
 5.34297e+05  1.10700e+06 
 4.68954e+05  1.08046e+06 
 7.84198e+05  1.17103e+06 
 8.11937e+05  1.16710e+06 
 5.07091e+05  1.11871e+06 
 5.66482e+05  1.13983e+06 
 7.66408e+05  1.18878e+06 
 7.92374e+05  1.18679e+06 
 5.41252e+05  1.15275e+06 
 5.93301e+05  1.16736e+06 
 7.51037e+05  1.20400e+06 
 7.75907e+05  1.20349e+06 
 6.15257e+05  1.19005e+06 
 5.69501e+05  1.18072e+06 
 7.37870e+05  1.21697e+06 
 7.62075e+05  1.21761e+06 
 6.33007e+05  1.20851e+06 
 5.92455e+05  1.20332e+06 
 7.26495e+05  1.22808e+06 
 7.50493e+05  1.22957e+06 
 6.47187e+05  1.22338e+06 
 6.10869e+05  1.22136e+06 
 7.16684e+05  1.23733e+06 
 7.02550e+05  1.23698e+06 
 6.88202e+05  1.23662e+06 
 6.73387e+05  1.23620e+06 
 7.41000e+05  1.23943e+06 
 6.58424e+05  1.23567e+06 
 7.27219e+05  1.24311e+06 
 6.25520e+05  1.23566e+06 
 6.47390e+05  1.24197e+06 
 7.33054e+05  1.24788e+06 
 7.11090e+05  1.25104e+06 
 6.37006e+05  1.24658e+06 
 7.18802e+05  1.25220e+06 
 6.98460e+05  1.25213e+06 
 6.76485e+05  1.25105e+06 
 6.66757e+05  1.25074e+06 
 6.86742e+05  1.25302e+06 
 6.55841e+05  1.25185e+06 
 7.26458e+05  1.25494e+06 
 6.46069e+05  1.25497e+06 
 7.13788e+05  1.25945e+06 
 7.08229e+05  1.25953e+06 
 6.96852e+05  1.25969e+06 
 6.91089e+05  1.25977e+06 
 7.01988e+05  1.26028e+06 
 6.85249e+05  1.25985e+06 
 6.79400e+05  1.25993e+06 
 7.20987e+05  1.26070e+06 
 6.73469e+05  1.26001e+06 
 6.67418e+05  1.26010e+06 
 6.61277e+05  1.26020e+06 
 6.52946e+05  1.26150e+06 
 7.16537e+05  1.26530e+06 
 7.10967e+05  1.26537e+06 
 7.05355e+05  1.26549e+06 
 6.99661e+05  1.26562e+06 
 6.93926e+05  1.26575e+06 
 6.88125e+05  1.26589e+06 
 6.82280e+05  1.26602e+06 
 6.76387e+05  1.26617e+06 
 6.70392e+05  1.26634e+06 
 6.64299e+05  1.26648e+06 
 6.58149e+05  1.26657e+06 
 1.41600e-14  3.77601e-14 
       00000  2.30596e-14 
-9.69347e+00 -6.56003e+01 
-1.07731e+02 -5.05438e+01 
 9.24309e+00 -7.38631e+01 
-4.70505e-15  2.45147e-16 
-6.57404e+01 -1.90594e+02 
 1.31019e+01 -8.13137e+01 
-2.41952e+02 -1.19534e+02 
 3.29958e+01 -2.13143e+02 
-3.67720e-16 -1.47088e-15 
 4.67901e+00 -7.40754e+01 
 1.92535e-15 -2.23646e-14 
-1.95835e+02 -3.90242e+02 
 2.39807e+00 -7.28984e+01 
-5.36423e+02 -2.75699e+02 
 9.81362e+00 -1.92848e+02 
 9.17576e-17  2.64262e-14 
 6.25358e+00 -5.28217e+02 
 4.10791e+00 -3.63127e+02 
-1.91867e+00 -8.46557e+01 
-4.25566e-16  1.08945e-14 
-5.23898e+00 -8.30914e+01 
-1.21974e+01 -1.97073e+02 
-3.22730e-15 -3.15558e-14 
-1.77065e+02 -1.15523e+03 
-9.71368e+02 -6.48439e+02 
-1.97295e+00 -3.15456e+02 
-1.24477e+01 -8.14473e+01 
-2.04272e-15        00000 
-9.38639e+00 -7.40825e+01 
-3.31167e+01 -2.11948e+02 
 6.12911e-15 -2.30743e-14 
-2.73017e+00 -3.60073e+02 
 1.04520e+01 -6.57221e+01 
-6.62643e+02 -1.95629e+03 
-1.63569e+03 -1.35484e+03 
 6.37637e-15  4.46346e-14 
 6.76731e+01 -1.76793e+02 
 9.87097e+01 -5.11707e+01 
-9.44155e+00 -5.18950e+02 
 2.15699e+02 -1.15480e+02 
 2.22129e+02 -3.68178e+02 
-1.42582e+03 -3.03126e+03 
 4.39109e+02 -2.37759e+02 
-2.53178e+03 -2.35597e+03 
 1.75332e+02 -1.13178e+03 
 8.16547e+02 -5.36456e+02 
 6.46787e+02 -1.91122e+03 
-2.48240e+03 -4.37733e+03 
 1.40919e+03 -1.15322e+03 
-3.65814e+03 -3.68978e+03 
 1.42430e+03 -2.99557e+03 
 2.15468e+03 -1.97301e+03 
-3.79109e+03 -5.92668e+03 
-4.92763e+03 -5.32057e+03 
 2.45757e+03 -4.32630e+03 
 3.13116e+03 -3.13856e+03 
-5.18658e+03 -7.48726e+03 
-6.10656e+03 -7.07323e+03 
 4.28993e+03 -4.60043e+03 
 3.72667e+03 -5.84195e+03 
-6.35532e+03 -8.70542e+03 
 5.46764e+03 -6.24652e+03 
 5.06640e+03 -7.32962e+03 
-6.78406e+03 -8.51663e+03 
-6.80126e+03 -8.98122e+03 
 6.33833e+03 -7.79845e+03 
-6.54926e+03 -9.09445e+03 
 6.13611e+03 -8.44104e+03 
-6.46153e+03 -8.35158e+03 
-5.56255e+03 -8.89185e+03 
 6.38134e+03 -8.65540e+03 
 6.46653e+03 -8.65742e+03 
-5.49775e+03 -7.07429e+03 
-4.11043e+03 -8.13632e+03 
 5.62033e+03 -8.72700e+03 
 6.08923e+03 -8.04362e+03 
-2.24021e+03 -7.03385e+03 
-4.20737e+03 -5.48344e+03 
-5.22722e+02 -6.01342e+03 
 4.27039e+03 -8.17565e+03 
-2.52327e+03 -3.42185e+03 
 5.15205e+03 -6.79062e+03 
 1.60019e+03 -4.73091e+03 
 4.09441e+02 -3.56079e+03 
-9.68024e+02 -1.04812e+03 
 3.66008e+03 -3.43967e+03 
 2.57194e+03 -7.20776e+03 
 2.94354e+03 -1.51468e+03 
 3.83845e+03 -5.12315e+03 
-1.35158e+03  3.25190e+03 
 5.49035e+03 -2.14937e+03 
 2.65375e+03  1.20055e+03 
 5.15033e+03 -1.62424e+02 
 5.21074e+03  1.45603e+03 
-1.52541e+03  7.82236e+03 
 7.44266e+02 -6.02019e+03 
 2.57378e+03  5.21087e+03 
 5.24373e+03  3.17693e+03 
 2.29758e+03 -3.20628e+03 
 5.24273e+03  4.95646e+03 
-1.38901e+03  1.25648e+04 
 5.23188e+03  6.79193e+03 
 2.63801e+03  9.69676e+03 
-1.39162e+03 -4.66435e+03 
-4.84007e+02 -3.13723e+03 
 5.41570e+03  8.79699e+03 
 7.88783e+02 -9.15131e+02 
 5.31930e+03  1.03453e+04 
-7.44331e+02  1.71735e+04 
 2.51099e+03  1.45073e+04 
-3.50012e+03 -3.40917e+03 
-1.36928e+03  1.95281e+04 
 5.00936e+03  1.25115e+04 
-2.87307e+03 -1.36691e+03 
 1.15401e+03  3.25590e+03 
-1.75709e+03  2.10648e+04 
 4.88421e+03  1.44132e+04 
 2.65198e+03  1.75575e+04 
-5.42726e+03 -2.04472e+03 
 4.35675e+02  1.93713e+04 
-1.46219e+03  2.19601e+04 
 4.76827e+03  1.62367e+04 
-2.72145e+03  1.50299e+03 
-5.17493e+03 -6.61909e+01 
 1.31670e+03  7.70170e+03 
-7.01070e+03 -9.10279e+02 
 5.03957e+03  1.82156e+04 
-5.22770e+03  1.50955e+03 
-2.96693e+02  2.19946e+04 
 3.21029e+03  1.95518e+04 
 1.24143e+03  2.06017e+04 
-7.01632e+03  6.86058e+02 
-2.77607e+03  5.82185e+03 
-5.25919e+03  3.17570e+03 
-4.35986e+02  2.15725e+04 
-7.02494e+03  2.30737e+03 
 1.16901e+03  1.22783e+04 
-5.44636e+03  5.07456e+03 
-1.28095e+03  2.20523e+04 
-7.02449e+03  3.99197e+03 
 1.88842e+03  2.09494e+04 
-5.47345e+03  6.52227e+03 
-2.60978e+03  1.03073e+04 
-7.01857e+03  5.73075e+03 
-1.52439e+03  2.19731e+04 
-5.19295e+03  8.50618e+03 
 5.28589e+02  1.67772e+04 
-6.98711e+03  7.51403e+03 
 1.11342e+03  1.90585e+04 
-5.12259e+03  1.03314e+04 
 1.56572e+03  2.06332e+04 
-2.61443e+03  1.42961e+04 
-8.47427e+02  2.11015e+04 
-6.92218e+03  9.32397e+03 
-5.02474e+03  1.22344e+04 
 1.12690e+03  2.13018e+04 
-6.82933e+03  1.11511e+04 
 5.05270e+03  1.87908e+04 
-4.89999e+03  1.40792e+04 
-7.31979e+01  2.12909e+04 
-6.65805e+03  1.30270e+04 
-2.87468e+03  1.71354e+04 
-6.54439e+02  1.90867e+04 
-4.78029e+03  1.58424e+04 
 1.00698e+03  1.92924e+04 
-6.46511e+03  1.49393e+04 
-2.30096e+03  2.02535e+04 
-6.31259e+03  1.68530e+04 
-5.11725e+03  1.77219e+04 
-3.49181e+03  1.89088e+04 
-1.65256e+03  2.00007e+04 
-1.59656e+01  2.08714e+04 
 7.27615e+02  2.11757e+04 
 1.30330e+03  2.13619e+04 
 8.82764e+03  1.58073e+04 
 8.97038e+02  2.08612e+04 
 4.10172e+03  1.66244e+04 
-5.48965e+03  1.81010e+04 
-5.00841e+02  1.95007e+04 
-9.13331e+03  1.52050e+04 
-3.08679e+03  1.72213e+04 
 1.17006e+04  1.32615e+04 
 7.90776e+03  1.36989e+04 
-6.71726e+03  1.43151e+04 
-1.18212e+04  1.28524e+04 
 1.32935e+04  1.16413e+04 
 1.08978e+04  1.17766e+04 
-9.97204e+03  1.20837e+04 
-1.32933e+04  1.13921e+04 
 1.37246e+04  1.10041e+04 
 1.28029e+04  1.09923e+04 
-1.36063e+04  1.08562e+04 
-1.22418e+04  1.09862e+04 
 1.33747e+04  1.10703e+04 
 1.37140e+04  1.11377e+04 
-1.29959e+04  1.10966e+04 
-1.34783e+04  1.09543e+04 
 1.20141e+04  1.19831e+04 
 1.38328e+04  1.22102e+04 
-1.16895e+04  1.19349e+04 
-1.38486e+04  1.17359e+04 
 9.86012e+03  1.29694e+04 
 5.22014e+03  1.24051e+04 
 1.70045e+02  1.22401e+04 
-4.85914e+03  1.23893e+04 
 1.37695e+04  1.33705e+04 
-9.52674e+03  1.29491e+04 
 1.21571e+04  1.42626e+04 
-1.36028e+04  1.30224e+04 
-1.16525e+04  1.41979e+04 
 1.30646e+04  1.54028e+04 
 8.16747e+03  1.66685e+04 
-1.28203e+04  1.50681e+04 
 1.02992e+04  1.68823e+04 
 3.77915e+03  1.70982e+04 
-3.89359e+03  1.67493e+04 
-7.15338e+03  1.65989e+04 
-3.34311e+02  1.74036e+04 
-9.97529e+03  1.67206e+04 
 1.21108e+04  1.75833e+04 
-1.19439e+04  1.73318e+04 
 9.04871e+03  1.91995e+04 
 7.16694e+03  1.93474e+04 
 3.17539e+03  1.95788e+04 
 1.17968e+03  1.96336e+04 
 4.95316e+03  1.97179e+04 
-8.21832e+02  1.96282e+04 
-2.84223e+03  1.95813e+04 
 1.10029e+04  1.95684e+04 
-4.84807e+03  1.94883e+04 
-6.82006e+03  1.93552e+04 
-8.70392e+03  1.92055e+04 
-1.07272e+04  1.94851e+04 
 1.01672e+04  2.11565e+04 
 8.11687e+03  2.13047e+04 
 6.08945e+03  2.14904e+04 
 4.08950e+03  2.16355e+04 
 2.13465e+03  2.17189e+04 
 1.78553e+02  2.17528e+04 
-1.79450e+03  2.17266e+04 
-3.76469e+03  2.16418e+04 
-5.75267e+03  2.14896e+04 
-7.77716e+03  2.13042e+04 
-9.82246e+03  2.11607e+04 
 9.21856e+03  2.35465e+04 
 1.26970e+04  2.29806e+04 
 7.02592e+03  2.37013e+04 
 1.15009e+04  2.68140e+04 
 4.98674e+03  2.38414e+04 
 1.59900e+04  2.53296e+04 
 6.84324e+03  2.74138e+04 
 2.87733e+03  2.36686e+04 
 1.53375e+04  3.10446e+04 
 1.28216e+03  2.36559e+04 
 2.10817e+04  2.88051e+04 
 2.04244e+03  2.73136e+04 
 1.02005e+04  3.40468e+04 
 5.01698e+03  3.31132e+04 
-7.85989e+02  2.39767e+04 
-2.72459e+03  2.39249e+04 
-2.51835e+03  2.74558e+04 
 1.53299e+04  4.15534e+04 
 2.78913e+04  3.42554e+04 
 1.83879e+02  3.28338e+04 
-4.64763e+03  2.38389e+04 
-6.68374e+03  2.36955e+04 
-6.62105e+03  2.73999e+04 
-4.68124e+03  3.31283e+04 
-8.88958e+03  2.35332e+04 
 2.33623e+04  5.10704e+04 
 3.74228e+04  4.28705e+04 
-1.12314e+04  2.65135e+04 
-1.22403e+04  2.28990e+04 
-9.83648e+03  3.40763e+04 
-1.52731e+04  2.50585e+04 
-1.57433e+04  3.07639e+04 
 3.45549e+04  6.38034e+04 
-1.97221e+04  2.81269e+04 
 5.02111e+04  5.46803e+04 
-1.51534e+04  4.17792e+04 
-2.60010e+04  3.29356e+04 
-2.34610e+04  5.15533e+04 
 4.96499e+04  8.04631e+04 
-3.50299e+04  4.09225e+04 
 6.71432e+04  7.06536e+04 
-3.54677e+04  6.49638e+04 
-4.64439e+04  5.12668e+04 
 6.94773e+04  1.01791e+05 
 8.90860e+04  9.17771e+04 
-5.11576e+04  8.22012e+04 
-6.16362e+04  6.57142e+04 
 9.46699e+04  1.28323e+05 
 1.16700e+05  1.18870e+05 
-8.14793e+04  8.48138e+04 
-7.15843e+04  1.04234e+05 
 1.25440e+05  1.60188e+05 
-1.06800e+05  1.09560e+05 
-9.74911e+04  1.31587e+05 
 1.48271e+05  1.50409e+05 
 1.53794e+05  1.89183e+05 
-1.37972e+05  1.40523e+05 
 1.75522e+05  1.77950e+05 
-1.28244e+05  1.63386e+05 
 1.78364e+05  2.13972e+05 
 1.98234e+05  2.01151e+05 
-1.66835e+05  1.69545e+05 
-1.55751e+05  1.91469e+05 
 1.99003e+05  2.34571e+05 
 2.16691e+05  2.20172e+05 
-1.91143e+05  1.94316e+05 
-1.79464e+05  2.15397e+05 
 2.31255e+05  2.35464e+05 
 2.16044e+05  2.51436e+05 
 2.42924e+05  2.47839e+05 
-2.11007e+05  2.14816e+05 
 2.29676e+05  2.64744e+05 
-1.99307e+05  2.35186e+05 
 2.51608e+05  2.57433e+05 
 2.46744e+05  2.63984e+05 
 2.40782e+05  2.74979e+05 
 2.58187e+05  2.64877e+05 
-2.26899e+05  2.31408e+05 
 2.55410e+05  2.72700e+05 
-2.15562e+05  2.51204e+05 
 2.41228e+05  2.87767e+05 
 2.63325e+05  2.70622e+05 
 2.53941e+05  2.82134e+05 
 2.62078e+05  2.77667e+05 
 2.61926e+05  2.82682e+05 
 2.41323e+05  3.00265e+05 
-2.39446e+05  2.44639e+05 
 2.53605e+05  2.93340e+05 
 2.61763e+05  2.87647e+05 
-2.28647e+05  2.63933e+05 
 2.61600e+05  2.92568e+05 
 2.41267e+05  3.12822e+05 
 2.61467e+05  2.97576e+05 
 2.53799e+05  3.05194e+05 
-2.48897e+05  2.54973e+05 
-2.44895e+05  2.64197e+05 
 2.62050e+05  3.02955e+05 
-2.39448e+05  2.73838e+05 
 2.61861e+05  3.07105e+05 
 2.41235e+05  3.25452e+05 
 2.53459e+05  3.17764e+05 
-2.56037e+05  2.63120e+05 
 2.32148e+05  3.34539e+05 
 2.61189e+05  3.12716e+05 
-2.53351e+05  2.71686e+05 
-2.39892e+05  2.86499e+05 
 2.21294e+05  3.45460e+05 
 2.61146e+05  3.17823e+05 
 2.54291e+05  3.27425e+05 
-2.61563e+05  2.69309e+05 
 2.46265e+05  3.34309e+05 
 2.08130e+05  3.58714e+05 
 2.61130e+05  3.22946e+05 
-2.52382e+05  2.81645e+05 
-2.60516e+05  2.76508e+05 
-2.39972e+05  2.98835e+05 
-2.65940e+05  2.74222e+05 
 2.62140e+05  3.29720e+05 
-2.60368e+05  2.81470e+05 
 1.92298e+05  3.74664e+05 
 2.56740e+05  3.35295e+05 
 2.49911e+05  3.42328e+05 
-2.65754e+05  2.78992e+05 
-2.52460e+05  2.93841e+05 
-2.60203e+05  2.86370e+05 
 2.41383e+05  3.51063e+05 
-2.65506e+05  2.83777e+05 
-2.39910e+05  3.11244e+05 
-2.60607e+05  2.91704e+05 
 2.30759e+05  3.61898e+05 
-2.65274e+05  2.88638e+05 
 1.73440e+05  3.93673e+05 
-2.60618e+05  2.95751e+05 
-2.51977e+05  3.05847e+05 
-2.65114e+05  2.93553e+05 
 2.17678e+05  3.75230e+05 
-2.59786e+05  3.01133e+05 
-2.39854e+05  3.23746e+05 
-2.64974e+05  2.98515e+05 
-2.30568e+05  3.32970e+05 
-2.59705e+05  3.06110e+05 
-2.19270e+05  3.44308e+05 
-2.52015e+05  3.16452e+05 
 2.01699e+05  3.91511e+05 
-2.64869e+05  3.03522e+05 
-2.59633e+05  3.11148e+05 
-2.05524e+05  3.58132e+05 
-2.64786e+05  3.08539e+05 
 1.51257e+05  4.16049e+05 
-2.59594e+05  3.16197e+05 
-1.89020e+05  3.74733e+05 
-2.64697e+05  3.13607e+05 
-2.53352e+05  3.25793e+05 
-2.45248e+05  3.33650e+05 
-2.59583e+05  3.21272e+05 
 1.82364e+05  4.11197e+05 
-2.64624e+05  3.18718e+05 
-1.69365e+05  3.94511e+05 
-2.64570e+05  3.23823e+05 
-2.60778e+05  3.27790e+05 
-2.55877e+05  3.32884e+05 
-2.49654e+05  3.39335e+05 
-2.41844e+05  3.47398e+05 
-2.32012e+05  3.57471e+05 
-2.19899e+05  3.69866e+05 
 1.25518e+05  4.42023e+05 
-2.04984e+05  3.85080e+05 
 1.59255e+05  4.34711e+05 
-1.46260e+05  4.17784e+05 
-1.86829e+05  4.03588e+05 
-1.20210e+05  4.44063e+05 
-1.64979e+05  4.25843e+05 
 1.02360e+05  4.65387e+05 
 1.33553e+05  4.60835e+05 
-1.39056e+05  4.52212e+05 
-9.74495e+04  4.67037e+05 
 8.23647e+04  4.85565e+05 
 1.11537e+05  4.83210e+05 
-1.15395e+05  4.76267e+05 
-7.78653e+04  4.86813e+05 
 6.53438e+04  5.02747e+05 
 9.29580e+04  5.02085e+05 
-6.12552e+04  5.03594e+05 
-9.53255e+04  4.96655e+05 
 5.10193e+04  5.17213e+05 
 7.74876e+04  5.17796e+05 
-4.73278e+04  5.17672e+05 
-7.85434e+04  5.13691e+05 
 3.90645e+04  5.29280e+05 
 6.47377e+04  5.30751e+05 
-3.57575e+04  5.29373e+05 
-6.46756e+04  5.27760e+05 
 2.91582e+04  5.39254e+05 
 1.53909e+04  5.39256e+05 
 1.57406e+03  5.39256e+05 
-1.22459e+04  5.39241e+05 
 5.43389e+04  5.41319e+05 
-2.60193e+04  5.39218e+05 
 3.98270e+04  5.45102e+05 
-5.33234e+04  5.39271e+05 
-3.55472e+04  5.44664e+05 
 4.58881e+04  5.49921e+05 
 2.36636e+04  5.52882e+05 
-4.41007e+04  5.48625e+05 
 3.13766e+04  5.54089e+05 
 1.13472e+04  5.53936e+05 
-9.47436e+03  5.52901e+05 
-1.84613e+04  5.52611e+05 
 1.94307e+02  5.54767e+05 
-2.81613e+04  5.53500e+05 
 3.90721e+04  5.56865e+05 
-3.66631e+04  5.56171e+05 
 2.64313e+04  5.61147e+05 
 2.09026e+04  5.61164e+05 
 9.85406e+03  5.61195e+05 
 4.33493e+03  5.61203e+05 
 1.48218e+04  5.61834e+05 
-1.18460e+03  5.61202e+05 
-6.70729e+03  5.61196e+05 
 3.35958e+04  5.62450e+05 
-1.22304e+04  5.61184e+05 
-1.77596e+04  5.61170e+05 
-2.32943e+04  5.61155e+05 
-3.06862e+04  5.62243e+05 
 2.92216e+04  5.66922e+05 
 2.36668e+04  5.66939e+05 
 1.81282e+04  5.66961e+05 
 1.26031e+04  5.66979e+05 
 7.08843e+03  5.66989e+05 
 1.57455e+03  5.66993e+05 
-3.94149e+03  5.66991e+05 
-9.45870e+03  5.66982e+05 
-1.49854e+04  5.66965e+05 
-2.05280e+04  5.66945e+05 
-2.60865e+04  5.66930e+05 
 2.64468e+04  5.72741e+05 
 3.39833e+04  5.71625e+05 
 2.08834e+04  5.72760e+05 
 3.14088e+04  5.80476e+05 
 1.53497e+04  5.72777e+05 
 4.01695e+04  5.77709e+05 
 2.07649e+04  5.81421e+05 
 9.28859e+03  5.72133e+05 
 3.90077e+04  5.89479e+05 
 4.76850e+03  5.72007e+05 
 4.80599e+04  5.85372e+05 
 7.07581e+03  5.81137e+05 
 2.91653e+04  5.95124e+05 
 1.53609e+04  5.94945e+05 
-1.18140e+03  5.72791e+05 
-6.69370e+03  5.72787e+05 
-6.29437e+03  5.81503e+05 
 3.91938e+04  6.05682e+05 
 5.79386e+04  5.95075e+05 
 1.57365e+03  5.94894e+05 
-1.22063e+04  5.72780e+05 
-1.77420e+04  5.72763e+05 
-1.79702e+04  5.81392e+05 
-1.22202e+04  5.94952e+05 
-2.33111e+04  5.72743e+05 
 5.14822e+04  6.18365e+05 
 7.03402e+04  6.07392e+05 
-2.83671e+04  5.79873e+05 
-3.06259e+04  5.71407e+05 
-2.60212e+04  5.95136e+05 
-3.63148e+04  5.77004e+05 
-3.71113e+04  5.89037e+05 
 6.65886e+04  6.33917e+05 
-4.35411e+04  5.84041e+05 
 8.57614e+04  6.22723e+05 
-3.62772e+04  6.05930e+05 
-5.26609e+04  5.92960e+05 
-4.90495e+04  6.19101e+05 
 8.50069e+04  6.52839e+05 
-6.41846e+04  6.04367e+05 
 1.04815e+05  6.41681e+05 
-6.48213e+04  6.35292e+05 
-7.84035e+04  6.18473e+05 
 1.07266e+05  6.75654e+05 
 1.28146e+05  6.64929e+05 
-8.39125e+04  6.54886e+05 
-9.60082e+04  6.36032e+05 
 1.33845e+05  7.02835e+05 
 1.56379e+05  6.93106e+05 
-1.17637e+05  6.57605e+05 
-1.06898e+05  6.78463e+05 
 1.65126e+05  7.34765e+05 
-1.43938e+05  6.83867e+05 
-1.34278e+05  7.06494e+05 
 1.88124e+05  7.24863e+05 
 1.93594e+05  7.63832e+05 
-1.75466e+05  7.15398e+05 
 2.15635e+05  7.52384e+05 
-1.65579e+05  7.38441e+05 
 2.18446e+05  7.89186e+05 
 2.39068e+05  7.75839e+05 
-2.04566e+05  7.44490e+05 
-1.93256e+05  7.66671e+05 
 2.39795e+05  8.10935e+05 
 2.58714e+05  7.95520e+05 
-2.29500e+05  7.69428e+05 
-2.17329e+05  7.91218e+05 
 2.75032e+05  8.11837e+05 
 2.57875e+05  8.29334e+05 
 2.88373e+05  8.25171e+05 
-2.50530e+05  7.90471e+05 
 2.73067e+05  8.44806e+05 
-2.37942e+05  8.12230e+05 
 2.99336e+05  8.36082e+05 
 2.93158e+05  8.43892e+05 
 2.85645e+05  8.57715e+05 
 3.08230e+05  8.44929e+05 
-2.68037e+05  8.07995e+05 
 3.04660e+05  8.54904e+05 
-2.55369e+05  8.29988e+05 
 2.85549e+05  8.75595e+05 
 3.15390e+05  8.52080e+05 
 3.02869e+05  8.67517e+05 
 3.13727e+05  8.61363e+05 
 3.13717e+05  8.68445e+05 
 2.85488e+05  8.93440e+05 
-2.82454e+05  8.22433e+05 
 3.02561e+05  8.83584e+05 
 3.13697e+05  8.75551e+05 
-2.69955e+05  8.44850e+05 
 3.13665e+05  8.82670e+05 
 2.85495e+05  9.11311e+05 
 3.13636e+05  8.89811e+05 
 3.03005e+05  9.00569e+05 
-2.94295e+05  8.34245e+05 
-2.89236e+05  8.45193e+05 
 3.14594e+05  8.97525e+05 
-2.82272e+05  8.57485e+05 
 3.14403e+05  9.03395e+05 
 2.85621e+05  9.29160e+05 
 3.02629e+05  9.18358e+05 
-3.03920e+05  8.43812e+05 
 2.73498e+05  9.41671e+05 
 3.13540e+05  9.11287e+05 
-3.00507e+05  8.54786e+05 
-2.82179e+05  8.75333e+05 
 2.59162e+05  9.56289e+05 
 3.13508e+05  9.18445e+05 
 3.03751e+05  9.31846e+05 
-3.11690e+05  8.51579e+05 
 2.92535e+05  9.41340e+05 
 2.42080e+05  9.73690e+05 
 3.13483e+05  9.25582e+05 
-2.99360e+05  8.68301e+05 
-3.10309e+05  8.61124e+05 
-2.82119e+05  8.93142e+05 
-3.17721e+05  8.57622e+05 
 3.14865e+05  9.35051e+05 
-3.10296e+05  8.68196e+05 
 2.21918e+05  9.94212e+05 
 3.07131e+05  9.42712e+05 
 2.97544e+05  9.52128e+05 
-3.17693e+05  8.64662e+05 
-2.99650e+05  8.85981e+05 
-3.10275e+05  8.75285e+05 
 2.85807e+05  9.63729e+05 
-3.17653e+05  8.71717e+05 
-2.82129e+05  9.10972e+05 
-3.11067e+05  8.83099e+05 
 2.71606e+05  9.77859e+05 
-3.17613e+05  8.78805e+05 
 1.98391e+05  1.01814e+06 
-3.11211e+05  8.88939e+05 
-2.99137e+05  9.03319e+05 
-3.17581e+05  8.85919e+05 
 2.54413e+05  9.94969e+05 
-3.10178e+05  8.96653e+05 
-2.82254e+05  9.28790e+05 
-3.17547e+05  8.93048e+05 
-2.69891e+05  9.41530e+05 
-3.10148e+05  9.03792e+05 
-2.54976e+05  9.56722e+05 
-2.99270e+05  9.18457e+05 
 2.33819e+05  1.01548e+06 
-3.17513e+05  9.00190e+05 
-3.10115e+05  9.10950e+05 
-2.37273e+05  9.74717e+05 
-3.17478e+05  9.07336e+05 
 1.71313e+05  1.04565e+06 
-3.10083e+05  9.18093e+05 
-2.16394e+05  9.95949e+05 
-3.17431e+05  9.14493e+05 
-3.01100e+05  9.31577e+05 
-2.89681e+05  9.42440e+05 
-3.10058e+05  9.25215e+05 
 2.09444e+05  1.03977e+06 
-3.17384e+05  9.21653e+05 
-1.92091e+05  1.02067e+06 
-3.17349e+05  9.28804e+05 
-3.11720e+05  9.34395e+05 
-3.04626e+05  9.41426e+05 
-2.95792e+05  9.50126e+05 
-2.84946e+05  9.60825e+05 
-2.71826e+05  9.73856e+05 
-2.55798e+05  9.89796e+05 
 1.40579e+05  1.07684e+06 
-2.36559e+05  1.00899e+06 
 1.80992e+05  1.06816e+06 
-1.64202e+05  1.04902e+06 
-2.13642e+05  1.03185e+06 
-1.33434e+05  1.08024e+06 
-1.86734e+05  1.05871e+06 
 1.13512e+05  1.10434e+06 
 1.50081e+05  1.09905e+06 
-1.55610e+05  1.08981e+06 
-1.07111e+05  1.10696e+06 
 9.05802e+04  1.12763e+06 
 1.24155e+05  1.12496e+06 
-1.27805e+05  1.11759e+06 
-8.48643e+04  1.12955e+06 
 7.13451e+04  1.14716e+06 
 1.02673e+05  1.14644e+06 
-6.62643e+04  1.14844e+06 
-1.04669e+05  1.14070e+06 
 5.53184e+04  1.16341e+06 
 8.50412e+04  1.16408e+06 
-5.08428e+04  1.16411e+06 
-8.56191e+04  1.15973e+06 
 4.21420e+04  1.17679e+06 
 7.06767e+04  1.17843e+06 
-3.81526e+04  1.17700e+06 
-7.00667e+04  1.17527e+06 
 3.13761e+04  1.18780e+06 
 1.66323e+04  1.18787e+06 
 1.88718e+03  1.18790e+06 
-1.28616e+04  1.18787e+06 
 5.90029e+04  1.19008e+06 
-2.76051e+04  1.18779e+06 
 4.29873e+04  1.19417e+06 
-5.74536e+04  1.18788e+06 
-3.79352e+04  1.19370e+06 
 4.96429e+04  1.19940e+06 
 2.54762e+04  1.20251e+06 
-4.72996e+04  1.19800e+06 
 3.38051e+04  1.20383e+06 
 1.23128e+04  1.20362e+06 
-9.90165e+03  1.20251e+06 
-1.94976e+04  1.20221e+06 
 4.14534e+02  1.20450e+06 
-2.99376e+04  1.20319e+06 
 4.21538e+04  1.20684e+06 
-3.91429e+04  1.20609e+06 
 2.84555e+04  1.21139e+06 
 2.25303e+04  1.21138e+06 
 1.07292e+04  1.21137e+06 
 4.83429e+03  1.21137e+06 
 1.60382e+04  1.21207e+06 
-1.05943e+03  1.21137e+06 
-6.95368e+03  1.21137e+06 
 3.61926e+04  1.21280e+06 
-1.28510e+04  1.21138e+06 
-1.87600e+04  1.21138e+06 
-2.46861e+04  1.21139e+06 
-3.26558e+04  1.21257e+06 
 3.14285e+04  1.21758e+06 
 2.54972e+04  1.21756e+06 
 1.95814e+04  1.21755e+06 
 1.36807e+04  1.21754e+06 
 7.78276e+03  1.21754e+06 
 1.88732e+03  1.21753e+06 
-4.00751e+03  1.21754e+06 
-9.90422e+03  1.21754e+06 
-1.58092e+04  1.21755e+06 
-2.17271e+04  1.21757e+06 
-2.76601e+04  1.21758e+06 
 3.14667e-15  1.00694e-13 
 1.15298e-14  6.91787e-14 
-1.28776e+01  3.78891e+02 
-7.44915e+01  4.25872e+02 
 1.74512e+01  3.24223e+02 
 7.34714e-15  1.03552e-13 
-8.38305e+01  6.71264e+02 
 3.97595e+01  2.92047e+02 
-3.63658e+02  7.25104e+02 
 7.11777e+01  5.92243e+02 
-1.13993e-14  3.23594e-14 
 3.90348e+01  2.39407e+02 
-3.98478e-16  4.13638e-15 
-4.05544e+02  7.26744e+02 
 4.70792e+01  2.22169e+02 
-1.00766e+03  8.31457e+02 
 1.23617e+02  5.78150e+02 
-1.17450e-14  1.17450e-14 
-9.57583e+00  5.87471e+02 
 7.83096e+01  7.66903e+02 
 9.33762e+01  2.33224e+02 
 2.17890e-14 -1.08945e-14 
 9.07191e+01  1.85472e+02 
 2.44144e+02  6.30179e+02 
 2.86871e-14 -5.73742e-14 
-4.98741e+02  2.01552e+01 
-1.90257e+03  6.65053e+02 
 1.22167e+02  1.08473e+03 
 1.36024e+02  1.08107e+02 
-1.63417e-14 -4.35780e-14 
 7.34690e+01 -5.77026e+01 
 3.62596e+02  6.23307e+02 
-9.22971e-14 -5.76857e-14 
 1.39813e+02  1.81341e+03 
-2.12616e+02 -2.86614e+02 
-1.51039e+03 -7.65892e+02 
-3.23017e+03  3.21506e+01 
       00000 -1.53033e-13 
-1.01504e+03  2.11650e+01 
-1.22525e+03 -4.88383e+02 
-6.30973e+01  3.38287e+03 
-3.03220e+03 -6.32538e+02 
-3.47962e+03  1.43735e+03 
-3.04447e+03 -1.92869e+03 
-6.51264e+03  3.85672e+01 
-5.02584e+03 -9.84913e+02 
-3.01810e+03  1.01764e+04 
-1.21296e+04  2.66039e+03 
-9.95127e+03  1.92019e+04 
-5.16094e+03 -3.48640e+03 
-2.13106e+04  9.56239e+03 
-7.34471e+03 -2.46741e+03 
-2.18497e+04  3.29598e+04 
-3.31527e+04  1.89936e+04 
-7.86485e+03 -5.38756e+03 
-1.01404e+04 -4.41128e+03 
-3.84414e+04  5.15050e+04 
-4.98105e+04  3.37301e+04 
-1.10044e+04 -7.42708e+03 
-1.31827e+04 -6.64235e+03 
-7.24560e+04  5.43742e+04 
-6.12894e+04  7.62109e+04 
-1.42280e+04 -9.18960e+03 
-1.02125e+05  8.22617e+04 
-9.13746e+04  1.07642e+05 
-1.58886e+04 -8.64342e+03 
-1.64702e+04 -9.85420e+03 
-1.39011e+05  1.17938e+05 
-1.72737e+04 -9.63706e+03 
-1.27711e+05  1.44427e+05 
-1.75703e+04 -9.41071e+03 
-1.75076e+04 -9.67766e+03 
-1.72940e+05  1.51502e+05 
-1.60193e+05  1.76628e+05 
-1.77047e+04 -8.14281e+03 
-1.69395e+04 -9.01391e+03 
-2.00919e+05  1.79838e+05 
-1.87797e+05  2.03424e+05 
-1.56453e+04 -7.88631e+03 
-1.72389e+04 -6.44734e+03 
-1.43524e+04 -6.81971e+03 
-2.23063e+05  2.02775e+05 
-1.61055e+04 -4.13225e+03 
-2.10344e+05  2.24801e+05 
-1.24069e+04 -5.39750e+03 
-1.35862e+04 -4.15880e+03 
-1.49803e+04 -1.40962e+03 
-1.03891e+04 -3.89823e+03 
-2.40080e+05  2.20795e+05 
-1.11078e+04 -1.78146e+03 
-2.28235e+05  2.41326e+05 
-1.55934e+04  3.12886e+03 
-8.58341e+03 -2.35180e+03 
-1.14053e+04  1.04785e+03 
-8.89457e+03 -1.95388e+02 
-8.84542e+03  1.41720e+03 
-1.61519e+04  7.49112e+03 
-2.52925e+05  2.34682e+05 
-1.15910e+04  4.97588e+03 
-8.82117e+03  3.07920e+03 
-2.42073e+05  2.53700e+05 
-8.83006e+03  4.81690e+03 
-1.68895e+04  1.19262e+04 
-8.83225e+03  6.54362e+03 
-1.16000e+04  9.10771e+03 
-2.61640e+05  2.44988e+05 
-2.58057e+05  2.53839e+05 
-8.54349e+03  8.48267e+03 
-2.53249e+05  2.62348e+05 
-8.53756e+03  9.96791e+03 
-1.81542e+04  1.66655e+04 
-1.17553e+04  1.35618e+04 
-2.67481e+05  2.52772e+05 
-2.63155e+04  2.18574e+04 
-8.64878e+03  1.19075e+04 
-2.65044e+05  2.60159e+05 
-2.54677e+05  2.72190e+05 
-3.67555e+04  3.05272e+04 
-8.47419e+03  1.38463e+04 
-1.11060e+04  1.80422e+04 
-2.71606e+05  2.57956e+05 
-1.51380e+04  2.18595e+04 
-5.09020e+04  4.29096e+04 
-8.26574e+03  1.59223e+04 
-2.64028e+05  2.68605e+05 
-2.70485e+05  2.63938e+05 
-2.56042e+05  2.81148e+05 
-2.74834e+05  2.61647e+05 
-7.66652e+03  1.92066e+04 
-2.70201e+05  2.68229e+05 
-6.95112e+04  5.98269e+04 
-9.62002e+03  2.25059e+04 
-1.28762e+04  2.79774e+04 
-2.74567e+05  2.65943e+05 
-2.64249e+05  2.78026e+05 
-2.69910e+05  2.72309e+05 
-1.84498e+04  3.54113e+04 
-2.74162e+05  2.70112e+05 
-2.57454e+05  2.88862e+05 
-2.70054e+05  2.76355e+05 
-2.77791e+04  4.60178e+04 
-2.73677e+05  2.74014e+05 
-9.32955e+04  8.21337e+04 
-2.69895e+05  2.79268e+05 
-2.64114e+05  2.86031e+05 
-2.73209e+05  2.77630e+05 
-4.07952e+04  6.03683e+04 
-2.69126e+05  2.82984e+05 
-2.58937e+05  2.95781e+05 
-2.72730e+05  2.81127e+05 
-2.58496e+05  2.98947e+05 
-2.68853e+05  2.86057e+05 
-2.58423e+05  3.00622e+05 
-2.64217e+05  2.92065e+05 
-5.85907e+04  7.94243e+04 
-2.72228e+05  2.84369e+05 
-2.68589e+05  2.89032e+05 
-2.60206e+05  3.00305e+05 
-2.71762e+05  2.87395e+05 
-1.22587e+05  1.10311e+05 
-2.68286e+05  2.91612e+05 
-2.63625e+05  2.98392e+05 
-2.71255e+05  2.90159e+05 
-2.64470e+05  2.96099e+05 
-2.60699e+05  2.99008e+05 
-2.67982e+05  2.93954e+05 
-8.21847e+04  1.04016e+05 
-2.70829e+05  2.92634e+05 
-2.69229e+05  2.94174e+05 
-2.70558e+05  2.94994e+05 
-2.68285e+05  2.96828e+05 
-2.65378e+05  2.98747e+05 
-2.62240e+05  3.00159e+05 
-2.59674e+05  3.00874e+05 
-2.58955e+05  3.00298e+05 
-2.58710e+05  2.99235e+05 
-1.57061e+05  1.44185e+05 
-2.60513e+05  2.96554e+05 
-1.12235e+05  1.34558e+05 
-2.76941e+05  2.87423e+05 
-2.64422e+05  2.91863e+05 
-2.85803e+05  2.78866e+05 
-2.70865e+05  2.84977e+05 
-1.87423e+05  1.74663e+05 
-1.46625e+05  1.68710e+05 
-2.79634e+05  2.76365e+05 
-2.92701e+05  2.71653e+05 
-2.12276e+05  2.00169e+05 
-1.75857e+05  1.97179e+05 
-2.87599e+05  2.69217e+05 
-2.97139e+05  2.66438e+05 
-2.31936e+05  2.20724e+05 
-1.99617e+05  2.19893e+05 
-2.99218e+05  2.63273e+05 
-2.93506e+05  2.64571e+05 
-2.47302e+05  2.37050e+05 
-2.18332e+05  2.37502e+05 
-2.99378e+05  2.61866e+05 
-2.97266e+05  2.62283e+05 
-2.58339e+05  2.49243e+05 
-2.32719e+05  2.50436e+05 
-2.98060e+05  2.61854e+05 
-2.99198e+05  2.61858e+05 
-2.65768e+05  2.58945e+05 
-2.73561e+05  2.60007e+05 
-2.81048e+05  2.60587e+05 
-2.88139e+05  2.61229e+05 
-2.44191e+05  2.60506e+05 
-2.95035e+05  2.62392e+05 
-2.57684e+05  2.63349e+05 
-2.99786e+05  2.62687e+05 
-2.97932e+05  2.64048e+05 
-2.52424e+05  2.66874e+05 
-2.69091e+05  2.68099e+05 
-2.99205e+05  2.65177e+05 
-2.63957e+05  2.69113e+05 
-2.75778e+05  2.68543e+05 
-2.86810e+05  2.67654e+05 
-2.91540e+05  2.67430e+05 
-2.81562e+05  2.68784e+05 
-2.95530e+05  2.67541e+05 
-2.58383e+05  2.71082e+05 
-2.98256e+05  2.68329e+05 
-2.67340e+05  2.73229e+05 
-2.70466e+05  2.72988e+05 
-2.76299e+05  2.72498e+05 
-2.79226e+05  2.72280e+05 
-2.73654e+05  2.73071e+05 
-2.82102e+05  2.72071e+05 
-2.85087e+05  2.71846e+05 
-2.62578e+05  2.74110e+05 
-2.88061e+05  2.71608e+05 
-2.90920e+05  2.71348e+05 
-2.93637e+05  2.71079e+05 
-2.96528e+05  2.71428e+05 
-2.65957e+05  2.76556e+05 
-2.68853e+05  2.76324e+05 
-2.71724e+05  2.76012e+05 
-2.74607e+05  2.75710e+05 
-2.77536e+05  2.75457e+05 
-2.80432e+05  2.75213e+05 
-2.83361e+05  2.74971e+05 
-2.86322e+05  2.74710e+05 
-2.89271e+05  2.74385e+05 
-2.92233e+05  2.74058e+05 
-2.95178e+05  2.73816e+05 
-2.67470e+05  2.79309e+05 
-2.64578e+05  2.78976e+05 
-2.70122e+05  2.79045e+05 
-2.65558e+05  2.82856e+05 
-2.72907e+05  2.78790e+05 
-2.62868e+05  2.82078e+05 
-2.69899e+05  2.82949e+05 
-2.76172e+05  2.78209e+05 
-2.63189e+05  2.86319e+05 
-2.78560e+05  2.77968e+05 
-2.61971e+05  2.85207e+05 
-2.77044e+05  2.82689e+05 
-2.66036e+05  2.87962e+05 
-2.72787e+05  2.89144e+05 
-2.81638e+05  2.78151e+05 
-2.84623e+05  2.77941e+05 
-2.84141e+05  2.82755e+05 
-2.63079e+05  2.88410e+05 
-2.61464e+05  2.87625e+05 
-2.79993e+05  2.89857e+05 
-2.87516e+05  2.77702e+05 
-2.90572e+05  2.77426e+05 
-2.90421e+05  2.82574e+05 
-2.87423e+05  2.90620e+05 
-2.93792e+05  2.77139e+05 
-2.61855e+05  2.88309e+05 
-2.62130e+05  2.88354e+05 
-2.97178e+05  2.81286e+05 
-2.98620e+05  2.76212e+05 
-2.95215e+05  2.91890e+05 
-3.02994e+05  2.79227e+05 
-3.03728e+05  2.87231e+05 
-2.62121e+05  2.86841e+05 
-3.09354e+05  2.83528e+05 
-2.64103e+05  2.87829e+05 
-3.03000e+05  3.02421e+05 
-3.18250e+05  2.90223e+05 
-3.14847e+05  3.15725e+05 
-2.64258e+05  2.83717e+05 
-3.30832e+05  3.01142e+05 
-2.67780e+05  2.85503e+05 
-3.31642e+05  3.33774e+05 
-3.46668e+05  3.15236e+05 
-2.68587e+05  2.78783e+05 
-2.73318e+05  2.81014e+05 
-3.53341e+05  3.56724e+05 
-3.67479e+05  3.34690e+05 
-2.74990e+05  2.72327e+05 
-2.80347e+05  2.74467e+05 
-3.94222e+05  3.60083e+05 
-3.81126e+05  3.85584e+05 
-2.82657e+05  2.65345e+05 
-4.27623e+05  3.92381e+05 
-4.15604e+05  4.20634e+05 
-2.87361e+05  2.67178e+05 
-2.88633e+05  2.60834e+05 
-4.67645e+05  4.31821e+05 
-2.91498e+05  2.62116e+05 
-4.55467e+05  4.60316e+05 
-2.92035e+05  2.59346e+05 
-2.92743e+05  2.59619e+05 
-5.03446e+05  4.67780e+05 
-4.90047e+05  4.94144e+05 
-2.92970e+05  2.60403e+05 
-2.91780e+05  2.59287e+05 
-5.32379e+05  4.97432e+05 
-5.18818e+05  5.21755e+05 
-2.88693e+05  2.60571e+05 
-2.92245e+05  2.63019e+05 
-2.85498e+05  2.62013e+05 
-5.54960e+05  5.21048e+05 
-2.89574e+05  2.67745e+05 
-5.41972e+05  5.43487e+05 
-2.80336e+05  2.64744e+05 
-2.83341e+05  2.67514e+05 
-2.86826e+05  2.74033e+05 
-2.74890e+05  2.67904e+05 
-5.72145e+05  5.39390e+05 
-2.76725e+05  2.72972e+05 
-5.60149e+05  5.60129e+05 
-2.88359e+05  2.86007e+05 
-2.69984e+05  2.71319e+05 
-2.77425e+05  2.80307e+05 
-2.70872e+05  2.76670e+05 
-2.70599e+05  2.81223e+05 
-2.89249e+05  2.98365e+05 
-5.85030e+05  5.53411e+05 
-2.77596e+05  2.91382e+05 
-2.70371e+05  2.85993e+05 
-5.74098e+05  5.72500e+05 
-2.70219e+05  2.90955e+05 
-2.89840e+05  3.10931e+05 
-2.70100e+05  2.95877e+05 
-2.77305e+05  3.03291e+05 
-5.93684e+05  5.63746e+05 
-5.90112e+05  5.72606e+05 
-2.69321e+05  3.01328e+05 
-5.85313e+05  5.81063e+05 
-2.69371e+05  3.05443e+05 
-2.90469e+05  3.23611e+05 
-2.77568e+05  3.15839e+05 
-5.99453e+05  5.71532e+05 
-3.01610e+05  3.33472e+05 
-2.69864e+05  3.10958e+05 
-5.97022e+05  5.78864e+05 
-5.86756e+05  5.90746e+05 
-3.15197e+05  3.46370e+05 
-2.69770e+05  3.16079e+05 
-2.76568e+05  3.25879e+05 
-6.03507e+05  5.76673e+05 
-2.84977e+05  3.33267e+05 
-3.32285e+05  3.62820e+05 
-2.69657e+05  3.21246e+05 
-5.95996e+05  5.87220e+05 
-6.02388e+05  5.82593e+05 
-5.88115e+05  5.99557e+05 
-6.06685e+05  5.80322e+05 
-2.68539e+05  3.28315e+05 
-6.02097e+05  5.86836e+05 
-3.53446e+05  3.83439e+05 
-2.73874e+05  3.34377e+05 
-2.80959e+05  3.42617e+05 
-6.06413e+05  5.84571e+05 
-5.96209e+05  5.96491e+05 
-6.01800e+05  5.90862e+05 
-2.90501e+05  3.53149e+05 
-6.06001e+05  5.88689e+05 
-5.89502e+05  6.07136e+05 
-6.01936e+05  5.94843e+05 
-3.03426e+05  3.66799e+05 
-6.05511e+05  5.92536e+05 
-3.79187e+05  4.08813e+05 
-6.01776e+05  5.97708e+05 
-5.96074e+05  6.04354e+05 
-6.05041e+05  5.96094e+05 
-3.19984e+05  3.84119e+05 
-6.01014e+05  6.01361e+05 
-5.90939e+05  6.13924e+05 
-6.04563e+05  5.99533e+05 
-5.90381e+05  6.17058e+05 
-6.00744e+05  6.04379e+05 
-5.90130e+05  6.18798e+05 
-5.96174e+05  6.10279e+05 
-3.40971e+05  4.05838e+05 
-6.04066e+05  6.02720e+05 
-6.00484e+05  6.07302e+05 
-5.91552e+05  6.18712e+05 
-6.03607e+05  6.05693e+05 
-4.09737e+05  4.39254e+05 
-6.00190e+05  6.09840e+05 
-5.94382e+05  6.17205e+05 
-6.03111e+05  6.08411e+05 
-5.96436e+05  6.14262e+05 
-5.92711e+05  6.17143e+05 
-5.99894e+05  6.12150e+05 
-3.67113e+05  4.32580e+05 
-6.02697e+05  6.10850e+05 
-5.98999e+05  6.13718e+05 
-6.02435e+05  6.13178e+05 
-6.00199e+05  6.14988e+05 
-5.97341e+05  6.16889e+05 
-5.94250e+05  6.18323e+05 
-5.91694e+05  6.19113e+05 
-5.90857e+05  6.18730e+05 
-5.90429e+05  6.17942e+05 
-4.44909e+05  4.74662e+05 
-5.91850e+05  6.15741e+05 
-3.98869e+05  4.64682e+05 
-6.05114e+05  6.08233e+05 
-5.95088e+05  6.11870e+05 
-6.11623e+05  6.01655e+05 
-6.00367e+05  6.06353e+05 
-4.75699e+05  5.06054e+05 
-4.34150e+05  4.99946e+05 
-6.07217e+05  5.99922e+05 
-6.15881e+05  5.96702e+05 
-5.01142e+05  5.32324e+05 
-4.63792e+05  5.29250e+05 
-6.12915e+05  5.95366e+05 
-6.17518e+05  5.93909e+05 
-5.21704e+05  5.53767e+05 
-4.87960e+05  5.52908e+05 
-6.16778e+05  5.93195e+05 
-6.16409e+05  5.93459e+05 
-5.38197e+05  5.71107e+05 
-5.07258e+05  5.71659e+05 
-6.14227e+05  5.94157e+05 
-6.17749e+05  5.93899e+05 
-5.50769e+05  5.84603e+05 
-5.22429e+05  5.86045e+05 
-6.10369e+05  5.96367e+05 
-6.17374e+05  5.96061e+05 
-5.60079e+05  5.95503e+05 
-5.71571e+05  5.96215e+05 
-5.83024e+05  5.96766e+05 
-5.94062e+05  5.97531e+05 
-5.34618e+05  5.97463e+05 
-6.04852e+05  5.98893e+05 
-5.49966e+05  6.01054e+05 
-6.15846e+05  5.99246e+05 
-6.10149e+05  6.01894e+05 
-5.43791e+05  6.05555e+05 
-5.64754e+05  6.07715e+05 
-6.13333e+05  6.03997e+05 
-5.57851e+05  6.08931e+05 
-5.74990e+05  6.08553e+05 
-5.92017e+05  6.07642e+05 
-5.99256e+05  6.07400e+05 
-5.84051e+05  6.09169e+05 
-6.05836e+05  6.07714e+05 
-5.50738e+05  6.11484e+05 
-6.10741e+05  6.09171e+05 
-5.62235e+05  6.14793e+05 
-5.66947e+05  6.14668e+05 
-5.76065e+05  6.14468e+05 
-5.80590e+05  6.14369e+05 
-5.71961e+05  6.15091e+05 
-5.85060e+05  6.14256e+05 
-5.89596e+05  6.14115e+05 
-5.55897e+05  6.15993e+05 
-5.94081e+05  6.13934e+05 
-5.98431e+05  6.13698e+05 
-6.02602e+05  6.13426e+05 
-6.07490e+05  6.14033e+05 
-5.59897e+05  6.19508e+05 
-5.64533e+05  6.19436e+05 
-5.69136e+05  6.19331e+05 
-5.73687e+05  6.19225e+05 
-5.78213e+05  6.19112e+05 
-5.82695e+05  6.18986e+05 
-5.87178e+05  6.18837e+05 
-5.91651e+05  6.18646e+05 
-5.96076e+05  6.18386e+05 
-6.00472e+05  6.18109e+05 
-6.04851e+05  6.17898e+05 
-5.62225e+05  6.24076e+05 
-5.56224e+05  6.23179e+05 
-5.66788e+05  6.24032e+05 
-5.58285e+05  6.30244e+05 
-5.71324e+05  6.23967e+05 
-5.51344e+05  6.28059e+05 
-5.66831e+05  6.30970e+05 
-5.76310e+05  6.23329e+05 
-5.52260e+05  6.37447e+05 
-5.80000e+05  6.23137e+05 
-5.45184e+05  6.34197e+05 
-5.77979e+05  6.30628e+05 
-5.60058e+05  6.41933e+05 
-5.71201e+05  6.41891e+05 
-5.84784e+05  6.23643e+05 
-5.89265e+05  6.23491e+05 
-5.88767e+05  6.30770e+05 
-5.52122e+05  6.50116e+05 
-5.37520e+05  6.41848e+05 
-5.82371e+05  6.41907e+05 
-5.93664e+05  6.23309e+05 
-5.98153e+05  6.23105e+05 
-5.98189e+05  6.30543e+05 
-5.93565e+05  6.42181e+05 
-6.02758e+05  6.22906e+05 
-5.42554e+05  6.59920e+05 
-5.27969e+05  6.51413e+05 
-6.07356e+05  6.29019e+05 
-6.09319e+05  6.21710e+05 
-6.05044e+05  6.42963e+05 
-6.14806e+05  6.26354e+05 
-6.15644e+05  6.37142e+05 
-5.30894e+05  6.71889e+05 
-6.22198e+05  6.32441e+05 
-5.16128e+05  6.63243e+05 
-6.14792e+05  6.54557e+05 
-6.32022e+05  6.40853e+05 
-6.28189e+05  6.68982e+05 
-5.16744e+05  6.86441e+05 
-6.45242e+05  6.52990e+05 
-5.01491e+05  6.77824e+05 
-6.46025e+05  6.87748e+05 
-6.61752e+05  6.68348e+05 
-4.99640e+05  7.04060e+05 
-4.83465e+05  6.95730e+05 
-6.68460e+05  7.11186e+05 
-6.82962e+05  6.88627e+05 
-4.79062e+05  7.25279e+05 
-4.61365e+05  7.17620e+05 
-7.09847e+05  7.14519e+05 
-6.96571e+05  7.40297e+05 
-4.54470e+05  7.50673e+05 
-7.43331e+05  7.47083e+05 
-7.31134e+05  7.75668e+05 
-4.36022e+05  7.42701e+05 
-4.31622e+05  7.74407e+05 
-7.83919e+05  7.86982e+05 
-4.13447e+05  7.64940e+05 
-7.71342e+05  8.16295e+05 
-4.11134e+05  7.95746e+05 
-3.93639e+05  7.84403e+05 
-8.21260e+05  8.23989e+05 
-8.06968e+05  8.52006e+05 
-3.93041e+05  8.14588e+05 
-3.76577e+05  8.01162e+05 
-8.52758e+05  8.55481e+05 
-8.37640e+05  8.82520e+05 
-3.61921e+05  8.15403e+05 
-3.77372e+05  8.30897e+05 
-3.49804e+05  8.27127e+05 
-8.78698e+05  8.81624e+05 
-3.63769e+05  8.45135e+05 
-8.63425e+05  9.07973e+05 
-3.39333e+05  8.37044e+05 
-3.45245e+05  8.44306e+05 
-3.52394e+05  8.57480e+05 
-3.30592e+05  8.45276e+05 
-8.99692e+05  9.02933e+05 
-3.34024e+05  8.54857e+05 
-8.84725e+05  9.28837e+05 
-3.52774e+05  8.75226e+05 
-3.23459e+05  8.52100e+05 
-3.35695e+05  8.67158e+05 
-3.25065e+05  8.61141e+05 
-3.25008e+05  8.68150e+05 
-3.53012e+05  8.93011e+05 
-9.16491e+05  9.20085e+05 
-3.35967e+05  8.83173e+05 
-3.24963e+05  8.75216e+05 
-9.02075e+05  9.45690e+05 
-3.24936e+05  8.82332e+05 
-3.53197e+05  9.10859e+05 
-3.24912e+05  8.89445e+05 
-3.35486e+05  9.00115e+05 
-9.29525e+05  9.33676e+05 
-9.24028e+05  9.45999e+05 
-3.23891e+05  8.97162e+05 
-9.16511e+05  9.59239e+05 
-3.24033e+05  9.03020e+05 
-3.53425e+05  9.28818e+05 
-3.35824e+05  9.17879e+05 
-9.39606e+05  9.44452e+05 
-3.66975e+05  9.41970e+05 
-3.24823e+05  9.10871e+05 
-9.35893e+05  9.56186e+05 
-9.17035e+05  9.77452e+05 
-3.83216e+05  9.58065e+05 
-3.24778e+05  9.18045e+05 
-3.34587e+05  9.31698e+05 
-9.47496e+05  9.52725e+05 
-3.46143e+05  9.41644e+05 
-4.03035e+05  9.77794e+05 
-3.24725e+05  9.25240e+05 
-9.34574e+05  9.70392e+05 
-9.45938e+05  9.62752e+05 
-9.17545e+05  9.95330e+05 
-9.53596e+05  9.58994e+05 
-3.23275e+05  9.35000e+05 
-9.45834e+05  9.70162e+05 
-4.26939e+05  1.00170e+06 
-3.31020e+05  9.43095e+05 
-3.40843e+05  9.53430e+05 
-9.53499e+05  9.66406e+05 
-9.34943e+05  9.88352e+05 
-9.45728e+05  9.77497e+05 
-3.53314e+05  9.66355e+05 
-9.53351e+05  9.73772e+05 
-9.18082e+05  1.01274e+06 
-9.46462e+05  9.85402e+05 
-3.69123e+05  9.82529e+05 
-9.53172e+05  9.81040e+05 
-4.55370e+05  1.03025e+06 
-9.46542e+05  9.91257e+05 
-9.34515e+05  1.00546e+06 
-9.52998e+05  9.88204e+05 
-3.88737e+05  1.00252e+06 
-9.45435e+05  9.98923e+05 
-9.18657e+05  1.02985e+06 
-9.52818e+05  9.95322e+05 
-9.08054e+05  1.04154e+06 
-9.45331e+05  1.00588e+06 
-8.95402e+05  1.05485e+06 
-9.34681e+05  1.02002e+06 
-4.12829e+05  1.02699e+06 
-9.52628e+05  1.00234e+06 
-9.45230e+05  1.01280e+06 
-8.80956e+05  1.06991e+06 
-9.52450e+05  1.00929e+06 
-4.88556e+05  1.06373e+06 
-9.45113e+05  1.01957e+06 
-8.64322e+05  1.08721e+06 
-9.52255e+05  1.01612e+06 
-9.36297e+05  1.03229e+06 
-9.25469e+05  1.04234e+06 
-9.44995e+05  1.02625e+06 
-4.42015e+05  1.05648e+06 
-9.52090e+05  1.02285e+06 
-8.45462e+05  1.10674e+06 
-9.51985e+05  1.02953e+06 
-9.46472e+05  1.03488e+06 
-9.39553e+05  1.04141e+06 
-9.31108e+05  1.04918e+06 
-9.21140e+05  1.05841e+06 
-9.09811e+05  1.06921e+06 
-8.96164e+05  1.08231e+06 
-5.26452e+05  1.10214e+06 
-8.80424e+05  1.09765e+06 
-4.76715e+05  1.09138e+06 
-8.24223e+05  1.12854e+06 
-8.62214e+05  1.11547e+06 
-8.00918e+05  1.15219e+06 
-8.41407e+05  1.13597e+06 
-5.59693e+05  1.13606e+06 
-5.14790e+05  1.12949e+06 
-8.17758e+05  1.15949e+06 
-7.80794e+05  1.17244e+06 
-5.87484e+05  1.16459e+06 
-5.46723e+05  1.16128e+06 
-7.96689e+05  1.18064e+06 
-7.63384e+05  1.18981e+06 
-6.10359e+05  1.18818e+06 
-5.72946e+05  1.18726e+06 
-7.48350e+05  1.20468e+06 
-7.78957e+05  1.19861e+06 
-6.29065e+05  1.20753e+06 
-5.94165e+05  1.20823e+06 
-7.35424e+05  1.21737e+06 
-7.64037e+05  1.21385e+06 
-6.43902e+05  1.22303e+06 
-6.11146e+05  1.22481e+06 
-7.24359e+05  1.22815e+06 
-7.51524e+05  1.22673e+06 
-6.55510e+05  1.23568e+06 
-6.70713e+05  1.23618e+06 
-6.85704e+05  1.23658e+06 
-7.00236e+05  1.23696e+06 
-6.24868e+05  1.23812e+06 
-7.14610e+05  1.23733e+06 
-6.42945e+05  1.24257e+06 
-7.41087e+05  1.23752e+06 
-7.24128e+05  1.24278e+06 
-6.35540e+05  1.24820e+06 
-6.61656e+05  1.25123e+06 
-7.32374e+05  1.24671e+06 
-6.52796e+05  1.25271e+06 
-6.75217e+05  1.25236e+06 
-6.97444e+05  1.25124e+06 
-7.06810e+05  1.25096e+06 
-6.87174e+05  1.25323e+06 
-7.16667e+05  1.25179e+06 
-6.43842e+05  1.25595e+06 
-7.25210e+05  1.25444e+06 
-6.58426e+05  1.26050e+06 
-6.64656e+05  1.26040e+06 
-6.76760e+05  1.26023e+06 
-6.82727e+05  1.26015e+06 
-6.71333e+05  1.26103e+06 
-6.88614e+05  1.26007e+06 
-6.94494e+05  1.25999e+06 
-6.50232e+05  1.26205e+06 
-7.00297e+05  1.25992e+06 
-7.06003e+05  1.25984e+06 
-7.11654e+05  1.25975e+06 
-7.19180e+05  1.26079e+06 
-6.55261e+05  1.26696e+06 
-6.61492e+05  1.26686e+06 
-6.67650e+05  1.26671e+06 
-6.73697e+05  1.26657e+06 
-6.79698e+05  1.26642e+06 
-6.85627e+05  1.26628e+06 
-6.91512e+05  1.26616e+06 
-6.97351e+05  1.26602e+06 
-7.03106e+05  1.26588e+06 
-7.08787e+05  1.26576e+06 
-7.14443e+05  1.26569e+06 </DataArray>
            <DataArray Name="strain" NumberOfComponents="3" format="ascii" type="Float64">
 6.55312e+04  1.24609e+04 -1.03682e+05 
 3.58592e+03 -1.86067e+03 -1.60695e+04 
 1.43505e+04  1.55004e+04 -4.42388e+04 
 4.03811e+04  2.28875e+04 -1.25429e+05 
-1.90886e+04  2.70702e+04  4.55980e+03 
-6.51273e+03 -8.09941e+02 -9.54282e+03 
-1.26366e+04  4.54239e+04 -3.20682e+04 
-1.62890e+04  7.82182e+03  2.66484e+04 
 8.19025e+03  3.69132e+04 -1.47956e+05 
-4.06921e+03 -2.20485e+03  5.05765e+04 
-1.02364e+04 -8.75945e+01  1.23040e+04 
-9.76933e+03  7.15075e+03  2.19774e+04 
-5.98123e+03 -1.50088e+03  1.77429e+04 
 3.51456e+03  1.19951e+04 -4.76563e+04 
-1.02622e+04  4.05814e+03  2.19871e+04 
 5.68981e+04  4.50050e+03 -2.34876e+05 
-2.05058e+03  1.89450e+03  3.61919e+04 
-6.30185e+03  1.22261e+03  2.29999e+04 
-7.09330e+03 -5.50282e+04  9.95914e+04 
 1.63725e+04 -4.64660e+04  4.97685e+04 
-8.57539e+03 -3.72464e+02  2.46133e+04 
-5.01512e+03 -1.41422e+02  2.71277e+04 
-4.58971e+03  2.57913e+03  2.39843e+04 
 1.09129e+02 -7.86467e+02  1.71391e+04 
-3.38479e+03 -1.40587e+02  2.72068e+04 
-2.16792e+04 -3.16268e+04  1.02363e+05 
 1.30023e+04  2.52399e+04 -5.40200e+04 
 2.92909e+03 -1.94784e+04  2.08500e+04 
-5.20924e+03  2.11609e+03  2.51588e+04 
-1.96527e+03 -9.90455e+01  3.16807e+04 
-3.39447e+03  5.45510e+03  2.67072e+04 
-1.24708e+03  1.74633e+03  9.68262e+03 
 8.79437e+02 -1.04551e+03  3.64949e+04 
 2.86919e+03 -1.03803e+04  7.65850e+03 
 1.20245e+02  6.51283e+03  3.14796e+04 
-1.50777e+03 -2.87252e+04  5.45878e+04 
 1.58291e+04  2.10052e+04 -5.29170e+04 
 3.98900e+03  5.08459e+03  4.83047e+04 
 8.81240e+02  8.53764e+03  2.12913e+04 
 7.21868e+03  8.54779e+03  3.89371e+04 
 2.06290e+02 -3.99237e+03  1.96185e+03 
 6.71802e+03  6.38367e+03  3.60594e+04 
 4.29883e+03  4.58863e+03  2.19761e+04 
 7.38587e+02 -3.10158e+04  4.63522e+04 
 1.02525e+04  4.92924e+03  5.05398e+04 
 8.96311e+03  2.06107e+04 -5.03152e+04 
 2.51746e+03 -2.21061e+03  2.03093e+03 
 5.21705e+03  3.89895e+03  2.19399e+04 
 2.93154e+03  7.08187e+02  1.54539e+04 
 6.69554e+03 -2.78656e+04  3.56634e+04 
 7.70006e+03  4.05057e+03  3.25180e+04 
 4.31841e+03  1.60232e+04 -4.40192e+04 
 2.46165e+03  2.04169e+03  1.23258e+04 
 5.73126e+03  1.58437e+03  1.92201e+04 
 9.20857e+03 -2.20154e+04  2.47853e+04 
 2.39301e+03  9.71725e+03 -3.45807e+04 
 3.63693e+03  1.94387e+03  1.50423e+04 
 5.95062e+03  1.94554e+03  1.79171e+04 
 8.81221e+03 -1.44844e+04  1.30139e+04 
 2.28000e+03  3.74960e+03 -2.05916e+04 
 4.27182e+03  2.10536e+03  1.55441e+04 
 5.11399e+03  1.67580e+03  1.81617e+04 
 6.29651e+03 -7.05106e+03  3.00487e+03 
 2.44163e+03  3.01292e+03  1.29020e+04 
 6.50425e+03  1.23232e+03  2.13550e+04 
 3.53906e+03 -1.90242e+03 -8.81795e+03 
 5.13338e+03 -1.64836e+03 -9.29264e+03 
 1.12295e+03  3.20474e+03  9.54109e+03 
 6.01367e+03 -8.94363e+03  6.35233e+02 
 8.72587e+03  3.84473e+02  2.38447e+04 
 4.71098e+03  4.59080e+03 -1.96426e+04 
 5.56210e+03 -1.54234e+04  8.56000e+03 
-5.48922e+02  3.03703e+03  5.59219e+03 
 1.08319e+04  5.04751e+02  2.71388e+04 
 4.66325e+03  8.86881e+03 -2.91456e+04 
 7.06493e+03 -1.24021e+04  1.20850e+04 
-2.36932e+03  2.29483e+03  3.25128e+03 
 1.24200e+04  1.46628e+03  3.01149e+04 
-5.27512e+03 -2.15575e+04  7.87347e+04 
 1.14933e+04  4.74166e+03 -1.03963e+04 
-4.86095e+03 -8.24081e+03  2.25080e+04 
-3.61409e+03  7.70825e+02  1.71003e+03 
 2.74024e+04  5.38906e+03 -7.74539e+04 
 1.31829e+04  3.39303e+03  3.30931e+04 
-9.38240e+03 -2.76091e+04  1.51615e+05 
-9.05699e+03 -1.36509e+03  2.14427e+04 
 3.91946e+04  7.42044e+03 -4.72687e+04 
-2.43381e+04  2.52604e+03  7.29123e+04 
-3.54345e+03 -1.38259e+03  1.21854e+03 
-3.82063e+04  1.62637e+04  4.35657e+04 
 1.22556e+04  4.16890e+03  3.53458e+04 
 6.11396e+04 -2.36174e+04 -1.21288e+04 
-1.83882e+04 -1.21500e+03  5.09228e+04 
 5.73334e+02  4.65645e+03 -4.35716e+02 
-2.51063e+04  1.50191e+04  4.03310e+04 
-2.35346e+04  8.45479e+03  2.39200e+04 
-4.00803e+04  2.44676e+04  2.02483e+04 
 5.59120e+04 -1.95827e+04 -7.91767e+02 
-4.79811e+03 -5.90801e+02  9.27276e+02 
-3.10294e+04  1.33076e+04  1.70369e+04 
 2.19166e+03 -5.67585e+03  1.43775e+03 
-1.89735e+04  1.34431e+04  6.49391e+03 
 1.34141e+04  1.02660e+04  5.01447e+04 
-4.64134e+04  2.07539e+04  1.19156e+04 
-3.63950e+04  1.64521e+04  5.75720e+03 
-4.56334e+04  1.91051e+04 -5.30200e+03 
 6.00019e+04 -2.27279e+04  7.11218e+03 
-1.72899e+04  1.17472e+04 -1.94891e+03 
 1.19794e+02 -3.98459e+03  3.50550e+03 
 1.59460e+03 -1.34295e+04 -5.56373e+04 
-4.76914e+04  1.97365e+04  5.21979e+03 
-6.55413e+02  2.86216e+03  3.80227e+03 
-3.65445e+04  1.86951e+04  5.41753e+03 
 2.03550e+04  5.72840e+03  4.04154e+04 
-5.00857e+04  2.09542e+04 -9.35500e+03 
-3.57372e+04  1.81736e+04 -7.96375e+03 
 4.47721e+04  6.02401e+03  5.55979e+04 
-4.41948e+04  1.67689e+04  3.34583e+02 
 3.18231e+01  4.97135e+03  4.12005e+03 
-9.21940e+03  3.90376e+03 -2.66980e+04 
 2.44616e+04  1.47826e+04  7.70102e+04 
-1.86794e+04  1.28983e+04 -3.90711e+03 
-4.88489e+04  2.11090e+04  9.59469e+03 
-1.42931e+04  1.04956e+04  3.36207e+02 
 2.43837e+04 -7.34584e+03  5.74383e+03 
 2.10232e+04  1.77773e+03  4.32335e+04 
-4.16106e+04  2.47797e+04 -2.22383e+04 
-4.75515e+04  2.16404e+04 -1.19476e+04 
-4.06784e+04  2.02688e+04 -3.27283e+04 
-1.00350e+04  3.85643e+03 -1.30356e+04 
-7.28379e+03  1.01009e+02 -2.57356e+04 
 2.21279e+04  2.24586e+01  3.65904e+04 
-2.37508e+04  1.43362e+04 -4.12219e+04 
 4.21996e+03  3.65178e+03  8.01300e+03 
-3.19443e+04  1.41567e+04 -1.53373e+04 
-6.42692e+03  1.11161e+04 -1.21965e+04 
 2.46495e+04 -5.29649e+03 -1.31605e+04 
-1.12357e+03  1.28804e+04 -2.93414e+04 
-2.68193e+04  1.00508e+04 -2.58385e+04 
-2.38602e+04  3.45800e+02 -5.53589e+04 
-5.49624e+03  1.00152e+04 -1.24019e+04 
 1.91621e+04 -3.68611e+03  2.80252e+04 
-2.82814e+04  4.48311e+03 -9.24184e+04 
-1.82690e+03 -3.58876e+04 -1.55018e+05 
 1.70593e+03  4.19920e+03 -1.86363e+04 
 5.09364e+03 -1.68351e+03 -4.76645e+03 
 1.87430e+03  7.43654e+03 -2.61299e+03 
-1.46643e+04 -8.49479e+03 -2.87411e+04 
 4.93953e+02  4.49553e+03 -9.50156e+03 
 4.63113e+04 -1.79269e+04 -3.75493e+04 
-8.45722e+02  5.28203e+03 -1.43159e+03 
-1.13012e+04 -9.88660e+03 -2.74481e+04 
-4.07336e+02  4.39667e+03  5.71994e+02 
 1.43129e+04 -4.74936e+03  1.91019e+04 
-3.08595e+03  5.79379e+03 -2.82976e+03 
 2.35997e+03 -1.00842e+03 -2.06216e+04 
-5.17521e+02  4.24455e+03  3.96580e+03 
-1.04608e+04 -5.25567e+03 -2.45965e+04 
-3.79630e+02  9.34394e+03 -5.29483e+03 
 3.99965e+04  9.41967e+03 -7.11073e+04 
-5.47755e+03  7.78112e+03  4.03082e+03 
 3.06211e+04  8.90570e+03 -9.42070e+04 
-1.15471e+04  1.06651e+04 -4.47124e+03 
 1.25748e+04  8.50489e+03 -1.29594e+04 
 3.38550e+03  3.85554e+03 -3.38480e+04 
-6.63079e+03 -2.40376e+03 -1.87540e+04 
-7.55395e+03  9.03004e+03  9.45885e+03 
-9.92382e+03  1.57270e+04 -1.17640e+04 
 3.84124e+03  1.58194e+04 -3.89789e+04 
-1.34383e+04  1.41335e+04  1.07977e+04 
 8.30449e+03 -3.58558e+03  9.71637e+03 
-2.90952e+04  2.20820e+04 -4.17673e+02 
 3.44761e+03  1.22795e+04 -3.17665e+04 
-1.87874e+04  1.39276e+04  1.82628e+04 
-3.57910e+04  1.10243e+04  3.42737e+04 
-1.12988e+04 -1.98821e+03  2.46536e+04 
-1.82881e+04 -2.07606e+03  3.16753e+04 
-1.81079e+03 -1.60811e+03 -1.01286e+04 
-1.77357e+04  6.12325e+03  2.48741e+04 
 2.97835e+03  5.86103e+03 -2.47254e+04 
-1.27650e+04 -3.19070e+04  3.09322e+04 
-1.30039e+04 -2.38630e+04  7.97375e+04 
-2.45715e+04 -4.00389e+03  8.78503e+04 
-1.14607e+04 -3.33095e+04  1.78160e+05 
-7.63908e+03 -7.85392e+03  2.70632e+04 
-8.33157e+03 -2.61862e+04  1.00943e+05 
 6.90015e+03 -1.54384e+04  1.87645e+04 
 2.89565e+03 -2.10692e+03  5.92693e+02 
 5.42632e+03 -2.13582e+04  1.76502e+04 
 2.94103e+03 -2.01846e+03  9.01137e+02 
 3.26881e+03  9.09103e+02 -1.36031e+04 
 7.31069e+03 -1.54462e+04  1.21943e+04 
 4.49816e+03 -4.24737e+03 -3.96280e+03 
 6.49986e+03 -9.09143e+03  4.64935e+03 
-1.85724e+03 -1.61329e+03 -1.01245e+04 
 8.41325e+03 -3.61169e+03  1.00464e+04 
 4.63452e+03 -3.17869e+03 -4.36558e+03 
 6.05634e+03 -1.02474e+04  5.40548e+03 
-7.82385e+03 -1.82632e+03 -1.75602e+04 
 1.45399e+04 -4.79339e+03  1.75993e+04 
 3.99173e+03  1.56112e+03 -1.53166e+04 
 5.43707e+03 -1.51715e+04  1.44269e+04 
-1.13293e+04 -2.07649e+03 -2.48928e+04 
 2.02233e+04 -3.39576e+03  2.33327e+04 
 2.17488e+03 -1.83219e+04  2.29770e+04 
 4.43656e+03  6.27734e+03 -2.44400e+04 
-5.26894e+03 -9.82464e+03 -2.42956e+03 
 1.54107e+04 -4.77563e+03  2.50054e+04 
 7.39943e+02 -1.77974e+04  2.97677e+04 
 6.90310e+03  1.01626e+04 -3.06475e+04 
-5.84126e+03 -2.57861e+04 -7.41661e+04 
 2.50628e+04  8.79822e+03  9.80587e+04 
-1.16822e+04 -2.06212e+04  6.07990e+04 
 1.11103e+04  1.13145e+04 -3.38672e+04 
-5.28769e+03 -3.79937e+04 -5.73138e+04 
 1.12801e+04 -3.67435e+04 -3.35057e+04 
-2.01865e+03 -1.59207e+04 -3.38389e+03 
 1.68513e+04 -4.14826e+04  3.00186e+04 
 9.17538e+03  8.07531e+03  3.32773e+04 
-2.04399e+03 -3.79532e+04  5.80374e+04 
 3.42590e+03  1.19591e+04  3.06252e+04 
 9.66566e+03  1.47149e+04 -3.55314e+04 
 2.89216e+03  7.41424e+03 -3.33002e+04 
 3.17937e+04  1.17263e+04  1.69964e+05 
-8.49394e+02  7.62968e+02 -3.00153e+04 
 3.61545e+04  2.92214e+03 -1.50596e+05 
-5.72558e+03  3.47282e+04  5.12002e+04 
-7.45676e+03  9.24380e+03 -1.98159e+04 
-5.66566e+03  5.07012e+03  1.94504e+04 
-1.68418e+03  1.08429e+03  2.77325e+04 
-1.30435e+04  1.85275e+04 -1.23487e+02 
-8.63878e+03  3.15715e+04 -3.01723e+04 
 4.90108e+03  2.39066e+04  8.32405e+04 
 3.29804e+03  2.55307e+04 -9.44009e+04 
 8.19355e+03  1.85154e+04  2.16099e+04 
-1.89089e+04  2.48601e+04 -2.90605e+04 
-2.45545e+04  2.73030e+04 -1.19158e+04 
-2.17981e+04  1.70874e+04 -8.26355e+03 
-2.45465e+04  3.01720e+04 -1.20344e+04 
-1.84790e+04  2.28792e+04  2.29693e+03 
-2.14073e+04  2.07769e+04  1.93125e+04 
 3.39176e+04  5.48162e+03  8.13869e+04 
-2.13772e+04  2.23033e+04  2.00457e+04 
-2.16558e+04  3.44016e+04  2.38232e+04 
 7.65868e+03  1.54170e+04 -2.01457e+04 
 2.75420e+04  1.14856e+04 -7.87333e+04 
 4.93133e+04  1.86115e+04 -4.04130e+03 
-1.13590e+04  3.16174e+04 -2.69002e+03 
-2.10014e+04  3.18755e+04 -6.94817e+03 
-2.35713e+04  2.83949e+04  1.33929e+03 
-2.15402e+04  2.38589e+04  9.11849e+02 
-2.33045e+04  2.53655e+04 -4.06817e+03 
-2.18263e+04  2.37699e+04  5.10605e+03 
-2.55978e+04  2.90452e+04 -3.02435e+02 
-2.05643e+04  2.99144e+04  2.70821e+03 
-8.27250e+03  2.80163e+04  3.51477e+03 
 4.68926e+04  1.76366e+04  2.05210e+02 
 8.34587e+03  1.72341e+04 -2.50620e+04 
 2.82687e+04  1.52590e+04 -8.90990e+04 
-2.40635e+04  3.82782e+04  1.55859e+04 
-1.11587e+04  3.68591e+04 -2.92402e+04 
-2.25610e+04  1.96939e+04  1.88026e+04 
 3.00935e+03  2.98094e+04 -1.10253e+05 
-3.47212e+03  2.18294e+03  3.24263e+04 
-2.29032e+04  2.68408e+04  8.97630e+03 
 2.78739e+03  9.13027e+03 -3.76312e+04 
-2.26820e+04  2.49453e+04  2.24688e+03 
 4.18432e+04  3.40208e+03 -1.75363e+05 
-5.72966e+03  8.53484e+03  1.67922e+04 
-4.69815e+03 -4.36874e+04  6.62659e+04 
 1.33905e+04 -4.10931e+04  2.79151e+04 
-2.30965e+04  1.46131e+04 -3.07798e+03 
-2.05832e+04  2.69633e+04 -6.59885e+03 
-3.86674e+03  6.96522e+03 -1.46733e+04 
-1.47737e+04 -2.40002e+04  7.39625e+04 
 1.05010e+04  1.80238e+04 -4.08575e+04 
 3.63923e+03 -2.72140e+04  5.32106e+02 
-2.23858e+04  1.97709e+04 -1.83285e+04 
-2.31531e+04  3.64144e+04 -1.51323e+04 
-3.21656e+03  1.19855e+03 -3.04216e+04 
 1.54084e+04 -4.25471e+04 -2.85180e+04 
 8.21903e+03  1.77734e+04  2.39631e+04 
-2.05614e+02 -2.10790e+04  3.77699e+04 
 1.23732e+04  1.44774e+04 -3.94985e+04 
-7.55468e+03  3.37291e+04  3.86296e+04 
 3.02224e+04  8.54395e+03  8.25545e+04 
-6.51286e+03 -3.63445e+04 -5.52867e+04 
 5.49830e+03  2.45882e+04  8.90834e+04 
 4.12677e+03  1.11218e+04  3.23276e+04 
 1.51628e+03 -2.22911e+04  3.08295e+04 
 3.20363e+04  1.14915e+04  1.69368e+05 
 7.34584e+03  1.36864e+04 -3.66997e+04 
-5.09842e+03 -2.66131e+04 -7.43102e+04 
 9.67890e+03  7.57528e+03  3.30654e+04 
-4.26947e+03 -1.02705e+04 -2.27966e+03 
 5.64733e+03 -1.92996e+04  2.18861e+04 
 2.49245e+04  8.05709e+03  9.56041e+04 
 4.16651e+03  9.72659e+03 -3.07718e+04 
-9.56486e+03 -2.69538e+03 -2.36041e+04 
 1.51663e+04 -5.31974e+03  2.33942e+04 
 6.96718e+03 -1.42695e+04  1.26077e+04 
 3.17136e+03  4.63780e+03 -2.19947e+04 
-5.51513e+03 -2.59913e+03 -1.48359e+04 
 1.92091e+04 -3.84118e+03  2.06821e+04 
 5.93840e+03 -7.98549e+03  2.79118e+03 
 3.48892e+03 -3.33587e+02 -1.04308e+04 
 1.28888e+04 -4.77524e+03  1.35585e+04 
 8.12260e+02 -2.72162e+03 -5.56371e+03 
 4.27472e+03 -2.21315e+03 -6.49708e+03 
 6.05124e+03 -2.85507e+03  4.71271e+03 
 6.08457e+03 -3.59341e+03  6.38715e+03 
 5.02407e+03 -5.84211e+03 -8.11629e+02 
 3.66133e+03  2.65945e+03 -1.75032e+04 
 2.86888e+02 -1.38508e+03 -6.17527e+03 
 6.43750e+03 -1.21371e+04  7.08422e+03 
 1.27774e+04 -5.68367e+03  1.63136e+04 
 3.76243e+03  8.67816e+03 -2.54628e+04 
 5.19799e+03 -1.79586e+04  1.32149e+04 
-5.28973e+03 -1.24211e+03 -1.91936e+04 
 1.98209e+04 -6.47564e+03  2.73198e+04 
 3.97145e+03  1.23162e+04 -3.31892e+04 
 6.63075e+03 -1.34919e+04  1.52027e+04 
-1.10826e+04 -2.67451e+03 -2.85635e+04 
 2.53817e+04 -4.59277e+03  3.76125e+04 
-6.70749e+03 -2.30480e+04  8.71620e+04 
 1.14451e+04  6.68933e+03 -1.13176e+04 
-6.08240e+03 -7.75823e+03  2.38535e+04 
-1.54548e+04 -6.59647e+03 -3.48605e+04 
 2.80651e+04  6.82169e+03 -8.30648e+04 
 2.85477e+04  4.62609e+02  4.76223e+04 
-1.02531e+04 -2.87444e+04  1.59408e+05 
-1.04693e+04 -7.28410e+02  2.21485e+04 
 3.98858e+04  8.50587e+03 -5.06017e+04 
-2.52399e+04  2.92889e+03  7.54414e+04 
-1.60921e+04 -1.25871e+04 -3.76538e+04 
-4.00688e+04  1.72316e+04  4.45130e+04 
 2.68113e+04  2.50944e+03  5.53518e+04 
 6.19393e+04 -2.39335e+04 -1.37632e+04 
-1.89949e+04 -1.17687e+03  5.21696e+04 
 2.60934e+02  5.12227e+03 -1.61571e+03 
-2.60055e+04  1.55647e+04  4.11546e+04 
-2.41704e+04  8.67683e+03  2.44408e+04 
-4.11105e+04  2.52465e+04  2.03052e+04 
 5.57280e+04 -1.94857e+04 -1.82185e+03 
-2.01008e+04 -1.03346e+04 -3.90416e+04 
-3.18120e+04  1.36563e+04  1.74957e+04 
 2.00208e+03 -5.64047e+03  2.55772e+02 
-1.93979e+04  1.37444e+04  5.68306e+03 
 3.00672e+04  1.99388e+04  9.78700e+04 
-4.74259e+04  2.12271e+04  1.19231e+04 
-3.67756e+04  1.66370e+04  5.06748e+03 
-4.63110e+04  1.94071e+04 -5.61681e+03 
 5.89202e+04 -2.22934e+04  5.68742e+03 
-1.74572e+04  1.18341e+04 -2.83736e+03 
 5.47149e+01 -3.88621e+03  2.27942e+03 
-2.49680e+03 -4.75315e+04 -1.98268e+05 
-4.80726e+04  1.98806e+04  4.93389e+03 
-9.14385e+03 -1.23341e+03 -3.41702e+04 
-3.65109e+04  1.85909e+04  4.67289e+03 
 5.24320e+04  6.86863e+03  8.77764e+04 
-5.01101e+04  2.09803e+04 -9.59776e+03 
-3.55339e+04  1.81175e+04 -8.60064e+03 
 4.36202e+04  5.42570e+03  5.23422e+04 
-4.39814e+04  1.67015e+04  5.04672e+01 
 3.66420e+01  4.72743e+03  2.96547e+03 
-3.30787e+04 -1.65298e+03 -1.20533e+05 
 2.38015e+04  1.34018e+04  7.28467e+04 
-1.84712e+04  1.26865e+04 -4.74431e+03 
-4.83378e+04  2.08797e+04  9.24570e+03 
-4.21942e+04  1.55528e+04 -2.71796e+04 
 4.95890e+04 -1.76849e+04  3.92665e+04 
 2.01379e+04  1.02585e+03  3.99575e+04 
-4.07752e+04  2.41715e+04 -2.22410e+04 
-4.66926e+04  2.12452e+04 -1.19131e+04 
-3.92269e+04  1.93866e+04 -3.24666e+04 
-2.07012e+04 -2.54450e+04 -9.45164e+04 
-6.62218e+03 -3.44868e+02 -2.52813e+04 
 2.07669e+04 -6.38227e+02  3.28351e+04 
-2.31204e+04  1.39116e+04 -4.05998e+04 
 2.21071e+03  3.65747e+03  3.97418e+04 
-3.12925e+04  1.38494e+04 -1.50383e+04 
-1.85444e+04 -4.62154e+03 -3.30892e+04 
 2.78732e+04 -5.97989e+03  1.41487e+04 
-1.50574e+04 -4.15730e+04 -3.28556e+04 
-2.61354e+04  9.79375e+03 -2.52611e+04 
-2.31566e+04  2.41947e+02 -5.41513e+04 
-3.44181e+04  2.35913e+04  8.08586e+03 
 1.73927e+04 -3.97488e+03  2.38008e+04 
-2.73183e+04  4.08269e+03 -8.98309e+04 
-1.65722e+03 -3.46637e+04 -1.49063e+05 
-2.22074e+04  5.74945e+03 -1.95426e+04 
-1.58107e+03  1.10755e+03  2.77393e+04 
-1.30468e+04  1.78553e+04  2.17348e+04 
-1.34033e+04 -8.63322e+03 -2.76845e+04 
-2.35675e+04  1.52309e+04 -9.68530e+03 
 2.69287e+04 -9.07893e+03 -5.26684e+03 
-1.67562e+04  1.46850e+04  1.35925e+04 
-9.83836e+03 -9.88614e+03 -2.59288e+04 
-1.98114e+04  1.72247e+04  6.63690e+02 
 1.21781e+04 -4.55218e+03  1.42543e+04 
-1.36417e+04  1.48276e+04  1.27771e+04 
 1.05561e+03 -6.13599e+02  7.71251e+03 
-1.29799e+04  1.20271e+04  4.44026e+03 
-8.61838e+03 -5.49649e+03 -2.24785e+04 
-4.13671e+03  1.22987e+04  1.19080e+04 
 1.81827e+04  4.41328e+03 -2.70747e+04 
-1.32002e+04  1.29170e+04  3.73478e+03 
 1.36430e+04  2.76610e+03 -3.88742e+04 
-1.00356e+04  9.00138e+03  1.10650e+04 
 5.18571e+03  2.49783e+03 -1.21961e+03 
 2.53900e+02  3.20358e+03 -4.48298e+03 
-4.49302e+03 -2.97199e+03 -1.58542e+04 
-9.06495e+03  9.85396e+03  1.09479e+04 
-5.90375e+03  1.10854e+04  9.53626e+03 
 1.23255e+03  5.44907e+03 -1.26041e+04 
-9.12352e+03  9.28983e+03  1.16459e+04 
 5.84489e+03 -2.83823e+03  4.36570e+03 
-1.46947e+04  1.23579e+04  1.54917e+04 
 1.13789e+03  3.49253e+03 -8.43733e+03 
-8.37244e+03  7.70757e+03  1.91175e+04 
-1.84191e+04  5.74686e+03  2.17954e+04 
-5.90272e+03 -1.93236e+03  1.62194e+04 
-1.11877e+04  3.65879e+03  2.61789e+04 
 4.67106e+02 -2.56117e+03 -6.13290e+03 
-6.52959e+03  3.65561e+03  2.52035e+04 
 1.11009e+03  3.00275e+02 -4.11510e+03 
-4.33696e+03 -6.36556e+03  3.31231e+04 
-1.00763e+04 -8.54449e+03  4.24610e+04 
-1.23343e+04 -2.95573e+03  4.67833e+04 
-6.12698e+03 -1.67981e+04  8.90602e+04 
-4.05911e+03 -4.89255e+03  1.72395e+04 
-4.38028e+03 -1.30210e+04  5.04133e+04 
 2.62115e+03 -7.95699e+03  1.26214e+04 
 4.44178e+02 -1.58367e+03 -5.90425e+03 
 1.87075e+03 -1.02680e+04  1.14942e+04 
 5.46989e+03 -3.28098e+03  5.41650e+03 
 1.46070e+03 -2.30010e+03  1.76389e+03 
 2.48487e+03 -7.15514e+03  8.16879e+03 
 2.38123e+03 -5.43115e+03  6.70734e+03 
 1.68692e+03 -3.79281e+03  3.92041e+03 
-4.81967e+03 -1.31270e+03 -1.77202e+04 
 1.17907e+04 -5.29845e+03  1.49127e+04 
 8.88999e+02 -8.74774e+02 -1.26734e+03 
 2.89428e+03 -8.81233e+03  1.19901e+04 
-1.16760e+04 -1.85364e+03 -2.50851e+04 
 1.85409e+04 -6.08914e+03  2.28794e+04 
 7.41957e+02  1.80076e+03 -7.49615e+03 
 2.13834e+03 -1.15102e+04  1.69683e+04 
-1.54201e+04 -2.28913e+03 -3.26699e+04 
 2.48226e+04 -4.01542e+03  2.85837e+04 
-1.27720e+02 -1.31008e+04  2.17794e+04 
 1.31328e+03  4.54854e+03 -1.21660e+04 
-7.48606e+03 -1.17135e+04 -4.67819e+03 
 1.83836e+04 -5.58922e+03  2.96909e+04 
-1.09018e+03 -1.23817e+04  2.55393e+04 
 3.06290e+03  6.67373e+03 -1.53138e+04 
-7.90106e+03 -3.07257e+04 -9.11833e+04 
 2.99047e+04  1.08429e+04  1.18095e+05 
-9.04435e+03 -1.40047e+04  4.50955e+04 
 5.80695e+03  7.06346e+03 -1.67975e+04 
-7.30874e+03 -4.44864e+04 -7.04835e+04 
 1.40078e+04 -4.34951e+04 -4.17869e+04 
 1.06676e+03 -1.99897e+04 -1.41262e+04 
 1.22624e+04 -3.16622e+04  1.25586e+04 
 1.01947e+04  9.88043e+03  3.84063e+04 
-3.16433e+03 -2.43827e+04  3.98010e+04 
 3.51877e+03  1.43787e+04  3.45308e+04 
 4.84468e+03  8.97193e+03 -1.74581e+04 
 3.61709e+02  4.04207e+03 -1.51440e+04 
 3.77753e+04  1.40270e+04  2.02138e+05 
-1.83392e+03 -9.95378e+02 -3.18237e+04 
 2.19093e+04  1.08621e+03 -9.16103e+04 
-7.48774e+03  4.12421e+04  5.90396e+04 
-4.25125e+03  4.86434e+03 -2.31627e+04 
-1.18129e+03 -2.10062e+03  1.06539e+03 
-2.81150e+03 -9.17266e+02  9.86837e+03 
-7.12113e+03  1.00666e+04 -9.18582e+03 
-8.46016e+03  2.06273e+04 -1.61753e+04 
 5.83763e+03  2.75593e+04  9.85709e+04 
 3.27452e+02  1.51946e+04 -5.47197e+04 
 5.19877e+03  2.24826e+04  3.67783e+04 
-1.87299e+04  2.30590e+04 -1.84533e+04 
-1.94100e+04  2.03910e+04 -8.64921e+03 
-1.37100e+04  8.85184e+03 -8.94240e+03 
-1.88186e+04  2.48924e+04 -4.86130e+03 
-9.27531e+03  1.07321e+04 -2.38114e+03 
-1.12571e+04  8.50102e+03  5.68296e+03 
 3.45251e+04  1.09254e+04  9.56865e+04 
-1.24396e+04  8.78061e+03  4.78799e+02 
-1.38337e+04  1.60663e+04 -3.93040e+03 
-3.98448e+03  1.06728e+04 -2.10230e+04 
 8.54281e+03  1.15099e+04 -4.17641e+04 
 4.57905e+04  1.57111e+04  2.56537e+04 
-9.56704e+03  2.81107e+04  1.86279e+04 
-1.62858e+04  2.56594e+04  7.52663e+03 
-1.67878e+04  2.14706e+04  9.22191e+03 
-1.47223e+04  1.69576e+04  6.04748e+03 
-1.36255e+04  1.50014e+04  1.12181e+03 
-1.10135e+04  1.10540e+04  3.86982e+03 
-1.11673e+04  1.17305e+04 -1.42278e+03 
-8.63989e+03  9.95754e+03 -8.25569e+03 
-4.48004e+03  8.82848e+03 -1.63436e+04 
 9.20447e+03  5.86670e+03 -2.62795e+04 
 1.11602e+04  9.54055e+03 -3.51747e+03 
 2.28410e+04  5.54391e+03 -5.57261e+04 
-1.56363e+04  2.79650e+04  2.96000e+04 
-6.32822e+03  2.33128e+04 -1.57645e+04 
-1.49152e+04  1.55592e+04  2.79820e+04 
 1.16926e+03  1.96277e+04 -6.93812e+04 
-1.28872e+03  2.28902e+03  3.14822e+04 
-1.46597e+04  1.90366e+04  1.79114e+04 
 1.09402e+03  6.39541e+03 -2.35032e+04 
-1.44220e+04  1.58287e+04  1.16225e+04 
 2.67788e+04  2.19925e+03 -1.13254e+05 
-5.08719e+03  8.61381e+03  2.45323e+04 
-2.83923e+03 -2.85975e+04  4.67536e+04 
 7.50101e+03 -2.16710e+04  2.79729e+04 
-1.23101e+04  9.55221e+03  9.38344e+03 
-8.85940e+03  1.12812e+04  3.95224e+03 
-3.62251e+03  5.88222e+03  8.03281e+03 
-1.09624e+04 -1.55687e+04  5.09167e+04 
 6.09522e+03  1.26113e+04 -2.58766e+04 
-1.06429e+03 -4.78390e+03  1.44309e+04 
-7.57872e+03  7.41977e+03 -2.06173e+03 
-3.05883e+03  6.47583e+03 -1.05081e+04 
-8.78476e+01  2.97488e+03  1.99550e+03 
-1.96166e+03  1.65141e+03  7.15313e+03 
 2.99273e+03 -2.34792e+02 -7.58538e+03 
-1.20772e+03 -1.41126e+04  2.77703e+04 
 7.42372e+03  1.06999e+04 -2.56033e+04 
 1.93457e+03 -1.53430e+03  1.47648e+03 
 4.16323e+03 -3.78400e+03  2.17267e+02 
 1.61512e+03  1.69009e+03  8.79651e+03 
 4.28270e+02 -6.35358e+01 -9.07390e+02 
 1.15212e+03 -6.51819e+02  3.10004e+03 
-5.61557e+01 -1.54540e+04  2.42303e+04 
-1.10038e+03 -4.01525e+02 -7.28099e+03 
 4.05421e+03  1.07258e+04 -2.47323e+04 
 2.30831e+03  1.98619e+03  1.09973e+04 
 1.00445e+03 -5.70756e+02  1.98180e+03 
 2.68134e+03  9.69983e+02  5.00656e+03 
 2.95626e+03 -1.41960e+04  1.94394e+04 
-1.19902e+03 -7.57292e+02 -6.03370e+03 
 1.67840e+03  8.72553e+03 -2.21925e+04 
 4.22338e+03  1.83425e+02  8.40408e+03 
-5.98916e+02  4.83519e+02  5.99598e+02 
 4.41726e+03 -1.16385e+04  1.46516e+04 
 5.52310e+02  5.82614e+03 -1.83515e+04 
 4.72834e+03 -5.89809e+01  9.86750e+03 
-2.05112e+03  5.18195e+02 -7.69325e+02 
 4.53907e+03 -8.26432e+03  9.37542e+03 
 3.25248e+02  3.14882e+03 -1.20368e+04 
-2.52090e+03  1.27758e+03 -2.28794e+03 
 4.78851e+03 -5.46648e+02  1.18937e+04 
 3.22509e+03 -4.74925e+03  5.29234e+03 
-3.06227e+03  2.22780e+03 -3.54271e+03 
 5.16345e+03 -1.04174e+03  1.28275e+04 
 6.81557e+02  9.56217e+02 -6.67367e+03 
 2.55080e+03 -2.48487e+03  1.01827e+02 
-3.06346e+03  1.93504e+03 -5.31010e+03 
 2.06967e+03 -2.01864e+03 -2.44155e+03 
 6.56550e+03 -1.79201e+03  1.32737e+04 
 2.16704e+03 -3.78948e+01 -4.82566e+03 
 2.23729e+03 -4.74411e+03  1.31583e+03 
-3.86826e+03  1.52842e+03 -7.28227e+03 
 7.57097e+03 -1.18082e+03  1.48510e+04 
 2.03895e+03  1.84953e+03 -9.17052e+03 
 2.83408e+03 -4.22484e+03  3.30405e+03 
-4.87420e+03  6.88127e+02 -7.68364e+03 
 8.21113e+03 -1.04342e+02  1.61107e+04 
-1.39071e+03 -7.50511e+03  2.61573e+04 
 4.33788e+03  9.36795e+02 -3.44027e+03 
-1.32414e+03 -3.33036e+03  7.99275e+03 
-5.36644e+03 -5.88086e+02 -7.88975e+03 
 1.00313e+04  1.40040e+03 -2.67138e+04 
 8.29283e+03  1.46950e+03  1.75276e+04 
-3.17972e+03 -9.94016e+03  5.39151e+04 
-2.82733e+03 -8.01255e+02  7.86898e+03 
 1.44717e+04  2.32561e+03 -1.62987e+04 
-8.80826e+03  7.67817e+02  2.64921e+04 
-4.96111e+03 -2.17309e+03 -7.62200e+03 
-1.36331e+04  5.71665e+03  1.61071e+04 
 7.25896e+03  2.02839e+03  1.84600e+04 
 2.27486e+04 -8.78238e+03 -3.77776e+03 
-6.69496e+03 -4.78342e+02  1.87366e+04 
 3.18828e+02  1.56465e+03  4.43773e+02 
-9.11317e+03  5.44287e+03  1.49267e+04 
-8.62148e+03  3.09973e+03  8.81681e+03 
-1.47306e+04  8.91645e+03  7.67964e+03 
 2.12655e+04 -7.45745e+03  2.29173e+02 
-5.52079e+03 -1.51704e+03 -7.28564e+03 
-1.14078e+04  4.88606e+03  6.25360e+03 
 8.81515e+02 -2.15126e+03  1.15365e+03 
-7.02868e+03  4.96981e+03  2.88444e+03 
 7.65480e+03  6.51994e+03  2.85686e+04 
-1.71419e+04  7.65640e+03  4.52351e+03 
-1.36622e+04  6.17001e+03  2.54187e+03 
-1.70164e+04  7.11635e+03 -1.84891e+03 
 2.32840e+04 -8.83051e+03  3.44293e+03 
-6.52247e+03  4.43530e+03 -2.82504e+02 
 3.14802e+01 -1.54196e+03  1.96152e+03 
-3.56454e+02 -1.10928e+04 -4.73088e+04 
-1.79505e+04  7.43706e+03  2.12681e+03 
-2.38309e+03  8.40838e+02 -5.30961e+03 
-1.39324e+04  7.16977e+03  2.43815e+03 
 1.28639e+04  2.73232e+03  2.43365e+04 
-1.90421e+04  7.95954e+03 -3.42509e+03 
-1.37129e+04  6.94655e+03 -2.69655e+03 
 1.75400e+04  2.65226e+03  2.28601e+04 
-1.69296e+04  6.42003e+03  2.73631e+02 
-4.87892e+01  2.04703e+03  2.15103e+03 
-7.83112e+03  8.38694e+02 -2.62883e+04 
 9.58411e+03  6.44203e+03  3.15229e+04 
-7.24218e+03  5.02699e+03 -1.05538e+03 
-1.88480e+04  8.15020e+03  3.81975e+03 
-1.06428e+04  5.13619e+03 -4.32374e+03 
 1.27767e+04 -4.39148e+03  9.06212e+03 
 8.44739e+03  1.14572e+03  1.82629e+04 
-1.62693e+04  9.74557e+03 -8.46029e+03 
-1.85360e+04  8.43926e+03 -4.55807e+03 
-1.62733e+04  8.19157e+03 -1.25988e+04 
-5.59500e+03 -3.51016e+03 -1.83139e+04 
-3.20850e+03  3.14090e+02 -1.01070e+04 
 9.18351e+03  4.25656e+02  1.60972e+04 
-9.38417e+03  5.68303e+03 -1.60060e+04 
 8.95477e+02  1.43766e+03  9.54109e+03 
-1.24925e+04  5.54626e+03 -5.99650e+03 
-4.49676e+03  1.20040e+03 -7.34386e+03 
 7.91195e+03 -1.70493e+03  1.82437e+03 
-2.43108e+03 -5.16617e+03 -1.04359e+04 
-1.05516e+04  3.95399e+03 -1.01118e+04 
-9.45670e+03  1.91634e+02 -2.16902e+04 
-6.90081e+03  5.69446e+03  6.33073e+02 
 8.34753e+03 -1.21531e+03  1.32035e+04 
-1.12825e+04  1.92925e+03 -3.65412e+04 
-8.26122e+02 -1.43079e+04 -6.22835e+04 
-3.33716e+03  1.19838e+03 -5.45469e+03 
 1.04908e+02 -3.66006e+01  6.13388e+03 
-2.05726e+03  4.02241e+03  5.92721e+03 
-6.37455e+03 -3.11961e+03 -1.16337e+04 
-3.79353e+03  2.75310e+03 -8.61545e+02 
 9.10398e+03 -3.39628e+03 -3.25017e+03 
-3.21505e+03  3.20044e+03  4.99402e+03 
-5.25174e+03 -3.73462e+03 -1.14651e+04 
-3.61871e+03  3.25813e+03  3.49684e+03 
 6.77682e+03 -1.94185e+03  1.02799e+04 
-3.28391e+03  3.43732e+03  5.11948e+03 
-1.84757e+02  7.35283e+01  8.18183e+02 
-2.71590e+03  2.62868e+03  4.97734e+03 
-5.19311e+03 -1.83588e+03 -1.08001e+04 
-1.35288e+03  3.45525e+03  4.79125e+03 
 6.57380e+03  8.17293e+02 -7.90455e+03 
-3.53165e+03  3.33294e+03  4.91058e+03 
 4.63594e+03  6.07366e+01 -1.06087e+04 
-4.13036e+03  3.21859e+03  4.58975e+03 
 1.48835e+03 -2.40402e+02  3.16407e+03 
-3.59279e+02  6.46267e+02 -2.14479e+03 
-3.95703e+03 -5.46035e+02 -9.13822e+03 
-3.30429e+03  3.08982e+03  7.00864e+03 
-3.17075e+03  3.78292e+03  3.67912e+03 
 7.90586e+01  4.94775e+02 -4.79821e+02 
-4.13812e+03  3.60058e+03  7.10461e+03 
 4.74414e+03 -1.87707e+03  7.10190e+03 
-6.80357e+03  4.37854e+03  4.69429e+03 
 1.21791e+02 -5.00585e+02  1.76817e+03 
-4.63536e+03  3.07078e+03  8.75368e+03 
-7.01790e+03  9.68009e+02  1.08336e+04 
-2.58438e+03 -1.69029e+03  9.87089e+03 
-4.38911e+03 -1.12793e+03  1.11512e+04 
-2.24514e+03  1.19596e+01 -6.64537e+03 
-4.18718e+03  1.10658e+03  9.59988e+03 
 2.74589e+02 -1.86584e+03  4.27236e+03 
-2.66476e+03 -7.53448e+03  1.10933e+04 
-3.47196e+03 -6.17583e+03  2.15688e+04 
-5.17768e+03 -2.40759e+03  2.17905e+04 
-2.79689e+03 -7.20896e+03  3.70541e+04 
-1.89029e+03 -2.76190e+03  9.90688e+03 
-1.97214e+03 -5.45732e+03  2.12049e+04 
 5.62001e+02 -3.52446e+03  7.51497e+03 
 2.71150e+03 -1.17164e+03  4.45626e+03 
 2.36472e+02 -4.01226e+03  6.57751e+03 
-6.33624e+02  6.70775e+01 -2.86229e+03 
 5.89204e+02 -3.08771e+03  7.06398e+03 
 2.38437e+02 -2.54152e+03  4.66488e+03 
 1.23007e+03 -4.87960e+03  9.29703e+03 
-4.18066e+02 -9.42591e+02  2.45189e+03 
 1.27498e+03 -8.36168e+02  1.18131e+03 
 8.44464e+02 -2.43643e+02  3.28369e+02 
-6.55484e+02  2.87125e+02 -3.29604e+02 
 1.24005e+03 -6.64299e+03  1.20544e+04 
-3.60399e+02 -6.94937e+02 -1.65336e+03 
 2.71998e+03 -9.50803e+02  2.87996e+03 
-5.80415e+02  1.68569e+03 -3.61880e+03 
 5.57564e+02 -7.99561e+03  1.45761e+04 
-1.51115e+03 -6.65921e+02 -4.22964e+03 
 4.44435e+03 -8.81137e+02  5.04729e+03 
-9.18157e+02 -8.69544e+03  1.70855e+04 
-5.56470e+01  3.18225e+03 -5.72111e+03 
-5.28899e+02 -2.40834e+03  4.42019e+02 
 3.74558e+03 -1.27635e+03  6.05923e+03 
-1.56002e+03 -8.02028e+03  1.89543e+04 
 1.10946e+03  4.24542e+03 -7.11827e+03 
-7.11423e+02 -6.43019e+03 -1.65551e+04 
 6.10468e+03  1.88185e+03  2.30775e+04 
-6.31685e+03 -9.02821e+03  3.06009e+04 
 2.79628e+03  4.26568e+03 -7.65249e+03 
-1.37597e+03 -1.02636e+04 -9.88908e+03 
 5.46795e+03 -1.52322e+04 -7.67372e+02 
 2.79034e+03 -1.23703e+04  1.51456e+03 
 9.51562e+03 -2.25905e+04  8.90679e+03 
 2.74848e+03  1.74522e+03  8.85856e+03 
-2.16318e+03 -1.61282e+04  2.37996e+04 
 9.93896e+02  2.94590e+03  8.50686e+03 
 2.27119e+03  5.26275e+03 -7.77321e+03 
-8.47389e+02  2.37328e+03 -6.44171e+03 
 7.71994e+03  2.95854e+03  4.21694e+04 
-9.15614e+02  7.16474e+02  3.30787e+03 
 1.20894e+04  3.26669e+02 -5.26331e+04 
-3.09262e+03  1.05904e+04  1.62454e+04 
 3.84719e+02  1.16298e+01  4.11544e+03 
 2.10734e+03 -2.81578e+03  2.82622e+03 
-1.32956e+03 -7.89155e+02  2.70311e+03 
-1.70211e+03  5.29751e+03  3.14543e+03 
-7.44918e+03  1.41799e+04 -9.92298e+03 
-1.48476e+02  6.73813e+03  2.13249e+04 
-2.44688e+03  9.62924e+03 -2.91837e+04 
-4.19055e+03  7.74607e+03  1.39951e+04 
-4.95200e+03  6.93560e+03  6.03875e+03 
-6.24092e+03  1.07334e+04  2.52377e+03 
-3.16145e+03  5.69353e+03  1.99010e+03 
-4.86380e+03  9.63154e+03  6.92836e+03 
-3.38304e+03  8.93635e+03  3.40990e+03 
-3.65328e+03  7.22921e+03  8.29302e+03 
 9.82654e+02  5.14873e+03  1.60844e+04 
-5.52702e+03  7.68925e+03  3.04479e+03 
-8.36610e+03  1.30855e+04 -2.46382e+03 
-5.48263e+03  8.01263e+03 -1.07738e+04 
-3.20298e+02  7.33137e+03 -1.59065e+04 
-1.67749e+03  5.97796e+03  1.01836e+04 
-5.05108e+03  1.05616e+04  9.02075e+03 
-5.40429e+03  1.20547e+04  3.09597e+03 
-4.74296e+03  1.22773e+04  4.07673e+03 
-5.69570e+03  1.35382e+04  4.80549e+03 
-5.75742e+03  1.39475e+04  2.39611e+03 
-5.50460e+03  1.35841e+04  4.96822e+03 
-7.35665e+03  1.65850e+04  2.96188e+03 
-6.31719e+03  1.48624e+04 -6.29786e+02 
-4.95221e+03  1.13650e+04 -2.88274e+03 
-3.39165e+03  8.76600e+03 -6.14427e+03 
-5.15696e+03 -1.87891e+02 -1.10335e+03 
 3.39404e+02  2.38412e+01 -7.32694e+03 
-8.50110e+02 -4.61251e+01 -3.49147e+03 
-2.30246e+03 -1.13804e+02  3.05002e+03 
 1.84648e+03 -1.62849e+03 -7.15268e+03 
 8.67581e+02  8.89250e+01 -6.64793e+03 
 1.65757e+03 -2.57867e+03 -2.11794e+03 
 1.31993e+03 -1.06619e+02 -9.26438e+03 
 8.01396e+02 -2.11449e+03  5.76564e+03 
 1.02531e+02  1.33964e+03 -8.30688e+03 
 1.03225e+03 -6.74177e+01 -8.06227e+03 
 4.68009e+02 -1.48473e+02 -8.04800e+03 
 2.88896e+02  5.85442e+01 -8.21690e+03 
 4.20904e+02  8.01181e+02 -2.19475e+03 
 5.14577e+02 -1.51387e+02 -8.02984e+03 
-3.16327e+03  9.30705e+02  1.15923e+04 
-6.22674e+01  4.29774e+01 -7.15554e+03 
-6.83077e+01  8.83741e-01 -8.28472e+03 
 6.92661e+02  6.36155e+03 -1.22998e+04 
-1.67830e+03  4.58573e+03 -6.90530e+03 
-1.55286e+02  4.54716e+01 -8.58832e+03 
-2.92667e+02 -2.90537e-01 -8.10496e+03 
-5.39679e+02  2.67096e+02 -8.02948e+03 
-3.29242e+01 -1.16811e+02 -6.97484e+03 
-9.21136e+02  1.43114e+00 -8.09500e+03 
 1.97160e+03  4.23345e+03 -1.32947e+04 
-3.70626e+02  8.58596e+01 -2.21179e+03 
-4.89786e+01  1.13023e+02 -4.84530e+03 
-1.22286e+03  9.51676e+01 -9.21847e+03 
-8.74051e+02 -7.51917e+01 -6.77597e+03 
-1.89529e+03  1.62417e+03 -7.12745e+03 
-1.65461e+02 -1.44807e+03 -8.38849e+03 
-2.13070e+02 -4.30069e+01 -7.19111e+03 
 1.84197e+03 -4.71329e+03 -7.19796e+03 
 7.95892e+02  2.11574e+02 -3.48218e+03 
 5.15871e+02  3.46828e+03 -8.96944e+03 
-4.68375e+02  8.94605e+02 -3.07356e+03 
 4.96692e+03  5.90120e+00 -1.69573e+03 
-1.40516e+03  2.47781e+03 -1.00514e+03 
 2.51371e+03 -5.02445e+02  2.51964e+03 
-1.06260e+03 -5.60210e+03 -1.15038e+04 
-6.48348e+02  1.78593e+03  3.78023e+03 
-3.70025e+02 -4.54706e+02 -2.65068e+03 
 3.68771e+02  3.08015e+03 -7.38719e+03 
 2.31050e+03 -3.81792e+01  1.20259e+04 
-9.83479e+00  1.44632e+03 -4.15752e+03 
-1.27265e+03 -4.54020e+03 -1.37876e+04 
 2.88217e+02 -7.37050e+02 -2.62882e+03 
-8.96058e+02 -2.62560e+03 -6.36699e+03 
 1.87148e+02  2.17300e+03 -5.53420e+03 
 1.39095e+03 -8.23435e+02  2.30955e+03 
 8.46371e+01  2.36948e+03 -5.93154e+03 
-9.10391e+02 -1.90644e+03 -7.77089e+03 
 2.85946e+02 -2.13373e+03 -4.81977e+03 
 5.49498e+02  1.00994e+03 -3.44646e+03 
-2.10079e+02  3.28241e+03 -8.48660e+03 
-7.58890e+01 -2.01235e+03 -5.78234e+03 
 1.56017e+02 -1.90861e+03 -5.89305e+03 
 1.33315e+03 -2.91291e+02 -1.41878e+03 
-6.12288e+02  4.30495e+03 -1.07915e+04 
-9.88564e+02 -1.66843e+03 -7.66891e+03 
 8.67438e+02 -2.27046e+03 -3.44602e+03 
 1.32170e+03 -1.13478e+03  1.26943e+03 
-2.24246e+03 -9.23283e+02 -9.56422e+03 
 1.81341e+03 -2.64011e+03 -1.26029e+03 
-1.32612e+03  6.09293e+03 -1.26155e+04 
 1.15663e+03 -2.44114e+03  4.15680e+03 
-3.07545e+03 -8.55192e+02 -1.20069e+04 
-1.08591e+03  7.73861e+03 -1.42570e+04 
 3.47039e+03 -3.31144e+03  3.92842e+02 
 7.65383e+02 -4.35207e+03  5.25192e+03 
-1.27750e+02  9.28730e+03 -1.51311e+04 
-4.27714e+03 -1.03485e+03 -1.48582e+04 
 4.98275e+03 -3.12483e+03  2.75925e+03 
 5.23015e+02 -5.16487e+03  6.68285e+03 
-5.57832e+02  6.75234e+03 -1.47660e+04 
-5.60895e+03 -1.65521e+03 -1.64088e+04 
 6.10045e+03 -2.32318e+03  4.86443e+03 
 4.69838e+03  1.03146e+04 -4.30424e+04 
-2.52138e+03 -2.15939e+03 -2.91240e+03 
 4.31870e+03  3.63206e+03 -1.64548e+04 
-6.48238e+03 -2.85122e+03 -1.74174e+04 
-8.35457e+03 -2.11053e+03  2.46252e+04 
 6.60052e+03 -8.13877e+02  7.01253e+03 
 5.36351e+03  1.26952e+04 -6.73687e+04 
 5.58438e+03  1.80447e+03 -1.54621e+04 
-1.15028e+04 -2.14145e+03  1.89185e+04 
 8.72708e+03  3.68374e+03 -3.67928e+04 
-6.38171e+03 -4.49790e+03 -1.77112e+04 
 1.28403e+04 -2.23585e+03 -1.77559e+04 
 5.83565e+03 -2.64548e+02  8.60199e+03 
-1.30702e+04  6.44491e+03  1.55670e+04 
 6.94800e+03  9.52294e+03 -3.54588e+04 
-8.16242e+02 -1.44511e+02  9.01899e+03 
 6.61205e+03  3.14387e+03 -2.02893e+04 
 6.52584e+03 -2.64234e+03 -5.55346e+03 
-1.24552e+03  2.06980e+03  1.79928e+04 
-7.17711e+03 -3.82268e+03 -1.76225e+04 
-1.30720e+03  1.69485e+03  1.44190e+04 
 8.28841e+02  2.36127e+03  3.20552e+03 
 6.32860e+03  4.56115e+03  1.96146e+04 
-2.34839e+02  2.41426e+03  7.20321e+03 
 1.64712e+04 -5.86591e+03  2.87815e+04 
-2.73574e+03  6.32513e+03  1.35938e+04 
-4.03000e+03  2.89470e+03  2.60087e+04 
-2.03304e+03 -1.43516e+04 -6.05852e+04 
-4.04390e+03 -1.46852e+03 -1.60590e+04 
-6.68431e+03  8.87193e+03  1.43960e+04 
 1.21458e+04  7.78627e+02  1.93733e+04 
-9.85547e+03  9.44068e+03  2.09989e+04 
 2.47427e+04  2.91012e+03  4.60088e+04 
 1.40320e+03  5.00782e+02  3.26352e+04 
-9.47718e+03 -2.73977e+03 -3.96111e+04 
 1.48591e+04  9.78719e+03  5.02748e+04 
-9.19872e+03  1.12906e+04  3.21812e+04 
-1.20158e+04  3.01124e+03 -1.26729e+04 
 1.16597e+04 -5.79846e+03  1.34100e+04 
 1.31491e+04  2.51791e+03  3.22249e+04 
-1.81017e+04  1.14823e+04  3.34608e+04 
-1.52972e+04  6.13826e+03 -1.54125e+03 
-8.26806e+03 -8.01173e+03 -3.42677e+04 
-1.73646e+03  1.04041e+03 -5.06953e+03 
 1.35413e+04  1.68860e+03  2.85576e+04 
-4.41457e+03 -7.33317e+03  9.62680e+03 
 7.10830e+02 -1.37170e+02  8.48650e+03 
-5.44845e+03 -3.36553e+03 -1.88192e+04 
 1.44783e+03 -2.46223e+03  1.71864e+04 
 3.92721e+02 -1.20864e+04 -2.85279e+04 
-1.16456e+03 -1.43767e+04 -2.80990e+04 
-5.99369e+03  2.11364e+03 -5.82954e+03 
 1.19031e+04 -2.85758e+02  2.38836e+04 
-1.29160e+04  2.06722e+03 -3.96207e+04 
 7.95636e+02 -1.74626e+04 -7.16544e+04 
-1.39238e+03 -3.99975e+03 -1.80885e+04 
 1.63333e+03 -2.48972e+03  1.55776e+04 
-3.51511e+02 -2.64918e+03  3.86974e+03 
-6.20667e+03 -2.71926e+03 -6.54925e+03 
-2.74290e+02 -4.54578e+03 -8.79535e+03 
-1.82409e+04  7.11891e+03  2.98461e+04 
 9.26541e+02 -4.28248e+03  5.18737e+03 
-4.21205e+03 -3.58936e+03 -5.40162e+03 
 3.05521e+02 -4.25769e+03  2.58571e+02 
 9.23320e+03 -8.02228e+02  1.89725e+04 
 3.21186e+03 -3.92604e+03  1.27822e+04 
 3.50433e+03 -2.67474e+03  2.63334e+04 
 1.43805e+03 -5.06872e+03  1.85682e+03 
-3.68487e+03 -1.13589e+03 -3.83587e+03 
 4.63924e+03 -8.06612e+03  1.74297e+04 
-2.20050e+04 -4.69650e+03  4.33625e+04 
 5.55078e+03 -7.81280e+03  7.24158e+03 
-1.70069e+04 -5.94032e+03  5.48722e+04 
 1.00642e+04 -8.93880e+03  2.07823e+04 
-8.05263e+03 -5.58602e+03  1.56029e+04 
-1.94833e+03 -8.37479e+02  3.30258e+04 
-1.58503e+03  3.75629e+02 -5.75218e+02 
 6.54462e+03 -8.07296e+03  7.88228e+03 
 9.12144e+03 -1.08682e+04  3.22327e+04 
-3.83140e+03 -8.89684e+03  2.78983e+04 
 1.32921e+04 -1.39789e+04  1.03021e+04 
 5.94044e+03 -1.04653e+02  1.38307e+04 
 1.82473e+04 -1.21400e+04  3.24589e+04 
-3.69184e+03 -7.00620e+03  2.39402e+04 
 1.84265e+04 -1.38069e+04  1.77468e+04 
 1.53480e+04 -5.15662e+03 -7.32887e+03 
 3.57301e+03 -6.50953e+02 -3.10247e+03 
 5.41238e+03  7.01509e+03  9.11355e+03 
 1.04299e+03  7.58135e+02  4.22860e+03 
 1.75039e+04 -6.34257e+03  2.29442e+04 
-3.57022e+03 -3.77854e+03  1.99459e+04 
 1.31534e+04  3.09689e+04  3.31878e+04 
-1.98104e+03  1.62177e+04 -2.70599e+04 
 1.12849e+04 -1.06459e+03 -3.18856e+04 
 3.70702e+03  1.38956e+04 -7.55439e+04 
 1.85270e+03  2.22634e+03 -3.83660e+03 
 2.03885e+03  1.08603e+04 -3.87815e+04 
-5.28646e+03  5.64146e+03  7.85288e+02 
 3.01346e+03  6.68385e+02  8.75175e+03 
-4.55145e+03  8.26772e+03  1.65587e+03 
 3.64589e+03  4.98305e+02  1.02627e+04 
-3.83011e+03 -1.21213e+03  1.41605e+04 
-5.31688e+03  5.19863e+03  4.74250e+03 
-4.61936e+03  1.69442e+03  9.23001e+03 
-4.69117e+03  1.89132e+03  8.81032e+03 
 3.78232e+02  9.08385e+02  2.81586e+03 
 6.71184e+03 -4.15971e+02  1.52564e+04 
-3.82491e+03 -1.06966e+03  1.37336e+04 
-5.25819e+03  4.93175e+03  4.17367e+03 
-2.96070e+03  7.53037e+02 -1.20117e+03 
 1.01044e+04 -1.00775e+03  1.93959e+04 
-3.59724e+03 -3.62937e+03  1.96737e+04 
-4.69949e+03  7.54478e+03 -6.33990e+02 
-4.88942e+03  5.97171e+02 -5.19776e+03 
 1.32562e+04 -1.69860e+02  2.24951e+04 
-2.69407e+03  9.14200e+03 -5.24678e+03 
-4.01389e+03 -6.22392e+03  2.43350e+04 
-1.35387e+03 -3.81976e+03  7.61774e+03 
 1.04437e+04 -9.37211e+02  2.33307e+04 
-1.89099e+03  8.65966e+03 -8.87806e+03 
-5.54696e+03 -8.28111e+03  2.74888e+04 
-1.79607e+03 -1.25967e+04 -3.28479e+04 
 1.59023e+04  6.77309e+03  6.47874e+04 
 5.52330e+03  9.90330e+03 -2.66077e+04 
-8.01923e+03 -8.77886e+03  2.90584e+04 
-1.11077e+03 -1.93662e+04 -2.76837e+04 
 5.66277e+03 -1.51070e+04 -2.65649e+04 
 3.27134e+02 -1.19782e+03 -2.23761e+04 
-7.86992e+03  1.71533e+04 -2.48895e+04 
 6.81511e+03  6.29240e+03  2.77449e+04 
-4.39446e+02  1.99205e+04 -2.95954e+04 
 3.77215e+03  8.39819e+03  2.63781e+04 
-7.07940e+03 -1.05536e+04  2.97168e+04 
-3.44969e+03 -6.11329e+03  2.83484e+04 
 2.01929e+04  8.22994e+03  1.05566e+05 
 1.00796e+03  5.17423e+02 -1.80861e+04 
-2.31549e+04 -3.30338e+03  9.65077e+04 
-4.96149e+02  1.96821e+04  3.53499e+04 
-1.74836e+03  4.65022e+03 -1.94414e+04 
 1.13134e+03 -3.42989e+03 -2.12522e+04 
-9.65050e+02 -8.31038e+02 -1.85197e+04 
 6.35552e+02 -2.94363e+02 -1.53139e+04 
 2.06364e+03 -1.82201e+04  2.29311e+04 
 6.42757e+03  1.41939e+04  5.68759e+04 
-5.18840e+03 -1.57143e+04  6.42227e+04 
 1.06935e+04  1.05750e+04  1.80513e+04 
-5.91008e+03  1.38595e+04 -1.41579e+04 
-6.79355e+03  8.25902e+03 -3.35580e+03 
-2.15653e+03  1.68676e+03 -2.94246e+03 
-7.63077e+03  1.36409e+04 -2.96230e+03 
 1.81423e+03 -3.47774e+03 -1.94046e+03 
 4.16136e+03 -5.76312e+03 -6.03114e+03 
 2.59494e+04  3.27145e+03  6.07457e+04 
 6.57546e+03 -1.09582e+04 -1.00357e+04 
 9.10327e+03 -1.97740e+04 -1.33104e+04 
-1.12065e+04 -8.75240e+03  1.67489e+04 
-2.23996e+04 -6.67879e+03  5.96268e+04 
 3.82425e+04  1.11257e+04  3.79512e+03 
-3.82848e+03  1.85269e+04  5.87296e+03 
-7.71194e+03  1.62709e+04  6.87432e+03 
-7.43027e+03  1.12714e+04  1.31642e+04 
-3.79042e+03  5.74281e+03  1.24555e+04 
-3.60594e+02  1.00574e+03  1.23445e+04 
 3.72457e+03 -5.54166e+03  1.11515e+04 
 9.27745e+03 -1.24039e+04  1.29108e+04 
 8.04716e+03 -1.64108e+04  8.57569e+03 
 2.23114e+03 -1.74285e+04  4.28538e+03 
-3.86221e+04 -1.08931e+04  4.57778e+03 
 8.75149e+03  9.24913e+03 -7.71048e+03 
 1.94086e+04  8.84722e+03 -5.51472e+04 
-1.27707e+04  2.18479e+04  2.48488e+04 
-9.20940e+03  2.54979e+04 -1.19320e+04 
-7.52284e+03  8.04159e+03  3.36189e+04 
-1.02114e+02  2.06325e+04 -7.15617e+04 
-6.15052e+02 -2.03029e+03  3.80623e+04 
-4.23508e+03  7.79783e+03  2.59110e+04 
-2.78356e+02  5.56113e+03 -1.80476e+04 
-4.49354e+03  3.03799e+03  2.65725e+04 
 2.91436e+04  1.06698e+03 -1.21909e+05 
-1.67278e+02  1.98333e+03  3.84111e+04 
-3.99049e+03 -3.40336e+04  6.19819e+04 
 1.07875e+04 -2.61724e+04  3.90689e+04 
 1.44423e+03 -1.52333e+03  2.98919e+04 
 5.64352e+03 -8.70817e+03  2.71784e+04 
 7.82080e+02 -1.82823e+03  3.81565e+04 
-1.42814e+04 -1.96604e+04  6.71535e+04 
 5.45554e+03  1.28937e+04 -2.13539e+04 
 4.85873e+02 -3.41560e+02  3.23097e+04 
 8.04828e+03 -8.78883e+03  3.36495e+04 
 1.37403e+04 -2.25378e+04  2.44688e+04 
 1.18262e+03  2.72169e+03  3.95132e+04 
-1.28066e+04  2.92226e+04  4.19848e+04 
-8.69850e+03 -1.10337e+04 -9.23426e+03 
-2.94632e+03 -1.79104e+04  4.05212e+04 
 6.95697e+03  1.06089e+04 -2.08517e+04 
 7.59586e+03 -2.61900e+04 -2.11856e+04 
-2.23910e+04 -4.75651e+03 -5.52792e+04 
 7.02392e+03  3.08473e+04  5.92337e+04 
-1.73741e+03 -1.84114e+04 -6.21093e+04 
-4.62325e+02 -8.69692e+03 -1.57088e+04 
-1.63360e+03 -1.93990e+04  3.63285e+04 
-2.42920e+04 -8.37958e+03 -1.31666e+05 
 3.08687e+03  1.06025e+04 -1.97901e+04 
 8.29769e+03  2.36454e+04  7.64121e+04 
-4.77337e+03 -5.93003e+03 -1.75384e+04 
 8.28250e+03  9.84916e+03  1.34903e+04 
 1.81804e+03 -1.79034e+04  3.07405e+04 
-1.96402e+04 -6.52711e+03 -7.68113e+04 
 3.66351e+02  8.25561e+03 -1.67696e+04 
 1.47558e+04  2.94411e+03  3.48966e+04 
-1.14850e+04  5.36946e+03 -1.26897e+04 
 3.46176e+03 -1.49027e+04  2.51285e+04 
-8.99045e+02  4.88195e+03 -1.22073e+04 
 1.26259e+04  2.46904e+03  3.09000e+04 
-1.68841e+04  4.34944e+03 -1.29994e+04 
 3.54673e+03 -1.09604e+04  1.89643e+04 
-1.13054e+03  1.75450e+03 -4.83836e+03 
-1.30284e+04  6.30508e+03 -1.03059e+04 
 8.07936e+03  1.74285e+03  2.74818e+04 
 2.04715e+03 -6.88862e+03  1.41169e+04 
-8.91265e+03  6.48581e+03 -5.91009e+03 
 4.83456e+03  1.55416e+03  2.02675e+04 
-6.74482e+02 -8.72285e+02  1.41106e+03 
 1.28895e+03 -4.21341e+03  7.99151e+03 
-4.68071e+03  4.91596e+03 -8.71794e+02 
 8.93146e+02 -4.38179e+03  6.35609e+03 
 2.26600e+03  1.83336e+03  1.37234e+04 
 8.77170e+02 -1.28695e+03  2.28946e+03 
 1.02394e+03 -7.60551e+03  1.07093e+04 
-1.93211e+03  4.13015e+03  5.38839e+03 
-1.22417e+03  3.43837e+03  8.28037e+03 
 7.41278e+02  9.28538e+02 -2.77316e+03 
 1.71464e+03 -6.81667e+03  1.29438e+04 
 6.38854e+02  3.77538e+03  1.15981e+04 
-4.23656e+03  3.85746e+03  2.82912e+03 
-3.48143e+03 -1.08167e+04  4.09992e+04 
 3.65013e+03 -3.83789e+02  4.46554e+03 
-3.39239e+03 -5.47553e+03  1.83583e+04 
 3.02412e+03  4.52002e+03  1.58811e+04 
 1.02168e+04  4.24966e+02 -2.37773e+04 
-6.42343e+03  2.77934e+03 -2.15422e+03 
-5.18302e+03 -1.42389e+04  7.31976e+04 
-4.90426e+03 -3.24908e+03  1.89382e+04 
 1.52901e+04  4.19006e+02 -2.00787e+04 
-1.11468e+04 -4.04017e+03  4.14352e+04 
 4.17938e+03  6.26239e+03  1.83701e+04 
-1.31600e+04 -2.30869e+02  1.94755e+04 
-6.90560e+03  2.21839e+03 -6.22858e+03 
 1.18572e+04 -4.39050e+03 -1.92387e+04 
 2.28339e+03 -2.34030e+04  4.25422e+04 
-2.47556e+03 -3.00749e+02 -2.11575e+04 
-6.22066e+03 -1.28197e+04 -6.95290e+02 
-2.17613e+04  1.02002e+04 -2.84079e+04 
-2.52970e+02  2.69720e+03 -8.99457e+03 
 6.19436e+03  5.69537e+03  1.99597e+04 
-8.28883e+03  5.08814e+03 -1.64694e+04 
-1.44295e+04  1.19328e+04 -2.04143e+04 
-8.62021e+03 -3.05680e+03 -2.05602e+04 
-1.71751e+04  1.26655e+04 -9.38664e+03 
-2.23076e+03  2.27085e+03 -1.50939e+03 
-1.04459e+04  1.23940e+04 -4.24087e+03 
-6.06521e+03  4.37284e+03 -1.75316e+03 
 1.80913e+03  1.68348e+04  6.91587e+04 
 3.49994e+03  3.01428e+03  2.03447e+04 
-1.11702e+04  9.31364e+03  9.54924e+02 
-1.70588e+04  5.61498e+02 -2.16906e+04 
-8.93784e+03  9.43613e+03  8.54655e+03 
-1.24956e+02  2.83910e+02 -2.62780e+02 
-1.58697e+03  3.79096e+02  4.95940e+03 
 1.23670e+04  3.04289e+03  4.73557e+04 
 1.44727e+02  6.72521e+00  1.49923e+03 
-5.74128e+03  6.67724e+03  1.24613e+04 
 1.29892e+04 -5.40772e+02  1.36042e+04 
-1.04254e+04  3.40429e+03 -1.80248e+04 
 2.53682e+01  7.46393e+02  2.81684e+03 
-3.78840e+03  2.33218e+03  1.88283e+04 
 1.99874e+03 -2.00575e+02  5.61642e+03 
 4.85896e+02  2.09176e+04  4.24808e+04 
 1.27685e+03  1.01774e+03  5.95288e+03 
-1.59490e+02  8.07503e+02  2.95027e+03 
 1.71017e+03 -1.52355e+03  1.59949e+04 
 2.95752e+03  3.48857e+02 -2.15396e+04 
 5.36709e+03  1.31982e+04 -9.92217e+02 
 2.66704e+02 -2.39792e+03 -9.47269e+03 
 1.42507e+04  4.24429e+04 -3.06719e+04 
 5.21559e+03 -7.17222e+02  1.14815e+04 
 2.17440e+04 -1.02241e+04 -2.80755e+04 
-1.71180e+02  1.04906e+03  3.11503e+03 
 1.23631e+03  2.24829e+03  1.03136e+04 
 1.03404e+03  3.13788e+03  1.28724e+04 
 2.25519e+04 -5.53578e+03 -2.08280e+04 
 8.79100e+03 -5.60488e+03 -1.57201e+04 
 1.46035e+04 -1.25620e+04 -2.02559e+04 
 1.82968e+03  1.22090e+03  6.53091e+03 
 2.38082e+04 -1.52970e+04 -1.03292e+04 
 2.96079e+03 -2.43225e+03 -2.34748e+03 
 1.68166e+04 -1.36079e+04 -9.36815e+03 
 1.81866e+03  1.35172e+03  6.71244e+03 
 1.97030e+04 -1.70838e+04  2.97833e+02 
-1.07511e+02  1.22471e+03  3.24559e+03 
 1.37641e+04 -1.27802e+04 -1.81550e+03 
 5.31457e+03 -3.37601e+03 -1.17407e+03 
 1.39782e+04 -1.29312e+04  2.02147e+03 
 1.89534e+03  1.11766e+03  6.76085e+03 
 8.74214e+03 -1.09556e+04  1.43884e+03 
 9.07118e+02  1.74558e+02 -1.26594e+03 
 1.32695e+04 -1.29703e+04  8.65447e+03 
 7.19765e+02 -2.11310e+02 -9.74469e+02 
 8.47936e+03 -7.18602e+03  6.73219e+03 
-2.85685e+02 -2.22666e+02  4.40169e+03 
 1.42944e+03 -1.88625e+02  4.13297e+03 
 1.84654e+03  9.23282e+02  6.78529e+03 
 7.98513e+03 -8.84037e+03  7.94599e+03 
 5.13854e+03 -6.01273e+03  1.27262e+04 
-8.94712e+02  4.54125e+02  2.43476e+03 
 8.98090e+03 -9.14769e+03  1.11859e+04 
 8.57801e+00  1.34194e+03  3.42839e+03 
 3.31901e+03 -1.97946e+03  1.87893e+04 
-9.57445e+02  3.47843e+02  2.57066e+03 
 8.00734e+03 -7.60535e+03  1.94619e+04 
-2.76971e+03  1.68581e+02  6.79637e+03 
-1.76205e+03 -1.16909e+03  6.56903e+03 
-2.29235e+03  1.44693e+03  1.71887e+04 
 1.71903e+03  7.85653e+02  6.79893e+03 
 6.29709e+03 -3.89876e+03  2.56535e+04 
-1.06711e+03  8.63730e+00  2.60498e+03 
 4.75093e+03  5.38270e+03  3.49998e+04 
-5.72422e+03  3.98812e+02  1.33903e+04 
-1.57015e+03 -2.59720e+03  1.21413e+04 
-1.80630e+03 -3.54167e+03  1.77001e+04 
-1.59823e+03 -1.36544e+03  7.05692e+03 
-1.72620e+03 -2.77460e+03  1.25601e+04 
-6.74612e+02 -2.07361e+03  6.91971e+03 
 1.99194e+02  1.22623e+03  3.41730e+03 
-7.50638e+02 -2.65173e+03  7.09049e+03 
 1.62553e+03  7.11144e+02  6.56391e+03 
-1.13656e+03 -1.96194e+02  3.04956e+03 
-5.17114e+02 -2.40971e+03  7.05731e+03 
-1.19887e+03 -2.35346e+02  3.49733e+03 
-3.97569e+02 -2.15724e+03  6.86240e+03 
 2.18162e+02  1.14522e+03  3.47535e+03 
 1.67834e+03  6.44969e+02  6.34617e+03 
-5.49513e+02 -1.83566e+03  6.67622e+03 
-1.00878e+03 -3.88664e+02  3.73535e+03 
 1.70706e+02  1.05852e+03  3.75425e+03 
 1.64383e+03  7.98224e+02  6.20195e+03 
-6.54562e+02 -1.71635e+03  6.42001e+03 
-8.57448e+02 -5.46756e+02  4.01050e+03 
 2.24270e+02  1.01447e+03  3.93865e+03 
 1.61775e+03  9.43535e+02  5.99412e+03 
-7.61401e+02 -7.02103e+02  4.22686e+03 
-7.74928e+02 -1.63284e+03  5.99242e+03 
 5.52799e+02  8.04210e+02  4.73863e+03 
 1.31777e+03  9.34608e+02  5.77071e+03 
-7.51595e+02 -8.57662e+02  4.43653e+03 
-8.60745e+02 -1.50614e+03  5.68918e+03 
 6.08991e+02  5.61188e+02  3.02806e+03 
 1.52132e+03  1.28904e+03  7.64862e+03 
-6.31297e+02 -1.04249e+03  4.42779e+03 
-9.08037e+02 -1.37752e+03  5.48233e+03 
 4.37643e+02  3.05410e+02  2.36742e+03 
 3.12477e+00  1.71959e+02  4.67345e+02 
 7.43078e+01 -3.08272e+02  1.02944e+02 
 2.43163e+02 -8.71777e+02  9.68122e+02 
 9.71780e+02  1.20565e+03  5.54144e+03 
-4.92467e+02 -9.45144e+02  3.16198e+03 
 9.13797e+02  1.31343e+03  5.49806e+03 
-8.50937e+02 -1.24889e+03  5.23506e+03 
-8.75308e+02 -1.13683e+03  5.19360e+03 
 1.77001e+03  1.17423e+03  8.86476e+03 
 1.99025e+02  9.52352e+02  1.41857e+03 
-1.33822e+03 -9.27961e+02  6.09910e+03 
 7.62953e+02  1.31132e+03  4.89573e+03 
-3.48867e+02  8.25985e+02  1.36855e+03 
 4.04070e+02 -9.01347e+02  1.22316e+03 
-1.84796e+02 -1.08265e+03  1.73857e+03 
 6.85181e+01 -1.00648e+02  2.06127e+03 
-9.29591e+02 -6.98505e+02  3.86617e+03 
 1.58337e+03  1.08500e+03  6.82410e+03 
-1.40352e+03 -8.44033e+02  5.61590e+03 
 1.67026e+03  1.12998e+03  3.88764e+03 
-4.74875e+02  1.75493e+03  2.70314e+03 
-8.14740e+02  1.01245e+03  4.40554e+03 
-3.17759e+02  2.27412e+02  4.88644e+03 
-1.11900e+03  1.85485e+03  4.08422e+03 
 1.72553e+02 -4.03787e+02  4.63567e+03 
 4.93002e+02 -6.81841e+02  4.37944e+03 
 3.06088e+03  5.93024e+02  8.22701e+03 
 5.56264e+02 -1.41815e+03  3.73933e+03 
 3.61771e+02 -1.77662e+03  1.86217e+03 
-1.63416e+03 -8.30918e+02  3.38503e+03 
-2.55158e+03 -4.81691e+02  6.87726e+03 
 3.95885e+03  1.41779e+03  2.31983e+03 
-5.17379e+02  2.02327e+03  3.41420e+03 
-1.07037e+03  2.01597e+03  4.88418e+03 
-1.07838e+03  1.40451e+03  6.27471e+03 
-5.25318e+02  7.11562e+02  6.34275e+03 
-8.59464e+01  1.53887e+02  6.24653e+03 
 4.05209e+02 -5.81463e+02  6.16226e+03 
 1.09551e+03 -1.35004e+03  6.11337e+03 
 1.01632e+03 -1.83847e+03  4.66930e+03 
 3.12408e+02 -1.82678e+03  2.68871e+03 
-3.77579e+03 -1.16858e+03  1.59569e+03 
 1.71530e+02  1.23518e+03  1.28576e+03 
 1.54152e+03  1.33718e+03 -4.81597e+03 
-2.22956e+03  2.84588e+03  6.06620e+03 
-2.64983e+03  4.48741e+03  6.93467e+02 
-1.21407e+03  7.17994e+02  8.82655e+03 
-1.24428e+03  3.31579e+03 -9.05501e+03 
-3.64157e+02 -8.67923e+02  8.16003e+03 
-5.49399e+02  7.84489e+02  7.58875e+03 
-1.01676e+03  6.81967e+02  3.28000e+02 
-6.62282e+02  4.28168e+02  7.70743e+03 
 4.48508e+03 -2.93920e+02 -1.91706e+04 
 1.28127e+02  1.17051e+02  7.91408e+03 
-1.43982e+03 -6.58723e+03  1.41944e+04 
 1.97668e+03 -5.07929e+03  7.72581e+03 
 1.14240e+02 -7.64183e+01  8.34324e+03 
 6.27319e+02 -8.07354e+02  7.57819e+03 
-1.25746e+02  1.07705e+02  7.72667e+03 
-3.76643e+03 -4.12203e+03  1.64502e+04 
 1.00804e+02  2.23308e+03 -6.74791e+02 
 1.12094e+01  6.75632e+01  5.81850e+03 
 1.20198e+03 -6.65352e+02  8.53078e+03 
 2.40812e+03 -2.90137e+03  5.53840e+03 
 5.20875e+02  1.04669e+03  8.35407e+03 
-2.38250e+03  5.74961e+03  8.30547e+03 
-3.35598e+01 -1.59067e+03  6.74401e+02 
-1.61704e+03 -3.96825e+03  1.17891e+04 
 4.13060e+02  2.01027e+03 -8.76118e+02 
 2.41360e+03 -4.67835e+03 -1.05378e+03 
-1.86668e+03 -7.45592e+02 -4.81868e+03 
 2.05295e+03  6.05637e+03  1.37667e+04 
 9.42956e+02 -2.89756e+03 -7.35841e+03 
 8.82885e+02 -1.28267e+03  8.30721e+02 
-1.35033e+03 -4.52724e+03  1.15009e+04 
-3.63962e+03 -1.07709e+03 -2.10038e+04 
-3.40088e+02  2.28242e+03 -1.15256e+03 
 2.59277e+03  4.92221e+03  1.84340e+04 
 6.04590e+01 -7.74707e+02  1.64053e+02 
 2.78907e+03  2.30573e+03  6.20793e+03 
-5.65733e+02 -4.59552e+03  1.09976e+04 
-3.12949e+03 -9.26456e+02 -1.22606e+04 
-9.84069e+02  2.14045e+03 -1.25654e+03 
 4.41834e+03  9.19284e+02  1.09300e+04 
-1.62939e+03  1.41731e+03  3.58181e+02 
 2.98094e+01 -4.40485e+03  1.05975e+04 
-1.45010e+03  1.73253e+03 -1.35355e+03 
 4.30167e+03  7.44741e+02  1.09233e+04 
-3.06156e+03  1.27429e+03 -2.61994e+02 
 4.36252e+02 -4.04348e+03  1.00292e+04 
-1.70638e+03  1.44108e+03 -6.15529e+02 
-2.66496e+03  1.89175e+03 -4.79505e+02 
 3.62750e+03  4.29857e+02  1.12417e+04 
 5.00385e+01 -3.42439e+03  1.01193e+04 
-2.25733e+03  2.31541e+03 -3.26283e+02 
 3.28455e+03  1.94566e+02  1.05211e+04 
-1.94125e+03  1.65263e+03  7.46191e+01 
-2.23484e+02 -3.38713e+03  9.98292e+03 
-1.60685e+03  1.95196e+03 -2.87643e+02 
-1.42540e+03  1.57031e+03  5.23597e+02 
 3.47361e+03 -7.50871e+01  9.70034e+03 
-5.20047e+02 -3.58287e+03  9.07344e+03 
-9.21803e+02  1.51225e+03  1.19835e+03 
-1.51937e+03  1.66167e+03 -1.46349e+02 
 3.35568e+03  4.26419e+02  9.52025e+03 
-6.73880e+02 -3.41962e+03  8.49398e+03 
-9.55937e+02  4.70223e+02  1.94410e+03 
-1.54311e+03  1.25700e+03  6.41498e+02 
 3.15911e+03  9.39579e+02  9.20699e+03 
 2.99216e+02  1.19700e+03 -4.80183e+03 
-1.43297e+03 -2.28216e+03  5.60356e+03 
 1.82488e+02 -7.11579e+02  2.41417e+03 
-1.38090e+03  8.39441e+02  1.21444e+03 
-2.73240e+03 -2.03363e+03  1.20027e+04 
 2.85558e+03  1.42909e+03  9.02847e+03 
 2.42908e+02  1.25388e+03 -8.19623e+03 
 3.97048e+02 -1.10637e+03  3.15095e+03 
-2.97580e+03 -1.70627e+03  8.67358e+03 
 8.24531e+02 -1.13273e+03 -9.81086e+02 
-1.03451e+03  4.50036e+02  1.71313e+03 
 2.24544e+03 -2.15189e+03  1.09331e+03 
 2.35819e+03  1.57273e+03  8.79491e+03 
-3.70225e+03  1.56617e+03  3.77736e+03 
 1.99250e+03 -2.56618e+03  1.12932e+03 
-1.56320e+03 -5.42741e+02  2.51197e+03 
 7.40306e+02 -2.77159e+03 -2.48059e+03 
-1.74642e+03 -2.44681e+02 -3.29592e+03 
-1.26182e+03  1.00809e+03  3.55117e+03 
-9.73056e+02  6.29618e+02  2.05860e+03 
-2.34205e+03  1.48242e+03  3.02019e+03 
-2.70147e+03  1.67519e+03  1.35049e+03 
 2.27423e+03  2.65346e+03  1.07852e+04 
-3.31989e+03  2.39055e+03  3.28299e+03 
 2.88106e+03 -8.71770e+02  6.29640e+03 
-2.79254e+03  2.94484e+03  5.47833e+03 
-2.19740e+03  1.28797e+03  6.71121e+03 
 4.82280e+02 -1.57611e+03 -6.90522e+03 
-4.58850e+01  1.19321e+03  3.01621e+03 
-3.49826e+03  3.04497e+03  6.24236e+03 
 3.07171e+03  1.33501e+03  8.79609e+03 
-3.50236e+03  3.04123e+03  8.12467e+03 
 5.01160e+03  9.32947e+02  1.02630e+04 
-1.33275e+02  2.18563e+02  8.07756e+03 
-9.69455e+02  1.24968e+03 -1.51951e+03 
 3.00422e+03  2.72854e+03  1.18813e+04 
-2.76422e+03  2.76376e+03  1.05118e+04 
-2.05178e+03  2.34734e+03  2.00898e+03 
 3.53758e+03 -1.57874e+03  3.20688e+03 
 2.88431e+03  1.14533e+03  8.41561e+03 
-4.01041e+03  2.32828e+03  1.05542e+04 
-3.28662e+03  1.56602e+03  6.58891e+02 
-2.13101e+03  2.60216e+03  1.22214e+03 
-6.10197e+02  7.00312e+02 -2.41341e+02 
 3.29908e+03  9.46310e+02  8.22358e+03 
-6.94591e+02 -1.73677e+03  4.58050e+03 
 1.62153e+03  4.05399e+02  2.18350e+03 
-5.06288e+02  2.75640e+03 -2.10476e+03 
 1.23591e+03 -1.03894e+03  3.34239e+03 
 2.08113e+03  5.57139e+03 -9.98006e+03 
 3.51350e+02 -2.79811e+03 -3.61840e+03 
 1.95288e+03 -2.91737e+01 -3.39021e+03 
 3.35730e+03  3.62046e+02  7.86073e+03 
-2.69530e+03  1.01688e+03 -6.83206e+03 
 1.64340e+02 -3.31417e+03 -1.43683e+04 
 3.51578e+03 -1.11405e+03 -5.53168e+03 
 2.47107e+03 -1.72316e+03  3.34608e+03 
 2.86505e+03 -1.85819e+03  1.46641e+03 
-1.73377e+03 -1.31405e+02 -8.38219e+02 
 3.93951e+03 -2.82860e+03 -9.07530e+02 
-3.23674e+03  1.16239e+03  6.56169e+03 
 3.48864e+03 -2.94238e+03  3.07075e+03 
-1.56850e+03 -3.63412e+02 -9.86972e+02 
 3.62675e+03 -3.24030e+03  3.39823e+03 
 3.22353e+03 -8.55674e+01  7.57727e+03 
 3.32998e+03 -2.64887e+03  5.44599e+03 
 1.98001e+03 -1.14412e+03  6.80379e+03 
 3.09319e+03 -2.97097e+03  4.29050e+03 
-1.77450e+03  1.94864e+02 -1.20553e+03 
 2.87612e+03 -3.08111e+03  6.99156e+03 
-4.40800e+03 -1.31269e+03  9.66438e+03 
 3.67811e+03 -3.46511e+03  6.18560e+03 
-3.45792e+03 -1.82018e+03  1.29140e+04 
 3.60153e+03 -2.72252e+03  7.94227e+03 
-1.58776e+03 -1.97745e+03  4.20101e+03 
-1.55214e+01 -2.80684e+02  8.12766e+03 
-1.67568e+03  6.75194e+02 -1.29550e+03 
 3.01922e+03 -2.82116e+03  6.34892e+03 
 2.72140e+03 -2.67698e+03  1.05860e+04 
-5.94807e+02 -3.15875e+03  7.60834e+03 
 4.18759e+03 -3.63473e+03  7.00085e+03 
 2.96324e+03 -3.94972e+02  7.16787e+03 
 4.11035e+03 -2.45780e+03  1.04627e+04 
-4.65945e+02 -3.09340e+03  7.64845e+03 
 4.66449e+03 -3.14000e+03  8.71600e+03 
 3.28181e+03 -1.35915e+03 -5.36274e+02 
 1.00364e+03 -6.13091e+02  2.27836e+02 
 8.53372e+02  1.73079e+03  4.61612e+03 
-1.37770e+03  1.02551e+03 -1.38702e+03 
 4.21231e+03 -1.17516e+03  9.44147e+03 
-2.31343e+02 -2.62594e+03  7.93400e+03 
 2.76182e+03  7.45505e+03  1.18574e+04 
-1.11476e+03  3.25305e+03 -3.30606e+03 
 2.29123e+03 -8.25226e+02 -5.13444e+03 
 7.85173e+02  2.54746e+03 -1.48727e+04 
 6.15206e+02 -2.20198e+01 -8.81637e+01 
 7.19873e+02  2.26642e+03 -8.99269e+03 
-9.50779e+02  1.20473e+03  2.91389e+00 
 2.50708e+03 -1.06403e+02  7.25515e+03 
-8.53034e+02  2.24693e+03 -4.75569e+02 
-1.16759e+03  1.21992e+03 -8.52857e+02 
-5.18990e+01 -2.39897e+03  7.46178e+03 
-1.30667e+03  1.98570e+03 -6.73941e+02 
 1.59505e+02 -2.57481e+03  6.90437e+03 
-1.63164e+03  1.71895e+03 -6.06974e+02 
 2.48895e+03  9.91389e+01  7.17465e+03 
-1.33888e+03  1.40066e+03 -3.50887e+02 
-1.36935e+03  1.26609e+03 -6.35791e+02 
-2.08931e+02 -2.52442e+03  6.82867e+03 
 2.64929e+03  3.23566e+02  6.50345e+03 
-1.28962e+03  1.01353e+03 -2.76164e+01 
-1.15443e+03  1.23055e+03 -5.99600e+02 
-6.00337e+02 -2.40772e+03  6.65036e+03 
 2.53336e+03  4.39963e+02  6.08208e+03 
-1.25755e+03  6.30412e+02  4.69381e+02 
-9.89684e+02 -2.19861e+03  6.57149e+03 
-8.46116e+02  1.27884e+03 -6.36228e+01 
 1.66409e+03  1.03203e+03  3.84493e+03 
-4.61587e+02  6.58702e+02  1.03100e+03 
-1.11070e+03 -1.82416e+03  6.42829e+03 
-5.15227e+02  1.18114e+03  3.28114e+02 
 1.46737e+03  2.05902e+03  8.79550e+03 
-1.02804e+03 -3.19051e+02 -4.21871e+03 
-1.99355e+03 -1.79657e+03  8.12908e+03 
-1.95725e+02  9.28278e+02  6.86443e+02 
 1.06632e+03  2.58391e+03  6.42060e+03 
-6.85722e+02  2.11085e+03  3.75155e+03 
 2.28042e+00  3.22742e+01  2.69693e+03 
 1.01087e+03 -2.48925e+03  3.64197e+03 
 4.40898e+02 -2.29368e+02  1.37143e+03 
-7.96917e+02 -2.76091e+03  6.60924e+03 
 7.84937e+02 -4.60764e+02  1.81309e+03 
-3.32289e+02  9.07637e+02  9.34674e+02 
-8.35965e+02  2.03806e+02  1.51962e+03 
-1.01342e+03 -2.54753e+02 -6.73619e+03 
 3.28917e+02  5.73291e+02  3.32856e+03 
 1.40964e+03 -2.76418e+02 -6.42051e+03 
 1.24983e+03 -1.87679e+03 -3.24778e+01 
-1.02300e+02  1.30997e+02  3.44709e+03 
 2.52057e+02 -3.24818e+02  3.37665e+03 
-2.71784e+02 -6.05397e+02  3.34249e+03 
 9.41192e+00 -6.25582e+01  3.51196e+03 
-1.51944e+03  1.86612e+03  9.78114e+02 
 1.09997e+03 -9.83013e+02 -8.51252e+02 
-1.12192e+03  1.19360e+03 -1.87857e+03 
 8.78797e+02 -7.60472e+02  1.08394e+03 
 5.87920e+02 -4.34716e+02  3.69805e+03 
 3.09386e+02 -3.64486e+02  3.76516e+03 
 4.60899e+01 -4.61920e+01  4.16836e+03 
 8.60305e+01 -3.37833e+02  3.56390e+03 
-7.19899e+01  1.19243e+02  3.72982e+03 
-6.62757e+01  2.16893e+02  4.11364e+03 
 3.48807e+02 -1.20401e+02  8.52477e+02 
-3.22647e+02  2.44116e+02  4.19081e+03 
-9.38764e+02  1.06991e+03  2.80725e+03 
-7.50509e+02  5.80358e+02  1.29040e+03 
-5.14997e+02  4.82694e+02  5.76571e+02 
 4.12356e+02 -6.51728e+02  2.22195e+03 
 6.80144e+02 -1.48020e+03  2.24053e+03 
 5.43826e+02 -1.12019e+03  3.44251e+03 
 2.70781e+02 -7.54700e+02  3.33550e+03 
 1.13205e+02 -3.41102e+02  3.18163e+03 
 1.09583e+01  8.41220e+00  3.27332e+03 
-1.37353e+02  3.89470e+02  3.42725e+03 
-3.78254e+02  9.04867e+02  3.30455e+03 
-5.52380e+02  1.31793e+03  3.04841e+03 
-5.13643e+02  1.20519e+03  2.43622e+03 
-5.46448e+02  8.75660e+02  2.11682e+03 
-3.29799e+03 -5.24327e+03  4.92422e+04 
-5.01303e+02  1.00266e+03  3.66358e+04 
 3.82378e+01 -5.93381e+03  3.13410e+04 
-6.60664e+03 -9.22992e+03  3.84963e+04 
 3.32000e+03 -5.42231e+03  2.72500e+04 
 2.23179e+03  7.21766e+01  3.21210e+04 
-3.55681e+02 -8.40314e+03  1.90853e+04 
 5.06462e+03 -1.72112e+03  2.66098e+04 
-6.01088e+03 -6.83432e+03  3.77741e+04 
 1.31273e+03 -1.58515e+03  1.05696e+04 
 3.39515e+03 -1.90074e+01  2.78956e+04 
 5.71171e+03 -2.69060e+03  2.42031e+04 
 3.98216e+03  9.26835e+02  2.59029e+04 
-4.11681e+03 -3.83441e+03  2.20874e+04 
 5.50286e+03 -2.39276e+03  2.59561e+04 
-1.14560e+04 -3.10796e+03  4.71977e+04 
 1.22884e+03  5.75421e+02  1.88409e+04 
 7.10247e+03 -4.85832e+02  2.44379e+04 
-4.68284e+02  4.42488e+03  1.53403e+03 
-2.02149e+03  9.42927e+03  9.08310e+03 
 1.07109e+04 -7.16157e+02  2.72678e+04 
 7.81303e+03 -2.27438e+02  1.70942e+04 
 1.02677e+04 -8.09199e+03  2.32667e+04 
 1.78745e+03 -1.48405e+03  3.75000e+04 
 1.04245e+04  3.65813e+02  1.27688e+04 
-1.29291e+03  1.29308e+03  3.87247e+03 
-5.21844e+03 -5.07876e+03  2.22972e+04 
-2.30193e+03  1.91094e+04  2.30475e+04 
 1.66139e+04 -8.82038e+03  2.82601e+04 
 6.87943e+03  9.11678e+02 -9.02140e+03 
 2.08384e+04 -2.83618e+04  4.16788e+03 
 4.84382e+03  3.14638e+03  5.47392e+04 
-5.56961e+03  2.20446e+03 -1.93968e+04 
-2.01212e+04  5.20800e+04  5.57462e+04 
-1.43616e+04 -1.90119e+04 -4.74773e+04 
-3.71147e+03  6.52414e+02  1.06420e+04 
-5.54696e+03 -4.18085e+03  2.17122e+04 
-6.68084e+04 -1.09558e+04 -1.01344e+05 
 9.60501e+03 -4.67735e+04 -4.88923e+04 
-4.54543e+04 -1.62753e+04 -1.26414e+05 
 1.19616e+04  5.00552e+04  9.46555e+04 
-1.20240e+04 -3.28470e+04 -1.32500e+05 
-4.89057e+03 -1.76724e+04 -4.39739e+04 
-3.96044e+03  3.82890e+02  1.27923e+04 
-4.81829e+04 -1.77878e+04 -2.54301e+05 
-4.72363e+03 -3.53863e+03  2.03096e+04 
 1.11591e+04  3.88466e+04  1.18983e+05 
-1.19465e+04 -1.31469e+04 -4.77020e+04 
 1.07854e+04  1.47273e+04  7.31193e+03 
-4.41389e+03 -7.84831e+02  1.53394e+04 
-3.80686e+04 -1.42790e+04 -1.51771e+05 
-4.43334e+03 -2.30447e+03  1.80512e+04 
 2.17796e+04  2.53506e+03  4.44018e+04 
-2.34195e+04  6.80362e+03 -3.81555e+04 
-4.10002e+03 -2.33644e+03  1.81363e+04 
-4.69178e+03 -1.01835e+03  1.47757e+04 
 1.75744e+04  1.81069e+03  3.62205e+04 
-3.24735e+04  4.91320e+03 -3.78892e+04 
-3.19498e+03 -4.11291e+03  2.09068e+04 
-5.14369e+03  3.79755e+02  1.16029e+04 
-2.51234e+04  8.04444e+03 -3.20568e+04 
 9.20549e+03  7.70059e+02  2.87501e+04 
-3.10800e+03 -5.36590e+03  2.43562e+04 
-1.72591e+04  7.81007e+03 -2.32527e+04 
 3.03635e+03  7.18986e+02  1.49731e+04 
-6.00406e+03  2.63406e+03  9.06438e+03 
-3.24907e+03 -7.06378e+03  2.81228e+04 
-9.50311e+03  5.10750e+03 -1.29676e+04 
-5.83004e+03  4.78245e+03  6.82552e+03 
-2.50566e+03  1.67751e+03  2.71503e+03 
-3.67625e+03 -9.48050e+03  2.97763e+04 
-4.72298e+03  6.79498e+03  5.51867e+03 
-3.98687e+03  3.90923e+03 -3.21190e+02 
-9.49930e+03  4.25440e+03 -8.19901e+03 
-3.95303e+03 -1.05708e+04  3.17835e+04 
-5.27309e+03  3.81049e+03  5.78067e+03 
 1.32130e+03  3.76208e+03  1.12972e+04 
-1.54023e+04  4.37975e+03 -1.89365e+04 
 1.15377e+03  8.20445e+03 -2.88880e+04 
-7.65647e+03 -7.03112e+03  2.01348e+04 
 8.46393e+02  1.43836e+02  3.17253e+03 
 6.00098e+03  5.87361e+03  1.92668e+04 
-1.53034e+04 -6.82108e+03  5.43323e+04 
-1.94768e+04  1.49898e+03 -2.89216e+04 
 2.39133e+03  1.04382e+04 -5.92410e+04 
 2.34234e+03 -2.54356e+03  5.39897e+03 
-1.86755e+04 -7.02667e+03  3.85581e+04 
 7.91023e+03 -3.21511e+03 -2.00883e+04 
 7.81745e+03  1.00293e+04  2.36967e+04 
 1.44310e+04 -9.22681e+03 -4.87818e+03 
-1.95353e+04 -7.43907e+01 -3.69517e+04 
-2.50314e+04  7.66412e+03  9.00627e+03 
 8.09858e+03 -3.35472e+03 -1.18148e+04 
-4.06275e+03 -3.98638e+03  9.06144e+03 
 7.37161e+03 -1.12882e+04 -1.24832e+04 
 5.88304e+03 -1.08195e+04 -1.13856e+04 
-2.51851e+04  5.89589e+03 -1.13028e+04 
 1.17853e+04  8.94639e+03  2.62026e+04 
-5.59183e+03  2.79389e+03 -3.80510e+03 
-1.51960e+03 -7.65990e+03 -1.62612e+03 
-2.36367e+04 -1.18827e+04 -6.94755e+04 
 1.05128e+03 -4.00881e+03 -2.56535e+03 
-4.17195e+04  1.50167e+04 -3.27201e+04 
-1.68344e+03 -7.52773e+03 -2.09880e+03 
-1.83851e+03  3.93685e+02 -1.96318e+04 
 1.32669e+03  3.36877e+04  1.43708e+05 
 5.67533e+03  8.99082e+02  2.45955e+04 
 6.36679e+03 -1.02442e+04 -1.97560e+03 
-4.32214e+04 -4.74760e+03 -4.98728e+04 
 1.04377e+04 -1.04885e+04 -3.07681e+03 
-4.37387e+04 -5.86930e+03 -7.42537e+04 
-2.87175e+03 -3.24647e+03 -3.14032e+04 
 2.65227e+04 -3.71372e+03  8.77926e+04 
-2.53453e+04 -1.65219e+04 -8.21458e+04 
 8.87586e+03 -1.50450e+04 -1.06047e+04 
 3.79491e+04 -1.86287e+04  3.22751e+04 
-5.88355e+04  2.22542e+04 -4.35314e+03 
-2.25234e+04 -2.02461e+03 -4.66230e+04 
 2.79532e+04 -2.04798e+04 -7.45035e+02 
 3.47317e+04 -1.30606e+04  2.20136e+04 
 2.25933e+04 -1.37175e+02  5.33020e+04 
 7.16900e+03  1.06394e+03  2.73539e+04 
-2.37907e+04 -3.39627e+02 -3.98679e+04 
 1.55997e+04  2.29284e+03  2.98811e+04 
-2.79031e+02 -4.41740e+03 -2.12911e+03 
 2.25736e+04 -1.35709e+04  4.01715e+04 
-5.52573e+04  1.90664e+04  2.57813e+03 
 2.56910e+04 -9.63268e+03  2.49482e+04 
 1.78618e+04  2.04021e+04  7.92078e+04 
 4.01575e+04 -2.37324e+04  2.22383e+04 
-2.09474e+04  3.78285e+03 -3.12162e+04 
 2.71667e+04  1.56413e+03  9.98854e+04 
 1.81947e+03  3.95633e+04  1.64117e+05 
 3.08504e+04 -1.36332e+04  1.48315e+04 
-2.30114e+02  3.87733e+03 -1.81363e+03 
 1.82049e+04 -1.24922e+04  5.47055e+03 
 1.62622e+04  8.55929e+03  3.14290e+04 
 4.61179e+04 -2.09706e+04  1.19181e+04 
-6.47800e+04  2.61306e+04  1.39722e+04 
 3.53782e+04 -1.80835e+04  9.18023e+03 
 1.27812e+04  1.04234e+04  3.00532e+04 
 4.80452e+04 -2.07513e+04 -9.09408e+03 
-1.60950e+04  5.17390e+03 -2.22547e+04 
 3.65173e+04 -1.86374e+04 -4.22049e+03 
-2.42063e+03  5.94380e+03  9.29441e+02 
 4.38700e+04 -1.66391e+04  8.50990e+01 
 1.20864e+04  5.45727e+03  2.74390e+04 
 1.72745e+04 -1.14586e+04  3.47197e+03 
-4.02283e+04 -9.33236e+03  5.27509e+04 
 5.02017e+04 -2.10172e+04  9.86779e+03 
-2.89189e+04 -7.48846e+03  8.69274e+04 
 3.71263e+04 -1.67295e+04 -2.95907e+03 
-1.17029e+04 -7.52976e+03  1.22092e+04 
-6.66286e+02 -5.17015e+03  2.76451e+03 
 8.26899e+03  2.27604e+03  2.17948e+04 
 4.83546e+04 -2.00417e+04 -4.64521e+03 
 2.02249e+04 -1.50318e+04 -4.73215e+03 
-3.88779e+03 -1.37549e+04  3.55207e+04 
 4.72049e+04 -1.97495e+04  5.64283e+03 
-1.00069e+04  4.27770e+03 -1.27433e+04 
 4.18003e+04 -2.53142e+04 -2.25281e+04 
-3.58988e+03 -1.02638e+04  2.82443e+04 
 4.85579e+04 -2.17058e+04 -1.24742e+04 
 4.10806e+04 -1.84130e+04 -4.30759e+04 
 1.09690e+04  5.06275e+02 -2.26449e+04 
 2.63265e+04 -1.52819e+04 -4.16170e+04 
 3.31376e+03  1.22382e+03  1.34206e+04 
 3.18110e+04 -1.37958e+04 -1.76858e+04 
-3.31327e+03 -4.21122e+03  2.09362e+04 
 2.46802e+04 -8.90927e+03 -2.43130e+04 
 1.97846e+04  7.36495e+02 -5.33881e+04 
 2.60166e+04 -3.05057e+03 -7.79165e+04 
 1.06539e+04  2.95290e+04 -1.64273e+05 
 6.54733e+03  7.65418e+03 -2.43103e+04 
 7.21618e+03  2.38842e+04 -9.11182e+04 
-6.68024e+03  1.40173e+04 -1.61032e+04 
-4.35232e+03  2.60300e+03 -3.87953e+03 
-5.24474e+03  1.90441e+04 -1.45975e+04 
-1.50387e+03  1.47221e+03  2.20152e+03 
-3.75519e+03  5.72079e+02  1.01630e+04 
-6.76783e+03  1.33370e+04 -8.95172e+03 
-5.16570e+03  5.89589e+03  9.48829e+02 
-5.68134e+03  7.17780e+03 -1.43245e+03 
 3.15347e+02  1.95786e+03  6.67656e+03 
-6.72661e+03  2.88978e+03 -7.14744e+03 
-4.02731e+03  1.61898e+03  7.64287e+03 
-6.42284e+03  1.18781e+04 -8.39414e+03 
 6.03071e+03  1.98972e+03  1.44849e+04 
-1.27638e+04  4.35153e+03 -1.47966e+04 
-3.56126e+03 -3.11026e+03  1.86079e+04 
-5.47483e+03  1.67245e+04 -1.73027e+04 
 9.55385e+03  2.14332e+03  2.19967e+04 
-1.83531e+04  3.28472e+03 -2.08014e+04 
-1.87297e+03  1.97140e+04 -2.58234e+04 
-4.26495e+03 -7.88576e+03  2.73210e+04 
 4.30859e+03  9.26194e+03  1.75963e+03 
-1.42696e+04  4.61324e+03 -2.28815e+04 
-3.37822e+02  1.88734e+04 -3.25231e+04 
-7.01767e+03 -1.17051e+04  3.32262e+04 
 5.00892e+03  2.41345e+04  6.81090e+04 
-2.32700e+04 -7.90312e+03 -9.02634e+04 
 1.28863e+04  2.16299e+04 -6.50868e+04 
-1.15103e+04 -1.26528e+04  3.61661e+04 
 4.65993e+03  3.56839e+04  5.27609e+04 
-1.06741e+04  3.48768e+04  3.03199e+04 
 2.07609e+03  1.56156e+04  1.17122e+03 
-1.74843e+04  4.29751e+04 -3.27019e+04 
-8.88183e+03 -7.28537e+03 -3.12767e+04 
 2.37702e+03  3.98298e+04 -6.19846e+04 
-3.48320e+03 -1.09094e+04 -2.89958e+04 
-9.92894e+03 -1.60314e+04  3.75901e+04 
-2.76366e+03 -8.11186e+03  3.49174e+04 
-2.97453e+04 -1.08557e+04 -1.58505e+05 
 6.82473e+02 -7.73079e+02  2.75666e+04 
-3.81397e+04 -3.16419e+03  1.59352e+05 
 5.17957e+03 -3.23577e+04 -4.83227e+04 
 7.28001e+03 -8.87930e+03  1.75671e+04 
 5.78596e+03 -5.39050e+03 -2.17531e+04 
 1.80216e+03 -1.15266e+03 -3.00127e+04 
 1.31042e+04 -1.85360e+04 -1.65997e+03 
 9.24440e+03 -3.33957e+04  3.13644e+04 
-4.77666e+03 -2.23919e+04 -7.81843e+04 
-3.28522e+03 -2.69674e+04  9.92543e+04 
-7.78801e+03 -1.73332e+04 -2.03758e+04 
 1.79369e+04 -2.35114e+04  2.70500e+04 
 2.37692e+04 -2.64914e+04  1.10257e+04 
 2.15340e+04 -1.69401e+04  7.32430e+03 
 2.36926e+04 -2.88803e+04  1.10800e+04 
 1.86505e+04 -2.31763e+04 -3.08849e+03 
 2.18264e+04 -2.12877e+04 -2.04923e+04 
-3.19690e+04 -5.12002e+03 -7.66714e+04 
 2.20985e+04 -2.32481e+04 -2.18219e+04 
 2.26945e+04 -3.61691e+04 -2.57517e+04 
-8.21105e+03 -1.61846e+04  2.06649e+04 
-2.89929e+04 -1.20000e+04  8.25554e+04 
-4.65046e+04 -1.74065e+04  3.77878e+03 
 1.06642e+04 -2.97641e+04  2.62105e+03 
 1.99317e+04 -3.02010e+04  6.82110e+03 
 2.27091e+04 -2.72998e+04 -7.99487e+02 
 2.11067e+04 -2.32783e+04 -4.39846e+02 
 2.32474e+04 -2.52336e+04  4.53735e+03 
 2.22012e+04 -2.42666e+04 -4.81622e+03 
 2.65567e+04 -3.01669e+04  6.65270e+02 
 2.15697e+04 -3.15303e+04 -2.95177e+03 
 8.74507e+03 -2.96331e+04 -4.33334e+03 
-4.96033e+04 -1.87568e+04 -1.17370e+03 
-8.10896e+03 -1.59082e+04  2.38498e+04 
-2.67982e+04 -1.39564e+04  8.37135e+04 
 2.24492e+04 -3.59244e+04 -1.40517e+04 
 9.71163e+03 -3.36013e+04  2.80194e+04 
 2.15359e+04 -1.87431e+04 -1.63300e+04 
-3.33860e+03 -2.73938e+04  1.02526e+05 
 2.98722e+03 -1.92460e+03 -2.90274e+04 
 2.24310e+04 -2.60308e+04 -7.23422e+03 
-3.37744e+03 -7.62374e+03  3.53106e+04 
 2.21725e+04 -2.46098e+04 -5.44928e+02 
-3.85682e+04 -2.91154e+03  1.60250e+05 
 5.62002e+03 -8.20185e+03 -1.36462e+04 
 3.62546e+03  4.08823e+04 -5.91434e+04 
-1.25483e+04  3.89604e+04 -2.41743e+04 
 2.32559e+04 -1.47253e+04  5.04781e+03 
 2.11845e+04 -2.77962e+04  8.32892e+03 
 3.98183e+03 -7.20358e+03  1.77839e+04 
 1.20771e+04  2.24539e+04 -6.55486e+04 
-1.04148e+04 -1.52257e+04  3.74004e+04 
-3.63097e+03  2.73095e+04  2.22807e+03 
 2.34412e+04 -2.07329e+04  2.06759e+04 
 2.49454e+04 -3.88640e+04  1.62409e+04 
 3.79523e+03 -1.34758e+03  3.40557e+04 
-1.65600e+04  4.52911e+04  3.26465e+04 
-8.36472e+03 -1.93893e+04 -2.57599e+04 
-1.03229e+03  1.91592e+04 -3.17163e+04 
-1.19854e+04 -1.13831e+04  3.52240e+04 
 8.88457e+03 -3.72364e+04 -4.10837e+04 
-3.19928e+04 -9.51968e+03 -8.82614e+04 
 7.98803e+03  3.90325e+04  6.23153e+04 
-5.43528e+03 -2.67091e+04 -9.61954e+04 
-3.65869e+03 -1.30687e+04 -3.43945e+04 
-2.55775e+03  1.94836e+04 -2.40469e+04 
-3.48780e+04 -1.29300e+04 -1.86120e+05 
-7.50134e+03 -9.91881e+03  3.13936e+04 
 6.92805e+03  2.88160e+04  8.44929e+04 
-9.63531e+03 -9.16325e+03 -3.58466e+04 
 6.56226e+03  1.08626e+04  3.74939e+03 
-5.92535e+03  1.58102e+04 -1.44345e+04 
-2.77291e+04 -9.88114e+03 -1.09015e+05 
-4.98408e+03 -5.50282e+03  2.41650e+04 
 1.36791e+04  2.21416e+03  2.94228e+04 
-1.70289e+04  5.24406e+03 -2.74459e+04 
-6.33332e+03  1.02188e+04 -4.21348e+03 
-4.70999e+03 -2.64192e+02  1.35742e+04 
 1.00600e+04  1.85113e+03  2.19860e+04 
-2.27671e+04  3.75708e+03 -2.61520e+04 
-4.32428e+03  3.47351e+03  6.31596e+03 
-5.58440e+03  5.06130e+03  1.30349e+03 
-1.67720e+04  5.54518e+03 -2.04677e+04 
 3.61131e+03  1.44673e+03  1.46434e+04 
-3.10284e+03 -2.16479e+03  1.74990e+04 
-1.03213e+04  4.60176e+03 -1.27257e+04 
-1.40892e+03  1.80578e+03  3.35543e+03 
-7.86017e+03  1.20007e+04 -8.75570e+03 
-2.90804e+03 -7.86630e+03  3.02777e+04 
-4.38797e+03  2.76995e+03 -3.43850e+03 
-8.53143e+03  1.92998e+04 -1.72410e+04 
-6.77464e+03  3.14190e+03 -6.37903e+03 
-3.60280e+03 -1.53817e+04  3.79439e+04 
-6.09514e+03  2.60983e+04 -2.31958e+04 
 4.78081e+02  2.18019e+03  7.81952e+03 
-1.29319e+04  4.62160e+03 -1.59946e+04 
-4.13698e+03 -1.93857e+04  4.59756e+04 
-7.81660e+03  1.87273e+04 -2.41029e+04 
 5.34622e+03  2.74345e+03  1.70283e+04 
-1.79613e+04  3.85200e+03 -2.52189e+04 
 1.04409e+04  3.15048e+04 -1.22500e+05 
-1.46184e+04 -1.03582e+04  1.44357e+04 
 9.51850e+03  9.37765e+03 -3.34164e+04 
 9.32345e+03  5.38194e+03  2.32902e+04 
-3.60633e+04 -1.06715e+04  1.11448e+05 
-2.11476e+04  3.89253e+02 -3.40013e+04 
 1.39618e+04  3.97845e+04 -2.13606e+05 
 1.40922e+04  2.21237e+03 -3.02363e+04 
-4.81763e+04 -1.07966e+04  8.36279e+04 
 2.95114e+04  4.46579e+03 -1.04205e+05 
 1.03811e+04  9.83767e+03  2.64716e+04 
 4.34217e+04 -1.25264e+04 -4.43935e+04 
-2.03271e+04 -1.30038e+03 -4.08729e+04 
-5.33543e+04  1.97470e+04  4.64341e+04 
 1.43069e+04  3.01603e+04 -9.45051e+04 
-2.66577e+03 -4.38548e+03  4.11618e+04 
 2.17054e+04  3.80654e+03 -3.53127e+04 
 3.54566e+04 -2.50634e+04  9.83913e+03 
-2.83111e+04  5.90219e+03  1.65274e+04 
 1.38344e+04  8.53983e+03  2.80239e+04 
 8.79495e+02 -2.54362e+02  2.82709e+04 
 1.37700e+04 -1.78010e+04  2.22670e+04 
-2.38748e+04 -1.38417e+04 -7.39120e+04 
 1.80887e+04 -1.44251e+04  1.45700e+04 
-2.47796e+04  7.52005e+03 -2.20266e+03 
 5.67940e+03 -1.37243e+04  1.68844e+04 
-3.20033e+02 -8.16059e+02  8.96251e+03 
 1.73481e+03  3.49354e+04  1.50539e+05 
 6.86153e+03  1.82439e+02  2.54014e+04 
 1.08161e+04 -1.07677e+04  1.26591e+04 
-4.37472e+04 -5.63076e+03 -5.31885e+04 
 9.54655e+03 -1.05747e+04  1.09543e+04 
-2.01104e+04 -3.07579e+03 -2.87211e+04 
-1.54913e+02 -3.13136e+03 -3.26573e+03 
 2.75470e+04 -4.20699e+03  9.03396e+04 
-1.13410e+04 -6.41000e+03 -3.39435e+04 
 5.31289e+03 -1.06132e+04  1.09218e+04 
 3.95525e+04 -1.96004e+04  3.24696e+04 
-5.91401e+04  2.23843e+04 -5.82905e+03 
-9.77914e+03  2.94875e+02 -1.67103e+04 
 1.41652e+04 -1.17790e+04  1.61466e+04 
 1.81856e+04 -6.84685e+03  1.62190e+04 
 2.33115e+04 -2.80039e+02  5.43512e+04 
 4.01665e+03  1.52717e+03  1.75024e+04 
-1.01479e+04  1.10274e+03 -1.30168e+04 
 1.00080e+04 -3.70438e+03  2.60356e+04 
 4.53884e+01 -4.81393e+03 -3.25530e+03 
 2.32536e+04 -1.40054e+04  4.06499e+04 
-5.46620e+04  1.88550e+04  1.50860e+03 
 2.62619e+04 -9.84364e+03  2.53478e+04 
 1.23501e+04  7.18549e+03  4.27225e+04 
 4.08877e+04 -2.42828e+04  2.21418e+04 
-8.45080e+03  2.91365e+03 -8.37820e+03 
 1.36263e+04  1.80012e+03  5.31608e+04 
 1.57280e+03  2.00218e+04  8.33321e+04 
 3.14066e+04 -1.39016e+04  1.51145e+04 
-3.57922e+01  3.82722e+03 -3.04839e+03 
 1.84937e+04 -1.27141e+04  4.57637e+03 
 8.04956e+03  5.20802e+03  1.92628e+04 
 4.68142e+04 -2.12999e+04  1.18722e+04 
-6.30768e+04  2.54198e+04  1.22861e+04 
 3.54942e+04 -1.80794e+04  8.44858e+03 
 6.23589e+03  6.04903e+03  1.84143e+04 
 4.83593e+04 -2.09016e+04 -9.35774e+03 
-5.78511e+03  3.28452e+03 -3.49107e+03 
 3.64510e+04 -1.86791e+04 -4.93844e+03 
-2.32361e+03  5.80656e+03 -2.99688e+02 
 4.39246e+04 -1.66647e+04 -2.08744e+02 
 5.64550e+03  3.71503e+03  1.66910e+04 
 1.71914e+04 -1.13816e+04  2.52723e+03 
-3.88898e+04 -8.50152e+03  4.92469e+04 
 4.99487e+04 -2.09015e+04  9.52167e+03 
-2.78151e+04 -6.45018e+03  8.14654e+04 
 3.66280e+04 -1.65008e+04 -3.66625e+03 
-1.13756e+04 -6.22029e+03  1.09799e+04 
-6.49479e+02 -4.84469e+03  1.50401e+03 
 3.53979e+03  2.34670e+03  1.33543e+04 
 4.77566e+04 -1.98145e+04 -4.89253e+03 
 1.98394e+04 -1.46850e+04 -5.53865e+03 
-4.08804e+03 -1.14911e+04  3.20718e+04 
 4.63034e+04 -1.93597e+04  5.26021e+03 
-2.52950e+03  2.47155e+03  1.59273e+03 
 4.06158e+04 -2.44598e+04 -2.23408e+04 
-3.93566e+03 -7.73336e+03  2.39999e+04 
 4.73085e+04 -2.11358e+04 -1.23529e+04 
 3.92865e+04 -1.74614e+04 -4.20860e+04 
 1.00531e+04  9.10429e+02 -2.22118e+04 
 2.54177e+04 -1.47229e+04 -4.06272e+04 
 9.72980e+02  2.07688e+03  8.44474e+03 
 3.09130e+04 -1.33944e+04 -1.71788e+04 
-3.94854e+03 -1.69907e+03  1.55646e+04 
 2.38862e+04 -8.62411e+03 -2.36049e+04 
 1.91162e+04  7.71027e+02 -5.18751e+04 
 2.50363e+04 -2.70362e+03 -7.52224e+04 
 1.00245e+04  2.83361e+04 -1.56820e+05 
 5.81885e+03  7.82852e+03 -2.34760e+04 
 6.36328e+03  2.26213e+04 -8.49427e+04 
-6.67796e+03  1.31953e+04 -1.45039e+04 
 2.88523e+02  1.78428e+03  6.78044e+03 
-5.23657e+03  1.73254e+04 -1.22010e+04 
-1.59938e+03  2.40655e+03  2.49741e+03 
-4.67784e+03  3.26230e+03  4.33767e+03 
-6.29890e+03  1.13920e+04 -5.71286e+03 
-6.51730e+03  9.36382e+03 -5.05711e+03 
-4.66297e+03  4.96903e+03  2.47808e+03 
 2.95886e+03  1.61007e+03  1.27816e+04 
-4.77117e+03  3.39635e+03 -2.40391e+03 
-3.19591e+03 -5.41082e+02  1.25127e+04 
-7.40364e+03  1.58845e+04 -1.52454e+04 
 6.40384e+03  1.84401e+03  1.66331e+04 
-8.20030e+03  3.86653e+03 -6.49820e+03 
-2.97330e+03 -5.70189e+03  2.45408e+04 
-5.83087e+03  2.10644e+04 -2.48155e+04 
 8.31994e+03  2.04562e+03  2.05528e+04 
-1.13873e+04  2.88323e+03 -9.47737e+03 
-1.33207e+03  2.40763e+04 -3.40928e+04 
-4.16497e+03 -1.10268e+04  3.34129e+04 
 4.47458e+03  6.69666e+03  6.76861e+03 
-8.27283e+03  3.67970e+03 -1.01415e+04 
 5.03144e+02  2.26318e+04 -4.13152e+04 
-7.64503e+03 -1.51018e+04  3.93842e+04 
 4.59460e+03  1.62829e+04  4.98528e+04 
-1.40114e+04 -4.46336e+03 -5.39715e+04 
 1.63287e+04  2.54928e+04 -7.94379e+04 
-1.30307e+04 -1.58047e+04  4.21541e+04 
 5.06357e+03  2.30705e+04  3.65364e+04 
-7.92202e+03  2.67682e+04  1.23432e+04 
-7.58316e+02  1.87470e+04 -9.78534e+03 
-2.06605e+04  5.04127e+04 -4.01755e+04 
-4.28681e+03 -4.01530e+03 -1.46885e+04 
 3.61783e+03  4.62830e+04 -7.53836e+04 
-8.67085e+02 -6.29719e+03 -1.25396e+04 
-1.10620e+04 -1.94577e+04  4.33355e+04 
-2.65346e+03 -9.66907e+03  3.92041e+04 
-1.77516e+04 -6.21645e+03 -9.61293e+04 
 2.38515e+03  6.35134e+02  1.04302e+04 
-4.49723e+04 -3.67637e+03  1.87904e+05 
 5.63926e+03 -2.08710e+04 -2.64906e+04 
 2.67874e+03 -7.45504e+02  8.19218e+02 
 2.03459e+03 -7.26168e+02 -2.50039e+04 
 2.22405e+03  1.00241e+03 -3.16707e+04 
 7.72206e+03 -1.02477e+04 -9.26860e+03 
 1.19943e+04 -3.94278e+04  3.57829e+04 
-1.05215e+03 -1.32442e+04 -4.47225e+04 
-3.93188e+03 -3.10192e+04  1.16169e+05 
 3.88533e+03 -1.20319e+04 -2.17236e+04 
 1.23286e+04 -9.84384e+03  1.51371e+02 
 1.27152e+04 -1.24637e+04  4.79875e+02 
 1.16007e+04 -7.26072e+03  6.86142e+02 
 1.15117e+04 -1.20343e+04 -2.76290e+03 
 1.10272e+04 -1.40005e+04 -4.51314e+03 
 1.52496e+04 -1.39459e+04 -1.66744e+04 
-1.03612e+04 -7.92728e+03 -3.98927e+04 
 1.90359e+04 -1.90106e+04 -1.54331e+04 
 2.33824e+04 -3.53018e+04 -1.26399e+04 
-5.77655e+03 -1.91298e+04  3.44034e+04 
-2.91355e+04 -1.80054e+04  9.64668e+04 
-9.76675e+03 -4.93609e+03 -2.45942e+04 
 5.50699e+03 -1.00875e+04 -1.62873e+04 
 8.57219e+03 -9.96800e+03 -5.57922e+03 
 9.61747e+03 -1.06910e+04 -1.69289e+03 
 1.10456e+04 -1.14276e+04  6.79087e+02 
 1.32654e+04 -1.40006e+04  5.58241e+03 
 1.46159e+04 -1.63627e+04  1.56996e+03 
 2.01268e+04 -2.36032e+04  8.64157e+03 
 1.65865e+04 -2.58002e+04  1.18914e+04 
 6.91284e+03 -2.56332e+04  1.69372e+04 
-4.55246e+04 -1.64916e+04  2.79093e+04 
-2.83581e+03 -1.79571e+02 -6.49272e+03 
-4.07856e+03  3.33193e+03  1.11065e+03 
 3.46180e+03 -6.86147e+03 -9.67103e+03 
-1.92345e+03  9.99073e+02  2.35201e+03 
 7.55332e+03 -7.39831e+03 -9.86313e+02 
-6.20102e+02  2.06701e+01 -3.51347e+01 
 3.75142e+02 -3.09172e+03  1.52288e+03 
 1.05328e+04 -1.13412e+04  1.98663e+03 
-1.25600e+03  2.25723e+02  3.22834e+03 
 1.01014e+04 -1.29006e+04  8.73654e+03 
 9.67513e+02 -2.90098e+02 -4.33853e+03 
 4.67633e+03 -6.42893e+03  8.64486e+03 
-1.07838e+03 -1.26564e+03  8.39793e+03 
 2.00320e+03 -1.27632e+03  6.80786e+03 
 1.37496e+04 -1.10567e+04  1.38721e+04 
 1.43628e+04 -1.97950e+04  1.71182e+04 
 4.62244e+03 -8.01376e+03  2.49826e+04 
-2.72252e+03 -1.30903e+03  8.84403e+03 
-9.60183e+02  1.24570e+03  1.86232e+03 
 1.53877e+03  4.45891e+03  1.43405e+04 
 1.54291e+04 -1.63167e+04  2.91558e+04 
 1.61504e+04 -2.82129e+04  2.99955e+04 
 1.51683e+03 -1.56678e+03  3.24160e+04 
-9.41591e+03  2.41801e+04  3.02693e+04 
-1.12650e+04 -1.08178e+04 -3.97594e+03 
-1.79270e+03 -1.75855e+03  7.96896e+03 
-7.52896e+02  1.60719e+03  1.14442e+03 
 4.82555e+03 -2.34870e+04 -2.35594e+04 
-2.57575e+04 -1.29561e+03 -5.51117e+04 
 5.13212e+03  2.53322e+04  4.38064e+04 
-2.77337e+03 -1.73973e+04 -6.00342e+04 
-1.70624e+03 -8.96824e+03 -2.12243e+04 
-1.68556e+03 -2.50784e+03  8.80651e+03 
-2.21553e+04 -8.40483e+03 -1.19512e+05 
-1.07515e+03  2.23607e+03  1.32818e+02 
 5.64230e+03  1.86786e+04  5.77920e+04 
-5.42196e+03 -6.43353e+03 -2.22014e+04 
 5.71999e+03  6.96879e+03  4.11997e+03 
-1.13193e+03 -3.21524e+03  9.69612e+03 
-1.81377e+04 -6.99254e+03 -7.29254e+04 
-1.56819e+03  2.77098e+03 -1.22294e+03 
 1.12633e+04  1.08579e+03  2.24327e+04 
-1.11887e+04  3.15786e+03 -1.82377e+04 
-3.56944e+02 -3.87784e+03  1.08351e+04 
-2.18230e+03  3.06694e+03 -3.12623e+03 
 9.47681e+03  6.73238e+02  1.90983e+04 
-1.58243e+04  2.29045e+03 -1.85641e+04 
 5.53786e+02 -4.49087e+03  1.17858e+04 
-2.69116e+03  3.54221e+03 -4.12721e+03 
-1.25717e+04  3.97981e+03 -1.63359e+04 
 5.62149e+03  3.79864e+01  1.62762e+04 
 2.10460e+02 -4.55426e+03  1.37784e+04 
-9.10051e+03  4.16999e+03 -1.26550e+04 
 2.88290e+03 -1.41295e+02  1.01915e+04 
-3.40335e+03  4.99910e+03 -4.82722e+03 
-1.44456e+02 -5.45231e+03  1.57162e+04 
-5.50987e+03  2.82665e+03 -8.44873e+03 
-2.78466e+03  6.09976e+03 -5.60628e+03 
 7.57900e+02  6.65431e+01  4.65623e+03 
-6.80446e+02 -6.98286e+03  1.57067e+04 
-1.66487e+03  7.15114e+03 -5.64429e+03 
-3.20896e+03  2.14401e+03 -3.21364e+03 
-2.16400e+03  1.45187e+03  9.90952e+01 
-9.87325e+02 -7.41908e+03  1.62253e+04 
-2.00164e+03  4.44635e+03 -4.73516e+03 
-1.06747e+03  1.81146e+03  2.03956e+03 
-4.69577e+03  1.84854e+03 -4.47657e+03 
 2.82541e+03  7.60903e+03 -3.07104e+04 
-3.80855e+03 -4.30504e+03  6.86530e+03 
 2.48260e+03  1.20975e+03 -5.58004e+03 
 9.43564e+02  2.38862e+03  5.66447e+03 
-9.19870e+03 -3.98234e+03  3.21211e+04 
-6.55502e+03  1.00752e+03 -8.65171e+03 
 3.26352e+03  9.12039e+03 -5.07300e+04 
 3.63277e+03 -5.62129e+02 -4.25468e+03 
-1.18339e+04 -3.74407e+03  2.31946e+04 
 6.85243e+03 -1.67996e+02 -2.21737e+04 
 1.91434e+03  3.81310e+03  7.79669e+03 
 1.09237e+04 -4.33593e+03 -8.51870e+03 
-6.92015e+03  4.68907e+02 -1.20839e+04 
-1.36457e+04  4.84320e+03  1.09542e+04 
 4.03603e+03  4.51629e+03 -1.81326e+04 
-9.76518e+02 -1.64727e+03  9.98868e+03 
 5.24607e+03 -1.35826e+03 -7.88272e+03 
 7.23229e+03 -6.13956e+03  1.11041e+03 
-8.18298e+03  1.80331e+03  2.49395e+03 
 3.58689e+03  3.49568e+03  9.09726e+03 
-3.38538e+02  3.25464e+02  6.20541e+03 
 2.25325e+03 -4.08993e+03  6.09490e+03 
-8.65841e+03 -3.62377e+03 -2.39495e+04 
 3.57280e+03 -3.06244e+03  5.00282e+03 
-8.33090e+03  2.81603e+03 -2.37538e+03 
 1.26125e+03 -3.46372e+03  6.00233e+03 
 3.68667e+02 -4.26279e+02  1.08962e+03 
 3.48572e+02  1.20287e+04  5.07412e+04 
 1.66051e+03  6.28768e+02  8.90209e+03 
 3.40890e+03 -3.43105e+03  5.15481e+03 
-1.58187e+04 -1.41022e+03 -1.71008e+04 
 4.00149e+03 -3.54248e+03  4.91060e+03 
-7.40076e+03 -3.06438e+02 -8.67512e+03 
 4.36893e+02 -6.40437e+02 -1.89567e+03 
 9.45864e+03 -1.17206e+03  3.16682e+04 
-3.81731e+03 -1.39478e+03 -8.98596e+03 
 2.98708e+03 -3.68805e+03  3.99356e+03 
 1.34801e+04 -6.53073e+03  1.19911e+04 
-2.17485e+04  8.21699e+03 -9.26535e+02 
-3.08543e+03  1.13763e+03 -2.18994e+03 
 6.74031e+03 -4.22814e+03  4.71565e+03 
 7.00240e+03 -1.40789e+03  8.75014e+03 
 8.12450e+03  9.82386e+00  1.94404e+04 
 1.91548e+03  1.53234e+03  1.03886e+04 
-2.96991e+03  1.42023e+03 -3.53290e+02 
 3.95141e+03  1.16391e+03  1.10710e+04 
-1.96010e+02 -1.49517e+03 -2.46024e+02 
 8.14282e+03 -4.87876e+03  1.47980e+04 
-2.08411e+04  7.18570e+03  1.47528e+03 
 9.33077e+03 -3.49925e+03  9.12221e+03 
 4.41462e+03  5.57243e+03  2.17168e+04 
 1.46785e+04 -8.61796e+03  8.36429e+03 
-2.01919e+03  1.98332e+03  1.88379e+03 
 5.71289e+03  1.92823e+03  2.43334e+04 
 1.10266e+03  8.50999e+03  3.50570e+04 
 1.12757e+04 -4.97260e+03  5.41954e+03 
-1.27293e+02  1.44736e+03 -8.37772e+01 
 6.70123e+03 -4.57756e+03  2.47332e+03 
 3.28799e+03  2.86141e+03  1.06504e+04 
 1.69175e+04 -7.68821e+03  4.47361e+03 
-2.49310e+04  1.00680e+04  6.03686e+03 
 1.31885e+04 -6.76879e+03  3.77725e+03 
 2.41773e+03  3.15401e+03  1.00612e+04 
 1.78184e+04 -7.69014e+03 -3.26385e+03 
-6.81117e+02  1.86858e+03  4.31071e+03 
 1.37014e+04 -6.95400e+03 -1.22814e+03 
-8.97241e+02  2.25962e+03  9.36980e+02 
 1.63869e+04 -6.21668e+03  1.72353e+02 
 1.94992e+03  2.29760e+03  8.98864e+03 
 6.53367e+03 -4.33425e+03  1.74872e+03 
-1.55942e+04 -3.95323e+03  2.14376e+04 
 1.88953e+04 -7.91650e+03  3.84610e+03 
-1.12856e+04 -3.39246e+03  3.52680e+04 
 1.41357e+04 -6.37244e+03 -7.66063e+02 
-4.46847e+03 -3.58947e+03  5.10955e+03 
-1.91605e+02 -2.12523e+03  1.63441e+03 
 8.89597e+02  1.89865e+03  7.13185e+03 
 1.83728e+04 -7.60669e+03 -1.61221e+03 
 7.77875e+03 -5.79804e+03 -1.38037e+03 
-1.25893e+03 -6.49849e+03  1.51114e+04 
 1.80893e+04 -7.57614e+03  2.28687e+03 
 8.85302e+02  1.21454e+03  6.75444e+03 
 1.62126e+04 -9.88512e+03 -8.51886e+03 
-1.05374e+03 -5.39608e+03  1.29718e+04 
 1.87630e+04 -8.39485e+03 -4.71721e+03 
 1.62825e+04 -7.37101e+03 -1.66054e+04 
 4.65840e+03 -5.37056e+01 -8.75662e+03 
 1.03075e+04 -5.99362e+03 -1.60444e+04 
-2.80446e+02  1.99971e+03  4.43001e+03 
 1.23322e+04 -5.35420e+03 -6.86595e+03 
-7.61381e+02 -3.16745e+03  1.10393e+04 
 9.60415e+03 -3.46532e+03 -9.41439e+03 
 7.73129e+03  2.55049e+02 -2.06951e+04 
 1.02126e+04 -1.32201e+03 -3.04874e+04 
 4.34891e+03  1.16363e+04 -6.52662e+04 
 2.90956e+03  2.72128e+03 -9.62360e+03 
 3.23833e+03  9.61322e+03 -3.76181e+04 
-2.41537e+03  5.70872e+03 -7.12557e+03 
 2.07898e+03  1.04792e+03  9.60279e+03 
-1.89333e+03  8.14124e+03 -7.10045e+03 
-1.51490e+03  2.31330e+03  1.60986e+03 
-7.33553e+02 -1.53326e+03  7.39351e+03 
-2.75525e+03  6.20062e+03 -5.58877e+03 
-9.67053e+02 -9.68227e+01  4.13832e+03 
-2.71998e+03  4.11908e+03 -3.27837e+03 
 3.50103e+03  1.09851e+03  1.27703e+04 
-3.33916e+03  2.97193e+03 -6.70957e+02 
-1.99085e+03  2.05120e+03 -5.87996e+02 
-1.67203e+03  1.73835e+03  1.27451e+03 
 5.46396e+03  1.38194e+03  1.43684e+04 
-5.14713e+03  2.95299e+03 -2.64349e+03 
-1.65946e+03  6.04060e+02  2.72606e+03 
-1.73703e+03  3.29327e+03 -1.55023e+03 
 6.41035e+03  1.57378e+03  1.61796e+04 
-6.83453e+03  2.15409e+03 -3.89620e+03 
-1.01530e+03  4.37856e+03 -4.17563e+03 
-1.59560e+03 -7.81623e+02  5.81182e+03 
 3.76179e+03  4.46648e+03  7.18953e+03 
-4.61292e+03  2.60836e+03 -3.85466e+03 
-6.09998e+02  4.41768e+03 -6.28975e+03 
-2.12101e+03 -2.01515e+03  7.92957e+03 
 3.57462e+03  1.05006e+04  3.38336e+04 
-8.08121e+03 -2.45201e+03 -3.10882e+04 
 2.41728e+03  5.46122e+03 -1.45737e+04 
-3.18310e+03 -2.51219e+03  9.13364e+03 
 3.45330e+03  1.53729e+04  2.25339e+04 
-6.82358e+03  1.93985e+04  8.17053e+03 
-2.78405e+03  1.24251e+04  3.81516e+03 
-7.51073e+03  1.76559e+04 -1.71007e+03 
-1.88657e+03 -2.14607e+03 -6.04989e+03 
 6.06917e+02  1.06547e+04 -1.07611e+04 
 5.45260e+02 -3.79820e+03 -4.84734e+03 
-2.92203e+03 -3.53264e+03  9.71487e+03 
-7.93897e+02 -2.01268e+03  9.51136e+03 
-9.68065e+03 -3.42401e+03 -5.52051e+04 
 1.54860e+03  4.42229e+02  3.28612e+03 
-9.33617e+03 -8.93756e+02  4.01301e+04 
 5.54510e+03 -1.42382e+04 -1.62337e+04 
-5.91291e+02  2.59519e+02  2.71478e+03 
-1.60521e+03  2.16327e+03  3.86098e+03 
 8.04636e+02 -4.28754e+02  3.91934e+03 
 1.72011e+03 -5.41762e+03  3.81670e+03 
 4.45835e+03 -1.05290e+04  1.18952e+04 
 2.32453e+03 -8.65096e+03 -2.28861e+04 
 2.27154e+02 -7.29466e+03  2.55610e+04 
 5.91212e+03 -9.21194e+03 -1.17693e+04 
 6.09467e+03 -7.76646e+03  1.33201e+03 
 6.84111e+03 -1.14358e+04  4.97107e+03 
 3.24844e+03 -5.77808e+03  6.30150e+03 
 5.02461e+03 -1.02756e+04  1.71869e+02 
 3.23844e+03 -8.69607e+03  4.01225e+03 
 3.52263e+03 -6.79987e+03 -1.07116e+02 
-2.83361e+02 -5.35708e+03 -1.43044e+04 
 4.89373e+03 -7.21551e+03  5.28994e+03 
 6.52109e+03 -1.09870e+04  8.06845e+03 
 4.00587e+03 -6.88714e+03  1.33847e+04 
-7.04403e+02 -6.40250e+03  1.71188e+04 
 2.48990e+03 -7.24433e+03 -5.70286e+03 
 6.38160e+03 -1.34606e+04 -4.50789e+03 
 6.46557e+03 -1.42427e+04  3.77514e+03 
 5.26845e+03 -1.37460e+04  2.58328e+03 
 5.91132e+03 -1.41934e+04  1.54639e+03 
 5.77383e+03 -1.39185e+04  4.13448e+03 
 5.23235e+03 -1.28110e+04  1.86686e+03 
 6.61000e+03 -1.47979e+04  3.63496e+03 
 5.22936e+03 -1.22649e+04  6.72260e+03 
 3.94149e+03 -8.98940e+03  7.77137e+03 
 2.31113e+03 -7.04839e+03  1.04066e+04 </DataArray>
            <DataArray Name="stress" NumberOfComponents="3" format="ascii" type="Float64">
 8.93155e+04  5.27394e+04 -3.57289e+04 
 3.44808e+03 -3.05716e+02 -5.53756e+03 
 2.67890e+04  2.75815e+04 -1.52447e+04 
 6.36471e+04  5.15905e+04 -4.32227e+04 
-8.63753e+03  2.31751e+04  1.57131e+03 
-8.63393e+03 -4.70357e+03 -3.28845e+03 
 9.85175e+03  4.98670e+04 -1.10507e+04 
-1.60196e+04  5.97538e+02  9.18305e+03 
 3.11778e+04  5.09736e+04 -5.09856e+04 
-6.35624e+03 -5.07133e+03  1.74287e+04 
-1.28993e+04 -5.90476e+03  4.23994e+03 
-8.21541e+03  3.44591e+03  7.57341e+03 
-8.35789e+03 -5.27004e+03  6.11421e+03 
 1.12022e+04  1.70470e+04 -1.64224e+04 
-1.05849e+04 -7.15262e+02  7.57675e+03 
 7.39719e+04  3.78595e+04 -8.09383e+04 
-1.50162e+03  1.21733e+03  1.24717e+04 
-7.21859e+03 -2.03273e+03  7.92575e+03 
-4.00557e+04 -7.30924e+04  3.43192e+04 
-5.75196e+03 -4.90603e+04  1.71502e+04 
-1.09755e+04 -5.32209e+03  8.48173e+03 
-6.37554e+03 -3.01659e+03  9.34819e+03 
-4.30142e+03  6.39344e+02  8.26499e+03 
-3.08230e+02 -9.25475e+02  5.90615e+03 
-4.32851e+03 -2.09261e+03  9.37547e+03 
-4.51179e+04 -5.19738e+04  3.52742e+04 
 3.06101e+04  3.90442e+04 -1.86153e+04 
-7.34983e+03 -2.27931e+04  7.18492e+03 
-5.34124e+03 -2.92622e+02  8.66972e+03 
-2.52308e+03 -1.23687e+03  1.09172e+04 
-1.17294e+03  4.92618e+03  9.20331e+03 
-5.76870e+02  1.48619e+03  3.33663e+03 
 5.12093e+02 -8.14580e+02  1.25761e+04 
-2.27460e+03 -1.14062e+04  2.63912e+03 
 3.83786e+03  8.24363e+03  1.08479e+04 
-1.81541e+04 -3.69123e+04  1.88110e+04 
 3.17613e+04  3.53286e+04 -1.82352e+04 
 7.88578e+03  8.64086e+03  1.66458e+04 
 5.93938e+03  1.12162e+04  7.33698e+03 
 1.39005e+04  1.48165e+04  1.34177e+04 
-2.00113e+03 -4.89484e+03  6.76054e+02 
 1.20469e+04  1.18165e+04  1.24261e+04 
 7.99394e+03  8.19367e+03  7.57298e+03 
-1.66309e+04 -3.85160e+04  1.59730e+04 
 1.56604e+04  1.19916e+04  1.74160e+04 
 2.29191e+04  3.09467e+04 -1.73386e+04 
 1.90874e+03 -1.34984e+03  6.99857e+02 
 8.75616e+03  7.84773e+03  7.56048e+03 
 4.08087e+03  2.54853e+03  5.32541e+03 
-7.36979e+03 -3.11893e+04  1.22896e+04 
 1.19589e+04  9.44368e+03  1.12057e+04 
 1.44916e+04  2.25586e+04 -1.51690e+04 
 4.24591e+03  3.95648e+03  4.24748e+03 
 8.09136e+03  5.23332e+03  6.62326e+03 
-9.03417e+02 -2.24230e+04  8.54102e+03 
 8.50488e+03  1.35528e+04 -1.19165e+04 
 5.66587e+03  4.49901e+03  5.18359e+03 
 8.57118e+03  5.81088e+03  6.17424e+03 
 2.86232e+03 -1.31937e+04  4.48460e+03 
 4.98474e+03  5.99758e+03 -7.09586e+03 
 6.55426e+03  5.06114e+03  5.35650e+03 
 7.36826e+03  4.99866e+03  6.25853e+03 
 3.91241e+03 -5.28673e+03  1.03548e+03 
 4.77059e+03  5.16432e+03  4.44601e+03 
 8.86240e+03  5.22899e+03  7.35893e+03 
 3.36563e+03 -3.84644e+02 -3.03867e+03 
 5.51080e+03  8.36823e+02 -3.20224e+03 
 3.22385e+03  4.65862e+03  3.28786e+03 
 2.48597e+03 -7.82260e+03  2.18901e+02 
 1.11712e+04  5.42234e+03  8.21687e+03 
 8.51255e+03  8.42972e+03 -6.76886e+03 
-1.74910e+03 -1.62123e+04  2.94978e+03 
 1.03020e+03  3.50164e+03  1.92707e+03 
 1.38830e+04  6.76556e+03  9.35204e+03 
 1.08744e+04  1.37729e+04 -1.00436e+04 
 1.84779e+03 -1.15689e+04  4.16450e+03 
-1.67511e+03  1.53943e+03  1.12039e+03 
 1.64209e+04  8.87158e+03  1.03776e+04 
-1.88256e+04 -3.00474e+04  2.71320e+04 
 1.71118e+04  1.24586e+04 -3.58256e+03 
-1.07671e+04 -1.30965e+04  7.75625e+03 
-4.10040e+03 -1.07832e+03  5.89276e+02 
 3.74489e+04  2.22774e+04 -2.66906e+04 
 1.84693e+04  1.17221e+04  1.14039e+04 
-2.74072e+04 -3.99691e+04  5.22464e+04 
-1.21420e+04 -6.84076e+03  7.38917e+03 
 5.34017e+04  3.15029e+04 -1.62888e+04 
-2.91216e+04 -1.06068e+04  2.51256e+04 
-5.23078e+03 -3.74151e+03  4.19910e+02 
-3.87536e+04 -1.21284e+03  1.50128e+04 
 1.77445e+04  1.21711e+04  1.21802e+04 
 6.33788e+04  4.96423e+03 -4.17960e+03 
-2.37706e+04 -1.19348e+04  1.75480e+04 
 3.35572e+03  6.16981e+03 -1.50148e+02 
-2.30136e+04  4.64085e+03  1.38981e+04 
-2.47567e+04 -2.70964e+03  8.24284e+03 
-3.64617e+04  8.02475e+03  6.97756e+03 
 5.91005e+04  7.06962e+03 -2.72843e+02 
-6.35751e+03 -3.45784e+03  3.19539e+02 
-3.14178e+04 -8.60704e+02  5.87093e+03 
-4.61909e+02 -5.88419e+03  4.95447e+02 
-1.62073e+04  6.13417e+03  2.23780e+03 
 2.26503e+04  2.04807e+04  1.72799e+04 
-4.65140e+04 -2.22220e+02  4.10611e+03 
-3.63730e+04  4.91873e+01  1.98393e+03 
-4.64682e+04 -1.85045e+03 -1.82707e+03 
 6.24541e+04  5.43670e+03  2.45086e+03 
-1.50540e+04  4.95842e+03 -6.71595e+02 
-2.10530e+03 -4.93404e+03  1.20800e+03 
-5.60074e+03 -1.59553e+04 -1.91726e+04 
-4.86942e+04 -2.22289e+03  1.79874e+03 
 7.97527e+02  3.22184e+03  1.31026e+03 
-3.52910e+04  2.78012e+03  1.86688e+03 
 2.87945e+04  1.87138e+04  1.39271e+04 
-5.10103e+04 -2.04964e+03 -3.22373e+03 
-3.45729e+04  2.58241e+03 -2.74431e+03 
 5.96127e+04  3.29075e+04  1.91590e+04 
-4.59849e+04 -3.96867e+03  1.15297e+02 
 2.85423e+03  6.25855e+03  1.41977e+03 
-9.36320e+03 -3.18718e+02 -9.20014e+03 
 3.90750e+04  3.24043e+04  2.65377e+04 
-1.61465e+04  5.61690e+03 -1.34639e+03 
-4.93702e+04 -1.15520e+03  3.30633e+03 
-1.20005e+04  5.08381e+03  1.15857e+02 
 2.64503e+04  4.58236e+03  1.97932e+03 
 2.73968e+04  1.41328e+04  1.48983e+04 
-3.82061e+04  7.55013e+03 -7.66330e+03 
-4.74408e+04  2.46300e+02 -4.11713e+03 
-3.95895e+04  2.41535e+03 -1.12782e+04 
-1.04138e+04 -8.39833e+02 -4.49207e+03 
-9.08616e+03 -3.99656e+03 -8.86848e+03 
 2.77899e+04  1.25548e+04  1.26090e+04 
-2.16986e+04  4.55087e+03 -1.42051e+04 
 7.36459e+03  6.97300e+03  2.76128e+03 
-3.20856e+04 -3.12822e+02 -5.28525e+03 
-1.77491e+03  1.03157e+04 -4.20293e+03 
 2.79442e+04  7.30542e+03 -4.53510e+03 
 5.88120e+03  1.55328e+04 -1.01111e+04 
-2.79765e+04 -2.56565e+03 -8.90393e+03 
-2.97560e+04 -1.30732e+04 -1.90767e+04 
-1.22981e+03  9.46071e+03 -4.27370e+03 
 2.19675e+04  6.22050e+03  9.65748e+03 
-3.29637e+04 -1.03824e+04 -3.18474e+04 
-2.26093e+04 -4.60840e+04 -5.34192e+04 
 4.51862e+03  6.23698e+03 -6.42205e+03 
 5.44101e+03  7.70203e+02 -1.64252e+03 
 6.56264e+03  1.03961e+04 -9.00438e+02 
-2.32170e+04 -1.89650e+04 -9.90419e+03 
 3.16498e+03  5.92287e+03 -3.27424e+03 
 4.79861e+04  3.71315e+03 -1.29395e+04 
 1.92852e+03  6.15177e+03 -4.93327e+02 
-1.97831e+04 -1.88082e+04 -9.45862e+03 
 1.97763e+03  5.28855e+03  1.97109e+02 
 1.52784e+04  2.14068e+03  6.58251e+03 
-5.93923e+02  5.52599e+03 -9.75135e+02 
 2.39160e+03  7.01032e+01 -7.10620e+03 
 1.75320e+03  5.03521e+03  1.36661e+03 
-1.61066e+04 -1.25193e+04 -8.47595e+03 
 4.81306e+03  1.15145e+04 -1.82460e+03 
 5.55401e+04  3.44666e+04 -2.45036e+04 
-2.47108e+03  6.66679e+03  1.38902e+03 
 4.34802e+04  2.85139e+04 -3.24637e+04 
-8.45753e+03  6.85115e+03 -1.54079e+03 
 2.05998e+04  1.77948e+04 -4.46579e+03 
 6.43244e+03  6.75639e+03 -1.16640e+04 
-9.68440e+03 -6.77113e+03 -6.46263e+03 
-4.37057e+03  7.05912e+03  3.25952e+03 
-3.55430e+03  1.41243e+04 -4.05388e+03 
 1.37773e+04  2.20326e+04 -1.34321e+04 
-8.86811e+03  1.01344e+04  3.72088e+03 
 8.39483e+03  2.00199e+02  3.34826e+03 
-2.40226e+04  1.12487e+04 -1.43930e+02 
 1.12792e+04  1.73661e+04 -1.09467e+04 
-1.56993e+04  6.84781e+03  6.29336e+03 
-3.86876e+04 -6.42253e+03  1.18107e+04 
-1.53089e+04 -8.89207e+03  8.49563e+03 
-2.41323e+04 -1.29590e+04  1.09153e+04 
-3.18344e+03 -3.04375e+03 -3.49033e+03 
-1.87973e+04 -2.35367e+03  8.57162e+03 
 7.05666e+03  9.04340e+03 -8.52038e+03 
-3.40865e+04 -4.72792e+04  1.06592e+04 
-2.98327e+04 -3.73168e+04  2.74775e+04 
-3.31113e+04 -1.89360e+04  3.02732e+04 
-3.32431e+04 -4.83013e+04  6.13940e+04 
-1.40354e+04 -1.41835e+04  9.32597e+03 
-2.52826e+04 -3.75880e+04  3.47848e+04 
-7.79274e+01 -1.54737e+04  6.46624e+03 
 2.44219e+03 -1.00558e+03  2.04242e+02 
-5.27919e+03 -2.37391e+04  6.08225e+03 
 2.54923e+03 -8.68855e+02  3.10532e+02 
 4.61798e+03  2.99167e+03 -4.68761e+03 
 4.33004e+02 -1.52511e+04  4.20217e+03 
 3.24210e+03 -2.78532e+03 -1.36558e+03 
 3.01261e+03 -7.73290e+03  1.60217e+03 
-3.24467e+03 -3.07654e+03 -3.48889e+03 
 8.51657e+03  2.28985e+02  3.46200e+03 
 4.01826e+03 -1.36660e+03 -1.50438e+03 
 1.80149e+03 -9.43503e+03  1.86273e+03 
-1.08552e+04 -6.72166e+03 -6.05125e+03 
 1.55384e+04  2.21391e+03  6.06473e+03 
 5.89456e+03  4.21939e+03 -5.27811e+03 
-1.76342e+03 -1.59668e+04  4.97151e+03 
-1.53972e+04 -9.02014e+03 -8.57807e+03 
 2.34640e+04  7.18572e+03  8.04044e+03 
-7.64190e+03 -2.17683e+04  7.91788e+03 
 9.12282e+03  1.03915e+04 -8.42204e+03 
-1.21758e+04 -1.53156e+04 -8.37226e+02 
 1.66416e+04  2.72915e+03  8.61688e+03 
-9.14625e+03 -2.19222e+04  1.02579e+04 
 1.44185e+04  1.66650e+04 -1.05611e+04 
-2.19301e+04 -3.56761e+04 -2.55576e+04 
 3.64420e+04  2.52325e+04  3.37910e+04 
-2.63383e+04 -3.24991e+04  2.09513e+04 
 2.03519e+04  2.04927e+04 -1.16706e+04 
-2.81459e+04 -5.06868e+04 -1.97503e+04 
-6.64061e+03 -3.97384e+04 -1.15461e+04 
-1.15467e+04 -2.11281e+04 -1.16609e+03 
-2.32987e+03 -4.25336e+04  1.03444e+04 
 1.60893e+04  1.53311e+04  1.14674e+04 
-2.40512e+04 -4.87998e+04  1.99997e+04 
 1.10706e+04  1.69516e+04  1.05534e+04 
 2.04634e+04  2.39433e+04 -1.22441e+04 
 7.82772e+03  1.09443e+04 -1.14752e+04 
 4.65489e+04  3.27184e+04  5.85696e+04 
-6.34328e+02  4.76912e+02 -1.03433e+04 
 4.70390e+04  2.41353e+04 -5.18953e+04 
 1.24723e+04  4.03531e+04  1.76436e+04 
-4.12755e+03  7.38247e+03 -6.82855e+03 
-4.24191e+03  3.15719e+03  6.70261e+03 
-1.50033e+03  4.07697e+02  9.55662e+03 
-5.88505e+03  1.58737e+04 -4.25537e+01 
 7.02835e+03  3.47413e+04 -1.03974e+04 
 1.96859e+04  3.27845e+04  2.86847e+04 
 1.85930e+04  3.39157e+04 -3.25305e+04 
 2.07669e+04  2.78807e+04  7.44676e+03 
-9.66309e+03  2.05025e+04 -1.00143e+04 
-1.53671e+04  2.03731e+04 -4.10619e+03 
-1.76899e+04  9.10991e+03 -2.84762e+03 
-1.37329e+04  2.39792e+04 -4.14704e+03 
-1.02448e+04  1.82593e+04  7.91521e+02 
-1.51107e+04  1.39626e+04  6.65508e+03 
 4.56799e+04  2.60818e+04  2.80459e+04 
-1.42089e+04  1.58957e+04  6.90774e+03 
-7.70975e+03  3.09250e+04  8.20947e+03 
 1.83415e+04  2.36885e+04 -6.94221e+03 
 4.10755e+04  3.00094e+04 -2.71315e+04 
 7.24390e+04  5.12793e+04 -1.39263e+03 
 3.63967e+03  3.32590e+04 -9.26981e+02 
-8.31830e+03  2.81244e+04 -2.39434e+03 
-1.35147e+04  2.23004e+04  4.61519e+02 
-1.35329e+04  1.77562e+04  3.14223e+02 
-1.48947e+04  1.86486e+04 -1.40189e+03 
-1.39424e+04  1.74825e+04  1.75954e+03 
-1.56904e+04  2.19695e+04 -1.04219e+02 
-8.87981e+03  2.59101e+04  9.33251e+02 
 5.47555e+03  3.04858e+04  1.21119e+03 
 6.88483e+04  4.86851e+04  7.07154e+01 
 2.02328e+04  2.63585e+04 -8.63636e+03 
 4.41239e+04  3.51576e+04 -3.07035e+04 
-8.53766e+03  3.44282e+04  5.37091e+03 
 6.85843e+03  3.99523e+04 -1.00762e+04 
-1.71721e+04  1.19499e+04  6.47939e+03 
 2.06527e+04  3.91233e+04 -3.79930e+04 
-3.12279e+03  7.74675e+02  1.11741e+04 
-1.35558e+04  2.07278e+04  3.09323e+03 
 8.66766e+03  1.30392e+04 -1.29677e+04 
-1.43513e+04  1.84735e+04  7.74274e+02 
 5.44517e+04  2.79581e+04 -6.04302e+04 
-2.36087e+03  7.47023e+03  5.78658e+03 
-3.06290e+04 -5.75004e+04  2.28352e+04 
-6.45375e+03 -4.40038e+04  9.61956e+03 
-2.07205e+04  5.26893e+03 -1.06067e+03 
-1.05742e+04  2.21948e+04 -2.27396e+03 
-9.10910e+02  6.55448e+03 -5.05641e+03 
-3.21319e+04 -3.84908e+04  2.54875e+04 
 2.33852e+04  2.85699e+04 -1.40795e+04 
-1.08375e+04 -3.21016e+04  1.83364e+02 
-1.69086e+04  1.21458e+04 -6.31601e+03 
-8.44984e+03  3.26041e+04 -5.21457e+03 
-3.35925e+03 -3.16352e+02 -1.04833e+04 
-4.74382e+03 -4.46867e+04 -9.82731e+03 
 2.03789e+04  2.69637e+04  8.25770e+03 
-1.21909e+04 -2.65769e+04  1.30155e+04 
 2.37278e+04  2.51780e+04 -1.36112e+04 
 9.61064e+03  3.80634e+04  1.33118e+04 
 4.27749e+04  2.78341e+04  2.84483e+04 
-2.87502e+04 -4.93101e+04 -1.90518e+04 
 2.08214e+04  3.39781e+04  3.06981e+04 
 1.14764e+04  1.62974e+04  1.11401e+04 
-1.07156e+04 -2.71237e+04  1.06238e+04 
 4.67205e+04  3.25610e+04  5.83641e+04 
 1.69691e+04  2.13390e+04 -1.26467e+04 
-2.14657e+04 -3.62936e+04 -2.56073e+04 
 1.64383e+04  1.49885e+04  1.13943e+04 
-1.11736e+04 -1.53095e+04 -7.85570e+02 
-3.83641e+03 -2.10298e+04  7.54193e+03 
 3.58488e+04  2.42238e+04  3.29452e+04 
 1.07364e+04  1.45685e+04 -1.06040e+04 
-1.35326e+04 -8.79818e+03 -8.13396e+03 
 1.60267e+04  1.90775e+03  8.06164e+03 
 6.67914e+02 -1.39684e+04  4.34461e+03 
 6.60647e+03  7.61714e+03 -7.57937e+03 
-8.39451e+03 -6.38481e+03 -5.11246e+03 
 2.19387e+04  6.05243e+03  7.12704e+03 
 2.93389e+03 -6.66245e+03  9.61840e+02 
 4.19080e+03  1.55633e+03 -3.59446e+03 
 1.34760e+04  1.30199e+03  4.67227e+03 
-5.21080e+02 -2.95663e+03 -1.91725e+03 
 4.11319e+03 -3.58252e+02 -2.23889e+03 
 5.97986e+03 -1.58361e+02  1.62400e+03 
 5.60373e+03 -1.06633e+03  2.20101e+03 
 2.99950e+03 -4.48948e+03 -2.79687e+02 
 6.10158e+03  5.41108e+03 -6.03159e+03 
-4.23964e+02 -1.57629e+03 -2.12800e+03 
 1.21018e+03 -1.15914e+04  2.44122e+03 
 1.28220e+04  9.85971e+01  5.62168e+03 
 9.63568e+03  1.30236e+04 -8.77450e+03 
-3.64134e+03 -1.96009e+04  4.55385e+03 
-7.34336e+03 -4.55374e+03 -6.61413e+03 
 2.12153e+04  3.09175e+03  9.41440e+03 
 1.19576e+04  1.77088e+04 -1.14370e+04 
 6.85847e+02 -1.31827e+04  5.23887e+03 
-1.54261e+04 -9.63118e+03 -9.84297e+03 
 2.92617e+04  8.60329e+03  1.29613e+04 
-2.14674e+04 -3.27292e+04  3.00360e+04 
 1.81539e+04  1.48762e+04 -3.90003e+03 
-1.20272e+04 -1.31822e+04  8.21991e+03 
-2.31346e+04 -1.70295e+04 -1.20129e+04 
 3.90919e+04  2.44509e+04 -2.86241e+04 
 3.60979e+04  1.67416e+04  1.64106e+04 
-2.91430e+04 -4.18871e+04  5.49319e+04 
-1.35545e+04 -6.84105e+03  7.63236e+03 
 5.48838e+04  3.32568e+04 -1.74374e+04 
-3.00255e+04 -1.06116e+04  2.59971e+04 
-2.73260e+04 -2.49103e+04 -1.29755e+04 
-4.05436e+04 -1.05210e+03  1.53392e+04 
 3.50768e+04  1.83280e+04  1.90742e+04 
 6.42036e+04  5.02011e+03 -4.74279e+03 
-2.45106e+04 -1.22304e+04  1.79776e+04 
 3.22727e+03  6.57770e+03 -5.56774e+02 
-2.38335e+04  4.81668e+03  1.41819e+04 
-2.54291e+04 -2.79083e+03  8.42231e+03 
-3.73140e+04  8.41928e+03  6.99717e+03 
 5.89245e+04  7.08725e+03 -6.27809e+02 
-3.10830e+04 -2.43521e+04 -1.34537e+04 
-3.22028e+04 -8.65993e+02  6.02903e+03 
-6.79862e+02 -5.94711e+03  8.81390e+01 
-1.65694e+04  6.27225e+03  1.95838e+03 
 4.90307e+04  4.20503e+04  3.37260e+04 
-4.75171e+04 -2.01485e+02  4.10870e+03 
-3.67462e+04  6.57521e+01  1.74625e+03 
-4.71479e+04 -1.85494e+03 -1.93555e+03 
 6.13422e+04  5.36982e+03  1.95989e+03 
-1.52148e+04  4.97280e+03 -9.77755e+02 
-2.13130e+03 -4.84739e+03  7.85486e+02 
-3.00418e+04 -6.10797e+04 -6.83231e+04 
-4.90911e+04 -2.25771e+03  1.70022e+03 
-1.21765e+04 -6.72463e+03 -1.17750e+04 
-3.53078e+04  2.66839e+03  1.61028e+03 
 6.97062e+04  3.83040e+04  3.02478e+04 
-5.10262e+04 -2.03075e+03 -3.30739e+03 
-3.43494e+04  2.62719e+03 -2.96378e+03 
 5.78279e+04  3.15043e+04  1.80371e+04 
-4.57551e+04 -3.93240e+03  1.73910e+01 
 2.72219e+03  5.95508e+03  1.02190e+03 
-4.24594e+04 -2.08008e+04 -4.15355e+04 
 3.74648e+04  3.02973e+04  2.51030e+04 
-1.60051e+04  5.46883e+03 -1.63489e+03 
-4.88584e+04 -1.15370e+03  3.18607e+03 
-4.41619e+04 -4.36269e+03 -9.36609e+03 
 5.22376e+04  5.87244e+03  1.35312e+04 
 2.58598e+04  1.26878e+04  1.37694e+04 
-3.75017e+04  7.25963e+03 -7.66426e+03 
-4.65862e+04  2.36491e+02 -4.10524e+03 
-3.82668e+04  2.12969e+03 -1.11880e+04 
-4.03906e+04 -4.36601e+04 -3.25704e+04 
-8.50805e+03 -4.18173e+03 -8.71192e+03 
 2.57074e+04  1.09550e+04  1.13150e+04 
-2.11476e+04  4.37480e+03 -1.39907e+04 
 4.84560e+03  5.84271e+03  1.36950e+04 
-3.14413e+04 -3.29547e+02 -5.18219e+03 
-2.58950e+04 -1.62994e+04 -1.14025e+04 
 3.16040e+04  8.27246e+03  4.87564e+03 
-4.24361e+04 -6.07106e+04 -1.13220e+04 
-2.72635e+04 -2.50113e+03 -8.70499e+03 
-2.89315e+04 -1.28052e+04 -1.86605e+04 
-2.98500e+04  1.01301e+04  2.78639e+03 
 1.95829e+04  4.85635e+03  8.20174e+03 
-3.19814e+04 -1.03399e+04 -3.09557e+04 
-2.17034e+04 -4.44515e+04 -5.13672e+04 
-2.46221e+04 -5.35431e+03 -6.73437e+03 
-1.35774e+03  4.95263e+02  9.55895e+03 
-6.26972e+03  1.50280e+04  7.48981e+03 
-2.17124e+04 -1.84249e+04 -9.54006e+03 
-2.09620e+04  5.77781e+03 -3.33755e+03 
 2.86640e+04  3.84754e+03 -1.81495e+03 
-1.27209e+04  8.94842e+03  4.68399e+03 
-1.79466e+04 -1.79796e+04 -8.93507e+03 
-1.51183e+04  1.04069e+04  2.28708e+02 
 1.27102e+04  1.17967e+03  4.91204e+03 
-8.73049e+03  1.08905e+04  4.40299e+03 
 9.77755e+02 -1.72667e+02  2.65773e+03 
-9.48521e+03  7.74962e+03  1.53011e+03 
-1.39302e+04 -1.17786e+04 -7.74610e+03 
 1.76949e+03  1.30968e+04  4.10350e+03 
 2.53231e+04  1.58332e+04 -9.32993e+03 
-9.25788e+03  8.74206e+03  1.28700e+03 
 1.86919e+04  1.11956e+04 -1.33961e+04 
-7.50203e+03  5.61827e+03  3.81298e+03 
 7.92365e+03  6.07116e+03 -4.20277e+02 
 2.13227e+03  4.16519e+03 -1.54484e+03 
-7.32253e+03 -6.27424e+03 -5.46335e+03 
-5.80090e+03  7.23801e+03  3.77264e+03 
-1.13552e+03  1.05734e+04  3.28620e+03 
 4.63193e+03  7.53796e+03 -4.34338e+03 
-6.19379e+03  6.49670e+03  4.01319e+03 
 5.73036e+03 -2.54046e+02  1.50442e+03 
-1.14505e+04  7.19424e+03  5.33844e+03 
 3.40552e+03  5.02833e+03 -2.90750e+03 
-6.14667e+03  4.93567e+03  6.58790e+03 
-1.98682e+04 -3.21304e+03  7.51069e+03 
-8.50359e+03 -5.76722e+03  5.58920e+03 
-1.19727e+04 -1.74051e+03  9.02123e+03 
-8.63520e+02 -2.95061e+03 -2.11340e+03 
-6.12715e+03  8.92486e+02  8.68514e+03 
 1.56348e+03  1.00536e+03 -1.41806e+03 
-9.04773e+03 -1.04458e+04  1.14142e+04 
-1.74858e+04 -1.64301e+04  1.46321e+04 
-1.71564e+04 -1.06928e+04  1.61215e+04 
-1.72006e+04 -2.45552e+04  3.06901e+04 
-7.86507e+03 -8.43948e+03  5.94074e+03 
-1.28697e+04 -1.88249e+04  1.73724e+04 
-1.21412e+03 -8.50457e+03  4.34933e+03 
-3.38937e+02 -1.73653e+03 -2.03460e+03 
-3.46437e+03 -1.18304e+04  3.96090e+03 
 5.00899e+03 -1.02211e+03  1.86653e+03 
 5.31533e+02 -2.06041e+03  6.07835e+02 
-9.31268e+02 -7.57516e+03  2.81496e+03 
-8.54117e+01 -5.46970e+03  2.31135e+03 
-2.95209e+01 -3.80615e+03  1.35097e+03 
-6.79325e+03 -4.37625e+03 -6.10639e+03 
 1.18014e+04  2.35432e+01  5.13892e+03 
 6.20750e+02 -5.94842e+02 -4.36724e+02 
-1.35547e+03 -9.42366e+03  4.13178e+03 
-1.57063e+04 -8.93667e+03 -8.64432e+03 
 1.98273e+04  2.85232e+03  7.88424e+03 
 1.95079e+03  2.68052e+03 -2.58317e+03 
-3.83166e+03 -1.32382e+04  5.84729e+03 
-2.06527e+04 -1.16028e+04 -1.12580e+04 
 2.88866e+04  9.01150e+03  9.84996e+03 
-7.57672e+03 -1.65178e+04  7.50518e+03 
 4.22349e+03  6.45324e+03 -4.19242e+03 
-1.60283e+04 -1.89418e+04 -1.61210e+03 
 1.99129e+04  3.39082e+03  1.02315e+04 
-8.37775e+03 -1.61598e+04  8.80084e+03 
 7.62286e+03  1.01114e+04 -5.27714e+03 
-2.73120e+04 -4.30428e+04 -3.14218e+04 
 4.36776e+04  3.05402e+04  4.06956e+04 
-1.92814e+04 -2.27001e+04  1.55399e+04 
 1.12881e+04  1.21541e+04 -5.78843e+03 
-3.43584e+04 -5.99812e+04 -2.42886e+04 
-7.03851e+03 -4.66695e+04 -1.43998e+04 
-9.97708e+03 -2.44892e+04 -4.86788e+03 
-2.53103e+03 -3.28038e+04  4.32768e+03 
 1.83907e+04  1.81741e+04  1.32348e+04 
-1.77752e+04 -3.23989e+04  1.37154e+04 
 1.25569e+04  2.00416e+04  1.18993e+04 
 1.11605e+04  1.40050e+04 -6.01607e+03 
 2.74227e+03  5.27878e+03 -5.21862e+03 
 5.53600e+04  3.89927e+04  6.96566e+04 
-2.86560e+03 -2.28768e+03 -1.09664e+04 
 2.81176e+04  1.37664e+04 -3.15689e+04 
 1.39478e+04  4.75324e+04  2.03450e+04 
-2.58289e+03  3.69957e+03 -7.98188e+03 
-2.67203e+03 -3.30563e+03  3.67132e+02 
-4.04853e+03 -2.74303e+03  3.40064e+03 
-3.24043e+03  8.60538e+03 -3.16543e+03 
 1.05706e+03  2.11041e+04 -5.57400e+03 
 2.29293e+04  3.78999e+04  3.39675e+04 
 9.01272e+03  1.92592e+04 -1.88564e+04 
 1.92534e+04  3.11654e+04  1.26738e+04 
-1.04579e+04  1.83430e+04 -6.35901e+03 
-1.28221e+04  1.46088e+04 -2.98052e+03 
-1.21991e+04  3.35049e+03 -3.08155e+03 
-9.53146e+03  2.05941e+04 -1.67520e+03 
-5.56784e+03  8.22128e+03 -8.20540e+02 
-9.31867e+03  4.29866e+03  1.95835e+03 
 4.95242e+04  3.32593e+04  3.29736e+04 
-1.06447e+04  3.98025e+03  1.64994e+02 
-8.27035e+03  1.23368e+04 -1.35442e+03 
 1.04017e+03  1.11420e+04 -7.24453e+03 
 1.72396e+04  1.92845e+04 -1.43919e+04 
 6.63749e+04  4.56442e+04  8.84028e+03 
 3.90395e+03  2.98714e+04  6.41916e+03 
-5.91778e+03  2.29909e+04  2.59368e+03 
-8.91917e+03  1.74485e+04  3.17787e+03 
-8.88116e+03  1.29526e+04  2.08396e+03 
-8.61184e+03  1.11178e+04  3.86577e+02 
-7.56760e+03  7.64132e+03  1.33354e+03 
-7.37768e+03  8.40348e+03 -4.90290e+02 
-5.20869e+03  7.60866e+03 -2.84491e+03 
-6.25996e+02  8.54624e+03 -5.63202e+03 
 1.48755e+04  1.25751e+04 -9.05590e+03 
 1.94102e+04  1.82940e+04 -1.21212e+03 
 3.18107e+04  1.98896e+04 -1.92032e+04 
-3.79723e+03  2.62527e+04  1.02002e+04 
 5.25354e+03  2.56821e+04 -5.43246e+03 
-9.91498e+03  1.10879e+04  9.64261e+03 
 1.25790e+04  2.53005e+04 -2.39088e+04 
-3.21919e+02  2.14386e+03  1.08488e+04 
-7.62571e+03  1.55978e+04  6.17226e+03 
 4.99377e+03  8.64748e+03 -8.09922e+03 
-9.14331e+03  1.17054e+04  4.00510e+03 
 3.48604e+04  1.79202e+04 -3.90273e+04 
-1.50967e+03  7.93306e+03  8.45382e+03 
-1.97532e+04 -3.75058e+04  1.61113e+04 
-2.85195e+03 -2.29573e+04  9.63947e+03 
-1.00454e+04  5.02213e+03  3.23353e+03 
-4.73490e+03  9.14602e+03  1.36194e+03 
-1.21741e+03  5.33324e+03  2.76811e+03 
-2.25746e+04 -2.57492e+04  1.75459e+04 
 1.47906e+04  1.92815e+04 -8.91707e+03 
-4.04417e+03 -6.60772e+03  4.97290e+03 
-5.31324e+03  5.02372e+03 -7.10471e+02 
-1.73787e+02  6.39750e+03 -3.62110e+03 
 1.57381e+03  3.68464e+03  6.87649e+02 
-1.52761e+03  9.62522e+02  2.46497e+03 
 3.62386e+03  1.39945e+03 -2.61392e+03 
-9.50521e+03 -1.83993e+04  9.56965e+03 
 1.53762e+04  1.76342e+04 -8.82290e+03 
 1.55990e+03 -8.30845e+02  5.08795e+02 
 3.08398e+03 -2.39325e+03  7.48703e+01 
 2.98422e+03  3.03589e+03  3.03128e+03 
 5.01640e+02  1.62687e+02 -3.12687e+02 
 1.07726e+03 -1.66016e+02  1.06827e+03 
-8.81899e+03 -1.94312e+04  8.34976e+03 
-1.60861e+03 -1.12696e+03 -2.50903e+03 
 1.11611e+04  1.57592e+04 -8.52275e+03 
 4.02201e+03  3.80001e+03  3.78968e+03 
 9.37775e+02 -1.47853e+02  6.82928e+02 
 3.91500e+03  2.73553e+03  1.72526e+03 
-4.32537e+03 -1.61467e+04  6.69883e+03 
-1.93384e+03 -1.62940e+03 -2.07921e+03 
 7.04642e+03  1.19033e+04 -7.64753e+03 
 5.40545e+03  2.62111e+03  2.89604e+03 
-4.78099e+02  2.67915e+02  2.06621e+02 
-1.04357e+03 -1.21092e+04  5.04896e+03 
 3.99149e+03  7.62622e+03 -6.32391e+03 
 5.90210e+03  2.60267e+03  3.40034e+03 
-2.28142e+03 -5.10647e+02 -2.65109e+02 
 1.01946e+03 -7.80464e+03  3.23077e+03 
 2.19083e+03  4.13683e+03 -4.14788e+03 
-2.44124e+03  1.76669e+02 -7.88424e+02 
 5.70156e+03  2.02457e+03  4.09857e+03 
 1.35990e+03 -4.13602e+03  1.82374e+03 
-2.58291e+03  1.06300e+03 -1.22082e+03 
 5.89195e+03  1.61534e+03  4.42036e+03 
 1.39687e+03  1.58617e+03 -2.29975e+03 
 1.79533e+03 -1.67525e+03  3.50896e+01 
-2.75013e+03  6.94833e+02 -1.82986e+03 
 1.45531e+03 -1.36235e+03 -8.41359e+02 
 7.22722e+03  1.46722e+03  4.57410e+03 
 2.69883e+03  1.17919e+03 -1.66292e+03 
 1.22830e+02 -4.68875e+03  4.53435e+02 
-3.99060e+03 -2.71203e+02 -2.50947e+03 
 8.83538e+03  2.80364e+03  5.11766e+03 
 3.60651e+03  3.47596e+03 -3.16016e+03 
 1.16594e+03 -3.69907e+03  1.13858e+03 
-5.72904e+03 -1.89548e+03 -2.64778e+03 
 1.02484e+04  4.51734e+03  5.55176e+03 
-5.99440e+03 -1.02084e+04  9.01381e+03 
 5.97566e+03  3.63163e+03 -1.18552e+03 
-3.54751e+03 -4.93020e+03  2.75430e+03 
-7.06941e+03 -3.77617e+03 -2.71881e+03 
 1.33851e+04  7.43667e+03 -9.20557e+03 
 1.12419e+04  6.53923e+03  6.04002e+03 
-9.61863e+03 -1.42779e+04  1.85792e+04 
-4.00274e+03 -2.60637e+03  2.71165e+03 
 1.94829e+04  1.11118e+04 -5.61653e+03 
-1.06224e+04 -4.02252e+03  9.12918e+03 
-7.45787e+03 -5.53636e+03 -2.62654e+03 
-1.38774e+04 -5.41553e+02  5.55050e+03 
 1.02604e+04  6.65554e+03  6.36133e+03 
 2.35846e+04  1.85346e+03 -1.30182e+03 
-8.67497e+03 -4.39048e+03  6.45662e+03 
 1.28597e+03  2.14460e+03  1.52924e+02 
-8.35855e+03  1.67347e+03  5.14373e+03 
-9.06778e+03 -9.89525e+02  3.03827e+03 
-1.34437e+04  2.85382e+03  2.64640e+03 
 2.24729e+04  2.67705e+03  7.89731e+01 
-7.78904e+03 -5.02966e+03 -2.51063e+03 
-1.15542e+04 -3.24480e+02  2.15499e+03 
-1.11262e+02 -2.20145e+03  3.97547e+02 
-6.00970e+03  2.25966e+03  9.93980e+02 
 1.33000e+04  1.25179e+04  9.84473e+03 
-1.71839e+04 -9.29343e+01  1.55880e+03 
-1.36573e+04  1.10302e+01  8.75928e+02 
-1.73321e+04 -6.99808e+02 -6.37135e+02 
 2.42294e+04  2.09612e+03  1.18644e+03 
-5.67683e+03  1.87527e+03 -9.73510e+01 
-8.33384e+02 -1.91780e+03  6.75941e+02 
-6.72707e+03 -1.41265e+04 -1.63026e+04 
-1.83232e+04 -8.26063e+02  7.32899e+02 
-2.51549e+03 -2.93563e+02 -1.82969e+03 
-1.34305e+04  1.11311e+03  8.40186e+02 
 1.76948e+04  1.07121e+04  8.38637e+03 
-1.93976e+04 -7.88116e+02 -1.18029e+03 
-1.32813e+04  9.57142e+02 -9.29231e+02 
 2.35194e+04  1.32588e+04  7.87759e+03 
-1.76173e+04 -1.52477e+03  9.42932e+01 
 1.09758e+03  2.54202e+03  7.41243e+02 
-9.35563e+03 -3.38039e+03 -9.05894e+03 
 1.56778e+04  1.35122e+04  1.08628e+04 
-6.24533e+03  2.21059e+03 -3.63684e+02 
-1.90460e+04 -4.38899e+02  1.31629e+03 
-1.04523e+04  4.22590e+02 -1.48996e+03 
 1.35526e+04  1.72027e+03  3.12281e+03 
 1.12526e+04  6.22029e+03  6.29340e+03 
-1.49059e+04  3.02355e+03 -2.91542e+03 
-1.84907e+04  1.00596e+02 -1.57071e+03 
-1.57906e+04  1.07056e+03 -4.34153e+03 
-9.01050e+03 -7.57363e+03 -6.31096e+03 
-3.84982e+03 -1.42205e+03 -3.48287e+03 
 1.17690e+04  5.73311e+03  5.54710e+03 
-8.56278e+03  1.82153e+03 -5.51566e+03 
 1.93795e+03  2.31163e+03  3.28786e+03 
-1.25421e+04 -1.09797e+02 -2.06639e+03 
-4.96524e+03 -1.03876e+03 -2.53069e+03 
 8.96671e+03  2.33875e+03  6.28676e+02 
-5.97630e+03 -7.86133e+03 -3.59621e+03 
-1.10071e+04 -1.00983e+03 -3.48452e+03 
-1.17625e+04 -5.11288e+03 -7.47446e+03 
-5.43895e+03  3.24171e+03  2.18157e+02 
 9.79067e+03  3.19996e+03  4.54993e+03 
-1.30707e+04 -3.96520e+03 -1.25921e+04 
-9.13676e+03 -1.84284e+04 -2.14629e+04 
-3.51074e+03 -3.84845e+02 -1.87969e+03 
 1.10971e+02  1.34435e+01  2.11373e+03 
-3.05394e+02  3.88471e+03  2.04252e+03 
-9.76799e+03 -7.52468e+03 -4.00898e+03 
-3.20349e+03  1.30845e+03 -2.96888e+02 
 9.50559e+03  8.90412e+02 -1.12001e+03 
-2.22408e+03  2.19747e+03  1.72094e+03 
-8.70668e+03 -7.66108e+03 -3.95088e+03 
-2.69814e+03  2.04137e+03  1.20501e+03 
 7.40765e+03  1.39875e+03  3.54244e+03 
-2.17643e+03  2.45585e+03  1.76417e+03 
-1.90301e+02 -1.22909e+01  2.81946e+02 
-1.92118e+03  1.76231e+03  1.71519e+03 
-7.55820e+03 -5.24440e+03 -3.72173e+03 
 2.57744e+02  3.57151e+03  1.65106e+03 
 8.71476e+03  4.74738e+03 -2.72391e+03 
-2.54650e+03  2.18458e+03  1.69219e+03 
 5.85387e+03  2.70065e+03 -3.65577e+03 
-3.36279e+03  1.70210e+03  1.58163e+03 
 1.73224e+03  5.40780e+02  1.09034e+03 
-8.51520e+01  6.07870e+02 -7.39093e+02 
-5.27637e+03 -2.92551e+03 -3.14903e+03 
-2.39872e+03  2.00810e+03  2.41518e+03 
-1.83874e+03  2.95373e+03  1.26782e+03 
 3.79334e+02  6.65846e+02 -1.65346e+02 
-3.15629e+03  2.17722e+03  2.44825e+03 
 4.89271e+03  3.29369e+02  2.44731e+03 
-6.06183e+03  1.64488e+03  1.61765e+03 
-1.30497e+02 -5.59438e+02  6.09310e+02 
-4.08040e+03  1.23068e+03  3.01652e+03 
-8.26158e+03 -2.75769e+03  3.73327e+03 
-4.20105e+03 -3.58484e+03  3.40151e+03 
-6.14817e+03 -3.90057e+03  3.84269e+03 
-2.81156e+03 -1.25596e+03 -2.29000e+03 
-4.62973e+03 -9.81269e+02  3.30812e+03 
-7.11563e+02 -2.18675e+03  1.47226e+03 
-7.61035e+03 -1.09666e+04  3.82273e+03 
-7.85449e+03 -9.71800e+03  7.43261e+03 
-7.86248e+03 -5.95333e+03  7.50900e+03 
-7.59192e+03 -1.06327e+04  1.27688e+04 
-3.93639e+03 -4.53711e+03  3.41391e+03 
-5.56501e+03 -7.96700e+03  7.30722e+03 
-1.28972e+03 -4.10611e+03  2.58966e+03 
 2.74048e+03  6.42224e+01  1.53563e+03 
-1.97450e+03 -4.90272e+03  2.26661e+03 
-7.57415e+02 -2.74492e+02 -9.86345e+02 
-1.00832e+03 -3.54245e+03  2.43425e+03 
-1.13944e+03 -3.05539e+03  1.60752e+03 
-1.21824e+03 -5.42902e+03  3.20376e+03 
-1.05840e+03 -1.41990e+03  8.44923e+02 
 1.12713e+03 -3.27876e+02  4.07078e+02 
 9.22130e+02  1.72206e+02  1.13156e+02 
-6.60287e+02 -1.06413e+01 -1.13582e+02 
-2.20396e+03 -7.63695e+03  4.15395e+03 
-8.45813e+02 -1.07638e+03 -5.69749e+02 
 2.87614e+03  3.46238e+02  9.92433e+02 
 2.25676e+02  1.78748e+03 -1.24704e+03 
-3.82640e+03 -9.72125e+03  5.02292e+03 
-2.27392e+03 -1.69139e+03 -1.45754e+03 
 5.08018e+03  1.40985e+03  1.73929e+03 
-6.07505e+03 -1.14352e+04  5.88767e+03 
 1.73162e+03  3.96318e+03 -1.97149e+03 
-2.02729e+03 -3.32260e+03  1.52320e+02 
 3.97928e+03  5.18162e+02  2.08801e+03 
-6.49857e+03 -1.09510e+04  6.53164e+03 
 3.79603e+03  5.95734e+03 -2.45296e+03 
-4.53318e+03 -8.47455e+03 -5.70489e+03 
 8.72853e+03  5.81815e+03  7.95252e+03 
-1.30404e+04 -1.49091e+04  1.05451e+04 
 5.92497e+03  6.93768e+03 -2.63705e+03 
-7.53745e+03 -1.36628e+04 -3.40778e+03 
-1.75905e+03 -1.60256e+04 -2.64436e+02 
-3.50009e+03 -1.39488e+04  5.21919e+02 
-8.43526e+02 -2.29711e+04  3.06928e+03 
 4.43814e+03  3.74669e+03  3.05266e+03 
-1.18456e+04 -2.14703e+04  8.20133e+03 
 2.91531e+03  4.26063e+03  2.93147e+03 
 5.83026e+03  7.89205e+03 -2.67865e+03 
 2.79783e+02  2.49947e+03 -2.21981e+03 
 1.13657e+04  8.08411e+03  1.45316e+04 
-7.43774e+02  3.81061e+02  1.13989e+03 
 1.53608e+04  7.25389e+03 -1.81374e+04 
 2.11304e+03  1.15434e+04  5.59817e+03 
 4.89522e+02  2.32388e+02  1.41818e+03 
 1.05133e+03 -2.34168e+03  9.73917e+02 
-2.11574e+03 -1.74329e+03  9.31493e+02 
 8.62257e+02  5.68639e+03  1.08392e+03 
-1.32374e+03  1.35830e+04 -3.41946e+03 
 3.62807e+03  8.37433e+03  7.34856e+03 
 2.37954e+03  1.07024e+04 -1.00567e+04 
-8.75345e+02  7.35138e+03  4.82271e+03 
-2.29001e+03  5.90293e+03  2.08095e+03 
-1.75805e+03  9.94065e+03  8.69690e+02 
-7.45464e+02  5.35739e+03  6.85788e+02 
-6.53113e+02  9.33707e+03  2.38751e+03 
 8.12129e+02  9.30265e+03  1.17505e+03 
-4.93509e+02  7.00670e+03  2.85777e+03 
 4.14822e+03  7.01948e+03  5.54269e+03 
-2.58518e+03  6.52347e+03  1.04923e+03 
-3.09427e+03  1.16902e+04 -8.49033e+02 
-2.34640e+03  6.95454e+03 -3.71264e+03 
 3.74822e+03  9.02174e+03 -5.48138e+03 
 1.27837e+03  6.55451e+03  3.50927e+03 
-3.61708e+02  1.03985e+04  3.10855e+03 
 4.01734e+01  1.20729e+04  1.06687e+03 
 9.96351e+02  1.27267e+04  1.40484e+03 
 5.14144e+02  1.37701e+04  1.65597e+03 
 6.68375e+02  1.42490e+04  8.25700e+02 
 7.80024e+02  1.39359e+04  1.71205e+03 
 1.53967e+02  1.66545e+04  1.02067e+03 
 4.83640e+02  1.50806e+04 -2.17024e+02 
 2.17242e+02  1.14631e+04 -9.93394e+02 
 7.04896e+02  9.08395e+03 -2.11731e+03 
-6.57989e+03 -3.15521e+03 -3.80214e+02 
 4.39550e+02  2.22064e+02 -2.52486e+03 
-1.09325e+03 -5.39148e+02 -1.20316e+03 
-2.95470e+03 -1.44628e+03  1.05104e+03 
 1.39600e+03 -9.98951e+02 -2.46481e+03 
 1.13941e+03  6.02765e+02 -2.29088e+03 
 6.20962e+02 -2.29865e+03 -7.29843e+02 
 1.59655e+03  6.13372e+02 -3.19250e+03 
-1.91020e+02 -2.20065e+03  1.98684e+03 
 8.87076e+02  1.73969e+03 -2.86255e+03 
 1.25762e+03  4.99727e+02 -2.77826e+03 
 5.03441e+02  7.85619e+01 -2.77334e+03 
 3.95793e+02  2.37035e+02 -2.83154e+03 
 9.81909e+02  1.24400e+03 -7.56310e+02 
 5.60249e+02  1.01266e+02 -2.76708e+03 
-3.44398e+03 -6.22414e+02  3.99472e+03 
-5.38348e+01  1.86999e+01 -2.46580e+03 
-8.52463e+01 -3.75596e+01 -2.85492e+03 
 4.47077e+03  8.37777e+03 -4.23851e+03 
 4.89213e+02  4.80638e+03 -2.37957e+03 
-1.69189e+02 -3.08269e+01 -2.95954e+03 
-3.67550e+02 -1.66044e+02 -2.79297e+03 
-5.26256e+02  2.97735e+01 -2.76696e+03 
-1.07456e+02 -1.65271e+02 -2.40353e+03 
-1.15549e+03 -5.19659e+02 -2.78954e+03 
 4.87151e+03  6.43038e+03 -4.58135e+03 
-4.16641e+02 -1.02032e+02 -7.62183e+02 
 2.49960e+00  1.14151e+02 -1.66969e+03 
-1.48119e+03 -5.72799e+02 -3.17668e+03 
-1.13976e+03 -5.89188e+02 -2.33500e+03 
-1.45971e+03  9.65892e+02 -2.45612e+03 
-1.02746e+03 -1.91143e+03 -2.89067e+03 
-2.91813e+02 -1.74606e+02 -2.47806e+03 
-3.55969e+02 -4.87386e+03 -2.48042e+03 
 1.11886e+03  7.16143e+02 -1.19996e+03 
 2.61096e+03  4.64576e+03 -3.09087e+03 
-8.15158e+01  8.57850e+02 -1.05915e+03 
 6.23831e+03  2.81918e+03 -5.84348e+02 
-3.61215e+02  2.31493e+03 -3.46373e+02 
 2.87103e+03  7.92294e+02  8.68266e+02 
-4.50523e+03 -7.63385e+03 -3.96423e+03 
 1.97145e+02  1.87485e+03  1.30267e+03 
-7.21901e+02 -7.80264e+02 -9.13425e+02 
 2.20659e+03  4.07527e+03 -2.54563e+03 
 2.87876e+03  1.26005e+03  4.14414e+03 
 8.06417e+02  1.81000e+03 -1.43268e+03 
-4.16777e+03 -6.41976e+03 -4.75121e+03 
-5.54458e+01 -7.62060e+02 -9.05890e+02 
-2.61117e+03 -3.80318e+03 -2.19406e+03 
 1.46506e+03  2.83371e+03 -1.90708e+03 
 1.27991e+03 -2.46241e+02  7.95871e+02 
 1.44761e+03  3.02233e+03 -2.04401e+03 
-2.22205e+03 -2.90852e+03 -2.67785e+03 
-8.48958e+02 -2.51660e+03 -1.66089e+03 
 1.26151e+03  1.57884e+03 -1.18765e+03 
 1.59446e+03  4.00148e+03 -2.92448e+03 
-1.23446e+03 -2.56907e+03 -1.99260e+03 
-8.84617e+02 -2.30756e+03 -2.03075e+03 
 1.50860e+03  3.89037e+02 -4.88912e+02 
 1.66843e+03  5.05739e+03 -3.71875e+03 
-2.18544e+03 -2.65400e+03 -2.64271e+03 
-1.96415e+02 -2.35906e+03 -1.18750e+03 
 1.01673e+03 -6.76281e+02  4.37445e+02 
-3.33764e+03 -2.42846e+03 -3.29583e+03 
 7.81808e+02 -2.28755e+03 -4.34295e+02 
 1.78453e+03  6.89774e+03 -4.34730e+03 
 6.99940e+01 -2.40959e+03  1.43243e+03 
-4.34474e+03 -2.81453e+03 -4.13759e+03 
 3.01769e+03  9.09954e+03 -4.91295e+03 
 2.48178e+03 -2.19227e+03  1.35373e+02 
-1.50292e+03 -5.02987e+03  1.80981e+03 
 5.09718e+03  1.15860e+04 -5.21416e+03 
-5.95492e+03 -3.72033e+03 -5.12013e+03 
 4.48588e+03 -1.10186e+03  9.50838e+02 
-2.26729e+03 -6.18738e+03  2.30291e+03 
 3.12225e+03  8.16042e+03 -5.08838e+03 
-7.97793e+03 -5.25301e+03 -5.65448e+03 
 6.34275e+03  5.37179e+02  1.67628e+03 
 1.17370e+04  1.56077e+04 -1.48324e+04 
-4.38752e+03 -4.13804e+03 -1.00361e+03 
 7.47737e+03  7.00414e+03 -5.67031e+03 
-9.75141e+03 -7.24881e+03 -6.00204e+03 
-1.16823e+04 -7.37886e+03  8.48584e+03 
 7.82490e+03  2.71490e+03  2.41652e+03 
 1.39196e+04  1.89726e+04 -2.32153e+04 
 8.03158e+03  5.42647e+03 -5.32824e+03 
-1.56517e+04 -9.19988e+03  6.51933e+03 
 1.30405e+04  9.56460e+03 -1.26788e+04 
-1.05572e+04 -9.25889e+03 -6.10327e+03 
 1.48527e+04  4.46222e+03 -6.11870e+03 
 7.17572e+03  2.97147e+03  2.96425e+03 
-1.27585e+04  6.91275e+02  5.36440e+03 
 1.41128e+04  1.58874e+04 -1.22191e+04 
-1.10644e+03 -6.43480e+02  3.10795e+03 
 1.00798e+04  7.68958e+03 -6.99170e+03 
 6.69605e+03  3.77345e+02 -1.91372e+03 
-3.91793e+02  1.89313e+03  6.20033e+03 
-1.11734e+04 -8.86157e+03 -6.07270e+03 
-6.81469e+02  1.38754e+03  4.96880e+03 
 2.37716e+03  3.43331e+03  1.10462e+03 
 1.05264e+04  9.30823e+03  6.75918e+03 
 1.07192e+03  2.89768e+03  2.48223e+03 
 1.73557e+04  1.96089e+03  9.91810e+03 
 1.46484e+02  6.39123e+03  4.68443e+03 
-3.42017e+03  1.35233e+03  8.96261e+03 
-1.06765e+04 -1.91665e+04 -2.08777e+04 
-5.90763e+03 -4.13268e+03 -5.53392e+03 
-3.36842e+03  7.35294e+03  4.96085e+03 
 1.56874e+04  7.85316e+03  6.67603e+03 
-7.02720e+03  6.27170e+03  7.23621e+03 
 3.27070e+04  1.76599e+04  1.58546e+04 
 2.04493e+03  1.42298e+03  1.12461e+04 
-1.34477e+04 -8.80427e+03 -1.36500e+04 
 2.41932e+04  2.06976e+04  1.73247e+04 
-5.15553e+03  8.96572e+03  1.10896e+04 
-1.33787e+04 -3.02212e+03 -4.36708e+03 
 1.13539e+04 -6.78244e+02  4.62110e+03 
 1.79314e+04  1.06044e+04  1.11047e+04 
-1.62229e+04  4.16642e+03  1.15306e+04 
-1.57277e+04 -9.54374e+02 -5.31114e+02 
-1.49143e+04 -1.47377e+04 -1.18087e+04 
-1.59081e+03  3.23014e+02 -1.74696e+03 
 1.79543e+04  9.78542e+03  9.84094e+03 
-9.69291e+03 -1.17044e+04  3.31740e+03 
 8.14653e+02  2.30212e+02  2.92445e+03 
-8.74467e+03 -7.30912e+03 -6.48510e+03 
 4.23592e+02 -2.27122e+03  5.92244e+03 
-6.34913e+03 -1.49497e+04 -9.83073e+03 
-9.60053e+03 -1.87063e+04 -9.68293e+03 
-6.32735e+03 -7.39775e+02 -2.00886e+03 
 1.47802e+04  6.37963e+03  8.23029e+03 
-1.50432e+04 -4.71676e+03 -1.36533e+04 
-8.88683e+03 -2.14704e+04 -2.46921e+04 
-4.01211e+03 -5.80912e+03 -6.23328e+03 
 6.40885e+02 -2.20071e+03  5.36803e+03 
-1.94095e+03 -3.52451e+03  1.33351e+03 
-9.33061e+03 -6.92709e+03 -2.25687e+03 
-2.91768e+03 -5.86159e+03 -3.03088e+03 
-1.88678e+04 -1.38980e+03  1.02850e+04 
-1.26122e+03 -4.85128e+03  1.78757e+03 
-7.31932e+03 -6.89016e+03 -1.86140e+03 
-2.02676e+03 -5.17172e+03  8.91037e+01 
 1.11363e+04  4.21988e+03  6.53791e+03 
 1.80932e+03 -3.11013e+03  4.40473e+03 
 2.88481e+03 -1.37380e+03  9.07449e+03 
-1.06423e+03 -5.54869e+03  6.39861e+02 
-5.26865e+03 -3.51189e+03 -1.32184e+03 
 1.25741e+03 -7.49912e+03  6.00628e+03 
-3.02816e+04 -1.83526e+04  1.49427e+04 
 2.54506e+03 -6.66511e+03  2.49545e+03 
-2.47116e+04 -1.70845e+04  1.89090e+04 
 7.57335e+03 -5.52352e+03  7.16159e+03 
-1.32707e+04 -1.15707e+04  5.37676e+03 
-2.91983e+03 -2.15424e+03  1.13807e+04 
-1.77705e+03 -4.25760e+02 -1.98220e+02 
 3.64536e+03 -6.42908e+03  2.71623e+03 
 5.29766e+03 -8.47920e+03  1.11074e+04 
-9.84605e+03 -1.33372e+04  9.61375e+03 
 8.77208e+03 -1.00230e+04  3.55011e+03 
 7.39779e+03  3.23151e+03  4.76608e+03 
 1.60333e+04 -4.90962e+03  1.11854e+04 
-8.60058e+03 -1.08848e+04  8.24980e+03 
 1.53146e+04 -6.90058e+03  6.11554e+03 
 1.63472e+04  2.21540e+03 -2.52553e+03 
 4.11669e+03  1.20554e+03 -1.06911e+03 
 1.07654e+04  1.18700e+04  3.14053e+03 
 1.73845e+03  1.54213e+03  1.45718e+03 
 1.83821e+04  1.94711e+03  7.90657e+03 
-6.62073e+03 -6.76430e+03  6.87335e+03 
 3.40430e+04  4.63214e+04  1.14365e+04 
 6.69406e+03  1.92367e+04 -9.32483e+03 
 1.35633e+04  5.05199e+03 -1.09878e+04 
 1.25197e+04  1.95417e+04 -2.60324e+04 
 3.58603e+03  3.84354e+03 -1.32209e+03 
 8.70740e+03  1.47872e+04 -1.33641e+04 
-3.44246e+03  4.08906e+03  2.70610e+02 
 4.16117e+03  2.54494e+03  3.01585e+03 
-1.03307e+03  7.80190e+03  5.70612e+02 
 4.85878e+03  2.68946e+03  3.53653e+03 
-5.49413e+03 -3.68982e+03  4.87971e+03 
-3.73134e+03  3.51595e+03  1.63427e+03 
-4.83947e+03 -4.88015e+02  3.18066e+03 
-4.81815e+03 -2.81495e+02  3.03603e+03 
 9.89031e+02  1.35441e+03  9.70346e+02 
 8.18989e+03  3.27740e+03  5.25734e+03 
-5.40694e+03 -3.50802e+03  4.73259e+03 
-3.80874e+03  3.21416e+03  1.43825e+03 
-3.29027e+03 -7.30762e+02 -4.13925e+02 
 1.21135e+04  4.45505e+03  6.68382e+03 
-6.57020e+03 -6.59234e+03  6.77956e+03 
-1.62816e+03  6.81058e+03 -2.18473e+02 
-5.79963e+03 -2.01827e+03 -1.79115e+03 
 1.65443e+04  7.29109e+03  7.75182e+03 
 1.79342e+03  9.95084e+03 -1.80804e+03 
-8.56200e+03 -1.00852e+04  8.38584e+03 
-3.86188e+03 -5.56137e+03  2.62507e+03 
 1.25794e+04  4.73570e+03  8.03976e+03 
 2.52847e+03  9.79998e+03 -3.05938e+03 
-1.16510e+04 -1.35354e+04  9.47264e+03 
-9.38560e+03 -1.68294e+04 -1.13194e+04 
 2.37964e+04  1.75045e+04  2.23257e+04 
 1.25397e+04  1.55583e+04 -9.16900e+03 
-1.50362e+04 -1.55598e+04  1.00135e+04 
-1.23576e+04 -2.49392e+04 -9.53981e+03 
-1.44356e+03 -1.57581e+04 -9.15428e+03 
-2.67437e+02 -1.31844e+03 -7.71079e+03 
-1.68605e+02  1.70774e+04 -8.57693e+03 
 1.21171e+04  1.17569e+04  9.56090e+03 
 1.07253e+04  2.47574e+04 -1.01986e+04 
 9.48939e+03  1.26777e+04  9.08988e+03 
-1.48612e+04 -1.72556e+04  1.02404e+04 
-7.79112e+03 -9.62688e+03  9.76884e+03 
 3.00071e+04  2.17622e+04  3.63779e+04 
 1.55821e+03  1.22013e+03 -6.23246e+03 
-3.09364e+04 -1.72547e+04  3.32566e+04 
 1.05192e+04  2.44260e+04  1.21816e+04 
 4.37776e+02  4.84767e+03 -6.69951e+03 
-5.21493e+02 -3.66509e+03 -7.32350e+03 
-1.68188e+03 -1.58952e+03 -6.38188e+03 
 6.31169e+02 -9.72862e+00 -5.27716e+03 
-7.72392e+03 -2.17035e+04  7.90204e+03 
 1.61037e+04  2.14563e+04  1.95994e+04 
-1.54088e+04 -2.26633e+04  2.21311e+04 
 1.94100e+04  1.93284e+04  6.22048e+03 
 4.26925e+02  1.40521e+04 -4.87880e+03 
-3.85252e+03  6.52172e+03 -1.15641e+03 
-1.75222e+03  8.96582e+02 -1.01397e+03 
-1.85680e+03  1.28036e+04 -1.02081e+03 
 3.08654e+02 -3.33858e+03 -6.68683e+02 
 1.96125e+03 -4.87870e+03 -2.07833e+03 
 3.44262e+04  1.87966e+04  2.09330e+04 
 2.05073e+03 -1.00335e+04 -3.45830e+03 
 2.33269e+02 -1.96690e+04 -4.58676e+03 
-1.90222e+04 -1.73309e+04  5.77167e+03 
-3.18991e+04 -2.10643e+04  2.05474e+04 
 5.43041e+04  3.56152e+04  1.30780e+03 
 5.68216e+03  2.10895e+04  2.02382e+03 
-4.69825e+02  1.60592e+04  2.36889e+03 
-2.94647e+03  9.94273e+03  4.53639e+03 
-1.50711e+03  5.06320e+03  4.29217e+03 
 1.16698e+02  1.05838e+03  4.25392e+03 
 1.53831e+03 -4.84797e+03  3.84281e+03 
 4.62414e+03 -1.03186e+04  4.44907e+03 
 8.11453e+02 -1.60450e+04  2.95518e+03 
-7.06552e+03 -2.06149e+04  1.47674e+03 
-5.46489e+04 -3.55381e+04  1.57750e+03 
 1.62217e+04  1.65647e+04 -2.65703e+03 
 2.93720e+04  2.20931e+04 -1.90037e+04 
-3.66302e+03  2.01961e+04  8.56290e+03 
 2.87381e+03  2.67941e+04 -4.11176e+03 
-4.89108e+03  5.83593e+03  1.15851e+04 
 1.15519e+04  2.58422e+04 -2.46602e+04 
-1.92142e+03 -2.89681e+03  1.31163e+04 
-9.01946e+02  7.39113e+03  8.92892e+03 
 2.79873e+03  6.82330e+03 -6.21922e+03 
-3.92094e+03  1.26979e+03  9.15689e+03 
 3.71879e+04  1.78375e+04 -4.20097e+04 
 9.12781e+02  2.39498e+03  1.32365e+04 
-2.42757e+04 -4.49814e+04  2.13590e+04 
-1.27463e+03 -2.67474e+04  1.34631e+04 
 9.50583e+02 -1.09466e+03  1.03007e+04 
 2.15461e+03 -7.73657e+03  9.36569e+03 
-5.32149e+01 -1.85224e+03  1.31487e+04 
-2.90572e+04 -3.27644e+04  2.31411e+04 
 1.41474e+04  1.92738e+04 -7.35857e+03 
 4.16560e+02 -1.53708e+02  1.11339e+04 
 5.12765e+03 -6.47648e+03  1.15956e+04 
 4.48957e+03 -2.05133e+04  8.43196e+03 
 3.02529e+03  4.08602e+03  1.36162e+04 
 4.66756e+02  2.94333e+04  1.44680e+04 
-1.71654e+04 -1.87748e+04 -3.18213e+03 
-1.38376e+04 -2.41508e+04  1.39636e+04 
 1.47388e+04  1.72557e+04 -7.18548e+03 
-5.29106e+03 -2.85763e+04 -7.30057e+03 
-3.08001e+04 -1.86464e+04 -1.90492e+04 
 2.62798e+04  4.26989e+04  2.04119e+04 
-1.26037e+04 -2.40954e+04 -2.14029e+04 
-5.50368e+03 -1.11790e+04 -5.41325e+03 
-1.30324e+04 -2.52763e+04  1.25188e+04 
-3.52374e+04 -2.42706e+04 -4.53722e+04 
 9.87704e+03  1.50568e+04 -6.81966e+03 
 2.38018e+04  3.43794e+04  2.63316e+04 
-9.34900e+03 -1.01462e+04 -6.04373e+03 
 1.59726e+04  1.70524e+04  4.64875e+03 
-7.85295e+03 -2.14450e+04  1.05932e+04 
-2.83494e+04 -1.93118e+04 -2.64692e+04 
 5.13338e+03  1.05707e+04 -5.77881e+03 
 2.01896e+04  1.20490e+04  1.20254e+04 
-1.13775e+04  2.38617e+02 -4.37288e+03 
-4.09085e+03 -1.67476e+04  8.65927e+03 
 1.63510e+03  5.61937e+03 -4.20663e+03 
 1.72471e+04  1.02469e+04  1.06481e+04 
-1.87324e+04 -4.09822e+03 -4.47960e+03 
-1.75245e+03 -1.17507e+04  6.53511e+03 
-4.25950e+02  1.56242e+03 -1.66730e+03 
-1.27853e+04  5.39361e+02 -3.55143e+03 
 1.11286e+04  6.76152e+03  9.47024e+03 
-1.32986e+03 -7.48839e+03  4.86470e+03 
-7.51643e+03  3.09618e+03 -2.03662e+03 
 6.94864e+03  4.68778e+03  6.98420e+03 
-1.34048e+03 -1.47680e+03  4.86250e+02 
-7.67191e+02 -4.55942e+03  2.75387e+03 
-3.09278e+03  3.52125e+03 -3.00420e+02 
-1.35937e+03 -4.99485e+03  2.19031e+03 
 3.88238e+03  3.58420e+03  4.72908e+03 
 3.72569e+02 -1.11894e+03  7.88949e+02 
-3.02012e+03 -8.96754e+03  3.69041e+03 
-8.73049e+01  4.09081e+03  1.85684e+03 
 4.09763e+02  3.62318e+03  2.85342e+03 
 1.45617e+03  1.58523e+03 -9.55631e+02 
-1.70653e+03 -7.58631e+03  4.46043e+03 
 2.93920e+03  5.10089e+03  3.99672e+03 
-3.13445e+03  2.44395e+03  9.74915e+02 
-1.04936e+04 -1.55491e+04  1.41283e+04 
 4.36475e+03  1.58457e+03  1.53883e+03 
-7.35816e+03 -8.79387e+03  6.32629e+03 
 6.35497e+03  7.38594e+03  5.47264e+03 
 1.30657e+04  6.31717e+03 -8.19365e+03 
-6.48995e+03 -1.47398e+02 -7.42343e+02 
-1.45669e+04 -2.08081e+04  2.52239e+04 
-7.99562e+03 -6.85487e+03  6.52610e+03 
 1.94309e+04  9.18171e+03 -6.91912e+03 
-1.62797e+04 -1.13818e+04  1.42786e+04 
 8.79151e+03  1.02271e+04  6.33032e+03 
-1.66505e+04 -7.73970e+03  6.71125e+03 
-7.41277e+03 -1.12452e+03 -2.14637e+03 
 1.23988e+04  1.20095e+03 -6.62965e+03 
-1.03821e+04 -2.80852e+04  1.46600e+04 
-3.27783e+03 -1.77895e+03 -7.29088e+03 
-1.50661e+04 -1.96141e+04 -2.39597e+02 
-2.15427e+04  4.85217e+02 -9.78937e+03 
 1.20933e+03  3.24259e+03 -3.09953e+03 
 1.09999e+04  1.06560e+04  6.87812e+03 
-7.52458e+03  1.69483e+03 -5.67534e+03 
-1.13582e+04  6.81067e+03 -7.03475e+03 
-1.25514e+04 -8.71710e+03 -7.08506e+03 
-1.43900e+04  6.17611e+03 -3.23464e+03 
-1.51475e+03  1.58776e+03 -5.20137e+02 
-6.09647e+03  9.64473e+03 -1.46140e+03 
-5.13820e+03  2.05571e+03 -6.04140e+02 
 1.18012e+04  2.21568e+04  2.38321e+04 
 6.09985e+03  5.76514e+03  7.01078e+03 
-8.74945e+03  5.36798e+03  3.29067e+02 
-2.10960e+04 -8.95213e+03 -7.47459e+03 
-5.87788e+03  6.78546e+03  2.94514e+03 
 3.86411e+00  2.85655e+02 -9.05541e+01 
-1.77751e+03 -4.22502e+02  1.70901e+03 
 1.72469e+04  1.08207e+04  1.63188e+04 
 1.85483e+02  9.03721e+01  5.16634e+02 
-3.42704e+03  5.13180e+03  4.29416e+03 
 1.59992e+04  6.67434e+03  4.68801e+03 
-1.11598e+04 -1.62842e+03 -6.21135e+03 
 4.54378e+02  9.51308e+02  9.70682e+02 
-3.43534e+03  7.82973e+02  6.48822e+03 
 2.39547e+03  8.79703e+02  1.93542e+03 
 1.24514e+04  2.65329e+04  1.46389e+04 
 2.17897e+03  2.00040e+03  2.05136e+03 
 2.56919e+02  9.23371e+02  1.01666e+03 
 1.28429e+03 -9.44388e+02  5.51185e+03 
 3.91006e+03  2.11217e+03 -7.42256e+03 
 1.42088e+04  1.96060e+04 -3.41918e+02 
-1.02267e+03 -2.85913e+03 -3.26429e+03 
 4.19158e+04  6.13458e+04 -1.05695e+04 
 6.14111e+03  2.05222e+03  3.95651e+03 
 2.15074e+04 -5.25076e+02 -9.67482e+03 
 3.78989e+02  1.21998e+03  1.07344e+03 
 2.82470e+03  3.52215e+03  3.55408e+03 
 3.07439e+03  4.52435e+03  4.43584e+03 
 2.51756e+04  5.81759e+03 -7.17732e+03 
 7.86242e+03 -2.05922e+03 -5.41715e+03 
 1.12204e+04 -7.50208e+03 -6.98019e+03 
 2.98795e+03  2.56837e+03  2.25055e+03 
 2.12268e+04 -5.72452e+03 -3.55945e+03 
 2.33979e+03 -1.37710e+03 -8.08942e+02 
 1.34064e+04 -7.56214e+03 -3.22827e+03 
 3.04818e+03  2.72636e+03  2.31311e+03 
 1.50621e+04 -1.02914e+04  1.02633e+02 
 5.58352e+02  1.47652e+03  1.11843e+03 
 1.00432e+04 -8.25116e+03 -6.25623e+02 
 4.76022e+03 -1.22933e+03 -4.04584e+02 
 1.02265e+04 -8.31953e+03  6.96599e+02 
 3.01193e+03  2.47595e+03  2.32979e+03 
 4.77206e+03 -8.80360e+03  4.95823e+02 
 1.23752e+03  7.32642e+02 -4.36243e+02 
 9.31466e+03 -8.76981e+03  2.98233e+03 
 7.83899e+02  1.42201e+02 -3.35802e+02 
 6.57614e+03 -4.22044e+03  2.31991e+03 
-4.84672e+02 -4.41239e+02  1.51682e+03 
 1.68759e+03  5.72423e+02  1.42422e+03 
 2.84063e+03  2.20432e+03  2.33821e+03 
 5.01921e+03 -6.57693e+03  2.73819e+03 
 3.04660e+03 -4.63885e+03  4.38544e+03 
-8.66052e+02  6.35663e+01  8.39020e+02 
 6.09522e+03 -6.39901e+03  3.85465e+03 
 7.70438e+02  1.68939e+03  1.18142e+03 
 3.04578e+03 -6.05923e+02  6.47480e+03 
-1.00497e+03 -1.05362e+02  8.85848e+02 
 5.74622e+03 -5.01404e+03  6.70657e+03 
-3.38138e+03 -1.35631e+03  2.34203e+03 
-2.87372e+03 -2.46505e+03  2.26369e+03 
-2.05848e+03  5.18632e+02  5.92323e+03 
 2.60265e+03  1.95937e+03  2.34291e+03 
 5.69765e+03 -1.32933e+03  8.84020e+03 
-1.33465e+03 -5.93247e+02  8.97677e+02 
 9.01099e+03  9.44641e+03  1.20609e+04 
-6.95984e+03 -2.73985e+03  4.61428e+03 
-3.44129e+03 -4.14913e+03  4.18388e+03 
-4.27239e+03 -5.46841e+03  6.09944e+03 
-2.77923e+03 -2.61879e+03  2.43181e+03 
-3.73760e+03 -4.46015e+03  4.32820e+03 
-2.02071e+03 -2.98490e+03  2.38453e+03 
 9.44220e+02  1.65206e+03  1.17760e+03 
-2.44342e+03 -3.75366e+03  2.44338e+03 
 2.44311e+03  1.81291e+03  2.26192e+03 
-1.53778e+03 -8.89686e+02  1.05088e+03 
-2.01327e+03 -3.31764e+03  2.43195e+03 
-1.63817e+03 -9.74111e+02  1.20518e+03 
-1.72028e+03 -2.93305e+03  2.36478e+03 
 9.22168e+02  1.56110e+03  1.19761e+03 
 2.47193e+03  1.75974e+03  2.18689e+03 
-1.72897e+03 -2.61538e+03  2.30063e+03 
-1.48635e+03 -1.05896e+03  1.28720e+03 
 8.13515e+02  1.42540e+03  1.29371e+03 
 2.51537e+03  1.93258e+03  2.13719e+03 
-1.79330e+03 -2.52508e+03  2.21233e+03 
-1.38587e+03 -1.17174e+03  1.38202e+03 
 8.55816e+02  1.40042e+03  1.35726e+03 
 2.56489e+03  2.10023e+03  2.06557e+03 
-1.35325e+03 -1.31238e+03  1.45658e+03 
-1.89712e+03 -2.48839e+03  2.06499e+03 
 1.14919e+03  1.32246e+03  1.63293e+03 
 2.18328e+03  1.91921e+03  1.98859e+03 
-1.42900e+03 -1.50210e+03  1.52883e+03 
-1.93312e+03 -2.37793e+03  1.96049e+03 
 1.08215e+03  1.04921e+03  1.04347e+03 
 2.63944e+03  2.47936e+03  2.63571e+03 
-1.38262e+03 -1.66601e+03  1.52581e+03 
-1.91967e+03 -2.24324e+03  1.88921e+03 
 7.22266e+02  6.31131e+02  8.15814e+02 
 1.01269e+02  2.17630e+02  1.61047e+02 
-8.12340e+01 -3.44908e+02  3.54744e+01 
-1.88271e+02 -9.56688e+02  3.33615e+02 
 1.90239e+03  2.06358e+03  1.90958e+03 
-1.15324e+03 -1.46523e+03  1.08962e+03 
 1.89062e+03  2.16605e+03  1.89463e+03 
-1.77518e+03 -2.04945e+03  1.80400e+03 
-1.74234e+03 -1.92258e+03  1.78971e+03 
 2.88662e+03  2.47601e+03  3.05480e+03 
 7.88962e+02  1.30816e+03  4.88839e+02 
-2.20518e+03 -1.92243e+03  2.10175e+03 
 1.70007e+03  2.07800e+03  1.68707e+03 
 2.96574e+01  8.39365e+02  4.71603e+02 
-3.02390e+00 -9.02717e+02  4.21501e+02 
-8.44864e+02 -1.46367e+03  5.99111e+02 
 2.90339e+01 -8.75555e+01  7.10313e+02 
-1.56234e+03 -1.40307e+03  1.33228e+03 
 2.60182e+03  2.25834e+03  2.35158e+03 
-2.23964e+03 -1.85404e+03  1.93524e+03 
 2.73636e+03  2.36399e+03  1.33968e+03 
 3.97354e+02  1.93413e+03  9.31503e+02 
-4.49595e+02  8.09707e+02  1.51815e+03 
-2.70145e+02  1.05587e+02  1.68387e+03 
-3.54658e+02  1.69492e+03  1.40742e+03 
-1.19783e+01 -4.09191e+02  1.59745e+03 
 2.32876e+02 -5.76826e+02  1.50916e+03 
 4.17803e+03  2.47719e+03  2.83503e+03 
-1.04536e+02 -1.46530e+03  1.28857e+03 
-5.51614e+02 -2.02539e+03  6.41704e+02 
-2.52174e+03 -1.96815e+03  1.16648e+03 
-3.47568e+03 -2.04911e+03  2.36990e+03 
 5.77216e+03  4.02086e+03  7.99414e+02 
 4.95905e+02  2.24692e+03  1.17653e+03 
-2.02401e+02  1.92471e+03  1.68309e+03 
-5.58606e+02  1.15260e+03  2.16226e+03 
-2.56616e+02  5.95841e+02  2.18571e+03 
-2.07730e+01  1.44520e+02  2.15255e+03 
 1.79492e+02 -5.00522e+02  2.12351e+03 
 6.10945e+02 -1.07453e+03  2.10667e+03 
 2.35024e+02 -1.73249e+03  1.60904e+03 
-6.41973e+02 -2.11630e+03  9.26529e+02 
-5.40128e+03 -3.60439e+03  5.49874e+02 
 9.14554e+02  1.64762e+03  4.43074e+02 
 2.69204e+03  2.55121e+03 -1.65958e+03 
-1.18772e+03  2.31028e+03  2.09041e+03 
-7.86011e+02  4.13297e+03  2.38969e+02 
-1.11756e+03  2.14013e+02  3.04163e+03 
 3.15124e+02  3.45793e+03 -3.12036e+03 
-9.48458e+02 -1.29565e+03  2.81195e+03 
-2.45561e+02  6.73755e+02  2.61508e+03 
-8.90275e+02  2.80486e+02  1.13029e+02 
-5.88976e+02  1.62561e+02  2.65598e+03 
 5.46373e+03  2.17005e+03 -6.60619e+03 
 2.27100e+02  2.19466e+02  2.72719e+03 
-5.53644e+03 -9.08404e+03  4.89138e+03 
-3.94055e+02 -5.25703e+03  2.66231e+03 
 1.00145e+02 -3.12569e+01  2.87508e+03 
 3.30430e+02 -6.58347e+02  2.61144e+03 
-9.68772e+01  6.40178e+01  2.66261e+03 
-7.06148e+03 -7.30656e+03  5.66874e+03 
 1.39069e+03  2.86025e+03 -2.32533e+02 
 5.23186e+01  9.11577e+01  2.00505e+03 
 1.13219e+03 -1.54776e+02  2.93971e+03 
 1.38045e+03 -2.27885e+03  1.90853e+03 
 1.24638e+03  1.60877e+03  2.87881e+03 
 2.64107e+02  5.86876e+03  2.86207e+03 
-9.42606e+02 -2.01577e+03  2.32399e+02 
-4.27629e+03 -5.89675e+03  4.06253e+03 
 1.65653e+03  2.75732e+03 -3.01910e+02 
 3.81374e+02 -4.50639e+03 -3.63133e+02 
-2.76533e+03 -1.99267e+03 -1.66052e+03 
 6.00557e+03  8.76474e+03  4.74400e+03 
-4.56618e+02 -3.10351e+03 -2.53571e+03 
 3.82168e+02 -1.11033e+03  2.86266e+02 
-4.25793e+03 -6.44746e+03  3.96321e+03 
-5.17856e+03 -3.41247e+03 -7.23790e+03 
 8.65165e+02  2.67260e+03 -3.97172e+02 
 6.04117e+03  7.64662e+03  6.35234e+03 
-3.62667e+02 -9.38264e+02  5.65327e+01 
 4.80639e+03  4.47327e+03  2.13925e+03 
-3.31169e+03 -6.08902e+03  3.78976e+03 
-4.45291e+03 -2.93458e+03 -4.22501e+03 
-2.35902e+01  2.12983e+03 -4.33005e+02 
 6.06675e+03  3.65520e+03  3.76647e+03 
-1.24303e+03  8.56751e+02  1.23429e+02 
-2.45616e+03 -5.51253e+03  3.65191e+03 
-8.39519e+02  1.35395e+03 -4.66434e+02 
 5.82148e+03  3.37005e+03  3.76417e+03 
-3.12180e+03 -1.33531e+02 -9.02831e+01 
-1.74139e+03 -4.82882e+03  3.45606e+03 
-1.32622e+03  8.43006e+02 -2.12111e+02 
-2.27441e+03  8.66076e+02 -1.65237e+02 
 4.79694e+03  2.59313e+03  3.87390e+03 
-1.87573e+03 -4.27031e+03  3.48712e+03 
-1.52287e+03  1.62866e+03 -1.12437e+02 
 4.23323e+03  2.10362e+03  3.62558e+03 
-1.50130e+03  9.75601e+02  2.57137e+01 
-2.19799e+03 -4.37837e+03  3.44012e+03 
-9.12080e+02  1.54065e+03 -9.91217e+01 
-9.00352e+02  1.16429e+03  1.80432e+02 
 4.31791e+03  1.87215e+03  3.34274e+03 
-2.68108e+03 -4.79198e+03  3.12671e+03 
-3.01054e+02  1.37650e+03  4.12953e+02 
-9.66589e+02  1.22578e+03 -5.04318e+01 
 4.45378e+03  2.43493e+03  3.28068e+03 
-2.78177e+03 -4.67413e+03  2.92703e+03 
-9.33795e+02  4.91141e+01  6.69936e+02 
-1.22548e+03  7.04358e+02  2.21060e+02 
 4.49753e+03  2.96783e+03  3.17273e+03 
 1.05323e+03  1.67198e+03 -1.65471e+03 
-3.09074e+03 -3.67600e+03  1.93099e+03 
-1.73747e+02 -7.89939e+02  8.31923e+02 
-1.25823e+03  2.72024e+02  4.18497e+02 
-4.58122e+03 -4.09963e+03  4.13612e+03 
 4.39362e+03  3.41048e+03  3.11121e+03 
 1.01475e+03  1.71151e+03 -2.82442e+03 
-1.27904e+02 -1.16406e+03  1.08582e+03 
-4.70143e+03 -3.82647e+03  2.98892e+03 
 3.93798e+02 -9.55143e+02 -3.38082e+02 
-1.04385e+03 -2.07050e+01  5.90345e+02 
 1.60052e+03 -1.43013e+03  3.76754e+02 
 3.85055e+03  3.30921e+03  3.03072e+03 
-3.76083e+03 -1.29836e+02  1.30168e+03 
 1.04848e+03 -2.09336e+03  3.89164e+02 
-2.26953e+03 -1.56623e+03  8.65626e+02 
-6.39691e+02 -3.06009e+03 -8.54813e+02 
-2.33079e+03 -1.29579e+03 -1.13577e+03 
-1.01329e+03  5.51135e+02  1.22373e+03 
-8.65050e+02  2.39512e+02  7.09394e+02 
-2.10078e+03  5.35047e+02  1.04076e+03 
-2.44283e+03  5.73564e+02  4.65380e+02 
 4.35697e+03  4.61833e+03  3.71659e+03 
-2.81417e+03  1.12147e+03  1.13132e+03 
 3.12309e+03  5.36635e+02  2.16974e+03 
-1.83840e+03  2.11580e+03  1.88783e+03 
-2.02927e+03  3.72848e+02  2.31268e+03 
-2.86828e+02 -1.70547e+03 -2.37954e+03 
 6.17876e+02  1.47186e+03  1.03939e+03 
-2.66761e+03  1.84199e+03  2.15112e+03 
 4.61166e+03  3.41473e+03  3.03113e+03 
-2.67488e+03  1.83497e+03  2.79976e+03 
 6.81920e+03  4.00819e+03  3.53665e+03 
-4.35718e+01  1.98915e+02  2.78353e+03 
-5.09511e+02  1.01992e+03 -5.23624e+02 
 5.31582e+03  5.12583e+03  4.09428e+03 
-1.90537e+03  1.90452e+03  3.62238e+03 
-1.24677e+03  1.78510e+03  6.92294e+02 
 3.54700e+03  2.08336e+01  1.10509e+03 
 4.26905e+03  3.07054e+03  2.90002e+03 
-3.71623e+03  6.52397e+02  3.63699e+03 
-3.23917e+03  1.05273e+02  2.27054e+02 
-1.20197e+03  2.06013e+03  4.21149e+02 
-3.69534e+02  5.33669e+02 -8.31662e+01 
 4.67704e+03  3.05551e+03  2.83385e+03 
-1.85511e+03 -2.57338e+03  1.57844e+03 
 2.26500e+03  1.42685e+03  7.52434e+02 
 9.24855e+02  3.17350e+03 -7.25301e+02 
 9.63297e+02 -6.04534e+02  1.15179e+03 
 5.76640e+03  8.17189e+03 -3.43913e+03 
-1.14296e+03 -3.31357e+03 -1.24690e+03 
 2.43494e+03  1.06890e+03 -1.16826e+03 
 4.41937e+03  2.35504e+03  2.70881e+03 
-2.80776e+03 -2.49321e+02 -2.35433e+03 
-1.66986e+03 -4.06725e+03 -4.95130e+03 
 3.78270e+03  5.91819e+02 -1.90622e+03 
 2.12645e+03 -7.64210e+02  1.15306e+03 
 2.54458e+03 -7.10683e+02  5.05324e+02 
-2.25079e+03 -1.14644e+03 -2.88850e+02 
 3.34400e+03 -1.32059e+03 -3.12735e+02 
-3.40505e+03 -3.73172e+02  2.26116e+03 
 2.71361e+03 -1.71865e+03  1.05818e+03 
-2.17466e+03 -1.34412e+03 -3.40111e+02 
 2.71832e+03 -2.01445e+03  1.17103e+03 
 3.99806e+03  1.71743e+03  2.61113e+03 
 2.68060e+03 -1.44002e+03  1.87669e+03 
 1.83782e+03 -3.15334e+02  2.34459e+03 
 2.20101e+03 -1.97840e+03  1.47851e+03 
-2.11721e+03 -7.59930e+02 -4.15425e+02 
 1.86618e+03 -2.23954e+03  2.40929e+03 
-6.27648e+03 -4.14319e+03  3.33034e+03 
 2.65554e+03 -2.26757e+03  2.13156e+03 
-5.37113e+03 -4.24240e+03  4.45017e+03 
 2.97978e+03 -1.37876e+03  2.73691e+03 
-3.11255e+03 -3.38113e+03  1.44767e+03 
-1.78379e+02 -3.61129e+02  2.80079e+03 
-1.72126e+03 -1.01032e+02 -4.46430e+02 
 2.19297e+03 -1.83222e+03  2.18784e+03 
 1.90073e+03 -1.81983e+03  3.64792e+03 
-2.53483e+03 -4.30190e+03  2.62184e+03 
 3.19906e+03 -2.19208e+03  2.41249e+03 
 3.49617e+03  1.18168e+03  2.47005e+03 
 3.76837e+03 -7.58402e+02  3.60545e+03 
-2.33607e+03 -4.14691e+03  2.63566e+03 
 4.07779e+03 -1.30107e+03  3.00353e+03 
 3.35024e+03  1.51690e+02 -1.84800e+02 
 9.12799e+02 -2.01453e+02  7.85124e+01 
 2.05104e+03  2.65576e+03  1.59072e+03 
-1.14889e+03  5.07403e+02 -4.77967e+02 
 4.62245e+03  9.09405e+02  3.25353e+03 
-1.77695e+03 -3.42730e+03  2.73406e+03 
 7.68722e+03  1.09218e+04  4.08606e+03 
 4.42189e+02  3.45248e+03 -1.13927e+03 
 2.40902e+03  2.61157e+02 -1.76933e+03 
 2.42774e+03  3.64231e+03 -5.12515e+03 
 7.59802e+02  3.20627e+02 -3.03812e+01 
 2.18667e+03  3.25255e+03 -3.09888e+03 
-5.11518e+02  9.74056e+02  1.00413e+00 
 3.08690e+03  1.28569e+03  2.50012e+03 
 2.01173e+02  2.33767e+03 -1.63881e+02 
-7.75078e+02  8.70390e+02 -2.93895e+02 
-1.42321e+03 -3.04081e+03  2.57133e+03 
-5.16157e+02  1.75295e+03 -2.32240e+02 
-1.25737e+03 -3.14186e+03  2.37925e+03 
-1.07510e+03  1.23413e+03 -2.09163e+02 
 3.18050e+03  1.53344e+03  2.47238e+03 
-8.87781e+02  1.00031e+03 -1.20916e+02 
-1.00221e+03  8.14135e+02 -2.19094e+02 
-1.69135e+03 -3.28718e+03  2.35316e+03 
 3.50883e+03  1.90594e+03  2.24109e+03 
-1.04510e+03  5.42228e+02 -9.51661e+00 
-7.52541e+02  8.91191e+02 -2.06622e+02 
-2.11662e+03 -3.36227e+03  2.29171e+03 
 3.42918e+03  1.98642e+03  2.09588e+03 
-1.22173e+03  7.94575e+01  1.61749e+02 
-2.48699e+03 -3.32018e+03  2.26454e+03 
-3.38176e+02  1.12635e+03 -2.19244e+01 
 2.67316e+03  2.23755e+03  1.32496e+03 
-2.06538e+02  5.65565e+02  3.55283e+02 
-2.42692e+03 -2.91863e+03  2.21519e+03 
 2.18781e+01  1.19101e+03  1.13068e+02 
 3.00760e+03  3.41537e+03  3.03093e+03 
-1.47111e+03 -9.82476e+02 -1.45377e+03 
-3.51954e+03 -3.38379e+03  2.80128e+03 
 2.79804e+02  1.05447e+03  2.36548e+02 
 2.80130e+03  3.84723e+03  2.21254e+03 
 3.34167e+02  2.26157e+03  1.29278e+03 
 2.11330e+01  4.18048e+01  9.29362e+02 
-1.40212e+02 -2.55249e+03  1.25502e+03 
 4.23615e+02 -3.83326e+01  4.72596e+02 
-2.56332e+03 -3.91691e+03  2.27755e+03 
 7.24494e+02 -1.34043e+02  6.24790e+02 
 9.66913e+01  9.51248e+02  3.22089e+02 
-9.34012e+02 -2.17402e+02  5.23662e+02 
-1.41637e+03 -8.93491e+02 -2.32129e+03 
 7.37430e+02  9.05852e+02  1.14702e+03 
 1.61304e+03  4.51011e+02 -2.21251e+03 
 5.06454e+02 -1.64841e+03 -1.11919e+01 
-5.42602e+01  1.06528e+02  1.18787e+03 
 1.32528e+02 -2.65055e+02  1.16359e+03 
-6.83886e+02 -9.13812e+02  1.15182e+03 
-2.35994e+01 -7.32012e+01  1.21022e+03 
-8.50941e+02  1.48238e+03  3.37058e+02 
 8.24308e+02 -6.11284e+02 -2.93342e+02 
-7.32652e+02  8.63205e+02 -6.47356e+02 
 6.72650e+02 -4.57134e+02  3.73527e+02 
 4.91923e+02 -2.12877e+02  1.27435e+03 
 1.82036e+02 -2.82397e+02  1.29747e+03 
 3.17073e+01 -3.18934e+01  1.43642e+03 
-8.32532e+01 -3.75380e+02  1.22812e+03 
-2.28652e+01  1.08933e+02  1.28530e+03 
 3.95871e+01  2.34747e+02  1.41756e+03 
 3.69698e+02  4.63198e+01  2.93763e+02 
-2.66825e+02  1.23788e+02  1.44415e+03 
-5.72755e+02  8.11623e+02  9.67380e+02 
-6.13574e+02  3.03660e+02  4.44671e+02 
-3.73223e+02  3.14386e+02  1.98686e+02 
 1.48688e+02 -5.84679e+02  7.65684e+02 
 1.58457e+01 -1.47306e+03  7.72085e+02 
 4.85257e+01 -1.09831e+03  1.18629e+03 
-8.73238e+01 -7.94086e+02  1.14941e+03 
-5.09909e+01 -3.64099e+02  1.09639e+03 
 1.85181e+01  1.67633e+01  1.12799e+03 
 4.80599e+01  4.11146e+02  1.18103e+03 
 3.74223e+01  9.21750e+02  1.13875e+03 
 5.26797e+01  1.34170e+03  1.05048e+03 
 3.74799e+01  1.22210e+03  8.39522e+02 
-1.90245e+02  7.89871e+02  7.29455e+02 
-7.10819e+03 -8.44887e+03  1.69689e+04 
-6.16823e+01  9.74846e+02  1.26247e+04 
-3.31113e+03 -7.42707e+03  1.08001e+04 
-1.35184e+04 -1.53263e+04  1.32658e+04 
 1.09803e+03 -4.92717e+03  9.39036e+03 
 2.84243e+03  1.35402e+03  1.10689e+04 
-5.20350e+03 -1.07498e+04  6.57681e+03 
 5.38329e+03  7.06553e+02  9.16972e+03 
-1.14144e+04 -1.19819e+04  1.30170e+04 
 7.50513e+02 -1.24670e+03  3.64229e+03 
 4.25118e+03  1.89814e+03  9.61282e+03 
 5.64676e+03 -1.44109e+02  8.34038e+03 
 5.52348e+03  3.41776e+03  8.92614e+03 
-7.33849e+03 -7.14385e+03  7.61132e+03 
 5.55320e+03  1.11532e+02  8.94448e+03 
-1.61401e+04 -1.03867e+04  1.62643e+04 
 1.86830e+03  1.41797e+03  6.49257e+03 
 8.64070e+03  3.41084e+03  8.42130e+03 
 1.91709e+03  5.28946e+03  5.28628e+02 
 2.80033e+03  1.06922e+04  3.13004e+03 
 1.30400e+04  5.16446e+03  9.39650e+03 
 9.67895e+03  4.13746e+03  5.89067e+03 
 8.30811e+03 -4.34536e+03  8.01769e+03 
 1.40367e+03 -8.51055e+02  1.29225e+04 
 1.32929e+04  6.36050e+03  4.40012e+03 
-8.90976e+02  8.91292e+02  1.33445e+03 
-9.42579e+03 -9.32952e+03  7.68360e+03 
 7.92822e+03  2.26849e+04  7.94218e+03 
 1.58622e+04 -1.66708e+03  9.73845e+03 
 9.15185e+03  5.03887e+03 -3.10878e+03 
 1.01028e+04 -2.38060e+04  1.43625e+03 
 7.86162e+03  6.69174e+03  1.88631e+04 
-5.74358e+03 -3.85690e+02 -6.68413e+03 
 4.22436e+03  5.39854e+04  1.92101e+04 
-2.87907e+04 -3.19957e+04 -1.63607e+04 
-4.28967e+03 -1.28209e+03  3.66722e+03 
-9.32988e+03 -8.38836e+03  7.48203e+03 
-9.00666e+04 -5.15730e+04 -3.49232e+04 
-1.44213e+04 -5.32774e+04 -1.68483e+04 
-6.62722e+04 -4.61621e+04 -4.35624e+04 
 4.33517e+04  6.96057e+04  3.26183e+04 
-3.36885e+04 -4.80396e+04 -4.56595e+04 
-1.61435e+04 -2.49527e+04 -1.51534e+04 
-4.75478e+03 -1.76136e+03  4.40821e+03 
-7.05536e+04 -4.96054e+04 -8.76320e+04 
-7.93279e+03 -7.11608e+03  6.99868e+03 
 3.59990e+04  5.50812e+04  4.10014e+04 
-2.24389e+04 -2.32662e+04 -1.64381e+04 
 2.18761e+04  2.45929e+04  2.51969e+03 
-5.98504e+03 -3.48390e+03  5.28597e+03 
-5.58709e+04 -3.94750e+04 -5.23001e+04 
-6.86974e+03 -5.40252e+03  6.22044e+03 
 2.87750e+04  1.55117e+04  1.53009e+04 
-2.55469e+04 -4.71718e+03 -1.31484e+04 
-6.46941e+03 -5.25395e+03  6.24977e+03 
-6.46608e+03 -3.93435e+03  5.09172e+03 
 2.30862e+04  1.22218e+04  1.24816e+04 
-3.79826e+04 -1.22157e+04 -1.30566e+04 
-6.33898e+03 -6.97161e+03  7.20449e+03 
-6.24189e+03 -2.43513e+03  3.99837e+03 
-2.69834e+04 -4.12417e+03 -1.10468e+04 
 1.19916e+04  6.17788e+03  9.90728e+03 
-6.93911e+03 -8.49525e+03  8.39314e+03 
-1.72441e+04  3.35908e+01 -8.01288e+03 
 4.21855e+03  2.62142e+03  5.15974e+03 
-6.04575e+03 -9.23546e+01  3.12358e+03 
-8.07736e+03 -1.07065e+04  9.69110e+03 
-9.03790e+03  1.03173e+03 -4.46865e+03 
-4.61110e+03  2.70303e+03  2.35207e+03 
-2.19572e+03  6.87323e+02  9.35600e+02 
-9.98171e+03 -1.39820e+04  1.02609e+04 
-2.08212e+03  5.85606e+03  1.90173e+03 
-2.79170e+03  2.65029e+03 -1.10682e+02 
-9.51606e+03 -3.70064e+01 -2.82538e+03 
-1.09464e+04 -1.55073e+04  1.09526e+04 
-4.46219e+03  1.79822e+03  1.99202e+03 
 3.78834e+03  5.47053e+03  3.89301e+03 
-1.68551e+04 -3.22132e+03 -6.52553e+03 
 6.09287e+03  1.09522e+04 -9.95479e+03 
-1.35915e+04 -1.31605e+04  6.93846e+03 
 1.14390e+03  6.59700e+02  1.09326e+03 
 1.08581e+04  1.07703e+04  6.63935e+03 
-2.30718e+04 -1.72258e+04  1.87229e+04 
-2.36006e+04 -9.14413e+03 -9.96637e+03 
 8.91092e+03  1.44569e+04 -2.04144e+04 
 1.50043e+03 -1.86693e+03  1.86048e+03 
-2.74212e+04 -1.93928e+04  1.32871e+04 
 8.10964e+03  4.42052e+02 -6.92244e+03 
 1.54908e+04  1.70152e+04  8.16589e+03 
 1.28920e+04 -3.41302e+03 -1.68102e+03 
-2.45648e+04 -1.11523e+04 -1.27336e+04 
-2.70833e+04 -4.54952e+03  3.10356e+03 
 8.26703e+03  3.73418e+02 -4.07139e+03 
-7.35666e+03 -7.30403e+03  3.12257e+03 
 2.86331e+03 -9.99706e+03 -4.30172e+03 
 1.26005e+03 -1.02514e+04 -3.92346e+03 
-2.82772e+04 -6.85620e+03 -3.89494e+03 
 1.98587e+04  1.79021e+04  9.02941e+03 
-5.43780e+03  3.41635e+02 -1.31124e+03 
-6.24382e+03 -1.04757e+04 -5.60362e+02 
-3.63979e+04 -2.82971e+04 -2.39413e+04 
-9.49711e+02 -4.43713e+03 -8.84020e+02 
-4.38695e+04 -4.76695e+03 -1.12754e+04 
-6.37468e+03 -1.04026e+04 -7.23245e+02 
-2.08501e+03 -5.46585e+02 -6.76513e+03 
 2.07360e+04  4.30392e+04  4.95219e+04 
 7.63321e+03  4.34142e+03  8.47560e+03 
 2.19300e+03 -9.25527e+03 -6.80791e+02 
-5.69434e+04 -3.04273e+04 -1.71862e+04 
 7.16496e+03 -7.25737e+03 -1.06027e+03 
-5.82278e+04 -3.21282e+04 -2.55878e+04 
-5.44274e+03 -5.70099e+03 -1.08215e+04 
 3.11916e+04  1.03527e+04  3.02533e+04 
-4.11690e+04 -3.50879e+04 -2.83075e+04 
 2.62491e+03 -1.38613e+04 -3.65436e+03 
 3.70918e+04 -1.90167e+03  1.11220e+04 
-6.12581e+04 -5.37104e+03 -1.50009e+03 
-2.94197e+04 -1.52920e+04 -1.60663e+04 
 2.34961e+04 -9.88391e+03 -2.56739e+02 
 3.62051e+04  3.26663e+03  7.58589e+03 
 2.82837e+04  1.26179e+04  1.83679e+04 
 9.60154e+03  5.39393e+03  9.42614e+03 
-3.00567e+04 -1.38942e+04 -1.37385e+04 
 2.08803e+04  1.17092e+04  1.02970e+04 
-2.85096e+03 -5.70312e+03 -7.33690e+02 
 2.06542e+04 -4.25664e+03  1.38431e+04 
-5.85710e+04 -7.34714e+03  8.88425e+02 
 2.67968e+04  2.45174e+03  8.59716e+03 
 3.39716e+04  3.57223e+04  2.72950e+04 
 3.69748e+04 -7.05816e+03  7.66332e+03 
-2.41538e+04 -7.10971e+03 -1.07571e+04 
 3.49879e+04  1.73425e+04  3.44205e+04 
 2.46807e+04  5.06938e+04  5.65547e+04 
 3.10088e+04  3.50704e+02  5.11095e+03 
 1.90609e+03  4.73694e+03 -6.24975e+02 
 1.57808e+04 -5.37571e+03  1.88515e+03 
 2.52594e+04  1.99505e+04  1.08304e+04 
 4.60204e+04 -2.17013e+02  4.10698e+03 
-6.65258e+04 -3.87017e+03  4.81481e+03 
 3.41732e+04 -2.67258e+03  3.16351e+03 
 2.19449e+04  2.03199e+04  1.03563e+04 
 4.85638e+04  1.14931e+03 -3.13382e+03 
-1.72751e+04 -2.61657e+03 -7.66898e+03 
 3.52895e+04 -2.72306e+03 -1.45438e+03 
 3.26163e+02  6.09093e+03  3.20285e+02 
 4.56506e+04  3.94774e+03  2.93251e+01 
 1.82614e+04  1.36926e+04  9.45547e+03 
 1.51980e+04 -4.60484e+03  1.19644e+03 
-5.57816e+04 -3.44881e+04  1.81779e+04 
 5.11204e+04  2.03630e+03  3.40044e+03 
-4.05411e+04 -2.57713e+04  2.99552e+04 
 3.71340e+04  1.65790e+01 -1.01969e+03 
-1.89533e+04 -1.60771e+04  4.20727e+03 
-3.76321e+03 -6.86728e+03  9.52649e+02 
 1.16685e+04  7.53819e+03  7.51049e+03 
 4.93539e+04  2.21517e+03 -1.60074e+03 
 1.68788e+04 -7.42006e+03 -1.63070e+03 
-1.26670e+04 -1.94674e+04  1.22404e+04 
 4.80761e+04  1.93115e+03  1.94452e+03 
-1.01400e+04 -2.95092e+02 -4.39136e+03 
 3.81416e+04 -8.11377e+03 -7.76318e+03 
-1.03167e+04 -1.49164e+04  9.73300e+03 
 4.86671e+04  2.41379e+02 -4.29861e+03 
 4.11449e+04  1.41960e+02 -1.48440e+04 
 1.40559e+04  6.84506e+03 -7.80343e+03 
 2.43966e+04 -4.27997e+03 -1.43412e+04 
 4.85257e+03  3.41219e+03  4.62474e+03 
 3.21226e+04  6.90339e+02 -6.09453e+03 
-6.54312e+03 -7.16199e+03  7.21460e+03 
 2.59375e+04  2.78766e+03 -8.37825e+03 
 2.52525e+04  1.21246e+04 -1.83975e+04 
 3.09317e+04  1.08986e+04 -2.68500e+04 
 3.00902e+04  4.30989e+04 -5.66085e+04 
 1.25519e+04  1.33147e+04 -8.37731e+03 
 2.25793e+04  3.40669e+04 -3.13993e+04 
-4.50480e+02  1.38143e+04 -5.54916e+03 
-3.98991e+03  8.03698e+02 -1.33689e+03 
 4.19715e+03  2.09370e+04 -5.03031e+03 
-1.05439e+03  9.96721e+02  7.58645e+02 
-4.39003e+03 -1.40768e+03  3.50218e+03 
-9.45564e+02  1.29107e+04 -3.08476e+03 
-3.14685e+03  4.47681e+03  3.26966e+02 
-3.06843e+03  5.79408e+03 -4.93621e+02 
 1.50420e+03  2.63622e+03  2.30074e+03 
-6.80801e+03 -1.80388e+02 -2.46301e+03 
-4.13898e+03 -2.47556e+02  2.63373e+03 
-1.33842e+03  1.12746e+04 -2.89262e+03 
 8.69673e+03  5.91168e+03  4.99150e+03 
-1.35590e+04 -1.76312e+03 -5.09890e+03 
-6.23117e+03 -5.92034e+03  6.41229e+03 
 2.59520e+03  1.78950e+04 -5.96252e+03 
 1.32063e+04  8.09894e+03  7.58006e+03 
-2.11791e+04 -6.26636e+03 -7.16817e+03 
 8.80898e+03  2.36867e+04 -8.89874e+03 
-9.81792e+03 -1.23134e+04  9.41480e+03 
 1.06518e+04  1.40656e+04  6.06369e+02 
-1.53010e+04 -2.28700e+03 -7.88497e+03 
 1.02602e+04  2.35005e+04 -1.12075e+04 
-1.54355e+04 -1.86661e+04  1.14497e+04 
 1.99502e+04  3.31316e+04  2.34704e+04 
-3.36848e+04 -2.30940e+04 -3.11048e+04 
 2.84209e+04  3.44469e+04 -2.24289e+04 
-2.16115e+04 -2.23990e+04  1.24628e+04 
 2.60502e+04  4.74319e+04  1.81814e+04 
 6.34452e+03  3.77382e+04  1.04482e+04 
 1.14461e+04  2.07775e+04  4.03603e+02 
 2.38014e+03  4.40488e+04 -1.12691e+04 
-1.52736e+04 -1.41733e+04 -1.07780e+04 
 2.55315e+04  5.13440e+04 -2.13599e+04 
-1.05482e+04 -1.56664e+04 -9.99195e+03 
-2.15392e+04 -2.57449e+04  1.29536e+04 
-8.06134e+03 -1.17473e+04  1.20325e+04 
-4.34847e+04 -3.04660e+04 -5.46207e+04 
 4.19068e+02 -5.84098e+02  9.49945e+03 
-4.96680e+04 -2.55629e+04  5.49125e+04 
-1.18158e+04 -3.76864e+04 -1.66520e+04 
 4.11203e+03 -7.02497e+03  6.05364e+03 
 4.21156e+03 -3.49126e+03 -7.49612e+03 
 1.60972e+03 -4.26738e+02 -1.03424e+04 
 5.95650e+03 -1.58499e+04 -5.72027e+02 
-7.30079e+03 -3.66883e+04  1.08082e+04 
-1.86722e+04 -3.08127e+04 -2.69423e+04 
-1.93902e+04 -3.57120e+04  3.42030e+04 
-1.95886e+04 -2.61671e+04 -7.02152e+03 
 9.20642e+03 -1.93598e+04  9.32143e+03 
 1.48407e+04 -1.97989e+04  3.79947e+03 
 1.74419e+04 -9.07444e+03  2.52395e+03 
 1.33922e+04 -2.28411e+04  3.81816e+03 
 1.02919e+04 -1.85352e+04 -1.06430e+03 
 1.53477e+04 -1.43665e+04 -7.06163e+03 
-4.30292e+04 -2.45248e+04 -2.64209e+04 
 1.45795e+04 -1.66734e+04 -7.51984e+03 
 8.01313e+03 -3.25557e+04 -8.87402e+03 
-1.94694e+04 -2.49648e+04  7.12112e+03 
-4.31880e+04 -3.14765e+04  2.84486e+04 
-6.82311e+04 -4.81766e+04  1.30217e+03 
-3.46261e+03 -3.13258e+04  9.03215e+02 
 7.92343e+03 -2.66280e+04  2.35055e+03 
 1.30524e+04 -2.14137e+04 -2.75503e+02 
 1.33174e+04 -1.72728e+04 -1.51571e+02 
 1.48977e+04 -1.85154e+04  1.56357e+03 
 1.41319e+04 -1.78937e+04 -1.65967e+03 
 1.62591e+04 -2.28347e+04  2.29252e+02 
 9.22718e+03 -2.73693e+04 -1.01718e+03 
-5.79763e+03 -3.22479e+04 -1.49327e+03 
-7.28852e+04 -5.16258e+04 -4.04458e+02 
-1.91848e+04 -2.45600e+04  8.21863e+03 
-4.15405e+04 -3.26900e+04  2.88477e+04 
 7.84363e+03 -3.23874e+04 -4.84220e+03 
-6.83067e+03 -3.66819e+04  9.65548e+03 
 1.64236e+04 -1.13367e+04 -5.62733e+03 
-1.96986e+04 -3.62775e+04  3.53306e+04 
 2.66034e+03 -7.24882e+02 -1.00028e+04 
 1.34216e+04 -1.99783e+04 -2.49291e+03 
-8.55550e+03 -1.14820e+04  1.21680e+04 
 1.39016e+04 -1.83408e+04 -1.87782e+02 
-5.00629e+04 -2.54883e+04  5.52222e+04 
 2.41175e+03 -7.11428e+03 -4.70247e+03 
 2.76945e+04  5.33719e+04 -2.03808e+04 
 6.30361e+03  4.18034e+04 -8.33045e+03 
 2.08572e+04 -5.31952e+03  1.73948e+03 
 1.08574e+04 -2.29001e+04  2.87015e+03 
 9.20440e+02 -6.78854e+03  6.12833e+03 
 2.78715e+04  3.50232e+04 -2.25881e+04 
-2.16929e+04 -2.50087e+04  1.28882e+04 
 1.09019e+04  3.22261e+04  7.67794e+02 
 1.76889e+04 -1.27559e+04  7.12493e+03 
 9.31312e+03 -3.46643e+04  5.59662e+03 
 4.00128e+03  4.56860e+02  1.17356e+04 
 4.85155e+03  4.74793e+04  1.12500e+04 
-2.14765e+04 -2.90747e+04 -8.87685e+03 
 9.55020e+03  2.34662e+04 -1.09294e+04 
-2.14893e+04 -2.10742e+04  1.21382e+04 
-9.92673e+03 -4.17133e+04 -1.41574e+04 
-4.55496e+04 -3.00612e+04 -3.04149e+04 
 3.21236e+04  5.35195e+04  2.14738e+04 
-2.19429e+04 -3.66048e+04 -3.31489e+04 
-1.19909e+04 -1.84763e+04 -1.18523e+04 
 7.81892e+03  2.30098e+04 -8.28657e+03 
-5.11020e+04 -3.59755e+04 -6.41371e+04 
-1.50315e+04 -1.66976e+04  1.08183e+04 
 2.50095e+04  4.00947e+04  2.91163e+04 
-1.72825e+04 -1.69572e+04 -1.23527e+04 
 1.43869e+04  1.73507e+04  1.29204e+03 
 1.51206e+03  1.64922e+04 -4.97413e+03 
-4.04020e+04 -2.81012e+04 -3.75665e+04 
-9.37166e+03 -9.72917e+03  8.32726e+03 
 1.84248e+04  1.05232e+04  1.01391e+04 
-1.84077e+04 -3.05717e+03 -9.45786e+03 
-2.16535e+03  9.24239e+03 -1.45196e+03 
-6.06202e+03 -2.99797e+03  4.67768e+03 
 1.36763e+04  8.01870e+03  7.57638e+03 
-2.64527e+04 -8.17219e+03 -9.01197e+03 
-3.46192e+03  1.91231e+03  2.17648e+03 
-4.14489e+03  3.19213e+03  4.49183e+02 
-1.79148e+04 -2.53378e+03 -7.05318e+03 
 5.35227e+03  3.86044e+03  5.04611e+03 
-5.12048e+03 -4.47398e+03  6.03016e+03 
-1.03512e+04 -6.62858e+01 -4.38527e+03 
-7.46369e+02  1.46920e+03  1.15628e+03 
-3.07325e+03  1.06149e+04 -3.01721e+03 
-8.10358e+03 -1.15208e+04  1.04337e+04 
-3.94015e+03  9.93084e+02 -1.18491e+03 
 2.16090e+02  1.93974e+04 -5.94124e+03 
-6.72558e+03  1.08906e+02 -2.19821e+03 
-1.32302e+04 -2.13481e+04  1.30755e+04 
 7.12301e+03  2.93107e+04 -7.99328e+03 
 1.83434e+03  3.00743e+03  2.69461e+03 
-1.36171e+04 -1.51924e+03 -5.51175e+03 
-1.61674e+04 -2.66769e+04  1.58432e+04 
 7.89334e+02  1.90834e+04 -8.30585e+03 
 8.26417e+03  6.47035e+03  5.86794e+03 
-2.03662e+04 -5.33248e+03 -8.69044e+03 
 3.09413e+04  4.54585e+04 -4.22135e+04 
-2.42142e+04 -2.12782e+04  4.97453e+03 
 1.72573e+04  1.71602e+04 -1.15153e+04 
 1.47504e+04  1.20340e+04  8.02581e+03 
-5.13114e+04 -3.38114e+04  3.84051e+04 
-2.63262e+04 -1.14830e+04 -1.17168e+04 
 4.00482e+04  5.78453e+04 -7.36086e+04 
 1.89424e+04  1.07548e+04 -1.04194e+04 
-6.65876e+04 -4.08256e+04  2.88182e+04 
 3.95738e+04  2.23123e+04 -3.59091e+04 
 1.86005e+04  1.82260e+04  9.12213e+03 
 4.74161e+04  8.85666e+03 -1.52980e+04 
-2.62527e+04 -1.31395e+04 -1.40848e+04 
-5.57968e+04 -5.41546e+03  1.60012e+04 
 3.50332e+04  4.59594e+04 -3.25665e+04 
-5.82895e+03 -7.01418e+03  1.41844e+04 
 2.94017e+04  1.70658e+04 -1.21687e+04 
 3.03203e+04 -1.13901e+04  3.39056e+03 
-3.21977e+04 -8.61788e+03  5.69533e+03 
 2.22007e+04  1.85517e+04  9.65702e+03 
 9.60036e+02  1.78582e+02  9.74217e+03 
 7.20833e+03 -1.45504e+04  7.67320e+03 
-3.78058e+04 -3.08910e+04 -2.54701e+04 
 1.45407e+04 -7.86776e+03  5.02081e+03 
-2.68487e+04 -4.58782e+03 -7.59036e+02 
-6.39968e+02 -1.40130e+04  5.81836e+03 
-8.63708e+02 -1.20557e+03  3.08848e+03 
 2.19546e+04  4.48365e+04  5.18759e+04 
 8.71656e+03  4.11333e+03  8.75334e+03 
 7.48188e+03 -7.39373e+03  4.36232e+03 
-5.81035e+04 -3.18336e+04 -1.83287e+04 
 5.99745e+03 -7.87009e+03  3.77484e+03 
-2.69858e+04 -1.52455e+04 -9.89728e+03 
-1.96713e+03 -4.01850e+03 -1.12537e+03 
 3.21982e+04  1.03133e+04  3.11310e+04 
-1.78651e+04 -1.44666e+04 -1.16969e+04 
 6.61157e+02 -1.03151e+04  3.76366e+03 
 3.85544e+04 -2.21379e+03  1.11890e+04 
-6.15669e+04 -5.38017e+03 -2.00869e+03 
-1.21088e+04 -5.16582e+03 -5.75836e+03 
 1.11135e+04 -6.76722e+03  5.56412e+03 
 1.89524e+04  1.70003e+03  5.58907e+03 
 2.91043e+04  1.28451e+04  1.87294e+04 
 5.90663e+03  4.19089e+03  6.03131e+03 
-1.21144e+04 -4.36047e+03 -4.48559e+03 
 1.04660e+04  1.01544e+03  8.97187e+03 
-2.66819e+03 -6.01723e+03 -1.12178e+03 
 2.12618e+04 -4.41709e+03  1.40079e+04 
-5.79434e+04 -7.27552e+03  5.19865e+02 
 2.73941e+04  2.51017e+03  8.73484e+03 
 1.95708e+04  1.60113e+04  1.47222e+04 
 3.75799e+04 -7.33563e+03  7.63006e+03 
-8.95887e+03 -1.12649e+03 -2.88713e+03 
 1.81241e+04  9.97353e+03  1.83192e+04 
 1.33087e+04  2.60237e+04  2.87163e+04 
 3.15550e+04  3.28530e+02  5.20846e+03 
 2.12166e+03  4.78405e+03 -1.05048e+03 
 1.60177e+04 -5.49071e+03  1.57702e+03 
 1.30529e+04  1.10945e+04  6.63798e+03 
 4.67080e+04 -2.36226e+02  4.09115e+03 
-6.47901e+04 -3.79830e+03  4.23380e+03 
 3.43211e+04 -2.60184e+03  2.91138e+03 
 1.12523e+04  1.11235e+04  6.34556e+03 
 4.88730e+04  1.13841e+03 -3.22468e+03 
-5.40268e+03  8.48104e+02 -1.20302e+03 
 3.51827e+04 -2.81298e+03 -1.70178e+03 
 3.70260e+02  5.97357e+03 -1.03273e+02 
 4.57047e+04  3.94655e+03 -7.19332e+01 
 9.18988e+03  7.85940e+03  5.75171e+03 
 1.51372e+04 -4.55533e+03  8.70882e+02 
-5.36310e+04 -3.26875e+04  1.69705e+04 
 5.08683e+04  2.03829e+03  3.28117e+03 
-3.85678e+04 -2.38431e+04  2.80730e+04 
 3.66380e+04  2.15807e+01 -1.26339e+03 
-1.78011e+04 -1.42481e+04  3.78369e+03 
-3.55787e+03 -6.44921e+03  5.18282e+02 
 5.77196e+03  4.94969e+03  4.60191e+03 
 4.87319e+04  2.16186e+03 -1.68597e+03 
 1.65912e+04 -7.20300e+03 -1.90862e+03 
-1.16369e+04 -1.67391e+04  1.10519e+04 
 4.71651e+04  1.91013e+03  1.81267e+03 
-1.77614e+03  1.67059e+03  5.48853e+02 
 3.71384e+04 -7.71176e+03 -7.69864e+03 
-9.31829e+03 -1.19357e+04  8.27038e+03 
 4.74213e+04  2.49514e+02 -4.25683e+03 
 3.94314e+04  3.20730e+02 -1.45028e+04 
 1.31350e+04  6.83390e+03 -7.65419e+03 
 2.35722e+04 -4.09275e+03 -1.40001e+04 
 2.39710e+03  3.15791e+03  2.91006e+03 
 3.12226e+04  6.85866e+02 -5.91981e+03 
-5.91845e+03 -4.36812e+03  5.36357e+03 
 2.51023e+04  2.69615e+03 -8.13425e+03 
 2.44330e+04  1.17895e+04 -1.78762e+04 
 2.98975e+04  1.07792e+04 -2.59216e+04 
 2.86249e+04  4.12452e+04 -5.40402e+04 
 1.17361e+04  1.31212e+04 -8.08983e+03 
 2.07938e+04  3.19988e+04 -2.92712e+04 
-9.12993e+02  1.27837e+04 -4.99803e+03 
 1.37226e+03  2.40314e+03  2.33654e+03 
 3.23444e+03  1.87842e+04 -4.20446e+03 
-6.45356e+02  2.11553e+03  8.60608e+02 
-4.02530e+03  1.44704e+03  1.49476e+03 
-1.45800e+03  1.07346e+04 -1.96865e+03 
-2.88031e+03  8.06496e+03 -1.74268e+03 
-3.04046e+03  3.59791e+03  8.53945e+02 
 4.62572e+03  3.69613e+03  4.40454e+03 
-4.06658e+03  1.56248e+03 -8.28386e+02 
-4.31814e+03 -2.48843e+03  4.31188e+03 
-3.01568e+02  1.57486e+04 -5.25357e+03 
 9.08264e+03  5.94000e+03  5.73178e+03 
-8.10500e+03  2.11457e+02 -2.23928e+03 
-6.96022e+03 -8.84076e+03  8.45676e+03 
 4.60505e+03  2.31413e+04 -8.55142e+03 
 1.16020e+04  7.27778e+03  7.08250e+03 
-1.26623e+04 -2.82705e+03 -3.26590e+03 
 1.19575e+04  2.94689e+04 -1.17484e+04 
-1.14706e+04 -1.61998e+04  1.15141e+04 
 9.40792e+03  1.09394e+04  2.33246e+03 
-8.30181e+03 -6.41248e+01 -3.49475e+03 
 1.34435e+04  2.86945e+04 -1.42372e+04 
-1.81459e+04 -2.32851e+04  1.35718e+04 
 1.49854e+04  2.30409e+04  1.71793e+04 
-2.01152e+04 -1.35347e+04 -1.85986e+04 
 3.49288e+04  4.12448e+04 -2.73743e+04 
-2.53045e+04 -2.72163e+04  1.45263e+04 
 1.94165e+04  3.18269e+04  1.25904e+04 
 5.20899e+03  2.91175e+04  4.25347e+03 
 9.66074e+03  2.31038e+04 -3.37203e+03 
 2.60354e+03  5.15872e+04 -1.38445e+04 
-7.65429e+03 -7.46716e+03 -5.06167e+03 
 3.07423e+04  6.01471e+04 -2.59772e+04 
-4.65329e+03 -8.39572e+03 -4.32116e+03 
-2.49012e+04 -3.06875e+04  1.49334e+04 
-8.80455e+03 -1.36397e+04  1.35097e+04 
-2.58027e+04 -1.78527e+04 -3.31262e+04 
 3.35363e+03  2.14752e+03  3.59423e+03 
-5.85349e+04 -3.00738e+04  6.47516e+04 
-4.73610e+03 -2.30069e+04 -9.12867e+03 
 2.94060e+03  5.80606e+02  2.82303e+02 
 2.14293e+03  2.40221e+02 -8.61634e+03 
 3.35931e+03  2.51735e+03 -1.09137e+04 
 3.89229e+03 -8.49245e+03 -3.19396e+03 
-7.26365e+03 -4.27038e+04  1.23308e+04 
-8.81828e+03 -1.72210e+04 -1.54114e+04 
-2.24956e+04 -4.11642e+04  4.00320e+04 
-1.93402e+03 -1.29042e+04 -7.48594e+03 
 9.90347e+03 -5.37776e+03  5.21623e+01 
 8.90565e+03 -8.44767e+03  1.65365e+02 
 1.04520e+04 -2.54724e+03  2.36445e+02 
 7.63807e+03 -8.58988e+03 -9.52096e+02 
 5.91673e+03 -1.13324e+04 -1.55523e+03 
 1.12480e+04 -8.87347e+03 -5.74599e+03 
-1.74940e+04 -1.58166e+04 -1.37470e+04 
 1.31338e+04 -1.30878e+04 -5.31823e+03 
 9.36756e+03 -3.10776e+04 -4.35572e+03 
-1.80807e+04 -2.72838e+04  1.18554e+04 
-4.67666e+04 -3.90957e+04  3.32425e+04 
-1.50545e+04 -1.17252e+04 -8.47516e+03 
 1.20238e+03 -9.54536e+03 -5.61262e+03 
 5.11778e+03 -7.66011e+03 -1.92260e+03 
 6.02064e+03 -7.97594e+03 -5.83370e+02 
 7.39637e+03 -8.09217e+03  2.34014e+02 
 8.72634e+03 -1.00654e+04  1.92370e+03 
 9.08439e+03 -1.22660e+04  5.41008e+02 
 1.19034e+04 -1.82353e+04  2.97788e+03 
 6.21557e+03 -2.29974e+04  4.09778e+03 
-5.83326e+03 -2.82640e+04  5.83657e+03 
-6.64829e+04 -4.64734e+04  9.61755e+03 
-3.66145e+03 -1.83077e+03 -2.23739e+03 
-3.23361e+03  1.87370e+03  3.82729e+02 
 4.61324e+02 -6.65348e+03 -3.33264e+03 
-1.84893e+03  1.65272e+02  8.10502e+02 
 5.29350e+03 -5.01117e+03 -3.39883e+02 
-7.66713e+02 -3.25093e+02 -1.21074e+01 
-1.27930e+03 -3.66866e+03  5.24783e+02 
 6.80163e+03 -8.27396e+03  6.84591e+02 
-1.44887e+03 -4.27669e+02  1.11249e+03 
 5.37723e+03 -1.04757e+04  3.01061e+03 
 1.05030e+03  1.83550e+02 -1.49506e+03 
 2.23078e+03 -5.42297e+03  2.97902e+03 
-2.07016e+03 -2.19922e+03  2.89393e+03 
 1.79209e+03 -4.68155e+02  2.34599e+03 
 1.10007e+04 -6.09579e+03  4.78034e+03 
 6.82369e+03 -1.67179e+04  5.89895e+03 
 1.26596e+03 -7.44291e+03  8.60899e+03 
-4.15863e+03 -3.18445e+03  3.04765e+03 
-5.00126e+02  1.02017e+03  6.41755e+02 
 4.45580e+03  6.46836e+03  4.94175e+03 
 1.01312e+04 -1.17480e+04  1.00471e+04 
 4.30225e+03 -2.62729e+04  1.03364e+04 
 1.01712e+03 -1.10810e+03  1.11706e+04 
 1.86854e+03  2.50229e+04  1.04308e+04 
-2.02649e+04 -1.99567e+04 -1.37011e+03 
-3.24589e+03 -3.22235e+03  2.74610e+03 
-3.52779e+01  1.59130e+03  3.94367e+02 
-7.23848e+03 -2.67515e+04 -8.11857e+03 
-3.30669e+04 -1.62077e+04 -1.89915e+04 
 2.07829e+04  3.47048e+04  1.50957e+04 
-1.33300e+04 -2.34088e+04 -2.06878e+04 
-7.21877e+03 -1.22237e+04 -7.31389e+03 
-3.53557e+03 -4.10229e+03  3.03472e+03 
-3.25695e+04 -2.30927e+04 -4.11837e+04 
-8.37971e+01  2.19830e+03  4.57690e+01 
 1.76568e+04  2.66414e+04  1.99151e+04 
-1.04482e+04 -1.11454e+04 -7.65059e+03 
 1.11253e+04  1.19860e+04  1.41974e+03 
-3.24106e+03 -4.67687e+03  3.34128e+03 
-2.67267e+04 -1.90455e+04 -2.51301e+04 
-3.99896e+02  2.59066e+03 -4.21423e+02 
 1.47535e+04  7.73917e+03  7.73029e+03 
-1.22575e+04 -2.36985e+03 -6.28472e+03 
-2.64332e+03 -5.06992e+03  3.73376e+03 
-1.00324e+03  2.61454e+03 -1.07730e+03 
 1.22774e+04  6.20994e+03  6.58128e+03 
-1.85677e+04 -6.08296e+03 -6.39718e+03 
-1.84712e+03 -5.32390e+03  4.06138e+03 
-1.37297e+03  2.92307e+03 -1.42224e+03 
-1.35283e+04 -2.12100e+03 -5.62934e+03 
 7.07816e+03  3.23001e+03  5.60878e+03 
-2.31398e+03 -5.59783e+03  4.74805e+03 
-9.06324e+03  8.27918e+01 -4.36090e+03 
 3.53892e+03  1.45464e+03  3.51198e+03 
-1.44223e+03  4.34874e+03 -1.66346e+03 
-3.26789e+03 -6.92606e+03  5.41581e+03 
-5.31637e+03  4.29159e+02 -2.91143e+03 
-4.25068e+01  6.08063e+03 -1.93192e+03 
 9.89062e+02  5.12579e+02  1.60454e+03 
-4.80716e+03 -9.15079e+03  5.41253e+03 
 1.95834e+03  8.03434e+03 -1.94502e+03 
-2.81449e+03  8.74785e+02 -1.10742e+03 
-1.89457e+03  5.97490e+02  3.41482e+01 
-5.43933e+03 -9.87210e+03  5.59123e+03 
 4.42589e+00  4.44838e+03 -1.63174e+03 
-3.14529e+02  1.66963e+03  7.02834e+02 
-4.84814e+03 -3.37798e+02 -1.54263e+03 
 7.85421e+03  1.11511e+04 -1.05828e+04 
-7.21795e+03 -7.56014e+03  2.36578e+03 
 3.80125e+03  2.92400e+03 -1.92288e+03 
 2.53665e+03  3.53259e+03  1.95198e+03 
-1.38015e+04 -1.02064e+04  1.10689e+04 
-7.65816e+03 -2.44606e+03 -2.98138e+03 
 9.25975e+03  1.32963e+04 -1.74816e+04 
 4.24200e+03  1.35087e+03 -1.46616e+03 
-1.69746e+04 -1.13991e+04  7.99285e+03 
 8.50675e+03  3.66828e+03 -7.64104e+03 
 4.56166e+03  5.87029e+03  2.68674e+03 
 1.12579e+04  7.41000e+02 -2.93555e+03 
-8.42142e+03 -3.32888e+03 -4.16412e+03 
-1.43877e+04 -1.64518e+03  3.77481e+03 
 7.62310e+03  7.95409e+03 -6.24848e+03 
-2.15834e+03 -2.62062e+03  3.44210e+03 
 5.81648e+03  1.26477e+03 -2.71638e+03 
 5.60309e+03 -3.61279e+03  3.82647e+02 
-9.25125e+03 -2.36869e+03  8.59417e+02 
 6.48153e+03  6.41867e+03  3.13492e+03 
-2.40721e+02  2.16909e+02  2.13838e+03 
 5.13194e+02 -3.85853e+03  2.10030e+03 
-1.29203e+04 -9.45044e+03 -8.25299e+03 
 2.75129e+03 -1.82172e+03  1.72397e+03 
-8.86362e+03 -1.18116e+03 -8.18557e+02 
-3.77560e+02 -3.63401e+03  2.06840e+03 
 2.21471e+02 -3.26406e+02  3.75482e+02 
 7.24699e+03  1.52969e+04  1.74854e+04 
 2.44038e+03  1.72931e+03  3.06766e+03 
 2.33688e+03 -2.37722e+03  1.77635e+03 
-2.06555e+04 -1.07252e+04 -5.89294e+03 
 3.01767e+03 -2.18163e+03  1.69219e+03 
-9.46365e+03 -4.57424e+03 -2.98945e+03 
 1.85880e+02 -5.56615e+02 -6.53249e+02 
 1.12099e+04  3.88324e+03  1.09129e+04 
-5.58146e+03 -3.91185e+03 -3.09656e+03 
 1.66188e+03 -2.93862e+03  1.37618e+03 
 1.32245e+04 -5.66942e+02  4.13212e+03 
-2.26492e+04 -1.99702e+03 -3.19284e+02 
-3.22913e+03 -3.18594e+02 -7.54655e+02 
 6.06756e+03 -1.49189e+03  1.62501e+03 
 7.99311e+03  2.19673e+03  3.01530e+03 
 1.02043e+04  4.61161e+03  6.69916e+03 
 3.27196e+03  3.00790e+03  3.57991e+03 
-2.92413e+03  1.01552e+02 -1.21744e+02 
 5.61909e+03  3.69795e+03  3.81507e+03 
-1.09247e+03 -1.98785e+03 -8.47797e+01 
 7.45982e+03 -1.51466e+03  5.09940e+03 
-2.20940e+04 -2.77791e+03  5.08381e+02 
 9.73199e+03  8.89539e+02  3.14351e+03 
 8.69623e+03  9.49419e+03  7.48361e+03 
 1.35473e+04 -2.50864e+03  2.88233e+03 
-1.41194e+03  1.34659e+03  6.49153e+02 
 8.26296e+03  5.65458e+03  8.38528e+03 
 6.20168e+03  1.13068e+04  1.20806e+04 
 1.13395e+04  1.41098e+02  1.86757e+03 
 6.59557e+02  1.74480e+03 -2.88696e+01 
 5.82070e+03 -1.95264e+03  8.52307e+02 
 5.74726e+03  5.45326e+03  3.67012e+03 
 1.68843e+04 -7.39818e+01  1.54161e+03 
-2.55964e+04 -1.47512e+03  2.08030e+03 
 1.27237e+04 -1.03084e+03  1.30164e+03 
 4.82046e+03  5.32790e+03  3.46709e+03 
 1.80140e+04  4.33558e+02 -1.12472e+03 
 2.02795e+02  1.96004e+03  1.48547e+03 
 1.32627e+04 -9.72975e+02 -4.23216e+02 
 1.52866e+02  2.32858e+03  3.22883e+02 
 1.70513e+04  1.47286e+03  5.93929e+01 
 3.74841e+03  3.98803e+03  3.09748e+03 
 5.74810e+03 -1.74207e+03  6.02609e+02 
-2.18133e+04 -1.37904e+04  7.38739e+03 
 1.92378e+04  7.59072e+02  1.32537e+03 
-1.60873e+04 -1.06474e+04  1.21534e+04 
 1.41371e+04  2.91378e+00 -2.63985e+02 
-7.64127e+03 -7.03546e+03  1.76075e+03 
-1.44362e+03 -2.77627e+03  5.63216e+02 
 2.19153e+03  2.88697e+03  2.45764e+03 
 1.87572e+04  8.52147e+02 -5.55568e+02 
 6.48239e+03 -2.87474e+03 -4.75676e+02 
-5.25913e+03 -8.87023e+03  5.20737e+03 
 1.84187e+04  7.30037e+02  7.88056e+02 
 1.79887e+03  2.02578e+03  2.32758e+03 
 1.47557e+04 -3.23084e+03 -2.93560e+03 
-4.37749e+03 -7.37023e+03  4.47007e+03 
 1.88009e+04  8.36780e+01 -1.62555e+03 
 1.62667e+04 -3.52930e+01 -5.72224e+03 
 5.81728e+03  2.56970e+03 -3.01753e+03 
 9.54596e+03 -1.68874e+03 -5.52890e+03 
 7.79990e+02  2.35147e+03  1.52658e+03 
 1.24496e+04  2.60136e+02 -2.36601e+03 
-2.74885e+03 -4.40712e+03  3.80414e+03 
 1.00944e+04  1.08689e+03 -3.24420e+03 
 9.84947e+03  4.69685e+03 -7.13154e+03 
 1.20715e+04  4.12184e+03 -1.05060e+04 
 1.20465e+04  1.70689e+04 -2.24907e+04 
 5.19288e+03  5.06312e+03 -3.31629e+03 
 9.50711e+03  1.39007e+04 -1.29632e+04 
 1.99698e+02  5.79882e+03 -2.45547e+03 
 3.20297e+03  2.49236e+03  3.30912e+03 
 2.23206e+03  9.14788e+03 -2.44682e+03 
-5.92101e+02  2.04630e+03  5.54758e+02 
-1.78881e+03 -2.33997e+03  2.54780e+03 
 5.15055e+01  6.22389e+03 -1.92589e+03 
-1.26875e+03 -6.68990e+02  1.42606e+03 
-1.08258e+03  3.63090e+03 -1.12973e+03 
 5.01671e+03  3.36090e+03  4.40064e+03 
-2.50924e+03  1.84036e+03 -2.31212e+02 
-1.33793e+03  1.44785e+03 -2.02623e+02 
-1.11482e+03  1.23562e+03  4.39195e+02 
 7.64123e+03  4.82790e+03  4.95136e+03 
-4.78951e+03  7.93098e+02 -9.10946e+02 
-1.74116e+03 -1.81142e+02  9.39401e+02 
-3.16168e+02  3.15071e+03 -5.34210e+02 
 8.93783e+03  5.60446e+03  5.57551e+03 
-7.35995e+03 -1.16499e+03 -1.34263e+03 
 1.20420e+03  4.92165e+03 -1.43892e+03 
-2.44543e+03 -1.88444e+03  2.00275e+03 
 7.25066e+03  7.73633e+03  2.47751e+03 
-4.31401e+03  6.62900e+02 -1.32832e+03 
 1.73512e+03  5.20020e+03 -2.16745e+03 
-3.80328e+03 -3.73032e+03  2.73253e+03 
 1.04316e+04  1.52050e+04  1.16591e+04 
-1.15324e+04 -7.65278e+03 -1.07130e+04 
 6.12601e+03  8.22390e+03 -5.02208e+03 
-5.41789e+03 -4.95551e+03  3.14745e+03 
 1.30376e+04  2.12526e+04  7.76517e+03 
 2.41585e+03  2.04881e+04  2.81556e+03 
 3.53902e+03  1.40211e+04  1.31471e+03 
 5.66811e+02  1.79117e+04 -5.89289e+02 
-3.58310e+03 -3.76195e+03 -2.08479e+03 
 6.79351e+03  1.37185e+04 -3.70826e+03 
-1.46570e+03 -4.45921e+03 -1.67039e+03 
-5.66785e+03 -6.08868e+03  3.34774e+03 
-2.13596e+03 -2.97595e+03  3.27761e+03 
-1.40905e+04 -9.77838e+03 -1.90237e+04 
 2.19431e+03  1.43179e+03  1.13240e+03 
-1.22256e+04 -6.40714e+03  1.38288e+04 
-1.09947e+03 -1.47341e+04 -5.59414e+03 
-5.95334e+02 -8.95621e+00  9.35512e+02 
-7.90391e+02  1.80685e+03  1.33049e+03 
 7.67343e+02 -8.27098e+01  1.35060e+03 
-9.07661e+02 -5.82699e+03  1.31523e+03 
-3.63894e+02 -1.06932e+04  4.09907e+03 
-1.97933e+03 -9.54363e+03 -7.88654e+03 
-3.84436e+03 -9.02840e+03  8.80831e+03 
 2.20661e+03 -8.21690e+03 -4.05571e+03 
 3.25404e+03 -6.29905e+03  4.59012e+02 
 2.11385e+03 -1.04826e+04  1.71303e+03 
 8.06799e+02 -5.41428e+03  2.17150e+03 
 4.90369e+02 -1.00545e+04  5.92260e+01 
-8.57639e+02 -9.08290e+03  1.38262e+03 
 5.72558e+02 -6.54171e+03 -3.69120e+01 
-3.38834e+03 -6.88515e+03 -4.92930e+03 
 2.05840e+03 -6.28729e+03  1.82291e+03 
 1.96620e+03 -1.01003e+04  2.78039e+03 
 1.12976e+03 -6.37771e+03  4.61236e+03 
-4.50870e+03 -8.43583e+03  5.89912e+03 
-9.75443e+02 -7.68428e+03 -1.96520e+03 
 3.90800e+02 -1.32844e+04 -1.55342e+03 
 5.34303e+01 -1.42187e+04  1.30091e+03 
-1.16810e+03 -1.42728e+04  8.90199e+02 
-6.14415e+02 -1.44706e+04  5.32886e+02 
-6.31390e+02 -1.42034e+04  1.42474e+03 
-6.84132e+02 -1.31196e+04  6.43321e+02 
-7.95416e+01 -1.48338e+04  1.25261e+03 
-3.78731e+02 -1.24358e+04  2.31661e+03 
-1.41141e+02 -9.05311e+03  2.67801e+03 
-1.08893e+03 -7.53951e+03  3.58612e+03 </DataArray>
         </PointData>
         <CellData/>
      </Piece>
   </UnstructuredGrid>
</VTKFile>