<?xml version="1.0" encoding="utf-8"?>
<VTKFile byte_order="LittleEndian" type="UnstructuredGrid" version="0.1">
   <UnstructuredGrid>
      <Piece NumberOfCells="16" NumberOfPoints="13">
         <Points>
            <DataArray Name="Points" NumberOfComponents="3" format="ascii" type="Float32">
0.0000 0.0000 0.0000
0.0100 0.0100 0.0000
0.0000 0.0200 0.0000
0.0200 0.0000 0.0000
0.0200 0.0200 0.0000
0.0100 0.0300 0.0000
0.0300 0.0100 0.0000
0.0000 0.0400 0.0000
0.0400 0.0000 0.0000
0.0300 0.0300 0.0000
0.0400 0.0200 0.0000
0.0200 0.0400 0.0000
0.0400 0.0400 0.0000</DataArray>
         </Points>
         <Cells>
            <DataArray Name="connectivity" format="ascii" type="Int32">
 4 1 3
 2 1 4
 0 1 2
 3 1 0
 11 5 4
 7 5 11
 2 5 7
 4 5 2
 10 6 8
 4 6 10
 3 6 4
 8 6 3
 12 9 10
 11 9 12
 4 9 11
 10 9 4</DataArray>
            <DataArray Name="offsets" format="ascii" type="Int32">3 6 9 12 15 18 21 24 27 30 33 36 39 42 45 48 </DataArray>
            <DataArray Name="types" format="ascii" type="UInt8">5 5 5 5 5 5 5 5 5 5 5 5 5 5 5 5 </DataArray>
         </Cells>
         <PointData>
            <DataArray Name="displacement" NumberOfComponents="2" format="ascii" type="Float64">
       00000  4.50694e-16 
-3.86681e-01 -9.21880e-01 
-1.35690e-16 -5.18150e-16 
-1.82369e+00 -2.60609e+00 
-8.31086e-16 -2.11952e+00 
 3.86681e-01 -9.21880e-01 
-1.19575e+00 -4.05676e+00 
 3.39226e-17  6.55348e-16 
-2.34957e+00 -5.60809e+00 
 1.19575e+00 -4.05676e+00 
-3.06933e-15 -6.19269e+00 
 1.82369e+00 -2.60609e+00 
 2.34957e+00 -5.60809e+00 </DataArray>
            <DataArray Name="strain" NumberOfComponents="3" format="ascii" type="Float64">
-8.57950e+01  2.28686e+01 -1.00224e+02 
-5.13564e+01  6.72714e+00 -6.62220e+01 
-2.11585e-14 -1.20458e-14 -8.41519e+01 
-7.35176e+01  4.75370e+01 -6.24116e+01 
-9.57411e-14  8.84276e-14 -6.87074e+01 
 5.13564e+01 -6.72714e+00 -6.62220e+01 
-7.38282e+00 -8.87477e+00 -7.88738e+01 
 8.57950e+01 -2.28686e+01 -1.00224e+02 
-2.12657e+00 -3.16443e+01 -5.25526e+01 
 7.38282e+00  8.87477e+00 -7.88738e+01 
-7.61881e-14  7.57292e-14 -8.12164e+01 
 7.35176e+01 -4.75370e+01 -6.24116e+01 
 2.12657e+00  3.16443e+01 -5.25526e+01 </DataArray>
            <DataArray Name="stress" NumberOfComponents="3" format="ascii" type="Float64">
-9.47526e+01 -1.98616e+01 -3.45372e+01 
-6.06594e+01 -2.06283e+01 -2.28201e+01 
-4.03322e-14 -3.48323e-14 -2.89987e+01 
-6.53760e+01  1.80549e+01 -2.15070e+01 
-6.64869e-14  5.81760e-14 -2.36766e+01 
 6.06594e+01  2.06283e+01 -2.28201e+01 
-1.42917e+01 -1.53199e+01 -2.71799e+01 
 9.47526e+01  1.98616e+01 -3.45372e+01 
-2.05833e+01 -4.09269e+01 -1.81096e+01 
 1.42917e+01  1.53199e+01 -2.71799e+01 
-6.05833e-14  4.08479e-14 -2.79872e+01 
 6.53760e+01 -1.80549e+01 -2.15070e+01 
 2.05833e+01  4.09269e+01 -1.81096e+01 </DataArray>
         </PointData>
         <CellData/>
      </Piece>
   </UnstructuredGrid>
</VTKFile>