<?xml version="1.0" encoding="utf-8"?>
<VTKFile byte_order="LittleEndian" type="UnstructuredGrid" version="0.1">
   <UnstructuredGrid>
      <Piece NumberOfCells="6162" NumberOfPoints="3200">
         <Points>
            <DataArray Name="Points" NumberOfComponents="3" format="ascii" type="Float32">
0.0000 0.0000 0.0000
0.0000 0.0256 0.0000
0.0000 0.0513 0.0000
0.0000 0.0769 0.0000
0.0000 0.1026 0.0000
0.0000 0.1282 0.0000
0.0000 0.1538 0.0000
0.0000 0.1795 0.0000
0.0000 0.2051 0.0000
0.0000 0.2308 0.0000
0.0000 0.2564 0.0000
0.0000 0.2821 0.0000
0.0000 0.3077 0.0000
0.0000 0.3333 0.0000
0.0000 0.3590 0.0000
0.0000 0.3846 0.0000
0.0000 0.4103 0.0000
0.0000 0.4359 0.0000
0.0000 0.4615 0.0000
0.0000 0.4872 0.0000
0.0000 0.5128 0.0000
0.0000 0.5385 0.0000
0.0000 0.5641 0.0000
0.0000 0.5897 0.0000
0.0000 0.6154 0.0000
0.0000 0.6410 0.0000
0.0000 0.6667 0.0000
0.0000 0.6923 0.0000
0.0000 0.7179 0.0000
0.0000 0.7436 0.0000
0.0000 0.7692 0.0000
0.0000 0.7949 0.0000
0.0000 0.8205 0.0000
0.0000 0.8462 0.0000
0.0000 0.8718 0.0000
0.0000 0.8974 0.0000
0.0000 0.9231 0.0000
0.0000 0.9487 0.0000
0.0000 0.9744 0.0000
0.0000 1.0000 0.0000
0.0253 0.0000 0.0000
0.0253 0.0256 0.0000
0.0253 0.0513 0.0000
0.0253 0.0769 0.0000
0.0253 0.1026 0.0000
0.0253 0.1282 0.0000
0.0253 0.1538 0.0000
0.0253 0.1795 0.0000
0.0253 0.2051 0.0000
0.0253 0.2308 0.0000
0.0253 0.2564 0.0000
0.0253 0.2821 0.0000
0.0253 0.3077 0.0000
0.0253 0.3333 0.0000
0.0253 0.3590 0.0000
0.0253 0.3846 0.0000
0.0253 0.4103 0.0000
0.0253 0.4359 0.0000
0.0253 0.4615 0.0000
0.0253 0.4872 0.0000
0.0253 0.5128 0.0000
0.0253 0.5385 0.0000
0.0253 0.5641 0.0000
0.0253 0.5897 0.0000
0.0253 0.6154 0.0000
0.0253 0.6410 0.0000
0.0253 0.6667 0.0000
0.0253 0.6923 0.0000
0.0253 0.7179 0.0000
0.0253 0.7436 0.0000
0.0253 0.7692 0.0000
0.0253 0.7949 0.0000
0.0253 0.8205 0.0000
0.0253 0.8462 0.0000
0.0253 0.8718 0.0000
0.0253 0.8974 0.0000
0.0253 0.9231 0.0000
0.0253 0.9487 0.0000
0.0253 0.9744 0.0000
0.0253 1.0000 0.0000
0.0506 0.0000 0.0000
0.0506 0.0256 0.0000
0.0506 0.0513 0.0000
0.0506 0.0769 0.0000
0.0506 0.1026 0.0000
0.0506 0.1282 0.0000
0.0506 0.1538 0.0000
0.0506 0.1795 0.0000
0.0506 0.2051 0.0000
0.0506 0.2308 0.0000
0.0506 0.2564 0.0000
0.0506 0.2821 0.0000
0.0506 0.3077 0.0000
0.0506 0.3333 0.0000
0.0506 0.3590 0.0000
0.0506 0.3846 0.0000
0.0506 0.4103 0.0000
0.0506 0.4359 0.0000
0.0506 0.4615 0.0000
0.0506 0.4872 0.0000
0.0506 0.5128 0.0000
0.0506 0.5385 0.0000
0.0506 0.5641 0.0000
0.0506 0.5897 0.0000
0.0506 0.6154 0.0000
0.0506 0.6410 0.0000
0.0506 0.6667 0.0000
0.0506 0.6923 0.0000
0.0506 0.7179 0.0000
0.0506 0.7436 0.0000
0.0506 0.7692 0.0000
0.0506 0.7949 0.0000
0.0506 0.8205 0.0000
0.0506 0.8462 0.0000
0.0506 0.8718 0.0000
0.0506 0.8974 0.0000
0.0506 0.9231 0.0000
0.0506 0.9487 0.0000
0.0506 0.9744 0.0000
0.0506 1.0000 0.0000
0.0759 0.0000 0.0000
0.0759 0.0256 0.0000
0.0759 0.0513 0.0000
0.0759 0.0769 0.0000
0.0759 0.1026 0.0000
0.0759 0.1282 0.0000
0.0759 0.1538 0.0000
0.0759 0.1795 0.0000
0.0759 0.2051 0.0000
0.0759 0.2308 0.0000
0.0759 0.2564 0.0000
0.0759 0.2821 0.0000
0.0759 0.3077 0.0000
0.0759 0.3333 0.0000
0.0759 0.3590 0.0000
0.0759 0.3846 0.0000
0.0759 0.4103 0.0000
0.0759 0.4359 0.0000
0.0759 0.4615 0.0000
0.0759 0.4872 0.0000
0.0759 0.5128 0.0000
0.0759 0.5385 0.0000
0.0759 0.5641 0.0000
0.0759 0.5897 0.0000
0.0759 0.6154 0.0000
0.0759 0.6410 0.0000
0.0759 0.6667 0.0000
0.0759 0.6923 0.0000
0.0759 0.7179 0.0000
0.0759 0.7436 0.0000
0.0759 0.7692 0.0000
0.0759 0.7949 0.0000
0.0759 0.8205 0.0000
0.0759 0.8462 0.0000
0.0759 0.8718 0.0000
0.0759 0.8974 0.0000
0.0759 0.9231 0.0000
0.0759 0.9487 0.0000
0.0759 0.9744 0.0000
0.0759 1.0000 0.0000
0.1013 0.0000 0.0000
0.1013 0.0256 0.0000
0.1013 0.0513 0.0000
0.1013 0.0769 0.0000
0.1013 0.1026 0.0000
0.1013 0.1282 0.0000
0.1013 0.1538 0.0000
0.1013 0.1795 0.0000
0.1013 0.2051 0.0000
0.1013 0.2308 0.0000
0.1013 0.2564 0.0000
0.1013 0.2821 0.0000
0.1013 0.3077 0.0000
0.1013 0.3333 0.0000
0.1013 0.3590 0.0000
0.1013 0.3846 0.0000
0.1013 0.4103 0.0000
0.1013 0.4359 0.0000
0.1013 0.4615 0.0000
0.1013 0.4872 0.0000
0.1013 0.5128 0.0000
0.1013 0.5385 0.0000
0.1013 0.5641 0.0000
0.1013 0.5897 0.0000
0.1013 0.6154 0.0000
0.1013 0.6410 0.0000
0.1013 0.6667 0.0000
0.1013 0.6923 0.0000
0.1013 0.7179 0.0000
0.1013 0.7436 0.0000
0.1013 0.7692 0.0000
0.1013 0.7949 0.0000
0.1013 0.8205 0.0000
0.1013 0.8462 0.0000
0.1013 0.8718 0.0000
0.1013 0.8974 0.0000
0.1013 0.9231 0.0000
0.1013 0.9487 0.0000
0.1013 0.9744 0.0000
0.1013 1.0000 0.0000
0.1266 0.0000 0.0000
0.1266 0.0256 0.0000
0.1266 0.0513 0.0000
0.1266 0.0769 0.0000
0.1266 0.1026 0.0000
0.1266 0.1282 0.0000
0.1266 0.1538 0.0000
0.1266 0.1795 0.0000
0.1266 0.2051 0.0000
0.1266 0.2308 0.0000
0.1266 0.2564 0.0000
0.1266 0.2821 0.0000
0.1266 0.3077 0.0000
0.1266 0.3333 0.0000
0.1266 0.3590 0.0000
0.1266 0.3846 0.0000
0.1266 0.4103 0.0000
0.1266 0.4359 0.0000
0.1266 0.4615 0.0000
0.1266 0.4872 0.0000
0.1266 0.5128 0.0000
0.1266 0.5385 0.0000
0.1266 0.5641 0.0000
0.1266 0.5897 0.0000
0.1266 0.6154 0.0000
0.1266 0.6410 0.0000
0.1266 0.6667 0.0000
0.1266 0.6923 0.0000
0.1266 0.7179 0.0000
0.1266 0.7436 0.0000
0.1266 0.7692 0.0000
0.1266 0.7949 0.0000
0.1266 0.8205 0.0000
0.1266 0.8462 0.0000
0.1266 0.8718 0.0000
0.1266 0.8974 0.0000
0.1266 0.9231 0.0000
0.1266 0.9487 0.0000
0.1266 0.9744 0.0000
0.1266 1.0000 0.0000
0.1519 0.0000 0.0000
0.1519 0.0256 0.0000
0.1519 0.0513 0.0000
0.1519 0.0769 0.0000
0.1519 0.1026 0.0000
0.1519 0.1282 0.0000
0.1519 0.1538 0.0000
0.1519 0.1795 0.0000
0.1519 0.2051 0.0000
0.1519 0.2308 0.0000
0.1519 0.2564 0.0000
0.1519 0.2821 0.0000
0.1519 0.3077 0.0000
0.1519 0.3333 0.0000
0.1519 0.3590 0.0000
0.1519 0.3846 0.0000
0.1519 0.4103 0.0000
0.1519 0.4359 0.0000
0.1519 0.4615 0.0000
0.1519 0.4872 0.0000
0.1519 0.5128 0.0000
0.1519 0.5385 0.0000
0.1519 0.5641 0.0000
0.1519 0.5897 0.0000
0.1519 0.6154 0.0000
0.1519 0.6410 0.0000
0.1519 0.6667 0.0000
0.1519 0.6923 0.0000
0.1519 0.7179 0.0000
0.1519 0.7436 0.0000
0.1519 0.7692 0.0000
0.1519 0.7949 0.0000
0.1519 0.8205 0.0000
0.1519 0.8462 0.0000
0.1519 0.8718 0.0000
0.1519 0.8974 0.0000
0.1519 0.9231 0.0000
0.1519 0.9487 0.0000
0.1519 0.9744 0.0000
0.1519 1.0000 0.0000
0.1772 0.0000 0.0000
0.1772 0.0256 0.0000
0.1772 0.0513 0.0000
0.1772 0.0769 0.0000
0.1772 0.1026 0.0000
0.1772 0.1282 0.0000
0.1772 0.1538 0.0000
0.1772 0.1795 0.0000
0.1772 0.2051 0.0000
0.1772 0.2308 0.0000
0.1772 0.2564 0.0000
0.1772 0.2821 0.0000
0.1772 0.3077 0.0000
0.1772 0.3333 0.0000
0.1772 0.3590 0.0000
0.1772 0.3846 0.0000
0.1772 0.4103 0.0000
0.1772 0.4359 0.0000
0.1772 0.4615 0.0000
0.1772 0.4872 0.0000
0.1772 0.5128 0.0000
0.1772 0.5385 0.0000
0.1772 0.5641 0.0000
0.1772 0.5897 0.0000
0.1772 0.6154 0.0000
0.1772 0.6410 0.0000
0.1772 0.6667 0.0000
0.1772 0.6923 0.0000
0.1772 0.7179 0.0000
0.1772 0.7436 0.0000
0.1772 0.7692 0.0000
0.1772 0.7949 0.0000
0.1772 0.8205 0.0000
0.1772 0.8462 0.0000
0.1772 0.8718 0.0000
0.1772 0.8974 0.0000
0.1772 0.9231 0.0000
0.1772 0.9487 0.0000
0.1772 0.9744 0.0000
0.1772 1.0000 0.0000
0.2025 0.0000 0.0000
0.2025 0.0256 0.0000
0.2025 0.0513 0.0000
0.2025 0.0769 0.0000
0.2025 0.1026 0.0000
0.2025 0.1282 0.0000
0.2025 0.1538 0.0000
0.2025 0.1795 0.0000
0.2025 0.2051 0.0000
0.2025 0.2308 0.0000
0.2025 0.2564 0.0000
0.2025 0.2821 0.0000
0.2025 0.3077 0.0000
0.2025 0.3333 0.0000
0.2025 0.3590 0.0000
0.2025 0.3846 0.0000
0.2025 0.4103 0.0000
0.2025 0.4359 0.0000
0.2025 0.4615 0.0000
0.2025 0.4872 0.0000
0.2025 0.5128 0.0000
0.2025 0.5385 0.0000
0.2025 0.5641 0.0000
0.2025 0.5897 0.0000
0.2025 0.6154 0.0000
0.2025 0.6410 0.0000
0.2025 0.6667 0.0000
0.2025 0.6923 0.0000
0.2025 0.7179 0.0000
0.2025 0.7436 0.0000
0.2025 0.7692 0.0000
0.2025 0.7949 0.0000
0.2025 0.8205 0.0000
0.2025 0.8462 0.0000
0.2025 0.8718 0.0000
0.2025 0.8974 0.0000
0.2025 0.9231 0.0000
0.2025 0.9487 0.0000
0.2025 0.9744 0.0000
0.2025 1.0000 0.0000
0.2278 0.0000 0.0000
0.2278 0.0256 0.0000
0.2278 0.0513 0.0000
0.2278 0.0769 0.0000
0.2278 0.1026 0.0000
0.2278 0.1282 0.0000
0.2278 0.1538 0.0000
0.2278 0.1795 0.0000
0.2278 0.2051 0.0000
0.2278 0.2308 0.0000
0.2278 0.2564 0.0000
0.2278 0.2821 0.0000
0.2278 0.3077 0.0000
0.2278 0.3333 0.0000
0.2278 0.3590 0.0000
0.2278 0.3846 0.0000
0.2278 0.4103 0.0000
0.2278 0.4359 0.0000
0.2278 0.4615 0.0000
0.2278 0.4872 0.0000
0.2278 0.5128 0.0000
0.2278 0.5385 0.0000
0.2278 0.5641 0.0000
0.2278 0.5897 0.0000
0.2278 0.6154 0.0000
0.2278 0.6410 0.0000
0.2278 0.6667 0.0000
0.2278 0.6923 0.0000
0.2278 0.7179 0.0000
0.2278 0.7436 0.0000
0.2278 0.7692 0.0000
0.2278 0.7949 0.0000
0.2278 0.8205 0.0000
0.2278 0.8462 0.0000
0.2278 0.8718 0.0000
0.2278 0.8974 0.0000
0.2278 0.9231 0.0000
0.2278 0.9487 0.0000
0.2278 0.9744 0.0000
0.2278 1.0000 0.0000
0.2532 0.0000 0.0000
0.2532 0.0256 0.0000
0.2532 0.0513 0.0000
0.2532 0.0769 0.0000
0.2532 0.1026 0.0000
0.2532 0.1282 0.0000
0.2532 0.1538 0.0000
0.2532 0.1795 0.0000
0.2532 0.2051 0.0000
0.2532 0.2308 0.0000
0.2532 0.2564 0.0000
0.2532 0.2821 0.0000
0.2532 0.3077 0.0000
0.2532 0.3333 0.0000
0.2532 0.3590 0.0000
0.2532 0.3846 0.0000
0.2532 0.4103 0.0000
0.2532 0.4359 0.0000
0.2532 0.4615 0.0000
0.2532 0.4872 0.0000
0.2532 0.5128 0.0000
0.2532 0.5385 0.0000
0.2532 0.5641 0.0000
0.2532 0.5897 0.0000
0.2532 0.6154 0.0000
0.2532 0.6410 0.0000
0.2532 0.6667 0.0000
0.2532 0.6923 0.0000
0.2532 0.7179 0.0000
0.2532 0.7436 0.0000
0.2532 0.7692 0.0000
0.2532 0.7949 0.0000
0.2532 0.8205 0.0000
0.2532 0.8462 0.0000
0.2532 0.8718 0.0000
0.2532 0.8974 0.0000
0.2532 0.9231 0.0000
0.2532 0.9487 0.0000
0.2532 0.9744 0.0000
0.2532 1.0000 0.0000
0.2785 0.0000 0.0000
0.2785 0.0256 0.0000
0.2785 0.0513 0.0000
0.2785 0.0769 0.0000
0.2785 0.1026 0.0000
0.2785 0.1282 0.0000
0.2785 0.1538 0.0000
0.2785 0.1795 0.0000
0.2785 0.2051 0.0000
0.2785 0.2308 0.0000
0.2785 0.2564 0.0000
0.2785 0.2821 0.0000
0.2785 0.3077 0.0000
0.2785 0.3333 0.0000
0.2785 0.3590 0.0000
0.2785 0.3846 0.0000
0.2785 0.4103 0.0000
0.2785 0.4359 0.0000
0.2785 0.4615 0.0000
0.2785 0.4872 0.0000
0.2785 0.5128 0.0000
0.2785 0.5385 0.0000
0.2785 0.5641 0.0000
0.2785 0.5897 0.0000
0.2785 0.6154 0.0000
0.2785 0.6410 0.0000
0.2785 0.6667 0.0000
0.2785 0.6923 0.0000
0.2785 0.7179 0.0000
0.2785 0.7436 0.0000
0.2785 0.7692 0.0000
0.2785 0.7949 0.0000
0.2785 0.8205 0.0000
0.2785 0.8462 0.0000
0.2785 0.8718 0.0000
0.2785 0.8974 0.0000
0.2785 0.9231 0.0000
0.2785 0.9487 0.0000
0.2785 0.9744 0.0000
0.2785 1.0000 0.0000
0.3038 0.0000 0.0000
0.3038 0.0256 0.0000
0.3038 0.0513 0.0000
0.3038 0.0769 0.0000
0.3038 0.1026 0.0000
0.3038 0.1282 0.0000
0.3038 0.1538 0.0000
0.3038 0.1795 0.0000
0.3038 0.2051 0.0000
0.3038 0.2308 0.0000
0.3038 0.2564 0.0000
0.3038 0.2821 0.0000
0.3038 0.3077 0.0000
0.3038 0.3333 0.0000
0.3038 0.3590 0.0000
0.3038 0.3846 0.0000
0.3038 0.4103 0.0000
0.3038 0.4359 0.0000
0.3038 0.4615 0.0000
0.3038 0.4872 0.0000
0.3038 0.5128 0.0000
0.3038 0.5385 0.0000
0.3038 0.5641 0.0000
0.3038 0.5897 0.0000
0.3038 0.6154 0.0000
0.3038 0.6410 0.0000
0.3038 0.6667 0.0000
0.3038 0.6923 0.0000
0.3038 0.7179 0.0000
0.3038 0.7436 0.0000
0.3038 0.7692 0.0000
0.3038 0.7949 0.0000
0.3038 0.8205 0.0000
0.3038 0.8462 0.0000
0.3038 0.8718 0.0000
0.3038 0.8974 0.0000
0.3038 0.9231 0.0000
0.3038 0.9487 0.0000
0.3038 0.9744 0.0000
0.3038 1.0000 0.0000
0.3291 0.0000 0.0000
0.3291 0.0256 0.0000
0.3291 0.0513 0.0000
0.3291 0.0769 0.0000
0.3291 0.1026 0.0000
0.3291 0.1282 0.0000
0.3291 0.1538 0.0000
0.3291 0.1795 0.0000
0.3291 0.2051 0.0000
0.3291 0.2308 0.0000
0.3291 0.2564 0.0000
0.3291 0.2821 0.0000
0.3291 0.3077 0.0000
0.3291 0.3333 0.0000
0.3291 0.3590 0.0000
0.3291 0.3846 0.0000
0.3291 0.4103 0.0000
0.3291 0.4359 0.0000
0.3291 0.4615 0.0000
0.3291 0.4872 0.0000
0.3291 0.5128 0.0000
0.3291 0.5385 0.0000
0.3291 0.5641 0.0000
0.3291 0.5897 0.0000
0.3291 0.6154 0.0000
0.3291 0.6410 0.0000
0.3291 0.6667 0.0000
0.3291 0.6923 0.0000
0.3291 0.7179 0.0000
0.3291 0.7436 0.0000
0.3291 0.7692 0.0000
0.3291 0.7949 0.0000
0.3291 0.8205 0.0000
0.3291 0.8462 0.0000
0.3291 0.8718 0.0000
0.3291 0.8974 0.0000
0.3291 0.9231 0.0000
0.3291 0.9487 0.0000
0.3291 0.9744 0.0000
0.3291 1.0000 0.0000
0.3544 0.0000 0.0000
0.3544 0.0256 0.0000
0.3544 0.0513 0.0000
0.3544 0.0769 0.0000
0.3544 0.1026 0.0000
0.3544 0.1282 0.0000
0.3544 0.1538 0.0000
0.3544 0.1795 0.0000
0.3544 0.2051 0.0000
0.3544 0.2308 0.0000
0.3544 0.2564 0.0000
0.3544 0.2821 0.0000
0.3544 0.3077 0.0000
0.3544 0.3333 0.0000
0.3544 0.3590 0.0000
0.3544 0.3846 0.0000
0.3544 0.4103 0.0000
0.3544 0.4359 0.0000
0.3544 0.4615 0.0000
0.3544 0.4872 0.0000
0.3544 0.5128 0.0000
0.3544 0.5385 0.0000
0.3544 0.5641 0.0000
0.3544 0.5897 0.0000
0.3544 0.6154 0.0000
0.3544 0.6410 0.0000
0.3544 0.6667 0.0000
0.3544 0.6923 0.0000
0.3544 0.7179 0.0000
0.3544 0.7436 0.0000
0.3544 0.7692 0.0000
0.3544 0.7949 0.0000
0.3544 0.8205 0.0000
0.3544 0.8462 0.0000
0.3544 0.8718 0.0000
0.3544 0.8974 0.0000
0.3544 0.9231 0.0000
0.3544 0.9487 0.0000
0.3544 0.9744 0.0000
0.3544 1.0000 0.0000
0.3797 0.0000 0.0000
0.3797 0.0256 0.0000
0.3797 0.0513 0.0000
0.3797 0.0769 0.0000
0.3797 0.1026 0.0000
0.3797 0.1282 0.0000
0.3797 0.1538 0.0000
0.3797 0.1795 0.0000
0.3797 0.2051 0.0000
0.3797 0.2308 0.0000
0.3797 0.2564 0.0000
0.3797 0.2821 0.0000
0.3797 0.3077 0.0000
0.3797 0.3333 0.0000
0.3797 0.3590 0.0000
0.3797 0.3846 0.0000
0.3797 0.4103 0.0000
0.3797 0.4359 0.0000
0.3797 0.4615 0.0000
0.3797 0.4872 0.0000
0.3797 0.5128 0.0000
0.3797 0.5385 0.0000
0.3797 0.5641 0.0000
0.3797 0.5897 0.0000
0.3797 0.6154 0.0000
0.3797 0.6410 0.0000
0.3797 0.6667 0.0000
0.3797 0.6923 0.0000
0.3797 0.7179 0.0000
0.3797 0.7436 0.0000
0.3797 0.7692 0.0000
0.3797 0.7949 0.0000
0.3797 0.8205 0.0000
0.3797 0.8462 0.0000
0.3797 0.8718 0.0000
0.3797 0.8974 0.0000
0.3797 0.9231 0.0000
0.3797 0.9487 0.0000
0.3797 0.9744 0.0000
0.3797 1.0000 0.0000
0.4051 0.0000 0.0000
0.4051 0.0256 0.0000
0.4051 0.0513 0.0000
0.4051 0.0769 0.0000
0.4051 0.1026 0.0000
0.4051 0.1282 0.0000
0.4051 0.1538 0.0000
0.4051 0.1795 0.0000
0.4051 0.2051 0.0000
0.4051 0.2308 0.0000
0.4051 0.2564 0.0000
0.4051 0.2821 0.0000
0.4051 0.3077 0.0000
0.4051 0.3333 0.0000
0.4051 0.3590 0.0000
0.4051 0.3846 0.0000
0.4051 0.4103 0.0000
0.4051 0.4359 0.0000
0.4051 0.4615 0.0000
0.4051 0.4872 0.0000
0.4051 0.5128 0.0000
0.4051 0.5385 0.0000
0.4051 0.5641 0.0000
0.4051 0.5897 0.0000
0.4051 0.6154 0.0000
0.4051 0.6410 0.0000
0.4051 0.6667 0.0000
0.4051 0.6923 0.0000
0.4051 0.7179 0.0000
0.4051 0.7436 0.0000
0.4051 0.7692 0.0000
0.4051 0.7949 0.0000
0.4051 0.8205 0.0000
0.4051 0.8462 0.0000
0.4051 0.8718 0.0000
0.4051 0.8974 0.0000
0.4051 0.9231 0.0000
0.4051 0.9487 0.0000
0.4051 0.9744 0.0000
0.4051 1.0000 0.0000
0.4304 0.0000 0.0000
0.4304 0.0256 0.0000
0.4304 0.0513 0.0000
0.4304 0.0769 0.0000
0.4304 0.1026 0.0000
0.4304 0.1282 0.0000
0.4304 0.1538 0.0000
0.4304 0.1795 0.0000
0.4304 0.2051 0.0000
0.4304 0.2308 0.0000
0.4304 0.2564 0.0000
0.4304 0.2821 0.0000
0.4304 0.3077 0.0000
0.4304 0.3333 0.0000
0.4304 0.3590 0.0000
0.4304 0.3846 0.0000
0.4304 0.4103 0.0000
0.4304 0.4359 0.0000
0.4304 0.4615 0.0000
0.4304 0.4872 0.0000
0.4304 0.5128 0.0000
0.4304 0.5385 0.0000
0.4304 0.5641 0.0000
0.4304 0.5897 0.0000
0.4304 0.6154 0.0000
0.4304 0.6410 0.0000
0.4304 0.6667 0.0000
0.4304 0.6923 0.0000
0.4304 0.7179 0.0000
0.4304 0.7436 0.0000
0.4304 0.7692 0.0000
0.4304 0.7949 0.0000
0.4304 0.8205 0.0000
0.4304 0.8462 0.0000
0.4304 0.8718 0.0000
0.4304 0.8974 0.0000
0.4304 0.9231 0.0000
0.4304 0.9487 0.0000
0.4304 0.9744 0.0000
0.4304 1.0000 0.0000
0.4557 0.0000 0.0000
0.4557 0.0256 0.0000
0.4557 0.0513 0.0000
0.4557 0.0769 0.0000
0.4557 0.1026 0.0000
0.4557 0.1282 0.0000
0.4557 0.1538 0.0000
0.4557 0.1795 0.0000
0.4557 0.2051 0.0000
0.4557 0.2308 0.0000
0.4557 0.2564 0.0000
0.4557 0.2821 0.0000
0.4557 0.3077 0.0000
0.4557 0.3333 0.0000
0.4557 0.3590 0.0000
0.4557 0.3846 0.0000
0.4557 0.4103 0.0000
0.4557 0.4359 0.0000
0.4557 0.4615 0.0000
0.4557 0.4872 0.0000
0.4557 0.5128 0.0000
0.4557 0.5385 0.0000
0.4557 0.5641 0.0000
0.4557 0.5897 0.0000
0.4557 0.6154 0.0000
0.4557 0.6410 0.0000
0.4557 0.6667 0.0000
0.4557 0.6923 0.0000
0.4557 0.7179 0.0000
0.4557 0.7436 0.0000
0.4557 0.7692 0.0000
0.4557 0.7949 0.0000
0.4557 0.8205 0.0000
0.4557 0.8462 0.0000
0.4557 0.8718 0.0000
0.4557 0.8974 0.0000
0.4557 0.9231 0.0000
0.4557 0.9487 0.0000
0.4557 0.9744 0.0000
0.4557 1.0000 0.0000
0.4810 0.0000 0.0000
0.4810 0.0256 0.0000
0.4810 0.0513 0.0000
0.4810 0.0769 0.0000
0.4810 0.1026 0.0000
0.4810 0.1282 0.0000
0.4810 0.1538 0.0000
0.4810 0.1795 0.0000
0.4810 0.2051 0.0000
0.4810 0.2308 0.0000
0.4810 0.2564 0.0000
0.4810 0.2821 0.0000
0.4810 0.3077 0.0000
0.4810 0.3333 0.0000
0.4810 0.3590 0.0000
0.4810 0.3846 0.0000
0.4810 0.4103 0.0000
0.4810 0.4359 0.0000
0.4810 0.4615 0.0000
0.4810 0.4872 0.0000
0.4810 0.5128 0.0000
0.4810 0.5385 0.0000
0.4810 0.5641 0.0000
0.4810 0.5897 0.0000
0.4810 0.6154 0.0000
0.4810 0.6410 0.0000
0.4810 0.6667 0.0000
0.4810 0.6923 0.0000
0.4810 0.7179 0.0000
0.4810 0.7436 0.0000
0.4810 0.7692 0.0000
0.4810 0.7949 0.0000
0.4810 0.8205 0.0000
0.4810 0.8462 0.0000
0.4810 0.8718 0.0000
0.4810 0.8974 0.0000
0.4810 0.9231 0.0000
0.4810 0.9487 0.0000
0.4810 0.9744 0.0000
0.4810 1.0000 0.0000
0.5063 0.0000 0.0000
0.5063 0.0256 0.0000
0.5063 0.0513 0.0000
0.5063 0.0769 0.0000
0.5063 0.1026 0.0000
0.5063 0.1282 0.0000
0.5063 0.1538 0.0000
0.5063 0.1795 0.0000
0.5063 0.2051 0.0000
0.5063 0.2308 0.0000
0.5063 0.2564 0.0000
0.5063 0.2821 0.0000
0.5063 0.3077 0.0000
0.5063 0.3333 0.0000
0.5063 0.3590 0.0000
0.5063 0.3846 0.0000
0.5063 0.4103 0.0000
0.5063 0.4359 0.0000
0.5063 0.4615 0.0000
0.5063 0.4872 0.0000
0.5063 0.5128 0.0000
0.5063 0.5385 0.0000
0.5063 0.5641 0.0000
0.5063 0.5897 0.0000
0.5063 0.6154 0.0000
0.5063 0.6410 0.0000
0.5063 0.6667 0.0000
0.5063 0.6923 0.0000
0.5063 0.7179 0.0000
0.5063 0.7436 0.0000
0.5063 0.7692 0.0000
0.5063 0.7949 0.0000
0.5063 0.8205 0.0000
0.5063 0.8462 0.0000
0.5063 0.8718 0.0000
0.5063 0.8974 0.0000
0.5063 0.9231 0.0000
0.5063 0.9487 0.0000
0.5063 0.9744 0.0000
0.5063 1.0000 0.0000
0.5316 0.0000 0.0000
0.5316 0.0256 0.0000
0.5316 0.0513 0.0000
0.5316 0.0769 0.0000
0.5316 0.1026 0.0000
0.5316 0.1282 0.0000
0.5316 0.1538 0.0000
0.5316 0.1795 0.0000
0.5316 0.2051 0.0000
0.5316 0.2308 0.0000
0.5316 0.2564 0.0000
0.5316 0.2821 0.0000
0.5316 0.3077 0.0000
0.5316 0.3333 0.0000
0.5316 0.3590 0.0000
0.5316 0.3846 0.0000
0.5316 0.4103 0.0000
0.5316 0.4359 0.0000
0.5316 0.4615 0.0000
0.5316 0.4872 0.0000
0.5316 0.5128 0.0000
0.5316 0.5385 0.0000
0.5316 0.5641 0.0000
0.5316 0.5897 0.0000
0.5316 0.6154 0.0000
0.5316 0.6410 0.0000
0.5316 0.6667 0.0000
0.5316 0.6923 0.0000
0.5316 0.7179 0.0000
0.5316 0.7436 0.0000
0.5316 0.7692 0.0000
0.5316 0.7949 0.0000
0.5316 0.8205 0.0000
0.5316 0.8462 0.0000
0.5316 0.8718 0.0000
0.5316 0.8974 0.0000
0.5316 0.9231 0.0000
0.5316 0.9487 0.0000
0.5316 0.9744 0.0000
0.5316 1.0000 0.0000
0.5570 0.0000 0.0000
0.5570 0.0256 0.0000
0.5570 0.0513 0.0000
0.5570 0.0769 0.0000
0.5570 0.1026 0.0000
0.5570 0.1282 0.0000
0.5570 0.1538 0.0000
0.5570 0.1795 0.0000
0.5570 0.2051 0.0000
0.5570 0.2308 0.0000
0.5570 0.2564 0.0000
0.5570 0.2821 0.0000
0.5570 0.3077 0.0000
0.5570 0.3333 0.0000
0.5570 0.3590 0.0000
0.5570 0.3846 0.0000
0.5570 0.4103 0.0000
0.5570 0.4359 0.0000
0.5570 0.4615 0.0000
0.5570 0.4872 0.0000
0.5570 0.5128 0.0000
0.5570 0.5385 0.0000
0.5570 0.5641 0.0000
0.5570 0.5897 0.0000
0.5570 0.6154 0.0000
0.5570 0.6410 0.0000
0.5570 0.6667 0.0000
0.5570 0.6923 0.0000
0.5570 0.7179 0.0000
0.5570 0.7436 0.0000
0.5570 0.7692 0.0000
0.5570 0.7949 0.0000
0.5570 0.8205 0.0000
0.5570 0.8462 0.0000
0.5570 0.8718 0.0000
0.5570 0.8974 0.0000
0.5570 0.9231 0.0000
0.5570 0.9487 0.0000
0.5570 0.9744 0.0000
0.5570 1.0000 0.0000
0.5823 0.0000 0.0000
0.5823 0.0256 0.0000
0.5823 0.0513 0.0000
0.5823 0.0769 0.0000
0.5823 0.1026 0.0000
0.5823 0.1282 0.0000
0.5823 0.1538 0.0000
0.5823 0.1795 0.0000
0.5823 0.2051 0.0000
0.5823 0.2308 0.0000
0.5823 0.2564 0.0000
0.5823 0.2821 0.0000
0.5823 0.3077 0.0000
0.5823 0.3333 0.0000
0.5823 0.3590 0.0000
0.5823 0.3846 0.0000
0.5823 0.4103 0.0000
0.5823 0.4359 0.0000
0.5823 0.4615 0.0000
0.5823 0.4872 0.0000
0.5823 0.5128 0.0000
0.5823 0.5385 0.0000
0.5823 0.5641 0.0000
0.5823 0.5897 0.0000
0.5823 0.6154 0.0000
0.5823 0.6410 0.0000
0.5823 0.6667 0.0000
0.5823 0.6923 0.0000
0.5823 0.7179 0.0000
0.5823 0.7436 0.0000
0.5823 0.7692 0.0000
0.5823 0.7949 0.0000
0.5823 0.8205 0.0000
0.5823 0.8462 0.0000
0.5823 0.8718 0.0000
0.5823 0.8974 0.0000
0.5823 0.9231 0.0000
0.5823 0.9487 0.0000
0.5823 0.9744 0.0000
0.5823 1.0000 0.0000
0.6076 0.0000 0.0000
0.6076 0.0256 0.0000
0.6076 0.0513 0.0000
0.6076 0.0769 0.0000
0.6076 0.1026 0.0000
0.6076 0.1282 0.0000
0.6076 0.1538 0.0000
0.6076 0.1795 0.0000
0.6076 0.2051 0.0000
0.6076 0.2308 0.0000
0.6076 0.2564 0.0000
0.6076 0.2821 0.0000
0.6076 0.3077 0.0000
0.6076 0.3333 0.0000
0.6076 0.3590 0.0000
0.6076 0.3846 0.0000
0.6076 0.4103 0.0000
0.6076 0.4359 0.0000
0.6076 0.4615 0.0000
0.6076 0.4872 0.0000
0.6076 0.5128 0.0000
0.6076 0.5385 0.0000
0.6076 0.5641 0.0000
0.6076 0.5897 0.0000
0.6076 0.6154 0.0000
0.6076 0.6410 0.0000
0.6076 0.6667 0.0000
0.6076 0.6923 0.0000
0.6076 0.7179 0.0000
0.6076 0.7436 0.0000
0.6076 0.7692 0.0000
0.6076 0.7949 0.0000
0.6076 0.8205 0.0000
0.6076 0.8462 0.0000
0.6076 0.8718 0.0000
0.6076 0.8974 0.0000
0.6076 0.9231 0.0000
0.6076 0.9487 0.0000
0.6076 0.9744 0.0000
0.6076 1.0000 0.0000
0.6329 0.0000 0.0000
0.6329 0.0256 0.0000
0.6329 0.0513 0.0000
0.6329 0.0769 0.0000
0.6329 0.1026 0.0000
0.6329 0.1282 0.0000
0.6329 0.1538 0.0000
0.6329 0.1795 0.0000
0.6329 0.2051 0.0000
0.6329 0.2308 0.0000
0.6329 0.2564 0.0000
0.6329 0.2821 0.0000
0.6329 0.3077 0.0000
0.6329 0.3333 0.0000
0.6329 0.3590 0.0000
0.6329 0.3846 0.0000
0.6329 0.4103 0.0000
0.6329 0.4359 0.0000
0.6329 0.4615 0.0000
0.6329 0.4872 0.0000
0.6329 0.5128 0.0000
0.6329 0.5385 0.0000
0.6329 0.5641 0.0000
0.6329 0.5897 0.0000
0.6329 0.6154 0.0000
0.6329 0.6410 0.0000
0.6329 0.6667 0.0000
0.6329 0.6923 0.0000
0.6329 0.7179 0.0000
0.6329 0.7436 0.0000
0.6329 0.7692 0.0000
0.6329 0.7949 0.0000
0.6329 0.8205 0.0000
0.6329 0.8462 0.0000
0.6329 0.8718 0.0000
0.6329 0.8974 0.0000
0.6329 0.9231 0.0000
0.6329 0.9487 0.0000
0.6329 0.9744 0.0000
0.6329 1.0000 0.0000
0.6582 0.0000 0.0000
0.6582 0.0256 0.0000
0.6582 0.0513 0.0000
0.6582 0.0769 0.0000
0.6582 0.1026 0.0000
0.6582 0.1282 0.0000
0.6582 0.1538 0.0000
0.6582 0.1795 0.0000
0.6582 0.2051 0.0000
0.6582 0.2308 0.0000
0.6582 0.2564 0.0000
0.6582 0.2821 0.0000
0.6582 0.3077 0.0000
0.6582 0.3333 0.0000
0.6582 0.3590 0.0000
0.6582 0.3846 0.0000
0.6582 0.4103 0.0000
0.6582 0.4359 0.0000
0.6582 0.4615 0.0000
0.6582 0.4872 0.0000
0.6582 0.5128 0.0000
0.6582 0.5385 0.0000
0.6582 0.5641 0.0000
0.6582 0.5897 0.0000
0.6582 0.6154 0.0000
0.6582 0.6410 0.0000
0.6582 0.6667 0.0000
0.6582 0.6923 0.0000
0.6582 0.7179 0.0000
0.6582 0.7436 0.0000
0.6582 0.7692 0.0000
0.6582 0.7949 0.0000
0.6582 0.8205 0.0000
0.6582 0.8462 0.0000
0.6582 0.8718 0.0000
0.6582 0.8974 0.0000
0.6582 0.9231 0.0000
0.6582 0.9487 0.0000
0.6582 0.9744 0.0000
0.6582 1.0000 0.0000
0.6835 0.0000 0.0000
0.6835 0.0256 0.0000
0.6835 0.0513 0.0000
0.6835 0.0769 0.0000
0.6835 0.1026 0.0000
0.6835 0.1282 0.0000
0.6835 0.1538 0.0000
0.6835 0.1795 0.0000
0.6835 0.2051 0.0000
0.6835 0.2308 0.0000
0.6835 0.2564 0.0000
0.6835 0.2821 0.0000
0.6835 0.3077 0.0000
0.6835 0.3333 0.0000
0.6835 0.3590 0.0000
0.6835 0.3846 0.0000
0.6835 0.4103 0.0000
0.6835 0.4359 0.0000
0.6835 0.4615 0.0000
0.6835 0.4872 0.0000
0.6835 0.5128 0.0000
0.6835 0.5385 0.0000
0.6835 0.5641 0.0000
0.6835 0.5897 0.0000
0.6835 0.6154 0.0000
0.6835 0.6410 0.0000
0.6835 0.6667 0.0000
0.6835 0.6923 0.0000
0.6835 0.7179 0.0000
0.6835 0.7436 0.0000
0.6835 0.7692 0.0000
0.6835 0.7949 0.0000
0.6835 0.8205 0.0000
0.6835 0.8462 0.0000
0.6835 0.8718 0.0000
0.6835 0.8974 0.0000
0.6835 0.9231 0.0000
0.6835 0.9487 0.0000
0.6835 0.9744 0.0000
0.6835 1.0000 0.0000
0.7089 0.0000 0.0000
0.7089 0.0256 0.0000
0.7089 0.0513 0.0000
0.7089 0.0769 0.0000
0.7089 0.1026 0.0000
0.7089 0.1282 0.0000
0.7089 0.1538 0.0000
0.7089 0.1795 0.0000
0.7089 0.2051 0.0000
0.7089 0.2308 0.0000
0.7089 0.2564 0.0000
0.7089 0.2821 0.0000
0.7089 0.3077 0.0000
0.7089 0.3333 0.0000
0.7089 0.3590 0.0000
0.7089 0.3846 0.0000
0.7089 0.4103 0.0000
0.7089 0.4359 0.0000
0.7089 0.4615 0.0000
0.7089 0.4872 0.0000
0.7089 0.5128 0.0000
0.7089 0.5385 0.0000
0.7089 0.5641 0.0000
0.7089 0.5897 0.0000
0.7089 0.6154 0.0000
0.7089 0.6410 0.0000
0.7089 0.6667 0.0000
0.7089 0.6923 0.0000
0.7089 0.7179 0.0000
0.7089 0.7436 0.0000
0.7089 0.7692 0.0000
0.7089 0.7949 0.0000
0.7089 0.8205 0.0000
0.7089 0.8462 0.0000
0.7089 0.8718 0.0000
0.7089 0.8974 0.0000
0.7089 0.9231 0.0000
0.7089 0.9487 0.0000
0.7089 0.9744 0.0000
0.7089 1.0000 0.0000
0.7342 0.0000 0.0000
0.7342 0.0256 0.0000
0.7342 0.0513 0.0000
0.7342 0.0769 0.0000
0.7342 0.1026 0.0000
0.7342 0.1282 0.0000
0.7342 0.1538 0.0000
0.7342 0.1795 0.0000
0.7342 0.2051 0.0000
0.7342 0.2308 0.0000
0.7342 0.2564 0.0000
0.7342 0.2821 0.0000
0.7342 0.3077 0.0000
0.7342 0.3333 0.0000
0.7342 0.3590 0.0000
0.7342 0.3846 0.0000
0.7342 0.4103 0.0000
0.7342 0.4359 0.0000
0.7342 0.4615 0.0000
0.7342 0.4872 0.0000
0.7342 0.5128 0.0000
0.7342 0.5385 0.0000
0.7342 0.5641 0.0000
0.7342 0.5897 0.0000
0.7342 0.6154 0.0000
0.7342 0.6410 0.0000
0.7342 0.6667 0.0000
0.7342 0.6923 0.0000
0.7342 0.7179 0.0000
0.7342 0.7436 0.0000
0.7342 0.7692 0.0000
0.7342 0.7949 0.0000
0.7342 0.8205 0.0000
0.7342 0.8462 0.0000
0.7342 0.8718 0.0000
0.7342 0.8974 0.0000
0.7342 0.9231 0.0000
0.7342 0.9487 0.0000
0.7342 0.9744 0.0000
0.7342 1.0000 0.0000
0.7595 0.0000 0.0000
0.7595 0.0256 0.0000
0.7595 0.0513 0.0000
0.7595 0.0769 0.0000
0.7595 0.1026 0.0000
0.7595 0.1282 0.0000
0.7595 0.1538 0.0000
0.7595 0.1795 0.0000
0.7595 0.2051 0.0000
0.7595 0.2308 0.0000
0.7595 0.2564 0.0000
0.7595 0.2821 0.0000
0.7595 0.3077 0.0000
0.7595 0.3333 0.0000
0.7595 0.3590 0.0000
0.7595 0.3846 0.0000
0.7595 0.4103 0.0000
0.7595 0.4359 0.0000
0.7595 0.4615 0.0000
0.7595 0.4872 0.0000
0.7595 0.5128 0.0000
0.7595 0.5385 0.0000
0.7595 0.5641 0.0000
0.7595 0.5897 0.0000
0.7595 0.6154 0.0000
0.7595 0.6410 0.0000
0.7595 0.6667 0.0000
0.7595 0.6923 0.0000
0.7595 0.7179 0.0000
0.7595 0.7436 0.0000
0.7595 0.7692 0.0000
0.7595 0.7949 0.0000
0.7595 0.8205 0.0000
0.7595 0.8462 0.0000
0.7595 0.8718 0.0000
0.7595 0.8974 0.0000
0.7595 0.9231 0.0000
0.7595 0.9487 0.0000
0.7595 0.9744 0.0000
0.7595 1.0000 0.0000
0.7848 0.0000 0.0000
0.7848 0.0256 0.0000
0.7848 0.0513 0.0000
0.7848 0.0769 0.0000
0.7848 0.1026 0.0000
0.7848 0.1282 0.0000
0.7848 0.1538 0.0000
0.7848 0.1795 0.0000
0.7848 0.2051 0.0000
0.7848 0.2308 0.0000
0.7848 0.2564 0.0000
0.7848 0.2821 0.0000
0.7848 0.3077 0.0000
0.7848 0.3333 0.0000
0.7848 0.3590 0.0000
0.7848 0.3846 0.0000
0.7848 0.4103 0.0000
0.7848 0.4359 0.0000
0.7848 0.4615 0.0000
0.7848 0.4872 0.0000
0.7848 0.5128 0.0000
0.7848 0.5385 0.0000
0.7848 0.5641 0.0000
0.7848 0.5897 0.0000
0.7848 0.6154 0.0000
0.7848 0.6410 0.0000
0.7848 0.6667 0.0000
0.7848 0.6923 0.0000
0.7848 0.7179 0.0000
0.7848 0.7436 0.0000
0.7848 0.7692 0.0000
0.7848 0.7949 0.0000
0.7848 0.8205 0.0000
0.7848 0.8462 0.0000
0.7848 0.8718 0.0000
0.7848 0.8974 0.0000
0.7848 0.9231 0.0000
0.7848 0.9487 0.0000
0.7848 0.9744 0.0000
0.7848 1.0000 0.0000
0.8101 0.0000 0.0000
0.8101 0.0256 0.0000
0.8101 0.0513 0.0000
0.8101 0.0769 0.0000
0.8101 0.1026 0.0000
0.8101 0.1282 0.0000
0.8101 0.1538 0.0000
0.8101 0.1795 0.0000
0.8101 0.2051 0.0000
0.8101 0.2308 0.0000
0.8101 0.2564 0.0000
0.8101 0.2821 0.0000
0.8101 0.3077 0.0000
0.8101 0.3333 0.0000
0.8101 0.3590 0.0000
0.8101 0.3846 0.0000
0.8101 0.4103 0.0000
0.8101 0.4359 0.0000
0.8101 0.4615 0.0000
0.8101 0.4872 0.0000
0.8101 0.5128 0.0000
0.8101 0.5385 0.0000
0.8101 0.5641 0.0000
0.8101 0.5897 0.0000
0.8101 0.6154 0.0000
0.8101 0.6410 0.0000
0.8101 0.6667 0.0000
0.8101 0.6923 0.0000
0.8101 0.7179 0.0000
0.8101 0.7436 0.0000
0.8101 0.7692 0.0000
0.8101 0.7949 0.0000
0.8101 0.8205 0.0000
0.8101 0.8462 0.0000
0.8101 0.8718 0.0000
0.8101 0.8974 0.0000
0.8101 0.9231 0.0000
0.8101 0.9487 0.0000
0.8101 0.9744 0.0000
0.8101 1.0000 0.0000
0.8354 0.0000 0.0000
0.8354 0.0256 0.0000
0.8354 0.0513 0.0000
0.8354 0.0769 0.0000
0.8354 0.1026 0.0000
0.8354 0.1282 0.0000
0.8354 0.1538 0.0000
0.8354 0.1795 0.0000
0.8354 0.2051 0.0000
0.8354 0.2308 0.0000
0.8354 0.2564 0.0000
0.8354 0.2821 0.0000
0.8354 0.3077 0.0000
0.8354 0.3333 0.0000
0.8354 0.3590 0.0000
0.8354 0.3846 0.0000
0.8354 0.4103 0.0000
0.8354 0.4359 0.0000
0.8354 0.4615 0.0000
0.8354 0.4872 0.0000
0.8354 0.5128 0.0000
0.8354 0.5385 0.0000
0.8354 0.5641 0.0000
0.8354 0.5897 0.0000
0.8354 0.6154 0.0000
0.8354 0.6410 0.0000
0.8354 0.6667 0.0000
0.8354 0.6923 0.0000
0.8354 0.7179 0.0000
0.8354 0.7436 0.0000
0.8354 0.7692 0.0000
0.8354 0.7949 0.0000
0.8354 0.8205 0.0000
0.8354 0.8462 0.0000
0.8354 0.8718 0.0000
0.8354 0.8974 0.0000
0.8354 0.9231 0.0000
0.8354 0.9487 0.0000
0.8354 0.9744 0.0000
0.8354 1.0000 0.0000
0.8608 0.0000 0.0000
0.8608 0.0256 0.0000
0.8608 0.0513 0.0000
0.8608 0.0769 0.0000
0.8608 0.1026 0.0000
0.8608 0.1282 0.0000
0.8608 0.1538 0.0000
0.8608 0.1795 0.0000
0.8608 0.2051 0.0000
0.8608 0.2308 0.0000
0.8608 0.2564 0.0000
0.8608 0.2821 0.0000
0.8608 0.3077 0.0000
0.8608 0.3333 0.0000
0.8608 0.3590 0.0000
0.8608 0.3846 0.0000
0.8608 0.4103 0.0000
0.8608 0.4359 0.0000
0.8608 0.4615 0.0000
0.8608 0.4872 0.0000
0.8608 0.5128 0.0000
0.8608 0.5385 0.0000
0.8608 0.5641 0.0000
0.8608 0.5897 0.0000
0.8608 0.6154 0.0000
0.8608 0.6410 0.0000
0.8608 0.6667 0.0000
0.8608 0.6923 0.0000
0.8608 0.7179 0.0000
0.8608 0.7436 0.0000
0.8608 0.7692 0.0000
0.8608 0.7949 0.0000
0.8608 0.8205 0.0000
0.8608 0.8462 0.0000
0.8608 0.8718 0.0000
0.8608 0.8974 0.0000
0.8608 0.9231 0.0000
0.8608 0.9487 0.0000
0.8608 0.9744 0.0000
0.8608 1.0000 0.0000
0.8861 0.0000 0.0000
0.8861 0.0256 0.0000
0.8861 0.0513 0.0000
0.8861 0.0769 0.0000
0.8861 0.1026 0.0000
0.8861 0.1282 0.0000
0.8861 0.1538 0.0000
0.8861 0.1795 0.0000
0.8861 0.2051 0.0000
0.8861 0.2308 0.0000
0.8861 0.2564 0.0000
0.8861 0.2821 0.0000
0.8861 0.3077 0.0000
0.8861 0.3333 0.0000
0.8861 0.3590 0.0000
0.8861 0.3846 0.0000
0.8861 0.4103 0.0000
0.8861 0.4359 0.0000
0.8861 0.4615 0.0000
0.8861 0.4872 0.0000
0.8861 0.5128 0.0000
0.8861 0.5385 0.0000
0.8861 0.5641 0.0000
0.8861 0.5897 0.0000
0.8861 0.6154 0.0000
0.8861 0.6410 0.0000
0.8861 0.6667 0.0000
0.8861 0.6923 0.0000
0.8861 0.7179 0.0000
0.8861 0.7436 0.0000
0.8861 0.7692 0.0000
0.8861 0.7949 0.0000
0.8861 0.8205 0.0000
0.8861 0.8462 0.0000
0.8861 0.8718 0.0000
0.8861 0.8974 0.0000
0.8861 0.9231 0.0000
0.8861 0.9487 0.0000
0.8861 0.9744 0.0000
0.8861 1.0000 0.0000
0.9114 0.0000 0.0000
0.9114 0.0256 0.0000
0.9114 0.0513 0.0000
0.9114 0.0769 0.0000
0.9114 0.1026 0.0000
0.9114 0.1282 0.0000
0.9114 0.1538 0.0000
0.9114 0.1795 0.0000
0.9114 0.2051 0.0000
0.9114 0.2308 0.0000
0.9114 0.2564 0.0000
0.9114 0.2821 0.0000
0.9114 0.3077 0.0000
0.9114 0.3333 0.0000
0.9114 0.3590 0.0000
0.9114 0.3846 0.0000
0.9114 0.4103 0.0000
0.9114 0.4359 0.0000
0.9114 0.4615 0.0000
0.9114 0.4872 0.0000
0.9114 0.5128 0.0000
0.9114 0.5385 0.0000
0.9114 0.5641 0.0000
0.9114 0.5897 0.0000
0.9114 0.6154 0.0000
0.9114 0.6410 0.0000
0.9114 0.6667 0.0000
0.9114 0.6923 0.0000
0.9114 0.7179 0.0000
0.9114 0.7436 0.0000
0.9114 0.7692 0.0000
0.9114 0.7949 0.0000
0.9114 0.8205 0.0000
0.9114 0.8462 0.0000
0.9114 0.8718 0.0000
0.9114 0.8974 0.0000
0.9114 0.9231 0.0000
0.9114 0.9487 0.0000
0.9114 0.9744 0.0000
0.9114 1.0000 0.0000
0.9367 0.0000 0.0000
0.9367 0.0256 0.0000
0.9367 0.0513 0.0000
0.9367 0.0769 0.0000
0.9367 0.1026 0.0000
0.9367 0.1282 0.0000
0.9367 0.1538 0.0000
0.9367 0.1795 0.0000
0.9367 0.2051 0.0000
0.9367 0.2308 0.0000
0.9367 0.2564 0.0000
0.9367 0.2821 0.0000
0.9367 0.3077 0.0000
0.9367 0.3333 0.0000
0.9367 0.3590 0.0000
0.9367 0.3846 0.0000
0.9367 0.4103 0.0000
0.9367 0.4359 0.0000
0.9367 0.4615 0.0000
0.9367 0.4872 0.0000
0.9367 0.5128 0.0000
0.9367 0.5385 0.0000
0.9367 0.5641 0.0000
0.9367 0.5897 0.0000
0.9367 0.6154 0.0000
0.9367 0.6410 0.0000
0.9367 0.6667 0.0000
0.9367 0.6923 0.0000
0.9367 0.7179 0.0000
0.9367 0.7436 0.0000
0.9367 0.7692 0.0000
0.9367 0.7949 0.0000
0.9367 0.8205 0.0000
0.9367 0.8462 0.0000
0.9367 0.8718 0.0000
0.9367 0.8974 0.0000
0.9367 0.9231 0.0000
0.9367 0.9487 0.0000
0.9367 0.9744 0.0000
0.9367 1.0000 0.0000
0.9620 0.0000 0.0000
0.9620 0.0256 0.0000
0.9620 0.0513 0.0000
0.9620 0.0769 0.0000
0.9620 0.1026 0.0000
0.9620 0.1282 0.0000
0.9620 0.1538 0.0000
0.9620 0.1795 0.0000
0.9620 0.2051 0.0000
0.9620 0.2308 0.0000
0.9620 0.2564 0.0000
0.9620 0.2821 0.0000
0.9620 0.3077 0.0000
0.9620 0.3333 0.0000
0.9620 0.3590 0.0000
0.9620 0.3846 0.0000
0.9620 0.4103 0.0000
0.9620 0.4359 0.0000
0.9620 0.4615 0.0000
0.9620 0.4872 0.0000
0.9620 0.5128 0.0000
0.9620 0.5385 0.0000
0.9620 0.5641 0.0000
0.9620 0.5897 0.0000
0.9620 0.6154 0.0000
0.9620 0.6410 0.0000
0.9620 0.6667 0.0000
0.9620 0.6923 0.0000
0.9620 0.7179 0.0000
0.9620 0.7436 0.0000
0.9620 0.7692 0.0000
0.9620 0.7949 0.0000
0.9620 0.8205 0.0000
0.9620 0.8462 0.0000
0.9620 0.8718 0.0000
0.9620 0.8974 0.0000
0.9620 0.9231 0.0000
0.9620 0.9487 0.0000
0.9620 0.9744 0.0000
0.9620 1.0000 0.0000
0.9873 0.0000 0.0000
0.9873 0.0256 0.0000
0.9873 0.0513 0.0000
0.9873 0.0769 0.0000
0.9873 0.1026 0.0000
0.9873 0.1282 0.0000
0.9873 0.1538 0.0000
0.9873 0.1795 0.0000
0.9873 0.2051 0.0000
0.9873 0.2308 0.0000
0.9873 0.2564 0.0000
0.9873 0.2821 0.0000
0.9873 0.3077 0.0000
0.9873 0.3333 0.0000
0.9873 0.3590 0.0000
0.9873 0.3846 0.0000
0.9873 0.4103 0.0000
0.9873 0.4359 0.0000
0.9873 0.4615 0.0000
0.9873 0.4872 0.0000
0.9873 0.5128 0.0000
0.9873 0.5385 0.0000
0.9873 0.5641 0.0000
0.9873 0.5897 0.0000
0.9873 0.6154 0.0000
0.9873 0.6410 0.0000
0.9873 0.6667 0.0000
0.9873 0.6923 0.0000
0.9873 0.7179 0.0000
0.9873 0.7436 0.0000
0.9873 0.7692 0.0000
0.9873 0.7949 0.0000
0.9873 0.8205 0.0000
0.9873 0.8462 0.0000
0.9873 0.8718 0.0000
0.9873 0.8974 0.0000
0.9873 0.9231 0.0000
0.9873 0.9487 0.0000
0.9873 0.9744 0.0000
0.9873 1.0000 0.0000
1.0127 0.0000 0.0000
1.0127 0.0256 0.0000
1.0127 0.0513 0.0000
1.0127 0.0769 0.0000
1.0127 0.1026 0.0000
1.0127 0.1282 0.0000
1.0127 0.1538 0.0000
1.0127 0.1795 0.0000
1.0127 0.2051 0.0000
1.0127 0.2308 0.0000
1.0127 0.2564 0.0000
1.0127 0.2821 0.0000
1.0127 0.3077 0.0000
1.0127 0.3333 0.0000
1.0127 0.3590 0.0000
1.0127 0.3846 0.0000
1.0127 0.4103 0.0000
1.0127 0.4359 0.0000
1.0127 0.4615 0.0000
1.0127 0.4872 0.0000
1.0127 0.5128 0.0000
1.0127 0.5385 0.0000
1.0127 0.5641 0.0000
1.0127 0.5897 0.0000
1.0127 0.6154 0.0000
1.0127 0.6410 0.0000
1.0127 0.6667 0.0000
1.0127 0.6923 0.0000
1.0127 0.7179 0.0000
1.0127 0.7436 0.0000
1.0127 0.7692 0.0000
1.0127 0.7949 0.0000
1.0127 0.8205 0.0000
1.0127 0.8462 0.0000
1.0127 0.8718 0.0000
1.0127 0.8974 0.0000
1.0127 0.9231 0.0000
1.0127 0.9487 0.0000
1.0127 0.9744 0.0000
1.0127 1.0000 0.0000
1.0380 0.0000 0.0000
1.0380 0.0256 0.0000
1.0380 0.0513 0.0000
1.0380 0.0769 0.0000
1.0380 0.1026 0.0000
1.0380 0.1282 0.0000
1.0380 0.1538 0.0000
1.0380 0.1795 0.0000
1.0380 0.2051 0.0000
1.0380 0.2308 0.0000
1.0380 0.2564 0.0000
1.0380 0.2821 0.0000
1.0380 0.3077 0.0000
1.0380 0.3333 0.0000
1.0380 0.3590 0.0000
1.0380 0.3846 0.0000
1.0380 0.4103 0.0000
1.0380 0.4359 0.0000
1.0380 0.4615 0.0000
1.0380 0.4872 0.0000
1.0380 0.5128 0.0000
1.0380 0.5385 0.0000
1.0380 0.5641 0.0000
1.0380 0.5897 0.0000
1.0380 0.6154 0.0000
1.0380 0.6410 0.0000
1.0380 0.6667 0.0000
1.0380 0.6923 0.0000
1.0380 0.7179 0.0000
1.0380 0.7436 0.0000
1.0380 0.7692 0.0000
1.0380 0.7949 0.0000
1.0380 0.8205 0.0000
1.0380 0.8462 0.0000
1.0380 0.8718 0.0000
1.0380 0.8974 0.0000
1.0380 0.9231 0.0000
1.0380 0.9487 0.0000
1.0380 0.9744 0.0000
1.0380 1.0000 0.0000
1.0633 0.0000 0.0000
1.0633 0.0256 0.0000
1.0633 0.0513 0.0000
1.0633 0.0769 0.0000
1.0633 0.1026 0.0000
1.0633 0.1282 0.0000
1.0633 0.1538 0.0000
1.0633 0.1795 0.0000
1.0633 0.2051 0.0000
1.0633 0.2308 0.0000
1.0633 0.2564 0.0000
1.0633 0.2821 0.0000
1.0633 0.3077 0.0000
1.0633 0.3333 0.0000
1.0633 0.3590 0.0000
1.0633 0.3846 0.0000
1.0633 0.4103 0.0000
1.0633 0.4359 0.0000
1.0633 0.4615 0.0000
1.0633 0.4872 0.0000
1.0633 0.5128 0.0000
1.0633 0.5385 0.0000
1.0633 0.5641 0.0000
1.0633 0.5897 0.0000
1.0633 0.6154 0.0000
1.0633 0.6410 0.0000
1.0633 0.6667 0.0000
1.0633 0.6923 0.0000
1.0633 0.7179 0.0000
1.0633 0.7436 0.0000
1.0633 0.7692 0.0000
1.0633 0.7949 0.0000
1.0633 0.8205 0.0000
1.0633 0.8462 0.0000
1.0633 0.8718 0.0000
1.0633 0.8974 0.0000
1.0633 0.9231 0.0000
1.0633 0.9487 0.0000
1.0633 0.9744 0.0000
1.0633 1.0000 0.0000
1.0886 0.0000 0.0000
1.0886 0.0256 0.0000
1.0886 0.0513 0.0000
1.0886 0.0769 0.0000
1.0886 0.1026 0.0000
1.0886 0.1282 0.0000
1.0886 0.1538 0.0000
1.0886 0.1795 0.0000
1.0886 0.2051 0.0000
1.0886 0.2308 0.0000
1.0886 0.2564 0.0000
1.0886 0.2821 0.0000
1.0886 0.3077 0.0000
1.0886 0.3333 0.0000
1.0886 0.3590 0.0000
1.0886 0.3846 0.0000
1.0886 0.4103 0.0000
1.0886 0.4359 0.0000
1.0886 0.4615 0.0000
1.0886 0.4872 0.0000
1.0886 0.5128 0.0000
1.0886 0.5385 0.0000
1.0886 0.5641 0.0000
1.0886 0.5897 0.0000
1.0886 0.6154 0.0000
1.0886 0.6410 0.0000
1.0886 0.6667 0.0000
1.0886 0.6923 0.0000
1.0886 0.7179 0.0000
1.0886 0.7436 0.0000
1.0886 0.7692 0.0000
1.0886 0.7949 0.0000
1.0886 0.8205 0.0000
1.0886 0.8462 0.0000
1.0886 0.8718 0.0000
1.0886 0.8974 0.0000
1.0886 0.9231 0.0000
1.0886 0.9487 0.0000
1.0886 0.9744 0.0000
1.0886 1.0000 0.0000
1.1139 0.0000 0.0000
1.1139 0.0256 0.0000
1.1139 0.0513 0.0000
1.1139 0.0769 0.0000
1.1139 0.1026 0.0000
1.1139 0.1282 0.0000
1.1139 0.1538 0.0000
1.1139 0.1795 0.0000
1.1139 0.2051 0.0000
1.1139 0.2308 0.0000
1.1139 0.2564 0.0000
1.1139 0.2821 0.0000
1.1139 0.3077 0.0000
1.1139 0.3333 0.0000
1.1139 0.3590 0.0000
1.1139 0.3846 0.0000
1.1139 0.4103 0.0000
1.1139 0.4359 0.0000
1.1139 0.4615 0.0000
1.1139 0.4872 0.0000
1.1139 0.5128 0.0000
1.1139 0.5385 0.0000
1.1139 0.5641 0.0000
1.1139 0.5897 0.0000
1.1139 0.6154 0.0000
1.1139 0.6410 0.0000
1.1139 0.6667 0.0000
1.1139 0.6923 0.0000
1.1139 0.7179 0.0000
1.1139 0.7436 0.0000
1.1139 0.7692 0.0000
1.1139 0.7949 0.0000
1.1139 0.8205 0.0000
1.1139 0.8462 0.0000
1.1139 0.8718 0.0000
1.1139 0.8974 0.0000
1.1139 0.9231 0.0000
1.1139 0.9487 0.0000
1.1139 0.9744 0.0000
1.1139 1.0000 0.0000
1.1392 0.0000 0.0000
1.1392 0.0256 0.0000
1.1392 0.0513 0.0000
1.1392 0.0769 0.0000
1.1392 0.1026 0.0000
1.1392 0.1282 0.0000
1.1392 0.1538 0.0000
1.1392 0.1795 0.0000
1.1392 0.2051 0.0000
1.1392 0.2308 0.0000
1.1392 0.2564 0.0000
1.1392 0.2821 0.0000
1.1392 0.3077 0.0000
1.1392 0.3333 0.0000
1.1392 0.3590 0.0000
1.1392 0.3846 0.0000
1.1392 0.4103 0.0000
1.1392 0.4359 0.0000
1.1392 0.4615 0.0000
1.1392 0.4872 0.0000
1.1392 0.5128 0.0000
1.1392 0.5385 0.0000
1.1392 0.5641 0.0000
1.1392 0.5897 0.0000
1.1392 0.6154 0.0000
1.1392 0.6410 0.0000
1.1392 0.6667 0.0000
1.1392 0.6923 0.0000
1.1392 0.7179 0.0000
1.1392 0.7436 0.0000
1.1392 0.7692 0.0000
1.1392 0.7949 0.0000
1.1392 0.8205 0.0000
1.1392 0.8462 0.0000
1.1392 0.8718 0.0000
1.1392 0.8974 0.0000
1.1392 0.9231 0.0000
1.1392 0.9487 0.0000
1.1392 0.9744 0.0000
1.1392 1.0000 0.0000
1.1646 0.0000 0.0000
1.1646 0.0256 0.0000
1.1646 0.0513 0.0000
1.1646 0.0769 0.0000
1.1646 0.1026 0.0000
1.1646 0.1282 0.0000
1.1646 0.1538 0.0000
1.1646 0.1795 0.0000
1.1646 0.2051 0.0000
1.1646 0.2308 0.0000
1.1646 0.2564 0.0000
1.1646 0.2821 0.0000
1.1646 0.3077 0.0000
1.1646 0.3333 0.0000
1.1646 0.3590 0.0000
1.1646 0.3846 0.0000
1.1646 0.4103 0.0000
1.1646 0.4359 0.0000
1.1646 0.4615 0.0000
1.1646 0.4872 0.0000
1.1646 0.5128 0.0000
1.1646 0.5385 0.0000
1.1646 0.5641 0.0000
1.1646 0.5897 0.0000
1.1646 0.6154 0.0000
1.1646 0.6410 0.0000
1.1646 0.6667 0.0000
1.1646 0.6923 0.0000
1.1646 0.7179 0.0000
1.1646 0.7436 0.0000
1.1646 0.7692 0.0000
1.1646 0.7949 0.0000
1.1646 0.8205 0.0000
1.1646 0.8462 0.0000
1.1646 0.8718 0.0000
1.1646 0.8974 0.0000
1.1646 0.9231 0.0000
1.1646 0.9487 0.0000
1.1646 0.9744 0.0000
1.1646 1.0000 0.0000
1.1899 0.0000 0.0000
1.1899 0.0256 0.0000
1.1899 0.0513 0.0000
1.1899 0.0769 0.0000
1.1899 0.1026 0.0000
1.1899 0.1282 0.0000
1.1899 0.1538 0.0000
1.1899 0.1795 0.0000
1.1899 0.2051 0.0000
1.1899 0.2308 0.0000
1.1899 0.2564 0.0000
1.1899 0.2821 0.0000
1.1899 0.3077 0.0000
1.1899 0.3333 0.0000
1.1899 0.3590 0.0000
1.1899 0.3846 0.0000
1.1899 0.4103 0.0000
1.1899 0.4359 0.0000
1.1899 0.4615 0.0000
1.1899 0.4872 0.0000
1.1899 0.5128 0.0000
1.1899 0.5385 0.0000
1.1899 0.5641 0.0000
1.1899 0.5897 0.0000
1.1899 0.6154 0.0000
1.1899 0.6410 0.0000
1.1899 0.6667 0.0000
1.1899 0.6923 0.0000
1.1899 0.7179 0.0000
1.1899 0.7436 0.0000
1.1899 0.7692 0.0000
1.1899 0.7949 0.0000
1.1899 0.8205 0.0000
1.1899 0.8462 0.0000
1.1899 0.8718 0.0000
1.1899 0.8974 0.0000
1.1899 0.9231 0.0000
1.1899 0.9487 0.0000
1.1899 0.9744 0.0000
1.1899 1.0000 0.0000
1.2152 0.0000 0.0000
1.2152 0.0256 0.0000
1.2152 0.0513 0.0000
1.2152 0.0769 0.0000
1.2152 0.1026 0.0000
1.2152 0.1282 0.0000
1.2152 0.1538 0.0000
1.2152 0.1795 0.0000
1.2152 0.2051 0.0000
1.2152 0.2308 0.0000
1.2152 0.2564 0.0000
1.2152 0.2821 0.0000
1.2152 0.3077 0.0000
1.2152 0.3333 0.0000
1.2152 0.3590 0.0000
1.2152 0.3846 0.0000
1.2152 0.4103 0.0000
1.2152 0.4359 0.0000
1.2152 0.4615 0.0000
1.2152 0.4872 0.0000
1.2152 0.5128 0.0000
1.2152 0.5385 0.0000
1.2152 0.5641 0.0000
1.2152 0.5897 0.0000
1.2152 0.6154 0.0000
1.2152 0.6410 0.0000
1.2152 0.6667 0.0000
1.2152 0.6923 0.0000
1.2152 0.7179 0.0000
1.2152 0.7436 0.0000
1.2152 0.7692 0.0000
1.2152 0.7949 0.0000
1.2152 0.8205 0.0000
1.2152 0.8462 0.0000
1.2152 0.8718 0.0000
1.2152 0.8974 0.0000
1.2152 0.9231 0.0000
1.2152 0.9487 0.0000
1.2152 0.9744 0.0000
1.2152 1.0000 0.0000
1.2405 0.0000 0.0000
1.2405 0.0256 0.0000
1.2405 0.0513 0.0000
1.2405 0.0769 0.0000
1.2405 0.1026 0.0000
1.2405 0.1282 0.0000
1.2405 0.1538 0.0000
1.2405 0.1795 0.0000
1.2405 0.2051 0.0000
1.2405 0.2308 0.0000
1.2405 0.2564 0.0000
1.2405 0.2821 0.0000
1.2405 0.3077 0.0000
1.2405 0.3333 0.0000
1.2405 0.3590 0.0000
1.2405 0.3846 0.0000
1.2405 0.4103 0.0000
1.2405 0.4359 0.0000
1.2405 0.4615 0.0000
1.2405 0.4872 0.0000
1.2405 0.5128 0.0000
1.2405 0.5385 0.0000
1.2405 0.5641 0.0000
1.2405 0.5897 0.0000
1.2405 0.6154 0.0000
1.2405 0.6410 0.0000
1.2405 0.6667 0.0000
1.2405 0.6923 0.0000
1.2405 0.7179 0.0000
1.2405 0.7436 0.0000
1.2405 0.7692 0.0000
1.2405 0.7949 0.0000
1.2405 0.8205 0.0000
1.2405 0.8462 0.0000
1.2405 0.8718 0.0000
1.2405 0.8974 0.0000
1.2405 0.9231 0.0000
1.2405 0.9487 0.0000
1.2405 0.9744 0.0000
1.2405 1.0000 0.0000
1.2658 0.0000 0.0000
1.2658 0.0256 0.0000
1.2658 0.0513 0.0000
1.2658 0.0769 0.0000
1.2658 0.1026 0.0000
1.2658 0.1282 0.0000
1.2658 0.1538 0.0000
1.2658 0.1795 0.0000
1.2658 0.2051 0.0000
1.2658 0.2308 0.0000
1.2658 0.2564 0.0000
1.2658 0.2821 0.0000
1.2658 0.3077 0.0000
1.2658 0.3333 0.0000
1.2658 0.3590 0.0000
1.2658 0.3846 0.0000
1.2658 0.4103 0.0000
1.2658 0.4359 0.0000
1.2658 0.4615 0.0000
1.2658 0.4872 0.0000
1.2658 0.5128 0.0000
1.2658 0.5385 0.0000
1.2658 0.5641 0.0000
1.2658 0.5897 0.0000
1.2658 0.6154 0.0000
1.2658 0.6410 0.0000
1.2658 0.6667 0.0000
1.2658 0.6923 0.0000
1.2658 0.7179 0.0000
1.2658 0.7436 0.0000
1.2658 0.7692 0.0000
1.2658 0.7949 0.0000
1.2658 0.8205 0.0000
1.2658 0.8462 0.0000
1.2658 0.8718 0.0000
1.2658 0.8974 0.0000
1.2658 0.9231 0.0000
1.2658 0.9487 0.0000
1.2658 0.9744 0.0000
1.2658 1.0000 0.0000
1.2911 0.0000 0.0000
1.2911 0.0256 0.0000
1.2911 0.0513 0.0000
1.2911 0.0769 0.0000
1.2911 0.1026 0.0000
1.2911 0.1282 0.0000
1.2911 0.1538 0.0000
1.2911 0.1795 0.0000
1.2911 0.2051 0.0000
1.2911 0.2308 0.0000
1.2911 0.2564 0.0000
1.2911 0.2821 0.0000
1.2911 0.3077 0.0000
1.2911 0.3333 0.0000
1.2911 0.3590 0.0000
1.2911 0.3846 0.0000
1.2911 0.4103 0.0000
1.2911 0.4359 0.0000
1.2911 0.4615 0.0000
1.2911 0.4872 0.0000
1.2911 0.5128 0.0000
1.2911 0.5385 0.0000
1.2911 0.5641 0.0000
1.2911 0.5897 0.0000
1.2911 0.6154 0.0000
1.2911 0.6410 0.0000
1.2911 0.6667 0.0000
1.2911 0.6923 0.0000
1.2911 0.7179 0.0000
1.2911 0.7436 0.0000
1.2911 0.7692 0.0000
1.2911 0.7949 0.0000
1.2911 0.8205 0.0000
1.2911 0.8462 0.0000
1.2911 0.8718 0.0000
1.2911 0.8974 0.0000
1.2911 0.9231 0.0000
1.2911 0.9487 0.0000
1.2911 0.9744 0.0000
1.2911 1.0000 0.0000
1.3165 0.0000 0.0000
1.3165 0.0256 0.0000
1.3165 0.0513 0.0000
1.3165 0.0769 0.0000
1.3165 0.1026 0.0000
1.3165 0.1282 0.0000
1.3165 0.1538 0.0000
1.3165 0.1795 0.0000
1.3165 0.2051 0.0000
1.3165 0.2308 0.0000
1.3165 0.2564 0.0000
1.3165 0.2821 0.0000
1.3165 0.3077 0.0000
1.3165 0.3333 0.0000
1.3165 0.3590 0.0000
1.3165 0.3846 0.0000
1.3165 0.4103 0.0000
1.3165 0.4359 0.0000
1.3165 0.4615 0.0000
1.3165 0.4872 0.0000
1.3165 0.5128 0.0000
1.3165 0.5385 0.0000
1.3165 0.5641 0.0000
1.3165 0.5897 0.0000
1.3165 0.6154 0.0000
1.3165 0.6410 0.0000
1.3165 0.6667 0.0000
1.3165 0.6923 0.0000
1.3165 0.7179 0.0000
1.3165 0.7436 0.0000
1.3165 0.7692 0.0000
1.3165 0.7949 0.0000
1.3165 0.8205 0.0000
1.3165 0.8462 0.0000
1.3165 0.8718 0.0000
1.3165 0.8974 0.0000
1.3165 0.9231 0.0000
1.3165 0.9487 0.0000
1.3165 0.9744 0.0000
1.3165 1.0000 0.0000
1.3418 0.0000 0.0000
1.3418 0.0256 0.0000
1.3418 0.0513 0.0000
1.3418 0.0769 0.0000
1.3418 0.1026 0.0000
1.3418 0.1282 0.0000
1.3418 0.1538 0.0000
1.3418 0.1795 0.0000
1.3418 0.2051 0.0000
1.3418 0.2308 0.0000
1.3418 0.2564 0.0000
1.3418 0.2821 0.0000
1.3418 0.3077 0.0000
1.3418 0.3333 0.0000
1.3418 0.3590 0.0000
1.3418 0.3846 0.0000
1.3418 0.4103 0.0000
1.3418 0.4359 0.0000
1.3418 0.4615 0.0000
1.3418 0.4872 0.0000
1.3418 0.5128 0.0000
1.3418 0.5385 0.0000
1.3418 0.5641 0.0000
1.3418 0.5897 0.0000
1.3418 0.6154 0.0000
1.3418 0.6410 0.0000
1.3418 0.6667 0.0000
1.3418 0.6923 0.0000
1.3418 0.7179 0.0000
1.3418 0.7436 0.0000
1.3418 0.7692 0.0000
1.3418 0.7949 0.0000
1.3418 0.8205 0.0000
1.3418 0.8462 0.0000
1.3418 0.8718 0.0000
1.3418 0.8974 0.0000
1.3418 0.9231 0.0000
1.3418 0.9487 0.0000
1.3418 0.9744 0.0000
1.3418 1.0000 0.0000
1.3671 0.0000 0.0000
1.3671 0.0256 0.0000
1.3671 0.0513 0.0000
1.3671 0.0769 0.0000
1.3671 0.1026 0.0000
1.3671 0.1282 0.0000
1.3671 0.1538 0.0000
1.3671 0.1795 0.0000
1.3671 0.2051 0.0000
1.3671 0.2308 0.0000
1.3671 0.2564 0.0000
1.3671 0.2821 0.0000
1.3671 0.3077 0.0000
1.3671 0.3333 0.0000
1.3671 0.3590 0.0000
1.3671 0.3846 0.0000
1.3671 0.4103 0.0000
1.3671 0.4359 0.0000
1.3671 0.4615 0.0000
1.3671 0.4872 0.0000
1.3671 0.5128 0.0000
1.3671 0.5385 0.0000
1.3671 0.5641 0.0000
1.3671 0.5897 0.0000
1.3671 0.6154 0.0000
1.3671 0.6410 0.0000
1.3671 0.6667 0.0000
1.3671 0.6923 0.0000
1.3671 0.7179 0.0000
1.3671 0.7436 0.0000
1.3671 0.7692 0.0000
1.3671 0.7949 0.0000
1.3671 0.8205 0.0000
1.3671 0.8462 0.0000
1.3671 0.8718 0.0000
1.3671 0.8974 0.0000
1.3671 0.9231 0.0000
1.3671 0.9487 0.0000
1.3671 0.9744 0.0000
1.3671 1.0000 0.0000
1.3924 0.0000 0.0000
1.3924 0.0256 0.0000
1.3924 0.0513 0.0000
1.3924 0.0769 0.0000
1.3924 0.1026 0.0000
1.3924 0.1282 0.0000
1.3924 0.1538 0.0000
1.3924 0.1795 0.0000
1.3924 0.2051 0.0000
1.3924 0.2308 0.0000
1.3924 0.2564 0.0000
1.3924 0.2821 0.0000
1.3924 0.3077 0.0000
1.3924 0.3333 0.0000
1.3924 0.3590 0.0000
1.3924 0.3846 0.0000
1.3924 0.4103 0.0000
1.3924 0.4359 0.0000
1.3924 0.4615 0.0000
1.3924 0.4872 0.0000
1.3924 0.5128 0.0000
1.3924 0.5385 0.0000
1.3924 0.5641 0.0000
1.3924 0.5897 0.0000
1.3924 0.6154 0.0000
1.3924 0.6410 0.0000
1.3924 0.6667 0.0000
1.3924 0.6923 0.0000
1.3924 0.7179 0.0000
1.3924 0.7436 0.0000
1.3924 0.7692 0.0000
1.3924 0.7949 0.0000
1.3924 0.8205 0.0000
1.3924 0.8462 0.0000
1.3924 0.8718 0.0000
1.3924 0.8974 0.0000
1.3924 0.9231 0.0000
1.3924 0.9487 0.0000
1.3924 0.9744 0.0000
1.3924 1.0000 0.0000
1.4177 0.0000 0.0000
1.4177 0.0256 0.0000
1.4177 0.0513 0.0000
1.4177 0.0769 0.0000
1.4177 0.1026 0.0000
1.4177 0.1282 0.0000
1.4177 0.1538 0.0000
1.4177 0.1795 0.0000
1.4177 0.2051 0.0000
1.4177 0.2308 0.0000
1.4177 0.2564 0.0000
1.4177 0.2821 0.0000
1.4177 0.3077 0.0000
1.4177 0.3333 0.0000
1.4177 0.3590 0.0000
1.4177 0.3846 0.0000
1.4177 0.4103 0.0000
1.4177 0.4359 0.0000
1.4177 0.4615 0.0000
1.4177 0.4872 0.0000
1.4177 0.5128 0.0000
1.4177 0.5385 0.0000
1.4177 0.5641 0.0000
1.4177 0.5897 0.0000
1.4177 0.6154 0.0000
1.4177 0.6410 0.0000
1.4177 0.6667 0.0000
1.4177 0.6923 0.0000
1.4177 0.7179 0.0000
1.4177 0.7436 0.0000
1.4177 0.7692 0.0000
1.4177 0.7949 0.0000
1.4177 0.8205 0.0000
1.4177 0.8462 0.0000
1.4177 0.8718 0.0000
1.4177 0.8974 0.0000
1.4177 0.9231 0.0000
1.4177 0.9487 0.0000
1.4177 0.9744 0.0000
1.4177 1.0000 0.0000
1.4430 0.0000 0.0000
1.4430 0.0256 0.0000
1.4430 0.0513 0.0000
1.4430 0.0769 0.0000
1.4430 0.1026 0.0000
1.4430 0.1282 0.0000
1.4430 0.1538 0.0000
1.4430 0.1795 0.0000
1.4430 0.2051 0.0000
1.4430 0.2308 0.0000
1.4430 0.2564 0.0000
1.4430 0.2821 0.0000
1.4430 0.3077 0.0000
1.4430 0.3333 0.0000
1.4430 0.3590 0.0000
1.4430 0.3846 0.0000
1.4430 0.4103 0.0000
1.4430 0.4359 0.0000
1.4430 0.4615 0.0000
1.4430 0.4872 0.0000
1.4430 0.5128 0.0000
1.4430 0.5385 0.0000
1.4430 0.5641 0.0000
1.4430 0.5897 0.0000
1.4430 0.6154 0.0000
1.4430 0.6410 0.0000
1.4430 0.6667 0.0000
1.4430 0.6923 0.0000
1.4430 0.7179 0.0000
1.4430 0.7436 0.0000
1.4430 0.7692 0.0000
1.4430 0.7949 0.0000
1.4430 0.8205 0.0000
1.4430 0.8462 0.0000
1.4430 0.8718 0.0000
1.4430 0.8974 0.0000
1.4430 0.9231 0.0000
1.4430 0.9487 0.0000
1.4430 0.9744 0.0000
1.4430 1.0000 0.0000
1.4684 0.0000 0.0000
1.4684 0.0256 0.0000
1.4684 0.0513 0.0000
1.4684 0.0769 0.0000
1.4684 0.1026 0.0000
1.4684 0.1282 0.0000
1.4684 0.1538 0.0000
1.4684 0.1795 0.0000
1.4684 0.2051 0.0000
1.4684 0.2308 0.0000
1.4684 0.2564 0.0000
1.4684 0.2821 0.0000
1.4684 0.3077 0.0000
1.4684 0.3333 0.0000
1.4684 0.3590 0.0000
1.4684 0.3846 0.0000
1.4684 0.4103 0.0000
1.4684 0.4359 0.0000
1.4684 0.4615 0.0000
1.4684 0.4872 0.0000
1.4684 0.5128 0.0000
1.4684 0.5385 0.0000
1.4684 0.5641 0.0000
1.4684 0.5897 0.0000
1.4684 0.6154 0.0000
1.4684 0.6410 0.0000
1.4684 0.6667 0.0000
1.4684 0.6923 0.0000
1.4684 0.7179 0.0000
1.4684 0.7436 0.0000
1.4684 0.7692 0.0000
1.4684 0.7949 0.0000
1.4684 0.8205 0.0000
1.4684 0.8462 0.0000
1.4684 0.8718 0.0000
1.4684 0.8974 0.0000
1.4684 0.9231 0.0000
1.4684 0.9487 0.0000
1.4684 0.9744 0.0000
1.4684 1.0000 0.0000
1.4937 0.0000 0.0000
1.4937 0.0256 0.0000
1.4937 0.0513 0.0000
1.4937 0.0769 0.0000
1.4937 0.1026 0.0000
1.4937 0.1282 0.0000
1.4937 0.1538 0.0000
1.4937 0.1795 0.0000
1.4937 0.2051 0.0000
1.4937 0.2308 0.0000
1.4937 0.2564 0.0000
1.4937 0.2821 0.0000
1.4937 0.3077 0.0000
1.4937 0.3333 0.0000
1.4937 0.3590 0.0000
1.4937 0.3846 0.0000
1.4937 0.4103 0.0000
1.4937 0.4359 0.0000
1.4937 0.4615 0.0000
1.4937 0.4872 0.0000
1.4937 0.5128 0.0000
1.4937 0.5385 0.0000
1.4937 0.5641 0.0000
1.4937 0.5897 0.0000
1.4937 0.6154 0.0000
1.4937 0.6410 0.0000
1.4937 0.6667 0.0000
1.4937 0.6923 0.0000
1.4937 0.7179 0.0000
1.4937 0.7436 0.0000
1.4937 0.7692 0.0000
1.4937 0.7949 0.0000
1.4937 0.8205 0.0000
1.4937 0.8462 0.0000
1.4937 0.8718 0.0000
1.4937 0.8974 0.0000
1.4937 0.9231 0.0000
1.4937 0.9487 0.0000
1.4937 0.9744 0.0000
1.4937 1.0000 0.0000
1.5190 0.0000 0.0000
1.5190 0.0256 0.0000
1.5190 0.0513 0.0000
1.5190 0.0769 0.0000
1.5190 0.1026 0.0000
1.5190 0.1282 0.0000
1.5190 0.1538 0.0000
1.5190 0.1795 0.0000
1.5190 0.2051 0.0000
1.5190 0.2308 0.0000
1.5190 0.2564 0.0000
1.5190 0.2821 0.0000
1.5190 0.3077 0.0000
1.5190 0.3333 0.0000
1.5190 0.3590 0.0000
1.5190 0.3846 0.0000
1.5190 0.4103 0.0000
1.5190 0.4359 0.0000
1.5190 0.4615 0.0000
1.5190 0.4872 0.0000
1.5190 0.5128 0.0000
1.5190 0.5385 0.0000
1.5190 0.5641 0.0000
1.5190 0.5897 0.0000
1.5190 0.6154 0.0000
1.5190 0.6410 0.0000
1.5190 0.6667 0.0000
1.5190 0.6923 0.0000
1.5190 0.7179 0.0000
1.5190 0.7436 0.0000
1.5190 0.7692 0.0000
1.5190 0.7949 0.0000
1.5190 0.8205 0.0000
1.5190 0.8462 0.0000
1.5190 0.8718 0.0000
1.5190 0.8974 0.0000
1.5190 0.9231 0.0000
1.5190 0.9487 0.0000
1.5190 0.9744 0.0000
1.5190 1.0000 0.0000
1.5443 0.0000 0.0000
1.5443 0.0256 0.0000
1.5443 0.0513 0.0000
1.5443 0.0769 0.0000
1.5443 0.1026 0.0000
1.5443 0.1282 0.0000
1.5443 0.1538 0.0000
1.5443 0.1795 0.0000
1.5443 0.2051 0.0000
1.5443 0.2308 0.0000
1.5443 0.2564 0.0000
1.5443 0.2821 0.0000
1.5443 0.3077 0.0000
1.5443 0.3333 0.0000
1.5443 0.3590 0.0000
1.5443 0.3846 0.0000
1.5443 0.4103 0.0000
1.5443 0.4359 0.0000
1.5443 0.4615 0.0000
1.5443 0.4872 0.0000
1.5443 0.5128 0.0000
1.5443 0.5385 0.0000
1.5443 0.5641 0.0000
1.5443 0.5897 0.0000
1.5443 0.6154 0.0000
1.5443 0.6410 0.0000
1.5443 0.6667 0.0000
1.5443 0.6923 0.0000
1.5443 0.7179 0.0000
1.5443 0.7436 0.0000
1.5443 0.7692 0.0000
1.5443 0.7949 0.0000
1.5443 0.8205 0.0000
1.5443 0.8462 0.0000
1.5443 0.8718 0.0000
1.5443 0.8974 0.0000
1.5443 0.9231 0.0000
1.5443 0.9487 0.0000
1.5443 0.9744 0.0000
1.5443 1.0000 0.0000
1.5696 0.0000 0.0000
1.5696 0.0256 0.0000
1.5696 0.0513 0.0000
1.5696 0.0769 0.0000
1.5696 0.1026 0.0000
1.5696 0.1282 0.0000
1.5696 0.1538 0.0000
1.5696 0.1795 0.0000
1.5696 0.2051 0.0000
1.5696 0.2308 0.0000
1.5696 0.2564 0.0000
1.5696 0.2821 0.0000
1.5696 0.3077 0.0000
1.5696 0.3333 0.0000
1.5696 0.3590 0.0000
1.5696 0.3846 0.0000
1.5696 0.4103 0.0000
1.5696 0.4359 0.0000
1.5696 0.4615 0.0000
1.5696 0.4872 0.0000
1.5696 0.5128 0.0000
1.5696 0.5385 0.0000
1.5696 0.5641 0.0000
1.5696 0.5897 0.0000
1.5696 0.6154 0.0000
1.5696 0.6410 0.0000
1.5696 0.6667 0.0000
1.5696 0.6923 0.0000
1.5696 0.7179 0.0000
1.5696 0.7436 0.0000
1.5696 0.7692 0.0000
1.5696 0.7949 0.0000
1.5696 0.8205 0.0000
1.5696 0.8462 0.0000
1.5696 0.8718 0.0000
1.5696 0.8974 0.0000
1.5696 0.9231 0.0000
1.5696 0.9487 0.0000
1.5696 0.9744 0.0000
1.5696 1.0000 0.0000
1.5949 0.0000 0.0000
1.5949 0.0256 0.0000
1.5949 0.0513 0.0000
1.5949 0.0769 0.0000
1.5949 0.1026 0.0000
1.5949 0.1282 0.0000
1.5949 0.1538 0.0000
1.5949 0.1795 0.0000
1.5949 0.2051 0.0000
1.5949 0.2308 0.0000
1.5949 0.2564 0.0000
1.5949 0.2821 0.0000
1.5949 0.3077 0.0000
1.5949 0.3333 0.0000
1.5949 0.3590 0.0000
1.5949 0.3846 0.0000
1.5949 0.4103 0.0000
1.5949 0.4359 0.0000
1.5949 0.4615 0.0000
1.5949 0.4872 0.0000
1.5949 0.5128 0.0000
1.5949 0.5385 0.0000
1.5949 0.5641 0.0000
1.5949 0.5897 0.0000
1.5949 0.6154 0.0000
1.5949 0.6410 0.0000
1.5949 0.6667 0.0000
1.5949 0.6923 0.0000
1.5949 0.7179 0.0000
1.5949 0.7436 0.0000
1.5949 0.7692 0.0000
1.5949 0.7949 0.0000
1.5949 0.8205 0.0000
1.5949 0.8462 0.0000
1.5949 0.8718 0.0000
1.5949 0.8974 0.0000
1.5949 0.9231 0.0000
1.5949 0.9487 0.0000
1.5949 0.9744 0.0000
1.5949 1.0000 0.0000
1.6203 0.0000 0.0000
1.6203 0.0256 0.0000
1.6203 0.0513 0.0000
1.6203 0.0769 0.0000
1.6203 0.1026 0.0000
1.6203 0.1282 0.0000
1.6203 0.1538 0.0000
1.6203 0.1795 0.0000
1.6203 0.2051 0.0000
1.6203 0.2308 0.0000
1.6203 0.2564 0.0000
1.6203 0.2821 0.0000
1.6203 0.3077 0.0000
1.6203 0.3333 0.0000
1.6203 0.3590 0.0000
1.6203 0.3846 0.0000
1.6203 0.4103 0.0000
1.6203 0.4359 0.0000
1.6203 0.4615 0.0000
1.6203 0.4872 0.0000
1.6203 0.5128 0.0000
1.6203 0.5385 0.0000
1.6203 0.5641 0.0000
1.6203 0.5897 0.0000
1.6203 0.6154 0.0000
1.6203 0.6410 0.0000
1.6203 0.6667 0.0000
1.6203 0.6923 0.0000
1.6203 0.7179 0.0000
1.6203 0.7436 0.0000
1.6203 0.7692 0.0000
1.6203 0.7949 0.0000
1.6203 0.8205 0.0000
1.6203 0.8462 0.0000
1.6203 0.8718 0.0000
1.6203 0.8974 0.0000
1.6203 0.9231 0.0000
1.6203 0.9487 0.0000
1.6203 0.9744 0.0000
1.6203 1.0000 0.0000
1.6456 0.0000 0.0000
1.6456 0.0256 0.0000
1.6456 0.0513 0.0000
1.6456 0.0769 0.0000
1.6456 0.1026 0.0000
1.6456 0.1282 0.0000
1.6456 0.1538 0.0000
1.6456 0.1795 0.0000
1.6456 0.2051 0.0000
1.6456 0.2308 0.0000
1.6456 0.2564 0.0000
1.6456 0.2821 0.0000
1.6456 0.3077 0.0000
1.6456 0.3333 0.0000
1.6456 0.3590 0.0000
1.6456 0.3846 0.0000
1.6456 0.4103 0.0000
1.6456 0.4359 0.0000
1.6456 0.4615 0.0000
1.6456 0.4872 0.0000
1.6456 0.5128 0.0000
1.6456 0.5385 0.0000
1.6456 0.5641 0.0000
1.6456 0.5897 0.0000
1.6456 0.6154 0.0000
1.6456 0.6410 0.0000
1.6456 0.6667 0.0000
1.6456 0.6923 0.0000
1.6456 0.7179 0.0000
1.6456 0.7436 0.0000
1.6456 0.7692 0.0000
1.6456 0.7949 0.0000
1.6456 0.8205 0.0000
1.6456 0.8462 0.0000
1.6456 0.8718 0.0000
1.6456 0.8974 0.0000
1.6456 0.9231 0.0000
1.6456 0.9487 0.0000
1.6456 0.9744 0.0000
1.6456 1.0000 0.0000
1.6709 0.0000 0.0000
1.6709 0.0256 0.0000
1.6709 0.0513 0.0000
1.6709 0.0769 0.0000
1.6709 0.1026 0.0000
1.6709 0.1282 0.0000
1.6709 0.1538 0.0000
1.6709 0.1795 0.0000
1.6709 0.2051 0.0000
1.6709 0.2308 0.0000
1.6709 0.2564 0.0000
1.6709 0.2821 0.0000
1.6709 0.3077 0.0000
1.6709 0.3333 0.0000
1.6709 0.3590 0.0000
1.6709 0.3846 0.0000
1.6709 0.4103 0.0000
1.6709 0.4359 0.0000
1.6709 0.4615 0.0000
1.6709 0.4872 0.0000
1.6709 0.5128 0.0000
1.6709 0.5385 0.0000
1.6709 0.5641 0.0000
1.6709 0.5897 0.0000
1.6709 0.6154 0.0000
1.6709 0.6410 0.0000
1.6709 0.6667 0.0000
1.6709 0.6923 0.0000
1.6709 0.7179 0.0000
1.6709 0.7436 0.0000
1.6709 0.7692 0.0000
1.6709 0.7949 0.0000
1.6709 0.8205 0.0000
1.6709 0.8462 0.0000
1.6709 0.8718 0.0000
1.6709 0.8974 0.0000
1.6709 0.9231 0.0000
1.6709 0.9487 0.0000
1.6709 0.9744 0.0000
1.6709 1.0000 0.0000
1.6962 0.0000 0.0000
1.6962 0.0256 0.0000
1.6962 0.0513 0.0000
1.6962 0.0769 0.0000
1.6962 0.1026 0.0000
1.6962 0.1282 0.0000
1.6962 0.1538 0.0000
1.6962 0.1795 0.0000
1.6962 0.2051 0.0000
1.6962 0.2308 0.0000
1.6962 0.2564 0.0000
1.6962 0.2821 0.0000
1.6962 0.3077 0.0000
1.6962 0.3333 0.0000
1.6962 0.3590 0.0000
1.6962 0.3846 0.0000
1.6962 0.4103 0.0000
1.6962 0.4359 0.0000
1.6962 0.4615 0.0000
1.6962 0.4872 0.0000
1.6962 0.5128 0.0000
1.6962 0.5385 0.0000
1.6962 0.5641 0.0000
1.6962 0.5897 0.0000
1.6962 0.6154 0.0000
1.6962 0.6410 0.0000
1.6962 0.6667 0.0000
1.6962 0.6923 0.0000
1.6962 0.7179 0.0000
1.6962 0.7436 0.0000
1.6962 0.7692 0.0000
1.6962 0.7949 0.0000
1.6962 0.8205 0.0000
1.6962 0.8462 0.0000
1.6962 0.8718 0.0000
1.6962 0.8974 0.0000
1.6962 0.9231 0.0000
1.6962 0.9487 0.0000
1.6962 0.9744 0.0000
1.6962 1.0000 0.0000
1.7215 0.0000 0.0000
1.7215 0.0256 0.0000
1.7215 0.0513 0.0000
1.7215 0.0769 0.0000
1.7215 0.1026 0.0000
1.7215 0.1282 0.0000
1.7215 0.1538 0.0000
1.7215 0.1795 0.0000
1.7215 0.2051 0.0000
1.7215 0.2308 0.0000
1.7215 0.2564 0.0000
1.7215 0.2821 0.0000
1.7215 0.3077 0.0000
1.7215 0.3333 0.0000
1.7215 0.3590 0.0000
1.7215 0.3846 0.0000
1.7215 0.4103 0.0000
1.7215 0.4359 0.0000
1.7215 0.4615 0.0000
1.7215 0.4872 0.0000
1.7215 0.5128 0.0000
1.7215 0.5385 0.0000
1.7215 0.5641 0.0000
1.7215 0.5897 0.0000
1.7215 0.6154 0.0000
1.7215 0.6410 0.0000
1.7215 0.6667 0.0000
1.7215 0.6923 0.0000
1.7215 0.7179 0.0000
1.7215 0.7436 0.0000
1.7215 0.7692 0.0000
1.7215 0.7949 0.0000
1.7215 0.8205 0.0000
1.7215 0.8462 0.0000
1.7215 0.8718 0.0000
1.7215 0.8974 0.0000
1.7215 0.9231 0.0000
1.7215 0.9487 0.0000
1.7215 0.9744 0.0000
1.7215 1.0000 0.0000
1.7468 0.0000 0.0000
1.7468 0.0256 0.0000
1.7468 0.0513 0.0000
1.7468 0.0769 0.0000
1.7468 0.1026 0.0000
1.7468 0.1282 0.0000
1.7468 0.1538 0.0000
1.7468 0.1795 0.0000
1.7468 0.2051 0.0000
1.7468 0.2308 0.0000
1.7468 0.2564 0.0000
1.7468 0.2821 0.0000
1.7468 0.3077 0.0000
1.7468 0.3333 0.0000
1.7468 0.3590 0.0000
1.7468 0.3846 0.0000
1.7468 0.4103 0.0000
1.7468 0.4359 0.0000
1.7468 0.4615 0.0000
1.7468 0.4872 0.0000
1.7468 0.5128 0.0000
1.7468 0.5385 0.0000
1.7468 0.5641 0.0000
1.7468 0.5897 0.0000
1.7468 0.6154 0.0000
1.7468 0.6410 0.0000
1.7468 0.6667 0.0000
1.7468 0.6923 0.0000
1.7468 0.7179 0.0000
1.7468 0.7436 0.0000
1.7468 0.7692 0.0000
1.7468 0.7949 0.0000
1.7468 0.8205 0.0000
1.7468 0.8462 0.0000
1.7468 0.8718 0.0000
1.7468 0.8974 0.0000
1.7468 0.9231 0.0000
1.7468 0.9487 0.0000
1.7468 0.9744 0.0000
1.7468 1.0000 0.0000
1.7722 0.0000 0.0000
1.7722 0.0256 0.0000
1.7722 0.0513 0.0000
1.7722 0.0769 0.0000
1.7722 0.1026 0.0000
1.7722 0.1282 0.0000
1.7722 0.1538 0.0000
1.7722 0.1795 0.0000
1.7722 0.2051 0.0000
1.7722 0.2308 0.0000
1.7722 0.2564 0.0000
1.7722 0.2821 0.0000
1.7722 0.3077 0.0000
1.7722 0.3333 0.0000
1.7722 0.3590 0.0000
1.7722 0.3846 0.0000
1.7722 0.4103 0.0000
1.7722 0.4359 0.0000
1.7722 0.4615 0.0000
1.7722 0.4872 0.0000
1.7722 0.5128 0.0000
1.7722 0.5385 0.0000
1.7722 0.5641 0.0000
1.7722 0.5897 0.0000
1.7722 0.6154 0.0000
1.7722 0.6410 0.0000
1.7722 0.6667 0.0000
1.7722 0.6923 0.0000
1.7722 0.7179 0.0000
1.7722 0.7436 0.0000
1.7722 0.7692 0.0000
1.7722 0.7949 0.0000
1.7722 0.8205 0.0000
1.7722 0.8462 0.0000
1.7722 0.8718 0.0000
1.7722 0.8974 0.0000
1.7722 0.9231 0.0000
1.7722 0.9487 0.0000
1.7722 0.9744 0.0000
1.7722 1.0000 0.0000
1.7975 0.0000 0.0000
1.7975 0.0256 0.0000
1.7975 0.0513 0.0000
1.7975 0.0769 0.0000
1.7975 0.1026 0.0000
1.7975 0.1282 0.0000
1.7975 0.1538 0.0000
1.7975 0.1795 0.0000
1.7975 0.2051 0.0000
1.7975 0.2308 0.0000
1.7975 0.2564 0.0000
1.7975 0.2821 0.0000
1.7975 0.3077 0.0000
1.7975 0.3333 0.0000
1.7975 0.3590 0.0000
1.7975 0.3846 0.0000
1.7975 0.4103 0.0000
1.7975 0.4359 0.0000
1.7975 0.4615 0.0000
1.7975 0.4872 0.0000
1.7975 0.5128 0.0000
1.7975 0.5385 0.0000
1.7975 0.5641 0.0000
1.7975 0.5897 0.0000
1.7975 0.6154 0.0000
1.7975 0.6410 0.0000
1.7975 0.6667 0.0000
1.7975 0.6923 0.0000
1.7975 0.7179 0.0000
1.7975 0.7436 0.0000
1.7975 0.7692 0.0000
1.7975 0.7949 0.0000
1.7975 0.8205 0.0000
1.7975 0.8462 0.0000
1.7975 0.8718 0.0000
1.7975 0.8974 0.0000
1.7975 0.9231 0.0000
1.7975 0.9487 0.0000
1.7975 0.9744 0.0000
1.7975 1.0000 0.0000
1.8228 0.0000 0.0000
1.8228 0.0256 0.0000
1.8228 0.0513 0.0000
1.8228 0.0769 0.0000
1.8228 0.1026 0.0000
1.8228 0.1282 0.0000
1.8228 0.1538 0.0000
1.8228 0.1795 0.0000
1.8228 0.2051 0.0000
1.8228 0.2308 0.0000
1.8228 0.2564 0.0000
1.8228 0.2821 0.0000
1.8228 0.3077 0.0000
1.8228 0.3333 0.0000
1.8228 0.3590 0.0000
1.8228 0.3846 0.0000
1.8228 0.4103 0.0000
1.8228 0.4359 0.0000
1.8228 0.4615 0.0000
1.8228 0.4872 0.0000
1.8228 0.5128 0.0000
1.8228 0.5385 0.0000
1.8228 0.5641 0.0000
1.8228 0.5897 0.0000
1.8228 0.6154 0.0000
1.8228 0.6410 0.0000
1.8228 0.6667 0.0000
1.8228 0.6923 0.0000
1.8228 0.7179 0.0000
1.8228 0.7436 0.0000
1.8228 0.7692 0.0000
1.8228 0.7949 0.0000
1.8228 0.8205 0.0000
1.8228 0.8462 0.0000
1.8228 0.8718 0.0000
1.8228 0.8974 0.0000
1.8228 0.9231 0.0000
1.8228 0.9487 0.0000
1.8228 0.9744 0.0000
1.8228 1.0000 0.0000
1.8481 0.0000 0.0000
1.8481 0.0256 0.0000
1.8481 0.0513 0.0000
1.8481 0.0769 0.0000
1.8481 0.1026 0.0000
1.8481 0.1282 0.0000
1.8481 0.1538 0.0000
1.8481 0.1795 0.0000
1.8481 0.2051 0.0000
1.8481 0.2308 0.0000
1.8481 0.2564 0.0000
1.8481 0.2821 0.0000
1.8481 0.3077 0.0000
1.8481 0.3333 0.0000
1.8481 0.3590 0.0000
1.8481 0.3846 0.0000
1.8481 0.4103 0.0000
1.8481 0.4359 0.0000
1.8481 0.4615 0.0000
1.8481 0.4872 0.0000
1.8481 0.5128 0.0000
1.8481 0.5385 0.0000
1.8481 0.5641 0.0000
1.8481 0.5897 0.0000
1.8481 0.6154 0.0000
1.8481 0.6410 0.0000
1.8481 0.6667 0.0000
1.8481 0.6923 0.0000
1.8481 0.7179 0.0000
1.8481 0.7436 0.0000
1.8481 0.7692 0.0000
1.8481 0.7949 0.0000
1.8481 0.8205 0.0000
1.8481 0.8462 0.0000
1.8481 0.8718 0.0000
1.8481 0.8974 0.0000
1.8481 0.9231 0.0000
1.8481 0.9487 0.0000
1.8481 0.9744 0.0000
1.8481 1.0000 0.0000
1.8734 0.0000 0.0000
1.8734 0.0256 0.0000
1.8734 0.0513 0.0000
1.8734 0.0769 0.0000
1.8734 0.1026 0.0000
1.8734 0.1282 0.0000
1.8734 0.1538 0.0000
1.8734 0.1795 0.0000
1.8734 0.2051 0.0000
1.8734 0.2308 0.0000
1.8734 0.2564 0.0000
1.8734 0.2821 0.0000
1.8734 0.3077 0.0000
1.8734 0.3333 0.0000
1.8734 0.3590 0.0000
1.8734 0.3846 0.0000
1.8734 0.4103 0.0000
1.8734 0.4359 0.0000
1.8734 0.4615 0.0000
1.8734 0.4872 0.0000
1.8734 0.5128 0.0000
1.8734 0.5385 0.0000
1.8734 0.5641 0.0000
1.8734 0.5897 0.0000
1.8734 0.6154 0.0000
1.8734 0.6410 0.0000
1.8734 0.6667 0.0000
1.8734 0.6923 0.0000
1.8734 0.7179 0.0000
1.8734 0.7436 0.0000
1.8734 0.7692 0.0000
1.8734 0.7949 0.0000
1.8734 0.8205 0.0000
1.8734 0.8462 0.0000
1.8734 0.8718 0.0000
1.8734 0.8974 0.0000
1.8734 0.9231 0.0000
1.8734 0.9487 0.0000
1.8734 0.9744 0.0000
1.8734 1.0000 0.0000
1.8987 0.0000 0.0000
1.8987 0.0256 0.0000
1.8987 0.0513 0.0000
1.8987 0.0769 0.0000
1.8987 0.1026 0.0000
1.8987 0.1282 0.0000
1.8987 0.1538 0.0000
1.8987 0.1795 0.0000
1.8987 0.2051 0.0000
1.8987 0.2308 0.0000
1.8987 0.2564 0.0000
1.8987 0.2821 0.0000
1.8987 0.3077 0.0000
1.8987 0.3333 0.0000
1.8987 0.3590 0.0000
1.8987 0.3846 0.0000
1.8987 0.4103 0.0000
1.8987 0.4359 0.0000
1.8987 0.4615 0.0000
1.8987 0.4872 0.0000
1.8987 0.5128 0.0000
1.8987 0.5385 0.0000
1.8987 0.5641 0.0000
1.8987 0.5897 0.0000
1.8987 0.6154 0.0000
1.8987 0.6410 0.0000
1.8987 0.6667 0.0000
1.8987 0.6923 0.0000
1.8987 0.7179 0.0000
1.8987 0.7436 0.0000
1.8987 0.7692 0.0000
1.8987 0.7949 0.0000
1.8987 0.8205 0.0000
1.8987 0.8462 0.0000
1.8987 0.8718 0.0000
1.8987 0.8974 0.0000
1.8987 0.9231 0.0000
1.8987 0.9487 0.0000
1.8987 0.9744 0.0000
1.8987 1.0000 0.0000
1.9241 0.0000 0.0000
1.9241 0.0256 0.0000
1.9241 0.0513 0.0000
1.9241 0.0769 0.0000
1.9241 0.1026 0.0000
1.9241 0.1282 0.0000
1.9241 0.1538 0.0000
1.9241 0.1795 0.0000
1.9241 0.2051 0.0000
1.9241 0.2308 0.0000
1.9241 0.2564 0.0000
1.9241 0.2821 0.0000
1.9241 0.3077 0.0000
1.9241 0.3333 0.0000
1.9241 0.3590 0.0000
1.9241 0.3846 0.0000
1.9241 0.4103 0.0000
1.9241 0.4359 0.0000
1.9241 0.4615 0.0000
1.9241 0.4872 0.0000
1.9241 0.5128 0.0000
1.9241 0.5385 0.0000
1.9241 0.5641 0.0000
1.9241 0.5897 0.0000
1.9241 0.6154 0.0000
1.9241 0.6410 0.0000
1.9241 0.6667 0.0000
1.9241 0.6923 0.0000
1.9241 0.7179 0.0000
1.9241 0.7436 0.0000
1.9241 0.7692 0.0000
1.9241 0.7949 0.0000
1.9241 0.8205 0.0000
1.9241 0.8462 0.0000
1.9241 0.8718 0.0000
1.9241 0.8974 0.0000
1.9241 0.9231 0.0000
1.9241 0.9487 0.0000
1.9241 0.9744 0.0000
1.9241 1.0000 0.0000
1.9494 0.0000 0.0000
1.9494 0.0256 0.0000
1.9494 0.0513 0.0000
1.9494 0.0769 0.0000
1.9494 0.1026 0.0000
1.9494 0.1282 0.0000
1.9494 0.1538 0.0000
1.9494 0.1795 0.0000
1.9494 0.2051 0.0000
1.9494 0.2308 0.0000
1.9494 0.2564 0.0000
1.9494 0.2821 0.0000
1.9494 0.3077 0.0000
1.9494 0.3333 0.0000
1.9494 0.3590 0.0000
1.9494 0.3846 0.0000
1.9494 0.4103 0.0000
1.9494 0.4359 0.0000
1.9494 0.4615 0.0000
1.9494 0.4872 0.0000
1.9494 0.5128 0.0000
1.9494 0.5385 0.0000
1.9494 0.5641 0.0000
1.9494 0.5897 0.0000
1.9494 0.6154 0.0000
1.9494 0.6410 0.0000
1.9494 0.6667 0.0000
1.9494 0.6923 0.0000
1.9494 0.7179 0.0000
1.9494 0.7436 0.0000
1.9494 0.7692 0.0000
1.9494 0.7949 0.0000
1.9494 0.8205 0.0000
1.9494 0.8462 0.0000
1.9494 0.8718 0.0000
1.9494 0.8974 0.0000
1.9494 0.9231 0.0000
1.9494 0.9487 0.0000
1.9494 0.9744 0.0000
1.9494 1.0000 0.0000
1.9747 0.0000 0.0000
1.9747 0.0256 0.0000
1.9747 0.0513 0.0000
1.9747 0.0769 0.0000
1.9747 0.1026 0.0000
1.9747 0.1282 0.0000
1.9747 0.1538 0.0000
1.9747 0.1795 0.0000
1.9747 0.2051 0.0000
1.9747 0.2308 0.0000
1.9747 0.2564 0.0000
1.9747 0.2821 0.0000
1.9747 0.3077 0.0000
1.9747 0.3333 0.0000
1.9747 0.3590 0.0000
1.9747 0.3846 0.0000
1.9747 0.4103 0.0000
1.9747 0.4359 0.0000
1.9747 0.4615 0.0000
1.9747 0.4872 0.0000
1.9747 0.5128 0.0000
1.9747 0.5385 0.0000
1.9747 0.5641 0.0000
1.9747 0.5897 0.0000
1.9747 0.6154 0.0000
1.9747 0.6410 0.0000
1.9747 0.6667 0.0000
1.9747 0.6923 0.0000
1.9747 0.7179 0.0000
1.9747 0.7436 0.0000
1.9747 0.7692 0.0000
1.9747 0.7949 0.0000
1.9747 0.8205 0.0000
1.9747 0.8462 0.0000
1.9747 0.8718 0.0000
1.9747 0.8974 0.0000
1.9747 0.9231 0.0000
1.9747 0.9487 0.0000
1.9747 0.9744 0.0000
1.9747 1.0000 0.0000
2.0000 0.0000 0.0000
2.0000 0.0256 0.0000
2.0000 0.0513 0.0000
2.0000 0.0769 0.0000
2.0000 0.1026 0.0000
2.0000 0.1282 0.0000
2.0000 0.1538 0.0000
2.0000 0.1795 0.0000
2.0000 0.2051 0.0000
2.0000 0.2308 0.0000
2.0000 0.2564 0.0000
2.0000 0.2821 0.0000
2.0000 0.3077 0.0000
2.0000 0.3333 0.0000
2.0000 0.3590 0.0000
2.0000 0.3846 0.0000
2.0000 0.4103 0.0000
2.0000 0.4359 0.0000
2.0000 0.4615 0.0000
2.0000 0.4872 0.0000
2.0000 0.5128 0.0000
2.0000 0.5385 0.0000
2.0000 0.5641 0.0000
2.0000 0.5897 0.0000
2.0000 0.6154 0.0000
2.0000 0.6410 0.0000
2.0000 0.6667 0.0000
2.0000 0.6923 0.0000
2.0000 0.7179 0.0000
2.0000 0.7436 0.0000
2.0000 0.7692 0.0000
2.0000 0.7949 0.0000
2.0000 0.8205 0.0000
2.0000 0.8462 0.0000
2.0000 0.8718 0.0000
2.0000 0.8974 0.0000
2.0000 0.9231 0.0000
2.0000 0.9487 0.0000
2.0000 0.9744 0.0000
2.0000 1.0000 0.0000</DataArray>
         </Points>
         <Cells>
            <DataArray Name="connectivity" format="ascii" type="Int32">
 0 41 1
 1 42 2
 2 43 3
 3 44 4
 4 45 5
 5 46 6
 6 47 7
 7 48 8
 8 49 9
 9 50 10
 10 51 11
 11 52 12
 12 53 13
 13 54 14
 14 55 15
 15 56 16
 16 57 17
 17 58 18
 18 59 19
 19 60 20
 20 61 21
 21 62 22
 22 63 23
 23 64 24
 24 65 25
 25 66 26
 26 67 27
 27 68 28
 28 69 29
 29 70 30
 30 71 31
 31 72 32
 32 73 33
 33 74 34
 34 75 35
 35 76 36
 36 77 37
 37 78 38
 38 79 39
 40 81 41
 41 82 42
 42 83 43
 43 84 44
 44 85 45
 45 86 46
 46 87 47
 47 88 48
 48 89 49
 49 90 50
 50 91 51
 51 92 52
 52 93 53
 53 94 54
 54 95 55
 55 96 56
 56 97 57
 57 98 58
 58 99 59
 59 100 60
 60 101 61
 61 102 62
 62 103 63
 63 104 64
 64 105 65
 65 106 66
 66 107 67
 67 108 68
 68 109 69
 69 110 70
 70 111 71
 71 112 72
 72 113 73
 73 114 74
 74 115 75
 75 116 76
 76 117 77
 77 118 78
 78 119 79
 80 121 81
 81 122 82
 82 123 83
 83 124 84
 84 125 85
 85 126 86
 86 127 87
 87 128 88
 88 129 89
 89 130 90
 90 131 91
 91 132 92
 92 133 93
 93 134 94
 94 135 95
 95 136 96
 96 137 97
 97 138 98
 98 139 99
 99 140 100
 100 141 101
 101 142 102
 102 143 103
 103 144 104
 104 145 105
 105 146 106
 106 147 107
 107 148 108
 108 149 109
 109 150 110
 110 151 111
 111 152 112
 112 153 113
 113 154 114
 114 155 115
 115 156 116
 116 157 117
 117 158 118
 118 159 119
 120 161 121
 121 162 122
 122 163 123
 123 164 124
 124 165 125
 125 166 126
 126 167 127
 127 168 128
 128 169 129
 129 170 130
 130 171 131
 131 172 132
 132 173 133
 133 174 134
 134 175 135
 135 176 136
 136 177 137
 137 178 138
 138 179 139
 139 180 140
 140 181 141
 141 182 142
 142 183 143
 143 184 144
 144 185 145
 145 186 146
 146 187 147
 147 188 148
 148 189 149
 149 190 150
 150 191 151
 151 192 152
 152 193 153
 153 194 154
 154 195 155
 155 196 156
 156 197 157
 157 198 158
 158 199 159
 160 201 161
 161 202 162
 162 203 163
 163 204 164
 164 205 165
 165 206 166
 166 207 167
 167 208 168
 168 209 169
 169 210 170
 170 211 171
 171 212 172
 172 213 173
 173 214 174
 174 215 175
 175 216 176
 176 217 177
 177 218 178
 178 219 179
 179 220 180
 180 221 181
 181 222 182
 182 223 183
 183 224 184
 184 225 185
 185 226 186
 186 227 187
 187 228 188
 188 229 189
 189 230 190
 190 231 191
 191 232 192
 192 233 193
 193 234 194
 194 235 195
 195 236 196
 196 237 197
 197 238 198
 198 239 199
 200 241 201
 201 242 202
 202 243 203
 203 244 204
 204 245 205
 205 246 206
 206 247 207
 207 248 208
 208 249 209
 209 250 210
 210 251 211
 211 252 212
 212 253 213
 213 254 214
 214 255 215
 215 256 216
 216 257 217
 217 258 218
 218 259 219
 219 260 220
 220 261 221
 221 262 222
 222 263 223
 223 264 224
 224 265 225
 225 266 226
 226 267 227
 227 268 228
 228 269 229
 229 270 230
 230 271 231
 231 272 232
 232 273 233
 233 274 234
 234 275 235
 235 276 236
 236 277 237
 237 278 238
 238 279 239
 240 281 241
 241 282 242
 242 283 243
 243 284 244
 244 285 245
 245 286 246
 246 287 247
 247 288 248
 248 289 249
 249 290 250
 250 291 251
 251 292 252
 252 293 253
 253 294 254
 254 295 255
 255 296 256
 256 297 257
 257 298 258
 258 299 259
 259 300 260
 260 301 261
 261 302 262
 262 303 263
 263 304 264
 264 305 265
 265 306 266
 266 307 267
 267 308 268
 268 309 269
 269 310 270
 270 311 271
 271 312 272
 272 313 273
 273 314 274
 274 315 275
 275 316 276
 276 317 277
 277 318 278
 278 319 279
 280 321 281
 281 322 282
 282 323 283
 283 324 284
 284 325 285
 285 326 286
 286 327 287
 287 328 288
 288 329 289
 289 330 290
 290 331 291
 291 332 292
 292 333 293
 293 334 294
 294 335 295
 295 336 296
 296 337 297
 297 338 298
 298 339 299
 299 340 300
 300 341 301
 301 342 302
 302 343 303
 303 344 304
 304 345 305
 305 346 306
 306 347 307
 307 348 308
 308 349 309
 309 350 310
 310 351 311
 311 352 312
 312 353 313
 313 354 314
 314 355 315
 315 356 316
 316 357 317
 317 358 318
 318 359 319
 320 361 321
 321 362 322
 322 363 323
 323 364 324
 324 365 325
 325 366 326
 326 367 327
 327 368 328
 328 369 329
 329 370 330
 330 371 331
 331 372 332
 332 373 333
 333 374 334
 334 375 335
 335 376 336
 336 377 337
 337 378 338
 338 379 339
 339 380 340
 340 381 341
 341 382 342
 342 383 343
 343 384 344
 344 385 345
 345 386 346
 346 387 347
 347 388 348
 348 389 349
 349 390 350
 350 391 351
 351 392 352
 352 393 353
 353 394 354
 354 395 355
 355 396 356
 356 397 357
 357 398 358
 358 399 359
 360 401 361
 361 402 362
 362 403 363
 363 404 364
 364 405 365
 365 406 366
 366 407 367
 367 408 368
 368 409 369
 369 410 370
 370 411 371
 371 412 372
 372 413 373
 373 414 374
 374 415 375
 375 416 376
 376 417 377
 377 418 378
 378 419 379
 379 420 380
 380 421 381
 381 422 382
 382 423 383
 383 424 384
 384 425 385
 385 426 386
 386 427 387
 387 428 388
 388 429 389
 389 430 390
 390 431 391
 391 432 392
 392 433 393
 393 434 394
 394 435 395
 395 436 396
 396 437 397
 397 438 398
 398 439 399
 400 441 401
 401 442 402
 402 443 403
 403 444 404
 404 445 405
 405 446 406
 406 447 407
 407 448 408
 408 449 409
 409 450 410
 410 451 411
 411 452 412
 412 453 413
 413 454 414
 414 455 415
 415 456 416
 416 457 417
 417 458 418
 418 459 419
 419 460 420
 420 461 421
 421 462 422
 422 463 423
 423 464 424
 424 465 425
 425 466 426
 426 467 427
 427 468 428
 428 469 429
 429 470 430
 430 471 431
 431 472 432
 432 473 433
 433 474 434
 434 475 435
 435 476 436
 436 477 437
 437 478 438
 438 479 439
 440 481 441
 441 482 442
 442 483 443
 443 484 444
 444 485 445
 445 486 446
 446 487 447
 447 488 448
 448 489 449
 449 490 450
 450 491 451
 451 492 452
 452 493 453
 453 494 454
 454 495 455
 455 496 456
 456 497 457
 457 498 458
 458 499 459
 459 500 460
 460 501 461
 461 502 462
 462 503 463
 463 504 464
 464 505 465
 465 506 466
 466 507 467
 467 508 468
 468 509 469
 469 510 470
 470 511 471
 471 512 472
 472 513 473
 473 514 474
 474 515 475
 475 516 476
 476 517 477
 477 518 478
 478 519 479
 480 521 481
 481 522 482
 482 523 483
 483 524 484
 484 525 485
 485 526 486
 486 527 487
 487 528 488
 488 529 489
 489 530 490
 490 531 491
 491 532 492
 492 533 493
 493 534 494
 494 535 495
 495 536 496
 496 537 497
 497 538 498
 498 539 499
 499 540 500
 500 541 501
 501 542 502
 502 543 503
 503 544 504
 504 545 505
 505 546 506
 506 547 507
 507 548 508
 508 549 509
 509 550 510
 510 551 511
 511 552 512
 512 553 513
 513 554 514
 514 555 515
 515 556 516
 516 557 517
 517 558 518
 518 559 519
 520 561 521
 521 562 522
 522 563 523
 523 564 524
 524 565 525
 525 566 526
 526 567 527
 527 568 528
 528 569 529
 529 570 530
 530 571 531
 531 572 532
 532 573 533
 533 574 534
 534 575 535
 535 576 536
 536 577 537
 537 578 538
 538 579 539
 539 580 540
 540 581 541
 541 582 542
 542 583 543
 543 584 544
 544 585 545
 545 586 546
 546 587 547
 547 588 548
 548 589 549
 549 590 550
 550 591 551
 551 592 552
 552 593 553
 553 594 554
 554 595 555
 555 596 556
 556 597 557
 557 598 558
 558 599 559
 560 601 561
 561 602 562
 562 603 563
 563 604 564
 564 605 565
 565 606 566
 566 607 567
 567 608 568
 568 609 569
 569 610 570
 570 611 571
 571 612 572
 572 613 573
 573 614 574
 574 615 575
 575 616 576
 576 617 577
 577 618 578
 578 619 579
 579 620 580
 580 621 581
 581 622 582
 582 623 583
 583 624 584
 584 625 585
 585 626 586
 586 627 587
 587 628 588
 588 629 589
 589 630 590
 590 631 591
 591 632 592
 592 633 593
 593 634 594
 594 635 595
 595 636 596
 596 637 597
 597 638 598
 598 639 599
 600 641 601
 601 642 602
 602 643 603
 603 644 604
 604 645 605
 605 646 606
 606 647 607
 607 648 608
 608 649 609
 609 650 610
 610 651 611
 611 652 612
 612 653 613
 613 654 614
 614 655 615
 615 656 616
 616 657 617
 617 658 618
 618 659 619
 619 660 620
 620 661 621
 621 662 622
 622 663 623
 623 664 624
 624 665 625
 625 666 626
 626 667 627
 627 668 628
 628 669 629
 629 670 630
 630 671 631
 631 672 632
 632 673 633
 633 674 634
 634 675 635
 635 676 636
 636 677 637
 637 678 638
 638 679 639
 640 681 641
 641 682 642
 642 683 643
 643 684 644
 644 685 645
 645 686 646
 646 687 647
 647 688 648
 648 689 649
 649 690 650
 650 691 651
 651 692 652
 652 693 653
 653 694 654
 654 695 655
 655 696 656
 656 697 657
 657 698 658
 658 699 659
 659 700 660
 660 701 661
 661 702 662
 662 703 663
 663 704 664
 664 705 665
 665 706 666
 666 707 667
 667 708 668
 668 709 669
 669 710 670
 670 711 671
 671 712 672
 672 713 673
 673 714 674
 674 715 675
 675 716 676
 676 717 677
 677 718 678
 678 719 679
 680 721 681
 681 722 682
 682 723 683
 683 724 684
 684 725 685
 685 726 686
 686 727 687
 687 728 688
 688 729 689
 689 730 690
 690 731 691
 691 732 692
 692 733 693
 693 734 694
 694 735 695
 695 736 696
 696 737 697
 697 738 698
 698 739 699
 699 740 700
 700 741 701
 701 742 702
 702 743 703
 703 744 704
 704 745 705
 705 746 706
 706 747 707
 707 748 708
 708 749 709
 709 750 710
 710 751 711
 711 752 712
 712 753 713
 713 754 714
 714 755 715
 715 756 716
 716 757 717
 717 758 718
 718 759 719
 720 761 721
 721 762 722
 722 763 723
 723 764 724
 724 765 725
 725 766 726
 726 767 727
 727 768 728
 728 769 729
 729 770 730
 730 771 731
 731 772 732
 732 773 733
 733 774 734
 734 775 735
 735 776 736
 736 777 737
 737 778 738
 738 779 739
 739 780 740
 740 781 741
 741 782 742
 742 783 743
 743 784 744
 744 785 745
 745 786 746
 746 787 747
 747 788 748
 748 789 749
 749 790 750
 750 791 751
 751 792 752
 752 793 753
 753 794 754
 754 795 755
 755 796 756
 756 797 757
 757 798 758
 758 799 759
 760 801 761
 761 802 762
 762 803 763
 763 804 764
 764 805 765
 765 806 766
 766 807 767
 767 808 768
 768 809 769
 769 810 770
 770 811 771
 771 812 772
 772 813 773
 773 814 774
 774 815 775
 775 816 776
 776 817 777
 777 818 778
 778 819 779
 779 820 780
 780 821 781
 781 822 782
 782 823 783
 783 824 784
 784 825 785
 785 826 786
 786 827 787
 787 828 788
 788 829 789
 789 830 790
 790 831 791
 791 832 792
 792 833 793
 793 834 794
 794 835 795
 795 836 796
 796 837 797
 797 838 798
 798 839 799
 800 841 801
 801 842 802
 802 843 803
 803 844 804
 804 845 805
 805 846 806
 806 847 807
 807 848 808
 808 849 809
 809 850 810
 810 851 811
 811 852 812
 812 853 813
 813 854 814
 814 855 815
 815 856 816
 816 857 817
 817 858 818
 818 859 819
 819 860 820
 820 861 821
 821 862 822
 822 863 823
 823 864 824
 824 865 825
 825 866 826
 826 867 827
 827 868 828
 828 869 829
 829 870 830
 830 871 831
 831 872 832
 832 873 833
 833 874 834
 834 875 835
 835 876 836
 836 877 837
 837 878 838
 838 879 839
 840 881 841
 841 882 842
 842 883 843
 843 884 844
 844 885 845
 845 886 846
 846 887 847
 847 888 848
 848 889 849
 849 890 850
 850 891 851
 851 892 852
 852 893 853
 853 894 854
 854 895 855
 855 896 856
 856 897 857
 857 898 858
 858 899 859
 859 900 860
 860 901 861
 861 902 862
 862 903 863
 863 904 864
 864 905 865
 865 906 866
 866 907 867
 867 908 868
 868 909 869
 869 910 870
 870 911 871
 871 912 872
 872 913 873
 873 914 874
 874 915 875
 875 916 876
 876 917 877
 877 918 878
 878 919 879
 880 921 881
 881 922 882
 882 923 883
 883 924 884
 884 925 885
 885 926 886
 886 927 887
 887 928 888
 888 929 889
 889 930 890
 890 931 891
 891 932 892
 892 933 893
 893 934 894
 894 935 895
 895 936 896
 896 937 897
 897 938 898
 898 939 899
 899 940 900
 900 941 901
 901 942 902
 902 943 903
 903 944 904
 904 945 905
 905 946 906
 906 947 907
 907 948 908
 908 949 909
 909 950 910
 910 951 911
 911 952 912
 912 953 913
 913 954 914
 914 955 915
 915 956 916
 916 957 917
 917 958 918
 918 959 919
 920 961 921
 921 962 922
 922 963 923
 923 964 924
 924 965 925
 925 966 926
 926 967 927
 927 968 928
 928 969 929
 929 970 930
 930 971 931
 931 972 932
 932 973 933
 933 974 934
 934 975 935
 935 976 936
 936 977 937
 937 978 938
 938 979 939
 939 980 940
 940 981 941
 941 982 942
 942 983 943
 943 984 944
 944 985 945
 945 986 946
 946 987 947
 947 988 948
 948 989 949
 949 990 950
 950 991 951
 951 992 952
 952 993 953
 953 994 954
 954 995 955
 955 996 956
 956 997 957
 957 998 958
 958 999 959
 960 1001 961
 961 1002 962
 962 1003 963
 963 1004 964
 964 1005 965
 965 1006 966
 966 1007 967
 967 1008 968
 968 1009 969
 969 1010 970
 970 1011 971
 971 1012 972
 972 1013 973
 973 1014 974
 974 1015 975
 975 1016 976
 976 1017 977
 977 1018 978
 978 1019 979
 979 1020 980
 980 1021 981
 981 1022 982
 982 1023 983
 983 1024 984
 984 1025 985
 985 1026 986
 986 1027 987
 987 1028 988
 988 1029 989
 989 1030 990
 990 1031 991
 991 1032 992
 992 1033 993
 993 1034 994
 994 1035 995
 995 1036 996
 996 1037 997
 997 1038 998
 998 1039 999
 1000 1041 1001
 1001 1042 1002
 1002 1043 1003
 1003 1044 1004
 1004 1045 1005
 1005 1046 1006
 1006 1047 1007
 1007 1048 1008
 1008 1049 1009
 1009 1050 1010
 1010 1051 1011
 1011 1052 1012
 1012 1053 1013
 1013 1054 1014
 1014 1055 1015
 1015 1056 1016
 1016 1057 1017
 1017 1058 1018
 1018 1059 1019
 1019 1060 1020
 1020 1061 1021
 1021 1062 1022
 1022 1063 1023
 1023 1064 1024
 1024 1065 1025
 1025 1066 1026
 1026 1067 1027
 1027 1068 1028
 1028 1069 1029
 1029 1070 1030
 1030 1071 1031
 1031 1072 1032
 1032 1073 1033
 1033 1074 1034
 1034 1075 1035
 1035 1076 1036
 1036 1077 1037
 1037 1078 1038
 1038 1079 1039
 1040 1081 1041
 1041 1082 1042
 1042 1083 1043
 1043 1084 1044
 1044 1085 1045
 1045 1086 1046
 1046 1087 1047
 1047 1088 1048
 1048 1089 1049
 1049 1090 1050
 1050 1091 1051
 1051 1092 1052
 1052 1093 1053
 1053 1094 1054
 1054 1095 1055
 1055 1096 1056
 1056 1097 1057
 1057 1098 1058
 1058 1099 1059
 1059 1100 1060
 1060 1101 1061
 1061 1102 1062
 1062 1103 1063
 1063 1104 1064
 1064 1105 1065
 1065 1106 1066
 1066 1107 1067
 1067 1108 1068
 1068 1109 1069
 1069 1110 1070
 1070 1111 1071
 1071 1112 1072
 1072 1113 1073
 1073 1114 1074
 1074 1115 1075
 1075 1116 1076
 1076 1117 1077
 1077 1118 1078
 1078 1119 1079
 1080 1121 1081
 1081 1122 1082
 1082 1123 1083
 1083 1124 1084
 1084 1125 1085
 1085 1126 1086
 1086 1127 1087
 1087 1128 1088
 1088 1129 1089
 1089 1130 1090
 1090 1131 1091
 1091 1132 1092
 1092 1133 1093
 1093 1134 1094
 1094 1135 1095
 1095 1136 1096
 1096 1137 1097
 1097 1138 1098
 1098 1139 1099
 1099 1140 1100
 1100 1141 1101
 1101 1142 1102
 1102 1143 1103
 1103 1144 1104
 1104 1145 1105
 1105 1146 1106
 1106 1147 1107
 1107 1148 1108
 1108 1149 1109
 1109 1150 1110
 1110 1151 1111
 1111 1152 1112
 1112 1153 1113
 1113 1154 1114
 1114 1155 1115
 1115 1156 1116
 1116 1157 1117
 1117 1158 1118
 1118 1159 1119
 1120 1161 1121
 1121 1162 1122
 1122 1163 1123
 1123 1164 1124
 1124 1165 1125
 1125 1166 1126
 1126 1167 1127
 1127 1168 1128
 1128 1169 1129
 1129 1170 1130
 1130 1171 1131
 1131 1172 1132
 1132 1173 1133
 1133 1174 1134
 1134 1175 1135
 1135 1176 1136
 1136 1177 1137
 1137 1178 1138
 1138 1179 1139
 1139 1180 1140
 1140 1181 1141
 1141 1182 1142
 1142 1183 1143
 1143 1184 1144
 1144 1185 1145
 1145 1186 1146
 1146 1187 1147
 1147 1188 1148
 1148 1189 1149
 1149 1190 1150
 1150 1191 1151
 1151 1192 1152
 1152 1193 1153
 1153 1194 1154
 1154 1195 1155
 1155 1196 1156
 1156 1197 1157
 1157 1198 1158
 1158 1199 1159
 1160 1201 1161
 1161 1202 1162
 1162 1203 1163
 1163 1204 1164
 1164 1205 1165
 1165 1206 1166
 1166 1207 1167
 1167 1208 1168
 1168 1209 1169
 1169 1210 1170
 1170 1211 1171
 1171 1212 1172
 1172 1213 1173
 1173 1214 1174
 1174 1215 1175
 1175 1216 1176
 1176 1217 1177
 1177 1218 1178
 1178 1219 1179
 1179 1220 1180
 1180 1221 1181
 1181 1222 1182
 1182 1223 1183
 1183 1224 1184
 1184 1225 1185
 1185 1226 1186
 1186 1227 1187
 1187 1228 1188
 1188 1229 1189
 1189 1230 1190
 1190 1231 1191
 1191 1232 1192
 1192 1233 1193
 1193 1234 1194
 1194 1235 1195
 1195 1236 1196
 1196 1237 1197
 1197 1238 1198
 1198 1239 1199
 1200 1241 1201
 1201 1242 1202
 1202 1243 1203
 1203 1244 1204
 1204 1245 1205
 1205 1246 1206
 1206 1247 1207
 1207 1248 1208
 1208 1249 1209
 1209 1250 1210
 1210 1251 1211
 1211 1252 1212
 1212 1253 1213
 1213 1254 1214
 1214 1255 1215
 1215 1256 1216
 1216 1257 1217
 1217 1258 1218
 1218 1259 1219
 1219 1260 1220
 1220 1261 1221
 1221 1262 1222
 1222 1263 1223
 1223 1264 1224
 1224 1265 1225
 1225 1266 1226
 1226 1267 1227
 1227 1268 1228
 1228 1269 1229
 1229 1270 1230
 1230 1271 1231
 1231 1272 1232
 1232 1273 1233
 1233 1274 1234
 1234 1275 1235
 1235 1276 1236
 1236 1277 1237
 1237 1278 1238
 1238 1279 1239
 1240 1281 1241
 1241 1282 1242
 1242 1283 1243
 1243 1284 1244
 1244 1285 1245
 1245 1286 1246
 1246 1287 1247
 1247 1288 1248
 1248 1289 1249
 1249 1290 1250
 1250 1291 1251
 1251 1292 1252
 1252 1293 1253
 1253 1294 1254
 1254 1295 1255
 1255 1296 1256
 1256 1297 1257
 1257 1298 1258
 1258 1299 1259
 1259 1300 1260
 1260 1301 1261
 1261 1302 1262
 1262 1303 1263
 1263 1304 1264
 1264 1305 1265
 1265 1306 1266
 1266 1307 1267
 1267 1308 1268
 1268 1309 1269
 1269 1310 1270
 1270 1311 1271
 1271 1312 1272
 1272 1313 1273
 1273 1314 1274
 1274 1315 1275
 1275 1316 1276
 1276 1317 1277
 1277 1318 1278
 1278 1319 1279
 1280 1321 1281
 1281 1322 1282
 1282 1323 1283
 1283 1324 1284
 1284 1325 1285
 1285 1326 1286
 1286 1327 1287
 1287 1328 1288
 1288 1329 1289
 1289 1330 1290
 1290 1331 1291
 1291 1332 1292
 1292 1333 1293
 1293 1334 1294
 1294 1335 1295
 1295 1336 1296
 1296 1337 1297
 1297 1338 1298
 1298 1339 1299
 1299 1340 1300
 1300 1341 1301
 1301 1342 1302
 1302 1343 1303
 1303 1344 1304
 1304 1345 1305
 1305 1346 1306
 1306 1347 1307
 1307 1348 1308
 1308 1349 1309
 1309 1350 1310
 1310 1351 1311
 1311 1352 1312
 1312 1353 1313
 1313 1354 1314
 1314 1355 1315
 1315 1356 1316
 1316 1357 1317
 1317 1358 1318
 1318 1359 1319
 1320 1361 1321
 1321 1362 1322
 1322 1363 1323
 1323 1364 1324
 1324 1365 1325
 1325 1366 1326
 1326 1367 1327
 1327 1368 1328
 1328 1369 1329
 1329 1370 1330
 1330 1371 1331
 1331 1372 1332
 1332 1373 1333
 1333 1374 1334
 1334 1375 1335
 1335 1376 1336
 1336 1377 1337
 1337 1378 1338
 1338 1379 1339
 1339 1380 1340
 1340 1381 1341
 1341 1382 1342
 1342 1383 1343
 1343 1384 1344
 1344 1385 1345
 1345 1386 1346
 1346 1387 1347
 1347 1388 1348
 1348 1389 1349
 1349 1390 1350
 1350 1391 1351
 1351 1392 1352
 1352 1393 1353
 1353 1394 1354
 1354 1395 1355
 1355 1396 1356
 1356 1397 1357
 1357 1398 1358
 1358 1399 1359
 1360 1401 1361
 1361 1402 1362
 1362 1403 1363
 1363 1404 1364
 1364 1405 1365
 1365 1406 1366
 1366 1407 1367
 1367 1408 1368
 1368 1409 1369
 1369 1410 1370
 1370 1411 1371
 1371 1412 1372
 1372 1413 1373
 1373 1414 1374
 1374 1415 1375
 1375 1416 1376
 1376 1417 1377
 1377 1418 1378
 1378 1419 1379
 1379 1420 1380
 1380 1421 1381
 1381 1422 1382
 1382 1423 1383
 1383 1424 1384
 1384 1425 1385
 1385 1426 1386
 1386 1427 1387
 1387 1428 1388
 1388 1429 1389
 1389 1430 1390
 1390 1431 1391
 1391 1432 1392
 1392 1433 1393
 1393 1434 1394
 1394 1435 1395
 1395 1436 1396
 1396 1437 1397
 1397 1438 1398
 1398 1439 1399
 1400 1441 1401
 1401 1442 1402
 1402 1443 1403
 1403 1444 1404
 1404 1445 1405
 1405 1446 1406
 1406 1447 1407
 1407 1448 1408
 1408 1449 1409
 1409 1450 1410
 1410 1451 1411
 1411 1452 1412
 1412 1453 1413
 1413 1454 1414
 1414 1455 1415
 1415 1456 1416
 1416 1457 1417
 1417 1458 1418
 1418 1459 1419
 1419 1460 1420
 1420 1461 1421
 1421 1462 1422
 1422 1463 1423
 1423 1464 1424
 1424 1465 1425
 1425 1466 1426
 1426 1467 1427
 1427 1468 1428
 1428 1469 1429
 1429 1470 1430
 1430 1471 1431
 1431 1472 1432
 1432 1473 1433
 1433 1474 1434
 1434 1475 1435
 1435 1476 1436
 1436 1477 1437
 1437 1478 1438
 1438 1479 1439
 1440 1481 1441
 1441 1482 1442
 1442 1483 1443
 1443 1484 1444
 1444 1485 1445
 1445 1486 1446
 1446 1487 1447
 1447 1488 1448
 1448 1489 1449
 1449 1490 1450
 1450 1491 1451
 1451 1492 1452
 1452 1493 1453
 1453 1494 1454
 1454 1495 1455
 1455 1496 1456
 1456 1497 1457
 1457 1498 1458
 1458 1499 1459
 1459 1500 1460
 1460 1501 1461
 1461 1502 1462
 1462 1503 1463
 1463 1504 1464
 1464 1505 1465
 1465 1506 1466
 1466 1507 1467
 1467 1508 1468
 1468 1509 1469
 1469 1510 1470
 1470 1511 1471
 1471 1512 1472
 1472 1513 1473
 1473 1514 1474
 1474 1515 1475
 1475 1516 1476
 1476 1517 1477
 1477 1518 1478
 1478 1519 1479
 1480 1521 1481
 1481 1522 1482
 1482 1523 1483
 1483 1524 1484
 1484 1525 1485
 1485 1526 1486
 1486 1527 1487
 1487 1528 1488
 1488 1529 1489
 1489 1530 1490
 1490 1531 1491
 1491 1532 1492
 1492 1533 1493
 1493 1534 1494
 1494 1535 1495
 1495 1536 1496
 1496 1537 1497
 1497 1538 1498
 1498 1539 1499
 1499 1540 1500
 1500 1541 1501
 1501 1542 1502
 1502 1543 1503
 1503 1544 1504
 1504 1545 1505
 1505 1546 1506
 1506 1547 1507
 1507 1548 1508
 1508 1549 1509
 1509 1550 1510
 1510 1551 1511
 1511 1552 1512
 1512 1553 1513
 1513 1554 1514
 1514 1555 1515
 1515 1556 1516
 1516 1557 1517
 1517 1558 1518
 1518 1559 1519
 1520 1561 1521
 1521 1562 1522
 1522 1563 1523
 1523 1564 1524
 1524 1565 1525
 1525 1566 1526
 1526 1567 1527
 1527 1568 1528
 1528 1569 1529
 1529 1570 1530
 1530 1571 1531
 1531 1572 1532
 1532 1573 1533
 1533 1574 1534
 1534 1575 1535
 1535 1576 1536
 1536 1577 1537
 1537 1578 1538
 1538 1579 1539
 1539 1580 1540
 1540 1581 1541
 1541 1582 1542
 1542 1583 1543
 1543 1584 1544
 1544 1585 1545
 1545 1586 1546
 1546 1587 1547
 1547 1588 1548
 1548 1589 1549
 1549 1590 1550
 1550 1591 1551
 1551 1592 1552
 1552 1593 1553
 1553 1594 1554
 1554 1595 1555
 1555 1596 1556
 1556 1597 1557
 1557 1598 1558
 1558 1599 1559
 1560 1601 1561
 1561 1602 1562
 1562 1603 1563
 1563 1604 1564
 1564 1605 1565
 1565 1606 1566
 1566 1607 1567
 1567 1608 1568
 1568 1609 1569
 1569 1610 1570
 1570 1611 1571
 1571 1612 1572
 1572 1613 1573
 1573 1614 1574
 1574 1615 1575
 1575 1616 1576
 1576 1617 1577
 1577 1618 1578
 1578 1619 1579
 1579 1620 1580
 1580 1621 1581
 1581 1622 1582
 1582 1623 1583
 1583 1624 1584
 1584 1625 1585
 1585 1626 1586
 1586 1627 1587
 1587 1628 1588
 1588 1629 1589
 1589 1630 1590
 1590 1631 1591
 1591 1632 1592
 1592 1633 1593
 1593 1634 1594
 1594 1635 1595
 1595 1636 1596
 1596 1637 1597
 1597 1638 1598
 1598 1639 1599
 1600 1641 1601
 1601 1642 1602
 1602 1643 1603
 1603 1644 1604
 1604 1645 1605
 1605 1646 1606
 1606 1647 1607
 1607 1648 1608
 1608 1649 1609
 1609 1650 1610
 1610 1651 1611
 1611 1652 1612
 1612 1653 1613
 1613 1654 1614
 1614 1655 1615
 1615 1656 1616
 1616 1657 1617
 1617 1658 1618
 1618 1659 1619
 1619 1660 1620
 1620 1661 1621
 1621 1662 1622
 1622 1663 1623
 1623 1664 1624
 1624 1665 1625
 1625 1666 1626
 1626 1667 1627
 1627 1668 1628
 1628 1669 1629
 1629 1670 1630
 1630 1671 1631
 1631 1672 1632
 1632 1673 1633
 1633 1674 1634
 1634 1675 1635
 1635 1676 1636
 1636 1677 1637
 1637 1678 1638
 1638 1679 1639
 1640 1681 1641
 1641 1682 1642
 1642 1683 1643
 1643 1684 1644
 1644 1685 1645
 1645 1686 1646
 1646 1687 1647
 1647 1688 1648
 1648 1689 1649
 1649 1690 1650
 1650 1691 1651
 1651 1692 1652
 1652 1693 1653
 1653 1694 1654
 1654 1695 1655
 1655 1696 1656
 1656 1697 1657
 1657 1698 1658
 1658 1699 1659
 1659 1700 1660
 1660 1701 1661
 1661 1702 1662
 1662 1703 1663
 1663 1704 1664
 1664 1705 1665
 1665 1706 1666
 1666 1707 1667
 1667 1708 1668
 1668 1709 1669
 1669 1710 1670
 1670 1711 1671
 1671 1712 1672
 1672 1713 1673
 1673 1714 1674
 1674 1715 1675
 1675 1716 1676
 1676 1717 1677
 1677 1718 1678
 1678 1719 1679
 1680 1721 1681
 1681 1722 1682
 1682 1723 1683
 1683 1724 1684
 1684 1725 1685
 1685 1726 1686
 1686 1727 1687
 1687 1728 1688
 1688 1729 1689
 1689 1730 1690
 1690 1731 1691
 1691 1732 1692
 1692 1733 1693
 1693 1734 1694
 1694 1735 1695
 1695 1736 1696
 1696 1737 1697
 1697 1738 1698
 1698 1739 1699
 1699 1740 1700
 1700 1741 1701
 1701 1742 1702
 1702 1743 1703
 1703 1744 1704
 1704 1745 1705
 1705 1746 1706
 1706 1747 1707
 1707 1748 1708
 1708 1749 1709
 1709 1750 1710
 1710 1751 1711
 1711 1752 1712
 1712 1753 1713
 1713 1754 1714
 1714 1755 1715
 1715 1756 1716
 1716 1757 1717
 1717 1758 1718
 1718 1759 1719
 1720 1761 1721
 1721 1762 1722
 1722 1763 1723
 1723 1764 1724
 1724 1765 1725
 1725 1766 1726
 1726 1767 1727
 1727 1768 1728
 1728 1769 1729
 1729 1770 1730
 1730 1771 1731
 1731 1772 1732
 1732 1773 1733
 1733 1774 1734
 1734 1775 1735
 1735 1776 1736
 1736 1777 1737
 1737 1778 1738
 1738 1779 1739
 1739 1780 1740
 1740 1781 1741
 1741 1782 1742
 1742 1783 1743
 1743 1784 1744
 1744 1785 1745
 1745 1786 1746
 1746 1787 1747
 1747 1788 1748
 1748 1789 1749
 1749 1790 1750
 1750 1791 1751
 1751 1792 1752
 1752 1793 1753
 1753 1794 1754
 1754 1795 1755
 1755 1796 1756
 1756 1797 1757
 1757 1798 1758
 1758 1799 1759
 1760 1801 1761
 1761 1802 1762
 1762 1803 1763
 1763 1804 1764
 1764 1805 1765
 1765 1806 1766
 1766 1807 1767
 1767 1808 1768
 1768 1809 1769
 1769 1810 1770
 1770 1811 1771
 1771 1812 1772
 1772 1813 1773
 1773 1814 1774
 1774 1815 1775
 1775 1816 1776
 1776 1817 1777
 1777 1818 1778
 1778 1819 1779
 1779 1820 1780
 1780 1821 1781
 1781 1822 1782
 1782 1823 1783
 1783 1824 1784
 1784 1825 1785
 1785 1826 1786
 1786 1827 1787
 1787 1828 1788
 1788 1829 1789
 1789 1830 1790
 1790 1831 1791
 1791 1832 1792
 1792 1833 1793
 1793 1834 1794
 1794 1835 1795
 1795 1836 1796
 1796 1837 1797
 1797 1838 1798
 1798 1839 1799
 1800 1841 1801
 1801 1842 1802
 1802 1843 1803
 1803 1844 1804
 1804 1845 1805
 1805 1846 1806
 1806 1847 1807
 1807 1848 1808
 1808 1849 1809
 1809 1850 1810
 1810 1851 1811
 1811 1852 1812
 1812 1853 1813
 1813 1854 1814
 1814 1855 1815
 1815 1856 1816
 1816 1857 1817
 1817 1858 1818
 1818 1859 1819
 1819 1860 1820
 1820 1861 1821
 1821 1862 1822
 1822 1863 1823
 1823 1864 1824
 1824 1865 1825
 1825 1866 1826
 1826 1867 1827
 1827 1868 1828
 1828 1869 1829
 1829 1870 1830
 1830 1871 1831
 1831 1872 1832
 1832 1873 1833
 1833 1874 1834
 1834 1875 1835
 1835 1876 1836
 1836 1877 1837
 1837 1878 1838
 1838 1879 1839
 1840 1881 1841
 1841 1882 1842
 1842 1883 1843
 1843 1884 1844
 1844 1885 1845
 1845 1886 1846
 1846 1887 1847
 1847 1888 1848
 1848 1889 1849
 1849 1890 1850
 1850 1891 1851
 1851 1892 1852
 1852 1893 1853
 1853 1894 1854
 1854 1895 1855
 1855 1896 1856
 1856 1897 1857
 1857 1898 1858
 1858 1899 1859
 1859 1900 1860
 1860 1901 1861
 1861 1902 1862
 1862 1903 1863
 1863 1904 1864
 1864 1905 1865
 1865 1906 1866
 1866 1907 1867
 1867 1908 1868
 1868 1909 1869
 1869 1910 1870
 1870 1911 1871
 1871 1912 1872
 1872 1913 1873
 1873 1914 1874
 1874 1915 1875
 1875 1916 1876
 1876 1917 1877
 1877 1918 1878
 1878 1919 1879
 1880 1921 1881
 1881 1922 1882
 1882 1923 1883
 1883 1924 1884
 1884 1925 1885
 1885 1926 1886
 1886 1927 1887
 1887 1928 1888
 1888 1929 1889
 1889 1930 1890
 1890 1931 1891
 1891 1932 1892
 1892 1933 1893
 1893 1934 1894
 1894 1935 1895
 1895 1936 1896
 1896 1937 1897
 1897 1938 1898
 1898 1939 1899
 1899 1940 1900
 1900 1941 1901
 1901 1942 1902
 1902 1943 1903
 1903 1944 1904
 1904 1945 1905
 1905 1946 1906
 1906 1947 1907
 1907 1948 1908
 1908 1949 1909
 1909 1950 1910
 1910 1951 1911
 1911 1952 1912
 1912 1953 1913
 1913 1954 1914
 1914 1955 1915
 1915 1956 1916
 1916 1957 1917
 1917 1958 1918
 1918 1959 1919
 1920 1961 1921
 1921 1962 1922
 1922 1963 1923
 1923 1964 1924
 1924 1965 1925
 1925 1966 1926
 1926 1967 1927
 1927 1968 1928
 1928 1969 1929
 1929 1970 1930
 1930 1971 1931
 1931 1972 1932
 1932 1973 1933
 1933 1974 1934
 1934 1975 1935
 1935 1976 1936
 1936 1977 1937
 1937 1978 1938
 1938 1979 1939
 1939 1980 1940
 1940 1981 1941
 1941 1982 1942
 1942 1983 1943
 1943 1984 1944
 1944 1985 1945
 1945 1986 1946
 1946 1987 1947
 1947 1988 1948
 1948 1989 1949
 1949 1990 1950
 1950 1991 1951
 1951 1992 1952
 1952 1993 1953
 1953 1994 1954
 1954 1995 1955
 1955 1996 1956
 1956 1997 1957
 1957 1998 1958
 1958 1999 1959
 1960 2001 1961
 1961 2002 1962
 1962 2003 1963
 1963 2004 1964
 1964 2005 1965
 1965 2006 1966
 1966 2007 1967
 1967 2008 1968
 1968 2009 1969
 1969 2010 1970
 1970 2011 1971
 1971 2012 1972
 1972 2013 1973
 1973 2014 1974
 1974 2015 1975
 1975 2016 1976
 1976 2017 1977
 1977 2018 1978
 1978 2019 1979
 1979 2020 1980
 1980 2021 1981
 1981 2022 1982
 1982 2023 1983
 1983 2024 1984
 1984 2025 1985
 1985 2026 1986
 1986 2027 1987
 1987 2028 1988
 1988 2029 1989
 1989 2030 1990
 1990 2031 1991
 1991 2032 1992
 1992 2033 1993
 1993 2034 1994
 1994 2035 1995
 1995 2036 1996
 1996 2037 1997
 1997 2038 1998
 1998 2039 1999
 2000 2041 2001
 2001 2042 2002
 2002 2043 2003
 2003 2044 2004
 2004 2045 2005
 2005 2046 2006
 2006 2047 2007
 2007 2048 2008
 2008 2049 2009
 2009 2050 2010
 2010 2051 2011
 2011 2052 2012
 2012 2053 2013
 2013 2054 2014
 2014 2055 2015
 2015 2056 2016
 2016 2057 2017
 2017 2058 2018
 2018 2059 2019
 2019 2060 2020
 2020 2061 2021
 2021 2062 2022
 2022 2063 2023
 2023 2064 2024
 2024 2065 2025
 2025 2066 2026
 2026 2067 2027
 2027 2068 2028
 2028 2069 2029
 2029 2070 2030
 2030 2071 2031
 2031 2072 2032
 2032 2073 2033
 2033 2074 2034
 2034 2075 2035
 2035 2076 2036
 2036 2077 2037
 2037 2078 2038
 2038 2079 2039
 2040 2081 2041
 2041 2082 2042
 2042 2083 2043
 2043 2084 2044
 2044 2085 2045
 2045 2086 2046
 2046 2087 2047
 2047 2088 2048
 2048 2089 2049
 2049 2090 2050
 2050 2091 2051
 2051 2092 2052
 2052 2093 2053
 2053 2094 2054
 2054 2095 2055
 2055 2096 2056
 2056 2097 2057
 2057 2098 2058
 2058 2099 2059
 2059 2100 2060
 2060 2101 2061
 2061 2102 2062
 2062 2103 2063
 2063 2104 2064
 2064 2105 2065
 2065 2106 2066
 2066 2107 2067
 2067 2108 2068
 2068 2109 2069
 2069 2110 2070
 2070 2111 2071
 2071 2112 2072
 2072 2113 2073
 2073 2114 2074
 2074 2115 2075
 2075 2116 2076
 2076 2117 2077
 2077 2118 2078
 2078 2119 2079
 2080 2121 2081
 2081 2122 2082
 2082 2123 2083
 2083 2124 2084
 2084 2125 2085
 2085 2126 2086
 2086 2127 2087
 2087 2128 2088
 2088 2129 2089
 2089 2130 2090
 2090 2131 2091
 2091 2132 2092
 2092 2133 2093
 2093 2134 2094
 2094 2135 2095
 2095 2136 2096
 2096 2137 2097
 2097 2138 2098
 2098 2139 2099
 2099 2140 2100
 2100 2141 2101
 2101 2142 2102
 2102 2143 2103
 2103 2144 2104
 2104 2145 2105
 2105 2146 2106
 2106 2147 2107
 2107 2148 2108
 2108 2149 2109
 2109 2150 2110
 2110 2151 2111
 2111 2152 2112
 2112 2153 2113
 2113 2154 2114
 2114 2155 2115
 2115 2156 2116
 2116 2157 2117
 2117 2158 2118
 2118 2159 2119
 2120 2161 2121
 2121 2162 2122
 2122 2163 2123
 2123 2164 2124
 2124 2165 2125
 2125 2166 2126
 2126 2167 2127
 2127 2168 2128
 2128 2169 2129
 2129 2170 2130
 2130 2171 2131
 2131 2172 2132
 2132 2173 2133
 2133 2174 2134
 2134 2175 2135
 2135 2176 2136
 2136 2177 2137
 2137 2178 2138
 2138 2179 2139
 2139 2180 2140
 2140 2181 2141
 2141 2182 2142
 2142 2183 2143
 2143 2184 2144
 2144 2185 2145
 2145 2186 2146
 2146 2187 2147
 2147 2188 2148
 2148 2189 2149
 2149 2190 2150
 2150 2191 2151
 2151 2192 2152
 2152 2193 2153
 2153 2194 2154
 2154 2195 2155
 2155 2196 2156
 2156 2197 2157
 2157 2198 2158
 2158 2199 2159
 2160 2201 2161
 2161 2202 2162
 2162 2203 2163
 2163 2204 2164
 2164 2205 2165
 2165 2206 2166
 2166 2207 2167
 2167 2208 2168
 2168 2209 2169
 2169 2210 2170
 2170 2211 2171
 2171 2212 2172
 2172 2213 2173
 2173 2214 2174
 2174 2215 2175
 2175 2216 2176
 2176 2217 2177
 2177 2218 2178
 2178 2219 2179
 2179 2220 2180
 2180 2221 2181
 2181 2222 2182
 2182 2223 2183
 2183 2224 2184
 2184 2225 2185
 2185 2226 2186
 2186 2227 2187
 2187 2228 2188
 2188 2229 2189
 2189 2230 2190
 2190 2231 2191
 2191 2232 2192
 2192 2233 2193
 2193 2234 2194
 2194 2235 2195
 2195 2236 2196
 2196 2237 2197
 2197 2238 2198
 2198 2239 2199
 2200 2241 2201
 2201 2242 2202
 2202 2243 2203
 2203 2244 2204
 2204 2245 2205
 2205 2246 2206
 2206 2247 2207
 2207 2248 2208
 2208 2249 2209
 2209 2250 2210
 2210 2251 2211
 2211 2252 2212
 2212 2253 2213
 2213 2254 2214
 2214 2255 2215
 2215 2256 2216
 2216 2257 2217
 2217 2258 2218
 2218 2259 2219
 2219 2260 2220
 2220 2261 2221
 2221 2262 2222
 2222 2263 2223
 2223 2264 2224
 2224 2265 2225
 2225 2266 2226
 2226 2267 2227
 2227 2268 2228
 2228 2269 2229
 2229 2270 2230
 2230 2271 2231
 2231 2272 2232
 2232 2273 2233
 2233 2274 2234
 2234 2275 2235
 2235 2276 2236
 2236 2277 2237
 2237 2278 2238
 2238 2279 2239
 2240 2281 2241
 2241 2282 2242
 2242 2283 2243
 2243 2284 2244
 2244 2285 2245
 2245 2286 2246
 2246 2287 2247
 2247 2288 2248
 2248 2289 2249
 2249 2290 2250
 2250 2291 2251
 2251 2292 2252
 2252 2293 2253
 2253 2294 2254
 2254 2295 2255
 2255 2296 2256
 2256 2297 2257
 2257 2298 2258
 2258 2299 2259
 2259 2300 2260
 2260 2301 2261
 2261 2302 2262
 2262 2303 2263
 2263 2304 2264
 2264 2305 2265
 2265 2306 2266
 2266 2307 2267
 2267 2308 2268
 2268 2309 2269
 2269 2310 2270
 2270 2311 2271
 2271 2312 2272
 2272 2313 2273
 2273 2314 2274
 2274 2315 2275
 2275 2316 2276
 2276 2317 2277
 2277 2318 2278
 2278 2319 2279
 2280 2321 2281
 2281 2322 2282
 2282 2323 2283
 2283 2324 2284
 2284 2325 2285
 2285 2326 2286
 2286 2327 2287
 2287 2328 2288
 2288 2329 2289
 2289 2330 2290
 2290 2331 2291
 2291 2332 2292
 2292 2333 2293
 2293 2334 2294
 2294 2335 2295
 2295 2336 2296
 2296 2337 2297
 2297 2338 2298
 2298 2339 2299
 2299 2340 2300
 2300 2341 2301
 2301 2342 2302
 2302 2343 2303
 2303 2344 2304
 2304 2345 2305
 2305 2346 2306
 2306 2347 2307
 2307 2348 2308
 2308 2349 2309
 2309 2350 2310
 2310 2351 2311
 2311 2352 2312
 2312 2353 2313
 2313 2354 2314
 2314 2355 2315
 2315 2356 2316
 2316 2357 2317
 2317 2358 2318
 2318 2359 2319
 2320 2361 2321
 2321 2362 2322
 2322 2363 2323
 2323 2364 2324
 2324 2365 2325
 2325 2366 2326
 2326 2367 2327
 2327 2368 2328
 2328 2369 2329
 2329 2370 2330
 2330 2371 2331
 2331 2372 2332
 2332 2373 2333
 2333 2374 2334
 2334 2375 2335
 2335 2376 2336
 2336 2377 2337
 2337 2378 2338
 2338 2379 2339
 2339 2380 2340
 2340 2381 2341
 2341 2382 2342
 2342 2383 2343
 2343 2384 2344
 2344 2385 2345
 2345 2386 2346
 2346 2387 2347
 2347 2388 2348
 2348 2389 2349
 2349 2390 2350
 2350 2391 2351
 2351 2392 2352
 2352 2393 2353
 2353 2394 2354
 2354 2395 2355
 2355 2396 2356
 2356 2397 2357
 2357 2398 2358
 2358 2399 2359
 2360 2401 2361
 2361 2402 2362
 2362 2403 2363
 2363 2404 2364
 2364 2405 2365
 2365 2406 2366
 2366 2407 2367
 2367 2408 2368
 2368 2409 2369
 2369 2410 2370
 2370 2411 2371
 2371 2412 2372
 2372 2413 2373
 2373 2414 2374
 2374 2415 2375
 2375 2416 2376
 2376 2417 2377
 2377 2418 2378
 2378 2419 2379
 2379 2420 2380
 2380 2421 2381
 2381 2422 2382
 2382 2423 2383
 2383 2424 2384
 2384 2425 2385
 2385 2426 2386
 2386 2427 2387
 2387 2428 2388
 2388 2429 2389
 2389 2430 2390
 2390 2431 2391
 2391 2432 2392
 2392 2433 2393
 2393 2434 2394
 2394 2435 2395
 2395 2436 2396
 2396 2437 2397
 2397 2438 2398
 2398 2439 2399
 2400 2441 2401
 2401 2442 2402
 2402 2443 2403
 2403 2444 2404
 2404 2445 2405
 2405 2446 2406
 2406 2447 2407
 2407 2448 2408
 2408 2449 2409
 2409 2450 2410
 2410 2451 2411
 2411 2452 2412
 2412 2453 2413
 2413 2454 2414
 2414 2455 2415
 2415 2456 2416
 2416 2457 2417
 2417 2458 2418
 2418 2459 2419
 2419 2460 2420
 2420 2461 2421
 2421 2462 2422
 2422 2463 2423
 2423 2464 2424
 2424 2465 2425
 2425 2466 2426
 2426 2467 2427
 2427 2468 2428
 2428 2469 2429
 2429 2470 2430
 2430 2471 2431
 2431 2472 2432
 2432 2473 2433
 2433 2474 2434
 2434 2475 2435
 2435 2476 2436
 2436 2477 2437
 2437 2478 2438
 2438 2479 2439
 2440 2481 2441
 2441 2482 2442
 2442 2483 2443
 2443 2484 2444
 2444 2485 2445
 2445 2486 2446
 2446 2487 2447
 2447 2488 2448
 2448 2489 2449
 2449 2490 2450
 2450 2491 2451
 2451 2492 2452
 2452 2493 2453
 2453 2494 2454
 2454 2495 2455
 2455 2496 2456
 2456 2497 2457
 2457 2498 2458
 2458 2499 2459
 2459 2500 2460
 2460 2501 2461
 2461 2502 2462
 2462 2503 2463
 2463 2504 2464
 2464 2505 2465
 2465 2506 2466
 2466 2507 2467
 2467 2508 2468
 2468 2509 2469
 2469 2510 2470
 2470 2511 2471
 2471 2512 2472
 2472 2513 2473
 2473 2514 2474
 2474 2515 2475
 2475 2516 2476
 2476 2517 2477
 2477 2518 2478
 2478 2519 2479
 2480 2521 2481
 2481 2522 2482
 2482 2523 2483
 2483 2524 2484
 2484 2525 2485
 2485 2526 2486
 2486 2527 2487
 2487 2528 2488
 2488 2529 2489
 2489 2530 2490
 2490 2531 2491
 2491 2532 2492
 2492 2533 2493
 2493 2534 2494
 2494 2535 2495
 2495 2536 2496
 2496 2537 2497
 2497 2538 2498
 2498 2539 2499
 2499 2540 2500
 2500 2541 2501
 2501 2542 2502
 2502 2543 2503
 2503 2544 2504
 2504 2545 2505
 2505 2546 2506
 2506 2547 2507
 2507 2548 2508
 2508 2549 2509
 2509 2550 2510
 2510 2551 2511
 2511 2552 2512
 2512 2553 2513
 2513 2554 2514
 2514 2555 2515
 2515 2556 2516
 2516 2557 2517
 2517 2558 2518
 2518 2559 2519
 2520 2561 2521
 2521 2562 2522
 2522 2563 2523
 2523 2564 2524
 2524 2565 2525
 2525 2566 2526
 2526 2567 2527
 2527 2568 2528
 2528 2569 2529
 2529 2570 2530
 2530 2571 2531
 2531 2572 2532
 2532 2573 2533
 2533 2574 2534
 2534 2575 2535
 2535 2576 2536
 2536 2577 2537
 2537 2578 2538
 2538 2579 2539
 2539 2580 2540
 2540 2581 2541
 2541 2582 2542
 2542 2583 2543
 2543 2584 2544
 2544 2585 2545
 2545 2586 2546
 2546 2587 2547
 2547 2588 2548
 2548 2589 2549
 2549 2590 2550
 2550 2591 2551
 2551 2592 2552
 2552 2593 2553
 2553 2594 2554
 2554 2595 2555
 2555 2596 2556
 2556 2597 2557
 2557 2598 2558
 2558 2599 2559
 2560 2601 2561
 2561 2602 2562
 2562 2603 2563
 2563 2604 2564
 2564 2605 2565
 2565 2606 2566
 2566 2607 2567
 2567 2608 2568
 2568 2609 2569
 2569 2610 2570
 2570 2611 2571
 2571 2612 2572
 2572 2613 2573
 2573 2614 2574
 2574 2615 2575
 2575 2616 2576
 2576 2617 2577
 2577 2618 2578
 2578 2619 2579
 2579 2620 2580
 2580 2621 2581
 2581 2622 2582
 2582 2623 2583
 2583 2624 2584
 2584 2625 2585
 2585 2626 2586
 2586 2627 2587
 2587 2628 2588
 2588 2629 2589
 2589 2630 2590
 2590 2631 2591
 2591 2632 2592
 2592 2633 2593
 2593 2634 2594
 2594 2635 2595
 2595 2636 2596
 2596 2637 2597
 2597 2638 2598
 2598 2639 2599
 2600 2641 2601
 2601 2642 2602
 2602 2643 2603
 2603 2644 2604
 2604 2645 2605
 2605 2646 2606
 2606 2647 2607
 2607 2648 2608
 2608 2649 2609
 2609 2650 2610
 2610 2651 2611
 2611 2652 2612
 2612 2653 2613
 2613 2654 2614
 2614 2655 2615
 2615 2656 2616
 2616 2657 2617
 2617 2658 2618
 2618 2659 2619
 2619 2660 2620
 2620 2661 2621
 2621 2662 2622
 2622 2663 2623
 2623 2664 2624
 2624 2665 2625
 2625 2666 2626
 2626 2667 2627
 2627 2668 2628
 2628 2669 2629
 2629 2670 2630
 2630 2671 2631
 2631 2672 2632
 2632 2673 2633
 2633 2674 2634
 2634 2675 2635
 2635 2676 2636
 2636 2677 2637
 2637 2678 2638
 2638 2679 2639
 2640 2681 2641
 2641 2682 2642
 2642 2683 2643
 2643 2684 2644
 2644 2685 2645
 2645 2686 2646
 2646 2687 2647
 2647 2688 2648
 2648 2689 2649
 2649 2690 2650
 2650 2691 2651
 2651 2692 2652
 2652 2693 2653
 2653 2694 2654
 2654 2695 2655
 2655 2696 2656
 2656 2697 2657
 2657 2698 2658
 2658 2699 2659
 2659 2700 2660
 2660 2701 2661
 2661 2702 2662
 2662 2703 2663
 2663 2704 2664
 2664 2705 2665
 2665 2706 2666
 2666 2707 2667
 2667 2708 2668
 2668 2709 2669
 2669 2710 2670
 2670 2711 2671
 2671 2712 2672
 2672 2713 2673
 2673 2714 2674
 2674 2715 2675
 2675 2716 2676
 2676 2717 2677
 2677 2718 2678
 2678 2719 2679
 2680 2721 2681
 2681 2722 2682
 2682 2723 2683
 2683 2724 2684
 2684 2725 2685
 2685 2726 2686
 2686 2727 2687
 2687 2728 2688
 2688 2729 2689
 2689 2730 2690
 2690 2731 2691
 2691 2732 2692
 2692 2733 2693
 2693 2734 2694
 2694 2735 2695
 2695 2736 2696
 2696 2737 2697
 2697 2738 2698
 2698 2739 2699
 2699 2740 2700
 2700 2741 2701
 2701 2742 2702
 2702 2743 2703
 2703 2744 2704
 2704 2745 2705
 2705 2746 2706
 2706 2747 2707
 2707 2748 2708
 2708 2749 2709
 2709 2750 2710
 2710 2751 2711
 2711 2752 2712
 2712 2753 2713
 2713 2754 2714
 2714 2755 2715
 2715 2756 2716
 2716 2757 2717
 2717 2758 2718
 2718 2759 2719
 2720 2761 2721
 2721 2762 2722
 2722 2763 2723
 2723 2764 2724
 2724 2765 2725
 2725 2766 2726
 2726 2767 2727
 2727 2768 2728
 2728 2769 2729
 2729 2770 2730
 2730 2771 2731
 2731 2772 2732
 2732 2773 2733
 2733 2774 2734
 2734 2775 2735
 2735 2776 2736
 2736 2777 2737
 2737 2778 2738
 2738 2779 2739
 2739 2780 2740
 2740 2781 2741
 2741 2782 2742
 2742 2783 2743
 2743 2784 2744
 2744 2785 2745
 2745 2786 2746
 2746 2787 2747
 2747 2788 2748
 2748 2789 2749
 2749 2790 2750
 2750 2791 2751
 2751 2792 2752
 2752 2793 2753
 2753 2794 2754
 2754 2795 2755
 2755 2796 2756
 2756 2797 2757
 2757 2798 2758
 2758 2799 2759
 2760 2801 2761
 2761 2802 2762
 2762 2803 2763
 2763 2804 2764
 2764 2805 2765
 2765 2806 2766
 2766 2807 2767
 2767 2808 2768
 2768 2809 2769
 2769 2810 2770
 2770 2811 2771
 2771 2812 2772
 2772 2813 2773
 2773 2814 2774
 2774 2815 2775
 2775 2816 2776
 2776 2817 2777
 2777 2818 2778
 2778 2819 2779
 2779 2820 2780
 2780 2821 2781
 2781 2822 2782
 2782 2823 2783
 2783 2824 2784
 2784 2825 2785
 2785 2826 2786
 2786 2827 2787
 2787 2828 2788
 2788 2829 2789
 2789 2830 2790
 2790 2831 2791
 2791 2832 2792
 2792 2833 2793
 2793 2834 2794
 2794 2835 2795
 2795 2836 2796
 2796 2837 2797
 2797 2838 2798
 2798 2839 2799
 2800 2841 2801
 2801 2842 2802
 2802 2843 2803
 2803 2844 2804
 2804 2845 2805
 2805 2846 2806
 2806 2847 2807
 2807 2848 2808
 2808 2849 2809
 2809 2850 2810
 2810 2851 2811
 2811 2852 2812
 2812 2853 2813
 2813 2854 2814
 2814 2855 2815
 2815 2856 2816
 2816 2857 2817
 2817 2858 2818
 2818 2859 2819
 2819 2860 2820
 2820 2861 2821
 2821 2862 2822
 2822 2863 2823
 2823 2864 2824
 2824 2865 2825
 2825 2866 2826
 2826 2867 2827
 2827 2868 2828
 2828 2869 2829
 2829 2870 2830
 2830 2871 2831
 2831 2872 2832
 2832 2873 2833
 2833 2874 2834
 2834 2875 2835
 2835 2876 2836
 2836 2877 2837
 2837 2878 2838
 2838 2879 2839
 2840 2881 2841
 2841 2882 2842
 2842 2883 2843
 2843 2884 2844
 2844 2885 2845
 2845 2886 2846
 2846 2887 2847
 2847 2888 2848
 2848 2889 2849
 2849 2890 2850
 2850 2891 2851
 2851 2892 2852
 2852 2893 2853
 2853 2894 2854
 2854 2895 2855
 2855 2896 2856
 2856 2897 2857
 2857 2898 2858
 2858 2899 2859
 2859 2900 2860
 2860 2901 2861
 2861 2902 2862
 2862 2903 2863
 2863 2904 2864
 2864 2905 2865
 2865 2906 2866
 2866 2907 2867
 2867 2908 2868
 2868 2909 2869
 2869 2910 2870
 2870 2911 2871
 2871 2912 2872
 2872 2913 2873
 2873 2914 2874
 2874 2915 2875
 2875 2916 2876
 2876 2917 2877
 2877 2918 2878
 2878 2919 2879
 2880 2921 2881
 2881 2922 2882
 2882 2923 2883
 2883 2924 2884
 2884 2925 2885
 2885 2926 2886
 2886 2927 2887
 2887 2928 2888
 2888 2929 2889
 2889 2930 2890
 2890 2931 2891
 2891 2932 2892
 2892 2933 2893
 2893 2934 2894
 2894 2935 2895
 2895 2936 2896
 2896 2937 2897
 2897 2938 2898
 2898 2939 2899
 2899 2940 2900
 2900 2941 2901
 2901 2942 2902
 2902 2943 2903
 2903 2944 2904
 2904 2945 2905
 2905 2946 2906
 2906 2947 2907
 2907 2948 2908
 2908 2949 2909
 2909 2950 2910
 2910 2951 2911
 2911 2952 2912
 2912 2953 2913
 2913 2954 2914
 2914 2955 2915
 2915 2956 2916
 2916 2957 2917
 2917 2958 2918
 2918 2959 2919
 2920 2961 2921
 2921 2962 2922
 2922 2963 2923
 2923 2964 2924
 2924 2965 2925
 2925 2966 2926
 2926 2967 2927
 2927 2968 2928
 2928 2969 2929
 2929 2970 2930
 2930 2971 2931
 2931 2972 2932
 2932 2973 2933
 2933 2974 2934
 2934 2975 2935
 2935 2976 2936
 2936 2977 2937
 2937 2978 2938
 2938 2979 2939
 2939 2980 2940
 2940 2981 2941
 2941 2982 2942
 2942 2983 2943
 2943 2984 2944
 2944 2985 2945
 2945 2986 2946
 2946 2987 2947
 2947 2988 2948
 2948 2989 2949
 2949 2990 2950
 2950 2991 2951
 2951 2992 2952
 2952 2993 2953
 2953 2994 2954
 2954 2995 2955
 2955 2996 2956
 2956 2997 2957
 2957 2998 2958
 2958 2999 2959
 2960 3001 2961
 2961 3002 2962
 2962 3003 2963
 2963 3004 2964
 2964 3005 2965
 2965 3006 2966
 2966 3007 2967
 2967 3008 2968
 2968 3009 2969
 2969 3010 2970
 2970 3011 2971
 2971 3012 2972
 2972 3013 2973
 2973 3014 2974
 2974 3015 2975
 2975 3016 2976
 2976 3017 2977
 2977 3018 2978
 2978 3019 2979
 2979 3020 2980
 2980 3021 2981
 2981 3022 2982
 2982 3023 2983
 2983 3024 2984
 2984 3025 2985
 2985 3026 2986
 2986 3027 2987
 2987 3028 2988
 2988 3029 2989
 2989 3030 2990
 2990 3031 2991
 2991 3032 2992
 2992 3033 2993
 2993 3034 2994
 2994 3035 2995
 2995 3036 2996
 2996 3037 2997
 2997 3038 2998
 2998 3039 2999
 3000 3041 3001
 3001 3042 3002
 3002 3043 3003
 3003 3044 3004
 3004 3045 3005
 3005 3046 3006
 3006 3047 3007
 3007 3048 3008
 3008 3049 3009
 3009 3050 3010
 3010 3051 3011
 3011 3052 3012
 3012 3053 3013
 3013 3054 3014
 3014 3055 3015
 3015 3056 3016
 3016 3057 3017
 3017 3058 3018
 3018 3059 3019
 3019 3060 3020
 3020 3061 3021
 3021 3062 3022
 3022 3063 3023
 3023 3064 3024
 3024 3065 3025
 3025 3066 3026
 3026 3067 3027
 3027 3068 3028
 3028 3069 3029
 3029 3070 3030
 3030 3071 3031
 3031 3072 3032
 3032 3073 3033
 3033 3074 3034
 3034 3075 3035
 3035 3076 3036
 3036 3077 3037
 3037 3078 3038
 3038 3079 3039
 3040 3081 3041
 3041 3082 3042
 3042 3083 3043
 3043 3084 3044
 3044 3085 3045
 3045 3086 3046
 3046 3087 3047
 3047 3088 3048
 3048 3089 3049
 3049 3090 3050
 3050 3091 3051
 3051 3092 3052
 3052 3093 3053
 3053 3094 3054
 3054 3095 3055
 3055 3096 3056
 3056 3097 3057
 3057 3098 3058
 3058 3099 3059
 3059 3100 3060
 3060 3101 3061
 3061 3102 3062
 3062 3103 3063
 3063 3104 3064
 3064 3105 3065
 3065 3106 3066
 3066 3107 3067
 3067 3108 3068
 3068 3109 3069
 3069 3110 3070
 3070 3111 3071
 3071 3112 3072
 3072 3113 3073
 3073 3114 3074
 3074 3115 3075
 3075 3116 3076
 3076 3117 3077
 3077 3118 3078
 3078 3119 3079
 3080 3121 3081
 3081 3122 3082
 3082 3123 3083
 3083 3124 3084
 3084 3125 3085
 3085 3126 3086
 3086 3127 3087
 3087 3128 3088
 3088 3129 3089
 3089 3130 3090
 3090 3131 3091
 3091 3132 3092
 3092 3133 3093
 3093 3134 3094
 3094 3135 3095
 3095 3136 3096
 3096 3137 3097
 3097 3138 3098
 3098 3139 3099
 3099 3140 3100
 3100 3141 3101
 3101 3142 3102
 3102 3143 3103
 3103 3144 3104
 3104 3145 3105
 3105 3146 3106
 3106 3147 3107
 3107 3148 3108
 3108 3149 3109
 3109 3150 3110
 3110 3151 3111
 3111 3152 3112
 3112 3153 3113
 3113 3154 3114
 3114 3155 3115
 3115 3156 3116
 3116 3157 3117
 3117 3158 3118
 3118 3159 3119
 3120 3161 3121
 3121 3162 3122
 3122 3163 3123
 3123 3164 3124
 3124 3165 3125
 3125 3166 3126
 3126 3167 3127
 3127 3168 3128
 3128 3169 3129
 3129 3170 3130
 3130 3171 3131
 3131 3172 3132
 3132 3173 3133
 3133 3174 3134
 3134 3175 3135
 3135 3176 3136
 3136 3177 3137
 3137 3178 3138
 3138 3179 3139
 3139 3180 3140
 3140 3181 3141
 3141 3182 3142
 3142 3183 3143
 3143 3184 3144
 3144 3185 3145
 3145 3186 3146
 3146 3187 3147
 3147 3188 3148
 3148 3189 3149
 3149 3190 3150
 3150 3191 3151
 3151 3192 3152
 3152 3193 3153
 3153 3194 3154
 3154 3195 3155
 3155 3196 3156
 3156 3197 3157
 3157 3198 3158
 3158 3199 3159
 0 40 41
 1 41 42
 2 42 43
 3 43 44
 4 44 45
 5 45 46
 6 46 47
 7 47 48
 8 48 49
 9 49 50
 10 50 51
 11 51 52
 12 52 53
 13 53 54
 14 54 55
 15 55 56
 16 56 57
 17 57 58
 18 58 59
 19 59 60
 20 60 61
 21 61 62
 22 62 63
 23 63 64
 24 64 65
 25 65 66
 26 66 67
 27 67 68
 28 68 69
 29 69 70
 30 70 71
 31 71 72
 32 72 73
 33 73 74
 34 74 75
 35 75 76
 36 76 77
 37 77 78
 38 78 79
 40 80 81
 41 81 82
 42 82 83
 43 83 84
 44 84 85
 45 85 86
 46 86 87
 47 87 88
 48 88 89
 49 89 90
 50 90 91
 51 91 92
 52 92 93
 53 93 94
 54 94 95
 55 95 96
 56 96 97
 57 97 98
 58 98 99
 59 99 100
 60 100 101
 61 101 102
 62 102 103
 63 103 104
 64 104 105
 65 105 106
 66 106 107
 67 107 108
 68 108 109
 69 109 110
 70 110 111
 71 111 112
 72 112 113
 73 113 114
 74 114 115
 75 115 116
 76 116 117
 77 117 118
 78 118 119
 80 120 121
 81 121 122
 82 122 123
 83 123 124
 84 124 125
 85 125 126
 86 126 127
 87 127 128
 88 128 129
 89 129 130
 90 130 131
 91 131 132
 92 132 133
 93 133 134
 94 134 135
 95 135 136
 96 136 137
 97 137 138
 98 138 139
 99 139 140
 100 140 141
 101 141 142
 102 142 143
 103 143 144
 104 144 145
 105 145 146
 106 146 147
 107 147 148
 108 148 149
 109 149 150
 110 150 151
 111 151 152
 112 152 153
 113 153 154
 114 154 155
 115 155 156
 116 156 157
 117 157 158
 118 158 159
 120 160 161
 121 161 162
 122 162 163
 123 163 164
 124 164 165
 125 165 166
 126 166 167
 127 167 168
 128 168 169
 129 169 170
 130 170 171
 131 171 172
 132 172 173
 133 173 174
 134 174 175
 135 175 176
 136 176 177
 137 177 178
 138 178 179
 139 179 180
 140 180 181
 141 181 182
 142 182 183
 143 183 184
 144 184 185
 145 185 186
 146 186 187
 147 187 188
 148 188 189
 149 189 190
 150 190 191
 151 191 192
 152 192 193
 153 193 194
 154 194 195
 155 195 196
 156 196 197
 157 197 198
 158 198 199
 160 200 201
 161 201 202
 162 202 203
 163 203 204
 164 204 205
 165 205 206
 166 206 207
 167 207 208
 168 208 209
 169 209 210
 170 210 211
 171 211 212
 172 212 213
 173 213 214
 174 214 215
 175 215 216
 176 216 217
 177 217 218
 178 218 219
 179 219 220
 180 220 221
 181 221 222
 182 222 223
 183 223 224
 184 224 225
 185 225 226
 186 226 227
 187 227 228
 188 228 229
 189 229 230
 190 230 231
 191 231 232
 192 232 233
 193 233 234
 194 234 235
 195 235 236
 196 236 237
 197 237 238
 198 238 239
 200 240 241
 201 241 242
 202 242 243
 203 243 244
 204 244 245
 205 245 246
 206 246 247
 207 247 248
 208 248 249
 209 249 250
 210 250 251
 211 251 252
 212 252 253
 213 253 254
 214 254 255
 215 255 256
 216 256 257
 217 257 258
 218 258 259
 219 259 260
 220 260 261
 221 261 262
 222 262 263
 223 263 264
 224 264 265
 225 265 266
 226 266 267
 227 267 268
 228 268 269
 229 269 270
 230 270 271
 231 271 272
 232 272 273
 233 273 274
 234 274 275
 235 275 276
 236 276 277
 237 277 278
 238 278 279
 240 280 281
 241 281 282
 242 282 283
 243 283 284
 244 284 285
 245 285 286
 246 286 287
 247 287 288
 248 288 289
 249 289 290
 250 290 291
 251 291 292
 252 292 293
 253 293 294
 254 294 295
 255 295 296
 256 296 297
 257 297 298
 258 298 299
 259 299 300
 260 300 301
 261 301 302
 262 302 303
 263 303 304
 264 304 305
 265 305 306
 266 306 307
 267 307 308
 268 308 309
 269 309 310
 270 310 311
 271 311 312
 272 312 313
 273 313 314
 274 314 315
 275 315 316
 276 316 317
 277 317 318
 278 318 319
 280 320 321
 281 321 322
 282 322 323
 283 323 324
 284 324 325
 285 325 326
 286 326 327
 287 327 328
 288 328 329
 289 329 330
 290 330 331
 291 331 332
 292 332 333
 293 333 334
 294 334 335
 295 335 336
 296 336 337
 297 337 338
 298 338 339
 299 339 340
 300 340 341
 301 341 342
 302 342 343
 303 343 344
 304 344 345
 305 345 346
 306 346 347
 307 347 348
 308 348 349
 309 349 350
 310 350 351
 311 351 352
 312 352 353
 313 353 354
 314 354 355
 315 355 356
 316 356 357
 317 357 358
 318 358 359
 320 360 361
 321 361 362
 322 362 363
 323 363 364
 324 364 365
 325 365 366
 326 366 367
 327 367 368
 328 368 369
 329 369 370
 330 370 371
 331 371 372
 332 372 373
 333 373 374
 334 374 375
 335 375 376
 336 376 377
 337 377 378
 338 378 379
 339 379 380
 340 380 381
 341 381 382
 342 382 383
 343 383 384
 344 384 385
 345 385 386
 346 386 387
 347 387 388
 348 388 389
 349 389 390
 350 390 391
 351 391 392
 352 392 393
 353 393 394
 354 394 395
 355 395 396
 356 396 397
 357 397 398
 358 398 399
 360 400 401
 361 401 402
 362 402 403
 363 403 404
 364 404 405
 365 405 406
 366 406 407
 367 407 408
 368 408 409
 369 409 410
 370 410 411
 371 411 412
 372 412 413
 373 413 414
 374 414 415
 375 415 416
 376 416 417
 377 417 418
 378 418 419
 379 419 420
 380 420 421
 381 421 422
 382 422 423
 383 423 424
 384 424 425
 385 425 426
 386 426 427
 387 427 428
 388 428 429
 389 429 430
 390 430 431
 391 431 432
 392 432 433
 393 433 434
 394 434 435
 395 435 436
 396 436 437
 397 437 438
 398 438 439
 400 440 441
 401 441 442
 402 442 443
 403 443 444
 404 444 445
 405 445 446
 406 446 447
 407 447 448
 408 448 449
 409 449 450
 410 450 451
 411 451 452
 412 452 453
 413 453 454
 414 454 455
 415 455 456
 416 456 457
 417 457 458
 418 458 459
 419 459 460
 420 460 461
 421 461 462
 422 462 463
 423 463 464
 424 464 465
 425 465 466
 426 466 467
 427 467 468
 428 468 469
 429 469 470
 430 470 471
 431 471 472
 432 472 473
 433 473 474
 434 474 475
 435 475 476
 436 476 477
 437 477 478
 438 478 479
 440 480 481
 441 481 482
 442 482 483
 443 483 484
 444 484 485
 445 485 486
 446 486 487
 447 487 488
 448 488 489
 449 489 490
 450 490 491
 451 491 492
 452 492 493
 453 493 494
 454 494 495
 455 495 496
 456 496 497
 457 497 498
 458 498 499
 459 499 500
 460 500 501
 461 501 502
 462 502 503
 463 503 504
 464 504 505
 465 505 506
 466 506 507
 467 507 508
 468 508 509
 469 509 510
 470 510 511
 471 511 512
 472 512 513
 473 513 514
 474 514 515
 475 515 516
 476 516 517
 477 517 518
 478 518 519
 480 520 521
 481 521 522
 482 522 523
 483 523 524
 484 524 525
 485 525 526
 486 526 527
 487 527 528
 488 528 529
 489 529 530
 490 530 531
 491 531 532
 492 532 533
 493 533 534
 494 534 535
 495 535 536
 496 536 537
 497 537 538
 498 538 539
 499 539 540
 500 540 541
 501 541 542
 502 542 543
 503 543 544
 504 544 545
 505 545 546
 506 546 547
 507 547 548
 508 548 549
 509 549 550
 510 550 551
 511 551 552
 512 552 553
 513 553 554
 514 554 555
 515 555 556
 516 556 557
 517 557 558
 518 558 559
 520 560 561
 521 561 562
 522 562 563
 523 563 564
 524 564 565
 525 565 566
 526 566 567
 527 567 568
 528 568 569
 529 569 570
 530 570 571
 531 571 572
 532 572 573
 533 573 574
 534 574 575
 535 575 576
 536 576 577
 537 577 578
 538 578 579
 539 579 580
 540 580 581
 541 581 582
 542 582 583
 543 583 584
 544 584 585
 545 585 586
 546 586 587
 547 587 588
 548 588 589
 549 589 590
 550 590 591
 551 591 592
 552 592 593
 553 593 594
 554 594 595
 555 595 596
 556 596 597
 557 597 598
 558 598 599
 560 600 601
 561 601 602
 562 602 603
 563 603 604
 564 604 605
 565 605 606
 566 606 607
 567 607 608
 568 608 609
 569 609 610
 570 610 611
 571 611 612
 572 612 613
 573 613 614
 574 614 615
 575 615 616
 576 616 617
 577 617 618
 578 618 619
 579 619 620
 580 620 621
 581 621 622
 582 622 623
 583 623 624
 584 624 625
 585 625 626
 586 626 627
 587 627 628
 588 628 629
 589 629 630
 590 630 631
 591 631 632
 592 632 633
 593 633 634
 594 634 635
 595 635 636
 596 636 637
 597 637 638
 598 638 639
 600 640 641
 601 641 642
 602 642 643
 603 643 644
 604 644 645
 605 645 646
 606 646 647
 607 647 648
 608 648 649
 609 649 650
 610 650 651
 611 651 652
 612 652 653
 613 653 654
 614 654 655
 615 655 656
 616 656 657
 617 657 658
 618 658 659
 619 659 660
 620 660 661
 621 661 662
 622 662 663
 623 663 664
 624 664 665
 625 665 666
 626 666 667
 627 667 668
 628 668 669
 629 669 670
 630 670 671
 631 671 672
 632 672 673
 633 673 674
 634 674 675
 635 675 676
 636 676 677
 637 677 678
 638 678 679
 640 680 681
 641 681 682
 642 682 683
 643 683 684
 644 684 685
 645 685 686
 646 686 687
 647 687 688
 648 688 689
 649 689 690
 650 690 691
 651 691 692
 652 692 693
 653 693 694
 654 694 695
 655 695 696
 656 696 697
 657 697 698
 658 698 699
 659 699 700
 660 700 701
 661 701 702
 662 702 703
 663 703 704
 664 704 705
 665 705 706
 666 706 707
 667 707 708
 668 708 709
 669 709 710
 670 710 711
 671 711 712
 672 712 713
 673 713 714
 674 714 715
 675 715 716
 676 716 717
 677 717 718
 678 718 719
 680 720 721
 681 721 722
 682 722 723
 683 723 724
 684 724 725
 685 725 726
 686 726 727
 687 727 728
 688 728 729
 689 729 730
 690 730 731
 691 731 732
 692 732 733
 693 733 734
 694 734 735
 695 735 736
 696 736 737
 697 737 738
 698 738 739
 699 739 740
 700 740 741
 701 741 742
 702 742 743
 703 743 744
 704 744 745
 705 745 746
 706 746 747
 707 747 748
 708 748 749
 709 749 750
 710 750 751
 711 751 752
 712 752 753
 713 753 754
 714 754 755
 715 755 756
 716 756 757
 717 757 758
 718 758 759
 720 760 761
 721 761 762
 722 762 763
 723 763 764
 724 764 765
 725 765 766
 726 766 767
 727 767 768
 728 768 769
 729 769 770
 730 770 771
 731 771 772
 732 772 773
 733 773 774
 734 774 775
 735 775 776
 736 776 777
 737 777 778
 738 778 779
 739 779 780
 740 780 781
 741 781 782
 742 782 783
 743 783 784
 744 784 785
 745 785 786
 746 786 787
 747 787 788
 748 788 789
 749 789 790
 750 790 791
 751 791 792
 752 792 793
 753 793 794
 754 794 795
 755 795 796
 756 796 797
 757 797 798
 758 798 799
 760 800 801
 761 801 802
 762 802 803
 763 803 804
 764 804 805
 765 805 806
 766 806 807
 767 807 808
 768 808 809
 769 809 810
 770 810 811
 771 811 812
 772 812 813
 773 813 814
 774 814 815
 775 815 816
 776 816 817
 777 817 818
 778 818 819
 779 819 820
 780 820 821
 781 821 822
 782 822 823
 783 823 824
 784 824 825
 785 825 826
 786 826 827
 787 827 828
 788 828 829
 789 829 830
 790 830 831
 791 831 832
 792 832 833
 793 833 834
 794 834 835
 795 835 836
 796 836 837
 797 837 838
 798 838 839
 800 840 841
 801 841 842
 802 842 843
 803 843 844
 804 844 845
 805 845 846
 806 846 847
 807 847 848
 808 848 849
 809 849 850
 810 850 851
 811 851 852
 812 852 853
 813 853 854
 814 854 855
 815 855 856
 816 856 857
 817 857 858
 818 858 859
 819 859 860
 820 860 861
 821 861 862
 822 862 863
 823 863 864
 824 864 865
 825 865 866
 826 866 867
 827 867 868
 828 868 869
 829 869 870
 830 870 871
 831 871 872
 832 872 873
 833 873 874
 834 874 875
 835 875 876
 836 876 877
 837 877 878
 838 878 879
 840 880 881
 841 881 882
 842 882 883
 843 883 884
 844 884 885
 845 885 886
 846 886 887
 847 887 888
 848 888 889
 849 889 890
 850 890 891
 851 891 892
 852 892 893
 853 893 894
 854 894 895
 855 895 896
 856 896 897
 857 897 898
 858 898 899
 859 899 900
 860 900 901
 861 901 902
 862 902 903
 863 903 904
 864 904 905
 865 905 906
 866 906 907
 867 907 908
 868 908 909
 869 909 910
 870 910 911
 871 911 912
 872 912 913
 873 913 914
 874 914 915
 875 915 916
 876 916 917
 877 917 918
 878 918 919
 880 920 921
 881 921 922
 882 922 923
 883 923 924
 884 924 925
 885 925 926
 886 926 927
 887 927 928
 888 928 929
 889 929 930
 890 930 931
 891 931 932
 892 932 933
 893 933 934
 894 934 935
 895 935 936
 896 936 937
 897 937 938
 898 938 939
 899 939 940
 900 940 941
 901 941 942
 902 942 943
 903 943 944
 904 944 945
 905 945 946
 906 946 947
 907 947 948
 908 948 949
 909 949 950
 910 950 951
 911 951 952
 912 952 953
 913 953 954
 914 954 955
 915 955 956
 916 956 957
 917 957 958
 918 958 959
 920 960 961
 921 961 962
 922 962 963
 923 963 964
 924 964 965
 925 965 966
 926 966 967
 927 967 968
 928 968 969
 929 969 970
 930 970 971
 931 971 972
 932 972 973
 933 973 974
 934 974 975
 935 975 976
 936 976 977
 937 977 978
 938 978 979
 939 979 980
 940 980 981
 941 981 982
 942 982 983
 943 983 984
 944 984 985
 945 985 986
 946 986 987
 947 987 988
 948 988 989
 949 989 990
 950 990 991
 951 991 992
 952 992 993
 953 993 994
 954 994 995
 955 995 996
 956 996 997
 957 997 998
 958 998 999
 960 1000 1001
 961 1001 1002
 962 1002 1003
 963 1003 1004
 964 1004 1005
 965 1005 1006
 966 1006 1007
 967 1007 1008
 968 1008 1009
 969 1009 1010
 970 1010 1011
 971 1011 1012
 972 1012 1013
 973 1013 1014
 974 1014 1015
 975 1015 1016
 976 1016 1017
 977 1017 1018
 978 1018 1019
 979 1019 1020
 980 1020 1021
 981 1021 1022
 982 1022 1023
 983 1023 1024
 984 1024 1025
 985 1025 1026
 986 1026 1027
 987 1027 1028
 988 1028 1029
 989 1029 1030
 990 1030 1031
 991 1031 1032
 992 1032 1033
 993 1033 1034
 994 1034 1035
 995 1035 1036
 996 1036 1037
 997 1037 1038
 998 1038 1039
 1000 1040 1041
 1001 1041 1042
 1002 1042 1043
 1003 1043 1044
 1004 1044 1045
 1005 1045 1046
 1006 1046 1047
 1007 1047 1048
 1008 1048 1049
 1009 1049 1050
 1010 1050 1051
 1011 1051 1052
 1012 1052 1053
 1013 1053 1054
 1014 1054 1055
 1015 1055 1056
 1016 1056 1057
 1017 1057 1058
 1018 1058 1059
 1019 1059 1060
 1020 1060 1061
 1021 1061 1062
 1022 1062 1063
 1023 1063 1064
 1024 1064 1065
 1025 1065 1066
 1026 1066 1067
 1027 1067 1068
 1028 1068 1069
 1029 1069 1070
 1030 1070 1071
 1031 1071 1072
 1032 1072 1073
 1033 1073 1074
 1034 1074 1075
 1035 1075 1076
 1036 1076 1077
 1037 1077 1078
 1038 1078 1079
 1040 1080 1081
 1041 1081 1082
 1042 1082 1083
 1043 1083 1084
 1044 1084 1085
 1045 1085 1086
 1046 1086 1087
 1047 1087 1088
 1048 1088 1089
 1049 1089 1090
 1050 1090 1091
 1051 1091 1092
 1052 1092 1093
 1053 1093 1094
 1054 1094 1095
 1055 1095 1096
 1056 1096 1097
 1057 1097 1098
 1058 1098 1099
 1059 1099 1100
 1060 1100 1101
 1061 1101 1102
 1062 1102 1103
 1063 1103 1104
 1064 1104 1105
 1065 1105 1106
 1066 1106 1107
 1067 1107 1108
 1068 1108 1109
 1069 1109 1110
 1070 1110 1111
 1071 1111 1112
 1072 1112 1113
 1073 1113 1114
 1074 1114 1115
 1075 1115 1116
 1076 1116 1117
 1077 1117 1118
 1078 1118 1119
 1080 1120 1121
 1081 1121 1122
 1082 1122 1123
 1083 1123 1124
 1084 1124 1125
 1085 1125 1126
 1086 1126 1127
 1087 1127 1128
 1088 1128 1129
 1089 1129 1130
 1090 1130 1131
 1091 1131 1132
 1092 1132 1133
 1093 1133 1134
 1094 1134 1135
 1095 1135 1136
 1096 1136 1137
 1097 1137 1138
 1098 1138 1139
 1099 1139 1140
 1100 1140 1141
 1101 1141 1142
 1102 1142 1143
 1103 1143 1144
 1104 1144 1145
 1105 1145 1146
 1106 1146 1147
 1107 1147 1148
 1108 1148 1149
 1109 1149 1150
 1110 1150 1151
 1111 1151 1152
 1112 1152 1153
 1113 1153 1154
 1114 1154 1155
 1115 1155 1156
 1116 1156 1157
 1117 1157 1158
 1118 1158 1159
 1120 1160 1161
 1121 1161 1162
 1122 1162 1163
 1123 1163 1164
 1124 1164 1165
 1125 1165 1166
 1126 1166 1167
 1127 1167 1168
 1128 1168 1169
 1129 1169 1170
 1130 1170 1171
 1131 1171 1172
 1132 1172 1173
 1133 1173 1174
 1134 1174 1175
 1135 1175 1176
 1136 1176 1177
 1137 1177 1178
 1138 1178 1179
 1139 1179 1180
 1140 1180 1181
 1141 1181 1182
 1142 1182 1183
 1143 1183 1184
 1144 1184 1185
 1145 1185 1186
 1146 1186 1187
 1147 1187 1188
 1148 1188 1189
 1149 1189 1190
 1150 1190 1191
 1151 1191 1192
 1152 1192 1193
 1153 1193 1194
 1154 1194 1195
 1155 1195 1196
 1156 1196 1197
 1157 1197 1198
 1158 1198 1199
 1160 1200 1201
 1161 1201 1202
 1162 1202 1203
 1163 1203 1204
 1164 1204 1205
 1165 1205 1206
 1166 1206 1207
 1167 1207 1208
 1168 1208 1209
 1169 1209 1210
 1170 1210 1211
 1171 1211 1212
 1172 1212 1213
 1173 1213 1214
 1174 1214 1215
 1175 1215 1216
 1176 1216 1217
 1177 1217 1218
 1178 1218 1219
 1179 1219 1220
 1180 1220 1221
 1181 1221 1222
 1182 1222 1223
 1183 1223 1224
 1184 1224 1225
 1185 1225 1226
 1186 1226 1227
 1187 1227 1228
 1188 1228 1229
 1189 1229 1230
 1190 1230 1231
 1191 1231 1232
 1192 1232 1233
 1193 1233 1234
 1194 1234 1235
 1195 1235 1236
 1196 1236 1237
 1197 1237 1238
 1198 1238 1239
 1200 1240 1241
 1201 1241 1242
 1202 1242 1243
 1203 1243 1244
 1204 1244 1245
 1205 1245 1246
 1206 1246 1247
 1207 1247 1248
 1208 1248 1249
 1209 1249 1250
 1210 1250 1251
 1211 1251 1252
 1212 1252 1253
 1213 1253 1254
 1214 1254 1255
 1215 1255 1256
 1216 1256 1257
 1217 1257 1258
 1218 1258 1259
 1219 1259 1260
 1220 1260 1261
 1221 1261 1262
 1222 1262 1263
 1223 1263 1264
 1224 1264 1265
 1225 1265 1266
 1226 1266 1267
 1227 1267 1268
 1228 1268 1269
 1229 1269 1270
 1230 1270 1271
 1231 1271 1272
 1232 1272 1273
 1233 1273 1274
 1234 1274 1275
 1235 1275 1276
 1236 1276 1277
 1237 1277 1278
 1238 1278 1279
 1240 1280 1281
 1241 1281 1282
 1242 1282 1283
 1243 1283 1284
 1244 1284 1285
 1245 1285 1286
 1246 1286 1287
 1247 1287 1288
 1248 1288 1289
 1249 1289 1290
 1250 1290 1291
 1251 1291 1292
 1252 1292 1293
 1253 1293 1294
 1254 1294 1295
 1255 1295 1296
 1256 1296 1297
 1257 1297 1298
 1258 1298 1299
 1259 1299 1300
 1260 1300 1301
 1261 1301 1302
 1262 1302 1303
 1263 1303 1304
 1264 1304 1305
 1265 1305 1306
 1266 1306 1307
 1267 1307 1308
 1268 1308 1309
 1269 1309 1310
 1270 1310 1311
 1271 1311 1312
 1272 1312 1313
 1273 1313 1314
 1274 1314 1315
 1275 1315 1316
 1276 1316 1317
 1277 1317 1318
 1278 1318 1319
 1280 1320 1321
 1281 1321 1322
 1282 1322 1323
 1283 1323 1324
 1284 1324 1325
 1285 1325 1326
 1286 1326 1327
 1287 1327 1328
 1288 1328 1329
 1289 1329 1330
 1290 1330 1331
 1291 1331 1332
 1292 1332 1333
 1293 1333 1334
 1294 1334 1335
 1295 1335 1336
 1296 1336 1337
 1297 1337 1338
 1298 1338 1339
 1299 1339 1340
 1300 1340 1341
 1301 1341 1342
 1302 1342 1343
 1303 1343 1344
 1304 1344 1345
 1305 1345 1346
 1306 1346 1347
 1307 1347 1348
 1308 1348 1349
 1309 1349 1350
 1310 1350 1351
 1311 1351 1352
 1312 1352 1353
 1313 1353 1354
 1314 1354 1355
 1315 1355 1356
 1316 1356 1357
 1317 1357 1358
 1318 1358 1359
 1320 1360 1361
 1321 1361 1362
 1322 1362 1363
 1323 1363 1364
 1324 1364 1365
 1325 1365 1366
 1326 1366 1367
 1327 1367 1368
 1328 1368 1369
 1329 1369 1370
 1330 1370 1371
 1331 1371 1372
 1332 1372 1373
 1333 1373 1374
 1334 1374 1375
 1335 1375 1376
 1336 1376 1377
 1337 1377 1378
 1338 1378 1379
 1339 1379 1380
 1340 1380 1381
 1341 1381 1382
 1342 1382 1383
 1343 1383 1384
 1344 1384 1385
 1345 1385 1386
 1346 1386 1387
 1347 1387 1388
 1348 1388 1389
 1349 1389 1390
 1350 1390 1391
 1351 1391 1392
 1352 1392 1393
 1353 1393 1394
 1354 1394 1395
 1355 1395 1396
 1356 1396 1397
 1357 1397 1398
 1358 1398 1399
 1360 1400 1401
 1361 1401 1402
 1362 1402 1403
 1363 1403 1404
 1364 1404 1405
 1365 1405 1406
 1366 1406 1407
 1367 1407 1408
 1368 1408 1409
 1369 1409 1410
 1370 1410 1411
 1371 1411 1412
 1372 1412 1413
 1373 1413 1414
 1374 1414 1415
 1375 1415 1416
 1376 1416 1417
 1377 1417 1418
 1378 1418 1419
 1379 1419 1420
 1380 1420 1421
 1381 1421 1422
 1382 1422 1423
 1383 1423 1424
 1384 1424 1425
 1385 1425 1426
 1386 1426 1427
 1387 1427 1428
 1388 1428 1429
 1389 1429 1430
 1390 1430 1431
 1391 1431 1432
 1392 1432 1433
 1393 1433 1434
 1394 1434 1435
 1395 1435 1436
 1396 1436 1437
 1397 1437 1438
 1398 1438 1439
 1400 1440 1441
 1401 1441 1442
 1402 1442 1443
 1403 1443 1444
 1404 1444 1445
 1405 1445 1446
 1406 1446 1447
 1407 1447 1448
 1408 1448 1449
 1409 1449 1450
 1410 1450 1451
 1411 1451 1452
 1412 1452 1453
 1413 1453 1454
 1414 1454 1455
 1415 1455 1456
 1416 1456 1457
 1417 1457 1458
 1418 1458 1459
 1419 1459 1460
 1420 1460 1461
 1421 1461 1462
 1422 1462 1463
 1423 1463 1464
 1424 1464 1465
 1425 1465 1466
 1426 1466 1467
 1427 1467 1468
 1428 1468 1469
 1429 1469 1470
 1430 1470 1471
 1431 1471 1472
 1432 1472 1473
 1433 1473 1474
 1434 1474 1475
 1435 1475 1476
 1436 1476 1477
 1437 1477 1478
 1438 1478 1479
 1440 1480 1481
 1441 1481 1482
 1442 1482 1483
 1443 1483 1484
 1444 1484 1485
 1445 1485 1486
 1446 1486 1487
 1447 1487 1488
 1448 1488 1489
 1449 1489 1490
 1450 1490 1491
 1451 1491 1492
 1452 1492 1493
 1453 1493 1494
 1454 1494 1495
 1455 1495 1496
 1456 1496 1497
 1457 1497 1498
 1458 1498 1499
 1459 1499 1500
 1460 1500 1501
 1461 1501 1502
 1462 1502 1503
 1463 1503 1504
 1464 1504 1505
 1465 1505 1506
 1466 1506 1507
 1467 1507 1508
 1468 1508 1509
 1469 1509 1510
 1470 1510 1511
 1471 1511 1512
 1472 1512 1513
 1473 1513 1514
 1474 1514 1515
 1475 1515 1516
 1476 1516 1517
 1477 1517 1518
 1478 1518 1519
 1480 1520 1521
 1481 1521 1522
 1482 1522 1523
 1483 1523 1524
 1484 1524 1525
 1485 1525 1526
 1486 1526 1527
 1487 1527 1528
 1488 1528 1529
 1489 1529 1530
 1490 1530 1531
 1491 1531 1532
 1492 1532 1533
 1493 1533 1534
 1494 1534 1535
 1495 1535 1536
 1496 1536 1537
 1497 1537 1538
 1498 1538 1539
 1499 1539 1540
 1500 1540 1541
 1501 1541 1542
 1502 1542 1543
 1503 1543 1544
 1504 1544 1545
 1505 1545 1546
 1506 1546 1547
 1507 1547 1548
 1508 1548 1549
 1509 1549 1550
 1510 1550 1551
 1511 1551 1552
 1512 1552 1553
 1513 1553 1554
 1514 1554 1555
 1515 1555 1556
 1516 1556 1557
 1517 1557 1558
 1518 1558 1559
 1520 1560 1561
 1521 1561 1562
 1522 1562 1563
 1523 1563 1564
 1524 1564 1565
 1525 1565 1566
 1526 1566 1567
 1527 1567 1568
 1528 1568 1569
 1529 1569 1570
 1530 1570 1571
 1531 1571 1572
 1532 1572 1573
 1533 1573 1574
 1534 1574 1575
 1535 1575 1576
 1536 1576 1577
 1537 1577 1578
 1538 1578 1579
 1539 1579 1580
 1540 1580 1581
 1541 1581 1582
 1542 1582 1583
 1543 1583 1584
 1544 1584 1585
 1545 1585 1586
 1546 1586 1587
 1547 1587 1588
 1548 1588 1589
 1549 1589 1590
 1550 1590 1591
 1551 1591 1592
 1552 1592 1593
 1553 1593 1594
 1554 1594 1595
 1555 1595 1596
 1556 1596 1597
 1557 1597 1598
 1558 1598 1599
 1560 1600 1601
 1561 1601 1602
 1562 1602 1603
 1563 1603 1604
 1564 1604 1605
 1565 1605 1606
 1566 1606 1607
 1567 1607 1608
 1568 1608 1609
 1569 1609 1610
 1570 1610 1611
 1571 1611 1612
 1572 1612 1613
 1573 1613 1614
 1574 1614 1615
 1575 1615 1616
 1576 1616 1617
 1577 1617 1618
 1578 1618 1619
 1579 1619 1620
 1580 1620 1621
 1581 1621 1622
 1582 1622 1623
 1583 1623 1624
 1584 1624 1625
 1585 1625 1626
 1586 1626 1627
 1587 1627 1628
 1588 1628 1629
 1589 1629 1630
 1590 1630 1631
 1591 1631 1632
 1592 1632 1633
 1593 1633 1634
 1594 1634 1635
 1595 1635 1636
 1596 1636 1637
 1597 1637 1638
 1598 1638 1639
 1600 1640 1641
 1601 1641 1642
 1602 1642 1643
 1603 1643 1644
 1604 1644 1645
 1605 1645 1646
 1606 1646 1647
 1607 1647 1648
 1608 1648 1649
 1609 1649 1650
 1610 1650 1651
 1611 1651 1652
 1612 1652 1653
 1613 1653 1654
 1614 1654 1655
 1615 1655 1656
 1616 1656 1657
 1617 1657 1658
 1618 1658 1659
 1619 1659 1660
 1620 1660 1661
 1621 1661 1662
 1622 1662 1663
 1623 1663 1664
 1624 1664 1665
 1625 1665 1666
 1626 1666 1667
 1627 1667 1668
 1628 1668 1669
 1629 1669 1670
 1630 1670 1671
 1631 1671 1672
 1632 1672 1673
 1633 1673 1674
 1634 1674 1675
 1635 1675 1676
 1636 1676 1677
 1637 1677 1678
 1638 1678 1679
 1640 1680 1681
 1641 1681 1682
 1642 1682 1683
 1643 1683 1684
 1644 1684 1685
 1645 1685 1686
 1646 1686 1687
 1647 1687 1688
 1648 1688 1689
 1649 1689 1690
 1650 1690 1691
 1651 1691 1692
 1652 1692 1693
 1653 1693 1694
 1654 1694 1695
 1655 1695 1696
 1656 1696 1697
 1657 1697 1698
 1658 1698 1699
 1659 1699 1700
 1660 1700 1701
 1661 1701 1702
 1662 1702 1703
 1663 1703 1704
 1664 1704 1705
 1665 1705 1706
 1666 1706 1707
 1667 1707 1708
 1668 1708 1709
 1669 1709 1710
 1670 1710 1711
 1671 1711 1712
 1672 1712 1713
 1673 1713 1714
 1674 1714 1715
 1675 1715 1716
 1676 1716 1717
 1677 1717 1718
 1678 1718 1719
 1680 1720 1721
 1681 1721 1722
 1682 1722 1723
 1683 1723 1724
 1684 1724 1725
 1685 1725 1726
 1686 1726 1727
 1687 1727 1728
 1688 1728 1729
 1689 1729 1730
 1690 1730 1731
 1691 1731 1732
 1692 1732 1733
 1693 1733 1734
 1694 1734 1735
 1695 1735 1736
 1696 1736 1737
 1697 1737 1738
 1698 1738 1739
 1699 1739 1740
 1700 1740 1741
 1701 1741 1742
 1702 1742 1743
 1703 1743 1744
 1704 1744 1745
 1705 1745 1746
 1706 1746 1747
 1707 1747 1748
 1708 1748 1749
 1709 1749 1750
 1710 1750 1751
 1711 1751 1752
 1712 1752 1753
 1713 1753 1754
 1714 1754 1755
 1715 1755 1756
 1716 1756 1757
 1717 1757 1758
 1718 1758 1759
 1720 1760 1761
 1721 1761 1762
 1722 1762 1763
 1723 1763 1764
 1724 1764 1765
 1725 1765 1766
 1726 1766 1767
 1727 1767 1768
 1728 1768 1769
 1729 1769 1770
 1730 1770 1771
 1731 1771 1772
 1732 1772 1773
 1733 1773 1774
 1734 1774 1775
 1735 1775 1776
 1736 1776 1777
 1737 1777 1778
 1738 1778 1779
 1739 1779 1780
 1740 1780 1781
 1741 1781 1782
 1742 1782 1783
 1743 1783 1784
 1744 1784 1785
 1745 1785 1786
 1746 1786 1787
 1747 1787 1788
 1748 1788 1789
 1749 1789 1790
 1750 1790 1791
 1751 1791 1792
 1752 1792 1793
 1753 1793 1794
 1754 1794 1795
 1755 1795 1796
 1756 1796 1797
 1757 1797 1798
 1758 1798 1799
 1760 1800 1801
 1761 1801 1802
 1762 1802 1803
 1763 1803 1804
 1764 1804 1805
 1765 1805 1806
 1766 1806 1807
 1767 1807 1808
 1768 1808 1809
 1769 1809 1810
 1770 1810 1811
 1771 1811 1812
 1772 1812 1813
 1773 1813 1814
 1774 1814 1815
 1775 1815 1816
 1776 1816 1817
 1777 1817 1818
 1778 1818 1819
 1779 1819 1820
 1780 1820 1821
 1781 1821 1822
 1782 1822 1823
 1783 1823 1824
 1784 1824 1825
 1785 1825 1826
 1786 1826 1827
 1787 1827 1828
 1788 1828 1829
 1789 1829 1830
 1790 1830 1831
 1791 1831 1832
 1792 1832 1833
 1793 1833 1834
 1794 1834 1835
 1795 1835 1836
 1796 1836 1837
 1797 1837 1838
 1798 1838 1839
 1800 1840 1841
 1801 1841 1842
 1802 1842 1843
 1803 1843 1844
 1804 1844 1845
 1805 1845 1846
 1806 1846 1847
 1807 1847 1848
 1808 1848 1849
 1809 1849 1850
 1810 1850 1851
 1811 1851 1852
 1812 1852 1853
 1813 1853 1854
 1814 1854 1855
 1815 1855 1856
 1816 1856 1857
 1817 1857 1858
 1818 1858 1859
 1819 1859 1860
 1820 1860 1861
 1821 1861 1862
 1822 1862 1863
 1823 1863 1864
 1824 1864 1865
 1825 1865 1866
 1826 1866 1867
 1827 1867 1868
 1828 1868 1869
 1829 1869 1870
 1830 1870 1871
 1831 1871 1872
 1832 1872 1873
 1833 1873 1874
 1834 1874 1875
 1835 1875 1876
 1836 1876 1877
 1837 1877 1878
 1838 1878 1879
 1840 1880 1881
 1841 1881 1882
 1842 1882 1883
 1843 1883 1884
 1844 1884 1885
 1845 1885 1886
 1846 1886 1887
 1847 1887 1888
 1848 1888 1889
 1849 1889 1890
 1850 1890 1891
 1851 1891 1892
 1852 1892 1893
 1853 1893 1894
 1854 1894 1895
 1855 1895 1896
 1856 1896 1897
 1857 1897 1898
 1858 1898 1899
 1859 1899 1900
 1860 1900 1901
 1861 1901 1902
 1862 1902 1903
 1863 1903 1904
 1864 1904 1905
 1865 1905 1906
 1866 1906 1907
 1867 1907 1908
 1868 1908 1909
 1869 1909 1910
 1870 1910 1911
 1871 1911 1912
 1872 1912 1913
 1873 1913 1914
 1874 1914 1915
 1875 1915 1916
 1876 1916 1917
 1877 1917 1918
 1878 1918 1919
 1880 1920 1921
 1881 1921 1922
 1882 1922 1923
 1883 1923 1924
 1884 1924 1925
 1885 1925 1926
 1886 1926 1927
 1887 1927 1928
 1888 1928 1929
 1889 1929 1930
 1890 1930 1931
 1891 1931 1932
 1892 1932 1933
 1893 1933 1934
 1894 1934 1935
 1895 1935 1936
 1896 1936 1937
 1897 1937 1938
 1898 1938 1939
 1899 1939 1940
 1900 1940 1941
 1901 1941 1942
 1902 1942 1943
 1903 1943 1944
 1904 1944 1945
 1905 1945 1946
 1906 1946 1947
 1907 1947 1948
 1908 1948 1949
 1909 1949 1950
 1910 1950 1951
 1911 1951 1952
 1912 1952 1953
 1913 1953 1954
 1914 1954 1955
 1915 1955 1956
 1916 1956 1957
 1917 1957 1958
 1918 1958 1959
 1920 1960 1961
 1921 1961 1962
 1922 1962 1963
 1923 1963 1964
 1924 1964 1965
 1925 1965 1966
 1926 1966 1967
 1927 1967 1968
 1928 1968 1969
 1929 1969 1970
 1930 1970 1971
 1931 1971 1972
 1932 1972 1973
 1933 1973 1974
 1934 1974 1975
 1935 1975 1976
 1936 1976 1977
 1937 1977 1978
 1938 1978 1979
 1939 1979 1980
 1940 1980 1981
 1941 1981 1982
 1942 1982 1983
 1943 1983 1984
 1944 1984 1985
 1945 1985 1986
 1946 1986 1987
 1947 1987 1988
 1948 1988 1989
 1949 1989 1990
 1950 1990 1991
 1951 1991 1992
 1952 1992 1993
 1953 1993 1994
 1954 1994 1995
 1955 1995 1996
 1956 1996 1997
 1957 1997 1998
 1958 1998 1999
 1960 2000 2001
 1961 2001 2002
 1962 2002 2003
 1963 2003 2004
 1964 2004 2005
 1965 2005 2006
 1966 2006 2007
 1967 2007 2008
 1968 2008 2009
 1969 2009 2010
 1970 2010 2011
 1971 2011 2012
 1972 2012 2013
 1973 2013 2014
 1974 2014 2015
 1975 2015 2016
 1976 2016 2017
 1977 2017 2018
 1978 2018 2019
 1979 2019 2020
 1980 2020 2021
 1981 2021 2022
 1982 2022 2023
 1983 2023 2024
 1984 2024 2025
 1985 2025 2026
 1986 2026 2027
 1987 2027 2028
 1988 2028 2029
 1989 2029 2030
 1990 2030 2031
 1991 2031 2032
 1992 2032 2033
 1993 2033 2034
 1994 2034 2035
 1995 2035 2036
 1996 2036 2037
 1997 2037 2038
 1998 2038 2039
 2000 2040 2041
 2001 2041 2042
 2002 2042 2043
 2003 2043 2044
 2004 2044 2045
 2005 2045 2046
 2006 2046 2047
 2007 2047 2048
 2008 2048 2049
 2009 2049 2050
 2010 2050 2051
 2011 2051 2052
 2012 2052 2053
 2013 2053 2054
 2014 2054 2055
 2015 2055 2056
 2016 2056 2057
 2017 2057 2058
 2018 2058 2059
 2019 2059 2060
 2020 2060 2061
 2021 2061 2062
 2022 2062 2063
 2023 2063 2064
 2024 2064 2065
 2025 2065 2066
 2026 2066 2067
 2027 2067 2068
 2028 2068 2069
 2029 2069 2070
 2030 2070 2071
 2031 2071 2072
 2032 2072 2073
 2033 2073 2074
 2034 2074 2075
 2035 2075 2076
 2036 2076 2077
 2037 2077 2078
 2038 2078 2079
 2040 2080 2081
 2041 2081 2082
 2042 2082 2083
 2043 2083 2084
 2044 2084 2085
 2045 2085 2086
 2046 2086 2087
 2047 2087 2088
 2048 2088 2089
 2049 2089 2090
 2050 2090 2091
 2051 2091 2092
 2052 2092 2093
 2053 2093 2094
 2054 2094 2095
 2055 2095 2096
 2056 2096 2097
 2057 2097 2098
 2058 2098 2099
 2059 2099 2100
 2060 2100 2101
 2061 2101 2102
 2062 2102 2103
 2063 2103 2104
 2064 2104 2105
 2065 2105 2106
 2066 2106 2107
 2067 2107 2108
 2068 2108 2109
 2069 2109 2110
 2070 2110 2111
 2071 2111 2112
 2072 2112 2113
 2073 2113 2114
 2074 2114 2115
 2075 2115 2116
 2076 2116 2117
 2077 2117 2118
 2078 2118 2119
 2080 2120 2121
 2081 2121 2122
 2082 2122 2123
 2083 2123 2124
 2084 2124 2125
 2085 2125 2126
 2086 2126 2127
 2087 2127 2128
 2088 2128 2129
 2089 2129 2130
 2090 2130 2131
 2091 2131 2132
 2092 2132 2133
 2093 2133 2134
 2094 2134 2135
 2095 2135 2136
 2096 2136 2137
 2097 2137 2138
 2098 2138 2139
 2099 2139 2140
 2100 2140 2141
 2101 2141 2142
 2102 2142 2143
 2103 2143 2144
 2104 2144 2145
 2105 2145 2146
 2106 2146 2147
 2107 2147 2148
 2108 2148 2149
 2109 2149 2150
 2110 2150 2151
 2111 2151 2152
 2112 2152 2153
 2113 2153 2154
 2114 2154 2155
 2115 2155 2156
 2116 2156 2157
 2117 2157 2158
 2118 2158 2159
 2120 2160 2161
 2121 2161 2162
 2122 2162 2163
 2123 2163 2164
 2124 2164 2165
 2125 2165 2166
 2126 2166 2167
 2127 2167 2168
 2128 2168 2169
 2129 2169 2170
 2130 2170 2171
 2131 2171 2172
 2132 2172 2173
 2133 2173 2174
 2134 2174 2175
 2135 2175 2176
 2136 2176 2177
 2137 2177 2178
 2138 2178 2179
 2139 2179 2180
 2140 2180 2181
 2141 2181 2182
 2142 2182 2183
 2143 2183 2184
 2144 2184 2185
 2145 2185 2186
 2146 2186 2187
 2147 2187 2188
 2148 2188 2189
 2149 2189 2190
 2150 2190 2191
 2151 2191 2192
 2152 2192 2193
 2153 2193 2194
 2154 2194 2195
 2155 2195 2196
 2156 2196 2197
 2157 2197 2198
 2158 2198 2199
 2160 2200 2201
 2161 2201 2202
 2162 2202 2203
 2163 2203 2204
 2164 2204 2205
 2165 2205 2206
 2166 2206 2207
 2167 2207 2208
 2168 2208 2209
 2169 2209 2210
 2170 2210 2211
 2171 2211 2212
 2172 2212 2213
 2173 2213 2214
 2174 2214 2215
 2175 2215 2216
 2176 2216 2217
 2177 2217 2218
 2178 2218 2219
 2179 2219 2220
 2180 2220 2221
 2181 2221 2222
 2182 2222 2223
 2183 2223 2224
 2184 2224 2225
 2185 2225 2226
 2186 2226 2227
 2187 2227 2228
 2188 2228 2229
 2189 2229 2230
 2190 2230 2231
 2191 2231 2232
 2192 2232 2233
 2193 2233 2234
 2194 2234 2235
 2195 2235 2236
 2196 2236 2237
 2197 2237 2238
 2198 2238 2239
 2200 2240 2241
 2201 2241 2242
 2202 2242 2243
 2203 2243 2244
 2204 2244 2245
 2205 2245 2246
 2206 2246 2247
 2207 2247 2248
 2208 2248 2249
 2209 2249 2250
 2210 2250 2251
 2211 2251 2252
 2212 2252 2253
 2213 2253 2254
 2214 2254 2255
 2215 2255 2256
 2216 2256 2257
 2217 2257 2258
 2218 2258 2259
 2219 2259 2260
 2220 2260 2261
 2221 2261 2262
 2222 2262 2263
 2223 2263 2264
 2224 2264 2265
 2225 2265 2266
 2226 2266 2267
 2227 2267 2268
 2228 2268 2269
 2229 2269 2270
 2230 2270 2271
 2231 2271 2272
 2232 2272 2273
 2233 2273 2274
 2234 2274 2275
 2235 2275 2276
 2236 2276 2277
 2237 2277 2278
 2238 2278 2279
 2240 2280 2281
 2241 2281 2282
 2242 2282 2283
 2243 2283 2284
 2244 2284 2285
 2245 2285 2286
 2246 2286 2287
 2247 2287 2288
 2248 2288 2289
 2249 2289 2290
 2250 2290 2291
 2251 2291 2292
 2252 2292 2293
 2253 2293 2294
 2254 2294 2295
 2255 2295 2296
 2256 2296 2297
 2257 2297 2298
 2258 2298 2299
 2259 2299 2300
 2260 2300 2301
 2261 2301 2302
 2262 2302 2303
 2263 2303 2304
 2264 2304 2305
 2265 2305 2306
 2266 2306 2307
 2267 2307 2308
 2268 2308 2309
 2269 2309 2310
 2270 2310 2311
 2271 2311 2312
 2272 2312 2313
 2273 2313 2314
 2274 2314 2315
 2275 2315 2316
 2276 2316 2317
 2277 2317 2318
 2278 2318 2319
 2280 2320 2321
 2281 2321 2322
 2282 2322 2323
 2283 2323 2324
 2284 2324 2325
 2285 2325 2326
 2286 2326 2327
 2287 2327 2328
 2288 2328 2329
 2289 2329 2330
 2290 2330 2331
 2291 2331 2332
 2292 2332 2333
 2293 2333 2334
 2294 2334 2335
 2295 2335 2336
 2296 2336 2337
 2297 2337 2338
 2298 2338 2339
 2299 2339 2340
 2300 2340 2341
 2301 2341 2342
 2302 2342 2343
 2303 2343 2344
 2304 2344 2345
 2305 2345 2346
 2306 2346 2347
 2307 2347 2348
 2308 2348 2349
 2309 2349 2350
 2310 2350 2351
 2311 2351 2352
 2312 2352 2353
 2313 2353 2354
 2314 2354 2355
 2315 2355 2356
 2316 2356 2357
 2317 2357 2358
 2318 2358 2359
 2320 2360 2361
 2321 2361 2362
 2322 2362 2363
 2323 2363 2364
 2324 2364 2365
 2325 2365 2366
 2326 2366 2367
 2327 2367 2368
 2328 2368 2369
 2329 2369 2370
 2330 2370 2371
 2331 2371 2372
 2332 2372 2373
 2333 2373 2374
 2334 2374 2375
 2335 2375 2376
 2336 2376 2377
 2337 2377 2378
 2338 2378 2379
 2339 2379 2380
 2340 2380 2381
 2341 2381 2382
 2342 2382 2383
 2343 2383 2384
 2344 2384 2385
 2345 2385 2386
 2346 2386 2387
 2347 2387 2388
 2348 2388 2389
 2349 2389 2390
 2350 2390 2391
 2351 2391 2392
 2352 2392 2393
 2353 2393 2394
 2354 2394 2395
 2355 2395 2396
 2356 2396 2397
 2357 2397 2398
 2358 2398 2399
 2360 2400 2401
 2361 2401 2402
 2362 2402 2403
 2363 2403 2404
 2364 2404 2405
 2365 2405 2406
 2366 2406 2407
 2367 2407 2408
 2368 2408 2409
 2369 2409 2410
 2370 2410 2411
 2371 2411 2412
 2372 2412 2413
 2373 2413 2414
 2374 2414 2415
 2375 2415 2416
 2376 2416 2417
 2377 2417 2418
 2378 2418 2419
 2379 2419 2420
 2380 2420 2421
 2381 2421 2422
 2382 2422 2423
 2383 2423 2424
 2384 2424 2425
 2385 2425 2426
 2386 2426 2427
 2387 2427 2428
 2388 2428 2429
 2389 2429 2430
 2390 2430 2431
 2391 2431 2432
 2392 2432 2433
 2393 2433 2434
 2394 2434 2435
 2395 2435 2436
 2396 2436 2437
 2397 2437 2438
 2398 2438 2439
 2400 2440 2441
 2401 2441 2442
 2402 2442 2443
 2403 2443 2444
 2404 2444 2445
 2405 2445 2446
 2406 2446 2447
 2407 2447 2448
 2408 2448 2449
 2409 2449 2450
 2410 2450 2451
 2411 2451 2452
 2412 2452 2453
 2413 2453 2454
 2414 2454 2455
 2415 2455 2456
 2416 2456 2457
 2417 2457 2458
 2418 2458 2459
 2419 2459 2460
 2420 2460 2461
 2421 2461 2462
 2422 2462 2463
 2423 2463 2464
 2424 2464 2465
 2425 2465 2466
 2426 2466 2467
 2427 2467 2468
 2428 2468 2469
 2429 2469 2470
 2430 2470 2471
 2431 2471 2472
 2432 2472 2473
 2433 2473 2474
 2434 2474 2475
 2435 2475 2476
 2436 2476 2477
 2437 2477 2478
 2438 2478 2479
 2440 2480 2481
 2441 2481 2482
 2442 2482 2483
 2443 2483 2484
 2444 2484 2485
 2445 2485 2486
 2446 2486 2487
 2447 2487 2488
 2448 2488 2489
 2449 2489 2490
 2450 2490 2491
 2451 2491 2492
 2452 2492 2493
 2453 2493 2494
 2454 2494 2495
 2455 2495 2496
 2456 2496 2497
 2457 2497 2498
 2458 2498 2499
 2459 2499 2500
 2460 2500 2501
 2461 2501 2502
 2462 2502 2503
 2463 2503 2504
 2464 2504 2505
 2465 2505 2506
 2466 2506 2507
 2467 2507 2508
 2468 2508 2509
 2469 2509 2510
 2470 2510 2511
 2471 2511 2512
 2472 2512 2513
 2473 2513 2514
 2474 2514 2515
 2475 2515 2516
 2476 2516 2517
 2477 2517 2518
 2478 2518 2519
 2480 2520 2521
 2481 2521 2522
 2482 2522 2523
 2483 2523 2524
 2484 2524 2525
 2485 2525 2526
 2486 2526 2527
 2487 2527 2528
 2488 2528 2529
 2489 2529 2530
 2490 2530 2531
 2491 2531 2532
 2492 2532 2533
 2493 2533 2534
 2494 2534 2535
 2495 2535 2536
 2496 2536 2537
 2497 2537 2538
 2498 2538 2539
 2499 2539 2540
 2500 2540 2541
 2501 2541 2542
 2502 2542 2543
 2503 2543 2544
 2504 2544 2545
 2505 2545 2546
 2506 2546 2547
 2507 2547 2548
 2508 2548 2549
 2509 2549 2550
 2510 2550 2551
 2511 2551 2552
 2512 2552 2553
 2513 2553 2554
 2514 2554 2555
 2515 2555 2556
 2516 2556 2557
 2517 2557 2558
 2518 2558 2559
 2520 2560 2561
 2521 2561 2562
 2522 2562 2563
 2523 2563 2564
 2524 2564 2565
 2525 2565 2566
 2526 2566 2567
 2527 2567 2568
 2528 2568 2569
 2529 2569 2570
 2530 2570 2571
 2531 2571 2572
 2532 2572 2573
 2533 2573 2574
 2534 2574 2575
 2535 2575 2576
 2536 2576 2577
 2537 2577 2578
 2538 2578 2579
 2539 2579 2580
 2540 2580 2581
 2541 2581 2582
 2542 2582 2583
 2543 2583 2584
 2544 2584 2585
 2545 2585 2586
 2546 2586 2587
 2547 2587 2588
 2548 2588 2589
 2549 2589 2590
 2550 2590 2591
 2551 2591 2592
 2552 2592 2593
 2553 2593 2594
 2554 2594 2595
 2555 2595 2596
 2556 2596 2597
 2557 2597 2598
 2558 2598 2599
 2560 2600 2601
 2561 2601 2602
 2562 2602 2603
 2563 2603 2604
 2564 2604 2605
 2565 2605 2606
 2566 2606 2607
 2567 2607 2608
 2568 2608 2609
 2569 2609 2610
 2570 2610 2611
 2571 2611 2612
 2572 2612 2613
 2573 2613 2614
 2574 2614 2615
 2575 2615 2616
 2576 2616 2617
 2577 2617 2618
 2578 2618 2619
 2579 2619 2620
 2580 2620 2621
 2581 2621 2622
 2582 2622 2623
 2583 2623 2624
 2584 2624 2625
 2585 2625 2626
 2586 2626 2627
 2587 2627 2628
 2588 2628 2629
 2589 2629 2630
 2590 2630 2631
 2591 2631 2632
 2592 2632 2633
 2593 2633 2634
 2594 2634 2635
 2595 2635 2636
 2596 2636 2637
 2597 2637 2638
 2598 2638 2639
 2600 2640 2641
 2601 2641 2642
 2602 2642 2643
 2603 2643 2644
 2604 2644 2645
 2605 2645 2646
 2606 2646 2647
 2607 2647 2648
 2608 2648 2649
 2609 2649 2650
 2610 2650 2651
 2611 2651 2652
 2612 2652 2653
 2613 2653 2654
 2614 2654 2655
 2615 2655 2656
 2616 2656 2657
 2617 2657 2658
 2618 2658 2659
 2619 2659 2660
 2620 2660 2661
 2621 2661 2662
 2622 2662 2663
 2623 2663 2664
 2624 2664 2665
 2625 2665 2666
 2626 2666 2667
 2627 2667 2668
 2628 2668 2669
 2629 2669 2670
 2630 2670 2671
 2631 2671 2672
 2632 2672 2673
 2633 2673 2674
 2634 2674 2675
 2635 2675 2676
 2636 2676 2677
 2637 2677 2678
 2638 2678 2679
 2640 2680 2681
 2641 2681 2682
 2642 2682 2683
 2643 2683 2684
 2644 2684 2685
 2645 2685 2686
 2646 2686 2687
 2647 2687 2688
 2648 2688 2689
 2649 2689 2690
 2650 2690 2691
 2651 2691 2692
 2652 2692 2693
 2653 2693 2694
 2654 2694 2695
 2655 2695 2696
 2656 2696 2697
 2657 2697 2698
 2658 2698 2699
 2659 2699 2700
 2660 2700 2701
 2661 2701 2702
 2662 2702 2703
 2663 2703 2704
 2664 2704 2705
 2665 2705 2706
 2666 2706 2707
 2667 2707 2708
 2668 2708 2709
 2669 2709 2710
 2670 2710 2711
 2671 2711 2712
 2672 2712 2713
 2673 2713 2714
 2674 2714 2715
 2675 2715 2716
 2676 2716 2717
 2677 2717 2718
 2678 2718 2719
 2680 2720 2721
 2681 2721 2722
 2682 2722 2723
 2683 2723 2724
 2684 2724 2725
 2685 2725 2726
 2686 2726 2727
 2687 2727 2728
 2688 2728 2729
 2689 2729 2730
 2690 2730 2731
 2691 2731 2732
 2692 2732 2733
 2693 2733 2734
 2694 2734 2735
 2695 2735 2736
 2696 2736 2737
 2697 2737 2738
 2698 2738 2739
 2699 2739 2740
 2700 2740 2741
 2701 2741 2742
 2702 2742 2743
 2703 2743 2744
 2704 2744 2745
 2705 2745 2746
 2706 2746 2747
 2707 2747 2748
 2708 2748 2749
 2709 2749 2750
 2710 2750 2751
 2711 2751 2752
 2712 2752 2753
 2713 2753 2754
 2714 2754 2755
 2715 2755 2756
 2716 2756 2757
 2717 2757 2758
 2718 2758 2759
 2720 2760 2761
 2721 2761 2762
 2722 2762 2763
 2723 2763 2764
 2724 2764 2765
 2725 2765 2766
 2726 2766 2767
 2727 2767 2768
 2728 2768 2769
 2729 2769 2770
 2730 2770 2771
 2731 2771 2772
 2732 2772 2773
 2733 2773 2774
 2734 2774 2775
 2735 2775 2776
 2736 2776 2777
 2737 2777 2778
 2738 2778 2779
 2739 2779 2780
 2740 2780 2781
 2741 2781 2782
 2742 2782 2783
 2743 2783 2784
 2744 2784 2785
 2745 2785 2786
 2746 2786 2787
 2747 2787 2788
 2748 2788 2789
 2749 2789 2790
 2750 2790 2791
 2751 2791 2792
 2752 2792 2793
 2753 2793 2794
 2754 2794 2795
 2755 2795 2796
 2756 2796 2797
 2757 2797 2798
 2758 2798 2799
 2760 2800 2801
 2761 2801 2802
 2762 2802 2803
 2763 2803 2804
 2764 2804 2805
 2765 2805 2806
 2766 2806 2807
 2767 2807 2808
 2768 2808 2809
 2769 2809 2810
 2770 2810 2811
 2771 2811 2812
 2772 2812 2813
 2773 2813 2814
 2774 2814 2815
 2775 2815 2816
 2776 2816 2817
 2777 2817 2818
 2778 2818 2819
 2779 2819 2820
 2780 2820 2821
 2781 2821 2822
 2782 2822 2823
 2783 2823 2824
 2784 2824 2825
 2785 2825 2826
 2786 2826 2827
 2787 2827 2828
 2788 2828 2829
 2789 2829 2830
 2790 2830 2831
 2791 2831 2832
 2792 2832 2833
 2793 2833 2834
 2794 2834 2835
 2795 2835 2836
 2796 2836 2837
 2797 2837 2838
 2798 2838 2839
 2800 2840 2841
 2801 2841 2842
 2802 2842 2843
 2803 2843 2844
 2804 2844 2845
 2805 2845 2846
 2806 2846 2847
 2807 2847 2848
 2808 2848 2849
 2809 2849 2850
 2810 2850 2851
 2811 2851 2852
 2812 2852 2853
 2813 2853 2854
 2814 2854 2855
 2815 2855 2856
 2816 2856 2857
 2817 2857 2858
 2818 2858 2859
 2819 2859 2860
 2820 2860 2861
 2821 2861 2862
 2822 2862 2863
 2823 2863 2864
 2824 2864 2865
 2825 2865 2866
 2826 2866 2867
 2827 2867 2868
 2828 2868 2869
 2829 2869 2870
 2830 2870 2871
 2831 2871 2872
 2832 2872 2873
 2833 2873 2874
 2834 2874 2875
 2835 2875 2876
 2836 2876 2877
 2837 2877 2878
 2838 2878 2879
 2840 2880 2881
 2841 2881 2882
 2842 2882 2883
 2843 2883 2884
 2844 2884 2885
 2845 2885 2886
 2846 2886 2887
 2847 2887 2888
 2848 2888 2889
 2849 2889 2890
 2850 2890 2891
 2851 2891 2892
 2852 2892 2893
 2853 2893 2894
 2854 2894 2895
 2855 2895 2896
 2856 2896 2897
 2857 2897 2898
 2858 2898 2899
 2859 2899 2900
 2860 2900 2901
 2861 2901 2902
 2862 2902 2903
 2863 2903 2904
 2864 2904 2905
 2865 2905 2906
 2866 2906 2907
 2867 2907 2908
 2868 2908 2909
 2869 2909 2910
 2870 2910 2911
 2871 2911 2912
 2872 2912 2913
 2873 2913 2914
 2874 2914 2915
 2875 2915 2916
 2876 2916 2917
 2877 2917 2918
 2878 2918 2919
 2880 2920 2921
 2881 2921 2922
 2882 2922 2923
 2883 2923 2924
 2884 2924 2925
 2885 2925 2926
 2886 2926 2927
 2887 2927 2928
 2888 2928 2929
 2889 2929 2930
 2890 2930 2931
 2891 2931 2932
 2892 2932 2933
 2893 2933 2934
 2894 2934 2935
 2895 2935 2936
 2896 2936 2937
 2897 2937 2938
 2898 2938 2939
 2899 2939 2940
 2900 2940 2941
 2901 2941 2942
 2902 2942 2943
 2903 2943 2944
 2904 2944 2945
 2905 2945 2946
 2906 2946 2947
 2907 2947 2948
 2908 2948 2949
 2909 2949 2950
 2910 2950 2951
 2911 2951 2952
 2912 2952 2953
 2913 2953 2954
 2914 2954 2955
 2915 2955 2956
 2916 2956 2957
 2917 2957 2958
 2918 2958 2959
 2920 2960 2961
 2921 2961 2962
 2922 2962 2963
 2923 2963 2964
 2924 2964 2965
 2925 2965 2966
 2926 2966 2967
 2927 2967 2968
 2928 2968 2969
 2929 2969 2970
 2930 2970 2971
 2931 2971 2972
 2932 2972 2973
 2933 2973 2974
 2934 2974 2975
 2935 2975 2976
 2936 2976 2977
 2937 2977 2978
 2938 2978 2979
 2939 2979 2980
 2940 2980 2981
 2941 2981 2982
 2942 2982 2983
 2943 2983 2984
 2944 2984 2985
 2945 2985 2986
 2946 2986 2987
 2947 2987 2988
 2948 2988 2989
 2949 2989 2990
 2950 2990 2991
 2951 2991 2992
 2952 2992 2993
 2953 2993 2994
 2954 2994 2995
 2955 2995 2996
 2956 2996 2997
 2957 2997 2998
 2958 2998 2999
 2960 3000 3001
 2961 3001 3002
 2962 3002 3003
 2963 3003 3004
 2964 3004 3005
 2965 3005 3006
 2966 3006 3007
 2967 3007 3008
 2968 3008 3009
 2969 3009 3010
 2970 3010 3011
 2971 3011 3012
 2972 3012 3013
 2973 3013 3014
 2974 3014 3015
 2975 3015 3016
 2976 3016 3017
 2977 3017 3018
 2978 3018 3019
 2979 3019 3020
 2980 3020 3021
 2981 3021 3022
 2982 3022 3023
 2983 3023 3024
 2984 3024 3025
 2985 3025 3026
 2986 3026 3027
 2987 3027 3028
 2988 3028 3029
 2989 3029 3030
 2990 3030 3031
 2991 3031 3032
 2992 3032 3033
 2993 3033 3034
 2994 3034 3035
 2995 3035 3036
 2996 3036 3037
 2997 3037 3038
 2998 3038 3039
 3000 3040 3041
 3001 3041 3042
 3002 3042 3043
 3003 3043 3044
 3004 3044 3045
 3005 3045 3046
 3006 3046 3047
 3007 3047 3048
 3008 3048 3049
 3009 3049 3050
 3010 3050 3051
 3011 3051 3052
 3012 3052 3053
 3013 3053 3054
 3014 3054 3055
 3015 3055 3056
 3016 3056 3057
 3017 3057 3058
 3018 3058 3059
 3019 3059 3060
 3020 3060 3061
 3021 3061 3062
 3022 3062 3063
 3023 3063 3064
 3024 3064 3065
 3025 3065 3066
 3026 3066 3067
 3027 3067 3068
 3028 3068 3069
 3029 3069 3070
 3030 3070 3071
 3031 3071 3072
 3032 3072 3073
 3033 3073 3074
 3034 3074 3075
 3035 3075 3076
 3036 3076 3077
 3037 3077 3078
 3038 3078 3079
 3040 3080 3081
 3041 3081 3082
 3042 3082 3083
 3043 3083 3084
 3044 3084 3085
 3045 3085 3086
 3046 3086 3087
 3047 3087 3088
 3048 3088 3089
 3049 3089 3090
 3050 3090 3091
 3051 3091 3092
 3052 3092 3093
 3053 3093 3094
 3054 3094 3095
 3055 3095 3096
 3056 3096 3097
 3057 3097 3098
 3058 3098 3099
 3059 3099 3100
 3060 3100 3101
 3061 3101 3102
 3062 3102 3103
 3063 3103 3104
 3064 3104 3105
 3065 3105 3106
 3066 3106 3107
 3067 3107 3108
 3068 3108 3109
 3069 3109 3110
 3070 3110 3111
 3071 3111 3112
 3072 3112 3113
 3073 3113 3114
 3074 3114 3115
 3075 3115 3116
 3076 3116 3117
 3077 3117 3118
 3078 3118 3119
 3080 3120 3121
 3081 3121 3122
 3082 3122 3123
 3083 3123 3124
 3084 3124 3125
 3085 3125 3126
 3086 3126 3127
 3087 3127 3128
 3088 3128 3129
 3089 3129 3130
 3090 3130 3131
 3091 3131 3132
 3092 3132 3133
 3093 3133 3134
 3094 3134 3135
 3095 3135 3136
 3096 3136 3137
 3097 3137 3138
 3098 3138 3139
 3099 3139 3140
 3100 3140 3141
 3101 3141 3142
 3102 3142 3143
 3103 3143 3144
 3104 3144 3145
 3105 3145 3146
 3106 3146 3147
 3107 3147 3148
 3108 3148 3149
 3109 3149 3150
 3110 3150 3151
 3111 3151 3152
 3112 3152 3153
 3113 3153 3154
 3114 3154 3155
 3115 3155 3156
 3116 3156 3157
 3117 3157 3158
 3118 3158 3159
 3120 3160 3161
 3121 3161 3162
 3122 3162 3163
 3123 3163 3164
 3124 3164 3165
 3125 3165 3166
 3126 3166 3167
 3127 3167 3168
 3128 3168 3169
 3129 3169 3170
 3130 3170 3171
 3131 3171 3172
 3132 3172 3173
 3133 3173 3174
 3134 3174 3175
 3135 3175 3176
 3136 3176 3177
 3137 3177 3178
 3138 3178 3179
 3139 3179 3180
 3140 3180 3181
 3141 3181 3182
 3142 3182 3183
 3143 3183 3184
 3144 3184 3185
 3145 3185 3186
 3146 3186 3187
 3147 3187 3188
 3148 3188 3189
 3149 3189 3190
 3150 3190 3191
 3151 3191 3192
 3152 3192 3193
 3153 3193 3194
 3154 3194 3195
 3155 3195 3196
 3156 3196 3197
 3157 3197 3198
 3158 3198 3199</DataArray>
            <DataArray Name="offsets" format="ascii" type="Int32">3 6 9 12 15 18 21 24 27 30 33 36 39 42 45 48 51 54 57 60 63 66 69 72 75 78 81 84 87 90 93 96 99 102 105 108 111 114 117 120 123 126 129 132 135 138 141 144 147 150 153 156 159 162 165 168 171 174 177 180 183 186 189 192 195 198 201 204 207 210 213 216 219 222 225 228 231 234 237 240 243 246 249 252 255 258 261 264 267 270 273 276 279 282 285 288 291 294 297 300 303 306 309 312 315 318 321 324 327 330 333 336 339 342 345 348 351 354 357 360 363 366 369 372 375 378 381 384 387 390 393 396 399 402 405 408 411 414 417 420 423 426 429 432 435 438 441 444 447 450 453 456 459 462 465 468 471 474 477 480 483 486 489 492 495 498 501 504 507 510 513 516 519 522 525 528 531 534 537 540 543 546 549 552 555 558 561 564 567 570 573 576 579 582 585 588 591 594 597 600 603 606 609 612 615 618 621 624 627 630 633 636 639 642 645 648 651 654 657 660 663 666 669 672 675 678 681 684 687 690 693 696 699 702 705 708 711 714 717 720 723 726 729 732 735 738 741 744 747 750 753 756 759 762 765 768 771 774 777 780 783 786 789 792 795 798 801 804 807 810 813 816 819 822 825 828 831 834 837 840 843 846 849 852 855 858 861 864 867 870 873 876 879 882 885 888 891 894 897 900 903 906 909 912 915 918 921 924 927 930 933 936 939 942 945 948 951 954 957 960 963 966 969 972 975 978 981 984 987 990 993 996 999 1002 1005 1008 1011 1014 1017 1020 1023 1026 1029 1032 1035 1038 1041 1044 1047 1050 1053 1056 1059 1062 1065 1068 1071 1074 1077 1080 1083 1086 1089 1092 1095 1098 1101 1104 1107 1110 1113 1116 1119 1122 1125 1128 1131 1134 1137 1140 1143 1146 1149 1152 1155 1158 1161 1164 1167 1170 1173 1176 1179 1182 1185 1188 1191 1194 1197 1200 1203 1206 1209 1212 1215 1218 1221 1224 1227 1230 1233 1236 1239 1242 1245 1248 1251 1254 1257 1260 1263 1266 1269 1272 1275 1278 1281 1284 1287 1290 1293 1296 1299 1302 1305 1308 1311 1314 1317 1320 1323 1326 1329 1332 1335 1338 1341 1344 1347 1350 1353 1356 1359 1362 1365 1368 1371 1374 1377 1380 1383 1386 1389 1392 1395 1398 1401 1404 1407 1410 1413 1416 1419 1422 1425 1428 1431 1434 1437 1440 1443 1446 1449 1452 1455 1458 1461 1464 1467 1470 1473 1476 1479 1482 1485 1488 1491 1494 1497 1500 1503 1506 1509 1512 1515 1518 1521 1524 1527 1530 1533 1536 1539 1542 1545 1548 1551 1554 1557 1560 1563 1566 1569 1572 1575 1578 1581 1584 1587 1590 1593 1596 1599 1602 1605 1608 1611 1614 1617 1620 1623 1626 1629 1632 1635 1638 1641 1644 1647 1650 1653 1656 1659 1662 1665 1668 1671 1674 1677 1680 1683 1686 1689 1692 1695 1698 1701 1704 1707 1710 1713 1716 1719 1722 1725 1728 1731 1734 1737 1740 1743 1746 1749 1752 1755 1758 1761 1764 1767 1770 1773 1776 1779 1782 1785 1788 1791 1794 1797 1800 1803 1806 1809 1812 1815 1818 1821 1824 1827 1830 1833 1836 1839 1842 1845 1848 1851 1854 1857 1860 1863 1866 1869 1872 1875 1878 1881 1884 1887 1890 1893 1896 1899 1902 1905 1908 1911 1914 1917 1920 1923 1926 1929 1932 1935 1938 1941 1944 1947 1950 1953 1956 1959 1962 1965 1968 1971 1974 1977 1980 1983 1986 1989 1992 1995 1998 2001 2004 2007 2010 2013 2016 2019 2022 2025 2028 2031 2034 2037 2040 2043 2046 2049 2052 2055 2058 2061 2064 2067 2070 2073 2076 2079 2082 2085 2088 2091 2094 2097 2100 2103 2106 2109 2112 2115 2118 2121 2124 2127 2130 2133 2136 2139 2142 2145 2148 2151 2154 2157 2160 2163 2166 2169 2172 2175 2178 2181 2184 2187 2190 2193 2196 2199 2202 2205 2208 2211 2214 2217 2220 2223 2226 2229 2232 2235 2238 2241 2244 2247 2250 2253 2256 2259 2262 2265 2268 2271 2274 2277 2280 2283 2286 2289 2292 2295 2298 2301 2304 2307 2310 2313 2316 2319 2322 2325 2328 2331 2334 2337 2340 2343 2346 2349 2352 2355 2358 2361 2364 2367 2370 2373 2376 2379 2382 2385 2388 2391 2394 2397 2400 2403 2406 2409 2412 2415 2418 2421 2424 2427 2430 2433 2436 2439 2442 2445 2448 2451 2454 2457 2460 2463 2466 2469 2472 2475 2478 2481 2484 2487 2490 2493 2496 2499 2502 2505 2508 2511 2514 2517 2520 2523 2526 2529 2532 2535 2538 2541 2544 2547 2550 2553 2556 2559 2562 2565 2568 2571 2574 2577 2580 2583 2586 2589 2592 2595 2598 2601 2604 2607 2610 2613 2616 2619 2622 2625 2628 2631 2634 2637 2640 2643 2646 2649 2652 2655 2658 2661 2664 2667 2670 2673 2676 2679 2682 2685 2688 2691 2694 2697 2700 2703 2706 2709 2712 2715 2718 2721 2724 2727 2730 2733 2736 2739 2742 2745 2748 2751 2754 2757 2760 2763 2766 2769 2772 2775 2778 2781 2784 2787 2790 2793 2796 2799 2802 2805 2808 2811 2814 2817 2820 2823 2826 2829 2832 2835 2838 2841 2844 2847 2850 2853 2856 2859 2862 2865 2868 2871 2874 2877 2880 2883 2886 2889 2892 2895 2898 2901 2904 2907 2910 2913 2916 2919 2922 2925 2928 2931 2934 2937 2940 2943 2946 2949 2952 2955 2958 2961 2964 2967 2970 2973 2976 2979 2982 2985 2988 2991 2994 2997 3000 3003 3006 3009 3012 3015 3018 3021 3024 3027 3030 3033 3036 3039 3042 3045 3048 3051 3054 3057 3060 3063 3066 3069 3072 3075 3078 3081 3084 3087 3090 3093 3096 3099 3102 3105 3108 3111 3114 3117 3120 3123 3126 3129 3132 3135 3138 3141 3144 3147 3150 3153 3156 3159 3162 3165 3168 3171 3174 3177 3180 3183 3186 3189 3192 3195 3198 3201 3204 3207 3210 3213 3216 3219 3222 3225 3228 3231 3234 3237 3240 3243 3246 3249 3252 3255 3258 3261 3264 3267 3270 3273 3276 3279 3282 3285 3288 3291 3294 3297 3300 3303 3306 3309 3312 3315 3318 3321 3324 3327 3330 3333 3336 3339 3342 3345 3348 3351 3354 3357 3360 3363 3366 3369 3372 3375 3378 3381 3384 3387 3390 3393 3396 3399 3402 3405 3408 3411 3414 3417 3420 3423 3426 3429 3432 3435 3438 3441 3444 3447 3450 3453 3456 3459 3462 3465 3468 3471 3474 3477 3480 3483 3486 3489 3492 3495 3498 3501 3504 3507 3510 3513 3516 3519 3522 3525 3528 3531 3534 3537 3540 3543 3546 3549 3552 3555 3558 3561 3564 3567 3570 3573 3576 3579 3582 3585 3588 3591 3594 3597 3600 3603 3606 3609 3612 3615 3618 3621 3624 3627 3630 3633 3636 3639 3642 3645 3648 3651 3654 3657 3660 3663 3666 3669 3672 3675 3678 3681 3684 3687 3690 3693 3696 3699 3702 3705 3708 3711 3714 3717 3720 3723 3726 3729 3732 3735 3738 3741 3744 3747 3750 3753 3756 3759 3762 3765 3768 3771 3774 3777 3780 3783 3786 3789 3792 3795 3798 3801 3804 3807 3810 3813 3816 3819 3822 3825 3828 3831 3834 3837 3840 3843 3846 3849 3852 3855 3858 3861 3864 3867 3870 3873 3876 3879 3882 3885 3888 3891 3894 3897 3900 3903 3906 3909 3912 3915 3918 3921 3924 3927 3930 3933 3936 3939 3942 3945 3948 3951 3954 3957 3960 3963 3966 3969 3972 3975 3978 3981 3984 3987 3990 3993 3996 3999 4002 4005 4008 4011 4014 4017 4020 4023 4026 4029 4032 4035 4038 4041 4044 4047 4050 4053 4056 4059 4062 4065 4068 4071 4074 4077 4080 4083 4086 4089 4092 4095 4098 4101 4104 4107 4110 4113 4116 4119 4122 4125 4128 4131 4134 4137 4140 4143 4146 4149 4152 4155 4158 4161 4164 4167 4170 4173 4176 4179 4182 4185 4188 4191 4194 4197 4200 4203 4206 4209 4212 4215 4218 4221 4224 4227 4230 4233 4236 4239 4242 4245 4248 4251 4254 4257 4260 4263 4266 4269 4272 4275 4278 4281 4284 4287 4290 4293 4296 4299 4302 4305 4308 4311 4314 4317 4320 4323 4326 4329 4332 4335 4338 4341 4344 4347 4350 4353 4356 4359 4362 4365 4368 4371 4374 4377 4380 4383 4386 4389 4392 4395 4398 4401 4404 4407 4410 4413 4416 4419 4422 4425 4428 4431 4434 4437 4440 4443 4446 4449 4452 4455 4458 4461 4464 4467 4470 4473 4476 4479 4482 4485 4488 4491 4494 4497 4500 4503 4506 4509 4512 4515 4518 4521 4524 4527 4530 4533 4536 4539 4542 4545 4548 4551 4554 4557 4560 4563 4566 4569 4572 4575 4578 4581 4584 4587 4590 4593 4596 4599 4602 4605 4608 4611 4614 4617 4620 4623 4626 4629 4632 4635 4638 4641 4644 4647 4650 4653 4656 4659 4662 4665 4668 4671 4674 4677 4680 4683 4686 4689 4692 4695 4698 4701 4704 4707 4710 4713 4716 4719 4722 4725 4728 4731 4734 4737 4740 4743 4746 4749 4752 4755 4758 4761 4764 4767 4770 4773 4776 4779 4782 4785 4788 4791 4794 4797 4800 4803 4806 4809 4812 4815 4818 4821 4824 4827 4830 4833 4836 4839 4842 4845 4848 4851 4854 4857 4860 4863 4866 4869 4872 4875 4878 4881 4884 4887 4890 4893 4896 4899 4902 4905 4908 4911 4914 4917 4920 4923 4926 4929 4932 4935 4938 4941 4944 4947 4950 4953 4956 4959 4962 4965 4968 4971 4974 4977 4980 4983 4986 4989 4992 4995 4998 5001 5004 5007 5010 5013 5016 5019 5022 5025 5028 5031 5034 5037 5040 5043 5046 5049 5052 5055 5058 5061 5064 5067 5070 5073 5076 5079 5082 5085 5088 5091 5094 5097 5100 5103 5106 5109 5112 5115 5118 5121 5124 5127 5130 5133 5136 5139 5142 5145 5148 5151 5154 5157 5160 5163 5166 5169 5172 5175 5178 5181 5184 5187 5190 5193 5196 5199 5202 5205 5208 5211 5214 5217 5220 5223 5226 5229 5232 5235 5238 5241 5244 5247 5250 5253 5256 5259 5262 5265 5268 5271 5274 5277 5280 5283 5286 5289 5292 5295 5298 5301 5304 5307 5310 5313 5316 5319 5322 5325 5328 5331 5334 5337 5340 5343 5346 5349 5352 5355 5358 5361 5364 5367 5370 5373 5376 5379 5382 5385 5388 5391 5394 5397 5400 5403 5406 5409 5412 5415 5418 5421 5424 5427 5430 5433 5436 5439 5442 5445 5448 5451 5454 5457 5460 5463 5466 5469 5472 5475 5478 5481 5484 5487 5490 5493 5496 5499 5502 5505 5508 5511 5514 5517 5520 5523 5526 5529 5532 5535 5538 5541 5544 5547 5550 5553 5556 5559 5562 5565 5568 5571 5574 5577 5580 5583 5586 5589 5592 5595 5598 5601 5604 5607 5610 5613 5616 5619 5622 5625 5628 5631 5634 5637 5640 5643 5646 5649 5652 5655 5658 5661 5664 5667 5670 5673 5676 5679 5682 5685 5688 5691 5694 5697 5700 5703 5706 5709 5712 5715 5718 5721 5724 5727 5730 5733 5736 5739 5742 5745 5748 5751 5754 5757 5760 5763 5766 5769 5772 5775 5778 5781 5784 5787 5790 5793 5796 5799 5802 5805 5808 5811 5814 5817 5820 5823 5826 5829 5832 5835 5838 5841 5844 5847 5850 5853 5856 5859 5862 5865 5868 5871 5874 5877 5880 5883 5886 5889 5892 5895 5898 5901 5904 5907 5910 5913 5916 5919 5922 5925 5928 5931 5934 5937 5940 5943 5946 5949 5952 5955 5958 5961 5964 5967 5970 5973 5976 5979 5982 5985 5988 5991 5994 5997 6000 6003 6006 6009 6012 6015 6018 6021 6024 6027 6030 6033 6036 6039 6042 6045 6048 6051 6054 6057 6060 6063 6066 6069 6072 6075 6078 6081 6084 6087 6090 6093 6096 6099 6102 6105 6108 6111 6114 6117 6120 6123 6126 6129 6132 6135 6138 6141 6144 6147 6150 6153 6156 6159 6162 6165 6168 6171 6174 6177 6180 6183 6186 6189 6192 6195 6198 6201 6204 6207 6210 6213 6216 6219 6222 6225 6228 6231 6234 6237 6240 6243 6246 6249 6252 6255 6258 6261 6264 6267 6270 6273 6276 6279 6282 6285 6288 6291 6294 6297 6300 6303 6306 6309 6312 6315 6318 6321 6324 6327 6330 6333 6336 6339 6342 6345 6348 6351 6354 6357 6360 6363 6366 6369 6372 6375 6378 6381 6384 6387 6390 6393 6396 6399 6402 6405 6408 6411 6414 6417 6420 6423 6426 6429 6432 6435 6438 6441 6444 6447 6450 6453 6456 6459 6462 6465 6468 6471 6474 6477 6480 6483 6486 6489 6492 6495 6498 6501 6504 6507 6510 6513 6516 6519 6522 6525 6528 6531 6534 6537 6540 6543 6546 6549 6552 6555 6558 6561 6564 6567 6570 6573 6576 6579 6582 6585 6588 6591 6594 6597 6600 6603 6606 6609 6612 6615 6618 6621 6624 6627 6630 6633 6636 6639 6642 6645 6648 6651 6654 6657 6660 6663 6666 6669 6672 6675 6678 6681 6684 6687 6690 6693 6696 6699 6702 6705 6708 6711 6714 6717 6720 6723 6726 6729 6732 6735 6738 6741 6744 6747 6750 6753 6756 6759 6762 6765 6768 6771 6774 6777 6780 6783 6786 6789 6792 6795 6798 6801 6804 6807 6810 6813 6816 6819 6822 6825 6828 6831 6834 6837 6840 6843 6846 6849 6852 6855 6858 6861 6864 6867 6870 6873 6876 6879 6882 6885 6888 6891 6894 6897 6900 6903 6906 6909 6912 6915 6918 6921 6924 6927 6930 6933 6936 6939 6942 6945 6948 6951 6954 6957 6960 6963 6966 6969 6972 6975 6978 6981 6984 6987 6990 6993 6996 6999 7002 7005 7008 7011 7014 7017 7020 7023 7026 7029 7032 7035 7038 7041 7044 7047 7050 7053 7056 7059 7062 7065 7068 7071 7074 7077 7080 7083 7086 7089 7092 7095 7098 7101 7104 7107 7110 7113 7116 7119 7122 7125 7128 7131 7134 7137 7140 7143 7146 7149 7152 7155 7158 7161 7164 7167 7170 7173 7176 7179 7182 7185 7188 7191 7194 7197 7200 7203 7206 7209 7212 7215 7218 7221 7224 7227 7230 7233 7236 7239 7242 7245 7248 7251 7254 7257 7260 7263 7266 7269 7272 7275 7278 7281 7284 7287 7290 7293 7296 7299 7302 7305 7308 7311 7314 7317 7320 7323 7326 7329 7332 7335 7338 7341 7344 7347 7350 7353 7356 7359 7362 7365 7368 7371 7374 7377 7380 7383 7386 7389 7392 7395 7398 7401 7404 7407 7410 7413 7416 7419 7422 7425 7428 7431 7434 7437 7440 7443 7446 7449 7452 7455 7458 7461 7464 7467 7470 7473 7476 7479 7482 7485 7488 7491 7494 7497 7500 7503 7506 7509 7512 7515 7518 7521 7524 7527 7530 7533 7536 7539 7542 7545 7548 7551 7554 7557 7560 7563 7566 7569 7572 7575 7578 7581 7584 7587 7590 7593 7596 7599 7602 7605 7608 7611 7614 7617 7620 7623 7626 7629 7632 7635 7638 7641 7644 7647 7650 7653 7656 7659 7662 7665 7668 7671 7674 7677 7680 7683 7686 7689 7692 7695 7698 7701 7704 7707 7710 7713 7716 7719 7722 7725 7728 7731 7734 7737 7740 7743 7746 7749 7752 7755 7758 7761 7764 7767 7770 7773 7776 7779 7782 7785 7788 7791 7794 7797 7800 7803 7806 7809 7812 7815 7818 7821 7824 7827 7830 7833 7836 7839 7842 7845 7848 7851 7854 7857 7860 7863 7866 7869 7872 7875 7878 7881 7884 7887 7890 7893 7896 7899 7902 7905 7908 7911 7914 7917 7920 7923 7926 7929 7932 7935 7938 7941 7944 7947 7950 7953 7956 7959 7962 7965 7968 7971 7974 7977 7980 7983 7986 7989 7992 7995 7998 8001 8004 8007 8010 8013 8016 8019 8022 8025 8028 8031 8034 8037 8040 8043 8046 8049 8052 8055 8058 8061 8064 8067 8070 8073 8076 8079 8082 8085 8088 8091 8094 8097 8100 8103 8106 8109 8112 8115 8118 8121 8124 8127 8130 8133 8136 8139 8142 8145 8148 8151 8154 8157 8160 8163 8166 8169 8172 8175 8178 8181 8184 8187 8190 8193 8196 8199 8202 8205 8208 8211 8214 8217 8220 8223 8226 8229 8232 8235 8238 8241 8244 8247 8250 8253 8256 8259 8262 8265 8268 8271 8274 8277 8280 8283 8286 8289 8292 8295 8298 8301 8304 8307 8310 8313 8316 8319 8322 8325 8328 8331 8334 8337 8340 8343 8346 8349 8352 8355 8358 8361 8364 8367 8370 8373 8376 8379 8382 8385 8388 8391 8394 8397 8400 8403 8406 8409 8412 8415 8418 8421 8424 8427 8430 8433 8436 8439 8442 8445 8448 8451 8454 8457 8460 8463 8466 8469 8472 8475 8478 8481 8484 8487 8490 8493 8496 8499 8502 8505 8508 8511 8514 8517 8520 8523 8526 8529 8532 8535 8538 8541 8544 8547 8550 8553 8556 8559 8562 8565 8568 8571 8574 8577 8580 8583 8586 8589 8592 8595 8598 8601 8604 8607 8610 8613 8616 8619 8622 8625 8628 8631 8634 8637 8640 8643 8646 8649 8652 8655 8658 8661 8664 8667 8670 8673 8676 8679 8682 8685 8688 8691 8694 8697 8700 8703 8706 8709 8712 8715 8718 8721 8724 8727 8730 8733 8736 8739 8742 8745 8748 8751 8754 8757 8760 8763 8766 8769 8772 8775 8778 8781 8784 8787 8790 8793 8796 8799 8802 8805 8808 8811 8814 8817 8820 8823 8826 8829 8832 8835 8838 8841 8844 8847 8850 8853 8856 8859 8862 8865 8868 8871 8874 8877 8880 8883 8886 8889 8892 8895 8898 8901 8904 8907 8910 8913 8916 8919 8922 8925 8928 8931 8934 8937 8940 8943 8946 8949 8952 8955 8958 8961 8964 8967 8970 8973 8976 8979 8982 8985 8988 8991 8994 8997 9000 9003 9006 9009 9012 9015 9018 9021 9024 9027 9030 9033 9036 9039 9042 9045 9048 9051 9054 9057 9060 9063 9066 9069 9072 9075 9078 9081 9084 9087 9090 9093 9096 9099 9102 9105 9108 9111 9114 9117 9120 9123 9126 9129 9132 9135 9138 9141 9144 9147 9150 9153 9156 9159 9162 9165 9168 9171 9174 9177 9180 9183 9186 9189 9192 9195 9198 9201 9204 9207 9210 9213 9216 9219 9222 9225 9228 9231 9234 9237 9240 9243 9246 9249 9252 9255 9258 9261 9264 9267 9270 9273 9276 9279 9282 9285 9288 9291 9294 9297 9300 9303 9306 9309 9312 9315 9318 9321 9324 9327 9330 9333 9336 9339 9342 9345 9348 9351 9354 9357 9360 9363 9366 9369 9372 9375 9378 9381 9384 9387 9390 9393 9396 9399 9402 9405 9408 9411 9414 9417 9420 9423 9426 9429 9432 9435 9438 9441 9444 9447 9450 9453 9456 9459 9462 9465 9468 9471 9474 9477 9480 9483 9486 9489 9492 9495 9498 9501 9504 9507 9510 9513 9516 9519 9522 9525 9528 9531 9534 9537 9540 9543 9546 9549 9552 9555 9558 9561 9564 9567 9570 9573 9576 9579 9582 9585 9588 9591 9594 9597 9600 9603 9606 9609 9612 9615 9618 9621 9624 9627 9630 9633 9636 9639 9642 9645 9648 9651 9654 9657 9660 9663 9666 9669 9672 9675 9678 9681 9684 9687 9690 9693 9696 9699 9702 9705 9708 9711 9714 9717 9720 9723 9726 9729 9732 9735 9738 9741 9744 9747 9750 9753 9756 9759 9762 9765 9768 9771 9774 9777 9780 9783 9786 9789 9792 9795 9798 9801 9804 9807 9810 9813 9816 9819 9822 9825 9828 9831 9834 9837 9840 9843 9846 9849 9852 9855 9858 9861 9864 9867 9870 9873 9876 9879 9882 9885 9888 9891 9894 9897 9900 9903 9906 9909 9912 9915 9918 9921 9924 9927 9930 9933 9936 9939 9942 9945 9948 9951 9954 9957 9960 9963 9966 9969 9972 9975 9978 9981 9984 9987 9990 9993 9996 9999 10002 10005 10008 10011 10014 10017 10020 10023 10026 10029 10032 10035 10038 10041 10044 10047 10050 10053 10056 10059 10062 10065 10068 10071 10074 10077 10080 10083 10086 10089 10092 10095 10098 10101 10104 10107 10110 10113 10116 10119 10122 10125 10128 10131 10134 10137 10140 10143 10146 10149 10152 10155 10158 10161 10164 10167 10170 10173 10176 10179 10182 10185 10188 10191 10194 10197 10200 10203 10206 10209 10212 10215 10218 10221 10224 10227 10230 10233 10236 10239 10242 10245 10248 10251 10254 10257 10260 10263 10266 10269 10272 10275 10278 10281 10284 10287 10290 10293 10296 10299 10302 10305 10308 10311 10314 10317 10320 10323 10326 10329 10332 10335 10338 10341 10344 10347 10350 10353 10356 10359 10362 10365 10368 10371 10374 10377 10380 10383 10386 10389 10392 10395 10398 10401 10404 10407 10410 10413 10416 10419 10422 10425 10428 10431 10434 10437 10440 10443 10446 10449 10452 10455 10458 10461 10464 10467 10470 10473 10476 10479 10482 10485 10488 10491 10494 10497 10500 10503 10506 10509 10512 10515 10518 10521 10524 10527 10530 10533 10536 10539 10542 10545 10548 10551 10554 10557 10560 10563 10566 10569 10572 10575 10578 10581 10584 10587 10590 10593 10596 10599 10602 10605 10608 10611 10614 10617 10620 10623 10626 10629 10632 10635 10638 10641 10644 10647 10650 10653 10656 10659 10662 10665 10668 10671 10674 10677 10680 10683 10686 10689 10692 10695 10698 10701 10704 10707 10710 10713 10716 10719 10722 10725 10728 10731 10734 10737 10740 10743 10746 10749 10752 10755 10758 10761 10764 10767 10770 10773 10776 10779 10782 10785 10788 10791 10794 10797 10800 10803 10806 10809 10812 10815 10818 10821 10824 10827 10830 10833 10836 10839 10842 10845 10848 10851 10854 10857 10860 10863 10866 10869 10872 10875 10878 10881 10884 10887 10890 10893 10896 10899 10902 10905 10908 10911 10914 10917 10920 10923 10926 10929 10932 10935 10938 10941 10944 10947 10950 10953 10956 10959 10962 10965 10968 10971 10974 10977 10980 10983 10986 10989 10992 10995 10998 11001 11004 11007 11010 11013 11016 11019 11022 11025 11028 11031 11034 11037 11040 11043 11046 11049 11052 11055 11058 11061 11064 11067 11070 11073 11076 11079 11082 11085 11088 11091 11094 11097 11100 11103 11106 11109 11112 11115 11118 11121 11124 11127 11130 11133 11136 11139 11142 11145 11148 11151 11154 11157 11160 11163 11166 11169 11172 11175 11178 11181 11184 11187 11190 11193 11196 11199 11202 11205 11208 11211 11214 11217 11220 11223 11226 11229 11232 11235 11238 11241 11244 11247 11250 11253 11256 11259 11262 11265 11268 11271 11274 11277 11280 11283 11286 11289 11292 11295 11298 11301 11304 11307 11310 11313 11316 11319 11322 11325 11328 11331 11334 11337 11340 11343 11346 11349 11352 11355 11358 11361 11364 11367 11370 11373 11376 11379 11382 11385 11388 11391 11394 11397 11400 11403 11406 11409 11412 11415 11418 11421 11424 11427 11430 11433 11436 11439 11442 11445 11448 11451 11454 11457 11460 11463 11466 11469 11472 11475 11478 11481 11484 11487 11490 11493 11496 11499 11502 11505 11508 11511 11514 11517 11520 11523 11526 11529 11532 11535 11538 11541 11544 11547 11550 11553 11556 11559 11562 11565 11568 11571 11574 11577 11580 11583 11586 11589 11592 11595 11598 11601 11604 11607 11610 11613 11616 11619 11622 11625 11628 11631 11634 11637 11640 11643 11646 11649 11652 11655 11658 11661 11664 11667 11670 11673 11676 11679 11682 11685 11688 11691 11694 11697 11700 11703 11706 11709 11712 11715 11718 11721 11724 11727 11730 11733 11736 11739 11742 11745 11748 11751 11754 11757 11760 11763 11766 11769 11772 11775 11778 11781 11784 11787 11790 11793 11796 11799 11802 11805 11808 11811 11814 11817 11820 11823 11826 11829 11832 11835 11838 11841 11844 11847 11850 11853 11856 11859 11862 11865 11868 11871 11874 11877 11880 11883 11886 11889 11892 11895 11898 11901 11904 11907 11910 11913 11916 11919 11922 11925 11928 11931 11934 11937 11940 11943 11946 11949 11952 11955 11958 11961 11964 11967 11970 11973 11976 11979 11982 11985 11988 11991 11994 11997 12000 12003 12006 12009 12012 12015 12018 12021 12024 12027 12030 12033 12036 12039 12042 12045 12048 12051 12054 12057 12060 12063 12066 12069 12072 12075 12078 12081 12084 12087 12090 12093 12096 12099 12102 12105 12108 12111 12114 12117 12120 12123 12126 12129 12132 12135 12138 12141 12144 12147 12150 12153 12156 12159 12162 12165 12168 12171 12174 12177 12180 12183 12186 12189 12192 12195 12198 12201 12204 12207 12210 12213 12216 12219 12222 12225 12228 12231 12234 12237 12240 12243 12246 12249 12252 12255 12258 12261 12264 12267 12270 12273 12276 12279 12282 12285 12288 12291 12294 12297 12300 12303 12306 12309 12312 12315 12318 12321 12324 12327 12330 12333 12336 12339 12342 12345 12348 12351 12354 12357 12360 12363 12366 12369 12372 12375 12378 12381 12384 12387 12390 12393 12396 12399 12402 12405 12408 12411 12414 12417 12420 12423 12426 12429 12432 12435 12438 12441 12444 12447 12450 12453 12456 12459 12462 12465 12468 12471 12474 12477 12480 12483 12486 12489 12492 12495 12498 12501 12504 12507 12510 12513 12516 12519 12522 12525 12528 12531 12534 12537 12540 12543 12546 12549 12552 12555 12558 12561 12564 12567 12570 12573 12576 12579 12582 12585 12588 12591 12594 12597 12600 12603 12606 12609 12612 12615 12618 12621 12624 12627 12630 12633 12636 12639 12642 12645 12648 12651 12654 12657 12660 12663 12666 12669 12672 12675 12678 12681 12684 12687 12690 12693 12696 12699 12702 12705 12708 12711 12714 12717 12720 12723 12726 12729 12732 12735 12738 12741 12744 12747 12750 12753 12756 12759 12762 12765 12768 12771 12774 12777 12780 12783 12786 12789 12792 12795 12798 12801 12804 12807 12810 12813 12816 12819 12822 12825 12828 12831 12834 12837 12840 12843 12846 12849 12852 12855 12858 12861 12864 12867 12870 12873 12876 12879 12882 12885 12888 12891 12894 12897 12900 12903 12906 12909 12912 12915 12918 12921 12924 12927 12930 12933 12936 12939 12942 12945 12948 12951 12954 12957 12960 12963 12966 12969 12972 12975 12978 12981 12984 12987 12990 12993 12996 12999 13002 13005 13008 13011 13014 13017 13020 13023 13026 13029 13032 13035 13038 13041 13044 13047 13050 13053 13056 13059 13062 13065 13068 13071 13074 13077 13080 13083 13086 13089 13092 13095 13098 13101 13104 13107 13110 13113 13116 13119 13122 13125 13128 13131 13134 13137 13140 13143 13146 13149 13152 13155 13158 13161 13164 13167 13170 13173 13176 13179 13182 13185 13188 13191 13194 13197 13200 13203 13206 13209 13212 13215 13218 13221 13224 13227 13230 13233 13236 13239 13242 13245 13248 13251 13254 13257 13260 13263 13266 13269 13272 13275 13278 13281 13284 13287 13290 13293 13296 13299 13302 13305 13308 13311 13314 13317 13320 13323 13326 13329 13332 13335 13338 13341 13344 13347 13350 13353 13356 13359 13362 13365 13368 13371 13374 13377 13380 13383 13386 13389 13392 13395 13398 13401 13404 13407 13410 13413 13416 13419 13422 13425 13428 13431 13434 13437 13440 13443 13446 13449 13452 13455 13458 13461 13464 13467 13470 13473 13476 13479 13482 13485 13488 13491 13494 13497 13500 13503 13506 13509 13512 13515 13518 13521 13524 13527 13530 13533 13536 13539 13542 13545 13548 13551 13554 13557 13560 13563 13566 13569 13572 13575 13578 13581 13584 13587 13590 13593 13596 13599 13602 13605 13608 13611 13614 13617 13620 13623 13626 13629 13632 13635 13638 13641 13644 13647 13650 13653 13656 13659 13662 13665 13668 13671 13674 13677 13680 13683 13686 13689 13692 13695 13698 13701 13704 13707 13710 13713 13716 13719 13722 13725 13728 13731 13734 13737 13740 13743 13746 13749 13752 13755 13758 13761 13764 13767 13770 13773 13776 13779 13782 13785 13788 13791 13794 13797 13800 13803 13806 13809 13812 13815 13818 13821 13824 13827 13830 13833 13836 13839 13842 13845 13848 13851 13854 13857 13860 13863 13866 13869 13872 13875 13878 13881 13884 13887 13890 13893 13896 13899 13902 13905 13908 13911 13914 13917 13920 13923 13926 13929 13932 13935 13938 13941 13944 13947 13950 13953 13956 13959 13962 13965 13968 13971 13974 13977 13980 13983 13986 13989 13992 13995 13998 14001 14004 14007 14010 14013 14016 14019 14022 14025 14028 14031 14034 14037 14040 14043 14046 14049 14052 14055 14058 14061 14064 14067 14070 14073 14076 14079 14082 14085 14088 14091 14094 14097 14100 14103 14106 14109 14112 14115 14118 14121 14124 14127 14130 14133 14136 14139 14142 14145 14148 14151 14154 14157 14160 14163 14166 14169 14172 14175 14178 14181 14184 14187 14190 14193 14196 14199 14202 14205 14208 14211 14214 14217 14220 14223 14226 14229 14232 14235 14238 14241 14244 14247 14250 14253 14256 14259 14262 14265 14268 14271 14274 14277 14280 14283 14286 14289 14292 14295 14298 14301 14304 14307 14310 14313 14316 14319 14322 14325 14328 14331 14334 14337 14340 14343 14346 14349 14352 14355 14358 14361 14364 14367 14370 14373 14376 14379 14382 14385 14388 14391 14394 14397 14400 14403 14406 14409 14412 14415 14418 14421 14424 14427 14430 14433 14436 14439 14442 14445 14448 14451 14454 14457 14460 14463 14466 14469 14472 14475 14478 14481 14484 14487 14490 14493 14496 14499 14502 14505 14508 14511 14514 14517 14520 14523 14526 14529 14532 14535 14538 14541 14544 14547 14550 14553 14556 14559 14562 14565 14568 14571 14574 14577 14580 14583 14586 14589 14592 14595 14598 14601 14604 14607 14610 14613 14616 14619 14622 14625 14628 14631 14634 14637 14640 14643 14646 14649 14652 14655 14658 14661 14664 14667 14670 14673 14676 14679 14682 14685 14688 14691 14694 14697 14700 14703 14706 14709 14712 14715 14718 14721 14724 14727 14730 14733 14736 14739 14742 14745 14748 14751 14754 14757 14760 14763 14766 14769 14772 14775 14778 14781 14784 14787 14790 14793 14796 14799 14802 14805 14808 14811 14814 14817 14820 14823 14826 14829 14832 14835 14838 14841 14844 14847 14850 14853 14856 14859 14862 14865 14868 14871 14874 14877 14880 14883 14886 14889 14892 14895 14898 14901 14904 14907 14910 14913 14916 14919 14922 14925 14928 14931 14934 14937 14940 14943 14946 14949 14952 14955 14958 14961 14964 14967 14970 14973 14976 14979 14982 14985 14988 14991 14994 14997 15000 15003 15006 15009 15012 15015 15018 15021 15024 15027 15030 15033 15036 15039 15042 15045 15048 15051 15054 15057 15060 15063 15066 15069 15072 15075 15078 15081 15084 15087 15090 15093 15096 15099 15102 15105 15108 15111 15114 15117 15120 15123 15126 15129 15132 15135 15138 15141 15144 15147 15150 15153 15156 15159 15162 15165 15168 15171 15174 15177 15180 15183 15186 15189 15192 15195 15198 15201 15204 15207 15210 15213 15216 15219 15222 15225 15228 15231 15234 15237 15240 15243 15246 15249 15252 15255 15258 15261 15264 15267 15270 15273 15276 15279 15282 15285 15288 15291 15294 15297 15300 15303 15306 15309 15312 15315 15318 15321 15324 15327 15330 15333 15336 15339 15342 15345 15348 15351 15354 15357 15360 15363 15366 15369 15372 15375 15378 15381 15384 15387 15390 15393 15396 15399 15402 15405 15408 15411 15414 15417 15420 15423 15426 15429 15432 15435 15438 15441 15444 15447 15450 15453 15456 15459 15462 15465 15468 15471 15474 15477 15480 15483 15486 15489 15492 15495 15498 15501 15504 15507 15510 15513 15516 15519 15522 15525 15528 15531 15534 15537 15540 15543 15546 15549 15552 15555 15558 15561 15564 15567 15570 15573 15576 15579 15582 15585 15588 15591 15594 15597 15600 15603 15606 15609 15612 15615 15618 15621 15624 15627 15630 15633 15636 15639 15642 15645 15648 15651 15654 15657 15660 15663 15666 15669 15672 15675 15678 15681 15684 15687 15690 15693 15696 15699 15702 15705 15708 15711 15714 15717 15720 15723 15726 15729 15732 15735 15738 15741 15744 15747 15750 15753 15756 15759 15762 15765 15768 15771 15774 15777 15780 15783 15786 15789 15792 15795 15798 15801 15804 15807 15810 15813 15816 15819 15822 15825 15828 15831 15834 15837 15840 15843 15846 15849 15852 15855 15858 15861 15864 15867 15870 15873 15876 15879 15882 15885 15888 15891 15894 15897 15900 15903 15906 15909 15912 15915 15918 15921 15924 15927 15930 15933 15936 15939 15942 15945 15948 15951 15954 15957 15960 15963 15966 15969 15972 15975 15978 15981 15984 15987 15990 15993 15996 15999 16002 16005 16008 16011 16014 16017 16020 16023 16026 16029 16032 16035 16038 16041 16044 16047 16050 16053 16056 16059 16062 16065 16068 16071 16074 16077 16080 16083 16086 16089 16092 16095 16098 16101 16104 16107 16110 16113 16116 16119 16122 16125 16128 16131 16134 16137 16140 16143 16146 16149 16152 16155 16158 16161 16164 16167 16170 16173 16176 16179 16182 16185 16188 16191 16194 16197 16200 16203 16206 16209 16212 16215 16218 16221 16224 16227 16230 16233 16236 16239 16242 16245 16248 16251 16254 16257 16260 16263 16266 16269 16272 16275 16278 16281 16284 16287 16290 16293 16296 16299 16302 16305 16308 16311 16314 16317 16320 16323 16326 16329 16332 16335 16338 16341 16344 16347 16350 16353 16356 16359 16362 16365 16368 16371 16374 16377 16380 16383 16386 16389 16392 16395 16398 16401 16404 16407 16410 16413 16416 16419 16422 16425 16428 16431 16434 16437 16440 16443 16446 16449 16452 16455 16458 16461 16464 16467 16470 16473 16476 16479 16482 16485 16488 16491 16494 16497 16500 16503 16506 16509 16512 16515 16518 16521 16524 16527 16530 16533 16536 16539 16542 16545 16548 16551 16554 16557 16560 16563 16566 16569 16572 16575 16578 16581 16584 16587 16590 16593 16596 16599 16602 16605 16608 16611 16614 16617 16620 16623 16626 16629 16632 16635 16638 16641 16644 16647 16650 16653 16656 16659 16662 16665 16668 16671 16674 16677 16680 16683 16686 16689 16692 16695 16698 16701 16704 16707 16710 16713 16716 16719 16722 16725 16728 16731 16734 16737 16740 16743 16746 16749 16752 16755 16758 16761 16764 16767 16770 16773 16776 16779 16782 16785 16788 16791 16794 16797 16800 16803 16806 16809 16812 16815 16818 16821 16824 16827 16830 16833 16836 16839 16842 16845 16848 16851 16854 16857 16860 16863 16866 16869 16872 16875 16878 16881 16884 16887 16890 16893 16896 16899 16902 16905 16908 16911 16914 16917 16920 16923 16926 16929 16932 16935 16938 16941 16944 16947 16950 16953 16956 16959 16962 16965 16968 16971 16974 16977 16980 16983 16986 16989 16992 16995 16998 17001 17004 17007 17010 17013 17016 17019 17022 17025 17028 17031 17034 17037 17040 17043 17046 17049 17052 17055 17058 17061 17064 17067 17070 17073 17076 17079 17082 17085 17088 17091 17094 17097 17100 17103 17106 17109 17112 17115 17118 17121 17124 17127 17130 17133 17136 17139 17142 17145 17148 17151 17154 17157 17160 17163 17166 17169 17172 17175 17178 17181 17184 17187 17190 17193 17196 17199 17202 17205 17208 17211 17214 17217 17220 17223 17226 17229 17232 17235 17238 17241 17244 17247 17250 17253 17256 17259 17262 17265 17268 17271 17274 17277 17280 17283 17286 17289 17292 17295 17298 17301 17304 17307 17310 17313 17316 17319 17322 17325 17328 17331 17334 17337 17340 17343 17346 17349 17352 17355 17358 17361 17364 17367 17370 17373 17376 17379 17382 17385 17388 17391 17394 17397 17400 17403 17406 17409 17412 17415 17418 17421 17424 17427 17430 17433 17436 17439 17442 17445 17448 17451 17454 17457 17460 17463 17466 17469 17472 17475 17478 17481 17484 17487 17490 17493 17496 17499 17502 17505 17508 17511 17514 17517 17520 17523 17526 17529 17532 17535 17538 17541 17544 17547 17550 17553 17556 17559 17562 17565 17568 17571 17574 17577 17580 17583 17586 17589 17592 17595 17598 17601 17604 17607 17610 17613 17616 17619 17622 17625 17628 17631 17634 17637 17640 17643 17646 17649 17652 17655 17658 17661 17664 17667 17670 17673 17676 17679 17682 17685 17688 17691 17694 17697 17700 17703 17706 17709 17712 17715 17718 17721 17724 17727 17730 17733 17736 17739 17742 17745 17748 17751 17754 17757 17760 17763 17766 17769 17772 17775 17778 17781 17784 17787 17790 17793 17796 17799 17802 17805 17808 17811 17814 17817 17820 17823 17826 17829 17832 17835 17838 17841 17844 17847 17850 17853 17856 17859 17862 17865 17868 17871 17874 17877 17880 17883 17886 17889 17892 17895 17898 17901 17904 17907 17910 17913 17916 17919 17922 17925 17928 17931 17934 17937 17940 17943 17946 17949 17952 17955 17958 17961 17964 17967 17970 17973 17976 17979 17982 17985 17988 17991 17994 17997 18000 18003 18006 18009 18012 18015 18018 18021 18024 18027 18030 18033 18036 18039 18042 18045 18048 18051 18054 18057 18060 18063 18066 18069 18072 18075 18078 18081 18084 18087 18090 18093 18096 18099 18102 18105 18108 18111 18114 18117 18120 18123 18126 18129 18132 18135 18138 18141 18144 18147 18150 18153 18156 18159 18162 18165 18168 18171 18174 18177 18180 18183 18186 18189 18192 18195 18198 18201 18204 18207 18210 18213 18216 18219 18222 18225 18228 18231 18234 18237 18240 18243 18246 18249 18252 18255 18258 18261 18264 18267 18270 18273 18276 18279 18282 18285 18288 18291 18294 18297 18300 18303 18306 18309 18312 18315 18318 18321 18324 18327 18330 18333 18336 18339 18342 18345 18348 18351 18354 18357 18360 18363 18366 18369 18372 18375 18378 18381 18384 18387 18390 18393 18396 18399 18402 18405 18408 18411 18414 18417 18420 18423 18426 18429 18432 18435 18438 18441 18444 18447 18450 18453 18456 18459 18462 18465 18468 18471 18474 18477 18480 18483 18486 </DataArray>
            <DataArray Name="types" format="ascii" type="UInt8">5 5 5 5 5 5 5 5 5 5 5 5 5 5 5 5 5 5 5 5 5 5 5 5 5 5 5 5 5 5 5 5 5 5 5 5 5 5 5 5 5 5 5 5 5 5 5 5 5 5 5 5 5 5 5 5 5 5 5 5 5 5 5 5 5 5 5 5 5 5 5 5 5 5 5 5 5 5 5 5 5 5 5 5 5 5 5 5 5 5 5 5 5 5 5 5 5 5 5 5 5 5 5 5 5 5 5 5 5 5 5 5 5 5 5 5 5 5 5 5 5 5 5 5 5 5 5 5 5 5 5 5 5 5 5 5 5 5 5 5 5 5 5 5 5 5 5 5 5 5 5 5 5 5 5 5 5 5 5 5 5 5 5 5 5 5 5 5 5 5 5 5 5 5 5 5 5 5 5 5 5 5 5 5 5 5 5 5 5 5 5 5 5 5 5 5 5 5 5 5 5 5 5 5 5 5 5 5 5 5 5 5 5 5 5 5 5 5 5 5 5 5 5 5 5 5 5 5 5 5 5 5 5 5 5 5 5 5 5 5 5 5 5 5 5 5 5 5 5 5 5 5 5 5 5 5 5 5 5 5 5 5 5 5 5 5 5 5 5 5 5 5 5 5 5 5 5 5 5 5 5 5 5 5 5 5 5 5 5 5 5 5 5 5 5 5 5 5 5 5 5 5 5 5 5 5 5 5 5 5 5 5 5 5 5 5 5 5 5 5 5 5 5 5 5 5 5 5 5 5 5 5 5 5 5 5 5 5 5 5 5 5 5 5 5 5 5 5 5 5 5 5 5 5 5 5 5 5 5 5 5 5 5 5 5 5 5 5 5 5 5 5 5 5 5 5 5 5 5 5 5 5 5 5 5 5 5 5 5 5 5 5 5 5 5 5 5 5 5 5 5 5 5 5 5 5 5 5 5 5 5 5 5 5 5 5 5 5 5 5 5 5 5 5 5 5 5 5 5 5 5 5 5 5 5 5 5 5 5 5 5 5 5 5 5 5 5 5 5 5 5 5 5 5 5 5 5 5 5 5 5 5 5 5 5 5 5 5 5 5 5 5 5 5 5 5 5 5 5 5 5 5 5 5 5 5 5 5 5 5 5 5 5 5 5 5 5 5 5 5 5 5 5 5 5 5 5 5 5 5 5 5 5 5 5 5 5 5 5 5 5 5 5 5 5 5 5 5 5 5 5 5 5 5 5 5 5 5 5 5 5 5 5 5 5 5 5 5 5 5 5 5 5 5 5 5 5 5 5 5 5 5 5 5 5 5 5 5 5 5 5 5 5 5 5 5 5 5 5 5 5 5 5 5 5 5 5 5 5 5 5 5 5 5 5 5 5 5 5 5 5 5 5 5 5 5 5 5 5 5 5 5 5 5 5 5 5 5 5 5 5 5 5 5 5 5 5 5 5 5 5 5 5 5 5 5 5 5 5 5 5 5 5 5 5 5 5 5 5 5 5 5 5 5 5 5 5 5 5 5 5 5 5 5 5 5 5 5 5 5 5 5 5 5 5 5 5 5 5 5 5 5 5 5 5 5 5 5 5 5 5 5 5 5 5 5 5 5 5 5 5 5 5 5 5 5 5 5 5 5 5 5 5 5 5 5 5 5 5 5 5 5 5 5 5 5 5 5 5 5 5 5 5 5 5 5 5 5 5 5 5 5 5 5 5 5 5 5 5 5 5 5 5 5 5 5 5 5 5 5 5 5 5 5 5 5 5 5 5 5 5 5 5 5 5 5 5 5 5 5 5 5 5 5 5 5 5 5 5 5 5 5 5 5 5 5 5 5 5 5 5 5 5 5 5 5 5 5 5 5 5 5 5 5 5 5 5 5 5 5 5 5 5 5 5 5 5 5 5 5 5 5 5 5 5 5 5 5 5 5 5 5 5 5 5 5 5 5 5 5 5 5 5 5 5 5 5 5 5 5 5 5 5 5 5 5 5 5 5 5 5 5 5 5 5 5 5 5 5 5 5 5 5 5 5 5 5 5 5 5 5 5 5 5 5 5 5 5 5 5 5 5 5 5 5 5 5 5 5 5 5 5 5 5 5 5 5 5 5 5 5 5 5 5 5 5 5 5 5 5 5 5 5 5 5 5 5 5 5 5 5 5 5 5 5 5 5 5 5 5 5 5 5 5 5 5 5 5 5 5 5 5 5 5 5 5 5 5 5 5 5 5 5 5 5 5 5 5 5 5 5 5 5 5 5 5 5 5 5 5 5 5 5 5 5 5 5 5 5 5 5 5 5 5 5 5 5 5 5 5 5 5 5 5 5 5 5 5 5 5 5 5 5 5 5 5 5 5 5 5 5 5 5 5 5 5 5 5 5 5 5 5 5 5 5 5 5 5 5 5 5 5 5 5 5 5 5 5 5 5 5 5 5 5 5 5 5 5 5 5 5 5 5 5 5 5 5 5 5 5 5 5 5 5 5 5 5 5 5 5 5 5 5 5 5 5 5 5 5 5 5 5 5 5 5 5 5 5 5 5 5 5 5 5 5 5 5 5 5 5 5 5 5 5 5 5 5 5 5 5 5 5 5 5 5 5 5 5 5 5 5 5 5 5 5 5 5 5 5 5 5 5 5 5 5 5 5 5 5 5 5 5 5 5 5 5 5 5 5 5 5 5 5 5 5 5 5 5 5 5 5 5 5 5 5 5 5 5 5 5 5 5 5 5 5 5 5 5 5 5 5 5 5 5 5 5 5 5 5 5 5 5 5 5 5 5 5 5 5 5 5 5 5 5 5 5 5 5 5 5 5 5 5 5 5 5 5 5 5 5 5 5 5 5 5 5 5 5 5 5 5 5 5 5 5 5 5 5 5 5 5 5 5 5 5 5 5 5 5 5 5 5 5 5 5 5 5 5 5 5 5 5 5 5 5 5 5 5 5 5 5 5 5 5 5 5 5 5 5 5 5 5 5 5 5 5 5 5 5 5 5 5 5 5 5 5 5 5 5 5 5 5 5 5 5 5 5 5 5 5 5 5 5 5 5 5 5 5 5 5 5 5 5 5 5 5 5 5 5 5 5 5 5 5 5 5 5 5 5 5 5 5 5 5 5 5 5 5 5 5 5 5 5 5 5 5 5 5 5 5 5 5 5 5 5 5 5 5 5 5 5 5 5 5 5 5 5 5 5 5 5 5 5 5 5 5 5 5 5 5 5 5 5 5 5 5 5 5 5 5 5 5 5 5 5 5 5 5 5 5 5 5 5 5 5 5 5 5 5 5 5 5 5 5 5 5 5 5 5 5 5 5 5 5 5 5 5 5 5 5 5 5 5 5 5 5 5 5 5 5 5 5 5 5 5 5 5 5 5 5 5 5 5 5 5 5 5 5 5 5 5 5 5 5 5 5 5 5 5 5 5 5 5 5 5 5 5 5 5 5 5 5 5 5 5 5 5 5 5 5 5 5 5 5 5 5 5 5 5 5 5 5 5 5 5 5 5 5 5 5 5 5 5 5 5 5 5 5 5 5 5 5 5 5 5 5 5 5 5 5 5 5 5 5 5 5 5 5 5 5 5 5 5 5 5 5 5 5 5 5 5 5 5 5 5 5 5 5 5 5 5 5 5 5 5 5 5 5 5 5 5 5 5 5 5 5 5 5 5 5 5 5 5 5 5 5 5 5 5 5 5 5 5 5 5 5 5 5 5 5 5 5 5 5 5 5 5 5 5 5 5 5 5 5 5 5 5 5 5 5 5 5 5 5 5 5 5 5 5 5 5 5 5 5 5 5 5 5 5 5 5 5 5 5 5 5 5 5 5 5 5 5 5 5 5 5 5 5 5 5 5 5 5 5 5 5 5 5 5 5 5 5 5 5 5 5 5 5 5 5 5 5 5 5 5 5 5 5 5 5 5 5 5 5 5 5 5 5 5 5 5 5 5 5 5 5 5 5 5 5 5 5 5 5 5 5 5 5 5 5 5 5 5 5 5 5 5 5 5 5 5 5 5 5 5 5 5 5 5 5 5 5 5 5 5 5 5 5 5 5 5 5 5 5 5 5 5 5 5 5 5 5 5 5 5 5 5 5 5 5 5 5 5 5 5 5 5 5 5 5 5 5 5 5 5 5 5 5 5 5 5 5 5 5 5 5 5 5 5 5 5 5 5 5 5 5 5 5 5 5 5 5 5 5 5 5 5 5 5 5 5 5 5 5 5 5 5 5 5 5 5 5 5 5 5 5 5 5 5 5 5 5 5 5 5 5 5 5 5 5 5 5 5 5 5 5 5 5 5 5 5 5 5 5 5 5 5 5 5 5 5 5 5 5 5 5 5 5 5 5 5 5 5 5 5 5 5 5 5 5 5 5 5 5 5 5 5 5 5 5 5 5 5 5 5 5 5 5 5 5 5 5 5 5 5 5 5 5 5 5 5 5 5 5 5 5 5 5 5 5 5 5 5 5 5 5 5 5 5 5 5 5 5 5 5 5 5 5 5 5 5 5 5 5 5 5 5 5 5 5 5 5 5 5 5 5 5 5 5 5 5 5 5 5 5 5 5 5 5 5 5 5 5 5 5 5 5 5 5 5 5 5 5 5 5 5 5 5 5 5 5 5 5 5 5 5 5 5 5 5 5 5 5 5 5 5 5 5 5 5 5 5 5 5 5 5 5 5 5 5 5 5 5 5 5 5 5 5 5 5 5 5 5 5 5 5 5 5 5 5 5 5 5 5 5 5 5 5 5 5 5 5 5 5 5 5 5 5 5 5 5 5 5 5 5 5 5 5 5 5 5 5 5 5 5 5 5 5 5 5 5 5 5 5 5 5 5 5 5 5 5 5 5 5 5 5 5 5 5 5 5 5 5 5 5 5 5 5 5 5 5 5 5 5 5 5 5 5 5 5 5 5 5 5 5 5 5 5 5 5 5 5 5 5 5 5 5 5 5 5 5 5 5 5 5 5 5 5 5 5 5 5 5 5 5 5 5 5 5 5 5 5 5 5 5 5 5 5 5 5 5 5 5 5 5 5 5 5 5 5 5 5 5 5 5 5 5 5 5 5 5 5 5 5 5 5 5 5 5 5 5 5 5 5 5 5 5 5 5 5 5 5 5 5 5 5 5 5 5 5 5 5 5 5 5 5 5 5 5 5 5 5 5 5 5 5 5 5 5 5 5 5 5 5 5 5 5 5 5 5 5 5 5 5 5 5 5 5 5 5 5 5 5 5 5 5 5 5 5 5 5 5 5 5 5 5 5 5 5 5 5 5 5 5 5 5 5 5 5 5 5 5 5 5 5 5 5 5 5 5 5 5 5 5 5 5 5 5 5 5 5 5 5 5 5 5 5 5 5 5 5 5 5 5 5 5 5 5 5 5 5 5 5 5 5 5 5 5 5 5 5 5 5 5 5 5 5 5 5 5 5 5 5 5 5 5 5 5 5 5 5 5 5 5 5 5 5 5 5 5 5 5 5 5 5 5 5 5 5 5 5 5 5 5 5 5 5 5 5 5 5 5 5 5 5 5 5 5 5 5 5 5 5 5 5 5 5 5 5 5 5 5 5 5 5 5 5 5 5 5 5 5 5 5 5 5 5 5 5 5 5 5 5 5 5 5 5 5 5 5 5 5 5 5 5 5 5 5 5 5 5 5 5 5 5 5 5 5 5 5 5 5 5 5 5 5 5 5 5 5 5 5 5 5 5 5 5 5 5 5 5 5 5 5 5 5 5 5 5 5 5 5 5 5 5 5 5 5 5 5 5 5 5 5 5 5 5 5 5 5 5 5 5 5 5 5 5 5 5 5 5 5 5 5 5 5 5 5 5 5 5 5 5 5 5 5 5 5 5 5 5 5 5 5 5 5 5 5 5 5 5 5 5 5 5 5 5 5 5 5 5 5 5 5 5 5 5 5 5 5 5 5 5 5 5 5 5 5 5 5 5 5 5 5 5 5 5 5 5 5 5 5 5 5 5 5 5 5 5 5 5 5 5 5 5 5 5 5 5 5 5 5 5 5 5 5 5 5 5 5 5 5 5 5 5 5 5 5 5 5 5 5 5 5 5 5 5 5 5 5 5 5 5 5 5 5 5 5 5 5 5 5 5 5 5 5 5 5 5 5 5 5 5 5 5 5 5 5 5 5 5 5 5 5 5 5 5 5 5 5 5 5 5 5 5 5 5 5 5 5 5 5 5 5 5 5 5 5 5 5 5 5 5 5 5 5 5 5 5 5 5 5 5 5 5 5 5 5 5 5 5 5 5 5 5 5 5 5 5 5 5 5 5 5 5 5 5 5 5 5 5 5 5 5 5 5 5 5 5 5 5 5 5 5 5 5 5 5 5 5 5 5 5 5 5 5 5 5 5 5 5 5 5 5 5 5 5 5 5 5 5 5 5 5 5 5 5 5 5 5 5 5 5 5 5 5 5 5 5 5 5 5 5 5 5 5 5 5 5 5 5 5 5 5 5 5 5 5 5 5 5 5 5 5 5 5 5 5 5 5 5 5 5 5 5 5 5 5 5 5 5 5 5 5 5 5 5 5 5 5 5 5 5 5 5 5 5 5 5 5 5 5 5 5 5 5 5 5 5 5 5 5 5 5 5 5 5 5 5 5 5 5 5 5 5 5 5 5 5 5 5 5 5 5 5 5 5 5 5 5 5 5 5 5 5 5 5 5 5 5 5 5 5 5 5 5 5 5 5 5 5 5 5 5 5 5 5 5 5 5 5 5 5 5 5 5 5 5 5 5 5 5 5 5 5 5 5 5 5 5 5 5 5 5 5 5 5 5 5 5 5 5 5 5 5 5 5 5 5 5 5 5 5 5 5 5 5 5 5 5 5 5 5 5 5 5 5 5 5 5 5 5 5 5 5 5 5 5 5 5 5 5 5 5 5 5 5 5 5 5 5 5 5 5 5 5 5 5 5 5 5 5 5 5 5 5 5 5 5 5 5 5 5 5 5 5 5 5 5 5 5 5 5 5 5 5 5 5 5 5 5 5 5 5 5 5 5 5 5 5 5 5 5 5 5 5 5 5 5 5 5 5 5 5 5 5 5 5 5 5 5 5 5 5 5 5 5 5 5 5 5 5 5 5 5 5 5 5 5 5 5 5 5 5 5 5 5 5 5 5 5 5 5 5 5 5 5 5 5 5 5 5 5 5 5 5 5 5 5 5 5 5 5 5 5 5 5 5 5 5 5 5 5 5 5 5 5 5 5 5 5 5 5 5 5 5 5 5 5 5 5 5 5 5 5 5 5 5 5 5 5 5 5 5 5 5 5 5 5 5 5 5 5 5 5 5 5 5 5 5 5 5 5 5 5 5 5 5 5 5 5 5 5 5 5 5 5 5 5 5 5 5 5 5 5 5 5 5 5 5 5 5 5 5 5 5 5 5 5 5 5 5 5 5 5 5 5 5 5 5 5 5 5 5 5 5 5 5 5 5 5 5 5 5 5 5 5 5 5 5 5 5 5 5 5 5 5 5 5 5 5 5 5 5 5 5 5 5 5 5 5 5 5 5 5 5 5 5 5 5 5 5 5 5 5 5 5 5 5 5 5 5 5 5 5 5 5 5 5 5 5 5 5 5 5 5 5 5 5 5 5 5 5 5 5 5 5 5 5 5 5 5 5 5 5 5 5 5 5 5 5 5 5 5 5 5 5 5 5 5 5 5 5 5 5 5 5 5 5 5 5 5 5 5 5 5 5 5 5 5 5 5 5 5 5 5 5 5 5 5 5 5 5 5 5 5 5 5 5 5 5 5 5 5 5 5 5 5 5 5 5 5 5 5 5 5 5 5 5 5 5 5 5 5 5 5 5 5 5 5 5 5 5 5 5 5 5 5 5 5 5 5 5 5 5 5 5 5 5 5 5 5 5 5 5 5 5 5 5 5 5 5 5 5 5 5 5 5 5 5 5 5 5 5 5 5 5 5 5 5 5 5 5 5 5 5 5 5 5 5 5 5 5 5 5 5 5 5 5 5 5 5 5 5 5 5 5 5 5 5 5 5 5 5 5 5 5 5 5 5 5 5 5 5 5 5 5 5 5 5 5 5 5 5 5 5 5 5 5 5 5 5 5 5 5 5 5 5 5 5 5 5 5 5 5 5 5 5 5 5 5 5 5 5 5 5 5 5 5 5 5 5 5 5 5 5 5 5 5 5 5 5 5 5 5 5 5 5 5 5 5 5 5 5 5 5 5 5 5 5 5 5 5 5 5 5 5 5 5 5 5 5 5 5 5 5 5 5 5 5 5 5 5 5 5 5 5 5 5 5 5 5 5 5 5 5 5 5 5 5 5 5 5 5 5 5 5 5 5 5 5 5 5 5 5 5 5 5 5 5 5 5 5 5 5 5 5 5 5 5 5 5 5 5 5 5 5 5 5 5 5 5 5 5 5 5 5 5 5 5 5 5 5 5 5 5 5 5 5 5 5 5 5 5 5 5 5 5 5 5 5 5 5 5 5 5 5 5 5 5 5 5 5 5 5 5 5 5 5 5 5 5 5 5 5 5 5 5 5 5 5 5 5 5 5 5 5 5 5 5 5 5 5 5 5 5 5 5 5 5 5 5 5 5 5 5 5 5 5 5 5 5 5 5 5 5 5 5 5 5 5 5 5 5 5 5 5 5 5 5 5 5 5 5 5 5 5 5 5 5 5 5 5 5 5 5 5 5 5 5 5 5 5 5 5 5 5 5 5 5 5 5 5 5 5 5 5 5 5 5 5 5 5 5 5 5 5 5 5 5 5 5 5 5 5 5 5 5 5 5 5 5 5 5 5 5 5 5 5 5 5 5 5 5 5 5 5 5 5 5 5 5 5 5 5 5 5 5 5 5 5 5 5 5 5 5 5 5 5 5 5 5 5 5 5 5 5 5 5 5 5 5 5 5 5 5 5 5 5 5 5 5 5 5 5 5 5 5 5 5 5 5 5 5 5 5 5 5 5 5 5 5 5 5 5 5 5 5 5 5 5 5 5 5 5 5 5 5 5 5 5 5 5 5 5 5 5 5 5 5 5 5 5 5 5 5 5 5 5 5 5 5 5 5 5 5 5 5 5 5 5 5 5 5 5 5 5 5 5 5 5 5 5 5 5 5 5 5 5 5 5 5 5 5 5 5 5 5 5 5 5 5 5 5 5 5 5 5 5 5 5 5 5 5 5 5 5 5 5 5 5 5 5 5 5 5 5 5 5 5 5 5 5 5 5 5 5 5 5 5 5 5 5 5 5 5 5 5 5 5 5 5 5 5 5 5 5 5 5 5 5 5 5 5 5 5 5 5 5 5 5 5 5 5 5 5 5 5 5 5 5 5 5 5 5 5 5 5 5 5 5 5 5 5 5 5 5 5 5 5 5 5 5 5 5 5 5 5 5 5 5 5 5 5 5 5 5 5 5 5 5 5 5 5 5 5 5 5 5 5 5 5 5 5 5 5 5 5 5 5 5 5 5 5 5 5 5 5 5 5 5 5 5 5 5 5 5 5 5 5 5 5 5 5 5 5 5 5 5 5 5 5 5 5 5 5 5 5 5 5 5 5 5 5 5 5 5 5 5 5 5 5 5 5 5 5 5 5 5 5 5 5 5 5 5 5 5 5 5 5 5 5 5 5 5 5 5 5 5 5 5 5 5 5 5 5 5 5 5 5 5 5 5 5 5 5 5 5 5 5 5 5 5 5 5 5 5 5 5 5 5 5 5 5 5 5 5 5 5 5 5 5 5 5 5 5 5 5 5 5 5 5 5 5 5 5 5 5 5 5 5 5 5 5 5 5 5 5 5 5 5 5 5 5 5 5 5 5 5 5 5 5 5 5 5 5 5 5 5 5 5 5 5 5 5 5 5 5 5 5 5 5 5 5 5 5 5 5 5 5 5 5 5 5 5 5 5 5 5 5 5 5 5 5 5 5 5 5 5 5 5 5 5 5 5 5 5 5 5 5 5 5 5 5 5 5 5 5 5 5 5 5 5 5 5 5 5 5 5 5 5 5 5 5 5 5 5 5 5 5 5 5 5 5 5 5 5 5 5 5 5 5 5 5 5 5 5 5 5 5 5 5 5 5 5 5 5 5 5 5 5 5 5 5 5 5 5 5 5 5 5 5 5 5 5 5 5 5 5 5 5 5 5 5 5 5 5 5 5 5 5 5 5 5 5 5 5 5 5 5 5 5 5 5 5 5 5 5 5 5 5 5 5 5 5 5 5 5 5 5 5 5 5 5 5 5 5 5 5 5 5 5 5 5 5 5 5 5 5 5 5 5 5 5 5 5 5 5 5 5 5 5 5 5 5 5 5 5 5 5 5 5 5 5 5 5 5 5 5 5 5 5 5 5 5 5 5 5 5 5 5 5 5 5 5 5 5 5 5 5 5 5 5 5 5 5 5 5 5 5 5 5 5 5 5 5 5 5 5 5 5 5 5 5 5 5 5 5 5 5 5 5 5 5 5 5 5 5 5 5 5 5 5 5 5 5 5 5 5 5 5 5 5 5 5 5 5 5 5 5 5 5 5 5 5 5 5 5 5 5 5 5 5 5 5 5 5 5 5 5 5 5 5 5 5 5 5 5 5 5 5 5 5 5 5 5 5 5 5 5 5 5 5 5 5 5 5 5 5 5 5 5 5 5 5 5 5 5 5 5 5 5 5 5 5 5 5 5 5 5 5 5 5 5 5 5 5 5 5 5 5 5 5 5 5 5 5 5 5 5 5 5 5 5 5 5 5 5 5 5 5 5 5 5 5 5 5 5 5 5 5 5 5 5 5 5 5 5 5 5 5 5 5 5 5 5 5 5 5 5 5 5 5 5 5 5 5 5 5 5 5 5 5 5 5 5 5 5 5 5 5 5 5 5 5 5 5 5 5 5 5 5 5 5 5 5 5 5 5 5 5 5 5 5 5 5 5 5 5 5 5 5 5 5 5 5 5 5 5 5 5 5 5 5 5 5 5 5 5 5 5 5 5 5 5 5 5 5 5 5 5 5 5 5 5 5 5 5 5 5 5 5 5 5 5 5 5 5 5 5 5 5 5 5 5 5 5 5 5 5 5 5 5 5 5 5 5 5 5 5 5 5 5 5 5 5 5 5 5 5 5 5 5 5 5 5 5 5 5 5 5 5 5 5 5 5 5 5 5 5 5 5 5 5 5 5 5 5 5 5 5 5 5 5 5 5 5 5 5 5 5 5 5 5 5 5 5 5 5 5 5 5 5 5 5 5 5 5 5 5 5 5 5 5 5 5 5 5 5 5 5 5 5 5 5 5 5 5 5 5 5 5 5 5 5 5 5 5 5 5 5 5 5 5 5 5 5 5 5 5 5 5 5 5 5 5 5 5 5 5 5 5 5 5 5 5 5 5 5 5 5 5 5 5 5 5 5 5 5 5 5 5 5 5 5 5 5 5 5 5 5 5 5 5 5 5 5 5 5 5 5 5 5 5 5 5 5 5 5 5 5 5 5 5 5 5 5 5 5 5 5 5 5 5 5 5 5 5 5 5 5 5 5 5 5 5 5 5 5 5 5 5 5 5 5 5 5 5 5 5 5 5 5 5 5 5 5 5 5 5 5 5 5 5 5 5 5 5 5 5 5 5 5 5 5 5 5 5 5 5 5 5 5 5 5 5 5 5 5 5 5 5 5 5 5 5 5 5 5 5 5 5 5 5 5 5 5 5 5 5 5 5 5 5 5 5 5 5 5 5 5 5 5 5 5 5 5 5 5 5 5 5 5 5 5 5 5 5 5 5 5 5 5 5 5 5 5 5 5 5 5 5 5 5 5 5 5 5 5 5 5 5 5 5 5 5 5 5 5 5 5 5 5 5 5 5 5 5 5 5 5 5 5 5 5 5 5 5 5 5 5 5 5 5 5 5 5 5 5 5 5 5 5 5 5 5 5 5 5 5 5 5 5 5 5 5 5 5 5 5 5 5 5 5 5 5 5 5 5 5 5 5 5 5 5 5 5 5 5 5 5 5 5 5 5 5 5 5 5 5 5 5 5 5 5 5 5 5 5 5 5 5 5 5 5 5 5 5 5 5 5 5 5 5 5 5 5 5 5 5 5 5 5 5 5 5 5 5 5 5 5 5 5 5 5 5 5 5 5 5 5 5 5 5 5 5 5 5 5 5 5 5 5 5 5 5 5 5 5 5 5 5 5 5 5 5 5 5 5 5 5 5 5 5 5 5 5 5 5 5 5 5 5 5 5 5 5 5 5 5 5 5 5 5 5 5 5 5 5 5 5 5 5 5 5 5 5 5 5 5 5 5 5 5 5 5 5 5 5 5 5 5 5 5 5 5 5 5 5 5 5 5 5 5 5 5 5 5 5 5 5 5 5 5 5 5 5 5 5 5 5 5 5 5 5 5 5 5 5 5 5 5 5 5 5 5 5 5 5 5 5 5 5 5 5 5 5 5 5 5 5 5 5 5 5 5 5 5 5 5 5 5 5 5 5 5 5 5 5 5 5 5 5 5 5 5 5 5 5 5 5 5 5 5 5 5 5 5 5 5 5 5 5 5 5 5 5 5 5 5 5 5 5 5 5 5 5 5 5 5 5 5 5 5 5 5 5 5 5 5 5 5 5 5 5 5 5 5 5 5 5 5 5 5 5 5 5 5 5 5 5 5 5 5 5 5 5 5 5 5 5 5 5 5 5 5 5 5 5 5 5 5 5 5 5 5 5 5 5 5 5 5 5 5 5 5 5 5 5 5 5 5 5 5 5 5 5 5 5 5 5 5 5 5 5 5 5 5 5 5 5 5 5 5 5 5 5 5 5 5 5 5 5 5 5 5 5 5 5 5 5 5 5 5 5 5 5 5 5 5 5 5 5 5 5 5 5 5 5 5 5 5 5 5 5 5 5 5 5 5 5 5 5 5 5 5 5 5 5 5 5 5 5 5 5 5 5 5 5 5 5 5 5 5 5 5 5 5 5 5 5 5 5 5 5 5 5 5 5 5 5 5 5 5 5 5 5 5 5 5 5 5 5 5 5 5 5 5 5 5 5 5 5 5 5 5 5 5 5 5 5 5 5 5 5 5 5 5 5 5 5 5 5 5 5 5 5 5 5 5 5 5 5 5 5 5 5 5 5 5 5 5 5 5 5 5 5 5 5 5 5 5 5 5 5 5 5 5 5 5 5 5 5 5 5 5 5 5 5 5 5 5 5 5 5 5 5 5 5 5 5 5 5 5 5 5 5 5 5 5 5 5 5 5 5 5 5 5 5 5 5 5 5 5 5 5 5 5 5 5 5 5 5 5 5 5 5 5 5 5 5 5 5 5 5 5 5 5 5 5 5 5 5 5 5 5 5 5 5 5 5 5 5 5 5 5 5 5 5 5 5 5 5 5 5 5 5 5 5 5 5 5 5 5 5 5 5 5 5 5 5 5 5 5 5 5 5 5 5 5 5 5 5 5 5 5 5 5 5 5 5 5 5 5 5 5 5 5 5 5 5 5 5 5 5 5 5 5 5 5 5 5 5 5 5 5 5 5 5 5 5 5 5 5 5 5 5 5 5 5 5 5 5 5 5 5 5 5 5 5 5 5 5 5 5 5 5 5 5 5 5 5 5 5 5 5 5 5 5 5 5 5 5 5 5 5 5 5 5 5 5 5 5 5 5 5 5 5 5 5 5 5 5 5 5 5 5 5 5 5 5 5 5 5 5 5 5 5 5 5 5 5 5 5 5 5 5 5 5 5 5 5 5 5 5 5 5 5 5 5 5 5 5 5 5 5 5 5 5 5 5 5 5 5 5 5 5 5 5 5 5 5 5 5 5 5 5 5 5 5 5 5 5 5 5 5 5 5 5 5 5 5 5 5 5 5 5 5 5 5 5 5 5 5 5 5 5 5 5 5 5 5 5 5 5 5 5 5 5 5 5 5 5 5 5 5 5 5 5 5 5 5 </DataArray>
         </Cells>
         <PointData>
            <DataArray Name="Density" NumberOfComponents="1" format="ascii" type="Float64">
 9.48781e-01 
 9.13111e-01 
 9.14517e-01 
 9.14497e-01 
 9.14356e-01 
 9.14248e-01 
 9.14161e-01 
 9.14089e-01 
 9.14028e-01 
 9.13976e-01 
 9.13931e-01 
 9.13892e-01 
 9.13860e-01 
 9.13832e-01 
 9.13809e-01 
 9.13791e-01 
 9.13776e-01 
 9.13766e-01 
 9.13760e-01 
 9.13755e-01 
 9.13758e-01 
 9.13765e-01 
 9.13774e-01 
 9.13788e-01 
 9.13806e-01 
 9.13828e-01 
 9.13855e-01 
 9.13887e-01 
 9.13924e-01 
 9.13968e-01 
 9.14019e-01 
 9.14079e-01 
 9.14150e-01 
 9.14235e-01 
 9.14341e-01 
 9.14479e-01 
 9.14673e-01 
 9.10335e-01 
 9.07414e-01 
 9.77652e-01 
 9.13441e-01 
 7.84637e-01 
 7.87076e-01 
 7.88943e-01 
 7.88542e-01 
 7.88245e-01 
 7.88011e-01 
 7.87818e-01 
 7.87656e-01 
 7.87517e-01 
 7.87399e-01 
 7.87297e-01 
 7.87210e-01 
 7.87137e-01 
 7.87076e-01 
 7.87026e-01 
 7.86987e-01 
 7.86958e-01 
 7.86939e-01 
 7.86925e-01 
 7.86925e-01 
 7.86941e-01 
 7.86960e-01 
 7.86990e-01 
 7.87031e-01 
 7.87082e-01 
 7.87144e-01 
 7.87220e-01 
 7.87308e-01 
 7.87412e-01 
 7.87534e-01 
 7.87676e-01 
 7.87843e-01 
 7.88042e-01 
 7.88285e-01 
 7.88589e-01 
 7.88987e-01 
 7.84266e-01 
 7.76161e-01 
 9.07441e-01 
 9.14885e-01 
 7.87664e-01 
 7.90021e-01 
 7.94073e-01 
 7.93669e-01 
 7.93363e-01 
 7.93120e-01 
 7.92920e-01 
 7.92753e-01 
 7.92611e-01 
 7.92490e-01 
 7.92386e-01 
 7.92298e-01 
 7.92223e-01 
 7.92161e-01 
 7.92110e-01 
 7.92070e-01 
 7.92041e-01 
 7.92022e-01 
 7.92007e-01 
 7.92007e-01 
 7.92022e-01 
 7.92041e-01 
 7.92070e-01 
 7.92110e-01 
 7.92161e-01 
 7.92223e-01 
 7.92298e-01 
 7.92387e-01 
 7.92491e-01 
 7.92613e-01 
 7.92756e-01 
 7.92923e-01 
 7.93122e-01 
 7.93360e-01 
 7.93649e-01 
 7.94003e-01 
 7.89428e-01 
 7.84640e-01 
 9.10496e-01 
 9.14891e-01 
 7.89734e-01 
 7.94470e-01 
 7.99091e-01 
 7.98740e-01 
 7.98449e-01 
 7.98209e-01 
 7.98009e-01 
 7.97840e-01 
 7.97697e-01 
 7.97575e-01 
 7.97470e-01 
 7.97381e-01 
 7.97306e-01 
 7.97244e-01 
 7.97193e-01 
 7.97153e-01 
 7.97124e-01 
 7.97105e-01 
 7.97090e-01 
 7.97091e-01 
 7.97105e-01 
 7.97125e-01 
 7.97154e-01 
 7.97194e-01 
 7.97246e-01 
 7.97308e-01 
 7.97384e-01 
 7.97473e-01 
 7.97578e-01 
 7.97701e-01 
 7.97845e-01 
 7.98012e-01 
 7.98208e-01 
 7.98438e-01 
 7.98707e-01 
 7.99018e-01 
 7.94350e-01 
 7.89674e-01 
 9.14966e-01 
 9.14797e-01 
 7.89482e-01 
 7.94300e-01 
 7.99028e-01 
 7.98736e-01 
 7.98468e-01 
 7.98236e-01 
 7.98037e-01 
 7.97867e-01 
 7.97721e-01 
 7.97597e-01 
 7.97490e-01 
 7.97399e-01 
 7.97322e-01 
 7.97258e-01 
 7.97206e-01 
 7.97165e-01 
 7.97135e-01 
 7.97116e-01 
 7.97101e-01 
 7.97101e-01 
 7.97116e-01 
 7.97136e-01 
 7.97166e-01 
 7.97207e-01 
 7.97259e-01 
 7.97324e-01 
 7.97401e-01 
 7.97492e-01 
 7.97599e-01 
 7.97723e-01 
 7.97867e-01 
 7.98034e-01 
 7.98227e-01 
 7.98447e-01 
 7.98697e-01 
 7.98972e-01 
 7.94242e-01 
 7.89482e-01 
 9.14855e-01 
 9.14734e-01 
 7.89315e-01 
 7.94163e-01 
 7.98948e-01 
 7.98701e-01 
 7.98462e-01 
 7.98245e-01 
 7.98053e-01 
 7.97885e-01 
 7.97740e-01 
 7.97614e-01 
 7.97506e-01 
 7.97414e-01 
 7.97336e-01 
 7.97271e-01 
 7.97219e-01 
 7.97177e-01 
 7.97147e-01 
 7.97127e-01 
 7.97112e-01 
 7.97112e-01 
 7.97127e-01 
 7.97147e-01 
 7.97178e-01 
 7.97219e-01 
 7.97272e-01 
 7.97337e-01 
 7.97415e-01 
 7.97507e-01 
 7.97614e-01 
 7.97739e-01 
 7.97882e-01 
 7.98045e-01 
 7.98231e-01 
 7.98440e-01 
 7.98669e-01 
 7.98913e-01 
 7.94139e-01 
 7.89333e-01 
 9.14781e-01 
 9.14691e-01 
 7.89193e-01 
 7.94053e-01 
 7.98869e-01 
 7.98653e-01 
 7.98439e-01 
 7.98238e-01 
 7.98056e-01 
 7.97894e-01 
 7.97751e-01 
 7.97627e-01 
 7.97519e-01 
 7.97427e-01 
 7.97348e-01 
 7.97283e-01 
 7.97230e-01 
 7.97188e-01 
 7.97157e-01 
 7.97137e-01 
 7.97122e-01 
 7.97122e-01 
 7.97138e-01 
 7.97158e-01 
 7.97189e-01 
 7.97230e-01 
 7.97284e-01 
 7.97349e-01 
 7.97427e-01 
 7.97519e-01 
 7.97625e-01 
 7.97748e-01 
 7.97888e-01 
 7.98046e-01 
 7.98224e-01 
 7.98419e-01 
 7.98630e-01 
 7.98850e-01 
 7.94046e-01 
 7.89214e-01 
 9.14725e-01 
 9.14654e-01 
 7.89098e-01 
 7.93962e-01 
 7.98796e-01 
 7.98601e-01 
 7.98407e-01 
 7.98221e-01 
 7.98049e-01 
 7.97894e-01 
 7.97756e-01 
 7.97634e-01 
 7.97528e-01 
 7.97436e-01 
 7.97358e-01 
 7.97293e-01 
 7.97240e-01 
 7.97198e-01 
 7.97167e-01 
 7.97147e-01 
 7.97132e-01 
 7.97132e-01 
 7.97147e-01 
 7.97167e-01 
 7.97198e-01 
 7.97240e-01 
 7.97293e-01 
 7.97358e-01 
 7.97435e-01 
 7.97526e-01 
 7.97631e-01 
 7.97751e-01 
 7.97887e-01 
 7.98039e-01 
 7.98208e-01 
 7.98391e-01 
 7.98586e-01 
 7.98787e-01 
 7.93962e-01 
 7.89117e-01 
 9.14685e-01 
 9.14626e-01 
 7.89018e-01 
 7.93885e-01 
 7.98730e-01 
 7.98549e-01 
 7.98369e-01 
 7.98197e-01 
 7.98035e-01 
 7.97888e-01 
 7.97755e-01 
 7.97636e-01 
 7.97533e-01 
 7.97443e-01 
 7.97366e-01 
 7.97301e-01 
 7.97248e-01 
 7.97206e-01 
 7.97176e-01 
 7.97156e-01 
 7.97140e-01 
 7.97140e-01 
 7.97156e-01 
 7.97176e-01 
 7.97206e-01 
 7.97248e-01 
 7.97300e-01 
 7.97365e-01 
 7.97441e-01 
 7.97530e-01 
 7.97633e-01 
 7.97749e-01 
 7.97880e-01 
 7.98026e-01 
 7.98186e-01 
 7.98358e-01 
 7.98540e-01 
 7.98726e-01 
 7.93888e-01 
 7.89034e-01 
 9.14648e-01 
 9.14598e-01 
 7.88949e-01 
 7.93817e-01 
 7.98669e-01 
 7.98498e-01 
 7.98330e-01 
 7.98168e-01 
 7.98016e-01 
 7.97876e-01 
 7.97748e-01 
 7.97634e-01 
 7.97534e-01 
 7.97446e-01 
 7.97370e-01 
 7.97307e-01 
 7.97255e-01 
 7.97213e-01 
 7.97183e-01 
 7.97163e-01 
 7.97148e-01 
 7.97148e-01 
 7.97163e-01 
 7.97183e-01 
 7.97213e-01 
 7.97254e-01 
 7.97306e-01 
 7.97369e-01 
 7.97444e-01 
 7.97531e-01 
 7.97630e-01 
 7.97743e-01 
 7.97869e-01 
 7.98008e-01 
 7.98160e-01 
 7.98322e-01 
 7.98493e-01 
 7.98668e-01 
 7.93820e-01 
 7.88962e-01 
 9.14620e-01 
 9.14575e-01 
 7.88886e-01 
 7.93756e-01 
 7.98614e-01 
 7.98450e-01 
 7.98291e-01 
 7.98138e-01 
 7.97994e-01 
 7.97860e-01 
 7.97739e-01 
 7.97629e-01 
 7.97532e-01 
 7.97446e-01 
 7.97373e-01 
 7.97310e-01 
 7.97259e-01 
 7.97219e-01 
 7.97189e-01 
 7.97169e-01 
 7.97154e-01 
 7.97154e-01 
 7.97169e-01 
 7.97188e-01 
 7.97218e-01 
 7.97258e-01 
 7.97309e-01 
 7.97371e-01 
 7.97444e-01 
 7.97528e-01 
 7.97625e-01 
 7.97734e-01 
 7.97854e-01 
 7.97987e-01 
 7.98131e-01 
 7.98285e-01 
 7.98447e-01 
 7.98614e-01 
 7.93759e-01 
 7.88896e-01 
 9.14592e-01 
 9.14554e-01 
 7.88834e-01 
 7.93705e-01 
 7.98567e-01 
 7.98410e-01 
 7.98257e-01 
 7.98112e-01 
 7.97975e-01 
 7.97848e-01 
 7.97731e-01 
 7.97626e-01 
 7.97532e-01 
 7.97450e-01 
 7.97378e-01 
 7.97318e-01 
 7.97268e-01 
 7.97228e-01 
 7.97199e-01 
 7.97179e-01 
 7.97165e-01 
 7.97165e-01 
 7.97179e-01 
 7.97198e-01 
 7.97227e-01 
 7.97267e-01 
 7.97316e-01 
 7.97376e-01 
 7.97447e-01 
 7.97529e-01 
 7.97622e-01 
 7.97727e-01 
 7.97843e-01 
 7.97970e-01 
 7.98107e-01 
 7.98254e-01 
 7.98408e-01 
 7.98568e-01 
 7.93707e-01 
 7.88841e-01 
 9.14570e-01 
 9.14529e-01 
 7.88773e-01 
 7.93647e-01 
 7.98514e-01 
 7.98361e-01 
 7.98215e-01 
 7.98075e-01 
 7.97945e-01 
 7.97823e-01 
 7.97712e-01 
 7.97611e-01 
 7.97521e-01 
 7.97441e-01 
 7.97372e-01 
 7.97313e-01 
 7.97264e-01 
 7.97226e-01 
 7.97197e-01 
 7.97178e-01 
 7.97164e-01 
 7.97164e-01 
 7.97178e-01 
 7.97197e-01 
 7.97225e-01 
 7.97263e-01 
 7.97311e-01 
 7.97370e-01 
 7.97438e-01 
 7.97517e-01 
 7.97607e-01 
 7.97708e-01 
 7.97819e-01 
 7.97940e-01 
 7.98072e-01 
 7.98212e-01 
 7.98360e-01 
 7.98515e-01 
 7.93648e-01 
 7.88779e-01 
 9.14545e-01 
 9.14509e-01 
 7.88720e-01 
 7.93597e-01 
 7.98468e-01 
 7.98320e-01 
 7.98178e-01 
 7.98045e-01 
 7.97919e-01 
 7.97803e-01 
 7.97696e-01 
 7.97600e-01 
 7.97513e-01 
 7.97436e-01 
 7.97369e-01 
 7.97312e-01 
 7.97265e-01 
 7.97228e-01 
 7.97200e-01 
 7.97182e-01 
 7.97167e-01 
 7.97167e-01 
 7.97181e-01 
 7.97199e-01 
 7.97227e-01 
 7.97264e-01 
 7.97311e-01 
 7.97367e-01 
 7.97433e-01 
 7.97510e-01 
 7.97596e-01 
 7.97693e-01 
 7.97800e-01 
 7.97916e-01 
 7.98042e-01 
 7.98176e-01 
 7.98319e-01 
 7.98469e-01 
 7.93597e-01 
 7.88725e-01 
 9.14521e-01 
 9.14486e-01 
 7.88668e-01 
 7.93549e-01 
 7.98424e-01 
 7.98280e-01 
 7.98143e-01 
 7.98014e-01 
 7.97894e-01 
 7.97783e-01 
 7.97680e-01 
 7.97587e-01 
 7.97504e-01 
 7.97430e-01 
 7.97365e-01 
 7.97311e-01 
 7.97265e-01 
 7.97229e-01 
 7.97202e-01 
 7.97184e-01 
 7.97170e-01 
 7.97170e-01 
 7.97184e-01 
 7.97201e-01 
 7.97228e-01 
 7.97264e-01 
 7.97309e-01 
 7.97364e-01 
 7.97428e-01 
 7.97501e-01 
 7.97584e-01 
 7.97677e-01 
 7.97780e-01 
 7.97891e-01 
 7.98012e-01 
 7.98142e-01 
 7.98279e-01 
 7.98425e-01 
 7.93548e-01 
 7.88672e-01 
 9.14501e-01 
 9.14467e-01 
 7.88618e-01 
 7.93502e-01 
 7.98382e-01 
 7.98241e-01 
 7.98109e-01 
 7.97985e-01 
 7.97869e-01 
 7.97762e-01 
 7.97663e-01 
 7.97574e-01 
 7.97494e-01 
 7.97423e-01 
 7.97361e-01 
 7.97308e-01 
 7.97264e-01 
 7.97229e-01 
 7.97203e-01 
 7.97186e-01 
 7.97172e-01 
 7.97172e-01 
 7.97186e-01 
 7.97202e-01 
 7.97228e-01 
 7.97263e-01 
 7.97306e-01 
 7.97359e-01 
 7.97421e-01 
 7.97491e-01 
 7.97571e-01 
 7.97661e-01 
 7.97759e-01 
 7.97866e-01 
 7.97983e-01 
 7.98107e-01 
 7.98241e-01 
 7.98382e-01 
 7.93500e-01 
 7.88620e-01 
 9.14478e-01 
 9.14445e-01 
 7.88568e-01 
 7.93456e-01 
 7.98341e-01 
 7.98204e-01 
 7.98076e-01 
 7.97956e-01 
 7.97844e-01 
 7.97741e-01 
 7.97646e-01 
 7.97561e-01 
 7.97483e-01 
 7.97415e-01 
 7.97356e-01 
 7.97305e-01 
 7.97262e-01 
 7.97229e-01 
 7.97204e-01 
 7.97187e-01 
 7.97174e-01 
 7.97173e-01 
 7.97187e-01 
 7.97203e-01 
 7.97228e-01 
 7.97261e-01 
 7.97303e-01 
 7.97354e-01 
 7.97413e-01 
 7.97481e-01 
 7.97558e-01 
 7.97644e-01 
 7.97739e-01 
 7.97842e-01 
 7.97954e-01 
 7.98074e-01 
 7.98203e-01 
 7.98340e-01 
 7.93454e-01 
 7.88570e-01 
 9.14458e-01 
 9.14425e-01 
 7.88519e-01 
 7.93411e-01 
 7.98301e-01 
 7.98168e-01 
 7.98043e-01 
 7.97927e-01 
 7.97820e-01 
 7.97720e-01 
 7.97629e-01 
 7.97547e-01 
 7.97473e-01 
 7.97407e-01 
 7.97350e-01 
 7.97301e-01 
 7.97260e-01 
 7.97228e-01 
 7.97204e-01 
 7.97188e-01 
 7.97175e-01 
 7.97174e-01 
 7.97187e-01 
 7.97203e-01 
 7.97227e-01 
 7.97259e-01 
 7.97300e-01 
 7.97348e-01 
 7.97405e-01 
 7.97471e-01 
 7.97545e-01 
 7.97627e-01 
 7.97718e-01 
 7.97818e-01 
 7.97925e-01 
 7.98042e-01 
 7.98167e-01 
 7.98300e-01 
 7.93408e-01 
 7.88520e-01 
 9.14436e-01 
 9.14404e-01 
 7.88470e-01 
 7.93367e-01 
 7.98262e-01 
 7.98132e-01 
 7.98012e-01 
 7.97899e-01 
 7.97796e-01 
 7.97700e-01 
 7.97612e-01 
 7.97533e-01 
 7.97462e-01 
 7.97399e-01 
 7.97344e-01 
 7.97297e-01 
 7.97258e-01 
 7.97227e-01 
 7.97203e-01 
 7.97188e-01 
 7.97175e-01 
 7.97175e-01 
 7.97188e-01 
 7.97203e-01 
 7.97226e-01 
 7.97257e-01 
 7.97296e-01 
 7.97342e-01 
 7.97397e-01 
 7.97460e-01 
 7.97531e-01 
 7.97610e-01 
 7.97698e-01 
 7.97794e-01 
 7.97898e-01 
 7.98010e-01 
 7.98131e-01 
 7.98261e-01 
 7.93364e-01 
 7.88471e-01 
 9.14417e-01 
 9.14385e-01 
 7.88422e-01 
 7.93323e-01 
 7.98223e-01 
 7.98098e-01 
 7.97981e-01 
 7.97872e-01 
 7.97772e-01 
 7.97680e-01 
 7.97596e-01 
 7.97520e-01 
 7.97451e-01 
 7.97391e-01 
 7.97338e-01 
 7.97293e-01 
 7.97255e-01 
 7.97225e-01 
 7.97203e-01 
 7.97188e-01 
 7.97176e-01 
 7.97175e-01 
 7.97188e-01 
 7.97202e-01 
 7.97224e-01 
 7.97254e-01 
 7.97291e-01 
 7.97336e-01 
 7.97389e-01 
 7.97449e-01 
 7.97518e-01 
 7.97594e-01 
 7.97678e-01 
 7.97770e-01 
 7.97871e-01 
 7.97979e-01 
 7.98096e-01 
 7.98222e-01 
 7.93320e-01 
 7.88422e-01 
 9.14395e-01 
 9.14363e-01 
 7.88374e-01 
 7.93281e-01 
 7.98185e-01 
 7.98064e-01 
 7.97950e-01 
 7.97846e-01 
 7.97749e-01 
 7.97660e-01 
 7.97579e-01 
 7.97506e-01 
 7.97440e-01 
 7.97382e-01 
 7.97331e-01 
 7.97288e-01 
 7.97252e-01 
 7.97223e-01 
 7.97202e-01 
 7.97188e-01 
 7.97176e-01 
 7.97175e-01 
 7.97187e-01 
 7.97201e-01 
 7.97222e-01 
 7.97251e-01 
 7.97287e-01 
 7.97330e-01 
 7.97381e-01 
 7.97439e-01 
 7.97504e-01 
 7.97577e-01 
 7.97658e-01 
 7.97747e-01 
 7.97844e-01 
 7.97949e-01 
 7.98062e-01 
 7.98184e-01 
 7.93277e-01 
 7.88374e-01 
 9.14376e-01 
 9.14345e-01 
 7.88327e-01 
 7.93238e-01 
 7.98148e-01 
 7.98030e-01 
 7.97921e-01 
 7.97820e-01 
 7.97726e-01 
 7.97641e-01 
 7.97563e-01 
 7.97493e-01 
 7.97430e-01 
 7.97374e-01 
 7.97325e-01 
 7.97283e-01 
 7.97249e-01 
 7.97221e-01 
 7.97201e-01 
 7.97187e-01 
 7.97175e-01 
 7.97175e-01 
 7.97187e-01 
 7.97200e-01 
 7.97221e-01 
 7.97248e-01 
 7.97282e-01 
 7.97324e-01 
 7.97372e-01 
 7.97428e-01 
 7.97491e-01 
 7.97561e-01 
 7.97639e-01 
 7.97725e-01 
 7.97818e-01 
 7.97919e-01 
 7.98029e-01 
 7.98146e-01 
 7.93235e-01 
 7.88326e-01 
 9.14355e-01 
 9.14327e-01 
 7.88286e-01 
 7.93202e-01 
 7.98117e-01 
 7.98003e-01 
 7.97897e-01 
 7.97799e-01 
 7.97710e-01 
 7.97627e-01 
 7.97552e-01 
 7.97485e-01 
 7.97424e-01 
 7.97371e-01 
 7.97324e-01 
 7.97284e-01 
 7.97251e-01 
 7.97225e-01 
 7.97205e-01 
 7.97192e-01 
 7.97180e-01 
 7.97180e-01 
 7.97192e-01 
 7.97204e-01 
 7.97224e-01 
 7.97250e-01 
 7.97283e-01 
 7.97323e-01 
 7.97369e-01 
 7.97423e-01 
 7.97483e-01 
 7.97551e-01 
 7.97626e-01 
 7.97708e-01 
 7.97798e-01 
 7.97895e-01 
 7.98001e-01 
 7.98115e-01 
 7.93198e-01 
 7.88285e-01 
 9.14338e-01 
 9.14304e-01 
 7.88234e-01 
 7.93156e-01 
 7.98076e-01 
 7.97966e-01 
 7.97864e-01 
 7.97769e-01 
 7.97683e-01 
 7.97604e-01 
 7.97532e-01 
 7.97467e-01 
 7.97409e-01 
 7.97357e-01 
 7.97313e-01 
 7.97275e-01 
 7.97243e-01 
 7.97217e-01 
 7.97199e-01 
 7.97186e-01 
 7.97175e-01 
 7.97175e-01 
 7.97186e-01 
 7.97198e-01 
 7.97217e-01 
 7.97242e-01 
 7.97273e-01 
 7.97311e-01 
 7.97356e-01 
 7.97407e-01 
 7.97465e-01 
 7.97530e-01 
 7.97602e-01 
 7.97681e-01 
 7.97768e-01 
 7.97862e-01 
 7.97964e-01 
 7.98074e-01 
 7.93152e-01 
 7.88233e-01 
 9.14317e-01 
 9.14287e-01 
 7.88189e-01 
 7.93116e-01 
 7.98041e-01 
 7.97934e-01 
 7.97836e-01 
 7.97745e-01 
 7.97662e-01 
 7.97586e-01 
 7.97517e-01 
 7.97454e-01 
 7.97399e-01 
 7.97350e-01 
 7.97307e-01 
 7.97270e-01 
 7.97240e-01 
 7.97216e-01 
 7.97198e-01 
 7.97186e-01 
 7.97175e-01 
 7.97175e-01 
 7.97186e-01 
 7.97197e-01 
 7.97215e-01 
 7.97239e-01 
 7.97269e-01 
 7.97306e-01 
 7.97348e-01 
 7.97397e-01 
 7.97453e-01 
 7.97515e-01 
 7.97584e-01 
 7.97660e-01 
 7.97743e-01 
 7.97834e-01 
 7.97932e-01 
 7.98039e-01 
 7.93111e-01 
 7.88188e-01 
 9.14296e-01 
 9.14266e-01 
 7.88144e-01 
 7.93076e-01 
 7.98007e-01 
 7.97904e-01 
 7.97809e-01 
 7.97722e-01 
 7.97642e-01 
 7.97569e-01 
 7.97502e-01 
 7.97442e-01 
 7.97389e-01 
 7.97342e-01 
 7.97301e-01 
 7.97266e-01 
 7.97237e-01 
 7.97214e-01 
 7.97197e-01 
 7.97186e-01 
 7.97175e-01 
 7.97175e-01 
 7.97185e-01 
 7.97196e-01 
 7.97213e-01 
 7.97236e-01 
 7.97265e-01 
 7.97300e-01 
 7.97341e-01 
 7.97388e-01 
 7.97441e-01 
 7.97501e-01 
 7.97567e-01 
 7.97640e-01 
 7.97720e-01 
 7.97807e-01 
 7.97902e-01 
 7.98004e-01 
 7.93072e-01 
 7.88143e-01 
 9.14278e-01 
 9.14249e-01 
 7.88100e-01 
 7.93037e-01 
 7.97972e-01 
 7.97874e-01 
 7.97782e-01 
 7.97698e-01 
 7.97621e-01 
 7.97551e-01 
 7.97488e-01 
 7.97430e-01 
 7.97379e-01 
 7.97334e-01 
 7.97295e-01 
 7.97262e-01 
 7.97234e-01 
 7.97212e-01 
 7.97196e-01 
 7.97185e-01 
 7.97174e-01 
 7.97174e-01 
 7.97185e-01 
 7.97195e-01 
 7.97211e-01 
 7.97233e-01 
 7.97261e-01 
 7.97294e-01 
 7.97333e-01 
 7.97378e-01 
 7.97429e-01 
 7.97486e-01 
 7.97550e-01 
 7.97620e-01 
 7.97696e-01 
 7.97780e-01 
 7.97871e-01 
 7.97970e-01 
 7.93033e-01 
 7.88099e-01 
 9.14258e-01 
 9.14229e-01 
 7.88056e-01 
 7.92998e-01 
 7.97939e-01 
 7.97844e-01 
 7.97756e-01 
 7.97676e-01 
 7.97602e-01 
 7.97535e-01 
 7.97474e-01 
 7.97419e-01 
 7.97370e-01 
 7.97327e-01 
 7.97290e-01 
 7.97258e-01 
 7.97231e-01 
 7.97210e-01 
 7.97195e-01 
 7.97184e-01 
 7.97174e-01 
 7.97174e-01 
 7.97184e-01 
 7.97194e-01 
 7.97210e-01 
 7.97230e-01 
 7.97257e-01 
 7.97288e-01 
 7.97326e-01 
 7.97369e-01 
 7.97417e-01 
 7.97472e-01 
 7.97533e-01 
 7.97600e-01 
 7.97674e-01 
 7.97754e-01 
 7.97842e-01 
 7.97937e-01 
 7.92994e-01 
 7.88055e-01 
 9.14241e-01 
 9.14213e-01 
 7.88013e-01 
 7.92960e-01 
 7.97906e-01 
 7.97815e-01 
 7.97730e-01 
 7.97653e-01 
 7.97582e-01 
 7.97518e-01 
 7.97460e-01 
 7.97407e-01 
 7.97361e-01 
 7.97320e-01 
 7.97284e-01 
 7.97254e-01 
 7.97228e-01 
 7.97208e-01 
 7.97193e-01 
 7.97184e-01 
 7.97174e-01 
 7.97174e-01 
 7.97184e-01 
 7.97193e-01 
 7.97208e-01 
 7.97228e-01 
 7.97253e-01 
 7.97283e-01 
 7.97318e-01 
 7.97359e-01 
 7.97406e-01 
 7.97458e-01 
 7.97516e-01 
 7.97581e-01 
 7.97651e-01 
 7.97728e-01 
 7.97812e-01 
 7.97904e-01 
 7.92956e-01 
 7.88012e-01 
 9.14221e-01 
 9.14193e-01 
 7.87971e-01 
 7.92923e-01 
 7.97874e-01 
 7.97786e-01 
 7.97705e-01 
 7.97631e-01 
 7.97564e-01 
 7.97502e-01 
 7.97446e-01 
 7.97396e-01 
 7.97352e-01 
 7.97313e-01 
 7.97279e-01 
 7.97250e-01 
 7.97226e-01 
 7.97207e-01 
 7.97192e-01 
 7.97183e-01 
 7.97173e-01 
 7.97173e-01 
 7.97183e-01 
 7.97192e-01 
 7.97206e-01 
 7.97225e-01 
 7.97249e-01 
 7.97278e-01 
 7.97311e-01 
 7.97350e-01 
 7.97395e-01 
 7.97445e-01 
 7.97500e-01 
 7.97562e-01 
 7.97629e-01 
 7.97703e-01 
 7.97784e-01 
 7.97871e-01 
 7.92919e-01 
 7.87970e-01 
 9.14205e-01 
 9.14177e-01 
 7.87930e-01 
 7.92886e-01 
 7.97842e-01 
 7.97758e-01 
 7.97681e-01 
 7.97610e-01 
 7.97545e-01 
 7.97486e-01 
 7.97433e-01 
 7.97385e-01 
 7.97343e-01 
 7.97306e-01 
 7.97273e-01 
 7.97246e-01 
 7.97223e-01 
 7.97205e-01 
 7.97191e-01 
 7.97183e-01 
 7.97173e-01 
 7.97173e-01 
 7.97182e-01 
 7.97191e-01 
 7.97204e-01 
 7.97222e-01 
 7.97245e-01 
 7.97272e-01 
 7.97304e-01 
 7.97342e-01 
 7.97384e-01 
 7.97431e-01 
 7.97484e-01 
 7.97543e-01 
 7.97608e-01 
 7.97679e-01 
 7.97756e-01 
 7.97840e-01 
 7.92882e-01 
 7.87928e-01 
 9.14185e-01 
 9.14159e-01 
 7.87889e-01 
 7.92850e-01 
 7.97811e-01 
 7.97730e-01 
 7.97656e-01 
 7.97589e-01 
 7.97527e-01 
 7.97471e-01 
 7.97420e-01 
 7.97375e-01 
 7.97334e-01 
 7.97299e-01 
 7.97268e-01 
 7.97242e-01 
 7.97220e-01 
 7.97203e-01 
 7.97190e-01 
 7.97182e-01 
 7.97173e-01 
 7.97173e-01 
 7.97182e-01 
 7.97190e-01 
 7.97202e-01 
 7.97220e-01 
 7.97241e-01 
 7.97267e-01 
 7.97298e-01 
 7.97333e-01 
 7.97373e-01 
 7.97418e-01 
 7.97469e-01 
 7.97525e-01 
 7.97587e-01 
 7.97654e-01 
 7.97728e-01 
 7.97808e-01 
 7.92846e-01 
 7.87887e-01 
 9.14169e-01 
 9.14143e-01 
 7.87849e-01 
 7.92815e-01 
 7.97780e-01 
 7.97703e-01 
 7.97633e-01 
 7.97568e-01 
 7.97509e-01 
 7.97455e-01 
 7.97407e-01 
 7.97364e-01 
 7.97326e-01 
 7.97292e-01 
 7.97263e-01 
 7.97238e-01 
 7.97218e-01 
 7.97201e-01 
 7.97189e-01 
 7.97181e-01 
 7.97172e-01 
 7.97172e-01 
 7.97181e-01 
 7.97189e-01 
 7.97201e-01 
 7.97217e-01 
 7.97237e-01 
 7.97262e-01 
 7.97291e-01 
 7.97324e-01 
 7.97363e-01 
 7.97406e-01 
 7.97454e-01 
 7.97507e-01 
 7.97566e-01 
 7.97630e-01 
 7.97701e-01 
 7.97778e-01 
 7.92811e-01 
 7.87847e-01 
 9.14151e-01 
 9.14128e-01 
 7.87815e-01 
 7.92786e-01 
 7.97756e-01 
 7.97682e-01 
 7.97615e-01 
 7.97553e-01 
 7.97497e-01 
 7.97446e-01 
 7.97400e-01 
 7.97359e-01 
 7.97323e-01 
 7.97291e-01 
 7.97263e-01 
 7.97240e-01 
 7.97220e-01 
 7.97205e-01 
 7.97193e-01 
 7.97186e-01 
 7.97177e-01 
 7.97177e-01 
 7.97186e-01 
 7.97193e-01 
 7.97204e-01 
 7.97220e-01 
 7.97239e-01 
 7.97262e-01 
 7.97290e-01 
 7.97321e-01 
 7.97358e-01 
 7.97399e-01 
 7.97444e-01 
 7.97495e-01 
 7.97551e-01 
 7.97612e-01 
 7.97680e-01 
 7.97753e-01 
 7.92782e-01 
 7.87814e-01 
 9.14137e-01 
 9.14109e-01 
 7.87771e-01 
 7.92747e-01 
 7.97721e-01 
 7.97651e-01 
 7.97587e-01 
 7.97528e-01 
 7.97475e-01 
 7.97426e-01 
 7.97383e-01 
 7.97344e-01 
 7.97310e-01 
 7.97279e-01 
 7.97253e-01 
 7.97231e-01 
 7.97213e-01 
 7.97198e-01 
 7.97187e-01 
 7.97180e-01 
 7.97172e-01 
 7.97172e-01 
 7.97180e-01 
 7.97187e-01 
 7.97198e-01 
 7.97212e-01 
 7.97230e-01 
 7.97252e-01 
 7.97278e-01 
 7.97308e-01 
 7.97343e-01 
 7.97381e-01 
 7.97425e-01 
 7.97473e-01 
 7.97526e-01 
 7.97585e-01 
 7.97649e-01 
 7.97719e-01 
 7.92742e-01 
 7.87770e-01 
 9.14119e-01 
 9.14095e-01 
 7.87734e-01 
 7.92713e-01 
 7.97693e-01 
 7.97626e-01 
 7.97565e-01 
 7.97509e-01 
 7.97458e-01 
 7.97412e-01 
 7.97371e-01 
 7.97334e-01 
 7.97302e-01 
 7.97273e-01 
 7.97249e-01 
 7.97228e-01 
 7.97211e-01 
 7.97197e-01 
 7.97187e-01 
 7.97180e-01 
 7.97172e-01 
 7.97172e-01 
 7.97180e-01 
 7.97186e-01 
 7.97196e-01 
 7.97210e-01 
 7.97227e-01 
 7.97248e-01 
 7.97272e-01 
 7.97301e-01 
 7.97333e-01 
 7.97370e-01 
 7.97411e-01 
 7.97456e-01 
 7.97507e-01 
 7.97563e-01 
 7.97624e-01 
 7.97690e-01 
 7.92710e-01 
 7.87732e-01 
 9.14102e-01 
 9.14078e-01 
 7.87697e-01 
 7.92681e-01 
 7.97665e-01 
 7.97601e-01 
 7.97543e-01 
 7.97490e-01 
 7.97442e-01 
 7.97399e-01 
 7.97360e-01 
 7.97325e-01 
 7.97294e-01 
 7.97268e-01 
 7.97244e-01 
 7.97225e-01 
 7.97208e-01 
 7.97196e-01 
 7.97186e-01 
 7.97180e-01 
 7.97172e-01 
 7.97172e-01 
 7.97180e-01 
 7.97186e-01 
 7.97195e-01 
 7.97208e-01 
 7.97224e-01 
 7.97243e-01 
 7.97267e-01 
 7.97293e-01 
 7.97324e-01 
 7.97358e-01 
 7.97397e-01 
 7.97440e-01 
 7.97488e-01 
 7.97541e-01 
 7.97599e-01 
 7.97662e-01 
 7.92677e-01 
 7.87696e-01 
 9.14088e-01 
 9.14064e-01 
 7.87661e-01 
 7.92649e-01 
 7.97637e-01 
 7.97577e-01 
 7.97522e-01 
 7.97472e-01 
 7.97426e-01 
 7.97385e-01 
 7.97349e-01 
 7.97316e-01 
 7.97287e-01 
 7.97262e-01 
 7.97240e-01 
 7.97221e-01 
 7.97206e-01 
 7.97194e-01 
 7.97185e-01 
 7.97179e-01 
 7.97171e-01 
 7.97171e-01 
 7.97179e-01 
 7.97185e-01 
 7.97194e-01 
 7.97206e-01 
 7.97221e-01 
 7.97239e-01 
 7.97261e-01 
 7.97286e-01 
 7.97315e-01 
 7.97347e-01 
 7.97384e-01 
 7.97425e-01 
 7.97470e-01 
 7.97520e-01 
 7.97575e-01 
 7.97635e-01 
 7.92646e-01 
 7.87660e-01 
 9.14071e-01 
 9.14048e-01 
 7.87626e-01 
 7.92619e-01 
 7.97611e-01 
 7.97553e-01 
 7.97501e-01 
 7.97454e-01 
 7.97411e-01 
 7.97372e-01 
 7.97338e-01 
 7.97307e-01 
 7.97280e-01 
 7.97256e-01 
 7.97236e-01 
 7.97218e-01 
 7.97204e-01 
 7.97193e-01 
 7.97184e-01 
 7.97179e-01 
 7.97171e-01 
 7.97171e-01 
 7.97179e-01 
 7.97184e-01 
 7.97192e-01 
 7.97203e-01 
 7.97218e-01 
 7.97235e-01 
 7.97255e-01 
 7.97279e-01 
 7.97306e-01 
 7.97336e-01 
 7.97371e-01 
 7.97409e-01 
 7.97452e-01 
 7.97499e-01 
 7.97551e-01 
 7.97608e-01 
 7.92615e-01 
 7.87625e-01 
 9.14057e-01 
 9.14035e-01 
 7.87591e-01 
 7.92588e-01 
 7.97584e-01 
 7.97530e-01 
 7.97481e-01 
 7.97436e-01 
 7.97396e-01 
 7.97360e-01 
 7.97327e-01 
 7.97298e-01 
 7.97273e-01 
 7.97251e-01 
 7.97231e-01 
 7.97215e-01 
 7.97202e-01 
 7.97191e-01 
 7.97184e-01 
 7.97179e-01 
 7.97171e-01 
 7.97171e-01 
 7.97178e-01 
 7.97183e-01 
 7.97191e-01 
 7.97201e-01 
 7.97215e-01 
 7.97231e-01 
 7.97250e-01 
 7.97272e-01 
 7.97297e-01 
 7.97326e-01 
 7.97358e-01 
 7.97394e-01 
 7.97434e-01 
 7.97479e-01 
 7.97528e-01 
 7.97582e-01 
 7.92585e-01 
 7.87590e-01 
 9.14041e-01 
 9.14019e-01 
 7.87558e-01 
 7.92559e-01 
 7.97559e-01 
 7.97508e-01 
 7.97461e-01 
 7.97419e-01 
 7.97381e-01 
 7.97347e-01 
 7.97317e-01 
 7.97290e-01 
 7.97266e-01 
 7.97245e-01 
 7.97227e-01 
 7.97212e-01 
 7.97200e-01 
 7.97190e-01 
 7.97183e-01 
 7.97178e-01 
 7.97171e-01 
 7.97171e-01 
 7.97178e-01 
 7.97183e-01 
 7.97190e-01 
 7.97199e-01 
 7.97212e-01 
 7.97227e-01 
 7.97244e-01 
 7.97265e-01 
 7.97289e-01 
 7.97315e-01 
 7.97346e-01 
 7.97380e-01 
 7.97417e-01 
 7.97459e-01 
 7.97506e-01 
 7.97557e-01 
 7.92555e-01 
 7.87557e-01 
 9.14028e-01 
 9.14007e-01 
 7.87525e-01 
 7.92530e-01 
 7.97534e-01 
 7.97486e-01 
 7.97442e-01 
 7.97403e-01 
 7.97367e-01 
 7.97335e-01 
 7.97307e-01 
 7.97282e-01 
 7.97259e-01 
 7.97240e-01 
 7.97223e-01 
 7.97209e-01 
 7.97198e-01 
 7.97189e-01 
 7.97182e-01 
 7.97178e-01 
 7.97171e-01 
 7.97171e-01 
 7.97178e-01 
 7.97182e-01 
 7.97188e-01 
 7.97197e-01 
 7.97209e-01 
 7.97223e-01 
 7.97239e-01 
 7.97258e-01 
 7.97280e-01 
 7.97305e-01 
 7.97334e-01 
 7.97365e-01 
 7.97401e-01 
 7.97440e-01 
 7.97484e-01 
 7.97532e-01 
 7.92526e-01 
 7.87524e-01 
 9.14013e-01 
 9.13992e-01 
 7.87493e-01 
 7.92502e-01 
 7.97510e-01 
 7.97464e-01 
 7.97423e-01 
 7.97386e-01 
 7.97353e-01 
 7.97323e-01 
 7.97297e-01 
 7.97274e-01 
 7.97253e-01 
 7.97235e-01 
 7.97220e-01 
 7.97207e-01 
 7.97196e-01 
 7.97188e-01 
 7.97181e-01 
 7.97178e-01 
 7.97170e-01 
 7.97170e-01 
 7.97177e-01 
 7.97181e-01 
 7.97187e-01 
 7.97195e-01 
 7.97206e-01 
 7.97219e-01 
 7.97234e-01 
 7.97252e-01 
 7.97272e-01 
 7.97296e-01 
 7.97322e-01 
 7.97352e-01 
 7.97385e-01 
 7.97422e-01 
 7.97462e-01 
 7.97508e-01 
 7.92498e-01 
 7.87492e-01 
 9.14001e-01 
 9.13980e-01 
 7.87462e-01 
 7.92474e-01 
 7.97486e-01 
 7.97444e-01 
 7.97405e-01 
 7.97371e-01 
 7.97340e-01 
 7.97312e-01 
 7.97287e-01 
 7.97266e-01 
 7.97247e-01 
 7.97230e-01 
 7.97216e-01 
 7.97204e-01 
 7.97194e-01 
 7.97186e-01 
 7.97181e-01 
 7.97177e-01 
 7.97170e-01 
 7.97170e-01 
 7.97177e-01 
 7.97180e-01 
 7.97186e-01 
 7.97194e-01 
 7.97203e-01 
 7.97215e-01 
 7.97229e-01 
 7.97246e-01 
 7.97265e-01 
 7.97286e-01 
 7.97311e-01 
 7.97338e-01 
 7.97369e-01 
 7.97403e-01 
 7.97442e-01 
 7.97484e-01 
 7.92471e-01 
 7.87461e-01 
 9.13986e-01 
 9.13966e-01 
 7.87432e-01 
 7.92448e-01 
 7.97463e-01 
 7.97423e-01 
 7.97387e-01 
 7.97355e-01 
 7.97326e-01 
 7.97301e-01 
 7.97278e-01 
 7.97258e-01 
 7.97240e-01 
 7.97225e-01 
 7.97212e-01 
 7.97201e-01 
 7.97192e-01 
 7.97185e-01 
 7.97180e-01 
 7.97177e-01 
 7.97170e-01 
 7.97170e-01 
 7.97176e-01 
 7.97180e-01 
 7.97185e-01 
 7.97192e-01 
 7.97201e-01 
 7.97211e-01 
 7.97224e-01 
 7.97240e-01 
 7.97257e-01 
 7.97277e-01 
 7.97299e-01 
 7.97325e-01 
 7.97354e-01 
 7.97386e-01 
 7.97421e-01 
 7.97461e-01 
 7.92444e-01 
 7.87431e-01 
 9.13974e-01 
 9.13955e-01 
 7.87402e-01 
 7.92421e-01 
 7.97441e-01 
 7.97403e-01 
 7.97370e-01 
 7.97340e-01 
 7.97314e-01 
 7.97290e-01 
 7.97269e-01 
 7.97251e-01 
 7.97234e-01 
 7.97220e-01 
 7.97209e-01 
 7.97198e-01 
 7.97190e-01 
 7.97184e-01 
 7.97179e-01 
 7.97176e-01 
 7.97169e-01 
 7.97169e-01 
 7.97176e-01 
 7.97179e-01 
 7.97183e-01 
 7.97190e-01 
 7.97198e-01 
 7.97208e-01 
 7.97220e-01 
 7.97234e-01 
 7.97250e-01 
 7.97268e-01 
 7.97289e-01 
 7.97312e-01 
 7.97339e-01 
 7.97368e-01 
 7.97402e-01 
 7.97439e-01 
 7.92418e-01 
 7.87401e-01 
 9.13960e-01 
 9.13944e-01 
 7.87379e-01 
 7.92402e-01 
 7.97424e-01 
 7.97389e-01 
 7.97358e-01 
 7.97331e-01 
 7.97306e-01 
 7.97285e-01 
 7.97266e-01 
 7.97249e-01 
 7.97234e-01 
 7.97221e-01 
 7.97210e-01 
 7.97201e-01 
 7.97194e-01 
 7.97188e-01 
 7.97183e-01 
 7.97181e-01 
 7.97174e-01 
 7.97174e-01 
 7.97181e-01 
 7.97183e-01 
 7.97187e-01 
 7.97193e-01 
 7.97201e-01 
 7.97210e-01 
 7.97220e-01 
 7.97233e-01 
 7.97248e-01 
 7.97264e-01 
 7.97283e-01 
 7.97305e-01 
 7.97329e-01 
 7.97357e-01 
 7.97388e-01 
 7.97422e-01 
 7.92398e-01 
 7.87378e-01 
 9.13951e-01 
 9.13930e-01 
 7.87346e-01 
 7.92372e-01 
 7.97398e-01 
 7.97366e-01 
 7.97337e-01 
 7.97312e-01 
 7.97289e-01 
 7.97269e-01 
 7.97252e-01 
 7.97237e-01 
 7.97223e-01 
 7.97212e-01 
 7.97202e-01 
 7.97194e-01 
 7.97187e-01 
 7.97181e-01 
 7.97177e-01 
 7.97175e-01 
 7.97169e-01 
 7.97169e-01 
 7.97175e-01 
 7.97177e-01 
 7.97181e-01 
 7.97186e-01 
 7.97193e-01 
 7.97201e-01 
 7.97211e-01 
 7.97222e-01 
 7.97236e-01 
 7.97251e-01 
 7.97268e-01 
 7.97288e-01 
 7.97310e-01 
 7.97335e-01 
 7.97364e-01 
 7.97396e-01 
 7.92369e-01 
 7.87345e-01 
 9.13937e-01 
 9.13920e-01 
 7.87319e-01 
 7.92348e-01 
 7.97377e-01 
 7.97348e-01 
 7.97322e-01 
 7.97298e-01 
 7.97278e-01 
 7.97260e-01 
 7.97244e-01 
 7.97230e-01 
 7.97218e-01 
 7.97208e-01 
 7.97199e-01 
 7.97191e-01 
 7.97185e-01 
 7.97180e-01 
 7.97177e-01 
 7.97175e-01 
 7.97168e-01 
 7.97168e-01 
 7.97175e-01 
 7.97177e-01 
 7.97180e-01 
 7.97185e-01 
 7.97191e-01 
 7.97198e-01 
 7.97207e-01 
 7.97217e-01 
 7.97229e-01 
 7.97243e-01 
 7.97259e-01 
 7.97277e-01 
 7.97297e-01 
 7.97320e-01 
 7.97346e-01 
 7.97376e-01 
 7.92345e-01 
 7.87318e-01 
 9.13924e-01 
 9.13908e-01 
 7.87293e-01 
 7.92325e-01 
 7.97358e-01 
 7.97331e-01 
 7.97307e-01 
 7.97285e-01 
 7.97267e-01 
 7.97251e-01 
 7.97236e-01 
 7.97224e-01 
 7.97213e-01 
 7.97204e-01 
 7.97196e-01 
 7.97189e-01 
 7.97184e-01 
 7.97179e-01 
 7.97176e-01 
 7.97174e-01 
 7.97168e-01 
 7.97168e-01 
 7.97174e-01 
 7.97176e-01 
 7.97179e-01 
 7.97183e-01 
 7.97189e-01 
 7.97195e-01 
 7.97203e-01 
 7.97212e-01 
 7.97223e-01 
 7.97235e-01 
 7.97250e-01 
 7.97266e-01 
 7.97284e-01 
 7.97305e-01 
 7.97329e-01 
 7.97356e-01 
 7.92322e-01 
 7.87292e-01 
 9.13915e-01 
 9.13898e-01 
 7.87268e-01 
 7.92303e-01 
 7.97339e-01 
 7.97314e-01 
 7.97292e-01 
 7.97273e-01 
 7.97256e-01 
 7.97242e-01 
 7.97229e-01 
 7.97218e-01 
 7.97208e-01 
 7.97200e-01 
 7.97193e-01 
 7.97187e-01 
 7.97182e-01 
 7.97178e-01 
 7.97175e-01 
 7.97174e-01 
 7.97168e-01 
 7.97168e-01 
 7.97174e-01 
 7.97175e-01 
 7.97178e-01 
 7.97182e-01 
 7.97186e-01 
 7.97192e-01 
 7.97199e-01 
 7.97208e-01 
 7.97217e-01 
 7.97228e-01 
 7.97241e-01 
 7.97255e-01 
 7.97272e-01 
 7.97290e-01 
 7.97312e-01 
 7.97337e-01 
 7.92300e-01 
 7.87266e-01 
 9.13902e-01 
 9.13886e-01 
 7.87243e-01 
 7.92281e-01 
 7.97320e-01 
 7.97297e-01 
 7.97278e-01 
 7.97261e-01 
 7.97246e-01 
 7.97233e-01 
 7.97222e-01 
 7.97212e-01 
 7.97204e-01 
 7.97196e-01 
 7.97190e-01 
 7.97185e-01 
 7.97180e-01 
 7.97177e-01 
 7.97174e-01 
 7.97173e-01 
 7.97167e-01 
 7.97167e-01 
 7.97173e-01 
 7.97174e-01 
 7.97177e-01 
 7.97180e-01 
 7.97184e-01 
 7.97190e-01 
 7.97196e-01 
 7.97203e-01 
 7.97211e-01 
 7.97221e-01 
 7.97232e-01 
 7.97245e-01 
 7.97259e-01 
 7.97276e-01 
 7.97296e-01 
 7.97318e-01 
 7.92278e-01 
 7.87242e-01 
 9.13893e-01 
 9.13878e-01 
 7.87219e-01 
 7.92260e-01 
 7.97302e-01 
 7.97282e-01 
 7.97264e-01 
 7.97249e-01 
 7.97236e-01 
 7.97225e-01 
 7.97215e-01 
 7.97207e-01 
 7.97199e-01 
 7.97193e-01 
 7.97187e-01 
 7.97183e-01 
 7.97179e-01 
 7.97176e-01 
 7.97173e-01 
 7.97172e-01 
 7.97166e-01 
 7.97166e-01 
 7.97172e-01 
 7.97173e-01 
 7.97175e-01 
 7.97178e-01 
 7.97182e-01 
 7.97187e-01 
 7.97192e-01 
 7.97199e-01 
 7.97206e-01 
 7.97214e-01 
 7.97224e-01 
 7.97235e-01 
 7.97248e-01 
 7.97263e-01 
 7.97280e-01 
 7.97300e-01 
 7.92258e-01 
 7.87218e-01 
 9.13882e-01 
 9.13867e-01 
 7.87196e-01 
 7.92240e-01 
 7.97285e-01 
 7.97267e-01 
 7.97251e-01 
 7.97238e-01 
 7.97227e-01 
 7.97217e-01 
 7.97209e-01 
 7.97201e-01 
 7.97195e-01 
 7.97189e-01 
 7.97185e-01 
 7.97181e-01 
 7.97177e-01 
 7.97174e-01 
 7.97172e-01 
 7.97171e-01 
 7.97166e-01 
 7.97166e-01 
 7.97171e-01 
 7.97172e-01 
 7.97174e-01 
 7.97177e-01 
 7.97180e-01 
 7.97184e-01 
 7.97189e-01 
 7.97194e-01 
 7.97201e-01 
 7.97208e-01 
 7.97216e-01 
 7.97226e-01 
 7.97237e-01 
 7.97250e-01 
 7.97265e-01 
 7.97283e-01 
 7.92237e-01 
 7.87195e-01 
 9.13873e-01 
 9.13859e-01 
 7.87174e-01 
 7.92220e-01 
 7.97268e-01 
 7.97252e-01 
 7.97239e-01 
 7.97227e-01 
 7.97218e-01 
 7.97210e-01 
 7.97202e-01 
 7.97196e-01 
 7.97191e-01 
 7.97186e-01 
 7.97182e-01 
 7.97179e-01 
 7.97176e-01 
 7.97173e-01 
 7.97171e-01 
 7.97170e-01 
 7.97165e-01 
 7.97165e-01 
 7.97170e-01 
 7.97171e-01 
 7.97173e-01 
 7.97175e-01 
 7.97178e-01 
 7.97182e-01 
 7.97186e-01 
 7.97190e-01 
 7.97196e-01 
 7.97202e-01 
 7.97209e-01 
 7.97217e-01 
 7.97226e-01 
 7.97237e-01 
 7.97251e-01 
 7.97266e-01 
 7.92218e-01 
 7.87173e-01 
 9.13862e-01 
 9.13848e-01 
 7.87152e-01 
 7.92202e-01 
 7.97252e-01 
 7.97238e-01 
 7.97227e-01 
 7.97217e-01 
 7.97209e-01 
 7.97202e-01 
 7.97197e-01 
 7.97191e-01 
 7.97187e-01 
 7.97183e-01 
 7.97179e-01 
 7.97176e-01 
 7.97174e-01 
 7.97172e-01 
 7.97170e-01 
 7.97169e-01 
 7.97164e-01 
 7.97164e-01 
 7.97169e-01 
 7.97170e-01 
 7.97172e-01 
 7.97174e-01 
 7.97176e-01 
 7.97179e-01 
 7.97183e-01 
 7.97186e-01 
 7.97191e-01 
 7.97196e-01 
 7.97201e-01 
 7.97208e-01 
 7.97216e-01 
 7.97225e-01 
 7.97237e-01 
 7.97250e-01 
 7.92199e-01 
 7.87151e-01 
 9.13854e-01 
 9.13841e-01 
 7.87131e-01 
 7.92183e-01 
 7.97236e-01 
 7.97225e-01 
 7.97215e-01 
 7.97207e-01 
 7.97201e-01 
 7.97196e-01 
 7.97191e-01 
 7.97187e-01 
 7.97183e-01 
 7.97180e-01 
 7.97177e-01 
 7.97174e-01 
 7.97172e-01 
 7.97170e-01 
 7.97169e-01 
 7.97168e-01 
 7.97163e-01 
 7.97163e-01 
 7.97168e-01 
 7.97169e-01 
 7.97170e-01 
 7.97172e-01 
 7.97174e-01 
 7.97177e-01 
 7.97179e-01 
 7.97183e-01 
 7.97186e-01 
 7.97190e-01 
 7.97195e-01 
 7.97200e-01 
 7.97206e-01 
 7.97214e-01 
 7.97223e-01 
 7.97235e-01 
 7.92181e-01 
 7.87130e-01 
 9.13844e-01 
 9.13834e-01 
 7.87116e-01 
 7.92171e-01 
 7.97227e-01 
 7.97217e-01 
 7.97209e-01 
 7.97203e-01 
 7.97198e-01 
 7.97194e-01 
 7.97191e-01 
 7.97188e-01 
 7.97185e-01 
 7.97182e-01 
 7.97180e-01 
 7.97178e-01 
 7.97176e-01 
 7.97174e-01 
 7.97173e-01 
 7.97172e-01 
 7.97167e-01 
 7.97167e-01 
 7.97172e-01 
 7.97173e-01 
 7.97174e-01 
 7.97175e-01 
 7.97177e-01 
 7.97180e-01 
 7.97182e-01 
 7.97184e-01 
 7.97187e-01 
 7.97190e-01 
 7.97193e-01 
 7.97197e-01 
 7.97202e-01 
 7.97208e-01 
 7.97216e-01 
 7.97225e-01 
 7.92169e-01 
 7.87115e-01 
 9.13838e-01 
 9.13823e-01 
 7.87092e-01 
 7.92149e-01 
 7.97207e-01 
 7.97200e-01 
 7.97194e-01 
 7.97190e-01 
 7.97186e-01 
 7.97183e-01 
 7.97181e-01 
 7.97179e-01 
 7.97177e-01 
 7.97174e-01 
 7.97172e-01 
 7.97171e-01 
 7.97169e-01 
 7.97167e-01 
 7.97166e-01 
 7.97166e-01 
 7.97160e-01 
 7.97160e-01 
 7.97166e-01 
 7.97166e-01 
 7.97167e-01 
 7.97169e-01 
 7.97170e-01 
 7.97172e-01 
 7.97174e-01 
 7.97176e-01 
 7.97178e-01 
 7.97180e-01 
 7.97182e-01 
 7.97185e-01 
 7.97188e-01 
 7.97193e-01 
 7.97198e-01 
 7.97206e-01 
 7.92147e-01 
 7.87091e-01 
 9.13828e-01 
 9.13816e-01 
 7.87073e-01 
 7.92133e-01 
 7.97194e-01 
 7.97188e-01 
 7.97184e-01 
 7.97182e-01 
 7.97180e-01 
 7.97178e-01 
 7.97177e-01 
 7.97175e-01 
 7.97174e-01 
 7.97172e-01 
 7.97170e-01 
 7.97169e-01 
 7.97167e-01 
 7.97166e-01 
 7.97165e-01 
 7.97164e-01 
 7.97159e-01 
 7.97159e-01 
 7.97164e-01 
 7.97165e-01 
 7.97166e-01 
 7.97167e-01 
 7.97169e-01 
 7.97170e-01 
 7.97172e-01 
 7.97173e-01 
 7.97175e-01 
 7.97176e-01 
 7.97177e-01 
 7.97178e-01 
 7.97180e-01 
 7.97183e-01 
 7.97187e-01 
 7.97193e-01 
 7.92131e-01 
 7.87072e-01 
 9.13819e-01 
 9.13807e-01 
 7.87056e-01 
 7.92118e-01 
 7.97181e-01 
 7.97178e-01 
 7.97175e-01 
 7.97174e-01 
 7.97173e-01 
 7.97173e-01 
 7.97173e-01 
 7.97172e-01 
 7.97171e-01 
 7.97170e-01 
 7.97169e-01 
 7.97167e-01 
 7.97166e-01 
 7.97164e-01 
 7.97163e-01 
 7.97163e-01 
 7.97157e-01 
 7.97157e-01 
 7.97163e-01 
 7.97163e-01 
 7.97164e-01 
 7.97166e-01 
 7.97167e-01 
 7.97168e-01 
 7.97170e-01 
 7.97171e-01 
 7.97171e-01 
 7.97172e-01 
 7.97172e-01 
 7.97172e-01 
 7.97173e-01 
 7.97174e-01 
 7.97176e-01 
 7.97180e-01 
 7.92116e-01 
 7.87055e-01 
 9.13813e-01 
 9.13802e-01 
 7.87039e-01 
 7.92103e-01 
 7.97169e-01 
 7.97167e-01 
 7.97167e-01 
 7.97167e-01 
 7.97167e-01 
 7.97168e-01 
 7.97169e-01 
 7.97169e-01 
 7.97168e-01 
 7.97168e-01 
 7.97167e-01 
 7.97165e-01 
 7.97164e-01 
 7.97163e-01 
 7.97162e-01 
 7.97161e-01 
 7.97156e-01 
 7.97156e-01 
 7.97161e-01 
 7.97162e-01 
 7.97163e-01 
 7.97164e-01 
 7.97165e-01 
 7.97167e-01 
 7.97167e-01 
 7.97168e-01 
 7.97168e-01 
 7.97168e-01 
 7.97167e-01 
 7.97167e-01 
 7.97166e-01 
 7.97165e-01 
 7.97166e-01 
 7.97168e-01 
 7.92101e-01 
 7.87038e-01 
 9.13804e-01 
 9.13793e-01 
 7.87023e-01 
 7.92090e-01 
 7.97158e-01 
 7.97158e-01 
 7.97158e-01 
 7.97160e-01 
 7.97162e-01 
 7.97164e-01 
 7.97165e-01 
 7.97166e-01 
 7.97166e-01 
 7.97166e-01 
 7.97165e-01 
 7.97164e-01 
 7.97162e-01 
 7.97161e-01 
 7.97160e-01 
 7.97160e-01 
 7.97154e-01 
 7.97154e-01 
 7.97160e-01 
 7.97160e-01 
 7.97161e-01 
 7.97162e-01 
 7.97164e-01 
 7.97165e-01 
 7.97165e-01 
 7.97166e-01 
 7.97165e-01 
 7.97164e-01 
 7.97163e-01 
 7.97161e-01 
 7.97159e-01 
 7.97157e-01 
 7.97156e-01 
 7.97156e-01 
 7.92087e-01 
 7.87022e-01 
 9.13799e-01 
 9.13788e-01 
 7.87007e-01 
 7.92076e-01 
 7.97147e-01 
 7.97148e-01 
 7.97151e-01 
 7.97154e-01 
 7.97157e-01 
 7.97160e-01 
 7.97162e-01 
 7.97163e-01 
 7.97164e-01 
 7.97164e-01 
 7.97163e-01 
 7.97162e-01 
 7.97161e-01 
 7.97159e-01 
 7.97158e-01 
 7.97158e-01 
 7.97152e-01 
 7.97152e-01 
 7.97158e-01 
 7.97158e-01 
 7.97159e-01 
 7.97161e-01 
 7.97162e-01 
 7.97163e-01 
 7.97163e-01 
 7.97163e-01 
 7.97163e-01 
 7.97161e-01 
 7.97159e-01 
 7.97156e-01 
 7.97153e-01 
 7.97150e-01 
 7.97147e-01 
 7.97146e-01 
 7.92075e-01 
 7.87007e-01 
 9.13790e-01 
 9.13781e-01 
 7.86993e-01 
 7.92064e-01 
 7.97137e-01 
 7.97140e-01 
 7.97144e-01 
 7.97148e-01 
 7.97152e-01 
 7.97156e-01 
 7.97159e-01 
 7.97161e-01 
 7.97162e-01 
 7.97162e-01 
 7.97161e-01 
 7.97160e-01 
 7.97159e-01 
 7.97158e-01 
 7.97157e-01 
 7.97156e-01 
 7.97151e-01 
 7.97151e-01 
 7.97156e-01 
 7.97157e-01 
 7.97158e-01 
 7.97159e-01 
 7.97160e-01 
 7.97161e-01 
 7.97162e-01 
 7.97161e-01 
 7.97160e-01 
 7.97158e-01 
 7.97155e-01 
 7.97151e-01 
 7.97147e-01 
 7.97143e-01 
 7.97139e-01 
 7.97136e-01 
 7.92062e-01 
 7.86992e-01 
 9.13786e-01 
 9.13777e-01 
 7.86979e-01 
 7.92053e-01 
 7.97127e-01 
 7.97132e-01 
 7.97137e-01 
 7.97143e-01 
 7.97148e-01 
 7.97152e-01 
 7.97156e-01 
 7.97158e-01 
 7.97160e-01 
 7.97160e-01 
 7.97160e-01 
 7.97159e-01 
 7.97157e-01 
 7.97156e-01 
 7.97155e-01 
 7.97154e-01 
 7.97149e-01 
 7.97149e-01 
 7.97154e-01 
 7.97155e-01 
 7.97156e-01 
 7.97157e-01 
 7.97159e-01 
 7.97160e-01 
 7.97160e-01 
 7.97159e-01 
 7.97158e-01 
 7.97155e-01 
 7.97151e-01 
 7.97147e-01 
 7.97142e-01 
 7.97136e-01 
 7.97131e-01 
 7.97126e-01 
 7.92051e-01 
 7.86979e-01 
 9.13778e-01 
 9.13770e-01 
 7.86967e-01 
 7.92042e-01 
 7.97118e-01 
 7.97124e-01 
 7.97131e-01 
 7.97137e-01 
 7.97143e-01 
 7.97149e-01 
 7.97153e-01 
 7.97156e-01 
 7.97158e-01 
 7.97158e-01 
 7.97158e-01 
 7.97157e-01 
 7.97156e-01 
 7.97154e-01 
 7.97153e-01 
 7.97153e-01 
 7.97147e-01 
 7.97147e-01 
 7.97153e-01 
 7.97153e-01 
 7.97154e-01 
 7.97156e-01 
 7.97157e-01 
 7.97158e-01 
 7.97158e-01 
 7.97157e-01 
 7.97156e-01 
 7.97152e-01 
 7.97148e-01 
 7.97142e-01 
 7.97136e-01 
 7.97130e-01 
 7.97123e-01 
 7.97117e-01 
 7.92040e-01 
 7.86967e-01 
 9.13774e-01 
 9.13767e-01 
 7.86955e-01 
 7.92032e-01 
 7.97110e-01 
 7.97117e-01 
 7.97124e-01 
 7.97132e-01 
 7.97139e-01 
 7.97145e-01 
 7.97150e-01 
 7.97154e-01 
 7.97156e-01 
 7.97157e-01 
 7.97156e-01 
 7.97155e-01 
 7.97154e-01 
 7.97153e-01 
 7.97152e-01 
 7.97151e-01 
 7.97146e-01 
 7.97146e-01 
 7.97151e-01 
 7.97152e-01 
 7.97153e-01 
 7.97154e-01 
 7.97155e-01 
 7.97156e-01 
 7.97156e-01 
 7.97156e-01 
 7.97153e-01 
 7.97150e-01 
 7.97145e-01 
 7.97138e-01 
 7.97131e-01 
 7.97124e-01 
 7.97116e-01 
 7.97109e-01 
 7.92031e-01 
 7.86955e-01 
 9.13768e-01 
 9.13764e-01 
 7.86951e-01 
 7.92028e-01 
 7.97108e-01 
 7.97115e-01 
 7.97124e-01 
 7.97132e-01 
 7.97140e-01 
 7.97147e-01 
 7.97153e-01 
 7.97157e-01 
 7.97159e-01 
 7.97160e-01 
 7.97160e-01 
 7.97159e-01 
 7.97158e-01 
 7.97157e-01 
 7.97156e-01 
 7.97156e-01 
 7.97151e-01 
 7.97151e-01 
 7.97156e-01 
 7.97156e-01 
 7.97157e-01 
 7.97158e-01 
 7.97159e-01 
 7.97160e-01 
 7.97160e-01 
 7.97159e-01 
 7.97157e-01 
 7.97152e-01 
 7.97147e-01 
 7.97139e-01 
 7.97131e-01 
 7.97123e-01 
 7.97115e-01 
 7.97107e-01 
 7.92028e-01 
 7.86951e-01 
 9.13766e-01 
 9.13758e-01 
 7.86937e-01 
 7.92015e-01 
 7.97095e-01 
 7.97104e-01 
 7.97113e-01 
 7.97122e-01 
 7.97131e-01 
 7.97139e-01 
 7.97145e-01 
 7.97150e-01 
 7.97153e-01 
 7.97154e-01 
 7.97154e-01 
 7.97153e-01 
 7.97152e-01 
 7.97152e-01 
 7.97151e-01 
 7.97151e-01 
 7.97146e-01 
 7.97146e-01 
 7.97151e-01 
 7.97151e-01 
 7.97151e-01 
 7.97152e-01 
 7.97153e-01 
 7.97154e-01 
 7.97154e-01 
 7.97152e-01 
 7.97149e-01 
 7.97145e-01 
 7.97138e-01 
 7.97130e-01 
 7.97121e-01 
 7.97112e-01 
 7.97103e-01 
 7.97095e-01 
 7.92015e-01 
 7.86937e-01 
 9.13761e-01 
 9.13756e-01 
 7.86929e-01 
 7.92008e-01 
 7.97089e-01 
 7.97098e-01 
 7.97107e-01 
 7.97117e-01 
 7.97127e-01 
 7.97136e-01 
 7.97143e-01 
 7.97148e-01 
 7.97152e-01 
 7.97153e-01 
 7.97153e-01 
 7.97153e-01 
 7.97152e-01 
 7.97152e-01 
 7.97152e-01 
 7.97152e-01 
 7.97147e-01 
 7.97147e-01 
 7.97152e-01 
 7.97151e-01 
 7.97151e-01 
 7.97152e-01 
 7.97153e-01 
 7.97153e-01 
 7.97153e-01 
 7.97151e-01 
 7.97148e-01 
 7.97142e-01 
 7.97135e-01 
 7.97126e-01 
 7.97117e-01 
 7.97107e-01 
 7.97097e-01 
 7.97089e-01 
 7.92008e-01 
 7.86930e-01 
 9.13756e-01 
 9.13752e-01 
 7.86923e-01 
 7.92002e-01 
 7.97083e-01 
 7.97092e-01 
 7.97102e-01 
 7.97112e-01 
 7.97123e-01 
 7.97132e-01 
 7.97141e-01 
 7.97147e-01 
 7.97151e-01 
 7.97152e-01 
 7.97153e-01 
 7.97153e-01 
 7.97153e-01 
 7.97154e-01 
 7.97154e-01 
 7.97155e-01 
 7.97150e-01 
 7.97150e-01 
 7.97154e-01 
 7.97153e-01 
 7.97153e-01 
 7.97152e-01 
 7.97152e-01 
 7.97153e-01 
 7.97152e-01 
 7.97150e-01 
 7.97146e-01 
 7.97140e-01 
 7.97131e-01 
 7.97122e-01 
 7.97112e-01 
 7.97101e-01 
 7.97092e-01 
 7.97083e-01 
 7.92002e-01 
 7.86924e-01 
 9.13755e-01 
 9.13752e-01 
 7.86918e-01 
 7.91997e-01 
 7.97077e-01 
 7.97086e-01 
 7.97096e-01 
 7.97107e-01 
 7.97118e-01 
 7.97129e-01 
 7.97138e-01 
 7.97145e-01 
 7.97150e-01 
 7.97152e-01 
 7.97153e-01 
 7.97154e-01 
 7.97155e-01 
 7.97157e-01 
 7.97159e-01 
 7.97160e-01 
 7.97156e-01 
 7.97155e-01 
 7.97159e-01 
 7.97157e-01 
 7.97155e-01 
 7.97154e-01 
 7.97153e-01 
 7.97152e-01 
 7.97152e-01 
 7.97149e-01 
 7.97144e-01 
 7.97137e-01 
 7.97128e-01 
 7.97117e-01 
 7.97106e-01 
 7.97096e-01 
 7.97086e-01 
 7.97078e-01 
 7.91998e-01 
 7.86919e-01 
 9.13752e-01 
 9.13750e-01 
 7.86915e-01 
 7.91993e-01 
 7.97072e-01 
 7.97080e-01 
 7.97089e-01 
 7.97101e-01 
 7.97113e-01 
 7.97125e-01 
 7.97136e-01 
 7.97144e-01 
 7.97149e-01 
 7.97152e-01 
 7.97154e-01 
 7.97156e-01 
 7.97159e-01 
 7.97162e-01 
 7.97166e-01 
 7.97168e-01 
 7.97165e-01 
 7.97164e-01 
 7.97167e-01 
 7.97164e-01 
 7.97160e-01 
 7.97157e-01 
 7.97154e-01 
 7.97153e-01 
 7.97152e-01 
 7.97149e-01 
 7.97143e-01 
 7.97134e-01 
 7.97123e-01 
 7.97112e-01 
 7.97100e-01 
 7.97090e-01 
 7.97081e-01 
 7.97073e-01 
 7.91993e-01 
 7.86916e-01 
 9.13752e-01 
 9.13750e-01 
 7.86912e-01 
 7.91989e-01 
 7.97068e-01 
 7.97074e-01 
 7.97083e-01 
 7.97094e-01 
 7.97107e-01 
 7.97120e-01 
 7.97133e-01 
 7.97143e-01 
 7.97150e-01 
 7.97154e-01 
 7.97157e-01 
 7.97161e-01 
 7.97166e-01 
 7.97172e-01 
 7.97177e-01 
 7.97181e-01 
 7.97178e-01 
 7.97178e-01 
 7.97180e-01 
 7.97175e-01 
 7.97169e-01 
 7.97163e-01 
 7.97158e-01 
 7.97155e-01 
 7.97153e-01 
 7.97149e-01 
 7.97142e-01 
 7.97131e-01 
 7.97119e-01 
 7.97106e-01 
 7.97094e-01 
 7.97084e-01 
 7.97075e-01 
 7.97069e-01 
 7.91990e-01 
 7.86913e-01 
 9.13749e-01 
 9.13749e-01 
 7.86911e-01 
 7.91987e-01 
 7.97064e-01 
 7.97069e-01 
 7.97077e-01 
 7.97087e-01 
 7.97100e-01 
 7.97115e-01 
 7.97131e-01 
 7.97144e-01 
 7.97153e-01 
 7.97158e-01 
 7.97164e-01 
 7.97171e-01 
 7.97179e-01 
 7.97187e-01 
 7.97195e-01 
 7.97200e-01 
 7.97198e-01 
 7.97197e-01 
 7.97199e-01 
 7.97193e-01 
 7.97185e-01 
 7.97176e-01 
 7.97167e-01 
 7.97161e-01 
 7.97157e-01 
 7.97151e-01 
 7.97141e-01 
 7.97128e-01 
 7.97113e-01 
 7.97099e-01 
 7.97087e-01 
 7.97078e-01 
 7.97070e-01 
 7.97065e-01 
 7.91987e-01 
 7.86912e-01 
 9.13750e-01 
 9.13750e-01 
 7.86910e-01 
 7.91985e-01 
 7.97061e-01 
 7.97065e-01 
 7.97071e-01 
 7.97080e-01 
 7.97092e-01 
 7.97109e-01 
 7.97129e-01 
 7.97148e-01 
 7.97162e-01 
 7.97170e-01 
 7.97179e-01 
 7.97190e-01 
 7.97201e-01 
 7.97212e-01 
 7.97221e-01 
 7.97227e-01 
 7.97225e-01 
 7.97226e-01 
 7.97227e-01 
 7.97221e-01 
 7.97211e-01 
 7.97200e-01 
 7.97187e-01 
 7.97175e-01 
 7.97167e-01 
 7.97157e-01 
 7.97142e-01 
 7.97124e-01 
 7.97107e-01 
 7.97092e-01 
 7.97081e-01 
 7.97072e-01 
 7.97066e-01 
 7.97062e-01 
 7.91986e-01 
 7.86911e-01 
 9.13749e-01 
 9.08997e-01 
 7.81554e-01 
 7.86910e-01 
 7.91985e-01 
 7.91987e-01 
 7.91992e-01 
 7.91999e-01 
 7.92011e-01 
 7.92029e-01 
 7.92056e-01 
 7.92096e-01 
 7.92125e-01 
 7.92136e-01 
 7.92147e-01 
 7.92160e-01 
 7.92172e-01 
 7.92183e-01 
 7.92192e-01 
 7.92198e-01 
 7.92196e-01 
 7.92197e-01 
 7.92199e-01 
 7.92194e-01 
 7.92186e-01 
 7.92176e-01 
 7.92163e-01 
 7.92152e-01 
 7.92132e-01 
 7.92101e-01 
 7.92073e-01 
 7.92047e-01 
 7.92026e-01 
 7.92011e-01 
 7.92000e-01 
 7.91993e-01 
 7.91988e-01 
 7.91986e-01 
 7.87269e-01 
 7.84348e-01 
 9.13558e-01 
 9.05374e-01 
 7.72414e-01 
 7.81554e-01 
 7.86910e-01 
 7.86911e-01 
 7.86914e-01 
 7.86919e-01 
 7.86929e-01 
 7.86947e-01 
 7.86980e-01 
 7.87044e-01 
 7.87131e-01 
 7.87144e-01 
 7.87145e-01 
 7.87152e-01 
 7.87160e-01 
 7.87166e-01 
 7.87171e-01 
 7.87175e-01 
 7.87172e-01 
 7.87173e-01 
 7.87177e-01 
 7.87175e-01 
 7.87172e-01 
 7.87169e-01 
 7.87167e-01 
 7.87172e-01 
 7.87167e-01 
 7.87082e-01 
 7.87014e-01 
 7.86972e-01 
 7.86946e-01 
 7.86930e-01 
 7.86920e-01 
 7.86915e-01 
 7.86912e-01 
 7.86911e-01 
 7.84348e-01 
 7.80760e-01 
 9.11724e-01 
 9.77049e-01 
 9.05376e-01 
 9.09000e-01 
 9.13751e-01 
 9.13752e-01 
 9.13752e-01 
 9.13754e-01 
 9.13757e-01 
 9.13762e-01 
 9.13774e-01 
 9.13800e-01 
 9.13847e-01 
 9.13874e-01 
 9.13865e-01 
 9.13863e-01 
 9.13864e-01 
 9.13865e-01 
 9.13866e-01 
 9.13867e-01 
 9.13866e-01 
 9.13865e-01 
 9.13868e-01 
 9.13868e-01 
 9.13868e-01 
 9.13868e-01 
 9.13870e-01 
 9.13877e-01 
 9.13891e-01 
 9.13865e-01 
 9.13812e-01 
 9.13782e-01 
 9.13767e-01 
 9.13759e-01 
 9.13755e-01 
 9.13753e-01 
 9.13752e-01 
 9.13752e-01 
 9.13559e-01 
 9.11727e-01 
 9.47703e-01 </DataArray>
            <DataArray Name="compliance" NumberOfComponents="1" format="ascii" type="Float64">
 1.49989e+01 
 5.98644e+00 
 4.90591e+00 
 3.74846e+00 
 3.06258e+00 
 2.52030e+00 
 2.08266e+00 
 1.71798e+00 
 1.40836e+00 
 1.14307e+00 
 9.14940e-01 
 7.18965e-01 
 5.51557e-01 
 4.10060e-01 
 2.92478e-01 
 1.97303e-01 
 1.23405e-01 
 6.99546e-02 
 3.63774e-02 
 2.23213e-02 
 2.76395e-02 
 5.23814e-02 
 9.67976e-02 
 1.61349e-01 
 2.46734e-01 
 3.53922e-01 
 4.84220e-01 
 6.39355e-01 
 8.21619e-01 
 1.03408e+00 
 1.28097e+00 
 1.56826e+00 
 1.90493e+00 
 2.30544e+00 
 2.79377e+00 
 3.43480e+00 
 4.23124e+00 
 5.53353e+00 
 9.64179e+00 
 2.18136e+01 
 1.32902e+01 
 9.13879e+00 
 5.54059e+00 
 4.31401e+00 
 3.50323e+00 
 2.86857e+00 
 2.36979e+00 
 1.95659e+00 
 1.60819e+00 
 1.31082e+00 
 1.05558e+00 
 8.36382e-01 
 6.48866e-01 
 4.89844e-01 
 3.56933e-01 
 2.48333e-01 
 1.62693e-01 
 9.90142e-02 
 5.65892e-02 
 3.49639e-02 
 3.39133e-02 
 5.34286e-02 
 9.37198e-02 
 1.55224e-01 
 2.38629e-01 
 3.44914e-01 
 4.75409e-01 
 6.31887e-01 
 8.16708e-01 
 1.03304e+00 
 1.28522e+00 
 1.57936e+00 
 1.92438e+00 
 2.33390e+00 
 2.83026e+00 
 3.44754e+00 
 4.23764e+00 
 5.37700e+00 
 6.98147e+00 
 1.20407e+01 
 8.89219e+00 
 7.37518e+00 
 6.06882e+00 
 4.94278e+00 
 3.99652e+00 
 3.27326e+00 
 2.69788e+00 
 2.22286e+00 
 1.82469e+00 
 1.48653e+00 
 1.19772e+00 
 9.50788e-01 
 7.40402e-01 
 5.62649e-01 
 4.14610e-01 
 2.94091e-01 
 1.99448e-01 
 1.29473e-01 
 8.33130e-02 
 6.04263e-02 
 6.05489e-02 
 8.36802e-02 
 1.30087e-01 
 2.00315e-01 
 2.95216e-01 
 4.16003e-01 
 5.64324e-01 
 7.42381e-01 
 9.53098e-01 
 1.20040e+00 
 1.48959e+00 
 1.82807e+00 
 2.22622e+00 
 2.69934e+00 
 3.26909e+00 
 3.96973e+00 
 4.83441e+00 
 5.87316e+00 
 7.73467e+00 
 1.06763e+01 
 7.83192e+00 
 6.98229e+00 
 5.85112e+00 
 4.92300e+00 
 4.09088e+00 
 3.38406e+00 
 2.79951e+00 
 2.31261e+00 
 1.90224e+00 
 1.55328e+00 
 1.25536e+00 
 1.00089e+00 
 7.84347e-01 
 6.01604e-01 
 4.49556e-01 
 3.25858e-01 
 2.28744e-01 
 1.56912e-01 
 1.09443e-01 
 8.57500e-02 
 8.55470e-02 
 1.08830e-01 
 1.55883e-01 
 2.27287e-01 
 3.23955e-01 
 4.47179e-01 
 5.98710e-01 
 7.80872e-01 
 9.96719e-01 
 1.25028e+00 
 1.54685e+00 
 1.89354e+00 
 2.29971e+00 
 2.77796e+00 
 3.34377e+00 
 4.01802e+00 
 4.79696e+00 
 5.66067e+00 
 7.04949e+00 
 8.46623e+00 
 7.22864e+00 
 6.32180e+00 
 5.39787e+00 
 4.76181e+00 
 4.06972e+00 
 3.41399e+00 
 2.85003e+00 
 2.36789e+00 
 1.95577e+00 
 1.60294e+00 
 1.30061e+00 
 1.04195e+00 
 8.21710e-01 
 6.35850e-01 
 4.81263e-01 
 3.55564e-01 
 2.56939e-01 
 1.84042e-01 
 1.35921e-01 
 1.11963e-01 
 1.11870e-01 
 1.35636e-01 
 1.83557e-01 
 2.56237e-01 
 3.54616e-01 
 4.80023e-01 
 6.34239e-01 
 8.19594e-01 
 1.03909e+00 
 1.29658e+00 
 1.59695e+00 
 1.94635e+00 
 2.35231e+00 
 2.82384e+00 
 3.36976e+00 
 3.99909e+00 
 4.68864e+00 
 5.39429e+00 
 6.48697e+00 
 7.59868e+00 
 6.84800e+00 
 5.93209e+00 
 5.12177e+00 
 4.59449e+00 
 3.99540e+00 
 3.40697e+00 
 2.87704e+00 
 2.40934e+00 
 2.00228e+00 
 1.64971e+00 
 1.34542e+00 
 1.08391e+00 
 8.60637e-01 
 6.71896e-01 
 5.14752e-01 
 3.86892e-01 
 2.86532e-01 
 2.12329e-01 
 1.63325e-01 
 1.38901e-01 
 1.38752e-01 
 1.62870e-01 
 2.11552e-01 
 2.85401e-01 
 3.85355e-01 
 5.12722e-01 
 6.69235e-01 
 8.57118e-01 
 1.07917e+00 
 1.33883e+00 
 1.64027e+00 
 1.98840e+00 
 2.38860e+00 
 2.84638e+00 
 3.36505e+00 
 3.94562e+00 
 4.55432e+00 
 5.14275e+00 
 6.07296e+00 
 7.08020e+00 
 6.58070e+00 
 5.62926e+00 
 4.85982e+00 
 4.40228e+00 
 3.88371e+00 
 3.35592e+00 
 2.86414e+00 
 2.41929e+00 
 2.02471e+00 
 1.67831e+00 
 1.37661e+00 
 1.11570e+00 
 8.91976e-01 
 7.02304e-01 
 5.44070e-01 
 4.15151e-01 
 3.13868e-01 
 2.38940e-01 
 1.89439e-01 
 1.64762e-01 
 1.64609e-01 
 1.88971e-01 
 2.38134e-01 
 3.12679e-01 
 4.13503e-01 
 5.41845e-01 
 6.99319e-01 
 8.87947e-01 
 1.11019e+00 
 1.36897e+00 
 1.66761e+00 
 2.00970e+00 
 2.39866e+00 
 2.83713e+00 
 3.32464e+00 
 3.85773e+00 
 4.39951e+00 
 4.90672e+00 
 5.74265e+00 
 6.73336e+00 
 6.36671e+00 
 5.38916e+00 
 4.64518e+00 
 4.22909e+00 
 3.76158e+00 
 3.28029e+00 
 2.82505e+00 
 2.40566e+00 
 2.02747e+00 
 1.69120e+00 
 1.39550e+00 
 1.13795e+00 
 9.15962e-01 
 7.27048e-01 
 5.69013e-01 
 4.40001e-01 
 3.38501e-01 
 2.63337e-01 
 2.13644e-01 
 1.88855e-01 
 1.88684e-01 
 2.13119e-01 
 2.62427e-01 
 3.37150e-01 
 4.38116e-01 
 5.66456e-01 
 7.23612e-01 
 9.11352e-01 
 1.13175e+00 
 1.38715e+00 
 1.68005e+00 
 2.01286e+00 
 2.38742e+00 
 2.80436e+00 
 3.26101e+00 
 3.75209e+00 
 4.24181e+00 
 4.69457e+00 
 5.47733e+00 
 6.47230e+00 
 6.18238e+00 
 5.18940e+00 
 4.46019e+00 
 4.06809e+00 
 3.63624e+00 
 3.19197e+00 
 2.76852e+00 
 2.37374e+00 
 2.01346e+00 
 1.68969e+00 
 1.40243e+00 
 1.15047e+00 
 9.32099e-01 
 7.45489e-01 
 5.88888e-01 
 4.60743e-01 
 3.59750e-01 
 2.84866e-01 
 2.35315e-01 
 2.10579e-01 
 2.10395e-01 
 2.34749e-01 
 2.83884e-01 
 3.58288e-01 
 4.58704e-01 
 5.86128e-01 
 7.41810e-01 
 9.27237e-01 
 1.14409e+00 
 1.39418e+00 
 1.67926e+00 
 2.00081e+00 
 2.35952e+00 
 2.75479e+00 
 3.18297e+00 
 3.63864e+00 
 4.08893e+00 
 4.50582e+00 
 5.25687e+00 
 6.25807e+00 
 6.01475e+00 
 5.01552e+00 
 4.29767e+00 
 3.92126e+00 
 3.51474e+00 
 3.09874e+00 
 2.70170e+00 
 2.32933e+00 
 1.98681e+00 
 1.67647e+00 
 1.39906e+00 
 1.15421e+00 
 9.40889e-01 
 7.57832e-01 
 6.03707e-01 
 4.77269e-01 
 3.77429e-01 
 3.03295e-01 
 2.54192e-01 
 2.29660e-01 
 2.29466e-01 
 2.53596e-01 
 3.02263e-01 
 3.75896e-01 
 4.75142e-01 
 6.00858e-01 
 7.54095e-01 
 9.36066e-01 
 1.14809e+00 
 1.39151e+00 
 1.66749e+00 
 1.97681e+00 
 2.31944e+00 
 2.69414e+00 
 3.09707e+00 
 3.52358e+00 
 3.94422e+00 
 4.33719e+00 
 5.06733e+00 
 6.07093e+00 
 5.85688e+00 
 4.85883e+00 
 4.15148e+00 
 3.78604e+00 
 3.39821e+00 
 3.00443e+00 
 2.62938e+00 
 2.27682e+00 
 1.95100e+00 
 1.65410e+00 
 1.38720e+00 
 1.15036e+00 
 9.43083e-01 
 7.64520e-01 
 6.13704e-01 
 4.89670e-01 
 3.91537e-01 
 3.18566e-01 
 2.70182e-01 
 2.45992e-01 
 2.45793e-01 
 2.69571e-01 
 3.17512e-01 
 3.89983e-01 
 4.87536e-01 
 6.10889e-01 
 7.60905e-01 
 9.38553e-01 
 1.14484e+00 
 1.38072e+00 
 1.64693e+00 
 1.94378e+00 
 2.27081e+00 
 2.62660e+00 
 3.00758e+00 
 3.41018e+00 
 3.80824e+00 
 4.18461e+00 
 4.89887e+00 
 5.89973e+00 
 5.70487e+00 
 4.71365e+00 
 4.01713e+00 
 3.66034e+00 
 3.28715e+00 
 2.91131e+00 
 2.55467e+00 
 2.21943e+00 
 1.90893e+00 
 1.62498e+00 
 1.36866e+00 
 1.14029e+00 
 9.39655e-01 
 7.66236e-01 
 6.19348e-01 
 4.98262e-01 
 4.02285e-01 
 3.30817e-01 
 2.83383e-01 
 2.59653e-01 
 2.59456e-01 
 2.82778e-01 
 3.29779e-01 
 4.00769e-01 
 4.96208e-01 
 6.16689e-01 
 7.62907e-01 
 9.35621e-01 
 1.13559e+00 
 1.36346e+00 
 1.61967e+00 
 1.90426e+00 
 2.21658e+00 
 2.55525e+00 
 2.91724e+00 
 3.30010e+00 
 3.68046e+00 
 4.04453e+00 
 4.74487e+00 
 5.73821e+00 
 5.55633e+00 
 4.57636e+00 
 3.89148e+00 
 3.54225e+00 
 3.18122e+00 
 2.82037e+00 
 2.47942e+00 
 2.15941e+00 
 1.86282e+00 
 1.59108e+00 
 1.34511e+00 
 1.12530e+00 
 9.31618e-01 
 7.63745e-01 
 6.21211e-01 
 5.03473e-01 
 4.09994e-01 
 3.40298e-01 
 2.93998e-01 
 2.70824e-01 
 2.70634e-01 
 2.93417e-01 
 3.39308e-01 
 4.08566e-01 
 5.01569e-01 
 6.18799e-01 
 7.60812e-01 
 9.28194e-01 
 1.12150e+00 
 1.34119e+00 
 1.58748e+00 
 1.86028e+00 
 2.15891e+00 
 2.48219e+00 
 2.82765e+00 
 3.19389e+00 
 3.55983e+00 
 3.91400e+00 
 4.60091e+00 
 5.58269e+00 
 5.40988e+00 
 4.44453e+00 
 3.77225e+00 
 3.43020e+00 
 3.07985e+00 
 2.73200e+00 
 2.40474e+00 
 2.09824e+00 
 1.81432e+00 
 1.55396e+00 
 1.31793e+00 
 1.10658e+00 
 9.19933e-01 
 7.57818e-01 
 6.19901e-01 
 5.05780e-01 
 4.15046e-01 
 3.47320e-01 
 3.02294e-01 
 2.79750e-01 
 2.79572e-01 
 3.01752e-01 
 3.46403e-01 
 4.13739e-01 
 5.04071e-01 
 6.17787e-01 
 7.55328e-01 
 9.17147e-01 
 1.10366e+00 
 1.31517e+00 
 1.55180e+00 
 1.81339e+00 
 2.09935e+00 
 2.40875e+00 
 2.73968e+00 
 3.09157e+00 
 3.44522e+00 
 3.79072e+00 
 4.46397e+00 
 5.43100e+00 
 5.26467e+00 
 4.31655e+00 
 3.65782e+00 
 3.32294e+00 
 2.98240e+00 
 2.64622e+00 
 2.33119e+00 
 2.03688e+00 
 1.76453e+00 
 1.51480e+00 
 1.28824e+00 
 1.08510e+00 
 9.05451e-01 
 7.49165e-01 
 6.16005e-01 
 5.05671e-01 
 4.17844e-01 
 3.52230e-01 
 3.08581e-01 
 2.86722e-01 
 2.86561e-01 
 3.08091e-01 
 3.51409e-01 
 4.16692e-01 
 5.04192e-01 
 6.14225e-01 
 7.47142e-01 
 9.03297e-01 
 1.08300e+00 
 1.28648e+00 
 1.51380e+00 
 1.76480e+00 
 2.03902e+00 
 2.33580e+00 
 2.65374e+00 
 2.99291e+00 
 3.33560e+00 
 3.67299e+00 
 4.33205e+00 
 5.28176e+00 
 5.12032e+00 
 4.19145e+00 
 3.54711e+00 
 3.21956e+00 
 2.88836e+00 
 2.56295e+00 
 2.25912e+00 
 1.97595e+00 
 1.71430e+00 
 1.47450e+00 
 1.25692e+00 
 1.06171e+00 
 8.88914e-01 
 7.38429e-01 
 6.10071e-01 
 5.03606e-01 
 4.18783e-01 
 3.55367e-01 
 3.13161e-01 
 2.92024e-01 
 2.91880e-01 
 3.12728e-01 
 3.54649e-01 
 4.17790e-01 
 5.02359e-01 
 6.08614e-01 
 7.36840e-01 
 8.87319e-01 
 1.06030e+00 
 1.25596e+00 
 1.47434e+00 
 1.71535e+00 
 1.97866e+00 
 2.26386e+00 
 2.56996e+00 
 2.89756e+00 
 3.23011e+00 
 3.55955e+00 
 4.20381e+00 
 5.13420e+00 
 4.97655e+00 
 4.06852e+00 
 3.43930e+00 
 3.11933e+00 
 2.79723e+00 
 2.48202e+00 
 2.18861e+00 
 1.91581e+00 
 1.66413e+00 
 1.43368e+00 
 1.22463e+00 
 1.03705e+00 
 8.70921e-01 
 7.26150e-01 
 6.02576e-01 
 5.00004e-01 
 4.18230e-01 
 3.57061e-01 
 3.16338e-01 
 2.95945e-01 
 2.95821e-01 
 3.15968e-01 
 3.56454e-01 
 4.17404e-01 
 4.98992e-01 
 6.01433e-01 
 7.24963e-01 
 8.69820e-01 
 1.03621e+00 
 1.22429e+00 
 1.43413e+00 
 1.66569e+00 
 1.91879e+00 
 2.19323e+00 
 2.48837e+00 
 2.80517e+00 
 3.12807e+00 
 3.44954e+00 
 4.07841e+00 
 4.98792e+00 
 4.83337e+00 
 3.94737e+00 
 3.33388e+00 
 3.02176e+00 
 2.70865e+00 
 2.40325e+00 
 2.11973e+00 
 1.85670e+00 
 1.61442e+00 
 1.39280e+00 
 1.19188e+00 
 1.01162e+00 
 8.51960e-01 
 7.12779e-01 
 5.93925e-01 
 4.95225e-01 
 4.16504e-01 
 3.57598e-01 
 3.18373e-01 
 2.98733e-01 
 2.98628e-01 
 3.18061e-01 
 3.57093e-01 
 4.15830e-01 
 4.94422e-01 
 5.93053e-01 
 7.11927e-01 
 8.51253e-01 
 1.01122e+00 
 1.19198e+00 
 1.39364e+00 
 1.61623e+00 
 1.85969e+00 
 2.12403e+00 
 2.40885e+00 
 2.71540e+00 
 3.02892e+00 
 3.34229e+00 
 3.95525e+00 
 4.84267e+00 
 4.69076e+00 
 3.82772e+00 
 3.23045e+00 
 2.92643e+00 
 2.62229e+00 
 2.32644e+00 
 2.05243e+00 
 1.79872e+00 
 1.56538e+00 
 1.35217e+00 
 1.15902e+00 
 9.85810e-01 
 8.32407e-01 
 6.98674e-01 
 5.84452e-01 
 4.89576e-01 
 4.13886e-01 
 3.57236e-01 
 3.19511e-01 
 3.00626e-01 
 3.00541e-01 
 3.19257e-01 
 3.56831e-01 
 4.13356e-01 
 4.88965e-01 
 5.83821e-01 
 6.98110e-01 
 8.32022e-01 
 9.85745e-01 
 1.15944e+00 
 1.35325e+00 
 1.56729e+00 
 1.80159e+00 
 2.05633e+00 
 2.33133e+00 
 2.62799e+00 
 2.93227e+00 
 3.23738e+00 
 3.83400e+00 
 4.69842e+00 
 4.54888e+00 
 3.70946e+00 
 3.12878e+00 
 2.83310e+00 
 2.53793e+00 
 2.25146e+00 
 1.98667e+00 
 1.74192e+00 
 1.51715e+00 
 1.31202e+00 
 1.12633e+00 
 9.59903e-01 
 8.12557e-01 
 6.84123e-01 
 5.74428e-01 
 4.83306e-01 
 4.10604e-01 
 3.56186e-01 
 3.19946e-01 
 3.01811e-01 
 3.01742e-01 
 3.19744e-01 
 3.55866e-01 
 4.10195e-01 
 4.82852e-01 
 5.73988e-01 
 6.83777e-01 
 8.12406e-01 
 9.60063e-01 
 1.12694e+00 
 1.31320e+00 
 1.51903e+00 
 1.74457e+00 
 1.99012e+00 
 2.25564e+00 
 2.54268e+00 
 2.83780e+00 
 3.13447e+00 
 3.71441e+00 
 4.55514e+00 
 4.40780e+00 
 3.59250e+00 
 3.02870e+00 
 2.74152e+00 
 2.45536e+00 
 2.17815e+00 
 1.92236e+00 
 1.68630e+00 
 1.46982e+00 
 1.27246e+00 
 1.09397e+00 
 9.34101e-01 
 7.92625e-01 
 6.69342e-01 
 5.64064e-01 
 4.76618e-01 
 4.06851e-01 
 3.54631e-01 
 3.19858e-01 
 3.02462e-01 
 3.02409e-01 
 3.19702e-01 
 3.54389e-01 
 4.06551e-01 
 4.76301e-01 
 5.63786e-01 
 6.69174e-01 
 7.92653e-01 
 9.34422e-01 
 1.09469e+00 
 1.27367e+00 
 1.47160e+00 
 1.68871e+00 
 1.92538e+00 
 2.18171e+00 
 2.45930e+00 
 2.74529e+00 
 3.03337e+00 
 3.59638e+00 
 4.41296e+00 
 4.26770e+00 
 3.47685e+00 
 2.93011e+00 
 2.65159e+00 
 2.37445e+00 
 2.10642e+00 
 1.85946e+00 
 1.63188e+00 
 1.42342e+00 
 1.23360e+00 
 1.06208e+00 
 9.08557e-01 
 7.72773e-01 
 6.54497e-01 
 5.53523e-01 
 4.69668e-01 
 4.02774e-01 
 3.52710e-01 
 3.19376e-01 
 3.02706e-01 
 3.02665e-01 
 3.19257e-01 
 3.52529e-01 
 4.02558e-01 
 4.69455e-01 
 5.53363e-01 
 6.54452e-01 
 7.72914e-01 
 9.08963e-01 
 1.06283e+00 
 1.23477e+00 
 1.42506e+00 
 1.63400e+00 
 1.86204e+00 
 2.10938e+00 
 2.37767e+00 
 2.65454e+00 
 2.93392e+00 
 3.47983e+00 
 4.27194e+00 
 4.12877e+00 
 3.36251e+00 
 2.83295e+00 
 2.56321e+00 
 2.29510e+00 
 2.03617e+00 
 1.79790e+00 
 1.57861e+00 
 1.37799e+00 
 1.19549e+00 
 1.03073e+00 
 8.83372e-01 
 7.53119e-01 
 6.39714e-01 
 5.42934e-01 
 4.62583e-01 
 3.98497e-01 
 3.50543e-01 
 3.18619e-01 
 3.02659e-01 
 3.02630e-01 
 3.18533e-01 
 3.50415e-01 
 3.98353e-01 
 4.62455e-01 
 5.42867e-01 
 6.39760e-01 
 7.53337e-01 
 8.83824e-01 
 1.03148e+00 
 1.19658e+00 
 1.37945e+00 
 1.58046e+00 
 1.80009e+00 
 2.03862e+00 
 2.29771e+00 
 2.56548e+00 
 2.83606e+00 
 3.36476e+00 
 4.13223e+00 
 3.99114e+00 
 3.24958e+00 
 2.73723e+00 
 2.47631e+00 
 2.21723e+00 
 1.96733e+00 
 1.73764e+00 
 1.52648e+00 
 1.33351e+00 
 1.15815e+00 
 9.99981e-01 
 8.58620e-01 
 7.33748e-01 
 6.25086e-01 
 5.32391e-01 
 4.55458e-01 
 3.94114e-01 
 3.48221e-01 
 3.17675e-01 
 3.02409e-01 
 3.02389e-01 
 3.17615e-01 
 3.48135e-01 
 3.94024e-01 
 4.55394e-01 
 5.32390e-01 
 6.25192e-01 
 7.34009e-01 
 8.59084e-01 
 1.00069e+00 
 1.15915e+00 
 1.33480e+00 
 1.52806e+00 
 1.73947e+00 
 1.96933e+00 
 2.21933e+00 
 2.47803e+00 
 2.73975e+00 
 3.25122e+00 
 3.99394e+00 
 3.85497e+00 
 3.13807e+00 
 2.64292e+00 
 2.39087e+00 
 2.14081e+00 
 1.89985e+00 
 1.67862e+00 
 1.47546e+00 
 1.28999e+00 
 1.12161e+00 
 9.69861e-01 
 8.34345e-01 
 7.14715e-01 
 6.10673e-01 
 5.21960e-01 
 4.48360e-01 
 3.89691e-01 
 3.45809e-01 
 3.16609e-01 
 3.02019e-01 
 3.02005e-01 
 3.16568e-01 
 3.45754e-01 
 3.89640e-01 
 4.48339e-01 
 5.22001e-01 
 6.10810e-01 
 7.14988e-01 
 8.34789e-01 
 9.70509e-01 
 1.12248e+00 
 1.29110e+00 
 1.47678e+00 
 1.68012e+00 
 1.90145e+00 
 2.14244e+00 
 2.39210e+00 
 2.64495e+00 
 3.13921e+00 
 3.85725e+00 
 3.72036e+00 
 3.02803e+00 
 2.55002e+00 
 2.30683e+00 
 2.06574e+00 
 1.83366e+00 
 1.62079e+00 
 1.42550e+00 
 1.24740e+00 
 1.08584e+00 
 9.40373e-01 
 8.10565e-01 
 6.96051e-01 
 5.96515e-01 
 5.11687e-01 
 4.41339e-01 
 3.85280e-01 
 3.43362e-01 
 3.15476e-01 
 3.01546e-01 
 3.01538e-01 
 3.15451e-01 
 3.43333e-01 
 3.85261e-01 
 4.41352e-01 
 5.11758e-01 
 5.96673e-01 
 6.96325e-01 
 8.10983e-01 
 9.40958e-01 
 1.08660e+00 
 1.24834e+00 
 1.42660e+00 
 1.62201e+00 
 1.83494e+00 
 2.06701e+00 
 2.30768e+00 
 2.55165e+00 
 3.02878e+00 
 3.72223e+00 
 3.58750e+00 
 2.91956e+00 
 2.45856e+00 
 2.22422e+00 
 1.99205e+00 
 1.76876e+00 
 1.56414e+00 
 1.37660e+00 
 1.20572e+00 
 1.05086e+00 
 9.11534e-01 
 7.87302e-01 
 6.77782e-01 
 5.82645e-01 
 5.01606e-01 
 4.34429e-01 
 3.80917e-01 
 3.40915e-01 
 3.14309e-01 
 3.01022e-01 
 3.01017e-01 
 3.14294e-01 
 3.40901e-01 
 3.80916e-01 
 4.34459e-01 
 5.01688e-01 
 5.82801e-01 
 6.78036e-01 
 7.87673e-01 
 9.12037e-01 
 1.05150e+00 
 1.20649e+00 
 1.37749e+00 
 1.56510e+00 
 1.76973e+00 
 1.99299e+00 
 2.22473e+00 
 2.45985e+00 
 2.91996e+00 
 3.58899e+00 
 3.45645e+00 
 2.81268e+00 
 2.36856e+00 
 2.14301e+00 
 1.91969e+00 
 1.70509e+00 
 1.50862e+00 
 1.32871e+00 
 1.16494e+00 
 1.01664e+00 
 8.83333e-01 
 7.64556e-01 
 6.59919e-01 
 5.69077e-01 
 4.91740e-01 
 4.27659e-01 
 3.76633e-01 
 3.38500e-01 
 3.13143e-01 
 3.00483e-01 
 3.00481e-01 
 3.13138e-01 
 3.38499e-01 
 3.76647e-01 
 4.27703e-01 
 4.91829e-01 
 5.69231e-01 
 6.60153e-01 
 7.64886e-01 
 8.83766e-01 
 1.01718e+00 
 1.16557e+00 
 1.32942e+00 
 1.50937e+00 
 1.70583e+00 
 1.92037e+00 
 2.14326e+00 
 2.36958e+00 
 2.81283e+00 
 3.45767e+00 
 3.32737e+00 
 2.70750e+00 
 2.28006e+00 
 2.06323e+00 
 1.84868e+00 
 1.64267e+00 
 1.45423e+00 
 1.28184e+00 
 1.12504e+00 
 9.83183e-01 
 8.55770e-01 
 7.42333e-01 
 6.42468e-01 
 5.55824e-01 
 4.82099e-01 
 4.21041e-01 
 3.72439e-01 
 3.36130e-01 
 3.11991e-01 
 2.99942e-01 
 2.99941e-01 
 3.11990e-01 
 3.36134e-01 
 3.72458e-01 
 4.21085e-01 
 4.82183e-01 
 5.55959e-01 
 6.42668e-01 
 7.42608e-01 
 8.56124e-01 
 9.83614e-01 
 1.12553e+00 
 1.28238e+00 
 1.45478e+00 
 1.64319e+00 
 1.84912e+00 
 2.06325e+00 
 2.28084e+00 
 2.70741e+00 
 3.32833e+00 
 3.20031e+00 
 2.60402e+00 
 2.19307e+00 
 1.98487e+00 
 1.77898e+00 
 1.58145e+00 
 1.40094e+00 
 1.23594e+00 
 1.08600e+00 
 9.50464e-01 
 8.28831e-01 
 7.20621e-01 
 6.25426e-01 
 5.42886e-01 
 4.72693e-01 
 4.14586e-01 
 3.68352e-01 
 3.33823e-01 
 3.10873e-01 
 2.99419e-01 
 2.99420e-01 
 3.10875e-01 
 3.33832e-01 
 3.68375e-01 
 4.14632e-01 
 4.72771e-01 
 5.43007e-01 
 6.25599e-01 
 7.20853e-01 
 8.29121e-01 
 9.50810e-01 
 1.08638e+00 
 1.23635e+00 
 1.40134e+00 
 1.58181e+00 
 1.77925e+00 
 1.98472e+00 
 2.19367e+00 
 2.60377e+00 
 3.20108e+00 
 3.07537e+00 
 2.50233e+00 
 2.10763e+00 
 1.90796e+00 
 1.71062e+00 
 1.52145e+00 
 1.34874e+00 
 1.19101e+00 
 1.04781e+00 
 9.18480e-01 
 8.02511e-01 
 6.99421e-01 
 6.08794e-01 
 5.30265e-01 
 4.63521e-01 
 4.08296e-01 
 3.64374e-01 
 3.31580e-01 
 3.09789e-01 
 2.98915e-01 
 2.98917e-01 
 3.09791e-01 
 3.31588e-01 
 3.64393e-01 
 4.08334e-01 
 4.63585e-01 
 5.30362e-01 
 6.08930e-01 
 6.99600e-01 
 8.02732e-01 
 9.18738e-01 
 1.04809e+00 
 1.19129e+00 
 1.34900e+00 
 1.52165e+00 
 1.71073e+00 
 1.90765e+00 
 2.10807e+00 
 2.50194e+00 
 3.07598e+00 
 2.95261e+00 
 2.40245e+00 
 2.02375e+00 
 1.83249e+00 
 1.64358e+00 
 1.46265e+00 
 1.29761e+00 
 1.14703e+00 
 1.01045e+00 
 8.87212e-01 
 7.76795e-01 
 6.78719e-01 
 5.92563e-01 
 5.17958e-01 
 4.54585e-01 
 4.02176e-01 
 3.60510e-01 
 3.29411e-01 
 3.08751e-01 
 2.98444e-01 
 2.98445e-01 
 3.08754e-01 
 3.29419e-01 
 3.60527e-01 
 4.02208e-01 
 4.54638e-01 
 5.18036e-01 
 5.92672e-01 
 6.78859e-01 
 7.76963e-01 
 8.87402e-01 
 1.01065e+00 
 1.14722e+00 
 1.29776e+00 
 1.46274e+00 
 1.64357e+00 
 1.83207e+00 
 2.02408e+00 
 2.40196e+00 
 2.95311e+00 
 2.83208e+00 
 2.30442e+00 
 1.94146e+00 
 1.75848e+00 
 1.57787e+00 
 1.40505e+00 
 1.24756e+00 
 1.10401e+00 
 9.73920e-01 
 8.56651e-01 
 7.51676e-01 
 6.58509e-01 
 5.76727e-01 
 5.05957e-01 
 4.45878e-01 
 3.96218e-01 
 3.56754e-01 
 3.27309e-01 
 3.07752e-01 
 2.97996e-01 
 2.97996e-01 
 3.07752e-01 
 3.27312e-01 
 3.56764e-01 
 3.96239e-01 
 4.45913e-01 
 5.06011e-01 
 5.76802e-01 
 6.58604e-01 
 7.51788e-01 
 8.56773e-01 
 9.74038e-01 
 1.10410e+00 
 1.24761e+00 
 1.40503e+00 
 1.57776e+00 
 1.75797e+00 
 1.94169e+00 
 2.30385e+00 
 2.83249e+00 
 2.71387e+00 
 2.20828e+00 
 1.86078e+00 
 1.68595e+00 
 1.51350e+00 
 1.34864e+00 
 1.19857e+00 
 1.06191e+00 
 9.38203e-01 
 8.26789e-01 
 7.27145e-01 
 6.38785e-01 
 5.61282e-01 
 4.94261e-01 
 4.37400e-01 
 3.90425e-01 
 3.53110e-01 
 3.25278e-01 
 3.06797e-01 
 2.97579e-01 
 2.97579e-01 
 3.06796e-01 
 3.25278e-01 
 3.53114e-01 
 3.90436e-01 
 4.37421e-01 
 4.94295e-01 
 5.61329e-01 
 6.38844e-01 
 7.27213e-01 
 8.26858e-01 
 9.38261e-01 
 1.06194e+00 
 1.19855e+00 
 1.34854e+00 
 1.51331e+00 
 1.68537e+00 
 1.86093e+00 
 2.20766e+00 
 2.71420e+00 
 2.59799e+00 
 2.11407e+00 
 1.78174e+00 
 1.61490e+00 
 1.45047e+00 
 1.29344e+00 
 1.15064e+00 
 1.02076e+00 
 9.03300e-01 
 7.97622e-01 
 7.03198e-01 
 6.19541e-01 
 5.46223e-01 
 4.82866e-01 
 4.29148e-01 
 3.84793e-01 
 3.49575e-01 
 3.23316e-01 
 3.05883e-01 
 2.97189e-01 
 2.97189e-01 
 3.05879e-01 
 3.23311e-01 
 3.49572e-01 
 3.84793e-01 
 4.29154e-01 
 4.82880e-01 
 5.46244e-01 
 6.19569e-01 
 7.03228e-01 
 7.97646e-01 
 9.03306e-01 
 1.02073e+00 
 1.15056e+00 
 1.29328e+00 
 1.45023e+00 
 1.61428e+00 
 1.78183e+00 
 2.11341e+00 
 2.59825e+00 
 2.48448e+00 
 2.02180e+00 
 1.70434e+00 
 1.54536e+00 
 1.38879e+00 
 1.23943e+00 
 1.10378e+00 
 9.80533e-01 
 8.69202e-01 
 7.69143e-01 
 6.79829e-01 
 6.00772e-01 
 5.31542e-01 
 4.71765e-01 
 4.21114e-01 
 3.79315e-01 
 3.46141e-01 
 3.21415e-01 
 3.05004e-01 
 2.96820e-01 
 2.96818e-01 
 3.04996e-01 
 3.21404e-01 
 3.46128e-01 
 3.79302e-01 
 4.21103e-01 
 4.71756e-01 
 5.31537e-01 
 6.00767e-01 
 6.79820e-01 
 7.69123e-01 
 8.69159e-01 
 9.80455e-01 
 1.10364e+00 
 1.23922e+00 
 1.38850e+00 
 1.54469e+00 
 1.70439e+00 
 2.02112e+00 
 2.48472e+00 
 2.37336e+00 
 1.93148e+00 
 1.62859e+00 
 1.47730e+00 
 1.32845e+00 
 1.18662e+00 
 1.05797e+00 
 9.41225e-01 
 8.35896e-01 
 7.41339e-01 
 6.57024e-01 
 5.82465e-01 
 5.17232e-01 
 4.60949e-01 
 4.13292e-01 
 3.73985e-01 
 3.42805e-01 
 3.19572e-01 
 3.04157e-01 
 2.96470e-01 
 2.96467e-01 
 3.04146e-01 
 3.19557e-01 
 3.42785e-01 
 3.73963e-01 
 4.13268e-01 
 4.60925e-01 
 5.17208e-01 
 5.82438e-01 
 6.56989e-01 
 7.41289e-01 
 8.35822e-01 
 9.41114e-01 
 1.05780e+00 
 1.18637e+00 
 1.32813e+00 
 1.47662e+00 
 1.62861e+00 
 1.93079e+00 
 2.37358e+00 
 2.26469e+00 
 1.84315e+00 
 1.55451e+00 
 1.41076e+00 
 1.26947e+00 
 1.13501e+00 
 1.01321e+00 
 9.02845e-01 
 8.03390e-01 
 7.14215e-01 
 6.34788e-01 
 5.64623e-01 
 5.03291e-01 
 4.50417e-01 
 4.05677e-01 
 3.68799e-01 
 3.39558e-01 
 3.17779e-01 
 3.03331e-01 
 2.96127e-01 
 2.96123e-01 
 3.03317e-01 
 3.17757e-01 
 3.39529e-01 
 3.68764e-01 
 4.05638e-01 
 4.50374e-01 
 5.03244e-01 
 5.64569e-01 
 6.34724e-01 
 7.14134e-01 
 8.03282e-01 
 9.02698e-01 
 1.01301e+00 
 1.13473e+00 
 1.26912e+00 
 1.41006e+00 
 1.55450e+00 
 1.84245e+00 
 2.26487e+00 
 2.15843e+00 
 1.75679e+00 
 1.48210e+00 
 1.34573e+00 
 1.21184e+00 
 1.08460e+00 
 9.69518e-01 
 8.65383e-01 
 7.71677e-01 
 6.87764e-01 
 6.13114e-01 
 5.47240e-01 
 4.89715e-01 
 4.40164e-01 
 3.98267e-01 
 3.63753e-01 
 3.36400e-01 
 3.16034e-01 
 3.02527e-01 
 2.95793e-01 
 2.95788e-01 
 3.02510e-01 
 3.16007e-01 
 3.36364e-01 
 3.63709e-01 
 3.98216e-01 
 4.40108e-01 
 4.89652e-01 
 5.47170e-01 
 6.13032e-01 
 6.87664e-01 
 7.71550e-01 
 8.65219e-01 
 9.69299e-01 
 1.08431e+00 
 1.21148e+00 
 1.34503e+00 
 1.48209e+00 
 1.75610e+00 
 2.15862e+00 
 2.05465e+00 
 1.67245e+00 
 1.41139e+00 
 1.28223e+00 
 1.15558e+00 
 1.03540e+00 
 9.26887e-01 
 8.28850e-01 
 7.40764e-01 
 6.61992e-01 
 5.92005e-01 
 5.30316e-01 
 4.76500e-01 
 4.30186e-01 
 3.91054e-01 
 3.58838e-01 
 3.33319e-01 
 3.14325e-01 
 3.01731e-01 
 2.95452e-01 
 2.95446e-01 
 3.01710e-01 
 3.14292e-01 
 3.33274e-01 
 3.58783e-01 
 3.90990e-01 
 4.30113e-01 
 4.76420e-01 
 5.30226e-01 
 5.91901e-01 
 6.61870e-01 
 7.40614e-01 
 8.28664e-01 
 9.26648e-01 
 1.03509e+00 
 1.15520e+00 
 1.28153e+00 
 1.41136e+00 
 1.67176e+00 
 2.05482e+00 
 1.95332e+00 
 1.59009e+00 
 1.34235e+00 
 1.22024e+00 
 1.10067e+00 
 9.87401e-01 
 8.85314e-01 
 7.93240e-01 
 7.10645e-01 
 6.36894e-01 
 5.71457e-01 
 5.13849e-01 
 4.63646e-01 
 4.20480e-01 
 3.84037e-01 
 3.54053e-01 
 3.30313e-01 
 3.12651e-01 
 3.00942e-01 
 2.95105e-01 
 2.95097e-01 
 3.00918e-01 
 3.12613e-01 
 3.30262e-01 
 3.53990e-01 
 3.83963e-01 
 4.20397e-01 
 4.63554e-01 
 5.13746e-01 
 5.71341e-01 
 6.36761e-01 
 7.10486e-01 
 7.93046e-01 
 8.85071e-01 
 9.87094e-01 
 1.10030e+00 
 1.21956e+00 
 1.34232e+00 
 1.58943e+00 
 1.95350e+00 
 1.85448e+00 
 1.50976e+00 
 1.27501e+00 
 1.15980e+00 
 1.04714e+00 
 9.40622e-01 
 8.44814e-01 
 7.58564e-01 
 6.81330e-01 
 6.12477e-01 
 5.51475e-01 
 4.97839e-01 
 4.51150e-01 
 4.11043e-01 
 3.77209e-01 
 3.49388e-01 
 3.27372e-01 
 3.10997e-01 
 3.00144e-01 
 2.94734e-01 
 2.94725e-01 
 3.00117e-01 
 3.10954e-01 
 3.27313e-01 
 3.49315e-01 
 3.77124e-01 
 4.10947e-01 
 4.51044e-01 
 4.97722e-01 
 5.51344e-01 
 6.12329e-01 
 6.81156e-01 
 7.58357e-01 
 8.44561e-01 
 9.40309e-01 
 1.04677e+00 
 1.15912e+00 
 1.27498e+00 
 1.50911e+00 
 1.85464e+00 
 1.75809e+00 
 1.43143e+00 
 1.20936e+00 
 1.10087e+00 
 9.94979e-01 
 8.95055e-01 
 8.05381e-01 
 7.24819e-01 
 6.52818e-01 
 5.88741e-01 
 5.32058e-01 
 4.82288e-01 
 4.39013e-01 
 4.01874e-01 
 3.70568e-01 
 3.44842e-01 
 3.24492e-01 
 3.09361e-01 
 2.99335e-01 
 2.94337e-01 
 2.94327e-01 
 2.99306e-01 
 3.09314e-01 
 3.24428e-01 
 3.44763e-01 
 3.70476e-01 
 4.01770e-01 
 4.38898e-01 
 4.82162e-01 
 5.31920e-01 
 5.88587e-01 
 6.52640e-01 
 7.24612e-01 
 8.05130e-01 
 8.94748e-01 
 9.94614e-01 
 1.10021e+00 
 1.20933e+00 
 1.43080e+00 
 1.75826e+00 
 1.66419e+00 
 1.35511e+00 
 1.14540e+00 
 1.04349e+00 
 9.44195e-01 
 8.50714e-01 
 7.67029e-01 
 6.92019e-01 
 6.25119e-01 
 5.65695e-01 
 5.13214e-01 
 4.67198e-01 
 4.27234e-01 
 3.92970e-01 
 3.64108e-01 
 3.40404e-01 
 3.21661e-01 
 3.07729e-01 
 2.98498e-01 
 2.93896e-01 
 2.93886e-01 
 2.98466e-01 
 3.07677e-01 
 3.21591e-01 
 3.40317e-01 
 3.64006e-01 
 3.92856e-01 
 4.27108e-01 
 4.67061e-01 
 5.13064e-01 
 5.65530e-01 
 6.24933e-01 
 6.91805e-01 
 7.66775e-01 
 8.50408e-01 
 9.43835e-01 
 1.04284e+00 
 1.14538e+00 
 1.35450e+00 
 1.66434e+00 
 1.57273e+00 
 1.28079e+00 
 1.08313e+00 
 9.87627e-01 
 8.94785e-01 
 8.07596e-01 
 7.29758e-01 
 6.60164e-01 
 5.98237e-01 
 5.43341e-01 
 4.94945e-01 
 4.52571e-01 
 4.15815e-01 
 3.84330e-01 
 3.57827e-01 
 3.36071e-01 
 3.18875e-01 
 3.06095e-01 
 2.97628e-01 
 2.93406e-01 
 2.93395e-01 
 2.97594e-01 
 3.06040e-01 
 3.18801e-01 
 3.35980e-01 
 3.57720e-01 
 3.84210e-01 
 4.15683e-01 
 4.52429e-01 
 4.94790e-01 
 5.43173e-01 
 5.98050e-01 
 6.59952e-01 
 7.29510e-01 
 8.07300e-01 
 8.94439e-01 
 9.87008e-01 
 1.08312e+00 
 1.28021e+00 
 1.57290e+00 
 1.48374e+00 
 1.20847e+00 
 1.02255e+00 
 9.33305e-01 
 8.46757e-01 
 7.65710e-01 
 6.93578e-01 
 6.29264e-01 
 5.72181e-01 
 5.21688e-01 
 4.77255e-01 
 4.38411e-01 
 4.04755e-01 
 3.75949e-01 
 3.51717e-01 
 3.31833e-01 
 3.16119e-01 
 3.04441e-01 
 2.96704e-01 
 2.92846e-01 
 2.92835e-01 
 2.96669e-01 
 3.04383e-01 
 3.16040e-01 
 3.31735e-01 
 3.51603e-01 
 3.75821e-01 
 4.04614e-01 
 4.38259e-01 
 4.77092e-01 
 5.21513e-01 
 5.71988e-01 
 6.29050e-01 
 6.93331e-01 
 7.65418e-01 
 8.46420e-01 
 9.32703e-01 
 1.02254e+00 
 1.20791e+00 
 1.48390e+00 
 1.39719e+00 
 1.13814e+00 
 9.63658e-01 
 8.80515e-01 
 8.00114e-01 
 7.25062e-01 
 6.58497e-01 
 5.99331e-01 
 5.46960e-01 
 5.00745e-01 
 4.60155e-01 
 4.24723e-01 
 3.94057e-01 
 3.67830e-01 
 3.45777e-01 
 3.27684e-01 
 3.13387e-01 
 3.02761e-01 
 2.95720e-01 
 2.92209e-01 
 2.92197e-01 
 2.95684e-01 
 3.02702e-01 
 3.13306e-01 
 3.27584e-01 
 3.45659e-01 
 3.67698e-01 
 3.93911e-01 
 4.24566e-01 
 4.59987e-01 
 5.00566e-01 
 5.46767e-01 
 5.99118e-01 
 6.58256e-01 
 7.24781e-01 
 7.99791e-01 
 8.79938e-01 
 9.63653e-01 
 1.13759e+00 
 1.39734e+00 
 1.31307e+00 
 1.06980e+00 
 9.06447e-01 
 8.29263e-01 
 7.54862e-01 
 6.85663e-01 
 6.24528e-01 
 5.70376e-01 
 5.22588e-01 
 4.80524e-01 
 4.43652e-01 
 4.11513e-01 
 3.83725e-01 
 3.59972e-01 
 3.40003e-01 
 3.23618e-01 
 3.10668e-01 
 3.01041e-01 
 2.94660e-01 
 2.91476e-01 
 2.91464e-01 
 2.94623e-01 
 3.00981e-01 
 3.10586e-01 
 3.23516e-01 
 3.39882e-01 
 3.59835e-01 
 3.83574e-01 
 4.11352e-01 
 4.43480e-01 
 4.80341e-01 
 5.22393e-01 
 5.70164e-01 
 6.24291e-01 
 6.85391e-01 
 7.54553e-01 
 8.28710e-01 
 9.06451e-01 
 1.06927e+00 
 1.31321e+00 
 1.23136e+00 
 1.00343e+00 
 8.50913e-01 
 7.79549e-01 
 7.11007e-01 
 6.47520e-01 
 5.91681e-01 
 5.42410e-01 
 4.99076e-01 
 4.61033e-01 
 4.27755e-01 
 3.98787e-01 
 3.73759e-01 
 3.52370e-01 
 3.34386e-01 
 3.19623e-01 
 3.07948e-01 
 2.99263e-01 
 2.93503e-01 
 2.90628e-01 
 2.90616e-01 
 2.93466e-01 
 2.99202e-01 
 3.07864e-01 
 3.19518e-01 
 3.34261e-01 
 3.52229e-01 
 3.73603e-01 
 3.98618e-01 
 4.27575e-01 
 4.60844e-01 
 4.98875e-01 
 5.42195e-01 
 5.91444e-01 
 6.47252e-01 
 7.10707e-01 
 7.79014e-01 
 8.50921e-01 
 1.00292e+00 
 1.23150e+00 
 1.15203e+00 
 9.39006e-01 
 7.97039e-01 
 7.31359e-01 
 6.68543e-01 
 6.10634e-01 
 5.59960e-01 
 5.15441e-01 
 4.76430e-01 
 4.42281e-01 
 4.12468e-01 
 3.86546e-01 
 3.64158e-01 
 3.45022e-01 
 3.28920e-01 
 3.15689e-01 
 3.05213e-01 
 2.97412e-01 
 2.92234e-01 
 2.89648e-01 
 2.89636e-01 
 2.92199e-01 
 2.97353e-01 
 3.05131e-01 
 3.15585e-01 
 3.28796e-01 
 3.44880e-01 
 3.64000e-01 
 3.86374e-01 
 4.12284e-01 
 4.42088e-01 
 4.76227e-01 
 5.15226e-01 
 5.59727e-01 
 6.10375e-01 
 6.68257e-01 
 7.30849e-01 
 7.97058e-01 
 9.38519e-01 
 1.15217e+00 
 1.07508e+00 
 8.76529e-01 
 7.44830e-01 
 6.84707e-01 
 6.27487e-01 
 5.75024e-01 
 5.29385e-01 
 4.89489e-01 
 4.54671e-01 
 4.24283e-01 
 3.97803e-01 
 3.74798e-01 
 3.54927e-01 
 3.37925e-01 
 3.23597e-01 
 3.11803e-01 
 3.02447e-01 
 2.95469e-01 
 2.90830e-01 
 2.88511e-01 
 2.88500e-01 
 2.90796e-01 
 2.95411e-01 
 3.02367e-01 
 3.11700e-01 
 3.23472e-01 
 3.37780e-01 
 3.54764e-01 
 3.74620e-01 
 3.97612e-01 
 4.24081e-01 
 4.54459e-01 
 4.89266e-01 
 5.29148e-01 
 5.74766e-01 
 6.27207e-01 
 6.84215e-01 
 7.44853e-01 
 8.76058e-01 
 1.07520e+00 
 1.00045e+00 
 8.15969e-01 
 6.94272e-01 
 6.39585e-01 
 5.87838e-01 
 5.40695e-01 
 4.99965e-01 
 4.64564e-01 
 4.33808e-01 
 4.07050e-01 
 3.83770e-01 
 3.63550e-01 
 3.46065e-01 
 3.31076e-01 
 3.18411e-01 
 3.07955e-01 
 2.99637e-01 
 2.93417e-01 
 2.89274e-01 
 2.87201e-01 
 2.87191e-01 
 2.89243e-01 
 2.93363e-01 
 2.99562e-01 
 3.07857e-01 
 3.18290e-01 
 3.30933e-01 
 3.45902e-01 
 3.63368e-01 
 3.83573e-01 
 4.06841e-01 
 4.33589e-01 
 4.64336e-01 
 4.99726e-01 
 5.40440e-01 
 5.87567e-01 
 6.39115e-01 
 6.94306e-01 
 8.15524e-01 
 1.00058e+00 
 9.28144e-01 
 7.57326e-01 
 6.45366e-01 
 5.96001e-01 
 5.49609e-01 
 5.07664e-01 
 4.71719e-01 
 4.40684e-01 
 4.13860e-01 
 3.90594e-01 
 3.70377e-01 
 3.52804e-01 
 3.37574e-01 
 3.24471e-01 
 3.13351e-01 
 3.04130e-01 
 2.96763e-01 
 2.91233e-01 
 2.87540e-01 
 2.85688e-01 
 2.85679e-01 
 2.87511e-01 
 2.91184e-01 
 2.96692e-01 
 3.04036e-01 
 3.13233e-01 
 3.24327e-01 
 3.37407e-01 
 3.52616e-01 
 3.70170e-01 
 3.90373e-01 
 4.13627e-01 
 4.40444e-01 
 4.71470e-01 
 5.07404e-01 
 5.49341e-01 
 5.95547e-01 
 6.45405e-01 
 7.56899e-01 
 9.28263e-01 
 8.58110e-01 
 7.00569e-01 
 5.98098e-01 
 5.53952e-01 
 5.12804e-01 
 4.75938e-01 
 4.44658e-01 
 4.17863e-01 
 3.94836e-01 
 3.74926e-01 
 3.57632e-01 
 3.42567e-01 
 3.29453e-01 
 3.18104e-01 
 3.08410e-01 
 3.00316e-01 
 2.93810e-01 
 2.88900e-01 
 2.85609e-01 
 2.83955e-01 
 2.83948e-01 
 2.85585e-01 
 2.88858e-01 
 2.93747e-01 
 3.00230e-01 
 3.08297e-01 
 3.17964e-01 
 3.29286e-01 
 3.42374e-01 
 3.57417e-01 
 3.74694e-01 
 3.94590e-01 
 4.17609e-01 
 4.44398e-01 
 4.75673e-01 
 5.12540e-01 
 5.53516e-01 
 5.98149e-01 
 7.00170e-01 
 8.58238e-01 
 7.90337e-01 
 6.45696e-01 
 5.52475e-01 
 5.13448e-01 
 4.77439e-01 
 4.45537e-01 
 4.18800e-01 
 3.96117e-01 
 3.76753e-01 
 3.60059e-01 
 3.45543e-01 
 3.32840e-01 
 3.21699e-01 
 3.11969e-01 
 3.03574e-01 
 2.96497e-01 
 2.90757e-01 
 2.86394e-01 
 2.83454e-01 
 2.81973e-01 
 2.81968e-01 
 2.83436e-01 
 2.86361e-01 
 2.90703e-01 
 2.96419e-01 
 3.03468e-01 
 3.11832e-01 
 3.21530e-01 
 3.32640e-01 
 3.45316e-01 
 3.59809e-01 
 3.76487e-01 
 3.95842e-01 
 4.18521e-01 
 4.45258e-01 
 4.77169e-01 
 5.13024e-01 
 5.52532e-01 
 6.45323e-01 
 7.90470e-01 
 7.24783e-01 
 5.92684e-01 
 5.08486e-01 
 4.74489e-01 
 4.43518e-01 
 4.16468e-01 
 3.94156e-01 
 3.75456e-01 
 3.59619e-01 
 3.45998e-01 
 3.34113e-01 
 3.23624e-01 
 3.14312e-01 
 3.06061e-01 
 2.98836e-01 
 2.92659e-01 
 2.87589e-01 
 2.83698e-01 
 2.81059e-01 
 2.79724e-01 
 2.79722e-01 
 2.81048e-01 
 2.83676e-01 
 2.87548e-01 
 2.92594e-01 
 2.98740e-01 
 3.05930e-01 
 3.14143e-01 
 3.23419e-01 
 3.33875e-01 
 3.45732e-01 
 3.59333e-01 
 3.75159e-01 
 3.93856e-01 
 4.16174e-01 
 4.43243e-01 
 4.74079e-01 
 5.08556e-01 
 5.92347e-01 
 7.24940e-01 
 6.61434e-01 
 5.41533e-01 
 4.66139e-01 
 4.37088e-01 
 4.11057e-01 
 3.88748e-01 
 3.70738e-01 
 3.55892e-01 
 3.43443e-01 
 3.32748e-01 
 3.23345e-01 
 3.14918e-01 
 3.07284e-01 
 3.00369e-01 
 2.94180e-01 
 2.88786e-01 
 2.84286e-01 
 2.80790e-01 
 2.78398e-01 
 2.77184e-01 
 2.77184e-01 
 2.78396e-01 
 2.80780e-01 
 2.84260e-01 
 2.88734e-01 
 2.94094e-01 
 3.00242e-01 
 3.07114e-01 
 3.14705e-01 
 3.23092e-01 
 3.32461e-01 
 3.43130e-01 
 3.55565e-01 
 3.70408e-01 
 3.88429e-01 
 4.10768e-01 
 4.36685e-01 
 4.66218e-01 
 5.41233e-01 
 6.61623e-01 
 6.00277e-01 
 4.92238e-01 
 4.25438e-01 
 4.01254e-01 
 3.80067e-01 
 3.62385e-01 
 3.48557e-01 
 3.37432e-01 
 3.28230e-01 
 3.20313e-01 
 3.13239e-01 
 3.06720e-01 
 3.00613e-01 
 2.94887e-01 
 2.89601e-01 
 2.84869e-01 
 2.80839e-01 
 2.77659e-01 
 2.75461e-01 
 2.74340e-01 
 2.74344e-01 
 2.75469e-01 
 2.77664e-01 
 2.80830e-01 
 2.84833e-01 
 2.89527e-01 
 2.94768e-01 
 3.00443e-01 
 3.06500e-01 
 3.12971e-01 
 3.20004e-01 
 3.27888e-01 
 3.37071e-01 
 3.48193e-01 
 3.62038e-01 
 3.79761e-01 
 4.00857e-01 
 4.25531e-01 
 4.91982e-01 
 6.00507e-01 
 5.41301e-01 
 4.44810e-01 
 3.86401e-01 
 3.67003e-01 
 3.50561e-01 
 3.37390e-01 
 3.27616e-01 
 3.20076e-01 
 3.13977e-01 
 3.08690e-01 
 3.03791e-01 
 2.99025e-01 
 2.94292e-01 
 2.89609e-01 
 2.85089e-01 
 2.80900e-01 
 2.77238e-01 
 2.74296e-01 
 2.72239e-01 
 2.71185e-01 
 2.71193e-01 
 2.72259e-01 
 2.74318e-01 
 2.77248e-01 
 2.80882e-01 
 2.85028e-01 
 2.89496e-01 
 2.94121e-01 
 2.98796e-01 
 3.03505e-01 
 3.08355e-01 
 3.13603e-01 
 3.19678e-01 
 3.27213e-01 
 3.37008e-01 
 3.50231e-01 
 3.66609e-01 
 3.86506e-01 
 4.44606e-01 
 5.41590e-01 
 4.84516e-01 
 3.99263e-01 
 3.49043e-01 
 3.34349e-01 
 3.22547e-01 
 3.13764e-01 
 3.07911e-01 
 3.03816e-01 
 3.00674e-01 
 2.97866e-01 
 2.94988e-01 
 2.91822e-01 
 2.88310e-01 
 2.84526e-01 
 2.80637e-01 
 2.76872e-01 
 2.73479e-01 
 2.70698e-01 
 2.68730e-01 
 2.67718e-01 
 2.67730e-01 
 2.68763e-01 
 2.70738e-01 
 2.73509e-01 
 2.76872e-01 
 2.80590e-01 
 2.84418e-01 
 2.88137e-01 
 2.91582e-01 
 2.94683e-01 
 2.97503e-01 
 3.00264e-01 
 3.03375e-01 
 3.07463e-01 
 3.13339e-01 
 3.22187e-01 
 3.33952e-01 
 3.49161e-01 
 3.99118e-01 
 4.84885e-01 
 4.29950e-01 
 3.55627e-01 
 3.13388e-01 
 3.03307e-01 
 2.96028e-01 
 2.91498e-01 
 2.89426e-01 
 2.88630e-01 
 2.88299e-01 
 2.87820e-01 
 2.86814e-01 
 2.85096e-01 
 2.82658e-01 
 2.79629e-01 
 2.76242e-01 
 2.72786e-01 
 2.69568e-01 
 2.66875e-01 
 2.64948e-01 
 2.63952e-01 
 2.63970e-01 
 2.64994e-01 
 2.66936e-01 
 2.69620e-01 
 2.72805e-01 
 2.76208e-01 
 2.79528e-01 
 2.82481e-01 
 2.84844e-01 
 2.86489e-01 
 2.87429e-01 
 2.87852e-01 
 2.88146e-01 
 2.88930e-01 
 2.91027e-01 
 2.95634e-01 
 3.02906e-01 
 3.13521e-01 
 3.55550e-01 
 4.30418e-01 
 3.77668e-01 
 3.13958e-01 
 2.79478e-01 
 2.73898e-01 
 2.71005e-01 
 2.70577e-01 
 2.72133e-01 
 2.74488e-01 
 2.76819e-01 
 2.78524e-01 
 2.79244e-01 
 2.78831e-01 
 2.77324e-01 
 2.74917e-01 
 2.71907e-01 
 2.68652e-01 
 2.65521e-01 
 2.62851e-01 
 2.60921e-01 
 2.59920e-01 
 2.59943e-01 
 2.60981e-01 
 2.62931e-01 
 2.65593e-01 
 2.68689e-01 
 2.71883e-01 
 2.74816e-01 
 2.77140e-01 
 2.78563e-01 
 2.78897e-01 
 2.78103e-01 
 2.76334e-01 
 2.73957e-01 
 2.71586e-01 
 2.70056e-01 
 2.70571e-01 
 2.73487e-01 
 2.79623e-01 
 3.13955e-01 
 3.78249e-01 
 3.27755e-01 
 2.74324e-01 
 2.47353e-01 
 2.46134e-01 
 2.47464e-01 
 2.50966e-01 
 2.55986e-01 
 2.61335e-01 
 2.66185e-01 
 2.69936e-01 
 2.72248e-01 
 2.73005e-01 
 2.72299e-01 
 2.70387e-01 
 2.67642e-01 
 2.64493e-01 
 2.61374e-01 
 2.58673e-01 
 2.56704e-01 
 2.55681e-01 
 2.55708e-01 
 2.56776e-01 
 2.58769e-01 
 2.61464e-01 
 2.64545e-01 
 2.67626e-01 
 2.70286e-01 
 2.72105e-01 
 2.72720e-01 
 2.71877e-01 
 2.69486e-01 
 2.65664e-01 
 2.60762e-01 
 2.55390e-01 
 2.50396e-01 
 2.46991e-01 
 2.45714e-01 
 2.47511e-01 
 2.74403e-01 
 3.28471e-01 
 2.80356e-01 
 2.36828e-01 
 2.17069e-01 
 2.20030e-01 
 2.25380e-01 
 2.32610e-01 
 2.40913e-01 
 2.49100e-01 
 2.56330e-01 
 2.62002e-01 
 2.65784e-01 
 2.67592e-01 
 2.67569e-01 
 2.66043e-01 
 2.63465e-01 
 2.60344e-01 
 2.57178e-01 
 2.54407e-01 
 2.52376e-01 
 2.51320e-01 
 2.51350e-01 
 2.52456e-01 
 2.54514e-01 
 2.57280e-01 
 2.60404e-01 
 2.63450e-01 
 2.65933e-01 
 2.67359e-01 
 2.67285e-01 
 2.65388e-01 
 2.61522e-01 
 2.55774e-01 
 2.48485e-01 
 2.40270e-01 
 2.31993e-01 
 2.24868e-01 
 2.19599e-01 
 2.17238e-01 
 2.36990e-01 
 2.81215e-01 
 2.35652e-01 
 2.01588e-01 
 1.88681e-01 
 1.95582e-01 
 2.04701e-01 
 2.15425e-01 
 2.26815e-01 
 2.37682e-01 
 2.47165e-01 
 2.54651e-01 
 2.59804e-01 
 2.62564e-01 
 2.63126e-01 
 2.61893e-01 
 2.59408e-01 
 2.56260e-01 
 2.53016e-01 
 2.50160e-01 
 2.48063e-01 
 2.46972e-01 
 2.47001e-01 
 2.48143e-01 
 2.50268e-01 
 2.53119e-01 
 2.56318e-01 
 2.59386e-01 
 2.61770e-01 
 2.62895e-01 
 2.62233e-01 
 2.59382e-01 
 2.54144e-01 
 2.46578e-01 
 2.37031e-01 
 2.26133e-01 
 2.14770e-01 
 2.04158e-01 
 1.95146e-01 
 1.88861e-01 
 2.01838e-01 
 2.36661e-01 
 1.93897e-01 
 1.68761e-01 
 1.62255e-01 
 1.72777e-01 
 1.85351e-01 
 1.99295e-01 
 2.13559e-01 
 2.26952e-01 
 2.38581e-01 
 2.47798e-01 
 2.54250e-01 
 2.57887e-01 
 2.58958e-01 
 2.57952e-01 
 2.55510e-01 
 2.52315e-01 
 2.48998e-01 
 2.46076e-01 
 2.43934e-01 
 2.42818e-01 
 2.42842e-01 
 2.44000e-01 
 2.46165e-01 
 2.49081e-01 
 2.52355e-01 
 2.55469e-01 
 2.57805e-01 
 2.58701e-01 
 2.57530e-01 
 2.53802e-01 
 2.47265e-01 
 2.37965e-01 
 2.26270e-01 
 2.12847e-01 
 1.98614e-01 
 1.84791e-01 
 1.72345e-01 
 1.62444e-01 
 1.69094e-01 
 1.95044e-01 
 1.55393e-01 
 1.38519e-01 
 1.37842e-01 
 1.51573e-01 
 1.67216e-01 
 1.84061e-01 
 2.00970e-01 
 2.16747e-01 
 2.30441e-01 
 2.41345e-01 
 2.49059e-01 
 2.53531e-01 
 2.55061e-01 
 2.54241e-01 
 2.51833e-01 
 2.48616e-01 
 2.45280e-01 
 2.42359e-01 
 2.40230e-01 
 2.39118e-01 
 2.39129e-01 
 2.40259e-01 
 2.42401e-01 
 2.45315e-01 
 2.48615e-01 
 2.51757e-01 
 2.54064e-01 
 2.54775e-01 
 2.53147e-01 
 2.48588e-01 
 2.40789e-01 
 2.29802e-01 
 2.16042e-01 
 2.00242e-01 
 1.83375e-01 
 1.66661e-01 
 1.51163e-01 
 1.38044e-01 
 1.38929e-01 
 1.56651e-01 
 1.20507e-01 
 1.11056e-01 
 1.15490e-01 
 1.31902e-01 
 1.50143e-01 
 1.69521e-01 
 1.88836e-01 
 2.06870e-01 
 2.22590e-01 
 2.35182e-01 
 2.44165e-01 
 2.49462e-01 
 2.51431e-01 
 2.50792e-01 
 2.48452e-01 
 2.45299e-01 
 2.42069e-01 
 2.39283e-01 
 2.37274e-01 
 2.36221e-01 
 2.36206e-01 
 2.37234e-01 
 2.39233e-01 
 2.42013e-01 
 2.45223e-01 
 2.48322e-01 
 2.50576e-01 
 2.51116e-01 
 2.49056e-01 
 2.43674e-01 
 2.34604e-01 
 2.21926e-01 
 2.06147e-01 
 1.88106e-01 
 1.68855e-01 
 1.49625e-01 
 1.31540e-01 
 1.15710e-01 
 1.11531e-01 
 1.21823e-01 
 8.96390e-02 
 8.65653e-02 
 9.52199e-02 
 1.13661e-01 
 1.33940e-01 
 1.55433e-01 
 1.76904e-01 
 1.97097e-01 
 2.14852e-01 
 2.29195e-01 
 2.39510e-01 
 2.45663e-01 
 2.48079e-01 
 2.47651e-01 
 2.45474e-01 
 2.42557e-01 
 2.39653e-01 
 2.37226e-01 
 2.35513e-01 
 2.34610e-01 
 2.34553e-01 
 2.35360e-01 
 2.37023e-01 
 2.39444e-01 
 2.42360e-01 
 2.45268e-01 
 2.47393e-01 
 2.47744e-01 
 2.45246e-01 
 2.39007e-01 
 2.28597e-01 
 2.14161e-01 
 1.96358e-01 
 1.76187e-01 
 1.54816e-01 
 1.33498e-01 
 1.13382e-01 
 9.54671e-02 
 8.70871e-02 
 9.09340e-02 
 6.31897e-02 
 6.52205e-02 
 7.70264e-02 
 9.67145e-02 
 1.18381e-01 
 1.41518e-01 
 1.64887e-01 
 1.87174e-01 
 2.07038e-01 
 2.23272e-01 
 2.35049e-01 
 2.42132e-01 
 2.45031e-01 
 2.44886e-01 
 2.43046e-01 
 2.40649e-01 
 2.38422e-01 
 2.36700e-01 
 2.35552e-01 
 2.34937e-01 
 2.34818e-01 
 2.35230e-01 
 2.36264e-01 
 2.37978e-01 
 2.40267e-01 
 2.42731e-01 
 2.44583e-01 
 2.44692e-01 
 2.41724e-01 
 2.34544e-01 
 2.22651e-01 
 2.06312e-01 
 1.86415e-01 
 1.64198e-01 
 1.40985e-01 
 1.18057e-01 
 9.65577e-02 
 7.73112e-02 
 6.57697e-02 
 6.43629e-02 
 4.14988e-02 
 4.71446e-02 
 6.08671e-02 
 8.09100e-02 
 1.03227e-01 
 1.27485e-01 
 1.52482e-01 
 1.76831e-01 
 1.98955e-01 
 2.17314e-01 
 2.30769e-01 
 2.38901e-01 
 2.42340e-01 
 2.42603e-01 
 2.41386e-01 
 2.39953e-01 
 2.38929e-01 
 2.38414e-01 
 2.38218e-01 
 2.38091e-01 
 2.37891e-01 
 2.37669e-01 
 2.37658e-01 
 2.38147e-01 
 2.39297e-01 
 2.40914e-01 
 2.42253e-01 
 2.42033e-01 
 2.38538e-01 
 2.30275e-01 
 2.16660e-01 
 1.98172e-01 
 1.76046e-01 
 1.51836e-01 
 1.27070e-01 
 1.03064e-01 
 8.09101e-02 
 6.11980e-02 
 4.76991e-02 
 4.24377e-02 
 2.47544e-02 
 3.23770e-02 
 4.66719e-02 
 6.61060e-02 
 8.82736e-02 
 1.13070e-01 
 1.39389e-01 
 1.65781e-01 
 1.90395e-01 
 2.11240e-01 
 2.26708e-01 
 2.36064e-01 
 2.40121e-01 
 2.40990e-01 
 2.40846e-01 
 2.41044e-01 
 2.41976e-01 
 2.43366e-01 
 2.44649e-01 
 2.45290e-01 
 2.45000e-01 
 2.43840e-01 
 2.42216e-01 
 2.40747e-01 
 2.39998e-01 
 2.40144e-01 
 2.40582e-01 
 2.39900e-01 
 2.35806e-01 
 2.26235e-01 
 2.10532e-01 
 1.89533e-01 
 1.64968e-01 
 1.38804e-01 
 1.12800e-01 
 8.82965e-02 
 6.62774e-02 
 4.70446e-02 
 3.29119e-02 
 2.53590e-02 
 1.28879e-02 
 2.08423e-02 
 3.43640e-02 
 5.22298e-02 
 7.34135e-02 
 9.80874e-02 
 1.25343e-01 
 1.53755e-01 
 1.81188e-01 
 2.05036e-01 
 2.23026e-01 
 2.33859e-01 
 2.38634e-01 
 2.40431e-01 
 2.42070e-01 
 2.44877e-01 
 2.48805e-01 
 2.53016e-01 
 2.56451e-01 
 2.58226e-01 
 2.57865e-01 
 2.55416e-01 
 2.51469e-01 
 2.47055e-01 
 2.43294e-01 
 2.40987e-01 
 2.39890e-01 
 2.38571e-01 
 2.33779e-01 
 2.22546e-01 
 2.04202e-01 
 1.80182e-01 
 1.52915e-01 
 1.24860e-01 
 9.79879e-02 
 7.36154e-02 
 5.25468e-02 
 3.47509e-02 
 2.13296e-02 
 1.31074e-02 
 5.46689e-03 
 1.23252e-02 
 2.38895e-02 
 3.93365e-02 
 5.87061e-02 
 8.25003e-02 
 1.10179e-01 
 1.40450e-01 
 1.70978e-01 
 1.98551e-01 
 2.19938e-01 
 2.32669e-01 
 2.38347e-01 
 2.41669e-01 
 2.46221e-01 
 2.53040e-01 
 2.61320e-01 
 2.69458e-01 
 2.75819e-01 
 2.79155e-01 
 2.78787e-01 
 2.74723e-01 
 2.67697e-01 
 2.59103e-01 
 2.50764e-01 
 2.44561e-01 
 2.40874e-01 
 2.38584e-01 
 2.32924e-01 
 2.19440e-01 
 1.97593e-01 
 1.69866e-01 
 1.39628e-01 
 1.09841e-01 
 8.25869e-02 
 5.90386e-02 
 3.97168e-02 
 2.42314e-02 
 1.27302e-02 
 5.33492e-03 
 1.65495e-03 
 6.47972e-03 
 1.52641e-02 
 2.76720e-02 
 4.44635e-02 
 6.65345e-02 
 9.38140e-02 
 1.25433e-01 
 1.59581e-01 
 1.92253e-01 
 2.18415e-01 
 2.33696e-01 
 2.40693e-01 
 2.46578e-01 
 2.55815e-01 
 2.68575e-01 
 2.82817e-01 
 2.96038e-01 
 3.06059e-01 
 3.11363e-01 
 3.11126e-01 
 3.05316e-01 
 2.94578e-01 
 2.80510e-01 
 2.65718e-01 
 2.53310e-01 
 2.44785e-01 
 2.41046e-01 
 2.34321e-01 
 2.17368e-01 
 1.90584e-01 
 1.58237e-01 
 1.24827e-01 
 9.36970e-02 
 6.67602e-02 
 4.48227e-02 
 2.79783e-02 
 1.54752e-02 
 6.75818e-03 
 1.30520e-03 
 2.78585e-04 
 2.85144e-03 
 8.56659e-03 
 1.76412e-02 
 3.12255e-02 
 5.06078e-02 
 7.62021e-02 
 1.08521e-01 
 1.46347e-01 
 1.84330e-01 
 2.17688e-01 
 2.37933e-01 
 2.47390e-01 
 2.58202e-01 
 2.75122e-01 
 2.96123e-01 
 3.17839e-01 
 3.36871e-01 
 3.50827e-01 
 3.58211e-01 
 3.58251e-01 
 3.50883e-01 
 3.36361e-01 
 3.16550e-01 
 2.93418e-01 
 2.71291e-01 
 2.55098e-01 
 2.49370e-01 
 2.39756e-01 
 2.16767e-01 
 1.82838e-01 
 1.44629e-01 
 1.08143e-01 
 7.64813e-02 
 5.09065e-02 
 3.14981e-02 
 1.77543e-02 
 8.58617e-03 
 2.96222e-03 
-8.38075e-05 
 1.00912e-04 
 9.46520e-04 
 3.93993e-03 
 9.81820e-03 
 1.98583e-02 
 3.56101e-02 
 5.81545e-02 
 8.99472e-02 
 1.28801e-01 
 1.77145e-01 
 2.28913e-01 
 2.56232e-01 
 2.70504e-01 
 2.90588e-01 
 3.17286e-01 
 3.48552e-01 
 3.78031e-01 
 4.02392e-01 
 4.19578e-01 
 4.28637e-01 
 4.29162e-01 
 4.21092e-01 
 4.04272e-01 
 3.80316e-01 
 3.47182e-01 
 3.14777e-01 
 2.84165e-01 
 2.68412e-01 
 2.54294e-01 
 2.21403e-01 
 1.74369e-01 
 1.28822e-01 
 8.95256e-02 
 5.86318e-02 
 3.57696e-02 
 1.98561e-02 
 9.63745e-03 
 3.74714e-03 
 8.67021e-04 
-1.01537e-04 
 1.61336e-04 
 1.92988e-04 
 1.23750e-03 
 4.32472e-03 
 1.06206e-02 
 2.17531e-02 
 3.96482e-02 
 6.78684e-02 
 1.05867e-01 
 1.73349e-01 
 2.30155e-01 
 2.76825e-01 
 3.19920e-01 
 3.47757e-01 
 3.94761e-01 
 4.35598e-01 
 4.70083e-01 
 4.95877e-01 
 5.12917e-01 
 5.21493e-01 
 5.21866e-01 
 5.14087e-01 
 4.97875e-01 
 4.73567e-01 
 4.36890e-01 
 4.05596e-01 
 3.38208e-01 
 3.23777e-01 
 3.02089e-01 
 2.24409e-01 
 1.62040e-01 
 1.07238e-01 
 6.73966e-02 
 3.97957e-02 
 2.16427e-02 
 1.03810e-02 
 4.02219e-03 
 1.03256e-03 
 3.33602e-05 
 1.70760e-04 
 1.18411e-04 
 1.02984e-04 
 2.21798e-04 
 1.11766e-03 
 3.72624e-03 
 9.62351e-03 
 2.13103e-02 
 4.26572e-02 
 7.88310e-02 
 1.50547e-01 
 2.07248e-01 
 5.14764e-01 
 4.62742e-01 
 5.37827e-01 
 5.48806e-01 
 5.66697e-01 
 5.80292e-01 
 5.90382e-01 
 5.97155e-01 
 6.00852e-01 
 6.01684e-01 
 5.99701e-01 
 5.94807e-01 
 5.86461e-01 
 5.72608e-01 
 5.60709e-01 
 4.80873e-01 
 5.74739e-01 
 3.01791e-01 
 2.49064e-01 
 1.44826e-01 
 8.25982e-02 
 4.41108e-02 
 2.18479e-02 
 9.73397e-03 
 3.60680e-03 
 8.87222e-04 
 4.75885e-06 
-1.09399e-04 
 2.17008e-04 
-2.13026e-05 
 1.20117e-04 
 1.80000e-04 
 1.14873e-04 
 3.40001e-04 
 2.37038e-03 
 9.29060e-03 
 2.66170e-02 
 6.56628e-02 
 1.46327e-01 
 3.10804e-01 
 8.60173e-01 
 1.08340e+00 
 7.45912e-01 
 7.13640e-01 
 6.97163e-01 
 6.85608e-01 
 6.77296e-01 
 6.71250e-01 
 6.67483e-01 
 6.66008e-01 
 6.67222e-01 
 6.72246e-01 
 6.83505e-01 
 7.07293e-01 
 7.54752e-01 
 8.52971e-01 
 1.24452e+00 
 9.80117e-01 
 3.31837e-01 
 1.41458e-01 
 6.05109e-02 
 2.28334e-02 
 6.91396e-03 
 9.60958e-04 
-3.87733e-04 
-1.31731e-04 
 2.25141e-04 
 2.40437e-04 
 1.84908e-04 </DataArray>
            <DataArray Name="strain" NumberOfComponents="3" format="ascii" type="Float64">
-2.71637e+03  2.95148e+02 -1.53926e+03 
-1.70407e+03 -7.62196e+01 -1.20211e+03 
-1.53987e+03  5.55321e+00 -8.88475e+02 
-1.36457e+03 -1.64345e+00 -7.28583e+02 
-1.23977e+03 -6.22809e-01 -6.13959e+02 
-1.12994e+03 -2.73413e-01 -5.27779e+02 
-1.03045e+03 -1.93686e-01 -4.60627e+02 
-9.37850e+02 -1.22728e-01 -4.06871e+02 
-8.50138e+02 -8.49837e-02 -3.63155e+02 
-7.66100e+02 -6.09046e-02 -3.27226e+02 
-6.84908e+02 -4.47840e-02 -2.97516e+02 
-6.05973e+02 -3.36111e-02 -2.72896e+02 
-5.28849e+02 -2.55417e-02 -2.52529e+02 
-4.53188e+02 -1.95130e-02 -2.35786e+02 
-3.78703e+02 -1.48539e-02 -2.22188e+02 
-3.05153e+02 -1.11345e-02 -2.11371e+02 
-2.32328e+02 -8.04029e-03 -2.03059e+02 
-1.60040e+02 -5.38195e-03 -1.97047e+02 
-8.81141e+01 -3.07949e-03 -1.93196e+02 
-1.63865e+01 -7.55844e-04 -1.91413e+02 
 5.53060e+01  1.44269e-03 -1.91662e+02 
 1.27117e+02  3.65438e-03 -1.93944e+02 
 1.99212e+02  6.10094e-03 -1.98318e+02 
 2.71758e+02  8.86842e-03 -2.04886e+02 
 3.44937e+02  1.21196e-02 -2.13806e+02 
 4.18947e+02  1.61084e-02 -2.25302e+02 
 4.94012e+02  2.11967e-02 -2.39673e+02 
 5.70394e+02  2.79533e-02 -2.57316e+02 
 6.48408e+02  3.73239e-02 -2.78756e+02 
 7.28446e+02  5.09608e-02 -3.04690e+02 
 8.11023e+02  7.22641e-02 -3.36067e+02 
 8.96842e+02  1.05495e-01 -3.74216e+02 
 9.86934e+02  1.77893e-01 -4.21092e+02 
 1.08293e+03  2.53459e-01 -4.79801e+02 
 1.18757e+03  6.31544e-01 -5.54939e+02 
 1.30723e+03  1.32471e+00 -6.60842e+02 
 1.44869e+03 -3.59314e+00 -7.83031e+02 
 1.62153e+03  4.21005e+01 -1.09963e+03 
 2.00468e+03 -1.13399e+02 -1.34506e+03 
 2.83002e+03  2.89026e+02 -2.49301e+03 
-2.83315e+03  9.38277e+02 -6.30019e+02 
-2.30259e+03  4.84935e+02 -1.03037e+03 
-1.82450e+03  2.50031e+02 -9.34607e+02 
-1.59069e+03  1.50926e+02 -8.17288e+02 
-1.43015e+03  1.11194e+02 -7.00160e+02 
-1.29504e+03  8.39801e+01 -6.08678e+02 
-1.17713e+03  6.60421e+01 -5.35161e+02 
-1.06947e+03  5.30795e+01 -4.75559e+02 
-9.68989e+02  4.32951e+01 -4.26706e+02 
-8.73720e+02  3.56525e+01 -3.86334e+02 
-7.82402e+02  2.95115e+01 -3.52808e+02 
-6.94160e+02  2.44601e+01 -3.24915e+02 
-6.08354e+02  2.02179e+01 -3.01744e+02 
-5.24495e+02  1.65864e+01 -2.82602e+02 
-4.42194e+02  1.34194e+01 -2.66955e+02 
-3.61131e+02  1.06058e+01 -2.54395e+02 
-2.81032e+02  8.05809e+00 -2.44609e+02 
-2.01656e+02  5.70445e+00 -2.37363e+02 
-1.22784e+02  3.48417e+00 -2.32489e+02 
-4.42152e+01  1.34387e+00 -2.29878e+02 
 3.42504e+01 -7.66394e-01 -2.29470e+02 
 1.12801e+02 -2.89556e+00 -2.31256e+02 
 1.91635e+02 -5.09262e+00 -2.35281e+02 
 2.70953e+02 -7.41009e+00 -2.41637e+02 
 3.50974e+02 -9.90716e+00 -2.50472e+02 
 4.31937e+02 -1.26532e+01 -2.61999e+02 
 5.14114e+02 -1.57329e+01 -2.76506e+02 
 5.97824e+02 -1.92538e+01 -2.94373e+02 
 6.83454e+02 -2.33585e+01 -3.16100e+02 
 7.71493e+02 -2.82435e+01 -3.42338e+02 
 8.62582e+02 -3.41920e+01 -3.73949e+02 
 9.57607e+02 -4.16331e+01 -4.12081e+02 
 1.05785e+03 -5.12549e+01 -4.58283e+02 
 1.16525e+03 -6.42302e+01 -5.14600e+02 
 1.28298e+03 -8.25830e+01 -5.83901e+02 
 1.41624e+03 -1.10987e+02 -6.68290e+02 
 1.57382e+03 -1.52090e+02 -7.73196e+02 
 1.78150e+03 -2.32400e+02 -9.25614e+02 
 2.04885e+03 -4.45340e+02 -8.40253e+02 
 2.41216e+03 -4.64653e+02 -1.12838e+03 
-2.33447e+03  7.34069e+02 -1.82008e+02 
-2.24013e+03  6.94144e+02 -4.95275e+02 
-2.03129e+03  4.52641e+02 -8.49110e+02 
-1.79436e+03  3.19769e+02 -8.37721e+02 
-1.60257e+03  2.37431e+02 -7.71764e+02 
-1.44373e+03  1.81598e+02 -7.02004e+02 
-1.30618e+03  1.43701e+02 -6.37958e+02 
-1.18201e+03  1.15843e+02 -5.82558e+02 
-1.06738e+03  9.47185e+01 -5.35223e+02 
-9.59655e+02  7.81414e+01 -4.95041e+02 
-8.57134e+02  6.47819e+01 -4.61042e+02 
-7.58637e+02  5.37648e+01 -4.32371e+02 
-6.63301e+02  4.44907e+01 -4.08319e+02 
-5.70472e+02  3.65331e+01 -3.88307e+02 
-4.79635e+02  2.95779e+01 -3.71870e+02 
-3.90369e+02  2.33854e+01 -3.58638e+02 
-3.02318e+02  1.77663e+01 -3.48324e+02 
-2.15174e+02  1.25658e+01 -3.40709e+02 
-1.28657e+02  7.65248e+00 -3.35638e+02 
-4.25100e+01  2.91002e+00 -3.33006e+02 
 4.35174e+01 -1.76931e+00 -3.32761e+02 
 1.29663e+02 -6.49139e+00 -3.34897e+02 
 2.16176e+02 -1.13632e+01 -3.39465e+02 
 3.03315e+02 -1.64995e+01 -3.46559e+02 
 3.91358e+02 -2.20294e+01 -3.56329e+02 
 4.80614e+02 -2.81046e+01 -3.68987e+02 
 5.71438e+02 -3.49104e+01 -3.84811e+02 
 6.64252e+02 -4.26817e+01 -4.04161e+02 
 7.59570e+02 -5.17279e+01 -4.27488e+02 
 8.58045e+02 -6.24705e+01 -4.55350e+02 
 9.60534e+02 -7.55038e+01 -4.88419e+02 
 1.06820e+03 -9.16959e+01 -5.27466e+02 
 1.18266e+03 -1.12353e+02 -5.73283e+02 
 1.30628e+03 -1.39506e+02 -6.26458e+02 
 1.44249e+03 -1.76361e+02 -6.86604e+02 
 1.59637e+03 -2.28024e+02 -7.51119e+02 
 1.77528e+03 -3.00786e+02 -8.12018e+02 
 1.98951e+03 -4.10180e+02 -8.56394e+02 
 2.24941e+03 -5.79777e+02 -6.74531e+02 
 2.55888e+03 -7.22139e+02 -5.58016e+02 
-2.18879e+03  7.15695e+02 -8.28859e+01 
-2.16230e+03  6.92844e+02 -3.08172e+02 
-2.01891e+03  5.62827e+02 -6.06991e+02 
-1.82555e+03  4.42242e+02 -6.87517e+02 
-1.64421e+03  3.43344e+02 -7.02542e+02 
-1.48336e+03  2.71449e+02 -6.78879e+02 
-1.34061e+03  2.18544e+02 -6.43577e+02 
-1.21134e+03  1.78292e+02 -6.06259e+02 
-1.09215e+03  1.46994e+02 -5.70744e+02 
-9.80505e+02  1.21994e+02 -5.38557e+02 
-8.74677e+02  1.01593e+02 -5.10107e+02 
-7.73381e+02  8.46086e+01 -4.85372e+02 
-6.75666e+02  7.02039e+01 -4.64159e+02 
-5.80798e+02  5.77689e+01 -4.46216e+02 
-4.88192e+02  4.68450e+01 -4.31296e+02 
-3.97370e+02  3.70770e+01 -4.19172e+02 
-3.07929e+02  2.81815e+01 -4.09656e+02 
-2.19517e+02  1.99245e+01 -4.02595e+02 
-1.31818e+02  1.21056e+01 -3.97878e+02 
-4.45408e+01  4.54661e+00 -3.95427e+02 
 4.25966e+01 -2.91804e+00 -3.95203e+02 
 1.29863e+02 -1.04508e+01 -3.97199e+02 
 2.17539e+02 -1.82164e+01 -4.01458e+02 
 3.05916e+02 -2.63916e+01 -4.08048e+02 
 3.95308e+02 -3.51739e+01 -4.17077e+02 
 4.86064e+02 -4.47937e+01 -4.28691e+02 
 5.78584e+02 -5.55293e+01 -4.43073e+02 
 6.73337e+02 -6.77286e+01 -4.60438e+02 
 7.70893e+02 -8.18392e+01 -4.81019e+02 
 8.71959e+02 -9.84522e+01 -5.05037e+02 
 9.77432e+02 -1.18366e+02 -5.32643e+02 
 1.08847e+03 -1.42681e+02 -5.63785e+02 
 1.20659e+03 -1.72925e+02 -5.97942e+02 
 1.33375e+03 -2.11233e+02 -6.33603e+02 
 1.47241e+03 -2.60516e+02 -6.67258e+02 
 1.62541e+03 -3.24675e+02 -6.91251e+02 
 1.79519e+03 -4.06770e+02 -6.93304e+02 
 1.98154e+03 -5.12727e+02 -6.46448e+02 
 2.17136e+03 -6.39779e+02 -4.10870e+02 
 2.28890e+03 -7.34265e+02 -1.85684e+02 
-2.10268e+03  6.89339e+02 -3.63890e+01 
-2.06649e+03  6.73628e+02 -1.92663e+02 
-1.95942e+03  5.98749e+02 -4.30781e+02 
-1.81281e+03  5.06602e+02 -5.51142e+02 
-1.65571e+03  4.17090e+02 -6.13414e+02 
-1.50364e+03  3.42363e+02 -6.30392e+02 
-1.36275e+03  2.82135e+02 -6.25445e+02 
-1.23247e+03  2.34039e+02 -6.09391e+02 
-1.11118e+03  1.95223e+02 -5.89052e+02 
-9.97159e+02  1.63428e+02 -5.67792e+02 
-8.88983e+02  1.36995e+02 -5.47325e+02 
-7.85500e+02  1.14671e+02 -5.28501e+02 
-6.85794e+02  9.55247e+01 -5.11709e+02 
-5.89129e+02  7.88473e+01 -4.97096e+02 
-4.94899e+02  6.40880e+01 -4.84687e+02 
-4.02603e+02  5.08101e+01 -4.74448e+02 
-3.11806e+02  3.86579e+01 -4.66321e+02 
-2.22131e+02  2.73335e+01 -4.60246e+02 
-1.33234e+02  1.65787e+01 -4.56174e+02 
-4.47982e+01  6.16155e+00 -4.54066e+02 
 4.34836e+01 -4.13458e+00 -4.53900e+02 
 1.31904e+02 -1.45221e+01 -4.55671e+02 
 2.20770e+02 -2.52166e+01 -4.59405e+02 
 3.10397e+02 -3.64482e+01 -4.65137e+02 
 4.01124e+02 -4.84714e+01 -4.72913e+02 
 4.93324e+02 -6.15791e+01 -4.82791e+02 
 5.87420e+02 -7.61186e+01 -4.94821e+02 
 6.83898e+02 -9.25130e+01 -5.09030e+02 
 7.83334e+02 -1.11289e+02 -5.25381e+02 
 8.86414e+02 -1.33115e+02 -5.43710e+02 
 9.93963e+02 -1.58844e+02 -5.63618e+02 
 1.10697e+03 -1.89571e+02 -5.84276e+02 
 1.22660e+03 -2.26688e+02 -6.04098e+02 
 1.35412e+03 -2.71907e+02 -6.20210e+02 
 1.49074e+03 -3.27201e+02 -6.27514e+02 
 1.63705e+03 -3.94471e+02 -6.17359e+02 
 1.79178e+03 -4.73897e+02 -5.78123e+02 
 1.94938e+03 -5.64962e+02 -4.88090e+02 
 2.08839e+03 -6.55441e+02 -2.66172e+02 
 2.15548e+03 -7.15015e+02 -8.12549e+01 
-2.04717e+03  6.72528e+02 -1.51145e+01 
-2.00314e+03  6.60473e+02 -1.39883e+02 
-1.91370e+03  6.07534e+02 -3.27368e+02 
-1.79159e+03  5.37331e+02 -4.47478e+02 
-1.65469e+03  4.62700e+02 -5.28499e+02 
-1.51545e+03  3.92865e+02 -5.73859e+02 
-1.38050e+03  3.31995e+02 -5.94199e+02 
-1.25217e+03  2.80510e+02 -5.98547e+02 
-1.13074e+03  2.37182e+02 -5.94059e+02 
-1.01553e+03  2.00620e+02 -5.84910e+02 
-9.05687e+02  1.69519e+02 -5.73701e+02 
-8.00341e+02  1.42785e+02 -5.61971e+02 
-6.98729e+02  1.19533e+02 -5.50630e+02 
-6.00185e+02  9.90473e+01 -5.40211e+02 
-5.04138e+02  8.07482e+01 -5.31019e+02 
-4.10093e+02  6.41602e+01 -5.23223e+02 
-3.17614e+02  4.88852e+01 -5.16911e+02 
-2.26312e+02  3.45823e+01 -5.12128e+02 
-1.35831e+02  2.09512e+01 -5.08894e+02 
-4.58385e+01  7.71899e+00 -5.07216e+02 
 4.39895e+01 -5.37105e+00 -5.07091e+02 
 1.33961e+02 -1.85710e+01 -5.08516e+02 
 2.24399e+02 -3.21363e+01 -5.11498e+02 
 3.15632e+02 -4.63372e+01 -5.16027e+02 
 4.08011e+02 -6.14687e+01 -5.22081e+02 
 5.01916e+02 -7.78637e+01 -5.29616e+02 
 5.97766e+02 -9.59071e+01 -5.38541e+02 
 6.96033e+02 -1.16053e+02 -5.48685e+02 
 7.97250e+02 -1.38845e+02 -5.59750e+02 
 9.02020e+02 -1.64937e+02 -5.71222e+02 
 1.01101e+03 -1.95113e+02 -5.82251e+02 
 1.12496e+03 -2.30300e+02 -5.91457e+02 
 1.24456e+03 -2.71551e+02 -5.96634e+02 
 1.37039e+03 -3.19963e+02 -5.94354e+02 
 1.50253e+03 -3.76476e+02 -5.79354e+02 
 1.63998e+03 -4.41371e+02 -5.44048e+02 
 1.77954e+03 -5.13027e+02 -4.79998e+02 
 1.91388e+03 -5.87856e+02 -3.74720e+02 
 2.02499e+03 -6.54921e+02 -1.80963e+02 
 2.08175e+03 -6.95289e+02 -4.19649e+01 
-2.00703e+03  6.59565e+02 -4.89808e+00 
-1.95230e+03  6.47414e+02 -1.10767e+02 
-1.86832e+03  6.04867e+02 -2.59606e+02 
-1.76094e+03  5.49933e+02 -3.71373e+02 
-1.63996e+03  4.88071e+02 -4.58416e+02 
-1.51305e+03  4.26056e+02 -5.19297e+02 
-1.38593e+03  3.68408e+02 -5.57360e+02 
-1.26197e+03  3.16908e+02 -5.78592e+02 
-1.14253e+03  2.71751e+02 -5.88566e+02 
-1.02785e+03  2.32414e+02 -5.91310e+02 
-9.17664e+02  1.98108e+02 -5.89693e+02 
-8.11477e+02  1.68032e+02 -5.85621e+02 
-7.08746e+02  1.41453e+02 -5.80361e+02 
-6.08940e+02  1.17730e+02 -5.74744e+02 
-5.11564e+02  9.63114e+01 -5.69311e+02 
-4.16166e+02  7.67259e+01 -5.64416e+02 
-3.22334e+02  5.85635e+01 -5.60288e+02 
-2.29689e+02  4.14641e+01 -5.57070e+02 
-1.37875e+02  2.51039e+01 -5.54857e+02 
-4.65586e+01  9.18384e+00 -5.53699e+02 
 4.45881e+01 -6.57924e+00 -5.53616e+02 
 1.35878e+02 -2.24643e+01 -5.54604e+02 
 2.27638e+02 -3.87529e+01 -5.56650e+02 
 3.20197e+02 -5.57399e+01 -5.59702e+02 
 4.13901e+02 -7.37422e+01 -5.63669e+02 
 5.09120e+02 -9.31090e+01 -5.68410e+02 
 6.06247e+02 -1.14232e+02 -5.73702e+02 
 7.05709e+02 -1.37557e+02 -5.79206e+02 
 8.07961e+02 -1.63591e+02 -5.84410e+02 
 9.13485e+02 -1.92912e+02 -5.88547e+02 
 1.02276e+03 -2.26160e+02 -5.90483e+02 
 1.13622e+03 -2.64019e+02 -5.88564e+02 
 1.25416e+03 -3.07152e+02 -5.80405e+02 
 1.37654e+03 -3.56071e+02 -5.62675e+02 
 1.50269e+03 -4.10905e+02 -5.30808e+02 
 1.63076e+03 -4.70916e+02 -4.79182e+02 
 1.75697e+03 -5.33747e+02 -4.02885e+02 
 1.87464e+03 -5.95121e+02 -2.97190e+02 
 1.97095e+03 -6.47516e+02 -1.31202e+02 
 2.02969e+03 -6.77968e+02 -3.15829e+01 
-1.97435e+03  6.48695e+02  5.60651e-01 
-1.91077e+03  6.35978e+02 -9.44955e+01 
-1.82850e+03  5.98514e+02 -2.16911e+02 
-1.72961e+03  5.53143e+02 -3.18645e+02 
-1.61923e+03  5.00835e+02 -4.04476e+02 
-1.50219e+03  4.46411e+02 -4.72321e+02 
-1.38281e+03  3.93387e+02 -5.21567e+02 
-1.26413e+03  3.43897e+02 -5.55288e+02 
-1.14793e+03  2.98860e+02 -5.77171e+02 
-1.03500e+03  2.58401e+02 -5.90506e+02 
-9.25522e+02  2.22224e+02 -5.97928e+02 
-8.19366e+02  1.89853e+02 -6.01396e+02 
-7.16226e+02  1.60761e+02 -6.02327e+02 
-6.15730e+02  1.34431e+02 -6.01729e+02 
-5.17489e+02  1.10386e+02 -6.00309e+02 
-4.21119e+02  8.81903e+01 -5.98563e+02 
-3.26252e+02  6.74505e+01 -5.96833e+02 
-2.32534e+02  4.78095e+01 -5.95350e+02 
-1.39629e+02  2.89385e+01 -5.94271e+02 
-4.72138e+01  1.05281e+01 -5.93688e+02 
 4.50328e+01 -7.71726e+00 -5.93641e+02 
 1.37417e+02 -2.60895e+01 -5.94127e+02 
 2.30257e+02 -4.48822e+01 -5.95115e+02 
 3.23871e+02 -6.43995e+01 -5.96515e+02 
 4.18589e+02 -8.49619e+01 -5.98176e+02 
 5.14750e+02 -1.06914e+02 -5.99876e+02 
 6.12708e+02 -1.30629e+02 -6.01290e+02 
 7.12823e+02 -1.56514e+02 -6.01954e+02 
 8.15459e+02 -1.85010e+02 -6.01216e+02 
 9.20959e+02 -2.16583e+02 -5.98165e+02 
 1.02962e+03 -2.51703e+02 -5.91553e+02 
 1.14160e+03 -2.90804e+02 -5.79687e+02 
 1.25687e+03 -3.34203e+02 -5.60319e+02 
 1.37499e+03 -3.81963e+02 -5.30593e+02 
 1.49487e+03 -4.33693e+02 -4.86986e+02 
 1.61440e+03 -4.88163e+02 -4.25878e+02 
 1.73004e+03 -5.42998e+02 -3.45180e+02 
 1.83657e+03 -5.94263e+02 -2.45233e+02 
 1.92577e+03 -6.37865e+02 -1.02005e+02 
 1.99014e+03 -6.63351e+02 -2.98650e+01 
-1.94576e+03  6.39070e+02  3.57880e+00 
-1.87534e+03  6.25656e+02 -8.51675e+01 
-1.79288e+03  5.90620e+02 -1.89466e+02 
-1.69870e+03  5.51324e+02 -2.82057e+02 
-1.59546e+03  5.05913e+02 -3.64273e+02 
-1.48604e+03  4.57815e+02 -4.34478e+02 
-1.37341e+03  4.09491e+02 -4.90071e+02 
-1.26003e+03  3.62895e+02 -5.32290e+02 
-1.14761e+03  3.19152e+02 -5.63278e+02 
-1.03717e+03  2.78762e+02 -5.85386e+02 
-9.29195e+02  2.41787e+02 -6.00758e+02 
-8.23796e+02  2.08038e+02 -6.11165e+02 
-7.20887e+02  1.77195e+02 -6.18003e+02 
-6.20253e+02  1.48885e+02 -6.22329e+02 
-5.21620e+02  1.22726e+02 -6.24934e+02 
-4.24685e+02  9.83416e+01 -6.26400e+02 
-3.29136e+02  7.53777e+01 -6.27148e+02 
-2.34662e+02  5.34979e+01 -6.27474e+02 
-1.40954e+02  3.23842e+01 -6.27585e+02 
-4.77109e+01  1.17317e+01 -6.27606e+02 
 4.53698e+01 -8.75414e+00 -6.27593e+02 
 1.38578e+02 -2.93654e+01 -6.27545e+02 
 2.32213e+02 -5.03942e+01 -6.27417e+02 
 3.26573e+02 -7.21400e+01 -6.27089e+02 
 4.21959e+02 -9.49122e+01 -6.26367e+02 
 5.18673e+02 -1.19034e+02 -6.24970e+02 
 6.17013e+02 -1.44843e+02 -6.22504e+02 
 7.17272e+02 -1.72692e+02 -6.18432e+02 
 8.19713e+02 -2.02937e+02 -6.12036e+02 
 9.24555e+02 -2.35925e+02 -6.02363e+02 
 1.03192e+03 -2.71965e+02 -5.88180e+02 
 1.14179e+03 -3.11275e+02 -5.67923e+02 
 1.25387e+03 -3.53908e+02 -5.39661e+02 
 1.36752e+03 -3.99631e+02 -5.01159e+02 
 1.48150e+03 -4.47789e+02 -4.49945e+02 
 1.59381e+03 -4.97025e+02 -3.84056e+02 
 1.70153e+03 -5.45294e+02 -3.03301e+02 
 1.80092e+03 -5.89357e+02 -2.10862e+02 
 1.88710e+03 -6.27789e+02 -8.47045e+01 
 1.95710e+03 -6.50853e+02 -3.11124e+01 
-1.91938e+03  6.30156e+02  5.27332e+00 
-1.84389e+03  6.16135e+02 -7.97711e+01 
-1.76062e+03  5.82296e+02 -1.71818e+02 
-1.66914e+03  5.46894e+02 -2.57013e+02 
-1.57072e+03  5.06338e+02 -3.35067e+02 
-1.46697e+03  4.63191e+02 -4.05165e+02 
-1.35988e+03  4.19048e+02 -4.63949e+02 
-1.25131e+03  3.75498e+02 -5.11612e+02 
-1.14273e+03  3.33615e+02 -5.49178e+02 
-1.03514e+03  2.94039e+02 -5.78160e+02 
-9.29143e+02  2.57044e+02 -6.00151e+02 
-8.25029e+02  2.22650e+02 -6.16616e+02 
-7.22863e+02  1.90712e+02 -6.28799e+02 
-6.22566e+02  1.60993e+02 -6.37712e+02 
-5.23970e+02  1.33212e+02 -6.44154e+02 
-4.26855e+02  1.07064e+02 -6.48737e+02 
-3.30973e+02  8.22457e+01 -6.51921e+02 
-2.36060e+02  5.84544e+01 -6.54045e+02 
-1.41845e+02  3.53960e+01 -6.55346e+02 
-4.80576e+01  1.27818e+01 -6.55972e+02 
 4.55791e+01 -9.67010e+00 -6.55992e+02 
 1.39330e+02 -3.22407e+01 -6.55406e+02 
 2.33469e+02 -5.52096e+01 -6.54162e+02 
 3.28265e+02 -7.88605e+01 -6.52118e+02 
 4.23984e+02 -1.03480e+02 -6.49054e+02 
 5.20882e+02 -1.29360e+02 -6.44655e+02 
 6.19205e+02 -1.56792e+02 -6.38495e+02 
 7.19170e+02 -1.86066e+02 -6.30012e+02 
 8.20955e+02 -2.17454e+02 -6.18478e+02 
 9.24667e+02 -2.51193e+02 -6.02981e+02 
 1.03030e+03 -2.87453e+02 -5.82391e+02 
 1.13770e+03 -3.26288e+02 -5.55363e+02 
 1.24645e+03 -3.67577e+02 -5.20353e+02 
 1.35580e+03 -4.10924e+02 -4.75745e+02 
 1.46458e+03 -4.55587e+02 -4.19964e+02 
 1.57105e+03 -5.00293e+02 -3.52251e+02 
 1.67297e+03 -5.43448e+02 -2.73512e+02 
 1.76789e+03 -5.82512e+02 -1.88277e+02 
 1.85309e+03 -6.17927e+02 -7.43849e+01 
 1.92780e+03 -6.39872e+02 -3.29865e+01 
-1.89417e+03  6.21649e+02  6.20099e+00 
-1.81503e+03  6.07159e+02 -7.67035e+01 
-1.73087e+03  5.73912e+02 -1.60502e+02 
-1.64097e+03  5.41042e+02 -2.39968e+02 
-1.54583e+03  5.03908e+02 -3.14128e+02 
-1.44630e+03  4.64541e+02 -3.83023e+02 
-1.34369e+03  4.23889e+02 -4.43112e+02 
-1.23930e+03  3.83178e+02 -4.94053e+02 
-1.13432e+03  3.43317e+02 -5.36157e+02 
-1.02965e+03  3.04949e+02 -5.70299e+02 
-9.25881e+02  2.68442e+02 -5.97572e+02 
-8.23396e+02  2.33942e+02 -6.19099e+02 
-7.22355e+02  2.01435e+02 -6.35919e+02 
-6.22780e+02  1.70798e+02 -6.48929e+02 
-5.24594e+02  1.41839e+02 -6.58877e+02 
-4.27651e+02  1.14330e+02 -6.66361e+02 
-3.31765e+02  8.80195e+01 -6.71846e+02 
-2.36723e+02  6.26482e+01 -6.75684e+02 
-1.42297e+02  3.79536e+01 -6.78128e+02 
-4.82506e+01  1.36724e+01 -6.79338e+02 
 4.56606e+01 -1.04561e+01 -6.79391e+02 
 1.39671e+02 -3.46929e+01 -6.78288e+02 
 2.34024e+02 -5.92968e+01 -6.75972e+02 
 3.28954e+02 -8.45273e+01 -6.72294e+02 
 4.24689e+02 -1.10641e+02 -6.67022e+02 
 5.21439e+02 -1.37892e+02 -6.59830e+02 
 6.19395e+02 -1.66525e+02 -6.50290e+02 
 7.18710e+02 -1.96765e+02 -6.37850e+02 
 8.19487e+02 -2.28808e+02 -6.21827e+02 
 9.21746e+02 -2.62798e+02 -6.01391e+02 
 1.02540e+03 -2.98799e+02 -5.75570e+02 
 1.13019e+03 -3.36754e+02 -5.43272e+02 
 1.23567e+03 -3.76437e+02 -5.03336e+02 
 1.34110e+03 -4.17393e+02 -4.54682e+02 
 1.44543e+03 -4.58906e+02 -3.96424e+02 
 1.54728e+03 -4.99879e+02 -3.28596e+02 
 1.64503e+03 -5.39160e+02 -2.52630e+02 
 1.73714e+03 -5.74790e+02 -1.73528e+02 
 1.82225e+03 -6.08436e+02 -6.82220e+01 
 1.90060e+03 -6.29904e+02 -3.47562e+01 
-1.86958e+03  6.13365e+02  6.64347e+00 
-1.78785e+03  5.98540e+02 -7.50659e+01 
-1.70293e+03  5.65596e+02 -1.53353e+02 
-1.61403e+03  5.34416e+02 -2.28512e+02 
-1.52120e+03  4.99714e+02 -2.99351e+02 
-1.42488e+03  4.63203e+02 -3.66656e+02 
-1.32583e+03  4.25375e+02 -4.26972e+02 
-1.22501e+03  3.87150e+02 -4.79742e+02 
-1.12329e+03  3.49245e+02 -5.24852e+02 
-1.02142e+03  3.12237e+02 -5.62732e+02 
-9.19968e+02  2.76510e+02 -5.94073e+02 
-8.19305e+02  2.42273e+02 -6.19686e+02 
-7.19650e+02  2.09595e+02 -6.40386e+02 
-6.21091e+02  1.78438e+02 -6.56926e+02 
-5.23619e+02  1.48686e+02 -6.69966e+02 
-4.27152e+02  1.20178e+02 -6.80055e+02 
-3.31560e+02  9.27151e+01 -6.87637e+02 
-2.36678e+02  6.60836e+01 -6.93054e+02 
-1.42320e+02  4.00572e+01 -6.96559e+02 
-4.82892e+01  1.44032e+01 -6.98315e+02 
 4.56251e+01 -1.11117e+01 -6.98400e+02 
 1.39623e+02 -3.67224e+01 -6.96817e+02 
 2.33915e+02 -6.26613e+01 -6.93509e+02 
 3.28700e+02 -8.91588e+01 -6.88328e+02 
 4.24164e+02 -1.16438e+02 -6.81043e+02 
 5.20477e+02 -1.44713e+02 -6.71339e+02 
 6.17777e+02 -1.74180e+02 -6.58805e+02 
 7.16164e+02 -2.05009e+02 -6.42931e+02 
 8.15679e+02 -2.37331e+02 -6.23103e+02 
 9.16284e+02 -2.71217e+02 -5.98607e+02 
 1.01783e+03 -3.06655e+02 -5.68643e+02 
 1.12004e+03 -3.43521e+02 -5.32369e+02 
 1.22245e+03 -3.81545e+02 -4.88961e+02 
 1.32439e+03 -4.20273e+02 -4.37769e+02 
 1.42500e+03 -4.59073e+02 -3.78391e+02 
 1.52321e+03 -4.97054e+02 -3.11336e+02 
 1.61791e+03 -5.33442e+02 -2.38198e+02 
 1.70822e+03 -5.66709e+02 -1.63999e+02 
 1.79355e+03 -5.99294e+02 -6.45972e+01 
 1.87455e+03 -6.20582e+02 -3.62408e+01 
-1.84522e+03  6.05187e+02  6.77406e+00 
-1.76175e+03  5.90145e+02 -7.43174e+01 
-1.67630e+03  5.57374e+02 -1.48976e+02 
-1.58811e+03  5.27354e+02 -2.20959e+02 
-1.49700e+03  4.94407e+02 -2.89095e+02 
-1.40314e+03  4.60057e+02 -3.54785e+02 
-1.30699e+03  4.24484e+02 -4.14765e+02 
-1.20918e+03  3.88364e+02 -4.68434e+02 
-1.11036e+03  3.52241e+02 -5.15451e+02 
-1.01112e+03  3.16599e+02 -5.55955e+02 
-9.11937e+02  2.81792e+02 -5.90336e+02 
-8.13178e+02  2.48049e+02 -6.19147e+02 
-7.15070e+02  2.15485e+02 -6.42996e+02 
-6.17739e+02  1.84117e+02 -6.62486e+02 
-5.21221e+02  1.53891e+02 -6.78168e+02 
-4.25482e+02  1.24697e+02 -6.90526e+02 
-3.30441e+02  9.63888e+01 -6.99960e+02 
-2.35977e+02  6.87937e+01 -7.06787e+02 
-1.41944e+02  4.17236e+01 -7.11247e+02 
-4.81831e+01  1.49791e+01 -7.13496e+02 
 4.54815e+01 -1.16427e+01 -7.13612e+02 
 1.39216e+02 -3.83474e+01 -7.11597e+02 
 2.33195e+02 -6.53376e+01 -7.07398e+02 
 3.27582e+02 -9.28121e+01 -7.00875e+02 
 4.22527e+02 -1.20960e+02 -6.91809e+02 
 5.18158e+02 -1.49956e+02 -6.79907e+02 
 6.14571e+02 -1.79953e+02 -6.64796e+02 
 7.11821e+02 -2.11073e+02 -6.46023e+02 
 8.09906e+02 -2.43394e+02 -6.23058e+02 
 9.08746e+02 -2.76935e+02 -5.95311e+02 
 1.00817e+03 -3.11636e+02 -5.62152e+02 
 1.10789e+03 -3.47340e+02 -5.22963e+02 
 1.20748e+03 -3.83769e+02 -4.77198e+02 
 1.30637e+03 -4.20510e+02 -4.24524e+02 
 1.40387e+03 -4.57037e+02 -3.64859e+02 
 1.49920e+03 -4.92654e+02 -2.98960e+02 
 1.59163e+03 -5.26885e+02 -2.28380e+02 
 1.68070e+03 -5.58509e+02 -1.57951e+02 
 1.76629e+03 -5.90427e+02 -6.25505e+01 
 1.84911e+03 -6.11662e+02 -3.74318e+01 
-1.82087e+03  5.97033e+02  6.69893e+00 
-1.73630e+03  5.81876e+02 -7.41201e+01 
-1.65057e+03  5.49234e+02 -1.46451e+02 
-1.56297e+03  5.20044e+02 -2.16125e+02 
-1.47323e+03  4.88389e+02 -2.82132e+02 
-1.38135e+03  4.55688e+02 -3.46347e+02 
-1.28758e+03  4.21907e+02 -4.05732e+02 
-1.19233e+03  3.87542e+02 -4.59724e+02 
-1.09606e+03  3.52989e+02 -5.07884e+02 
-9.99236e+02  3.18637e+02 -5.50168e+02 
-9.02244e+02  2.84792e+02 -5.86759e+02 
-8.05400e+02  2.51675e+02 -6.18007e+02 
-7.08929e+02  2.19418e+02 -6.44343e+02 
-6.12969e+02  1.88072e+02 -6.66228e+02 
-5.17584e+02  1.57625e+02 -6.84108e+02 
-4.22779e+02  1.28011e+02 -6.98385e+02 
-3.28507e+02  9.91240e+01 -7.09408e+02 
-2.34686e+02  7.08320e+01 -7.17458e+02 
-1.41207e+02  4.29824e+01 -7.22753e+02 
-4.79456e+01  1.54090e+01 -7.25438e+02 
 4.52396e+01 -1.20595e+01 -7.25581e+02 
 1.38481e+02 -3.95982e+01 -7.23187e+02 
 2.31922e+02 -6.73792e+01 -7.18210e+02 
 3.25690e+02 -9.55697e+01 -7.10520e+02 
 4.19902e+02 -1.24325e+02 -6.99918e+02 
 5.14650e+02 -1.53785e+02 -6.86145e+02 
 6.09995e+02 -1.84063e+02 -6.68870e+02 
 7.05958e+02 -2.15243e+02 -6.47708e+02 
 8.02505e+02 -2.47363e+02 -6.22219e+02 
 8.99537e+02 -2.80407e+02 -5.91932e+02 
 9.96874e+02 -3.14288e+02 -5.56372e+02 
 1.09424e+03 -3.48838e+02 -5.15109e+02 
 1.19127e+03 -3.83799e+02 -4.67813e+02 
 1.28750e+03 -4.18813e+02 -4.14373e+02 
 1.38239e+03 -4.53464e+02 -3.54899e+02 
 1.47540e+03 -4.87221e+02 -2.90248e+02 
 1.56607e+03 -5.19833e+02 -2.21834e+02 
 1.65421e+03 -5.50287e+02 -1.54229e+02 
 1.73993e+03 -5.81750e+02 -6.14957e+01 
 1.82395e+03 -6.02980e+02 -3.83579e+01 
-1.79639e+03  5.88860e+02  6.47300e+00 
-1.71123e+03  5.73665e+02 -7.42727e+01 
-1.62544e+03  5.41150e+02 -1.45176e+02 
-1.53841e+03  5.12584e+02 -2.13199e+02 
-1.44983e+03  4.81907e+02 -2.77564e+02 
-1.35961e+03  4.50482e+02 -3.40509e+02 
-1.26784e+03  4.18133e+02 -3.99211e+02 
-1.17480e+03  3.85223e+02 -4.53189e+02 
-1.08081e+03  3.52030e+02 -5.01972e+02 
-9.86189e+02  3.18857e+02 -5.45418e+02 
-8.91268e+02  2.85957e+02 -5.83569e+02 
-7.96307e+02  2.53527e+02 -6.16625e+02 
-7.01509e+02  2.21700e+02 -6.44875e+02 
-6.07011e+02  1.90545e+02 -6.68657e+02 
-5.12893e+02  1.60075e+02 -6.88315e+02 
-4.19181e+02  1.30257e+02 -7.04174e+02 
-3.25857e+02  1.01020e+02 -7.16526e+02 
-2.32871e+02  7.22646e+01 -7.25609e+02 
-1.40145e+02  4.38711e+01 -7.31616e+02 
-4.75851e+01  1.57051e+01 -7.34671e+02 
 4.49178e+01 -1.23742e+01 -7.34839e+02 
 1.37466e+02 -4.05122e+01 -7.32121e+02 
 2.30170e+02 -6.88508e+01 -7.26479e+02 
 3.23130e+02 -9.75275e+01 -7.17798e+02 
 4.16430e+02 -1.26667e+02 -7.05905e+02 
 5.10133e+02 -1.56375e+02 -6.90573e+02 
 6.04273e+02 -1.86737e+02 -6.71525e+02 
 6.98844e+02 -2.17803e+02 -6.48440e+02 
 7.93795e+02 -2.49584e+02 -6.20966e+02 
 8.89017e+02 -2.82042e+02 -5.88743e+02 
 9.84337e+02 -3.15079e+02 -5.51426e+02 
 1.07951e+03 -3.48533e+02 -5.08736e+02 
 1.17423e+03 -3.82176e+02 -4.60502e+02 
 1.26812e+03 -4.15711e+02 -4.06762e+02 
 1.36079e+03 -4.48820e+02 -3.47726e+02 
 1.45187e+03 -4.81108e+02 -2.84262e+02 
 1.54110e+03 -5.12488e+02 -2.17611e+02 
 1.62845e+03 -5.42083e+02 -1.52077e+02 
 1.71414e+03 -5.73196e+02 -6.10801e+01 
 1.79883e+03 -5.94420e+02 -3.90742e+01 
-1.77171e+03  5.80639e+02  6.15548e+00 
-1.68634e+03  5.65471e+02 -7.46277e+01 
-1.60072e+03  5.33102e+02 -1.44728e+02 
-1.51430e+03  5.05031e+02 -2.11590e+02 
-1.42677e+03  4.75119e+02 -2.74711e+02 
-1.33798e+03  4.44702e+02 -3.36602e+02 
-1.24796e+03  4.13508e+02 -3.94627e+02 
-1.15686e+03  3.81806e+02 -4.48403e+02 
-1.06490e+03  3.49783e+02 -4.97468e+02 
-9.72306e+02  3.17669e+02 -5.41631e+02 
-8.79337e+02  2.85666e+02 -5.80847e+02 
-7.86204e+02  2.53941e+02 -6.15208e+02 
-6.93081e+02  2.22619e+02 -6.44893e+02 
-6.00099e+02  1.91772e+02 -6.70139e+02 
-5.07338e+02  1.61430e+02 -6.91200e+02 
-4.14841e+02  1.31582e+02 -7.08331e+02 
-3.22609e+02  1.02184e+02 -7.21765e+02 
-2.30615e+02  7.31640e+01 -7.31700e+02 
-1.38809e+02  4.44319e+01 -7.38295e+02 
-4.71240e+01  1.58815e+01 -7.41660e+02 
 4.45222e+01 -1.26000e+01 -7.41847e+02 
 1.36204e+02 -4.11299e+01 -7.38858e+02 
 2.28005e+02 -6.98224e+01 -7.32660e+02 
 3.19997e+02 -9.87871e+01 -7.23157e+02 
 4.12240e+02 -1.28121e+02 -7.10201e+02 
 5.04772e+02 -1.57904e+02 -6.93602e+02 
 5.97604e+02 -1.88194e+02 -6.73132e+02 
 6.90716e+02 -2.19018e+02 -6.48534e+02 
 7.84044e+02 -2.50369e+02 -6.19537e+02 
 8.77482e+02 -2.82196e+02 -5.85873e+02 
 9.70870e+02 -3.14402e+02 -5.47308e+02 
 1.06400e+03 -3.46839e+02 -5.03677e+02 
 1.15662e+03 -3.79313e+02 -4.54923e+02 
 1.24844e+03 -4.11588e+02 -4.01171e+02 
 1.33918e+03 -4.43429e+02 -3.42677e+02 
 1.42861e+03 -4.74547e+02 -2.80268e+02 
 1.51659e+03 -5.04966e+02 -2.15011e+02 
 1.60319e+03 -5.33902e+02 -1.50968e+02 
 1.68868e+03 -5.64713e+02 -6.10672e+01 
 1.77364e+03 -5.85914e+02 -3.96099e+01 
-1.74678e+03  5.72352e+02  5.76391e+00 
-1.66152e+03  5.57263e+02 -7.51023e+01 
-1.57625e+03  5.25070e+02 -1.44835e+02 
-1.49050e+03  4.97415e+02 -2.10899e+02 
-1.40397e+03  4.68126e+02 -2.73095e+02 
-1.31648e+03  4.38524e+02 -3.34132e+02 
-1.22803e+03  4.08277e+02 -3.91536e+02 
-1.13867e+03  3.77586e+02 -4.45016e+02 
-1.04854e+03  3.46571e+02 -4.94144e+02 
-9.57823e+02  3.15401e+02 -5.38712e+02 
-8.66694e+02  2.84234e+02 -5.78622e+02 
-7.75325e+02  2.53207e+02 -6.13894e+02 
-6.83861e+02  2.22427e+02 -6.44626e+02 
-5.92419e+02  1.91968e+02 -6.70971e+02 
-5.01078e+02  1.61866e+02 -6.93113e+02 
-4.09885e+02  1.32125e+02 -7.11240e+02 
-3.18857e+02  1.02721e+02 -7.25533e+02 
-2.27984e+02  7.36043e+01 -7.36151e+02 
-1.37237e+02  4.47087e+01 -7.43222e+02 
-4.65711e+01  1.59532e+01 -7.46837e+02 
 4.40714e+01 -1.27497e+01 -7.47037e+02 
 1.34741e+02 -4.14921e+01 -7.43824e+02 
 2.25499e+02 -7.03634e+01 -7.37173e+02 
 3.16394e+02 -9.94485e+01 -7.27003e+02 
 4.07462e+02 -1.28821e+02 -7.13190e+02 
 4.98725e+02 -1.58537e+02 -6.95583e+02 
 5.90178e+02 -1.88636e+02 -6.73999e+02 
 6.81788e+02 -2.19126e+02 -6.48239e+02 
 7.73490e+02 -2.49989e+02 -6.18101e+02 
 8.65183e+02 -2.81170e+02 -5.83396e+02 
 9.56726e+02 -3.12578e+02 -5.43976e+02 
 1.04795e+03 -3.44083e+02 -4.99762e+02 
 1.13864e+03 -3.75528e+02 -4.50770e+02 
 1.22860e+03 -4.06729e+02 -3.97178e+02 
 1.31763e+03 -4.37517e+02 -3.39244e+02 
 1.40559e+03 -4.67686e+02 -2.77733e+02 
 1.49244e+03 -4.97336e+02 -2.13556e+02 
 1.57828e+03 -5.25742e+02 -1.50561e+02 
 1.66340e+03 -5.56264e+02 -6.13151e+01 
 1.74830e+03 -5.77414e+02 -4.00089e+01 
-1.72158e+03  5.63989e+02  5.33516e+00 
-1.63668e+03  5.49023e+02 -7.56254e+01 
-1.55193e+03  5.17039e+02 -1.45287e+02 
-1.46693e+03  4.89756e+02 -2.10819e+02 
-1.38138e+03  4.60994e+02 -2.72339e+02 
-1.29512e+03  4.32070e+02 -3.32698e+02 
-1.20810e+03  4.02614e+02 -3.89555e+02 
-1.12033e+03  3.72781e+02 -4.42704e+02 
-1.03190e+03  3.42639e+02 -4.91760e+02 
-9.42928e+02  3.12312e+02 -5.36517e+02 
-8.53541e+02  2.81917e+02 -5.76851e+02 
-7.63873e+02  2.51565e+02 -6.12732e+02 
-6.74043e+02  2.21346e+02 -6.44201e+02 
-5.84150e+02  1.91327e+02 -6.71349e+02 
-4.94267e+02  1.61547e+02 -6.94298e+02 
-4.04444e+02  1.32019e+02 -7.13185e+02 
-3.14705e+02  1.02733e+02 -7.28143e+02 
-2.25054e+02  7.36568e+01 -7.39293e+02 
-1.35477e+02  4.47444e+01 -7.46739e+02 
-4.59493e+01  1.59357e+01 -7.50549e+02 
 4.35685e+01 -1.28350e+01 -7.50758e+02 
 1.33107e+02 -4.16378e+01 -7.47364e+02 
 2.22707e+02 -7.05402e+01 -7.40349e+02 
 3.12399e+02 -9.96062e+01 -7.29648e+02 
 4.02203e+02 -1.28889e+02 -7.15163e+02 
 4.92123e+02 -1.58427e+02 -6.96771e+02 
 5.82146e+02 -1.88243e+02 -6.74335e+02 
 6.72232e+02 -2.18335e+02 -6.47705e+02 
 7.62318e+02 -2.48677e+02 -6.16737e+02 
 8.52311e+02 -2.79214e+02 -5.81306e+02 
 9.42092e+02 -3.09866e+02 -5.41329e+02 
 1.03152e+03 -3.40523e+02 -4.96788e+02 
 1.12044e+03 -3.71061e+02 -4.47747e+02 
 1.20870e+03 -4.01338e+02 -3.94405e+02 
 1.29617e+03 -4.31243e+02 -3.37004e+02 
 1.38278e+03 -4.60625e+02 -2.76236e+02 
 1.46854e+03 -4.89637e+02 -2.12880e+02 
 1.55358e+03 -5.17592e+02 -1.50603e+02 
 1.63818e+03 -5.47820e+02 -6.17156e+01 
 1.72276e+03 -5.68893e+02 -4.02813e+01 
-1.69610e+03  5.55548e+02  4.87121e+00 
-1.61177e+03  5.40739e+02 -7.61653e+01 
-1.52768e+03  5.08999e+02 -1.45959e+02 
-1.44349e+03  4.82063e+02 -2.11153e+02 
-1.35894e+03  4.53766e+02 -2.72192e+02 
-1.27387e+03  4.25424e+02 -3.32020e+02 
-1.18820e+03  3.96645e+02 -3.88408e+02 
-1.10192e+03  3.67552e+02 -4.41226e+02 
-1.01508e+03  3.38176e+02 -4.90132e+02 
-9.27750e+02  3.08604e+02 -5.34933e+02 
-8.40022e+02  2.78922e+02 -5.75495e+02 
-7.51997e+02  2.49216e+02 -6.11759e+02 
-6.63770e+02  2.19562e+02 -6.43725e+02 
-5.75422e+02  1.90015e+02 -6.71437e+02 
-4.87021e+02  1.60616e+02 -6.94971e+02 
-3.98613e+02  1.31382e+02 -7.14418e+02 
-3.10227e+02  1.02312e+02 -7.29875e+02 
-2.21877e+02  7.33878e+01 -7.41429e+02 
-1.33561e+02  4.45793e+01 -7.49159e+02 
-4.52658e+01  1.58436e+01 -7.53119e+02 
 4.30294e+01 -1.28665e+01 -7.53330e+02 
 1.31340e+02 -4.16026e+01 -7.49792e+02 
 2.19691e+02 -7.04139e+01 -7.42492e+02 
 3.08097e+02 -9.93463e+01 -7.31380e+02 
 3.96565e+02 -1.28437e+02 -7.16377e+02 
 4.85090e+02 -1.57710e+02 -6.97392e+02 
 5.73649e+02 -1.87175e+02 -6.74321e+02 
 6.62202e+02 -2.16824e+02 -6.47059e+02 
 7.50688e+02 -2.46627e+02 -6.15508e+02 
 8.39027e+02 -2.76534e+02 -5.79594e+02 
 9.27119e+02 -3.06474e+02 -5.39282e+02 
 1.01485e+03 -3.36359e+02 -4.94595e+02 
 1.10211e+03 -3.66091e+02 -4.45624e+02 
 1.18879e+03 -3.95567e+02 -3.92571e+02 
 1.27481e+03 -4.24716e+02 -3.35651e+02 
 1.36014e+03 -4.53431e+02 -2.75485e+02 
 1.44483e+03 -4.81893e+02 -2.12743e+02 
 1.52902e+03 -5.09445e+02 -1.50939e+02 
 1.61296e+03 -5.39365e+02 -6.22099e+01 
 1.69701e+03 -5.60333e+02 -4.04603e+01 
-1.67035e+03  5.47029e+02  4.39796e+00 
-1.58675e+03  5.32406e+02 -7.66857e+01 
-1.50345e+03  5.00942e+02 -1.46743e+02 
-1.42016e+03  4.74344e+02 -2.11738e+02 
-1.33662e+03  4.46472e+02 -2.72442e+02 
-1.25272e+03  4.18645e+02 -3.31862e+02 
-1.16835e+03  3.90460e+02 -3.87858e+02 
-1.08350e+03  3.62018e+02 -4.40363e+02 
-9.98163e+02  3.33322e+02 -4.89078e+02 
-9.12396e+02  3.04433e+02 -5.33829e+02 
-8.26259e+02  2.75411e+02 -5.74481e+02 
-7.39827e+02  2.46323e+02 -6.10961e+02 
-6.53172e+02  2.17228e+02 -6.43239e+02 
-5.66362e+02  1.88174e+02 -6.71329e+02 
-4.79453e+02  1.59197e+02 -6.95269e+02 
-3.92491e+02  1.30317e+02 -7.15115e+02 
-3.05506e+02  1.01540e+02 -7.30933e+02 
-2.18515e+02  7.28571e+01 -7.42783e+02 
-1.31527e+02  4.42503e+01 -7.50722e+02 
-4.45410e+01  1.56909e+01 -7.54789e+02 
 4.24544e+01 -1.28534e+01 -7.54998e+02 
 1.29461e+02 -4.14186e+01 -7.51347e+02 
 2.16491e+02 -7.00386e+01 -7.43829e+02 
 3.03547e+02 -9.87452e+01 -7.32405e+02 
 3.90628e+02 -1.27562e+02 -7.17015e+02 
 4.77718e+02 -1.56502e+02 -6.97593e+02 
 5.64793e+02 -1.85567e+02 -6.74066e+02 
 6.51812e+02 -2.14743e+02 -6.46363e+02 
 7.38719e+02 -2.44000e+02 -6.14423e+02 
 8.25446e+02 -2.73294e+02 -5.78210e+02 
 9.11912e+02 -3.02566e+02 -5.37724e+02 
 9.98030e+02 -3.31744e+02 -4.93014e+02 
 1.08372e+03 -3.60755e+02 -4.44184e+02 
 1.16890e+03 -3.89525e+02 -3.91428e+02 
 1.25354e+03 -4.18014e+02 -3.34929e+02 
 1.33764e+03 -4.46145e+02 -2.75242e+02 
 1.42125e+03 -4.74118e+02 -2.12952e+02 
 1.50453e+03 -5.01294e+02 -1.51441e+02 
 1.58769e+03 -5.30886e+02 -6.27442e+01 
 1.67103e+03 -5.51724e+02 -4.05473e+01 
-1.64435e+03  5.38434e+02  3.91057e+00 
-1.56161e+03  5.24019e+02 -7.71786e+01 
-1.47920e+03  4.92864e+02 -1.47584e+02 
-1.39687e+03  4.66601e+02 -2.12479e+02 
-1.31439e+03  4.39132e+02 -2.72962e+02 
-1.23165e+03  4.11776e+02 -3.32072e+02 
-1.14856e+03  3.84125e+02 -3.87744e+02 
-1.06508e+03  3.56266e+02 -4.39964e+02 
-9.81191e+02  3.28185e+02 -4.88471e+02 
-8.96929e+02  2.99921e+02 -5.33114e+02 
-8.12330e+02  2.71516e+02 -5.73763e+02 
-7.27448e+02  2.43017e+02 -6.10337e+02 
-6.42337e+02  2.14472e+02 -6.42792e+02 
-5.57052e+02  1.85921e+02 -6.71115e+02 
-4.71641e+02  1.57395e+02 -6.95320e+02 
-3.86145e+02  1.28914e+02 -7.15436e+02 
-3.00593e+02  1.00489e+02 -7.31503e+02 
-2.15007e+02  7.21171e+01 -7.43559e+02 
-1.29400e+02  4.37901e+01 -7.51645e+02 
-4.37793e+01  1.54901e+01 -7.55785e+02 
 4.18565e+01 -1.28032e+01 -7.55988e+02 
 1.27500e+02 -4.11134e+01 -7.52251e+02 
 2.13154e+02 -6.94620e+01 -7.44570e+02 
 2.98813e+02 -9.78692e+01 -7.32916e+02 
 3.84467e+02 -1.26348e+02 -7.17247e+02 
 4.70097e+02 -1.54904e+02 -6.97515e+02 
 5.55676e+02 -1.83532e+02 -6.73674e+02 
 6.41165e+02 -2.12217e+02 -6.45678e+02 
 7.26515e+02 -2.40929e+02 -6.13497e+02 
 8.11667e+02 -2.69630e+02 -5.77122e+02 
 8.96559e+02 -2.98271e+02 -5.36576e+02 
 9.81123e+02 -3.26798e+02 -4.91924e+02 
 1.06530e+03 -3.55155e+02 -4.43273e+02 
 1.14905e+03 -3.83293e+02 -3.90803e+02 
 1.23235e+03 -4.11193e+02 -3.34665e+02 
 1.31523e+03 -4.38799e+02 -2.75354e+02 
 1.39776e+03 -4.66321e+02 -2.13389e+02 
 1.48006e+03 -4.93134e+02 -1.52041e+02 
 1.56233e+03 -5.22378e+02 -6.32961e+01 
 1.64484e+03 -5.43061e+02 -4.05688e+01 
-1.61810e+03  5.29766e+02  3.42558e+00 
-1.53634e+03  5.15580e+02 -7.76251e+01 
-1.45491e+03  4.84762e+02 -1.48427e+02 
-1.37360e+03  4.58839e+02 -2.13289e+02 
-1.29222e+03  4.31760e+02 -2.73633e+02 
-1.21065e+03  4.04845e+02 -3.32511e+02 
-1.12882e+03  3.77687e+02 -3.87919e+02 
-1.04668e+03  3.50363e+02 -4.39885e+02 
-9.64204e+02  3.22847e+02 -4.88184e+02 
-8.81404e+02  2.95162e+02 -5.32685e+02 
-7.98302e+02  2.67335e+02 -5.73269e+02 
-7.14936e+02  2.39402e+02 -6.09852e+02 
-6.31345e+02  2.11397e+02 -6.42382e+02 
-5.47573e+02  1.83353e+02 -6.70831e+02 
-4.63660e+02  1.55297e+02 -6.95193e+02 
-3.79641e+02  1.27249e+02 -7.15478e+02 
-2.95545e+02  9.92192e+01 -7.31705e+02 
-2.11395e+02  7.12128e+01 -7.43896e+02 
-1.27209e+02  4.32267e+01 -7.52077e+02 
-4.29969e+01  1.52519e+01 -7.56264e+02 
 4.12339e+01 -1.27226e+01 -7.56458e+02 
 1.25470e+02 -4.07108e+01 -7.52655e+02 
 2.09706e+02 -6.87244e+01 -7.44856e+02 
 2.93932e+02 -9.67747e+01 -7.33040e+02 
 3.78132e+02 -1.24867e+02 -7.17177e+02 
 4.62285e+02 -1.53000e+02 -6.97237e+02 
 5.46362e+02 -1.81166e+02 -6.73192e+02 
 6.30329e+02 -2.09348e+02 -6.45018e+02 
 7.14141e+02 -2.37519e+02 -6.12707e+02 
 7.97752e+02 -2.65646e+02 -5.76270e+02 
 8.81111e+02 -2.93691e+02 -5.35743e+02 
 9.64170e+02 -3.21611e+02 -4.91200e+02 
 1.04689e+03 -3.49368e+02 -4.42744e+02 
 1.12924e+03 -3.76928e+02 -3.90540e+02 
 1.21124e+03 -4.04290e+02 -3.34706e+02 
 1.29290e+03 -4.31413e+02 -2.75686e+02 
 1.37431e+03 -4.58506e+02 -2.13952e+02 
 1.45558e+03 -4.84960e+02 -1.52673e+02 
 1.53688e+03 -5.13835e+02 -6.38376e+01 
 1.61844e+03 -5.34345e+02 -4.05219e+01 
-1.59164e+03  5.21035e+02  2.93735e+00 
-1.51093e+03  5.07090e+02 -7.80288e+01 
-1.43056e+03  4.76636e+02 -1.49250e+02 
-1.35033e+03  4.51060e+02 -2.14125e+02 
-1.27008e+03  4.24366e+02 -2.74392e+02 
-1.18970e+03  3.97875e+02 -3.33100e+02 
-1.10913e+03  3.71181e+02 -3.88295e+02 
-1.02832e+03  3.44357e+02 -4.40039e+02 
-9.47224e+02  3.17367e+02 -4.88138e+02 
-8.65855e+02  2.90226e+02 -5.32482e+02 
-7.84219e+02  2.62949e+02 -5.72961e+02 
-7.02340e+02  2.35559e+02 -6.09497e+02 
-6.20249e+02  2.08084e+02 -6.42030e+02 
-5.37977e+02  1.80548e+02 -6.70525e+02 
-4.55558e+02  1.52975e+02 -6.94962e+02 
-3.73023e+02  1.25382e+02 -7.15338e+02 
-2.90398e+02  9.77819e+01 -7.31657e+02 
-2.07707e+02  7.01820e+01 -7.43928e+02 
-1.24968e+02  4.25843e+01 -7.52165e+02 
-4.21968e+01  1.49860e+01 -7.56377e+02 
 4.05962e+01 -1.26170e+01 -7.56559e+02 
 1.23392e+02 -4.02308e+01 -7.52707e+02 
 2.06182e+02 -6.78602e+01 -7.44826e+02 
 2.88949e+02 -9.55093e+01 -7.32900e+02 
 3.71677e+02 -1.23178e+02 -7.16911e+02 
 4.54342e+02 -1.50860e+02 -6.96842e+02 
 5.36917e+02 -1.78547e+02 -6.72678e+02 
 6.19370e+02 -2.06219e+02 -6.44413e+02 
 7.01664e+02 -2.33855e+02 -6.12054e+02 
 7.83759e+02 -2.61426e+02 -5.75623e+02 
 8.65619e+02 -2.88902e+02 -5.35167e+02 
 9.47208e+02 -3.16252e+02 -4.90762e+02 
 1.02850e+03 -3.43450e+02 -4.42503e+02 
 1.10949e+03 -3.70474e+02 -3.90539e+02 
 1.19018e+03 -3.97335e+02 -3.34957e+02 
 1.27063e+03 -4.24001e+02 -2.76161e+02 
 1.35089e+03 -4.50680e+02 -2.14585e+02 
 1.43107e+03 -4.76773e+02 -1.53312e+02 
 1.51132e+03 -5.05257e+02 -6.43639e+01 
 1.59183e+03 -5.25572e+02 -4.04261e+01 
-1.56499e+03  5.12245e+02  2.45446e+00 
-1.48542e+03  4.98555e+02 -7.83837e+01 
-1.40616e+03  4.68486e+02 -1.50033e+02 
-1.32706e+03  4.43266e+02 -2.14951e+02 
-1.24797e+03  4.16958e+02 -2.75185e+02 
-1.16881e+03  3.90880e+02 -3.33772e+02 
-1.08950e+03  3.64631e+02 -3.88796e+02 
-1.01000e+03  3.38282e+02 -4.40350e+02 
-9.30275e+02  3.11792e+02 -4.88264e+02 
-8.50314e+02  2.85168e+02 -5.32446e+02 
-7.70121e+02  2.58416e+02 -5.72799e+02 
-6.89709e+02  2.31553e+02 -6.09249e+02 
-6.09098e+02  2.04597e+02 -6.41737e+02 
-5.28315e+02  1.77568e+02 -6.70222e+02 
-4.47385e+02  1.50485e+02 -6.94676e+02 
-3.66335e+02  1.23365e+02 -7.15086e+02 
-2.85190e+02  9.62186e+01 -7.31445e+02 
-2.03970e+02  6.90561e+01 -7.43752e+02 
-1.22697e+02  4.18827e+01 -7.52015e+02 
-4.13880e+01  1.47001e+01 -7.56234e+02 
 3.99446e+01 -1.24906e+01 -7.56403e+02 
 1.21278e+02 -3.96901e+01 -7.52516e+02 
 2.02601e+02 -6.68974e+01 -7.44581e+02 
 2.83894e+02 -9.41119e+01 -7.32587e+02 
 3.65139e+02 -1.21329e+02 -7.16524e+02 
 4.46312e+02 -1.48541e+02 -6.96384e+02 
 5.27387e+02 -1.75735e+02 -6.72166e+02 
 6.08336e+02 -2.02896e+02 -6.43872e+02 
 6.89128e+02 -2.30004e+02 -6.11521e+02 
 7.69732e+02 -2.57035e+02 -5.75144e+02 
 8.50118e+02 -2.83965e+02 -5.34792e+02 
 9.30263e+02 -3.10773e+02 -4.90537e+02 
 1.01015e+03 -3.37443e+02 -4.42469e+02 
 1.08979e+03 -3.63961e+02 -3.90715e+02 
 1.16919e+03 -3.90346e+02 -3.35342e+02 
 1.24840e+03 -4.16573e+02 -2.76713e+02 
 1.32748e+03 -4.42843e+02 -2.15241e+02 
 1.40653e+03 -4.68572e+02 -1.53927e+02 
 1.48567e+03 -4.96648e+02 -6.48653e+01 
 1.56506e+03 -5.16750e+02 -4.02886e+01 
-1.53815e+03  5.03398e+02  1.98245e+00 
-1.45977e+03  4.89976e+02 -7.86843e+01 
-1.38169e+03  4.60313e+02 -1.50758e+02 
-1.30376e+03  4.35458e+02 -2.15735e+02 
-1.22587e+03  4.09539e+02 -2.75970e+02 
-1.14794e+03  3.83869e+02 -3.34472e+02 
-1.06991e+03  3.58054e+02 -3.89362e+02 
-9.91727e+02  3.32164e+02 -4.40753e+02 
-9.13359e+02  3.06154e+02 -4.88498e+02 
-8.34794e+02  2.80027e+02 -5.32522e+02 
-7.56027e+02  2.53783e+02 -5.72739e+02 
-6.77065e+02  2.27432e+02 -6.09082e+02 
-5.97922e+02  2.00987e+02 -6.41492e+02 
-5.18617e+02  1.74463e+02 -6.69927e+02 
-4.39171e+02  1.47875e+02 -6.94356e+02 
-3.59606e+02  1.21238e+02 -7.14757e+02 
-2.79944e+02  9.45628e+01 -7.31118e+02 
-2.00205e+02  6.78604e+01 -7.43432e+02 
-1.20410e+02  4.11381e+01 -7.51697e+02 
-4.05771e+01  1.44006e+01 -7.55911e+02 
 3.92796e+01 -1.23472e+01 -7.56066e+02 
 1.19136e+02 -3.91020e+01 -7.52155e+02 
 1.98978e+02 -6.58591e+01 -7.44187e+02 
 2.78787e+02 -9.26142e+01 -7.32156e+02 
 3.58542e+02 -1.19360e+02 -7.16059e+02 
 4.38222e+02 -1.46087e+02 -6.95893e+02 
 5.17801e+02 -1.72783e+02 -6.71666e+02 
 5.97256e+02 -1.99432e+02 -6.43389e+02 
 6.76560e+02 -2.26018e+02 -6.11086e+02 
 7.55688e+02 -2.52521e+02 -5.74793e+02 
 8.34620e+02 -2.78925e+02 -5.34562e+02 
 9.13340e+02 -3.05213e+02 -4.90461e+02 
 9.91843e+02 -3.31377e+02 -4.42570e+02 
 1.07014e+03 -3.57411e+02 -3.91001e+02 
 1.14824e+03 -3.83337e+02 -3.35797e+02 
 1.22620e+03 -4.09133e+02 -2.77293e+02 
 1.30407e+03 -4.34997e+02 -2.15884e+02 
 1.38195e+03 -4.60352e+02 -1.54501e+02 
 1.45992e+03 -4.88005e+02 -6.53320e+01 
 1.53813e+03 -5.07884e+02 -4.01072e+01 
-1.51115e+03  4.94503e+02  1.51109e+00 
-1.43401e+03  4.81354e+02 -7.89417e+01 
-1.35714e+03  4.52116e+02 -1.51428e+02 
-1.28043e+03  4.27638e+02 -2.16472e+02 
-1.20377e+03  4.02114e+02 -2.76729e+02 
-1.12710e+03  3.76852e+02 -3.35175e+02 
-1.05035e+03  3.51464e+02 -3.89959e+02 
-9.73486e+02  3.26022e+02 -4.41214e+02 
-8.96474e+02  3.00480e+02 -4.88808e+02 
-8.19295e+02  2.74835e+02 -5.32681e+02 
-7.41944e+02  2.49085e+02 -5.72760e+02 
-6.64421e+02  2.23235e+02 -6.08983e+02 
-5.86735e+02  1.97293e+02 -6.41296e+02 
-5.08900e+02  1.71271e+02 -6.69657e+02 
-4.30932e+02  1.45180e+02 -6.94031e+02 
-3.52850e+02  1.19033e+02 -7.14395e+02 
-2.74673e+02  9.28417e+01 -7.30731e+02 
-1.96420e+02  6.66156e+01 -7.43027e+02 
-1.18111e+02  4.03637e+01 -7.51278e+02 
-3.97630e+01  1.40928e+01 -7.55479e+02 
 3.86079e+01 -1.21897e+01 -7.55619e+02 
 1.16978e+02 -3.84778e+01 -7.51691e+02 
 1.95331e+02 -6.47641e+01 -7.43707e+02 
 2.73650e+02 -9.10420e+01 -7.31664e+02 
 3.51912e+02 -1.17302e+02 -7.15560e+02 
 4.30099e+02 -1.43535e+02 -6.95401e+02 
 5.08187e+02 -1.69728e+02 -6.71198e+02 
 5.86156e+02 -1.95867e+02 -6.42968e+02 
 6.63983e+02 -2.21937e+02 -6.10738e+02 
 7.41649e+02 -2.47925e+02 -5.74548e+02 
 8.19141e+02 -2.73816e+02 -5.34446e+02 
 8.96447e+02 -2.99601e+02 -4.90495e+02 
 9.73570e+02 -3.25276e+02 -4.42766e+02 
 1.05052e+03 -3.50840e+02 -3.91356e+02 
 1.12732e+03 -3.76317e+02 -3.36290e+02 
 1.20401e+03 -4.01689e+02 -2.77877e+02 
 1.28065e+03 -4.27143e+02 -2.16504e+02 
 1.35731e+03 -4.52118e+02 -1.55032e+02 
 1.43407e+03 -4.79331e+02 -6.57686e+01 
 1.51105e+03 -4.98973e+02 -3.98967e+01 
-1.48400e+03  4.85563e+02  1.05360e+00 
-1.40815e+03  4.72696e+02 -7.91505e+01 
-1.33254e+03  4.43898e+02 -1.52030e+02 
-1.25708e+03  4.19806e+02 -2.17144e+02 
-1.18168e+03  3.94684e+02 -2.77437e+02 
-1.10627e+03  3.69832e+02 -3.35848e+02 
-1.03082e+03  3.44870e+02 -3.90552e+02 
-9.55286e+02  3.19870e+02 -4.41691e+02 
-8.79629e+02  2.94786e+02 -4.89151e+02 
-8.03835e+02  2.69614e+02 -5.32886e+02 
-7.27892e+02  2.44348e+02 -5.72830e+02 
-6.51800e+02  2.18990e+02 -6.08930e+02 
-5.75563e+02  1.93545e+02 -6.41135e+02 
-4.99190e+02  1.68022e+02 -6.69406e+02 
-4.22695e+02  1.42429e+02 -6.93708e+02 
-3.46092e+02  1.16777e+02 -7.14015e+02 
-2.69400e+02  9.10765e+01 -7.30307e+02 
-1.92634e+02  6.53377e+01 -7.42570e+02 
-1.15813e+02  3.95698e+01 -7.50796e+02 
-3.89547e+01  1.37808e+01 -7.54978e+02 
 3.79257e+01 -1.20204e+01 -7.55103e+02 
 1.14804e+02 -3.78261e+01 -7.51165e+02 
 1.91666e+02 -6.36272e+01 -7.43177e+02 
 2.68491e+02 -8.94156e+01 -7.31137e+02 
 3.45262e+02 -1.15181e+02 -7.15048e+02 
 4.21958e+02 -1.40914e+02 -6.94918e+02 
 4.98561e+02 -1.66602e+02 -6.70761e+02 
 5.75051e+02 -1.92232e+02 -6.42598e+02 
 6.51411e+02 -2.17794e+02 -6.10457e+02 
 7.27626e+02 -2.43274e+02 -5.74377e+02 
 8.03686e+02 -2.68664e+02 -5.34404e+02 
 8.79587e+02 -2.93958e+02 -4.90597e+02 
 9.55333e+02 -3.19155e+02 -4.43013e+02 
 1.03094e+03 -3.44258e+02 -3.91739e+02 
 1.10642e+03 -3.69293e+02 -3.36784e+02 
 1.18183e+03 -3.94241e+02 -2.78436e+02 
 1.25721e+03 -4.19282e+02 -2.17077e+02 
 1.33262e+03 -4.43867e+02 -1.55507e+02 
 1.40813e+03 -4.70628e+02 -6.61691e+01 
 1.48384e+03 -4.90022e+02 -3.96528e+01 
-1.45673e+03  4.76585e+02  5.97322e-01 
-1.38219e+03  4.64004e+02 -7.93224e+01 
-1.30786e+03  4.35661e+02 -1.52578e+02 
-1.23368e+03  4.11965e+02 -2.17760e+02 
-1.15956e+03  3.87252e+02 -2.78099e+02 
-1.08546e+03  3.62814e+02 -3.36490e+02 
-1.01132e+03  3.38278e+02 -3.91132e+02 
-9.37117e+02  3.13716e+02 -4.42175e+02 
-8.62819e+02  2.89085e+02 -4.89519e+02 
-7.88407e+02  2.64379e+02 -5.33127e+02 
-7.13870e+02  2.39591e+02 -5.72943e+02 
-6.39203e+02  2.14719e+02 -6.08921e+02 
-5.64408e+02  1.89766e+02 -6.41015e+02 
-4.89492e+02  1.64738e+02 -6.69188e+02 
-4.14464e+02  1.39642e+02 -6.93407e+02 
-3.39338e+02  1.14488e+02 -7.13646e+02 
-2.64127e+02  8.92836e+01 -7.29883e+02 
-1.88847e+02  6.40393e+01 -7.42103e+02 
-1.13515e+02  3.87645e+01 -7.50296e+02 
-3.81480e+01  1.34677e+01 -7.54455e+02 
 3.72402e+01 -1.18414e+01 -7.54565e+02 
 1.12626e+02 -3.71541e+01 -7.50623e+02 
 1.87995e+02 -6.24603e+01 -7.42639e+02 
 2.63328e+02 -8.77512e+01 -7.30614e+02 
 3.38609e+02 -1.13017e+02 -7.14553e+02 
 4.13819e+02 -1.38246e+02 -6.94467e+02 
 4.88941e+02 -1.63429e+02 -6.70370e+02 
 5.63959e+02 -1.88554e+02 -6.42285e+02 
 6.38859e+02 -2.13611e+02 -6.10241e+02 
 7.13631e+02 -2.38591e+02 -5.74274e+02 
 7.88266e+02 -2.63489e+02 -5.34426e+02 
 8.62766e+02 -2.88300e+02 -4.90750e+02 
 9.37134e+02 -3.13027e+02 -4.43296e+02 
 1.01139e+03 -3.37675e+02 -3.92137e+02 
 1.08555e+03 -3.62270e+02 -3.37271e+02 
 1.15966e+03 -3.86793e+02 -2.78967e+02 
 1.23375e+03 -4.11415e+02 -2.17609e+02 
 1.30788e+03 -4.35603e+02 -1.55936e+02 
 1.38211e+03 -4.61899e+02 -6.65419e+01 
 1.45651e+03 -4.81036e+02 -3.93917e+01 
-1.42935e+03  4.67574e+02  1.54727e-01 
-1.35614e+03  4.55283e+02 -7.94524e+01 
-1.28314e+03  4.27405e+02 -1.53063e+02 
-1.21026e+03  4.04114e+02 -2.18307e+02 
-1.13745e+03  3.79819e+02 -2.78697e+02 
-1.06465e+03  3.55799e+02 -3.37080e+02 
-9.91843e+02  3.31691e+02 -3.91675e+02 
-9.18983e+02  3.07568e+02 -4.42639e+02 
-8.46048e+02  2.83387e+02 -4.89882e+02 
-7.73020e+02  2.59144e+02 -5.33376e+02 
-6.99886e+02  2.34827e+02 -5.73074e+02 
-6.26641e+02  2.10437e+02 -6.08935e+02 
-5.53285e+02  1.85972e+02 -6.40919e+02 
-4.79820e+02  1.61437e+02 -6.68992e+02 
-4.06256e+02  1.36838e+02 -6.93123e+02 
-3.32601e+02  1.12181e+02 -7.13287e+02 
-2.58868e+02  8.74755e+01 -7.29462e+02 
-1.85072e+02  6.27300e+01 -7.41633e+02 
-1.11228e+02  3.79539e+01 -7.49789e+02 
-3.73503e+01  1.31558e+01 -7.53923e+02 
 3.65466e+01 -1.16543e+01 -7.54020e+02 
 1.10441e+02 -3.64672e+01 -7.50075e+02 
 1.84318e+02 -6.12725e+01 -7.42102e+02 
 2.58162e+02 -8.60611e+01 -7.30101e+02 
 3.31956e+02 -1.10823e+02 -7.14077e+02 
 4.05684e+02 -1.35548e+02 -6.94043e+02 
 4.79331e+02 -1.60226e+02 -6.70014e+02 
 5.52884e+02 -1.84848e+02 -6.42014e+02 
 6.26330e+02 -2.09405e+02 -6.10068e+02 
 6.99663e+02 -2.33892e+02 -5.74211e+02 
 7.72878e+02 -2.58302e+02 -5.34482e+02 
 8.45977e+02 -2.82637e+02 -4.90926e+02 
 9.18967e+02 -3.06899e+02 -4.43586e+02 
 9.91864e+02 -3.31096e+02 -3.92524e+02 
 1.06469e+03 -3.55250e+02 -3.37728e+02 
 1.13748e+03 -3.79345e+02 -2.79453e+02 
 1.21026e+03 -4.03543e+02 -2.18087e+02 
 1.28309e+03 -4.27324e+02 -1.56309e+02 
 1.35601e+03 -4.53147e+02 -6.68816e+01 
 1.42908e+03 -4.72018e+02 -3.91043e+01 
-1.40187e+03  4.58532e+02 -2.86869e-01 
-1.33002e+03  4.46536e+02 -7.95526e+01 
-1.25835e+03  4.19134e+02 -1.53498e+02 
-1.18680e+03  3.96256e+02 -2.18800e+02 
-1.11531e+03  3.72385e+02 -2.79243e+02 
-1.04385e+03  3.48789e+02 -3.37627e+02 
-9.72378e+02  3.25113e+02 -3.92188e+02 
-9.00872e+02  3.01430e+02 -4.43086e+02 
-8.29307e+02  2.77699e+02 -4.90242e+02 
-7.57665e+02  2.53915e+02 -5.33634e+02 
-6.85936e+02  2.30068e+02 -5.73224e+02 
-6.14111e+02  2.06155e+02 -6.08975e+02 
-5.42190e+02  1.82176e+02 -6.40854e+02 
-4.70173e+02  1.58131e+02 -6.68828e+02 
-3.98067e+02  1.34026e+02 -6.92870e+02 
-3.25880e+02  1.09868e+02 -7.12956e+02 
-2.53623e+02  8.56617e+01 -7.29067e+02 
-1.81307e+02  6.14171e+01 -7.41185e+02 
-1.08947e+02  3.71427e+01 -7.49303e+02 
-3.65565e+01  1.28468e+01 -7.53411e+02 
 3.58517e+01 -1.14605e+01 -7.53495e+02 
 1.08257e+02 -3.57699e+01 -7.49551e+02 
 1.80646e+02 -6.00711e+01 -7.41592e+02 
 2.53004e+02 -8.43551e+01 -7.29619e+02 
 3.25315e+02 -1.08612e+02 -7.13638e+02 
 3.97566e+02 -1.32833e+02 -6.93661e+02 
 4.69743e+02 -1.57008e+02 -6.69705e+02 
 5.41834e+02 -1.81130e+02 -6.41789e+02 
 6.13832e+02 -2.05191e+02 -6.09940e+02 
 6.85730e+02 -2.29187e+02 -5.74189e+02 
 7.57527e+02 -2.53116e+02 -5.34570e+02 
 8.29225e+02 -2.76978e+02 -4.91121e+02 
 9.00833e+02 -3.00778e+02 -4.43880e+02 
 9.72366e+02 -3.24523e+02 -3.92899e+02 
 1.04384e+03 -3.48236e+02 -3.38160e+02 
 1.11530e+03 -3.71899e+02 -2.79901e+02 
 1.18676e+03 -3.95667e+02 -2.18522e+02 
 1.25826e+03 -4.19034e+02 -1.56641e+02 
 1.32985e+03 -4.44374e+02 -6.71976e+01 
 1.40157e+03 -4.62973e+02 -3.88061e+01 
-1.37431e+03  4.49464e+02 -7.15691e-01 
-1.30384e+03  4.37765e+02 -7.96185e+01 
-1.23352e+03  4.10849e+02 -1.53879e+02 
-1.16332e+03  3.88391e+02 -2.19231e+02 
-1.09317e+03  3.64951e+02 -2.79727e+02 
-1.02305e+03  3.41785e+02 -3.38118e+02 
-9.52931e+02  3.18544e+02 -3.92654e+02 
-8.82788e+02  2.95303e+02 -4.43499e+02 
-8.12599e+02  2.72023e+02 -4.90580e+02 
-7.42349e+02  2.48698e+02 -5.33883e+02 
-6.72025e+02  2.25319e+02 -5.73374e+02 
-6.01620e+02  2.01882e+02 -6.09024e+02 
-5.31131e+02  1.78385e+02 -6.40802e+02 
-4.60559e+02  1.54830e+02 -6.68682e+02 
-3.89909e+02  1.31218e+02 -6.92637e+02 
-3.19185e+02  1.07556e+02 -7.12646e+02 
-2.48399e+02  8.38493e+01 -7.28692e+02 
-1.77560e+02  6.01060e+01 -7.40758e+02 
-1.06680e+02  3.63342e+01 -7.48836e+02 
-3.57727e+01  1.25419e+01 -7.52918e+02 
 3.51506e+01 -1.12609e+01 -7.52991e+02 
 1.06071e+02 -3.50654e+01 -7.49049e+02 
 1.76975e+02 -5.88614e+01 -7.41106e+02 
 2.47851e+02 -8.26402e+01 -7.29165e+02 
 3.18685e+02 -1.06393e+02 -7.13230e+02 
 3.89463e+02 -1.30110e+02 -6.93312e+02 
 4.60174e+02 -1.53784e+02 -6.69427e+02 
 5.30810e+02 -1.77408e+02 -6.41596e+02 
 6.01362e+02 -2.00977e+02 -6.09840e+02 
 6.71828e+02 -2.24487e+02 -5.74187e+02 
 7.42206e+02 -2.47936e+02 -5.34668e+02 
 8.12501e+02 -2.71327e+02 -4.91316e+02 
 8.82723e+02 -2.94666e+02 -4.44160e+02 
 9.52884e+02 -3.17959e+02 -3.93248e+02 
 1.02301e+03 -3.41228e+02 -3.38551e+02 
 1.09311e+03 -3.64455e+02 -2.80301e+02 
 1.16323e+03 -3.87787e+02 -2.18904e+02 
 1.23339e+03 -4.10733e+02 -1.56923e+02 
 1.30363e+03 -4.35582e+02 -6.74854e+01 
 1.37398e+03 -4.53904e+02 -3.84877e+01 
-1.34667e+03  4.40373e+02 -1.14344e+00 
-1.27759e+03  4.28974e+02 -7.96616e+01 
-1.20865e+03  4.02550e+02 -1.54220e+02 
-1.13980e+03  3.80520e+02 -2.19615e+02 
-1.07101e+03  3.57518e+02 -2.80164e+02 
-1.00225e+03  3.34788e+02 -3.38566e+02 
-9.33492e+02  3.11987e+02 -3.93085e+02 
-8.64722e+02  2.89191e+02 -4.43886e+02 
-7.95916e+02  2.66363e+02 -4.90904e+02 
-7.27061e+02  2.43498e+02 -5.34129e+02 
-6.58145e+02  2.20587e+02 -5.73531e+02 
-5.89160e+02  1.97624e+02 -6.09088e+02 
-5.20103e+02  1.74608e+02 -6.40773e+02 
-4.50974e+02  1.51539e+02 -6.68562e+02 
-3.81775e+02  1.28419e+02 -6.92434e+02 
-3.12512e+02  1.05252e+02 -7.12369e+02 
-2.43192e+02  8.20433e+01 -7.28351e+02 
-1.73825e+02  5.88004e+01 -7.40365e+02 
-1.04422e+02  3.55308e+01 -7.48405e+02 
-3.49935e+01  1.22420e+01 -7.52462e+02 
 3.44495e+01 -1.10567e+01 -7.52524e+02 
 1.03889e+02 -3.43565e+01 -7.48586e+02 
 1.73314e+02 -5.76478e+01 -7.40661e+02 
 2.42713e+02 -8.09223e+01 -7.28752e+02 
 3.12073e+02 -1.04172e+02 -7.12863e+02 
 3.81383e+02 -1.27387e+02 -6.93004e+02 
 4.50633e+02 -1.50563e+02 -6.69191e+02 
 5.19815e+02 -1.73692e+02 -6.41439e+02 
 5.88925e+02 -1.96770e+02 -6.09771e+02 
 6.57959e+02 -2.19795e+02 -5.74210e+02 
 7.26919e+02 -2.42767e+02 -5.34782e+02 
 7.95809e+02 -2.65689e+02 -4.91515e+02 
 8.64639e+02 -2.88566e+02 -4.44433e+02 
 9.33421e+02 -3.11405e+02 -3.93576e+02 
 1.00217e+03 -3.34227e+02 -3.38914e+02 
 1.07092e+03 -3.57013e+02 -2.80665e+02 
 1.13968e+03 -3.79903e+02 -2.19248e+02 
 1.20848e+03 -4.02421e+02 -1.57171e+02 
 1.27735e+03 -4.26774e+02 -6.77542e+01 
 1.34632e+03 -4.44813e+02 -3.81632e+01 
-1.31897e+03  4.31261e+02 -1.56156e+00 
-1.25128e+03  4.20164e+02 -7.96778e+01 
-1.18373e+03  3.94239e+02 -1.54517e+02 
-1.11626e+03  3.72643e+02 -2.19947e+02 
-1.04883e+03  3.50086e+02 -2.80548e+02 
-9.81443e+02  3.27797e+02 -3.38962e+02 
-9.14062e+02  3.05440e+02 -3.93470e+02 
-8.46673e+02  2.83094e+02 -4.44236e+02 
-7.79258e+02  2.60720e+02 -4.91200e+02 
-7.11803e+02  2.38316e+02 -5.34355e+02 
-6.44298e+02  2.15872e+02 -5.73679e+02 
-5.76734e+02  1.93384e+02 -6.09150e+02 
-5.09109e+02  1.70848e+02 -6.40749e+02 
-4.41421e+02  1.48263e+02 -6.68454e+02 
-3.73672e+02  1.25633e+02 -6.92246e+02 
-3.05866e+02  1.02959e+02 -7.12110e+02 
-2.38009e+02  8.02473e+01 -7.28030e+02 
-1.70110e+02  5.75033e+01 -7.39994e+02 
-1.02178e+02  3.47343e+01 -7.47996e+02 
-3.42240e+01  1.19474e+01 -7.52030e+02 
 3.37434e+01 -1.08485e+01 -7.52082e+02 
 1.01707e+02 -3.36451e+01 -7.48149e+02 
 1.69658e+02 -5.64333e+01 -7.40243e+02 
 2.37584e+02 -7.92054e+01 -7.28366e+02 
 3.05475e+02 -1.01953e+02 -7.12523e+02 
 3.73320e+02 -1.24670e+02 -6.92723e+02 
 4.41113e+02 -1.47349e+02 -6.68978e+02 
 5.08845e+02 -1.69985e+02 -6.41303e+02 
 5.76514e+02 -1.92575e+02 -6.09717e+02 
 6.44117e+02 -2.15117e+02 -5.74240e+02 
 7.11657e+02 -2.37613e+02 -5.34893e+02 
 7.79139e+02 -2.60065e+02 -4.91702e+02 
 8.46571e+02 -2.82479e+02 -4.44683e+02 
 9.13965e+02 -3.04862e+02 -3.93873e+02 
 9.81339e+02 -3.27234e+02 -3.39237e+02 
 1.04871e+03 -3.49574e+02 -2.80986e+02 
 1.11610e+03 -3.72016e+02 -2.19549e+02 
 1.18353e+03 -3.94100e+02 -1.57380e+02 
 1.25102e+03 -4.17950e+02 -6.80004e+01 
 1.31860e+03 -4.35704e+02 -3.78232e+01 
-1.29121e+03  4.22133e+02 -1.97878e+00 
-1.22493e+03  4.11338e+02 -7.96782e+01 
-1.15877e+03  3.85919e+02 -1.54783e+02 
-1.09268e+03  3.64762e+02 -2.20242e+02 
-1.02664e+03  3.42655e+02 -2.80892e+02 
-9.60633e+02  3.20813e+02 -3.39321e+02 
-8.94637e+02  2.98906e+02 -3.93823e+02 
-8.28638e+02  2.77012e+02 -4.44560e+02 
-7.62620e+02  2.55096e+02 -4.91477e+02 
-6.96570e+02  2.33155e+02 -5.34572e+02 
-6.30479e+02  2.11180e+02 -5.73825e+02 
-5.64339e+02  1.89165e+02 -6.09219e+02 
-4.98146e+02  1.67107e+02 -6.40738e+02 
-4.31898e+02  1.45007e+02 -6.68364e+02 
-3.65596e+02  1.22864e+02 -6.92082e+02 
-2.99243e+02  1.00682e+02 -7.11877e+02 
-2.32846e+02  7.84641e+01 -7.27739e+02 
-1.66410e+02  5.62166e+01 -7.39655e+02 
-9.99446e+01  3.39458e+01 -7.47621e+02 
-3.34596e+01  1.16584e+01 -7.51632e+02 
 3.30374e+01 -1.06371e+01 -7.51676e+02 
 9.95305e+01 -3.29331e+01 -7.47748e+02 
 1.66012e+02 -5.52207e+01 -7.39861e+02 
 2.32470e+02 -7.74929e+01 -7.28017e+02 
 2.98897e+02 -9.97421e+01 -7.12219e+02 
 3.65282e+02 -1.21962e+02 -6.92475e+02 
 4.31620e+02 -1.44147e+02 -6.68795e+02 
 4.97905e+02 -1.66292e+02 -6.41193e+02 
 5.64134e+02 -1.88395e+02 -6.09683e+02 
 6.30306e+02 -2.10456e+02 -5.74283e+02 
 6.96424e+02 -2.32476e+02 -5.35010e+02 
 7.62493e+02 -2.54457e+02 -4.91884e+02 
 8.28522e+02 -2.76407e+02 -4.44921e+02 
 8.94522e+02 -2.98331e+02 -3.94150e+02 
 9.60507e+02 -3.20248e+02 -3.39533e+02 
 1.02650e+03 -3.42138e+02 -2.81275e+02 
 1.09250e+03 -3.64127e+02 -2.19818e+02 
 1.15855e+03 -3.85772e+02 -1.57563e+02 
 1.22465e+03 -4.09112e+02 -6.82330e+01 
 1.29083e+03 -4.26576e+02 -3.74783e+01 
-1.26342e+03  4.12992e+02 -2.39115e+00 
-1.19855e+03  4.02501e+02 -7.96629e+01 
-1.13378e+03  3.77590e+02 -1.55022e+02 
-1.06909e+03  3.56877e+02 -2.20505e+02 
-1.00444e+03  3.35226e+02 -2.81202e+02 
-9.39826e+02  3.13836e+02 -3.39647e+02 
-8.75224e+02  2.92383e+02 -3.94147e+02 
-8.10622e+02  2.70946e+02 -4.44862e+02 
-7.46007e+02  2.49491e+02 -4.91740e+02 
-6.81368e+02  2.28015e+02 -5.34781e+02 
-6.16694e+02  2.06509e+02 -5.73970e+02 
-5.51979e+02  1.84968e+02 -6.09294e+02 
-4.87217e+02  1.63389e+02 -6.40739e+02 
-4.22408e+02  1.41771e+02 -6.68292e+02 
-3.57550e+02  1.20115e+02 -6.91940e+02 
-2.92648e+02  9.84214e+01 -7.11671e+02 
-2.27705e+02  7.66954e+01 -7.27477e+02 
-1.62728e+02  5.49415e+01 -7.39347e+02 
-9.77239e+01  3.31661e+01 -7.47280e+02 
-3.27023e+01  1.13752e+01 -7.51269e+02 
 3.23302e+01 -1.04231e+01 -7.51305e+02 
 9.73587e+01 -3.22215e+01 -7.47383e+02 
 1.62376e+02 -5.40117e+01 -7.39515e+02 
 2.27372e+02 -7.57870e+01 -7.27704e+02 
 2.92339e+02 -9.75404e+01 -7.11949e+02 
 3.57269e+02 -1.19266e+02 -6.92259e+02 
 4.22156e+02 -1.40959e+02 -6.68642e+02 
 4.86996e+02 -1.62615e+02 -6.41107e+02 
 5.51786e+02 -1.84234e+02 -6.09668e+02 
 6.16527e+02 -2.05813e+02 -5.74338e+02 
 6.81221e+02 -2.27356e+02 -5.35132e+02 
 7.45874e+02 -2.48866e+02 -4.92065e+02 
 8.10495e+02 -2.70349e+02 -4.45148e+02 
 8.75093e+02 -2.91811e+02 -3.94408e+02 
 9.39683e+02 -3.13270e+02 -3.39805e+02 
 1.00428e+03 -3.34704e+02 -2.81537e+02 
 1.06890e+03 -3.56236e+02 -2.20060e+02 
 1.13355e+03 -3.77437e+02 -1.57721e+02 
 1.19825e+03 -4.00266e+02 -6.84536e+01 
 1.26301e+03 -4.17436e+02 -3.71300e+01 
-1.23557e+03  4.03835e+02 -2.79581e+00 
-1.17213e+03  3.93650e+02 -7.96298e+01 
-1.10877e+03  3.69253e+02 -1.55233e+02 
-1.04548e+03  3.48988e+02 -2.20736e+02 
-9.82234e+02  3.27798e+02 -2.81478e+02 
-9.19016e+02  3.06865e+02 -3.39941e+02 
-8.55816e+02  2.85871e+02 -3.94441e+02 
-7.92619e+02  2.64896e+02 -4.45138e+02 
-7.29414e+02  2.43904e+02 -4.91982e+02 
-6.66190e+02  2.22896e+02 -5.34976e+02 
-6.02937e+02  2.01861e+02 -5.74108e+02 
-5.39648e+02  1.80795e+02 -6.09367e+02 
-4.76319e+02  1.59695e+02 -6.40744e+02 
-4.12948e+02  1.38558e+02 -6.68227e+02 
-3.49534e+02  1.17386e+02 -6.91809e+02 
-2.86079e+02  9.61794e+01 -7.11479e+02 
-2.22587e+02  7.49423e+01 -7.27231e+02 
-1.59064e+02  5.36791e+01 -7.39058e+02 
-9.55163e+01  3.23955e+01 -7.46958e+02 
-3.19528e+01  1.10976e+01 -7.50928e+02 
 3.16206e+01 -1.02071e+01 -7.50956e+02 
 9.51898e+01 -3.15115e+01 -7.47041e+02 
 1.58748e+02 -5.28078e+01 -7.39193e+02 
 2.22288e+02 -7.40895e+01 -7.27413e+02 
 2.85799e+02 -9.53502e+01 -7.11701e+02 
 3.49277e+02 -1.16584e+02 -6.92063e+02 
 4.12716e+02 -1.37788e+02 -6.68505e+02 
 4.76112e+02 -1.58957e+02 -6.41036e+02 
 5.39463e+02 -1.80091e+02 -6.09663e+02 
 6.02771e+02 -2.01190e+02 -5.74398e+02 
 6.66039e+02 -2.22255e+02 -5.35252e+02 
 7.29273e+02 -2.43292e+02 -4.92237e+02 
 7.92480e+02 -2.64306e+02 -4.45361e+02 
 8.55670e+02 -2.85302e+02 -3.94646e+02 
 9.18856e+02 -3.06298e+02 -3.40053e+02 
 9.82051e+02 -3.27273e+02 -2.81772e+02 
 1.04527e+03 -3.48342e+02 -2.20275e+02 
 1.10852e+03 -3.69094e+02 -1.57856e+02 
 1.17182e+03 -3.91408e+02 -6.86600e+01 
 1.23517e+03 -4.08284e+02 -3.67723e+01 
-1.20769e+03  3.94666e+02 -3.20254e+00 
-1.14566e+03  3.84788e+02 -7.95895e+01 
-1.08372e+03  3.60908e+02 -1.55428e+02 
-1.02184e+03  3.41096e+02 -2.20947e+02 
-9.60004e+02  3.20372e+02 -2.81734e+02 
-8.98194e+02  2.99900e+02 -3.40214e+02 
-8.36404e+02  2.79371e+02 -3.94718e+02 
-7.74620e+02  2.58860e+02 -4.45400e+02 
-7.12832e+02  2.38337e+02 -4.92214e+02 
-6.51028e+02  2.17799e+02 -5.35165e+02 
-5.89200e+02  1.97237e+02 -5.74243e+02 
-5.27341e+02  1.76647e+02 -6.09442e+02 
-4.65446e+02  1.56025e+02 -6.40754e+02 
-4.03513e+02  1.35369e+02 -6.68172e+02 
-3.41540e+02  1.14679e+02 -6.91689e+02 
-2.79530e+02  9.39573e+01 -7.11301e+02 
-2.17486e+02  7.32061e+01 -7.27001e+02 
-1.55413e+02  5.24300e+01 -7.38785e+02 
-9.33173e+01  3.16347e+01 -7.46654e+02 
-3.12069e+01  1.08256e+01 -7.50605e+02 
 3.09126e+01 -9.98957e+00 -7.50627e+02 
 9.30278e+01 -3.08042e+01 -7.46719e+02 
 1.55133e+02 -5.16104e+01 -7.38891e+02 
 2.17219e+02 -7.24024e+01 -7.27142e+02 
 2.79280e+02 -9.31737e+01 -7.11473e+02 
 3.41309e+02 -1.13919e+02 -6.91887e+02 
 4.03301e+02 -1.34635e+02 -6.68387e+02 
 4.65254e+02 -1.55319e+02 -6.40979e+02 
 5.27167e+02 -1.75969e+02 -6.09669e+02 
 5.89041e+02 -1.96587e+02 -5.74466e+02 
 6.50879e+02 -2.17174e+02 -5.35375e+02 
 7.12688e+02 -2.37735e+02 -4.92408e+02 
 7.74475e+02 -2.58277e+02 -4.45567e+02 
 8.36250e+02 -2.78804e+02 -3.94874e+02 
 8.98025e+02 -2.99333e+02 -3.40287e+02 
 9.59811e+02 -3.19844e+02 -2.81992e+02 
 1.02162e+03 -3.40446e+02 -2.20476e+02 
 1.08346e+03 -3.60745e+02 -1.57978e+02 
 1.14535e+03 -3.82540e+02 -6.88594e+01 
 1.20728e+03 -3.99120e+02 -3.64137e+01 
-1.17977e+03  3.85487e+02 -3.60170e+00 
-1.11917e+03  3.75915e+02 -7.95380e+01 
-1.05865e+03  3.52555e+02 -1.55605e+02 
-9.98187e+02  3.33201e+02 -2.21137e+02 
-9.37764e+02  3.12947e+02 -2.81968e+02 
-8.77371e+02  2.92942e+02 -3.40466e+02 
-8.16998e+02  2.72881e+02 -3.94974e+02 
-7.56634e+02  2.52841e+02 -4.45645e+02 
-6.96268e+02  2.32789e+02 -4.92432e+02 
-6.35890e+02  2.12724e+02 -5.35343e+02 
-5.75491e+02  1.92637e+02 -5.74371e+02 
-5.15064e+02  1.72524e+02 -6.09512e+02 
-4.54604e+02  1.52380e+02 -6.40761e+02 
-3.94108e+02  1.32205e+02 -6.68115e+02 
-3.33576e+02  1.11996e+02 -6.91571e+02 
-2.73008e+02  9.17560e+01 -7.11124e+02 
-2.12408e+02  7.14876e+01 -7.26774e+02 
-1.51781e+02  5.11950e+01 -7.38517e+02 
-9.11319e+01  3.08836e+01 -7.46356e+02 
-3.04691e+01  1.05592e+01 -7.50288e+02 
 3.02022e+01 -9.77106e+00 -7.50305e+02 
 9.08690e+01 -3.01003e+01 -7.46404e+02 
 1.51526e+02 -5.04209e+01 -7.38597e+02 
 2.12164e+02 -7.07270e+01 -7.26881e+02 
 2.72778e+02 -9.10124e+01 -7.11254e+02 
 3.33361e+02 -1.11272e+02 -6.91719e+02 
 3.93909e+02 -1.31503e+02 -6.68276e+02 
 4.54420e+02 -1.51702e+02 -6.40929e+02 
 5.14894e+02 -1.71870e+02 -6.09681e+02 
 5.75332e+02 -1.92006e+02 -5.74535e+02 
 6.35738e+02 -2.12113e+02 -5.35498e+02 
 6.96118e+02 -2.32197e+02 -4.92574e+02 
 7.56480e+02 -2.52263e+02 -4.45765e+02 
 8.16834e+02 -2.72317e+02 -3.95091e+02 
 8.77190e+02 -2.92375e+02 -3.40507e+02 
 9.37559e+02 -3.12417e+02 -2.82196e+02 
 9.97953e+02 -3.32547e+02 -2.20660e+02 
 1.05838e+03 -3.52390e+02 -1.58085e+02 
 1.11885e+03 -3.73663e+02 -6.90499e+01 
 1.17936e+03 -3.89944e+02 -3.60481e+01 
-1.15182e+03  3.76297e+02 -4.00412e+00 
-1.09265e+03  3.67033e+02 -7.94849e+01 
-1.03355e+03  3.44197e+02 -1.55777e+02 
-9.74509e+02  3.25303e+02 -2.21322e+02 
-9.15508e+02  3.05524e+02 -2.82196e+02 
-8.56538e+02  2.85991e+02 -3.40713e+02 
-7.97591e+02  2.66404e+02 -3.95228e+02 
-7.38653e+02  2.46838e+02 -4.45888e+02 
-6.79716e+02  2.27261e+02 -4.92650e+02 
-6.20769e+02  2.07673e+02 -5.35523e+02 
-5.61803e+02  1.88064e+02 -5.74502e+02 
-5.02811e+02  1.68429e+02 -6.09586e+02 
-4.43787e+02  1.48764e+02 -6.40774e+02 
-3.84729e+02  1.29067e+02 -6.68065e+02 
-3.25636e+02  1.09337e+02 -6.91458e+02 
-2.66508e+02  8.95768e+01 -7.10955e+02 
-2.07348e+02  6.97878e+01 -7.26554e+02 
-1.48162e+02  4.99746e+01 -7.38255e+02 
-8.89550e+01  3.01428e+01 -7.46064e+02 
-2.97343e+01  1.02981e+01 -7.49978e+02 
 2.94945e+01 -9.55207e+00 -7.49991e+02 
 8.87185e+01 -2.94008e+01 -7.46099e+02 
 1.47932e+02 -4.92404e+01 -7.38312e+02 
 2.07127e+02 -6.90649e+01 -7.26630e+02 
 2.66298e+02 -8.88682e+01 -7.11047e+02 
 3.25438e+02 -1.08646e+02 -6.91564e+02 
 3.84545e+02 -1.28393e+02 -6.68179e+02 
 4.43615e+02 -1.48110e+02 -6.40892e+02 
 5.02649e+02 -1.67794e+02 -6.09704e+02 
 5.61649e+02 -1.87448e+02 -5.74616e+02 
 6.20619e+02 -2.07074e+02 -5.35630e+02 
 6.79565e+02 -2.26678e+02 -4.92747e+02 
 7.38497e+02 -2.46265e+02 -4.45969e+02 
 7.97422e+02 -2.65842e+02 -3.95310e+02 
 8.56352e+02 -2.85424e+02 -3.40727e+02 
 9.15298e+02 -3.04993e+02 -2.82399e+02 
 9.74270e+02 -3.24647e+02 -2.20841e+02 
 1.03328e+03 -3.44030e+02 -1.58190e+02 
 1.09232e+03 -3.64778e+02 -6.92395e+01 
 1.15142e+03 -3.80759e+02 -3.56860e+01 
-1.12385e+03  3.67097e+02 -4.40035e+00 
-1.06610e+03  3.58142e+02 -7.94260e+01 
-1.00843e+03  3.35832e+02 -1.55942e+02 
-9.50814e+02  3.17402e+02 -2.21498e+02 
-8.93242e+02  2.98102e+02 -2.82416e+02 
-8.35703e+02  2.79047e+02 -3.40954e+02 
-7.78188e+02  2.59938e+02 -3.95476e+02 
-7.20684e+02  2.40851e+02 -4.46127e+02 
-6.63182e+02  2.21755e+02 -4.92865e+02 
-6.05671e+02  2.02646e+02 -5.35700e+02 
-5.48142e+02  1.83517e+02 -5.74630e+02 
-4.90588e+02  1.64361e+02 -6.09657e+02 
-4.33002e+02  1.45176e+02 -6.40782e+02 
-3.75382e+02  1.25957e+02 -6.68008e+02 
-3.17726e+02  1.06705e+02 -6.91338e+02 
-2.60035e+02  8.74209e+01 -7.10775e+02 
-2.02312e+02  6.81076e+01 -7.26323e+02 
-1.44563e+02  4.87695e+01 -7.37982e+02 
-8.67917e+01  2.94124e+01 -7.45760e+02 
-2.90071e+01  1.00423e+01 -7.49657e+02 
 2.87853e+01 -9.33311e+00 -7.49666e+02 
 8.65726e+01 -2.87066e+01 -7.45783e+02 
 1.44349e+02 -4.80701e+01 -7.38020e+02 
 2.02106e+02 -6.74176e+01 -7.26373e+02 
 2.59838e+02 -8.67427e+01 -7.10836e+02 
 3.17539e+02 -1.06041e+02 -6.91406e+02 
 3.75205e+02 -1.25308e+02 -6.68081e+02 
 4.32835e+02 -1.44542e+02 -6.40857e+02 
 4.90428e+02 -1.63744e+02 -6.09731e+02 
 5.47988e+02 -1.82915e+02 -5.74701e+02 
 6.05519e+02 -2.02058e+02 -5.35765e+02 
 6.63027e+02 -2.21178e+02 -4.92924e+02 
 7.20522e+02 -2.40283e+02 -4.46174e+02 
 7.78012e+02 -2.59378e+02 -3.95529e+02 
 8.35510e+02 -2.78479e+02 -3.40946e+02 
 8.93025e+02 -2.97570e+02 -2.82598e+02 
 9.50569e+02 -3.16744e+02 -2.21018e+02 
 1.00815e+03 -3.35663e+02 -1.58290e+02 
 1.06577e+03 -3.55884e+02 -6.94249e+01 
 1.12344e+03 -3.71565e+02 -3.53182e+01 
-1.09584e+03  3.57888e+02 -4.80089e+00 
-1.03952e+03  3.49242e+02 -7.93707e+01 
-9.83275e+02  3.27460e+02 -1.56112e+02 
-9.27097e+02  3.09499e+02 -2.21683e+02 
-8.70960e+02  2.90684e+02 -2.82647e+02 
-8.14859e+02  2.72110e+02 -3.41206e+02 
-7.58783e+02  2.53486e+02 -3.95736e+02 
-7.02721e+02  2.34883e+02 -4.46378e+02 
-6.46661e+02  2.16271e+02 -4.93091e+02 
-5.90592e+02  1.97646e+02 -5.35887e+02 
-5.34505e+02  1.78999e+02 -5.74766e+02 
-4.78391e+02  1.60325e+02 -6.09732e+02 
-4.22245e+02  1.41618e+02 -6.40792e+02 
-3.66062e+02  1.22877e+02 -6.67950e+02 
-3.09842e+02  1.04101e+02 -6.91214e+02 
-2.53586e+02  8.52899e+01 -7.10589e+02 
-1.97296e+02  6.64484e+01 -7.26082e+02 
-1.40978e+02  4.75807e+01 -7.37698e+02 
-8.46373e+01  2.86930e+01 -7.45444e+02 
-2.82827e+01  9.79173e+00 -7.49323e+02 
 2.80796e+01 -9.11473e+00 -7.49328e+02 
 8.44365e+01 -2.80187e+01 -7.45457e+02 
 1.40781e+02 -4.69117e+01 -7.37719e+02 
 1.97106e+02 -6.57871e+01 -7.26109e+02 
 2.53403e+02 -8.46382e+01 -7.10622e+02 
 3.09668e+02 -1.03460e+02 -6.91250e+02 
 3.65896e+02 -1.22249e+02 -6.67988e+02 
 4.22085e+02 -1.41003e+02 -6.40830e+02 
 4.78237e+02 -1.59722e+02 -6.09769e+02 
 5.34354e+02 -1.78409e+02 -5.74799e+02 
 5.90441e+02 -1.97066e+02 -5.35916e+02 
 6.46506e+02 -2.15700e+02 -4.93117e+02 
 7.02558e+02 -2.34318e+02 -4.46396e+02 
 7.58607e+02 -2.52928e+02 -3.95765e+02 
 8.14664e+02 -2.71543e+02 -3.41179e+02 
 8.70742e+02 -2.90151e+02 -2.82810e+02 
 9.26851e+02 -3.08840e+02 -2.21205e+02 
 9.83000e+02 -3.27291e+02 -1.58397e+02 
 1.03919e+03 -3.46982e+02 -6.96144e+01 
 1.09543e+03 -3.62361e+02 -3.49554e+01 
-1.06780e+03  3.48669e+02 -5.19695e+00 
-1.01291e+03  3.40333e+02 -7.93154e+01 
-9.58102e+02  3.19083e+02 -1.56285e+02 
-9.03363e+02  3.01595e+02 -2.21873e+02 
-8.48668e+02  2.83268e+02 -2.82885e+02 
-7.94012e+02  2.65182e+02 -3.41468e+02 
-7.39384e+02  2.47047e+02 -3.96007e+02 
-6.84770e+02  2.28934e+02 -4.46639e+02 
-6.30159e+02  2.10811e+02 -4.93325e+02 
-5.75538e+02  1.92674e+02 -5.36079e+02 
-5.20897e+02  1.74512e+02 -5.74903e+02 
-4.66227e+02  1.56321e+02 -6.09805e+02 
-4.11522e+02  1.38094e+02 -6.40793e+02 
-3.56778e+02  1.19830e+02 -6.67879e+02 
-3.01992e+02  1.01526e+02 -6.91071e+02 
-2.47167e+02  8.31858e+01 -7.10380e+02 
-1.92306e+02  6.48117e+01 -7.25815e+02 
-1.37413e+02  4.64092e+01 -7.37383e+02 
-8.24972e+01  2.79850e+01 -7.45096e+02 
-2.75657e+01  9.54643e+00 -7.48955e+02 
 2.73736e+01 -8.89747e+00 -7.48958e+02 
 8.23069e+01 -2.73382e+01 -7.45099e+02 
 1.37227e+02 -4.57665e+01 -7.37389e+02 
 1.92124e+02 -6.41752e+01 -7.25822e+02 
 2.46992e+02 -8.25569e+01 -7.10388e+02 
 3.01824e+02 -1.00906e+02 -6.91080e+02 
 3.56615e+02 -1.19219e+02 -6.67887e+02 
 4.11365e+02 -1.37494e+02 -6.40800e+02 
 4.66074e+02 -1.55731e+02 -6.09809e+02 
 5.20746e+02 -1.73931e+02 -5.74905e+02 
 5.75385e+02 -1.92101e+02 -5.36079e+02 
 6.30001e+02 -2.10245e+02 -4.93324e+02 
 6.84603e+02 -2.28372e+02 -4.46634e+02 
 7.39203e+02 -2.46490e+02 -3.96016e+02 
 7.93813e+02 -2.64615e+02 -3.41427e+02 
 8.48446e+02 -2.82734e+02 -2.83034e+02 
 9.03113e+02 -3.00934e+02 -2.21401e+02 
 9.57825e+02 -3.18913e+02 -1.58510e+02 
 1.01259e+03 -3.38071e+02 -6.98053e+01 
 1.06740e+03 -3.53148e+02 -3.45891e+01 
-1.03973e+03  3.39439e+02 -5.59868e+00 
-9.86270e+02  3.31415e+02 -7.92696e+01 
-9.32900e+02  3.10699e+02 -1.56476e+02 
-8.79604e+02  2.93688e+02 -2.22087e+02 
-8.26359e+02  2.75856e+02 -2.83151e+02 
-7.73157e+02  2.58264e+02 -3.41759e+02 
-7.19984e+02  2.40625e+02 -3.96307e+02 
-6.66827e+02  2.23007e+02 -4.46927e+02 
-6.13673e+02  2.05378e+02 -4.93584e+02 
-5.60507e+02  1.87733e+02 -5.36291e+02 
-5.07317e+02  1.70060e+02 -5.75053e+02 
-4.54095e+02  1.52353e+02 -6.09884e+02 
-4.00833e+02  1.34607e+02 -6.40795e+02 
-3.47526e+02  1.16818e+02 -6.67799e+02 
-2.94174e+02  9.89850e+01 -6.90912e+02 
-2.40777e+02  8.11111e+01 -7.10148e+02 
-1.87339e+02  6.31995e+01 -7.25519e+02 
-1.33866e+02  4.52564e+01 -7.37036e+02 
-8.03675e+01  2.72893e+01 -7.44711e+02 
-2.68518e+01  9.30647e+00 -7.48551e+02 
 2.66722e+01 -8.68195e+00 -7.48551e+02 
 8.01895e+01 -2.66664e+01 -7.44707e+02 
 1.33691e+02 -4.46367e+01 -7.37030e+02 
 1.87168e+02 -6.25844e+01 -7.25510e+02 
 2.40611e+02 -8.05017e+01 -7.10136e+02 
 2.94013e+02 -9.83824e+01 -6.90897e+02 
 3.47371e+02 -1.16222e+02 -6.67781e+02 
 4.00682e+02 -1.34019e+02 -6.40774e+02 
 4.53946e+02 -1.51773e+02 -6.09861e+02 
 5.07169e+02 -1.69486e+02 -5.75029e+02 
 5.60356e+02 -1.87165e+02 -5.36265e+02 
 6.13516e+02 -2.04815e+02 -4.93559e+02 
 6.66661e+02 -2.22446e+02 -4.46902e+02 
 7.19804e+02 -2.40068e+02 -3.96298e+02 
 7.72958e+02 -2.57695e+02 -3.41706e+02 
 8.26137e+02 -2.75321e+02 -2.83287e+02 
 8.79356e+02 -2.93026e+02 -2.21621e+02 
 9.32624e+02 -3.10529e+02 -1.58641e+02 
 9.85948e+02 -3.29151e+02 -7.00058e+01 
 1.03933e+03 -3.43924e+02 -3.42293e+01 
-1.01163e+03  3.30197e+02 -5.99792e+00 
-9.59600e+02  3.22487e+02 -7.92306e+01 
-9.07671e+02  3.02308e+02 -1.56683e+02 
-8.55826e+02  2.85779e+02 -2.22323e+02 
-8.04038e+02  2.68448e+02 -2.83445e+02 
-7.52298e+02  2.51355e+02 -3.42080e+02 
-7.00591e+02  2.34219e+02 -3.96638e+02 
-6.48901e+02  2.17104e+02 -4.47244e+02 
-5.97211e+02  1.99975e+02 -4.93866e+02 
-5.45506e+02  1.82826e+02 -5.36519e+02 
-4.93774e+02  1.65645e+02 -5.75213e+02 
-4.42003e+02  1.48425e+02 -6.09962e+02 
-3.90186e+02  1.31159e+02 -6.40784e+02 
-3.38317e+02  1.13844e+02 -6.67698e+02 
-2.86396e+02  9.64801e+01 -6.90723e+02 
-2.34422e+02  7.90684e+01 -7.09876e+02 
-1.82403e+02  6.16140e+01 -7.25175e+02 
-1.30343e+02  4.41238e+01 -7.36635e+02 
-7.82538e+01  2.66066e+01 -7.44270e+02 
-2.61454e+01  9.07196e+00 -7.48088e+02 
 2.59719e+01 -8.46880e+00 -7.48085e+02 
 7.80816e+01 -2.60046e+01 -7.44260e+02 
 1.30174e+02 -4.35240e+01 -7.36618e+02 
 1.82236e+02 -6.10174e+01 -7.25152e+02 
 2.34260e+02 -7.84758e+01 -7.09847e+02 
 2.86237e+02 -9.58922e+01 -6.90688e+02 
 3.38163e+02 -1.13262e+02 -6.67659e+02 
 3.90035e+02 -1.30582e+02 -6.40741e+02 
 4.41854e+02 -1.47853e+02 -6.09915e+02 
 4.93625e+02 -1.65077e+02 -5.75165e+02 
 5.45354e+02 -1.82262e+02 -5.36472e+02 
 5.97052e+02 -1.99414e+02 -4.93822e+02 
 6.48732e+02 -2.16543e+02 -4.47202e+02 
 7.00408e+02 -2.33662e+02 -3.96615e+02 
 7.52097e+02 -2.50786e+02 -3.42018e+02 
 8.03814e+02 -2.67911e+02 -2.83570e+02 
 8.55576e+02 -2.85115e+02 -2.21867e+02 
 9.07394e+02 -3.02137e+02 -1.58791e+02 
 9.59278e+02 -3.20220e+02 -7.02141e+01 
 1.01123e+03 -3.34690e+02 -3.38682e+01 
-9.83493e+02  3.20942e+02 -6.40413e+00 
-9.32890e+02  3.13547e+02 -7.92081e+01 
-8.82407e+02  2.93910e+02 -1.56921e+02 
-8.32019e+02  2.77868e+02 -2.22601e+02 
-7.81699e+02  2.61044e+02 -2.83786e+02 
-7.31431e+02  2.44460e+02 -3.42452e+02 
-6.81200e+02  2.27834e+02 -3.97019e+02 
-6.30986e+02  2.11227e+02 -4.47608e+02 
-5.80771e+02  1.94605e+02 -4.94188e+02 
-5.30537e+02  1.77958e+02 -5.36779e+02 
-4.80268e+02  1.61273e+02 -5.75392e+02 
-4.29953e+02  1.44542e+02 -6.10048e+02 
-3.79582e+02  1.27757e+02 -6.40769e+02 
-3.29151e+02  1.10915e+02 -6.67579e+02 
-2.78657e+02  9.40155e+01 -6.90503e+02 
-2.28104e+02  7.70614e+01 -7.09563e+02 
-1.77496e+02  6.00582e+01 -7.24781e+02 
-1.26842e+02  4.30137e+01 -7.36175e+02 
-7.61534e+01  2.59383e+01 -7.43764e+02 
-2.54428e+01  8.84315e+00 -7.47558e+02 
 2.52776e+01 -8.25873e+00 -7.47553e+02 
 7.59892e+01 -2.53546e+01 -7.43749e+02 
 1.26680e+02 -4.24312e+01 -7.36150e+02 
 1.77337e+02 -5.94776e+01 -7.24746e+02 
 2.27948e+02 -7.64832e+01 -7.09519e+02 
 2.78505e+02 -9.34400e+01 -6.90451e+02 
 3.29001e+02 -1.10342e+02 -6.67521e+02 
 3.79435e+02 -1.27187e+02 -6.40706e+02 
 4.29806e+02 -1.43975e+02 -6.09982e+02 
 4.80120e+02 -1.60709e+02 -5.75324e+02 
 5.30386e+02 -1.77396e+02 -5.36712e+02 
 5.80614e+02 -1.94044e+02 -4.94127e+02 
 6.30819e+02 -2.10666e+02 -4.47550e+02 
 6.81019e+02 -2.27275e+02 -3.96983e+02 
 7.31232e+02 -2.43888e+02 -3.42382e+02 
 7.81477e+02 -2.60505e+02 -2.83902e+02 
 8.31772e+02 -2.77202e+02 -2.22154e+02 
 8.82133e+02 -2.93738e+02 -1.58973e+02 
 9.32570e+02 -3.11278e+02 -7.04386e+01 
 9.83095e+02 -3.25443e+02 -3.35153e+01 
-9.55304e+02  3.11671e+02 -6.81181e+00 
-9.06136e+02  3.04594e+02 -7.92006e+01 
-8.57105e+02  2.85503e+02 -1.57192e+02 
-8.08185e+02  2.69955e+02 -2.22922e+02 
-7.59342e+02  2.53646e+02 -2.84177e+02 
-7.10559e+02  2.37578e+02 -3.42878e+02 
-6.61817e+02  2.21471e+02 -3.97453e+02 
-6.13091e+02  2.05381e+02 -4.48019e+02 
-5.64361e+02  1.89272e+02 -4.94549e+02 
-5.15605e+02  1.73133e+02 -5.37066e+02 
-4.66807e+02  1.56949e+02 -5.75585e+02 
-4.17952e+02  1.40708e+02 -6.10133e+02 
-3.69031e+02  1.24404e+02 -6.40736e+02 
-3.20037e+02  1.08034e+02 -6.67426e+02 
-2.70969e+02  9.15959e+01 -6.90233e+02 
-2.21830e+02  7.50941e+01 -7.09185e+02 
-1.72627e+02  5.85350e+01 -7.24310e+02 
-1.23370e+02  4.19282e+01 -7.35630e+02 
-7.40717e+01  2.52856e+01 -7.43167e+02 
-2.47482e+01  8.62033e+00 -7.46933e+02 
 2.45862e+01 -8.05248e+00 -7.46927e+02 
 7.39105e+01 -2.47180e+01 -7.43147e+02 
 1.23210e+02 -4.13609e+01 -7.35598e+02 
 1.72469e+02 -5.79683e+01 -7.24266e+02 
 2.21675e+02 -7.45280e+01 -7.09130e+02 
 2.70816e+02 -9.10306e+01 -6.90167e+02 
 3.19887e+02 -1.07469e+02 -6.67353e+02 
 3.68882e+02 -1.23841e+02 -6.40657e+02 
 4.17804e+02 -1.40145e+02 -6.10049e+02 
 4.66657e+02 -1.56386e+02 -5.75501e+02 
 5.15452e+02 -1.72571e+02 -5.36984e+02 
 5.64201e+02 -1.88711e+02 -4.94474e+02 
 6.12922e+02 -2.04818e+02 -4.47949e+02 
 6.61634e+02 -2.20909e+02 -3.97407e+02 
 7.10359e+02 -2.37003e+02 -3.42802e+02 
 7.59119e+02 -2.53105e+02 -2.84286e+02 
 8.07937e+02 -2.69286e+02 -2.22487e+02 
 8.56832e+02 -2.85329e+02 -1.59189e+02 
 9.05819e+02 -3.02321e+02 -7.06789e+01 
 9.54912e+02 -3.16183e+02 -3.31636e+01 
-9.27070e+02  3.02384e+02 -7.22857e+00 
-8.79333e+02  2.95626e+02 -7.92190e+01 
-8.31760e+02  2.77086e+02 -1.57511e+02 
-7.84318e+02  2.62040e+02 -2.23306e+02 
-7.36965e+02  2.46256e+02 -2.84641e+02 
-6.89681e+02  2.30713e+02 -3.43380e+02 
-6.42441e+02  2.15134e+02 -3.97961e+02 
-5.95217e+02  1.99571e+02 -4.48499e+02 
-5.47984e+02  1.83984e+02 -4.94968e+02 
-5.00717e+02  1.68358e+02 -5.37396e+02 
-4.53398e+02  1.52678e+02 -5.75805e+02 
-4.06008e+02  1.36931e+02 -6.10224e+02 
-3.58538e+02  1.21109e+02 -6.40691e+02 
-3.10980e+02  1.05207e+02 -6.67241e+02 
-2.63335e+02  8.92268e+01 -6.89912e+02 
-2.15604e+02  7.31712e+01 -7.08740e+02 
-1.67797e+02  5.70486e+01 -7.23757e+02 
-1.19927e+02  4.08702e+01 -7.34992e+02 
-7.20080e+01  2.46502e+01 -7.42469e+02 
-2.40592e+01  8.40390e+00 -7.46204e+02 
 2.39019e+01 -7.85090e+00 -7.46197e+02 
 7.18513e+01 -2.40969e+01 -7.42446e+02 
 1.19771e+02 -4.03163e+01 -7.34954e+02 
 1.67643e+02 -5.64938e+01 -7.23705e+02 
 2.15452e+02 -7.26154e+01 -7.08675e+02 
 2.63184e+02 -8.86698e+01 -6.89835e+02 
 3.10831e+02 -1.04649e+02 -6.67155e+02 
 3.58390e+02 -1.20549e+02 -6.40597e+02 
 4.05860e+02 -1.36370e+02 -6.10127e+02 
 4.53247e+02 -1.52116e+02 -5.75706e+02 
 5.00564e+02 -1.67795e+02 -5.37300e+02 
 5.47824e+02 -1.83419e+02 -4.94879e+02 
 5.95048e+02 -1.99004e+02 -4.48417e+02 
 6.42258e+02 -2.14568e+02 -3.97905e+02 
 6.89482e+02 -2.30134e+02 -3.43298e+02 
 7.36745e+02 -2.45710e+02 -2.84741e+02 
 7.84073e+02 -2.61368e+02 -2.22882e+02 
 8.31489e+02 -2.76911e+02 -1.59453e+02 
 8.79015e+02 -2.93349e+02 -7.09444e+01 
 9.26673e+02 -3.06904e+02 -3.28206e+01 
-8.98777e+02  2.93077e+02 -7.65353e+00 
-8.52480e+02  2.86643e+02 -7.92669e+01 
-8.06374e+02  2.68659e+02 -1.57890e+02 
-7.60421e+02  2.54123e+02 -2.23766e+02 
-7.14573e+02  2.38873e+02 -2.85191e+02 
-6.68803e+02  2.23867e+02 -3.43974e+02 
-6.23081e+02  2.08827e+02 -3.98559e+02 
-5.77375e+02  1.93801e+02 -4.49061e+02 
-5.31652e+02  1.78743e+02 -4.95458e+02 
-4.85886e+02  1.63639e+02 -5.37780e+02 
-4.40053e+02  1.48468e+02 -5.76057e+02 
-3.94134e+02  1.33217e+02 -6.10327e+02 
-3.48117e+02  1.17877e+02 -6.40633e+02 
-3.01995e+02  1.02442e+02 -6.67020e+02 
-2.55766e+02  8.69142e+01 -6.89533e+02 
-2.09437e+02  7.12979e+01 -7.08217e+02 
-1.63016e+02  5.56029e+01 -7.23110e+02 
-1.16520e+02  3.98427e+01 -7.34245e+02 
-6.99669e+01  2.40337e+01 -7.41653e+02 
-2.33781e+01  8.19434e+00 -7.45353e+02 
 2.32247e+01 -7.65483e+00 -7.45345e+02 
 6.98139e+01 -2.34934e+01 -7.41628e+02 
 1.16368e+02 -3.93007e+01 -7.34203e+02 
 1.62865e+02 -5.50586e+01 -7.23052e+02 
 2.09286e+02 -7.07507e+01 -7.08145e+02 
 2.55617e+02 -8.63637e+01 -6.89448e+02 
 3.01846e+02 -1.01888e+02 -6.66924e+02 
 3.47968e+02 -1.17319e+02 -6.40528e+02 
 3.93985e+02 -1.32656e+02 -6.10217e+02 
 4.39901e+02 -1.47904e+02 -5.75946e+02 
 4.85731e+02 -1.63072e+02 -5.37671e+02 
 5.31491e+02 -1.78174e+02 -4.95356e+02 
 5.77205e+02 -1.93228e+02 -4.48968e+02 
 6.22899e+02 -2.08255e+02 -3.98494e+02 
 6.68605e+02 -2.23282e+02 -3.43885e+02 
 7.14354e+02 -2.38322e+02 -2.85283e+02 
 7.60178e+02 -2.53447e+02 -2.23352e+02 
 8.06105e+02 -2.68482e+02 -1.59776e+02 
 8.52162e+02 -2.84360e+02 -7.12404e+01 
 8.98375e+02 -2.97607e+02 -3.24883e+01 
-8.70407e+02  2.83743e+02 -8.08606e+00 
-8.25556e+02  2.77639e+02 -7.93465e+01 
-7.80932e+02  2.60218e+02 -1.58334e+02 
-7.36485e+02  2.46203e+02 -2.24312e+02 
-6.92159e+02  2.31498e+02 -2.85841e+02 
-6.47923e+02  2.17042e+02 -3.44672e+02 
-6.03738e+02  2.02553e+02 -3.99259e+02 
-5.59566e+02  1.88075e+02 -4.49715e+02 
-5.15370e+02  1.73558e+02 -4.96023e+02 
-4.71118e+02  1.58982e+02 -5.38219e+02 
-4.26781e+02  1.44327e+02 -5.76340e+02 
-3.82339e+02  1.29574e+02 -6.10433e+02 
-3.37778e+02  1.14716e+02 -6.40551e+02 
-2.93089e+02  9.97452e+01 -6.66747e+02 
-2.48273e+02  8.46645e+01 -6.89077e+02 
-2.03336e+02  6.94797e+01 -7.07592e+02 
-1.58291e+02  5.42026e+01 -7.22340e+02 
-1.13155e+02  3.88489e+01 -7.33361e+02 
-6.79520e+01  2.34382e+01 -7.40690e+02 
-2.27066e+01  7.99217e+00 -7.44349e+02 
 2.25548e+01 -7.46519e+00 -7.44340e+02 
 6.78002e+01 -2.29099e+01 -7.40663e+02 
 1.13004e+02 -3.83178e+01 -7.33317e+02 
 1.58139e+02 -5.36676e+01 -7.22279e+02 
 2.03185e+02 -6.89398e+01 -7.07515e+02 
 2.48122e+02 -8.41190e+01 -6.88986e+02 
 2.92937e+02 -9.91939e+01 -6.66644e+02 
 3.37625e+02 -1.14158e+02 -6.40438e+02 
 3.82186e+02 -1.29011e+02 -6.10314e+02 
 4.26625e+02 -1.43758e+02 -5.76218e+02 
 4.70958e+02 -1.58409e+02 -5.38099e+02 
 5.15205e+02 -1.72981e+02 -4.95911e+02 
 5.59393e+02 -1.87494e+02 -4.49612e+02 
 6.03554e+02 -2.01973e+02 -3.99184e+02 
 6.47724e+02 -2.16449e+02 -3.44577e+02 
 6.91940e+02 -2.30940e+02 -2.85925e+02 
 7.36242e+02 -2.45521e+02 -2.23909e+02 
 7.80663e+02 -2.60037e+02 -1.60166e+02 
 8.25241e+02 -2.75348e+02 -7.15695e+01 
 8.70009e+02 -2.88288e+02 -3.21626e+01 
-8.41947e+02  2.74380e+02 -8.53570e+00 
-7.98549e+02  2.68610e+02 -7.94708e+01 
-7.55418e+02  2.51762e+02 -1.58864e+02 
-7.12496e+02  2.38280e+02 -2.24968e+02 
-6.69715e+02  2.24134e+02 -2.86614e+02 
-6.27035e+02  2.10241e+02 -3.45497e+02 
-5.84410e+02  1.96318e+02 -4.00083e+02 
-5.41793e+02  1.82400e+02 -4.50480e+02 
-4.99142e+02  1.68435e+02 -4.96680e+02 
-4.56418e+02  1.54397e+02 -5.38725e+02 
-4.13589e+02  1.40262e+02 -5.76661e+02 
-3.70631e+02  1.26012e+02 -6.10547e+02 
-3.27528e+02  1.11634e+02 -6.40443e+02 
-2.84271e+02  9.71249e+01 -6.66416e+02 
-2.40862e+02  8.24852e+01 -6.88532e+02 
-1.97308e+02  6.77233e+01 -7.06852e+02 
-1.53625e+02  5.28529e+01 -7.21432e+02 
-1.09835e+02  3.78928e+01 -7.32320e+02 
-6.59637e+01  2.28660e+01 -7.39556e+02 
-2.20430e+01  7.79802e+00 -7.43168e+02 
 2.18961e+01 -7.28297e+00 -7.43159e+02 
 6.58164e+01 -2.23489e+01 -7.39529e+02 
 1.09687e+02 -3.73717e+01 -7.32274e+02 
 1.53476e+02 -5.23261e+01 -7.21369e+02 
 1.97159e+02 -6.71895e+01 -7.06772e+02 
 2.40711e+02 -8.19434e+01 -6.88437e+02 
 2.84119e+02 -9.65745e+01 -6.66308e+02 
 3.27374e+02 -1.11075e+02 -6.40324e+02 
 3.70475e+02 -1.25444e+02 -6.10419e+02 
 4.13431e+02 -1.39687e+02 -5.76531e+02 
 4.56256e+02 -1.53815e+02 -5.38595e+02 
 4.98975e+02 -1.67848e+02 -4.96557e+02 
 5.41619e+02 -1.81809e+02 -4.50366e+02 
 5.84225e+02 -1.95727e+02 -3.99997e+02 
 6.26837e+02 -2.09638e+02 -3.45394e+02 
 6.69498e+02 -2.23567e+02 -2.86687e+02 
 7.12257e+02 -2.37589e+02 -2.24572e+02 
 7.55153e+02 -2.51577e+02 -1.60641e+02 
 7.98235e+02 -2.66309e+02 -7.19422e+01 
 8.41548e+02 -2.78940e+02 -3.18505e+01 
-8.13383e+02  2.64981e+02 -8.99867e+00 
-7.71448e+02  2.59553e+02 -7.96434e+01 
-7.29830e+02  2.43287e+02 -1.59490e+02 
-6.88456e+02  2.30352e+02 -2.25745e+02 
-6.47245e+02  2.16781e+02 -2.87525e+02 
-6.06148e+02  2.03468e+02 -3.46467e+02 
-5.65108e+02  1.90127e+02 -4.01045e+02 
-5.24071e+02  1.76784e+02 -4.51369e+02 
-4.82985e+02  1.63381e+02 -4.97438e+02 
-4.41806e+02  1.49891e+02 -5.39304e+02 
-4.00497e+02  1.36283e+02 -5.77022e+02 
-3.59030e+02  1.22537e+02 -6.10662e+02 
-3.17388e+02  1.08641e+02 -6.40300e+02 
-2.75561e+02  9.45894e+01 -6.66013e+02 
-2.33551e+02  8.03840e+01 -6.87880e+02 
-1.91369e+02  6.60350e+01 -7.05972e+02 
-1.49033e+02  5.15590e+01 -7.20358e+02 
-1.06569e+02  3.69780e+01 -7.31092e+02 
-6.40099e+01  2.23192e+01 -7.38222e+02 
-2.13920e+01  7.61257e+00 -7.41780e+02 
 2.12471e+01 -7.10917e+00 -7.41771e+02 
 6.38642e+01 -2.18131e+01 -7.38195e+02 
 1.06422e+02 -3.64664e+01 -7.31047e+02 
 1.48883e+02 -5.10397e+01 -7.20295e+02 
 1.91217e+02 -6.55063e+01 -7.05893e+02 
 2.33397e+02 -7.98444e+01 -6.87784e+02 
 2.75404e+02 -9.40383e+01 -6.65903e+02 
 3.17228e+02 -1.08079e+02 -6.40177e+02 
 3.58868e+02 -1.21964e+02 -6.10530e+02 
 4.00331e+02 -1.35699e+02 -5.76884e+02 
 4.41636e+02 -1.49298e+02 -5.39165e+02 
 4.82810e+02 -1.62782e+02 -4.97305e+02 
 5.23890e+02 -1.76179e+02 -4.51244e+02 
 5.64918e+02 -1.89522e+02 -4.00948e+02 
 6.05946e+02 -2.02852e+02 -3.46354e+02 
 6.47027e+02 -2.16203e+02 -2.87586e+02 
 6.88217e+02 -2.29651e+02 -2.25357e+02 
 7.29565e+02 -2.43096e+02 -1.61210e+02 
 7.71135e+02 -2.57239e+02 -7.23641e+01 
 8.12981e+02 -2.69558e+02 -3.15491e+01 
-7.84688e+02  2.55538e+02 -9.48619e+00 
-7.44232e+02  2.50461e+02 -7.98785e+01 
-7.04149e+02  2.34791e+02 -1.60235e+02 
-6.64352e+02  2.22419e+02 -2.26674e+02 
-6.24742e+02  2.09441e+02 -2.88605e+02 
-5.85258e+02  1.96726e+02 -3.47610e+02 
-5.45833e+02  1.83983e+02 -4.02174e+02 
-5.06402e+02  1.71231e+02 -4.52408e+02 
-4.66905e+02  1.58406e+02 -4.98320e+02 
-4.27291e+02  1.45473e+02 -5.39972e+02 
-3.87516e+02  1.32399e+02 -5.77433e+02 
-3.47549e+02  1.19162e+02 -6.10787e+02 
-3.07370e+02  1.05747e+02 -6.40123e+02 
-2.66970e+02  9.21478e+01 -6.65534e+02 
-2.26351e+02  7.83689e+01 -6.87111e+02 
-1.85526e+02  6.44220e+01 -7.04941e+02 
-1.44520e+02  5.03265e+01 -7.19101e+02 
-1.03362e+02  3.61088e+01 -7.29658e+02 
-6.20915e+01  2.18005e+01 -7.36666e+02 
-2.07517e+01  7.43653e+00 -7.40161e+02 
 2.06129e+01 -6.94479e+00 -7.40153e+02 
 6.19514e+01 -2.13051e+01 -7.36641e+02 
 1.03219e+02 -3.56065e+01 -7.29615e+02 
 1.44374e+02 -4.98143e+01 -7.19041e+02 
 1.85376e+02 -6.38974e+01 -7.04864e+02 
 2.26196e+02 -7.78304e+01 -6.87017e+02 
 2.66811e+02 -9.15944e+01 -6.65423e+02 
 3.07207e+02 -1.05178e+02 -6.39998e+02 
 3.47382e+02 -1.18579e+02 -6.10651e+02 
 3.87344e+02 -1.31804e+02 -5.77289e+02 
 4.27115e+02 -1.44866e+02 -5.39824e+02 
 4.66725e+02 -1.57791e+02 -4.98175e+02 
 5.06217e+02 -1.70610e+02 -4.52270e+02 
 5.45640e+02 -1.83362e+02 -4.02062e+02 
 5.85055e+02 -1.96094e+02 -3.47485e+02 
 6.24524e+02 -2.08849e+02 -2.88650e+02 
 6.64115e+02 -2.21706e+02 -2.26289e+02 
 7.03888e+02 -2.34593e+02 -1.61896e+02 
 7.43922e+02 -2.48132e+02 -7.28484e+01 
 7.84286e+02 -2.60137e+02 -3.12673e+01 
-7.55844e+02  2.46045e+02 -9.99623e+00 
-7.16885e+02  2.41329e+02 -8.01815e+01 
-6.78366e+02  2.26269e+02 -1.61114e+02 
-6.40179e+02  2.14478e+02 -2.27770e+02 
-6.02205e+02  2.02114e+02 -2.89872e+02 
-5.64371e+02  1.90018e+02 -3.48945e+02 
-5.26596e+02  1.77894e+02 -4.03486e+02 
-4.88803e+02  1.65750e+02 -4.53608e+02 
-4.50921e+02  1.53516e+02 -4.99332e+02 
-4.12892e+02  1.41152e+02 -5.40732e+02 
-3.74667e+02  1.28620e+02 -5.77893e+02 
-3.36209e+02  1.15894e+02 -6.10913e+02 
-2.97495e+02  1.02959e+02 -6.39898e+02 
-2.58518e+02  8.98085e+01 -6.64959e+02 
-2.19280e+02  7.64476e+01 -6.86202e+02 
-1.79799e+02  6.28907e+01 -7.03728e+02 
-1.40102e+02  4.91609e+01 -7.17629e+02 
-1.00226e+02  3.52890e+01 -7.27982e+02 
-6.02172e+01  2.13120e+01 -7.34850e+02 
-2.01268e+01  7.27060e+00 -7.38274e+02 
 1.99920e+01 -6.79079e+00 -7.38267e+02 
 6.00804e+01 -2.08277e+01 -7.34827e+02 
 1.00085e+02 -3.47959e+01 -7.27944e+02 
 1.39956e+02 -4.86553e+01 -7.17575e+02 
 1.79647e+02 -6.23696e+01 -7.03657e+02 
 2.19122e+02 -7.59090e+01 -6.86112e+02 
 2.58353e+02 -8.92512e+01 -6.64852e+02 
 2.97324e+02 -1.02383e+02 -6.39774e+02 
 3.36032e+02 -1.15300e+02 -6.10775e+02 
 3.74485e+02 -1.28010e+02 -5.77744e+02 
 4.12706e+02 -1.40528e+02 -5.40576e+02 
 4.50730e+02 -1.52882e+02 -4.99176e+02 
 4.88607e+02 -1.65108e+02 -4.53456e+02 
 5.26395e+02 -1.77252e+02 -4.03358e+02 
 5.64162e+02 -1.89367e+02 -3.48804e+02 
 6.01985e+02 -2.01505e+02 -2.89898e+02 
 6.39942e+02 -2.13750e+02 -2.27386e+02 
 6.78106e+02 -2.26061e+02 -1.62712e+02 
 7.16576e+02 -2.38981e+02 -7.34020e+01 
 7.55439e+02 -2.50668e+02 -3.10007e+01 
-7.26813e+02  2.36492e+02 -1.05412e+01 
-6.89378e+02  2.32148e+02 -8.05686e+01 
-6.52458e+02  2.17716e+02 -1.62154e+02 
-6.15922e+02  2.06530e+02 -2.29065e+02 
-5.79627e+02  1.94801e+02 -2.91358e+02 
-5.43485e+02  1.83346e+02 -3.50503e+02 
-5.07399e+02  1.71862e+02 -4.05010e+02 
-4.71279e+02  1.60346e+02 -4.54996e+02 
-4.35044e+02  1.48719e+02 -5.00497e+02 
-3.98624e+02  1.36936e+02 -5.41601e+02 
-3.61965e+02  1.24953e+02 -5.78411e+02 
-3.25025e+02  1.12743e+02 -6.11044e+02 
-2.87781e+02  1.00287e+02 -6.39625e+02 
-2.50221e+02  8.75797e+01 -6.64281e+02 
-2.12354e+02  7.46275e+01 -6.85140e+02 
-1.74198e+02  6.14476e+01 -7.02318e+02 
-1.35787e+02  4.80673e+01 -7.15922e+02 
-9.71659e+01  3.45225e+01 -7.26041e+02 
-5.83889e+01  2.08561e+01 -7.32748e+02 
-1.95160e+01  7.11547e+00 -7.36091e+02 
 1.93898e+01 -6.64809e+00 -7.36086e+02 
 5.82599e+01 -2.03831e+01 -7.32730e+02 
 9.70316e+01 -3.40386e+01 -7.26010e+02 
 1.35645e+02 -4.75680e+01 -7.15876e+02 
 1.74047e+02 -6.09293e+01 -7.02255e+02 
 2.12194e+02 -7.40876e+01 -6.85058e+02 
 2.50053e+02 -8.70170e+01 -6.64180e+02 
 2.87603e+02 -9.97013e+01 -6.39504e+02 
 3.24840e+02 -1.12135e+02 -6.10906e+02 
 3.61773e+02 -1.24326e+02 -5.78259e+02 
 3.98426e+02 -1.36291e+02 -5.41438e+02 
 4.34842e+02 -1.48062e+02 -5.00329e+02 
 4.71073e+02 -1.59680e+02 -4.54829e+02 
 5.07190e+02 -1.71196e+02 -4.04862e+02 
 5.43271e+02 -1.82672e+02 -3.50343e+02 
 5.79406e+02 -1.94171e+02 -2.91360e+02 
 6.15687e+02 -2.05783e+02 -2.28676e+02 
 6.52204e+02 -2.17497e+02 -1.63685e+02 
 6.89074e+02 -2.29778e+02 -7.40403e+01 
 7.26410e+02 -2.41143e+02 -3.07583e+01 
-6.97566e+02  2.26866e+02 -1.11216e+01 
-6.61689e+02  2.22912e+02 -8.10477e+01 
-6.26411e+02  2.09128e+02 -1.63371e+02 
-5.91574e+02  1.98569e+02 -2.30579e+02 
-5.57009e+02  1.87502e+02 -2.93086e+02 
-5.22606e+02  1.76714e+02 -3.52306e+02 
-4.88254e+02  1.65893e+02 -4.06764e+02 
-4.53848e+02  1.55024e+02 -4.56586e+02 
-4.19292e+02  1.44022e+02 -5.01823e+02 
-3.84509e+02  1.32832e+02 -5.42583e+02 
-3.49435e+02  1.21407e+02 -5.78987e+02 
-3.14025e+02  1.09716e+02 -6.11173e+02 
-2.78251e+02  9.77380e+01 -6.39288e+02 
-2.42104e+02  8.54683e+01 -6.63482e+02 
-2.05593e+02  7.29148e+01 -6.83901e+02 
-1.68742e+02  6.00980e+01 -7.00682e+02 
-1.31592e+02  4.70499e+01 -7.13946e+02 
-9.41954e+01  3.38122e+01 -7.23799e+02 
-5.66159e+01  2.04345e+01 -7.30323e+02 
-1.89242e+01  6.97170e+00 -7.33574e+02 
 1.88054e+01 -6.51740e+00 -7.33570e+02 
 5.64931e+01 -1.99734e+01 -7.30311e+02 
 9.40654e+01 -3.33378e+01 -7.23777e+02 
 1.31452e+02 -4.65568e+01 -7.13911e+02 
 1.68590e+02 -5.95818e+01 -7.00630e+02 
 2.05428e+02 -7.23725e+01 -6.83830e+02 
 2.41927e+02 -8.48984e+01 -6.63390e+02 
 2.78062e+02 -9.71403e+01 -6.39175e+02 
 3.13825e+02 -1.09092e+02 -6.11038e+02 
 3.49227e+02 -1.20759e+02 -5.78833e+02 
 3.84294e+02 -1.32163e+02 -5.42413e+02 
 4.19073e+02 -1.43338e+02 -5.01644e+02 
 4.53626e+02 -1.54330e+02 -4.56401e+02 
 4.88032e+02 -1.65198e+02 -4.06594e+02 
 5.22382e+02 -1.76012e+02 -3.52121e+02 
 5.56781e+02 -1.86847e+02 -2.93057e+02 
 5.91338e+02 -1.97799e+02 -2.30179e+02 
 6.26160e+02 -2.08895e+02 -1.64829e+02 
 6.61390e+02 -2.20513e+02 -7.47729e+01 
 6.97164e+02 -2.31550e+02 -3.05365e+01 
-6.68058e+02  2.17155e+02 -1.17510e+01 
-6.33781e+02  2.13608e+02 -8.16363e+01 
-6.00199e+02  2.00497e+02 -1.64795e+02 
-5.67119e+02  1.90594e+02 -2.32345e+02 
-5.34340e+02  1.80217e+02 -2.95087e+02 
-5.01733e+02  1.70122e+02 -3.54384e+02 
-4.69166e+02  1.59988e+02 -4.08777e+02 
-4.36518e+02  1.49788e+02 -4.58403e+02 
-4.03679e+02  1.39428e+02 -5.03332e+02 
-3.70562e+02  1.28845e+02 -5.43693e+02 
-3.37094e+02  1.17987e+02 -5.79629e+02 
-3.03225e+02  1.06818e+02 -6.11304e+02 
-2.68924e+02  9.53172e+01 -6.38887e+02 
-2.34184e+02  8.34792e+01 -6.62554e+02 
-1.99014e+02  7.13140e+01 -6.82472e+02 
-1.63446e+02  5.88458e+01 -6.98800e+02 
-1.27528e+02  4.61119e+01 -7.11680e+02 
-9.13213e+01  3.31605e+01 -7.21231e+02 
-5.49012e+01  2.00488e+01 -7.27548e+02 
-1.83505e+01  6.83972e+00 -7.30695e+02 
 1.82438e+01 -6.39923e+00 -7.30694e+02 
 5.47893e+01 -1.96001e+01 -7.27544e+02 
 9.11997e+01 -3.26959e+01 -7.21220e+02 
 1.27393e+02 -4.56248e+01 -7.11659e+02 
 1.63296e+02 -5.83310e+01 -6.98764e+02 
 1.98847e+02 -7.07681e+01 -6.82416e+02 
 2.34000e+02 -8.29005e+01 -6.62474e+02 
 2.68725e+02 -9.47055e+01 -6.38783e+02 
 3.03012e+02 -1.06175e+02 -6.11174e+02 
 3.36870e+02 -1.17315e+02 -5.79475e+02 
 3.70330e+02 -1.28148e+02 -5.43516e+02 
 4.03443e+02 -1.38713e+02 -5.03139e+02 
 4.36279e+02 -1.49061e+02 -4.58197e+02 
 4.68929e+02 -1.59259e+02 -4.08580e+02 
 5.01498e+02 -1.69387e+02 -3.54169e+02 
 5.34107e+02 -1.79532e+02 -2.95022e+02 
 5.66884e+02 -1.89797e+02 -2.31927e+02 
 5.99955e+02 -2.00248e+02 -1.66173e+02 
 6.33493e+02 -2.11176e+02 -7.56168e+01 
 6.67663e+02 -2.21879e+02 -3.03441e+01 
-6.38242e+02  2.07345e+02 -1.24339e+01 
-6.05622e+02  2.04226e+02 -8.23436e+01 
-5.73800e+02  1.91816e+02 -1.66444e+02 
-5.42545e+02  1.82600e+02 -2.34383e+02 
-5.11619e+02  1.72941e+02 -2.97382e+02 
-4.80870e+02  1.63568e+02 -3.56755e+02 
-4.50146e+02  1.54147e+02 -4.11061e+02 
-4.19305e+02  1.44639e+02 -4.60455e+02 
-3.88225e+02  1.34938e+02 -5.05027e+02 
-3.56806e+02  1.24976e+02 -5.44929e+02 
-3.24966e+02  1.14693e+02 -5.80333e+02 
-2.92651e+02  1.04051e+02 -6.11425e+02 
-2.59827e+02  9.30265e+01 -6.38405e+02 
-2.26485e+02  8.16142e+01 -6.61474e+02 
-1.92641e+02  6.98266e+01 -6.80826e+02 
-1.58330e+02  5.76922e+01 -6.96644e+02 
-1.23611e+02  4.52542e+01 -7.09090e+02 
-8.85567e+01  3.25680e+01 -7.18301e+02 
-5.32539e+01  1.96992e+01 -7.24386e+02 
-1.77997e+01  6.71967e+00 -7.27416e+02 
 1.77046e+01 -6.29368e+00 -7.27418e+02 
 5.31520e+01 -1.92634e+01 -7.24391e+02 
 8.84421e+01 -3.21133e+01 -7.18305e+02 
 1.23479e+02 -4.47728e+01 -7.09087e+02 
 1.58178e+02 -5.71782e+01 -6.96627e+02 
 1.92467e+02 -6.92759e+01 -6.80788e+02 
 2.26290e+02 -8.10248e+01 -6.61411e+02 
 2.59613e+02 -9.23983e+01 -6.38313e+02 
 2.92420e+02 -1.03386e+02 -6.11302e+02 
 3.24722e+02 -1.13994e+02 -5.80179e+02 
 3.56551e+02 -1.24248e+02 -5.44747e+02 
 3.87964e+02 -1.34188e+02 -5.04820e+02 
 4.19043e+02 -1.43874e+02 -4.60228e+02 
 4.49887e+02 -1.53380e+02 -4.10835e+02 
 4.80619e+02 -1.62795e+02 -3.56504e+02 
 5.11377e+02 -1.72222e+02 -2.97272e+02 
 5.42309e+02 -1.81771e+02 -2.33939e+02 
 5.73563e+02 -1.91547e+02 -1.67733e+02 
 6.05348e+02 -2.01755e+02 -7.65835e+01 
 6.37862e+02 -2.12115e+02 -3.01778e+01 
-6.08072e+02  1.97421e+02 -1.31849e+01 
-5.77173e+02  1.94753e+02 -8.31873e+01 
-5.47188e+02  1.83077e+02 -1.68346e+02 
-5.17837e+02  1.74580e+02 -2.36720e+02 
-4.88840e+02  1.65672e+02 -2.99997e+02 
-4.60019e+02  1.57049e+02 -3.59443e+02 
-4.31200e+02  1.48368e+02 -4.13641e+02 
-4.02221e+02  1.39573e+02 -4.62762e+02 
-3.72946e+02  1.30550e+02 -5.06924e+02 
-3.43259e+02  1.21221e+02 -5.46306e+02 
-3.13073e+02  1.11524e+02 -5.81105e+02 
-2.82325e+02  1.01413e+02 -6.11541e+02 
-2.50979e+02  9.08630e+01 -6.37842e+02 
-2.19028e+02  7.98706e+01 -6.60238e+02 
-1.86490e+02  6.84503e+01 -6.78955e+02 
-1.53410e+02  5.66352e+01 -6.94201e+02 
-1.19855e+02  4.44751e+01 -7.06162e+02 
-8.59102e+01  3.20335e+01 -7.14993e+02 
-5.16784e+01  1.93850e+01 -7.20817e+02 
-1.72718e+01  6.61135e+00 -7.23717e+02 
 1.71922e+01 -6.20034e+00 -7.23724e+02 
 5.15901e+01 -1.89624e+01 -7.20834e+02 
 8.58056e+01 -3.15887e+01 -7.15014e+02 
 1.19728e+02 -4.39991e+01 -7.06180e+02 
 1.53258e+02 -5.61210e+01 -6.94207e+02 
 1.86311e+02 -6.78933e+01 -6.78939e+02 
 2.18823e+02 -7.92688e+01 -6.60194e+02 
 2.50750e+02 -9.02162e+01 -6.37764e+02 
 2.82075e+02 -1.00723e+02 -6.11427e+02 
 3.12806e+02 -1.10795e+02 -5.80955e+02 
 3.42979e+02 -1.20458e+02 -5.46119e+02 
 3.72658e+02 -1.29760e+02 -5.06704e+02 
 4.01933e+02 -1.38766e+02 -4.62511e+02 
 4.30917e+02 -1.47557e+02 -4.13380e+02 
 4.59750e+02 -1.56234e+02 -3.59151e+02 
 4.88587e+02 -1.64913e+02 -2.99835e+02 
 5.17600e+02 -1.73714e+02 -2.36242e+02 
 5.46961e+02 -1.82786e+02 -1.69534e+02 
 5.76917e+02 -1.92236e+02 -7.76905e+01 
 6.07707e+02 -2.02241e+02 -3.00436e+01 
-5.77485e+02  1.87364e+02 -1.40144e+01 
-5.48399e+02  1.85178e+02 -8.41783e+01 
-5.20342e+02  1.74269e+02 -1.70520e+02 
-4.92984e+02  1.66526e+02 -2.39377e+02 
-4.66001e+02  1.58400e+02 -3.02951e+02 
-4.39186e+02  1.50558e+02 -3.62464e+02 
-4.12340e+02  1.42640e+02 -4.16527e+02 
-3.85283e+02  1.34579e+02 -4.65334e+02 
-3.57860e+02  1.26252e+02 -5.09032e+02 
-3.29945e+02  1.17571e+02 -5.47828e+02 
-3.01439e+02  1.08467e+02 -5.81951e+02 
-2.72273e+02  9.88913e+01 -6.11653e+02 
-2.42408e+02  8.88168e+01 -6.37195e+02 
-2.11837e+02  7.82394e+01 -6.58843e+02 
-1.80585e+02  6.71768e+01 -6.76852e+02 
-1.48704e+02  5.56676e+01 -6.91461e+02 
-1.16273e+02  4.37686e+01 -7.02882e+02 
-8.33932e+01  3.15524e+01 -7.11292e+02 
-5.01821e+01  1.91034e+01 -7.16829e+02 
-1.67699e+01  6.51399e+00 -7.19585e+02 
 1.67076e+01 -6.11803e+00 -7.19597e+02 
 5.01088e+01 -1.86941e+01 -7.16859e+02 
 8.32995e+01 -3.11173e+01 -7.11334e+02 
 1.16152e+02 -4.32973e+01 -7.02926e+02 
 1.48551e+02 -5.51521e+01 -6.91493e+02 
 1.80399e+02 -6.66121e+01 -6.76861e+02 
 2.11619e+02 -7.76232e+01 -6.58820e+02 
 2.42160e+02 -8.81492e+01 -6.37135e+02 
 2.72000e+02 -9.81744e+01 -6.11550e+02 
 3.01145e+02 -1.07705e+02 -5.81805e+02 
 3.29636e+02 -1.16770e+02 -5.47637e+02 
 3.57542e+02 -1.25419e+02 -5.08798e+02 
 3.84963e+02 -1.33726e+02 -4.65059e+02 
 4.12029e+02 -1.41782e+02 -4.16229e+02 
 4.38894e+02 -1.49694e+02 -3.62123e+02 
 4.65735e+02 -1.57597e+02 -3.02726e+02 
 4.92747e+02 -1.65618e+02 -2.38852e+02 
 5.20129e+02 -1.73953e+02 -1.71594e+02 
 5.48167e+02 -1.82606e+02 -7.89522e+01 
 5.77147e+02 -1.92243e+02 -2.99439e+01 
-5.46415e+02  1.77153e+02 -1.49329e+01 
-5.19249e+02  1.75481e+02 -8.53223e+01 
-4.93230e+02  1.65381e+02 -1.72977e+02 
-4.67969e+02  1.58426e+02 -2.42358e+02 
-4.43094e+02  1.51114e+02 -3.06244e+02 
-4.18369e+02  1.44078e+02 -3.65816e+02 
-3.93570e+02  1.36946e+02 -4.19717e+02 
-3.68497e+02  1.29640e+02 -4.68168e+02 
-3.42979e+02  1.22023e+02 -5.11346e+02 
-3.16877e+02  1.14004e+02 -5.49491e+02 
-2.90079e+02  1.05503e+02 -5.82865e+02 
-2.62511e+02  9.64675e+01 -6.11754e+02 
-2.34130e+02  8.68688e+01 -6.36456e+02 
-2.04931e+02  7.67027e+01 -6.57275e+02 
-1.74942e+02  6.59900e+01 -6.74502e+02 
-1.44228e+02  5.47751e+01 -6.88410e+02 
-1.12879e+02  4.31232e+01 -6.99238e+02 
-8.10147e+01  3.11162e+01 -7.07185e+02 
-4.87706e+01  1.88494e+01 -7.12408e+02 
-1.62966e+01  6.42608e+00 -7.15007e+02 
 1.62515e+01 -6.04446e+00 -7.15024e+02 
 4.87120e+01 -1.84524e+01 -7.12454e+02 
 8.09307e+01 -3.06898e+01 -7.07252e+02 
 1.12761e+02 -4.26554e+01 -6.99311e+02 
 1.44070e+02 -5.42571e+01 -6.88473e+02 
 1.74745e+02 -6.54161e+01 -6.74541e+02 
 2.04695e+02 -7.60704e+01 -6.57277e+02 
 2.33860e+02 -8.61784e+01 -6.36415e+02 
 2.62211e+02 -9.57214e+01 -6.11664e+02 
 2.89754e+02 -1.04705e+02 -5.82724e+02 
 3.16533e+02 -1.13161e+02 -5.49298e+02 
 3.42624e+02 -1.21146e+02 -5.11099e+02 
 3.68141e+02 -1.28737e+02 -4.67867e+02 
 3.93224e+02 -1.36036e+02 -4.19378e+02 
 4.18048e+02 -1.43162e+02 -3.65422e+02 
 4.42810e+02 -1.50262e+02 -3.05949e+02 
 4.67730e+02 -1.57472e+02 -2.41777e+02 
 4.93033e+02 -1.65036e+02 -1.73919e+02 
 5.19052e+02 -1.72848e+02 -8.03777e+01 
 5.46122e+02 -1.82100e+02 -2.98744e+01 
-5.14792e+02  1.66770e+02 -1.59582e+01 
-4.89677e+02  1.65648e+02 -8.66272e+01 
-4.65821e+02  1.56399e+02 -1.75722e+02 
-4.42772e+02  1.50267e+02 -2.45662e+02 
-4.20107e+02  1.43796e+02 -3.09870e+02 
-3.97561e+02  1.37588e+02 -3.69488e+02 
-3.74887e+02  1.31261e+02 -4.23200e+02 
-3.51865e+02  1.24724e+02 -4.71254e+02 
-3.28308e+02  1.17833e+02 -5.13861e+02 
-3.04062e+02  1.10486e+02 -5.51293e+02 
-2.79005e+02  1.02597e+02 -5.83846e+02 
-2.53053e+02  9.41090e+01 -6.11845e+02 
-2.26160e+02  8.49884e+01 -6.35628e+02 
-1.98321e+02  7.52318e+01 -6.55539e+02 
-1.69573e+02  6.48636e+01 -6.71911e+02 
-1.39989e+02  5.39350e+01 -6.85053e+02 
-1.09679e+02  4.25199e+01 -6.95236e+02 
-7.87792e+01  3.07108e+01 -7.02681e+02 
-4.74460e+01  1.86143e+01 -7.07563e+02 
-1.58515e+01  6.34516e+00 -7.09992e+02 
 1.58265e+01 -5.97595e+00 -7.10016e+02 
 4.74045e+01 -1.82279e+01 -7.07627e+02 
 7.87067e+01 -3.02913e+01 -7.02775e+02 
 1.09565e+02 -4.20540e+01 -6.95340e+02 
 1.39828e+02 -5.34128e+01 -6.85150e+02 
 1.69364e+02 -6.42789e+01 -6.71981e+02 
 1.98067e+02 -7.45818e+01 -6.55567e+02 
 2.25865e+02 -8.42736e+01 -6.35606e+02 
 2.52724e+02 -9.33320e+01 -6.11768e+02 
 2.78648e+02 -1.01763e+02 -5.83711e+02 
 3.03683e+02 -1.09601e+02 -5.51097e+02 
 3.27915e+02 -1.16908e+02 -5.13602e+02 
 3.51470e+02 -1.23770e+02 -4.70927e+02 
 3.74505e+02 -1.30297e+02 -4.22818e+02 
 3.97210e+02 -1.36617e+02 -3.69035e+02 
 4.19805e+02 -1.42892e+02 -3.09494e+02 
 4.42532e+02 -1.49261e+02 -2.45014e+02 
 4.65647e+02 -1.56023e+02 -1.76515e+02 
 4.89525e+02 -1.62944e+02 -8.19762e+01 
 5.14558e+02 -1.71793e+02 -2.98360e+01 
-4.82548e+02  1.56194e+02 -1.71000e+01 
-4.59643e+02  1.55662e+02 -8.80864e+01 
-4.38095e+02  1.47307e+02 -1.78741e+02 
-4.17384e+02  1.42027e+02 -2.49261e+02 
-3.97036e+02  1.36418e+02 -3.13794e+02 
-3.76763e+02  1.31053e+02 -3.73446e+02 
-3.56293e+02  1.25543e+02 -4.26945e+02 
-3.35391e+02  1.19786e+02 -4.74568e+02 
-3.13853e+02  1.13631e+02 -5.16560e+02 
-2.91510e+02  1.06967e+02 -5.53225e+02 
-2.68227e+02  9.97007e+01 -5.84893e+02 
-2.43911e+02  9.17665e+01 -6.11929e+02 
-2.18511e+02  8.31285e+01 -6.34716e+02 
-1.92022e+02  7.37827e+01 -6.53644e+02 
-1.64489e+02  6.37576e+01 -6.69092e+02 
-1.36000e+02  5.31117e+01 -6.81409e+02 
-1.06682e+02  4.19293e+01 -6.90899e+02 
-7.66927e+01  3.03144e+01 -6.97808e+02 
-4.62130e+01  1.83850e+01 -7.02327e+02 
-1.54382e+01  6.26745e+00 -7.04576e+02 
 1.54301e+01 -5.90675e+00 -7.04606e+02 
 4.61850e+01 -1.80056e+01 -7.02409e+02 
 7.66277e+01 -2.98989e+01 -6.97930e+02 
 1.06567e+02 -4.14631e+01 -6.91037e+02 
 1.35830e+02 -5.25836e+01 -6.81540e+02 
 1.64263e+02 -6.31606e+01 -6.69193e+02 
 1.91743e+02 -7.31139e+01 -6.53698e+02 
 2.18186e+02 -8.23883e+01 -6.34713e+02 
 2.43548e+02 -9.09579e+01 -6.11864e+02 
 2.67832e+02 -9.88287e+01 -5.84764e+02 
 2.91090e+02 -1.06039e+02 -5.53028e+02 
 3.13416e+02 -1.12658e+02 -5.16290e+02 
 3.34951e+02 -1.18780e+02 -4.74216e+02 
 3.55869e+02 -1.24525e+02 -4.26519e+02 
 3.76376e+02 -1.30027e+02 -3.72932e+02 
 3.96713e+02 -1.35462e+02 -3.13332e+02 
 4.17143e+02 -1.40968e+02 -2.48538e+02 
 4.37949e+02 -1.46899e+02 -1.79363e+02 
 4.59549e+02 -1.52879e+02 -8.37477e+01 
 4.82392e+02 -1.61300e+02 -2.98211e+01 
-4.49609e+02  1.45406e+02 -1.83750e+01 
-4.29106e+02  1.45506e+02 -8.96868e+01 
-4.10027e+02  1.38088e+02 -1.82001e+02 
-3.91787e+02  1.33681e+02 -2.53108e+02 
-3.73869e+02  1.28944e+02 -3.17961e+02 
-3.55959e+02  1.24426e+02 -3.77634e+02 
-3.37774e+02  1.19734e+02 -4.30903e+02 
-3.19060e+02  1.14761e+02 -4.78074e+02 
-2.99600e+02  1.09348e+02 -5.19422e+02 
-2.79210e+02  1.03375e+02 -5.55278e+02 
-2.57739e+02  9.67408e+01 -5.86008e+02 
-2.35082e+02  8.93704e+01 -6.12018e+02 
-2.11181e+02  8.12225e+01 -6.33741e+02 
-1.86033e+02  7.22926e+01 -6.51618e+02 
-1.59690e+02  6.26139e+01 -6.66080e+02 
-1.32256e+02  5.22541e+01 -6.77521e+02 
-1.03883e+02  4.13090e+01 -6.86280e+02 
-7.47509e+01  2.98951e+01 -6.92628e+02 
-4.50681e+01  1.81423e+01 -6.96769e+02 
-1.50549e+01  6.18742e+00 -6.98831e+02 
 1.50624e+01 -5.82842e+00 -6.98867e+02 
 4.50525e+01 -1.77639e+01 -6.96870e+02 
 7.46922e+01 -2.94790e+01 -6.92777e+02 
 1.03766e+02 -4.08392e+01 -6.86452e+02 
 1.32075e+02 -5.17182e+01 -6.77686e+02 
 1.59444e+02 -6.20038e+01 -6.66212e+02 
 1.85728e+02 -7.16047e+01 -6.51696e+02 
 2.10826e+02 -8.04570e+01 -6.33754e+02 
 2.34685e+02 -8.85303e+01 -6.11964e+02 
 2.57307e+02 -9.58315e+01 -5.85884e+02 
 2.78749e+02 -1.02404e+02 -5.55080e+02 
 2.99120e+02 -1.08327e+02 -5.19140e+02 
 3.18575e+02 -1.13704e+02 -4.77697e+02 
 3.37306e+02 -1.18664e+02 -4.30433e+02 
 3.55538e+02 -1.23347e+02 -3.77055e+02 
 3.73525e+02 -1.27937e+02 -3.17405e+02 
 3.91550e+02 -1.32569e+02 -2.52301e+02 
 4.09918e+02 -1.37647e+02 -1.82430e+02 
 4.29085e+02 -1.42636e+02 -8.56846e+01 
 4.49558e+02 -1.50602e+02 -2.98241e+01 
-4.15914e+02  1.34389e+02 -1.97894e+01 
-3.98038e+02  1.35162e+02 -9.13915e+01 
-3.81607e+02  1.28719e+02 -1.85431e+02 
-3.65975e+02  1.25193e+02 -2.57104e+02 
-3.50592e+02  1.21322e+02 -3.22265e+02 
-3.35134e+02  1.17636e+02 -3.81950e+02 
-3.19306e+02  1.13750e+02 -4.34987e+02 
-3.02848e+02  1.09553e+02 -4.81705e+02 
-2.85528e+02  1.04883e+02 -5.22402e+02 
-2.67144e+02  9.96093e+01 -5.57431e+02 
-2.47528e+02  9.36181e+01 -5.87189e+02 
-2.26557e+02  8.68238e+01 -6.12125e+02 
-2.04165e+02  7.91774e+01 -6.32725e+02 
-1.80346e+02  7.06734e+01 -6.49494e+02 
-1.55166e+02  6.13511e+01 -6.62922e+02 
-1.28749e+02  5.12894e+01 -6.73452e+02 
-1.01272e+02  4.05983e+01 -6.81459e+02 
-7.29467e+01  2.94076e+01 -6.87234e+02 
-4.40080e+01  1.78587e+01 -6.90993e+02 
-1.47032e+01  6.09723e+00 -6.92866e+02 
 1.47163e+01 -5.72878e+00 -6.92908e+02 
 4.39954e+01 -1.74716e+01 -6.91109e+02 
 7.28859e+01 -2.89838e+01 -6.87407e+02 
 1.01147e+02 -4.01209e+01 -6.81659e+02 
 1.28550e+02 -5.07444e+01 -6.73647e+02 
 1.54894e+02 -6.07283e+01 -6.63080e+02 
 1.80009e+02 -6.99678e+01 -6.49592e+02 
 2.03773e+02 -7.83882e+01 -6.32751e+02 
 2.26122e+02 -8.59538e+01 -6.12077e+02 
 2.47055e+02 -9.26732e+01 -5.87068e+02 
 2.66639e+02 -9.85983e+01 -5.57232e+02 
 2.85001e+02 -1.03819e+02 -5.22111e+02 
 3.02316e+02 -1.08452e+02 -4.81305e+02 
 3.18794e+02 -1.12635e+02 -4.34474e+02 
 3.34676e+02 -1.16513e+02 -3.81307e+02 
 3.50228e+02 -1.20272e+02 -3.21613e+02 
 3.65744e+02 -1.24033e+02 -2.56212e+02 
 3.81541e+02 -1.28251e+02 -1.85646e+02 
 3.98107e+02 -1.32199e+02 -8.77603e+01 
 4.15996e+02 -1.39680e+02 -2.98257e+01 
-3.81408e+02  1.23133e+02 -2.13499e+01 
-3.66422e+02  1.24617e+02 -9.31438e+01 
-3.52826e+02  1.19177e+02 -1.88921e+02 
-3.39933e+02  1.16516e+02 -2.61109e+02 
-3.27181e+02  1.13481e+02 -3.26554e+02 
-3.14249e+02  1.10592e+02 -3.86252e+02 
-3.00845e+02  1.07480e+02 -4.39080e+02 
-2.86706e+02  1.04039e+02 -4.85378e+02 
-2.71588e+02  1.00105e+02 -5.25451e+02 
-2.55269e+02  9.55350e+01 -5.59665e+02 
-2.37556e+02  9.01997e+01 -5.88441e+02 
-2.18305e+02  8.39974e+01 -6.12274e+02 
-1.97433e+02  7.68684e+01 -6.31712e+02 
-1.74935e+02  6.88060e+01 -6.47334e+02 
-1.50889e+02  5.98577e+01 -6.59700e+02 
-1.25449e+02  5.01177e+01 -6.69307e+02 
-9.88229e+01  3.97129e+01 -6.76565e+02 
-7.12571e+01  2.87884e+01 -6.81781e+02 
-4.30176e+01  1.74957e+01 -6.85171e+02 
-1.43785e+01  5.98597e+00 -6.86863e+02 
 1.43859e+01 -5.59072e+00 -6.86907e+02 
 4.29981e+01 -1.70853e+01 -6.85295e+02 
 7.11865e+01 -2.83467e+01 -6.81967e+02 
 9.86827e+01 -3.92229e+01 -6.76783e+02 
 1.25229e+02 -4.95630e+01 -6.69521e+02 
 1.50590e+02 -5.92249e+01 -6.59875e+02 
 1.74564e+02 -6.80866e+01 -6.47443e+02 
 1.97004e+02 -7.60595e+01 -6.31744e+02 
 2.17830e+02 -8.31009e+01 -6.12228e+02 
 2.37043e+02 -8.92222e+01 -5.88321e+02 
 2.54721e+02 -9.44873e+01 -5.59463e+02 
 2.71017e+02 -9.90028e+01 -5.25150e+02 
 2.86130e+02 -1.02902e+02 -4.84954e+02 
 3.00294e+02 -1.06332e+02 -4.38524e+02 
 3.13763e+02 -1.09438e+02 -3.85547e+02 
 3.26807e+02 -1.12404e+02 -3.25807e+02 
 3.39719e+02 -1.15322e+02 -2.60133e+02 
 3.52818e+02 -1.18690e+02 -1.88901e+02 
 3.66600e+02 -1.21560e+02 -8.99288e+01 
 3.81659e+02 -1.28520e+02 -2.98051e+01 
-3.46070e+02  1.11635e+02 -2.30472e+01 
-3.34269e+02  1.13861e+02 -9.48468e+01 
-3.23697e+02  1.09432e+02 -1.92291e+02 
-3.13658e+02  1.07591e+02 -2.64901e+02 
-3.03611e+02  1.05327e+02 -3.30602e+02 
-2.93258e+02  1.03166e+02 -3.90332e+02 
-2.82328e+02  1.00772e+02 -4.43011e+02 
-2.70564e+02  9.80508e+01 -4.88967e+02 
-2.57711e+02  9.48367e+01 -5.28494e+02 
-2.43522e+02  9.09742e+01 -5.61948e+02 
-2.27770e+02  8.63101e+01 -5.89768e+02 
-2.10278e+02  8.07204e+01 -6.12495e+02 
-1.90942e+02  7.41301e+01 -6.30753e+02 
-1.69754e+02  6.65311e+01 -6.45212e+02 
-1.46814e+02  5.79833e+01 -6.56516e+02 
-1.22309e+02  4.86023e+01 -6.65225e+02 
-9.64909e+01  3.85372e+01 -6.71777e+02 
-6.96473e+01  2.79499e+01 -6.76484e+02 
-4.20770e+01  1.70001e+01 -6.79546e+02 
-1.40785e+01  5.83855e+00 -6.81078e+02 
 1.40548e+01 -5.39047e+00 -6.81118e+02 
 4.20283e+01 -1.65446e+01 -6.79663e+02 
 6.95499e+01 -2.74759e+01 -6.76662e+02 
 9.63245e+01 -3.80286e+01 -6.71993e+02 
 1.22060e+02 -4.80394e+01 -6.65442e+02 
 1.46482e+02 -5.73466e+01 -6.56695e+02 
 1.69347e+02 -6.58058e+01 -6.45323e+02 
 1.90474e+02 -7.33087e+01 -6.30783e+02 
 2.09763e+02 -7.98030e+01 -6.12446e+02 
 2.27214e+02 -8.53043e+01 -5.89645e+02 
 2.42930e+02 -8.98947e+01 -5.61741e+02 
 2.57096e+02 -9.37053e+01 -5.28180e+02 
 2.69947e+02 -9.68908e+01 -4.88517e+02 
 2.81746e+02 -9.96118e+01 -4.42410e+02 
 2.92754e+02 -1.02007e+02 -3.89568e+02 
 3.03238e+02 -1.04248e+02 -3.29766e+02 
 3.13474e+02 -1.06384e+02 -2.63856e+02 
 3.23761e+02 -1.08943e+02 -1.92023e+02 
 3.34575e+02 -1.10712e+02 -9.21103e+01 
 3.46524e+02 -1.17114e+02 -2.97244e+01 
-3.09915e+02  9.99075e+01 -2.48594e+01 
-3.01621e+02  1.02891e+02 -9.63607e+01 
-2.94249e+02  9.94537e+01 -1.95288e+02 
-2.87144e+02  9.83418e+01 -2.68179e+02 
-2.79835e+02  9.67388e+01 -3.34101e+02 
-2.72081e+02  9.51961e+01 -3.93911e+02 
-2.63653e+02  9.34307e+01 -4.46556e+02 
-2.54310e+02  9.13709e+01 -4.92316e+02 
-2.43786e+02  8.88514e+01 -5.31440e+02 
-2.31801e+02  8.56972e+01 -5.64248e+02 
-2.18081e+02  8.17235e+01 -5.91183e+02 
-2.02399e+02  7.67724e+01 -6.12834e+02 
-1.84618e+02  7.07471e+01 -6.29922e+02 
-1.64729e+02  6.36386e+01 -6.43233e+02 
-1.42858e+02  5.55271e+01 -6.53520e+02 
-1.19245e+02  4.65593e+01 -6.61409e+02 
-9.41992e+01  3.69143e+01 -6.67357e+02 
-6.80554e+01  2.67730e+01 -6.71656e+02 
-4.11472e+01  1.62992e+01 -6.74472e+02 
-1.37929e+01  5.63414e+00 -6.75883e+02 
 1.37037e+01 -5.09570e+00 -6.75912e+02 
 4.10404e+01 -1.57674e+01 -6.74557e+02 
 6.79112e+01 -2.62467e+01 -6.71794e+02 
 9.39967e+01 -3.63801e+01 -6.67535e+02 
 1.18967e+02 -4.59927e+01 -6.61598e+02 
 1.42496e+02 -5.48984e+01 -6.53682e+02 
 1.64288e+02 -6.29216e+01 -6.43333e+02 
 1.84114e+02 -6.99253e+01 -6.29942e+02 
 2.01845e+02 -7.58419e+01 -6.12778e+02 
 2.17485e+02 -8.06942e+01 -5.91054e+02 
 2.31168e+02 -8.45914e+01 -5.64032e+02 
 2.43131e+02 -8.77008e+01 -5.31104e+02 
 2.53662e+02 -9.02079e+01 -4.91830e+02 
 2.63056e+02 -9.22879e+01 -4.45904e+02 
 2.71583e+02 -9.40700e+01 -3.93090e+02 
 2.79491e+02 -9.56994e+01 -3.33188e+02 
 2.87013e+02 -9.71581e+01 -2.67090e+02 
 2.94405e+02 -9.89879e+01 -1.94770e+02 
 3.02076e+02 -9.96627e+01 -9.41837e+01 
 3.10609e+02 -1.05468e+02 -2.95350e+01 
-2.73023e+02  8.79819e+01 -2.67349e+01 
-2.68571e+02  9.17120e+01 -9.74807e+01 
-2.64538e+02  8.92061e+01 -1.97552e+02 
-2.60392e+02  8.86735e+01 -2.70519e+02 
-2.55799e+02  8.75633e+01 -3.36627e+02 
-2.50615e+02  8.64759e+01 -3.96609e+02 
-2.44682e+02  8.52076e+01 -4.49408e+02 
-2.37789e+02  8.37220e+01 -4.95209e+02 
-2.29662e+02  8.18571e+01 -5.34162e+02 
-2.19970e+02  7.94106e+01 -5.66516e+02 
-2.08370e+02  7.61510e+01 -5.92695e+02 
-1.94562e+02  7.18705e+01 -6.13341e+02 
-1.78361e+02  6.64404e+01 -6.29298e+02 
-1.59751e+02  5.98533e+01 -6.41519e+02 
-1.38905e+02  5.22226e+01 -6.50893e+02 
-1.16138e+02  4.37424e+01 -6.58118e+02 
-9.18348e+01  3.46327e+01 -6.63648e+02 
-6.63911e+01  2.50961e+01 -6.67721e+02 
-4.01735e+01  1.52938e+01 -6.70429e+02 
-1.35106e+01  5.34390e+00 -6.71789e+02 
 1.32989e+01 -4.66318e+00 -6.71792e+02 
 3.99603e+01 -1.46427e+01 -6.70443e+02 
 6.61667e+01 -2.44903e+01 -6.67765e+02 
 9.15792e+01 -3.40646e+01 -6.63733e+02 
 1.15825e+02 -4.31810e+01 -6.58235e+02 
 1.38516e+02 -5.16221e+01 -6.51009e+02 
 1.59283e+02 -5.91677e+01 -6.41592e+02 
 1.77825e+02 -6.56366e+01 -6.29304e+02 
 1.93972e+02 -7.09372e+01 -6.13277e+02 
 2.07731e+02 -7.51028e+01 -5.92560e+02 
 2.19292e+02 -7.82835e+01 -5.66285e+02 
 2.28969e+02 -8.07004e+01 -5.33792e+02 
 2.37124e+02 -8.25824e+01 -4.94668e+02 
 2.44094e+02 -8.41231e+01 -4.48692e+02 
 2.50158e+02 -8.54351e+01 -3.95734e+02 
 2.55521e+02 -8.66207e+01 -3.35658e+02 
 2.60350e+02 -8.75674e+01 -2.69432e+02 
 2.64812e+02 -8.88031e+01 -1.96797e+02 
 2.69193e+02 -8.84309e+01 -9.59704e+01 
 2.73988e+02 -9.36016e+01 -2.91653e+01 
-2.35570e+02  7.59198e+01 -2.85874e+01 
-2.35279e+02  8.03493e+01 -9.79307e+01 
-2.34659e+02  7.86558e+01 -1.98601e+02 
-2.33408e+02  7.84778e+01 -2.71373e+02 
-2.31424e+02  7.76175e+01 -3.37634e+02 
-2.28713e+02  7.67535e+01 -3.97936e+02 
-2.25222e+02  7.57954e+01 -4.51176e+02 
-2.20790e+02  7.47588e+01 -4.97371e+02 
-2.15128e+02  7.34889e+01 -5.36507e+02 
-2.07838e+02  7.17451e+01 -5.68700e+02 
-1.98472e+02  6.92284e+01 -5.94325e+02 
-1.86622e+02  6.56561e+01 -6.14080e+02 
-1.72024e+02  6.08523e+01 -6.28985e+02 
-1.54661e+02  5.48170e+01 -6.40224e+02 
-1.34778e+02  4.77192e+01 -6.48875e+02 
-1.12802e+02  3.98246e+01 -6.55705e+02 
-8.92258e+01  3.14106e+01 -6.61127e+02 
-6.45163e+01  2.27032e+01 -6.65266e+02 
-3.90700e+01  1.38506e+01 -6.68089e+02 
-1.32089e+01  4.92768e+00 -6.69509e+02 
 1.27965e+01 -4.03686e+00 -6.69466e+02 
 3.86847e+01 -1.30234e+01 -6.67979e+02 
 6.41683e+01 -2.19813e+01 -6.65140e+02 
 8.88995e+01 -3.07977e+01 -6.61039e+02 
 1.12460e+02 -3.92824e+01 -6.55685e+02 
 1.34380e+02 -4.71774e+01 -6.48905e+02 
 1.54184e+02 -5.41978e+01 -6.40254e+02 
 1.71470e+02 -6.00933e+01 -6.28976e+02 
 1.86000e+02 -6.47323e+01 -6.14015e+02 
 1.97789e+02 -6.81635e+01 -5.94186e+02 
 2.07112e+02 -7.06003e+01 -5.68443e+02 
 2.14402e+02 -7.23422e+01 -5.36075e+02 
 2.20127e+02 -7.36789e+01 -4.96741e+02 
 2.24685e+02 -7.48258e+01 -4.50370e+02 
 2.28351e+02 -7.58697e+01 -3.97006e+02 
 2.31273e+02 -7.68490e+01 -3.36637e+02 
 2.33507e+02 -7.75231e+01 -2.70352e+02 
 2.35085e+02 -7.83696e+01 -1.97647e+02 
 2.36081e+02 -7.70579e+01 -9.72189e+01 
 2.36821e+02 -8.15632e+01 -2.85205e+01 
-1.97857e+02  6.38197e+01 -3.02772e+01 
-2.01994e+02  6.88493e+01 -9.73452e+01 
-2.04752e+02  6.77755e+01 -1.97814e+02 
-2.06212e+02  6.76365e+01 -2.70037e+02 
-2.06619e+02  6.66930e+01 -3.36419e+02 
-2.06191e+02  6.57346e+01 -3.97257e+02 
-2.05025e+02  6.48260e+01 -4.51341e+02 
-2.03031e+02  6.40584e+01 -4.98432e+02 
-1.99904e+02  6.32920e+01 -5.38260e+02 
-1.95150e+02  6.22363e+01 -5.70721e+02 
-1.88170e+02  6.04958e+01 -5.96090e+02 
-1.78388e+02  5.76733e+01 -6.15120e+02 
-1.65417e+02  5.35220e+01 -6.29086e+02 
-1.49239e+02  4.80619e+01 -6.39524e+02 
-1.30226e+02  4.15542e+01 -6.47764e+02 
-1.08976e+02  3.43739e+01 -6.54630e+02 
-8.61281e+01  2.68754e+01 -6.60425e+02 
-6.22355e+01  1.93087e+01 -6.65079e+02 
-3.77150e+01  1.17920e+01 -6.68352e+02 
-1.28560e+01  4.32926e+00 -6.70000e+02 
 1.21346e+01 -3.14677e+00 -6.69886e+02 
 3.70654e+01 -1.07183e+01 -6.68048e+02 
 6.17011e+01 -1.84225e+01 -6.64683e+02 
 8.57049e+01 -2.62008e+01 -6.60058e+02 
 1.08613e+02 -3.38676e+01 -6.54381e+02 
 1.29849e+02 -4.11136e+01 -6.47653e+02 
 1.48787e+02 -4.75598e+01 -6.39495e+02 
 1.64867e+02 -5.28450e+01 -6.29076e+02 
 1.77740e+02 -5.67713e+01 -6.15074e+02 
 1.87437e+02 -5.94113e+01 -5.95951e+02 
 1.94368e+02 -6.10759e+01 -5.70417e+02 
 1.99150e+02 -6.21782e+01 -5.37722e+02 
 2.02401e+02 -6.30888e+01 -4.97664e+02 
 2.04596e+02 -6.40469e+01 -4.50411e+02 
 2.06002e+02 -6.50995e+01 -3.96273e+02 
 2.06677e+02 -6.61943e+01 -3.35436e+02 
 2.06522e+02 -6.69248e+01 -2.69171e+02 
 2.05371e+02 -6.76733e+01 -1.96723e+02 
 2.02982e+02 -6.56137e+01 -9.75903e+01 
 1.99386e+02 -6.94346e+01 -2.74788e+01 
-1.60354e+02  5.18289e+01 -3.15947e+01 
-1.69069e+02  5.72920e+01 -9.52630e+01 
-1.75014e+02  5.65580e+01 -1.94416e+02 
-1.78842e+02  5.60420e+01 -2.65639e+02 
-1.81278e+02  5.45789e+01 -3.32100e+02 
-1.82819e+02  5.31022e+01 -3.93749e+02 
-1.83769e+02  5.18809e+01 -4.49207e+02 
-1.84139e+02  5.11178e+01 -4.97875e+02 
-1.83612e+02  5.07081e+01 -5.39103e+02 
-1.81565e+02  5.03022e+01 -5.72440e+02 
-1.77175e+02  4.93705e+01 -5.97978e+02 
-1.69608e+02  4.73389e+01 -6.16507e+02 
-1.58277e+02  4.38521e+01 -6.29688e+02 
-1.43179e+02  3.89740e+01 -6.39601e+02 
-1.24896e+02  3.31191e+01 -6.47918e+02 
-1.04288e+02  2.68240e+01 -6.55483e+02 
-8.21974e+01  2.05431e+01 -6.62371e+02 
-5.92744e+01  1.45431e+01 -6.68190e+02 
-3.59363e+01  8.88662e+00 -6.72395e+02 
-1.24018e+01  3.47013e+00 -6.74518e+02 
 1.12335e+01 -1.91133e+00 -6.74312e+02 
 3.49003e+01 -7.48740e+00 -6.71829e+02 
 5.84641e+01 -1.34301e+01 -6.67413e+02 
 8.16346e+01 -1.97755e+01 -6.61589e+02 
 1.03911e+02 -2.63658e+01 -6.54881e+02 
 1.24582e+02 -3.28313e+01 -6.47590e+02 
 1.42803e+02 -3.86582e+01 -6.39494e+02 
 1.57768e+02 -4.33070e+01 -6.29708e+02 
 1.68940e+02 -4.64680e+01 -6.16519e+02 
 1.76377e+02 -4.82548e+01 -5.97843e+02 
 1.80717e+02 -4.91290e+01 -5.72049e+02 
 1.82849e+02 -4.96651e+01 -5.38384e+02 
 1.83599e+02 -5.03342e+01 -4.96896e+02 
 1.83538e+02 -5.13923e+01 -4.48116e+02 
 1.82910e+02 -5.28246e+01 -3.92726e+02 
 1.81650e+02 -5.44557e+01 -3.31194e+02 
 1.79447e+02 -5.56745e+01 -2.65041e+02 
 1.75873e+02 -5.67143e+01 -1.93280e+02 
 1.70236e+02 -5.42054e+01 -9.66372e+01 
 1.62121e+02 -5.73449e+01 -2.58805e+01 
-1.23752e+02  4.01581e+01 -3.22503e+01 
-1.36990e+02  4.58066e+01 -9.11461e+01 
-1.45722e+02  4.50418e+01 -1.87508e+02 
-1.51381e+02  4.36355e+01 -2.57167e+02 
-1.55309e+02  4.11096e+01 -3.23612e+02 
-1.58353e+02  3.85627e+01 -3.86366e+02 
-1.61080e+02  3.65257e+01 -4.43830e+02 
-1.63654e+02  3.53666e+01 -4.94942e+02 
-1.65763e+02  3.50611e+01 -5.38526e+02 
-1.66626e+02  3.52082e+01 -5.73601e+02 
-1.65101e+02  3.51048e+01 -5.99930e+02 
-1.59954e+02  3.38965e+01 -6.18255e+02 
-1.50253e+02  3.10563e+01 -6.30847e+02 
-1.36048e+02  2.67400e+01 -6.40655e+02 
-1.18284e+02  2.16135e+01 -6.49808e+02 
-9.82212e+01  1.64438e+01 -6.59058e+02 
-7.69643e+01  1.18008e+01 -6.68069e+02 
-5.52628e+01  7.94525e+00 -6.75958e+02 
-3.34987e+01  4.84405e+00 -6.81754e+02 
-1.17685e+01  2.24273e+00 -6.84694e+02 
 1.00030e+01 -2.45641e-01 -6.84383e+02 
 3.19338e+01 -3.04708e+00 -6.80882e+02 
 5.40586e+01 -6.52761e+00 -6.74711e+02 
 7.61928e+01 -1.08799e+01 -6.66738e+02 
 9.78269e+01 -1.60208e+01 -6.57955e+02 
 1.18090e+02 -2.15255e+01 -6.49159e+02 
 1.35828e+02 -2.66986e+01 -6.40443e+02 
 1.49843e+02 -3.07080e+01 -6.30963e+02 
 1.59265e+02 -3.30567e+01 -6.18396e+02 
 1.64214e+02 -3.39338e+01 -5.99789e+02 
 1.65703e+02 -3.40374e+01 -5.73051e+02 
 1.65031e+02 -3.41610e+01 -5.37522e+02 
 1.63298e+02 -3.48847e+01 -4.93675e+02 
 1.61175e+02 -3.64551e+01 -4.42561e+02 
 1.58857e+02 -3.87584e+01 -3.85350e+02 
 1.56113e+02 -4.14567e+01 -3.22873e+02 
 1.52368e+02 -4.37018e+01 -2.56961e+02 
 1.46862e+02 -4.55234e+01 -1.86430e+02 
 1.38310e+02 -4.29916e+01 -9.38010e+01 
 1.25662e+02 -4.54836e+01 -2.35352e+01 
-8.89958e+01  2.90867e+01 -3.18620e+01 
-1.06394e+02  3.45867e+01 -8.44144e+01 
-1.17254e+02  3.33447e+01 -1.76131e+02 
-1.23995e+02  3.04663e+01 -2.43512e+02 
-1.28689e+02  2.62424e+01 -3.09716e+02 
-1.32577e+02  2.19331e+01 -3.73780e+02 
-1.36549e+02  1.83800e+01 -4.33894e+02 
-1.41002e+02  1.61923e+01 -4.88488e+02 
-1.45705e+02  1.55330e+01 -5.35719e+02 
-1.49711e+02  1.60091e+01 -5.73773e+02 
-1.51428e+02  1.67097e+01 -6.01814e+02 
-1.48991e+02  1.63276e+01 -6.20329e+02 
-1.40869e+02  1.40639e+01 -6.32588e+02 
-1.27244e+02  1.02592e+01 -6.42950e+02 
-1.09699e+02  5.98087e+00 -6.54107e+02 
-9.00831e+01  2.30350e+00 -6.66483e+02 
-6.98223e+01 -9.96723e-02 -6.79033e+02 
-4.97349e+01 -1.03031e+00 -6.90171e+02 
-3.01067e+01 -6.77685e-01 -6.98393e+02 
-1.08477e+01  5.06785e-01 -7.02594e+02 
 8.34972e+00  1.92033e+00 -7.02202e+02 
 2.78590e+01  2.90260e+00 -6.97264e+02 
 4.79664e+01  2.83684e+00 -6.88465e+02 
 6.86923e+01  1.29099e+00 -6.77065e+02 
 8.96021e+01 -1.83177e+00 -6.64684e+02 
 1.09667e+02 -6.10190e+00 -6.52941e+02 
 1.27289e+02 -1.05946e+01 -6.42535e+02 
 1.40645e+02 -1.39949e+01 -6.32890e+02 
 1.48266e+02 -1.54992e+01 -6.20695e+02 
 1.50412e+02 -1.54445e+01 -6.01579e+02 
 1.48733e+02 -1.48959e+01 -5.72884e+02 
 1.45126e+02 -1.49253e+01 -5.34262e+02 
 1.41020e+02 -1.61951e+01 -4.86888e+02 
 1.37161e+02 -1.88766e+01 -4.32520e+02 
 1.33647e+02 -2.26947e+01 -3.72906e+02 
 1.30028e+02 -2.71051e+01 -3.09282e+02 
 1.25426e+02 -3.10074e+01 -2.43821e+02 
 1.18696e+02 -3.41837e+01 -1.75203e+02 
 1.07821e+02 -3.21940e+01 -8.84324e+01 
 9.09042e+01 -3.41164e+01 -2.02351e+01 
-5.73004e+01  1.89686e+01 -2.99865e+01 
-7.80596e+01  2.39126e+01 -7.45489e+01 
-9.01061e+01  2.17203e+01 -1.59417e+02 
-9.69901e+01  1.67900e+01 -2.23622e+02 
-1.01552e+02  1.01976e+01 -2.89086e+02 
-1.05418e+02  3.30121e+00 -3.54364e+02 
-1.09849e+02 -2.73655e+00 -4.17564e+02 
-1.15597e+02 -6.95368e+00 -4.76680e+02 
-1.22647e+02 -8.80413e+00 -5.29113e+02 
-1.29954e+02 -8.53809e+00 -5.71863e+02 
-1.35381e+02 -7.19872e+00 -6.03116e+02 
-1.36094e+02 -6.80736e+00 -6.22459e+02 
-1.29421e+02 -8.63763e+00 -6.34786e+02 
-1.15880e+02 -1.19916e+01 -6.46809e+02 
-9.81668e+01 -1.51667e+01 -6.61794e+02 
-7.89612e+01 -1.67353e+01 -6.79338e+02 
-6.00199e+01 -1.60070e+01 -6.97257e+02 
-4.21396e+01 -1.29616e+01 -7.13054e+02 
-2.54112e+01 -8.03105e+00 -7.24646e+02 
-9.48735e+00 -1.90026e+00 -7.30613e+02 
 6.21829e+00  4.60939e+00 -7.30221e+02 
 2.23802e+01  1.06136e+01 -7.23467e+02 
 3.96212e+01  1.52265e+01 -7.11101e+02 
 5.83112e+01  1.76635e+01 -6.94736e+02 
 7.82389e+01  1.74634e+01 -6.76744e+02 
 9.82851e+01  1.49439e+01 -6.59958e+02 
 1.16310e+02  1.12062e+01 -6.46089e+02 
 1.29514e+02  8.33435e+00 -6.35499e+02 
 1.35282e+02  7.66933e+00 -6.23266e+02 
 1.34194e+02  8.58099e+00 -6.02672e+02 
 1.29007e+02  9.43058e+00 -5.70461e+02 
 1.22445e+02  8.84872e+00 -5.27081e+02 
 1.16269e+02  6.20066e+00 -4.74812e+02 
 1.11211e+02  1.52569e+00 -4.16296e+02 
 1.07180e+02 -4.64355e+00 -3.53863e+02 
 1.03461e+02 -1.15125e+01 -2.89109e+02 
 9.88530e+01 -1.77489e+01 -2.24495e+02 
 9.18183e+01 -2.28784e+01 -1.58648e+02 
 7.95202e+01 -2.21118e+01 -7.98402e+01 
 5.90178e+01 -2.35948e+01 -1.57739e+01 
-3.01516e+01  1.02264e+01 -2.61011e+01 
-5.28977e+01  1.41740e+01 -6.12096e+01 
-6.49309e+01  1.06298e+01 -1.36770e+02 
-7.09024e+01  3.19934e+00 -1.96656e+02 
-7.43310e+01 -6.35327e+00 -2.60385e+02 
-7.71203e+01 -1.67304e+01 -3.26131e+02 
-8.08705e+01 -2.64949e+01 -3.92191e+02 
-8.67805e+01 -3.42942e+01 -4.56456e+02 
-9.53544e+01 -3.89983e+01 -5.15993e+02 
-1.05906e+02 -4.01996e+01 -5.66285e+02 
-1.15751e+02 -3.86235e+01 -6.03511e+02 
-1.20368e+02 -3.76562e+01 -6.24587e+02 
-1.14866e+02 -3.93440e+01 -6.37587e+02 
-1.00665e+02 -4.21914e+01 -6.53230e+02 
-8.23803e+01 -4.36370e+01 -6.74899e+02 
-6.37525e+01 -4.19870e+01 -7.00393e+02 
-4.67494e+01 -3.67606e+01 -7.25842e+02 
-3.19442e+01 -2.83327e+01 -7.47736e+02 
-1.90921e+01 -1.74798e+01 -7.63555e+02 
-7.52823e+00 -5.12438e+00 -7.71741e+02 
 3.61203e+00  7.75828e+00 -7.71508e+02 
 1.52835e+01  2.01695e+01 -7.62769e+02 
 2.84613e+01  3.10017e+01 -7.46138e+02 
 4.39777e+01  3.90944e+01 -7.23309e+02 
 6.21552e+01  4.34480e+01 -6.97043e+02 
 8.22353e+01  4.37845e+01 -6.71757e+02 
 1.01522e+02  4.09645e+01 -6.51236e+02 
 1.15511e+02  3.85257e+01 -6.38570e+02 
 1.19335e+02  3.86781e+01 -6.25690e+02 
 1.14449e+02  4.00923e+01 -6.01866e+02 
 1.05502e+02  4.03670e+01 -5.63699e+02 
 9.62570e+01  3.79564e+01 -5.13387e+02 
 8.86771e+01  3.25148e+01 -4.54827e+02 
 8.32712e+01  2.45415e+01 -3.91608e+02 
 7.96223e+01  1.49541e+01 -3.26450e+02 
 7.67108e+01  4.82313e+00 -2.61088e+02 
 7.30511e+01 -4.37362e+00 -1.98074e+02 
 6.67888e+01 -1.19629e+01 -1.36081e+02 
 5.42910e+01 -1.31335e+01 -6.74339e+01 
 3.14579e+01 -1.43594e+01 -1.00253e+01 
-9.09704e+00  3.32434e+00 -1.99434e+01 
-3.18463e+01  5.90305e+00 -4.46616e+01 
-4.25191e+01  8.41312e-01 -1.08459e+02 
-4.65831e+01 -9.21110e+00 -1.62608e+02 
-4.79549e+01 -2.20538e+01 -2.22884e+02 
-4.85853e+01 -3.66963e+01 -2.87262e+02 
-5.02526e+01 -5.16061e+01 -3.54579e+02 
-5.46176e+01 -6.53616e+01 -4.23333e+02 
-6.31876e+01 -7.58224e+01 -4.91298e+02 
-7.62452e+01 -8.09891e+01 -5.51861e+02 
-9.06731e+01 -8.07363e+01 -5.98908e+02 
-1.00026e+02 -8.00906e+01 -6.23896e+02 
-9.52536e+01 -8.17631e+01 -6.39913e+02 
-7.94794e+01 -8.35055e+01 -6.63202e+02 
-6.04871e+01 -8.17258e+01 -6.96054e+02 
-4.31705e+01 -7.47404e+01 -7.33005e+02 
-2.92561e+01 -6.29050e+01 -7.68036e+02 
-1.87633e+01 -4.72534e+01 -7.96949e+02 
-1.09446e+01 -2.89917e+01 -8.17288e+02 
-4.80745e+00 -9.19252e+00 -8.27789e+02 
 7.07780e-01  1.11978e+01 -8.27864e+02 
 6.70575e+00  3.12991e+01 -8.17356e+02 
 1.43989e+01  4.99862e+01 -7.96513e+02 
 2.51111e+01  6.60856e+01 -7.66487e+02 
 4.01757e+01  7.76817e+01 -7.29449e+02 
 5.97905e+01  8.30151e+01 -6.92013e+02 
 8.08007e+01  8.22163e+01 -6.60353e+02 
 9.67376e+01  8.05906e+01 -6.43088e+02 
 9.85248e+01  8.11472e+01 -6.27173e+02 
 8.92651e+01  8.19403e+01 -5.96357e+02 
 7.67277e+01  7.96719e+01 -5.48299e+02 
 6.57875e+01  7.29381e+01 -4.88397e+02 
 5.81341e+01  6.23539e+01 -4.22612e+02 
 5.37074e+01  4.91894e+01 -3.55113e+02 
 5.15955e+01  3.48800e+01 -2.88456e+02 
 5.04703e+01  2.07211e+01 -2.24027e+02 
 4.86890e+01  8.15490e+00 -1.64074e+02 
 4.42882e+01 -2.09166e+00 -1.07428e+02 
 3.30730e+01 -5.74128e+00 -5.10033e+01 
 9.86009e+00 -6.91953e+00 -3.06589e+00 
 4.33308e+00 -1.26096e+00 -1.15693e+01 
-1.59986e+01 -2.29821e-01 -2.57808e+01 
-2.40600e+01 -6.51579e+00 -7.57404e+01 
-2.55228e+01 -1.87343e+01 -1.22467e+02 
-2.42080e+01 -3.46813e+01 -1.76700e+02 
-2.17533e+01 -5.39533e+01 -2.36455e+02 
-1.97728e+01 -7.53408e+01 -3.01396e+02 
-1.99980e+01 -9.78471e+01 -3.71533e+02 
-2.46239e+01 -1.17987e+02 -4.46735e+02 
-3.58125e+01 -1.34165e+02 -5.21782e+02 
-5.43723e+01 -1.40444e+02 -5.92279e+02 
-7.24225e+01 -1.40372e+02 -6.28817e+02 
-6.83373e+01 -1.42008e+02 -6.50772e+02 
-4.98976e+01 -1.41074e+02 -6.87994e+02 
-3.10730e+01 -1.31952e+02 -7.38589e+02 
-1.67452e+01 -1.15805e+02 -7.90451e+02 
-7.76295e+00 -9.41110e+01 -8.36015e+02 
-3.09354e+00 -6.89888e+01 -8.71473e+02 
-1.40975e+00 -4.19196e+01 -8.95479e+02 
-1.49831e+00 -1.38506e+01 -9.07755e+02 
-2.31430e+00  1.46466e+01 -9.08279e+02 
-2.87523e+00  4.31634e+01 -8.96933e+02 
-2.05574e+00  7.10374e+01 -8.73418e+02 
 1.56138e+00  9.76522e+01 -8.37520e+02 
 9.98367e+00  1.19913e+02 -7.89468e+02 
 2.52488e+01  1.36639e+02 -7.34610e+02 
 4.80758e+01  1.42325e+02 -6.77489e+02 
 7.05026e+01  1.40967e+02 -6.47661e+02 
 7.08024e+01  1.41083e+02 -6.25831e+02 
 5.66556e+01  1.38871e+02 -5.82137e+02 
 4.19458e+01  1.29180e+02 -5.18392e+02 
 3.14685e+01  1.13627e+02 -4.46580e+02 
 2.59747e+01  9.41255e+01 -3.74111e+02 
 2.43081e+01  7.32050e+01 -3.04640e+02 
 2.49594e+01  5.27334e+01 -2.39454e+02 
 2.63901e+01  3.40203e+01 -1.78833e+02 
 2.70793e+01  1.81973e+01 -1.24152e+02 
 2.52796e+01  5.70218e+00 -7.44849e+01 
 1.67493e+01 -5.02902e-01 -3.13129e+01 
-4.21871e+00 -1.78952e+00  4.64363e+00 
 9.56084e+00 -3.24212e+00 -1.49202e+00 
-5.43743e+00 -3.61089e+00 -7.45605e+00 
-1.00282e+01 -9.99631e+00 -4.29227e+01 
-8.89077e+00 -2.31036e+01 -8.06164e+01 
-4.98736e+00 -4.11789e+01 -1.25520e+02 
 6.88169e-01 -6.47078e+01 -1.75973e+02 
 7.07274e+00 -9.33232e+01 -2.32574e+02 
 1.28796e+01 -1.26799e+02 -2.97101e+02 
 1.56638e+01 -1.62185e+02 -3.72151e+02 
 1.14702e+01 -2.02104e+02 -4.58993e+02 
-8.34698e+00 -2.22782e+02 -5.58773e+02 
-3.28710e+01 -2.33325e+02 -6.06044e+02 
-2.43415e+01 -2.37981e+02 -6.53248e+02 
-5.83434e+00 -2.20864e+02 -7.29690e+02 
 9.56320e+00 -1.96939e+02 -8.08640e+02 
 1.66540e+01 -1.64092e+02 -8.77607e+02 
 1.76088e+01 -1.28100e+02 -9.31116e+02 
 1.45594e+01 -9.12160e+01 -9.69201e+02 
 9.18889e+00 -5.45721e+01 -9.93435e+02 
 2.57837e+00 -1.83407e+01 -1.00532e+03 
-4.58437e+00  1.77989e+01 -1.00573e+03 
-1.17693e+01  5.43634e+01 -9.94683e+02 
-1.83312e+01  9.17820e+01 -9.71340e+02 
-2.33016e+01  1.30450e+02 -9.33923e+02 
-2.44681e+01  1.68060e+02 -8.80101e+02 
-1.80709e+01  2.07892e+02 -8.08851e+02 
 4.35993e+00  2.26840e+02 -7.19248e+02 
 3.17507e+01  2.34669e+02 -6.76931e+02 
 2.61601e+01  2.36273e+02 -6.29576e+02 
 1.04613e+01  2.16423e+02 -5.47840e+02 
-2.42868e+00  1.90756e+02 -4.58361e+02 
-7.48482e+00  1.57823e+02 -3.73483e+02 
-7.06055e+00  1.24068e+02 -2.98465e+02 
-3.48468e+00  9.23964e+01 -2.33024e+02 
 1.32970e+00  6.45748e+01 -1.75377e+02 
 5.98719e+00  4.13858e+01 -1.23916e+02 
 9.41430e+00  2.32138e+01 -7.86521e+01 
 1.03888e+01  9.71848e+00 -3.88704e+01 
 5.75510e+00  2.06728e+00 -9.75107e+00 
-9.73937e+00  6.96384e-01  1.18130e+01 
 4.53664e+00 -2.75110e+00  7.93568e+00 
-1.80264e+00 -1.98197e+00  8.43754e+00 
-3.48953e+00 -6.07825e+00 -6.87458e+00 
-4.58667e-01 -1.73487e+01 -2.69951e+01 
 5.45211e+00 -3.53843e+01 -5.15109e+01 
 1.42436e+01 -6.15289e+01 -7.94564e+01 
 2.58761e+01 -9.64273e+01 -1.11869e+02 
 4.04619e+01 -1.40987e+02 -1.51325e+02 
 5.78140e+01 -1.95692e+02 -2.02807e+02 
 7.91539e+01 -2.65067e+02 -2.75788e+02 
 1.01008e+02 -3.23373e+02 -3.85391e+02 
 9.36396e+01 -4.42123e+02 -5.49508e+02 
 5.18426e+01 -3.66843e+02 -7.14862e+02 
 6.02533e+01 -3.33925e+02 -8.08663e+02 
 5.70957e+01 -2.69946e+02 -8.93915e+02 
 4.98063e+01 -2.10961e+02 -9.54644e+02 
 3.95240e+01 -1.56714e+02 -9.95481e+02 
 2.80905e+01 -1.07838e+02 -1.02189e+03 
 1.63407e+01 -6.31923e+01 -1.03773e+03 
 4.48914e+00 -2.11555e+01 -1.04543e+03 
-7.58297e+00  1.99935e+01 -1.04616e+03 
-2.01717e+01  6.20145e+01 -1.03997e+03 
-3.36693e+01  1.06741e+02 -1.02586e+03 
-4.85757e+01  1.56077e+02 -1.00130e+03 
-6.50338e+01  2.11493e+02 -9.61528e+02 
-8.45687e+01  2.78470e+02 -8.97281e+02 
-1.04000e+02  3.32196e+02 -7.93596e+02 
-9.38649e+01  4.45099e+02 -6.32724e+02 
-4.92162e+01  3.63563e+02 -4.68022e+02 
-5.49697e+01  3.24772e+02 -3.72216e+02 
-4.96446e+01  2.56193e+02 -2.82211e+02 
-4.09628e+01  1.94778e+02 -2.13852e+02 
-3.03732e+01  1.41199e+02 -1.62313e+02 
-2.00509e+01  9.70475e+01 -1.21855e+02 
-1.11910e+01  6.21661e+01 -8.83266e+01 
-4.40379e+00  3.59302e+01 -5.90358e+01 
-1.61147e-02  1.76043e+01 -3.29111e+01 
 1.87526e+00  6.14395e+00 -9.46821e+00 
 8.41746e-01  1.14719e+00  5.20194e+00 
-7.27331e+00  3.41792e-01  1.50707e+01 
 2.38476e+00  2.46784e+00  5.51383e+00 
-2.74580e+00  4.71923e+00  7.96282e+00 
-3.34970e+00  9.92101e+00 -1.06883e+00 
-1.44980e+00  4.78253e+00 -1.18075e+01 
 3.40540e+00 -1.00157e+01 -2.23235e+01 
 1.15569e+01 -3.58536e+01 -3.29066e+01 
 2.33476e+01 -7.40586e+01 -4.41435e+01 
 3.93742e+01 -1.26932e+02 -5.74720e+01 
 6.06930e+01 -1.98975e+02 -7.57678e+01 
 8.98453e+01 -2.97664e+02 -1.04389e+02 
 1.24544e+02 -4.34013e+02 -1.53147e+02 
 2.05713e+02 -7.06347e+02 -2.60560e+02 
 1.58304e+02 -7.13742e+02 -6.13423e+02 
 1.18977e+02 -4.53221e+02 -8.33806e+02 
 9.84926e+01 -3.24837e+02 -9.51275e+02 
 7.74616e+01 -2.32942e+02 -1.00258e+03 
 5.79393e+01 -1.63989e+02 -1.02727e+03 
 4.07058e+01 -1.09224e+02 -1.03863e+03 
 2.52934e+01 -6.26210e+01 -1.04348e+03 
 1.10847e+01 -2.03608e+01 -1.04471e+03 
-2.63267e+00  2.05369e+01 -1.04346e+03 
-1.66124e+01  6.28014e+01 -1.03997e+03 
-3.16991e+01  1.09400e+02 -1.03381e+03 
-4.89452e+01  1.64125e+02 -1.02380e+03 
-6.98279e+01  2.32906e+02 -1.00742e+03 
-9.72743e+01  3.24496e+02 -9.79515e+02 
-1.29363e+02  4.51094e+02 -9.30464e+02 
-2.07371e+02  7.12158e+02 -8.21888e+02 
-1.56589e+02  7.07846e+02 -4.67106e+02 
-1.13969e+02  4.36099e+02 -2.44004e+02 
-9.06036e+01  2.97968e+02 -1.23002e+02 
-6.74555e+01  1.98962e+02 -6.73735e+01 
-4.69485e+01  1.26717e+02 -3.75369e+01 
-3.02629e+01  7.37635e+01 -2.01690e+01 
-1.73677e+01  3.54856e+01 -8.37055e+00 
-8.11844e+00  9.59514e+00  7.44193e-01 
-2.30999e+00 -5.29693e+00  8.24696e+00 
 3.60348e-01 -1.03063e+01  1.39714e+01 
 1.47352e-01 -7.31918e+00  1.57070e+01 
-2.75684e+00 -2.68928e+00  1.41270e+01 </DataArray>
            <DataArray Name="stress" NumberOfComponents="3" format="ascii" type="Float64">
-1.90815e+03 -4.37656e+02 -3.71034e+02 
-1.21056e+03 -4.50719e+02 -2.80276e+02 
-1.07434e+03 -3.52637e+02 -2.06860e+02 
-9.55467e+02 -3.18498e+02 -1.70297e+02 
-8.67013e+02 -2.88637e+02 -1.43551e+02 
-7.89597e+02 -2.62785e+02 -1.23450e+02 
-7.19621e+02 -2.39534e+02 -1.07790e+02 
-6.54583e+02 -2.17899e+02 -9.52579e+01 
-5.93058e+02 -1.97435e+02 -8.50693e+01 
-5.34174e+02 -1.77845e+02 -7.66981e+01 
-4.77336e+02 -1.58932e+02 -6.97782e+01 
-4.22119e+02 -1.40555e+02 -6.40458e+01 
-3.68203e+02 -1.22608e+02 -5.93056e+01 
-3.15338e+02 -1.05009e+02 -5.54106e+01 
-2.63318e+02 -8.76889e+01 -5.22490e+01 
-2.11969e+02 -7.05906e+01 -4.97358e+01 
-1.61139e+02 -5.36642e+01 -4.78068e+01 
-1.10693e+02 -3.68646e+01 -4.64145e+01 
-6.05056e+01 -2.01505e+01 -4.55258e+01 
-1.04584e+01 -3.48271e+00 -4.51197e+01 
 3.95660e+01  1.31775e+01 -4.51886e+01 
 8.96796e+01  2.98671e+01 -4.57325e+01 
 1.40001e+02  4.66256e+01 -4.67651e+01 
 1.90652e+02  6.34928e+01 -4.83108e+01 
 2.41763e+02  8.05122e+01 -5.04073e+01 
 2.93477e+02  9.77313e+01 -5.31072e+01 
 3.45959e+02  1.15204e+02 -5.64815e+01 
 3.99399e+02  1.32993e+02 -6.06240e+01 
 4.54024e+02  1.51174e+02 -6.56588e+01 
 5.10124e+02  1.69843e+02 -7.17512e+01 
 5.68073e+02  1.89123e+02 -7.91260e+01 
 6.28393e+02  2.09187e+02 -8.81002e+01 
 6.91830e+02  2.30295e+02 -9.91308e+01 
 7.59630e+02  2.52832e+02 -1.12981e+02 
 8.33632e+02  2.77503e+02 -1.30624e+02 
 9.19492e+02  3.06620e+02 -1.55835e+02 
 1.01064e+03  3.31714e+02 -1.82707e+02 
 1.13244e+03  4.05689e+02 -2.54554e+02 
 1.52388e+03  4.29814e+02 -3.46872e+02 
 2.53497e+03  1.03560e+03 -7.06647e+02 
-1.76785e+03 -7.69559e+00 -1.48969e+02 
-1.40782e+03 -1.87184e+02 -2.26697e+02 
-1.09162e+03 -2.23236e+02 -1.94659e+02 
-9.68692e+02 -2.38580e+02 -1.71221e+02 
-8.76135e+02 -2.29630e+02 -1.46526e+02 
-7.96195e+02 -2.18349e+02 -1.27256e+02 
-7.25397e+02 -2.04818e+02 -1.11780e+02 
-6.60167e+02 -1.90349e+02 -9.92494e+01 
-5.98895e+02 -1.75413e+02 -8.89884e+01 
-5.40540e+02 -1.60244e+02 -8.05151e+01 
-4.84421e+02 -1.44977e+02 -7.34829e+01 
-4.30059e+02 -1.29684e+02 -6.76352e+01 
-3.77102e+02 -1.14405e+02 -6.27796e+01 
-3.25275e+02 -9.91608e+01 -5.87694e+01 
-2.74358e+02 -8.39591e+01 -5.54924e+01 
-2.24167e+02 -6.88013e+01 -5.28621e+01 
-1.74544e+02 -5.36839e+01 -5.08126e+01 
-1.25349e+02 -3.86002e+01 -4.92945e+01 
-7.64515e+01 -2.35412e+01 -4.82727e+01 
-2.77331e+01 -8.49717e+00 -4.77234e+01 
 2.09238e+01  6.54314e+00 -4.76353e+01 
 6.96322e+01  2.15899e+01 -4.80060e+01 
 1.18509e+02  3.66548e+01 -4.88443e+01 
 1.67674e+02  5.17480e+01 -5.01695e+01 
 2.17256e+02  6.68792e+01 -5.20130e+01 
 2.67394e+02  8.20561e+01 -5.44194e+01 
 3.18247e+02  9.72839e+01 -5.74490e+01 
 3.69998e+02  1.12563e+02 -6.11819e+01 
 4.22866e+02  1.27887e+02 -6.57228e+01 
 4.77127e+02  1.43236e+02 -7.12088e+01 
 5.33133e+02  1.58569e+02 -7.78208e+01 
 5.91365e+02  1.73802e+02 -8.58006e+01 
 6.52493e+02  1.88775e+02 -9.54716e+01 
 7.17538e+02  2.03158e+02 -1.07271e+02 
 7.88037e+02  2.16351e+02 -1.21774e+02 
 8.66562e+02  2.26484e+02 -1.39549e+02 
 9.53378e+02  2.32493e+02 -1.60546e+02 
 1.05726e+03  2.25350e+02 -1.91897e+02 
 1.25113e+03  1.47821e+02 -1.80489e+02 
 1.73388e+03  2.74891e+02 -2.94706e+02 
-1.45755e+03 -3.23045e+01 -4.45528e+01 
-1.25842e+03 -3.12209e+01 -1.01647e+02 
-1.10171e+03 -1.31878e+02 -1.66231e+02 
-9.96089e+02 -1.63991e+02 -1.64790e+02 
-9.00573e+02 -1.75058e+02 -1.52115e+02 
-8.16724e+02 -1.76712e+02 -1.38298e+02 
-7.42358e+02 -1.71887e+02 -1.25610e+02 
-6.74102e+02 -1.63827e+02 -1.14656e+02 
-6.10306e+02 -1.53687e+02 -1.05305e+02 
-5.49797e+02 -1.42243e+02 -9.73739e+01 
-4.91816e+02 -1.29942e+02 -9.06672e+01 
-4.35816e+02 -1.17067e+02 -8.50149e+01 
-3.81393e+02 -1.03798e+02 -8.02756e+01 
-3.28234e+02 -9.02563e+01 -7.63341e+01 
-2.76088e+02 -7.65246e+01 -7.30979e+01 
-2.24747e+02 -6.26595e+01 -7.04940e+01 
-1.74032e+02 -4.87012e+01 -6.84653e+01 
-1.23785e+02 -3.46786e+01 -6.69684e+01 
-7.38619e+01 -2.06131e+01 -6.59723e+01 
-2.41301e+01 -6.52143e+00 -6.54563e+01 
 2.55412e+01  7.58326e+00 -6.54110e+01 
 7.52771e+01  2.16869e+01 -6.58352e+01 
 1.25208e+02  3.57767e+01 -6.67382e+01 
 1.75469e+02  4.98368e+01 -6.81390e+01 
 2.26202e+02  6.38474e+01 -7.00676e+01 
 2.77567e+02  7.77811e+01 -7.25661e+01 
 3.29743e+02  9.16003e+01 -7.56900e+01 
 3.82940e+02  1.05251e+02 -7.95110e+01 
 4.37410e+02  1.18653e+02 -8.41192e+01 
 4.93468e+02  1.31689e+02 -8.96261e+01 
 5.51515e+02  1.44179e+02 -9.61664e+01 
 6.12088e+02  1.55842e+02 -1.03896e+02 
 6.75907e+02  1.66228e+02 -1.12973e+02 
 7.44036e+02  1.74608e+02 -1.23532e+02 
 8.17803e+02  1.79744e+02 -1.35459e+02 
 8.99759e+02  1.79727e+02 -1.48442e+02 
 9.88086e+02  1.71131e+02 -1.59610e+02 
 1.08320e+03  1.48148e+02 -1.67982e+02 
 1.28190e+03  1.05465e+02 -1.39235e+02 
 1.60133e+03  9.40131e+01 -1.30438e+02 
-1.36453e+03 -1.05383e+01 -2.06318e+01 
-1.21842e+03 -1.70378e+01 -6.44544e+01 
-1.08116e+03 -6.60759e+01 -1.20428e+02 
-9.97127e+02 -9.86184e+01 -1.35975e+02 
-9.11774e+02 -1.22152e+02 -1.39607e+02 
-8.29207e+02 -1.32844e+02 -1.34694e+02 
-7.54153e+02 -1.35887e+02 -1.27577e+02 
-6.84773e+02 -1.34103e+02 -1.20091e+02 
-6.19777e+02 -1.29008e+02 -1.12984e+02 
-5.58137e+02 -1.21689e+02 -1.06556e+02 
-4.99132e+02 -1.12805e+02 -1.00881e+02 
-4.42215e+02 -1.02804e+02 -9.59515e+01 
-3.86972e+02 -9.19944e+01 -9.17271e+01 
-3.33075e+02 -8.05896e+01 -8.81561e+01 
-2.80261e+02 -6.87452e+01 -8.51879e+01 
-2.28307e+02 -5.65755e+01 -8.27770e+01 
-1.77022e+02 -4.41676e+01 -8.08851e+01 
-1.26240e+02 -3.15891e+01 -7.94815e+01 
-7.58062e+01 -1.88950e+01 -7.85436e+01 
-2.55787e+01 -6.13221e+00 -7.80556e+01 
 2.45815e+01  6.65804e+00 -7.80105e+01 
 7.48074e+01  1.94342e+01 -7.84074e+01 
 1.25238e+02  3.21553e+01 -7.92532e+01 
 1.76015e+02  4.47753e+01 -8.05621e+01 
 2.27292e+02  5.72407e+01 -8.23560e+01 
 2.79235e+02  6.94851e+01 -8.46643e+01 
 3.32034e+02  8.14240e+01 -8.75239e+01 
 3.85907e+02  9.29457e+01 -9.09780e+01 
 4.41112e+02  1.03899e+02 -9.50740e+01 
 4.97964e+02  1.14074e+02 -9.98577e+01 
 5.56851e+02  1.23177e+02 -1.05361e+02 
 6.18264e+02  1.30786e+02 -1.11576e+02 
 6.82814e+02  1.36292e+02 -1.18402e+02 
 7.51307e+02  1.38814e+02 -1.25551e+02 
 8.24553e+02  1.37106e+02 -1.32302e+02 
 9.03961e+02  1.29421e+02 -1.37264e+02 
 9.85171e+02  1.13713e+02 -1.36909e+02 
 1.06583e+03  8.75716e+01 -1.27651e+02 
 1.22950e+03  5.21751e+01 -8.49810e+01 
 1.41751e+03  2.27328e+01 -4.65262e+01 
-1.30943e+03 -8.60782e+00 -9.41876e+00 
-1.16195e+03 -9.35094e+00 -4.01806e+01 
-1.04092e+03 -3.24245e+01 -8.54046e+01 
-9.81182e+02 -5.81021e+01 -1.09441e+02 
-9.08663e+02 -8.08251e+01 -1.22564e+02 
-8.31467e+02 -9.50382e+01 -1.25735e+02 
-7.58637e+02 -1.02922e+02 -1.24676e+02 
-6.89854e+02 -1.05643e+02 -1.21391e+02 
-6.24754e+02 -1.04618e+02 -1.17272e+02 
-5.62713e+02 -1.00859e+02 -1.12985e+02 
-5.03189e+02 -9.50739e+01 -1.08866e+02 
-4.45724e+02 -8.77804e+01 -1.05084e+02 
-3.89941e+02 -7.93519e+01 -1.01714e+02 
-3.35530e+02 -7.00644e+01 -9.87840e+01 
-2.82229e+02 -6.01252e+01 -9.62974e+01 
-2.29818e+02 -4.96933e+01 -9.42466e+01 
-1.78102e+02 -3.88936e+01 -9.26195e+01 
-1.26908e+02 -2.78274e+01 -9.14037e+01 
-7.60767e+01 -1.65792e+01 -9.05887e+01 
-2.54612e+01 -5.22303e+00 -9.01663e+01 
 2.50836e+01  6.17400e+00 -9.01333e+01 
 7.56962e+01  1.75450e+01 -9.04889e+01 
 1.26521e+02  2.88233e+01 -9.12369e+01 
 1.77705e+02  3.99357e+01 -9.23846e+01 
 2.29405e+02  5.07989e+01 -9.39421e+01 
 2.81793e+02  6.13138e+01 -9.59210e+01 
 3.35058e+02  7.13585e+01 -9.83325e+01 
 3.89414e+02  8.07788e+01 -1.01183e+02 
 4.45110e+02  8.93756e+01 -1.04465e+02 
 5.02433e+02  9.68882e+01 -1.08149e+02 
 5.61719e+02  1.02972e+02 -1.12156e+02 
 6.23363e+02  1.07169e+02 -1.16324e+02 
 6.87791e+02  1.08879e+02 -1.20339e+02 
 7.55486e+02  1.07331e+02 -1.23634e+02 
 8.26685e+02  1.01574e+02 -1.25172e+02 
 9.01829e+02  9.05886e+01 -1.23316e+02 
 9.75002e+02  7.35965e+01 -1.14881e+02 
 1.04200e+03  5.04118e+01 -9.69128e+01 
 1.18003e+03  2.55611e+01 -5.55079e+01 
 1.34298e+03  4.01734e+00 -2.13886e+01 
-1.27404e+03 -7.29789e+00 -4.17931e+00 
-1.12446e+03 -4.34917e+00 -2.92257e+01 
-1.01187e+03 -1.81163e+01 -6.49489e+01 
-9.61950e+02 -3.56652e+01 -8.88591e+01 
-8.98448e+02 -5.32312e+01 -1.05519e+02 
-8.28086e+02 -6.71467e+01 -1.14398e+02 
-7.59031e+02 -7.66151e+01 -1.18394e+02 
-6.92122e+02 -8.17611e+01 -1.19177e+02 
-6.27865e+02 -8.34185e+01 -1.18219e+02 
-5.66088e+02 -8.22804e+01 -1.16342e+02 
-5.06515e+02 -7.89571e+01 -1.14065e+02 
-4.48833e+02 -7.39313e+01 -1.11693e+02 
-3.92746e+02 -6.75793e+01 -1.09406e+02 
-3.37989e+02 -6.01952e+01 -1.07308e+02 
-2.84326e+02 -5.20102e+01 -1.05460e+02 
-2.31548e+02 -4.32087e+01 -1.03893e+02 
-1.79467e+02 -3.39406e+01 -1.02626e+02 
-1.27913e+02 -2.43306e+01 -1.01666e+02 
-7.67282e+01 -1.44859e+01 -1.01017e+02 
-2.57623e+01 -4.50208e+00 -1.00680e+02 
 2.51305e+01  5.53310e+00 -1.00655e+02 
 7.60904e+01  1.55320e+01 -1.00942e+02 
 1.27263e+02  2.54074e+01 -1.01541e+02 
 1.78796e+02  3.50647e+01 -1.02451e+02 
 2.30846e+02  4.43987e+01 -1.03667e+02 
 2.83579e+02  5.32874e+01 -1.05181e+02 
 3.37176e+02  6.15860e+01 -1.06977e+02 
 3.91836e+02  6.91180e+01 -1.09020e+02 
 4.47778e+02  7.56661e+01 -1.11252e+02 
 5.05243e+02  8.09604e+01 -1.13573e+02 
 5.64489e+02  8.46663e+01 -1.15813e+02 
 6.25780e+02  8.63737e+01 -1.17699e+02 
 6.89345e+02  8.55939e+01 -1.18793e+02 
 7.55348e+02  8.17795e+01 -1.18413e+02 
 8.23562e+02  7.43778e+01 -1.15491e+02 
 8.93777e+02  6.30178e+01 -1.08580e+02 
 9.59312e+02  4.77602e+01 -9.52815e+01 
 1.01571e+03  2.97305e+01 -7.43048e+01 
 1.13951e+03  1.26080e+01 -3.76545e+01 
 1.29356e+03 -2.28989e-01 -1.14216e+01 
-1.24860e+03 -6.94407e+00 -1.62051e+00 
-1.09477e+03 -1.93145e+00 -2.31871e+01 
-9.85152e+02 -1.07011e+01 -5.14516e+01 
-9.40893e+02 -2.20517e+01 -7.37168e+01 
-8.84507e+02 -3.50807e+01 -9.15112e+01 
-8.20075e+02 -4.68298e+01 -1.03534e+02 
-7.55096e+02 -5.59380e+01 -1.11066e+02 
-6.90812e+02 -6.19810e+01 -1.15221e+02 
-6.28115e+02 -6.51399e+01 -1.17145e+02 
-5.67200e+02 -6.57716e+01 -1.17635e+02 
-5.08053e+02 -6.42988e+01 -1.17265e+02 
-4.50525e+02 -6.11031e+01 -1.16413e+02 
-3.94423e+02 -5.65150e+01 -1.15332e+02 
-3.39548e+02 -5.08111e+01 -1.14186e+02 
-2.85704e+02 -4.42211e+01 -1.13081e+02 
-2.32707e+02 -3.69366e+01 -1.12089e+02 
-1.80386e+02 -2.91188e+01 -1.11254e+02 
-1.28579e+02 -2.09064e+01 -1.10604e+02 
-7.71344e+01 -1.24210e+01 -1.10157e+02 
-2.59066e+01 -3.77352e+00 -1.09922e+02 
 2.52480e+01  4.93326e+00 -1.09905e+02 
 7.64671e+01  1.35965e+01 -1.10106e+02 
 1.27894e+02  2.21139e+01 -1.10520e+02 
 1.79671e+02  3.03762e+01 -1.11138e+02 
 2.31948e+02  3.82643e+01 -1.11941e+02 
 2.84881e+02  4.56440e+01 -1.12902e+02 
 3.38636e+02  5.23609e+01 -1.13978e+02 
 3.93384e+02  5.82346e+01 -1.15102e+02 
 4.49307e+02  6.30532e+01 -1.16171e+02 
 5.06587e+02  6.65679e+01 -1.17035e+02 
 5.65395e+02  6.84913e+01 -1.17469e+02 
 6.25869e+02  6.85006e+01 -1.17142e+02 
 6.88059e+02  6.62546e+01 -1.15578e+02 
 7.51886e+02  6.14376e+01 -1.12116e+02 
 8.16823e+02  5.38302e+01 -1.05826e+02 
 8.82339e+02  4.35032e+01 -9.56393e+01 
 9.41637e+02  3.09381e+01 -7.99795e+01 
 9.90927e+02  1.76693e+01 -5.89453e+01 
 1.10672e+03  5.94423e+00 -2.72889e+01 
 1.26096e+03 -5.44651e-01 -8.61261e+00 
-1.22798e+03 -6.90095e+00 -2.32917e-01 
-1.07070e+03 -4.14105e-01 -1.98195e+01 
-9.62598e+02 -6.58524e+00 -4.29597e+01 
-9.21347e+02 -1.39184e+01 -6.32484e+01 
-8.69382e+02 -2.32982e+01 -8.07255e+01 
-8.09407e+02 -3.24864e+01 -9.41566e+01 
-7.48180e+02 -4.03768e+01 -1.03922e+02 
-6.86696e+02 -4.62858e+01 -1.10574e+02 
-6.25927e+02 -5.00254e+01 -1.14873e+02 
-5.66286e+02 -5.16814e+01 -1.17473e+02 
-5.07942e+02 -5.14733e+01 -1.18901e+02 
-4.50891e+02 -4.96575e+01 -1.19548e+02 
-3.95046e+02 -4.64899e+01 -1.19697e+02 
-3.40277e+02 -4.22047e+01 -1.19547e+02 
-2.86438e+02 -3.70103e+01 -1.19239e+02 
-2.33380e+02 -3.10893e+01 -1.18871e+02 
-1.80954e+02 -2.46021e+01 -1.18511e+02 
-1.29013e+02 -1.76913e+01 -1.18205e+02 
-7.74169e+01 -1.04851e+01 -1.17982e+02 
-2.60287e+01 -3.10274e+00 -1.17861e+02 
 2.52884e+01  4.34394e+00 -1.17852e+02 
 7.66655e+01  1.17428e+01 -1.17953e+02 
 1.28238e+02  1.89829e+01 -1.18158e+02 
 1.80142e+02  2.59471e+01 -1.18448e+02 
 2.32515e+02  3.25104e+01 -1.18794e+02 
 2.85497e+02  3.85357e+01 -1.19153e+02 
 3.39231e+02  4.38707e+01 -1.19460e+02 
 3.93860e+02  4.83451e+01 -1.19622e+02 
 4.49520e+02  5.17685e+01 -1.19512e+02 
 5.06336e+02  5.39309e+01 -1.18947e+02 
 5.64397e+02  5.46083e+01 -1.17679e+02 
 6.23734e+02  5.35750e+01 -1.15370e+02 
 6.84261e+02  5.06295e+01 -1.11572e+02 
 7.45743e+02  4.56452e+01 -1.05714e+02 
 8.07509e+02  3.86325e+01 -9.70762e+01 
 8.68950e+02  2.99053e+01 -8.49821e+01 
 9.23525e+02  2.00643e+01 -6.85027e+01 
 9.68301e+02  1.06503e+01 -4.86313e+01 
 1.07995e+03  2.51993e+00 -2.11794e+01 
 1.23618e+03  2.89646e-01 -7.93877e+00 
-1.20998e+03 -6.95177e+00  5.45425e-01 
-1.05031e+03  5.24771e-01 -1.78937e+01 
-9.42858e+02 -4.22525e+00 -3.74972e+01 
-9.03069e+02 -8.86179e+00 -5.59785e+01 
-8.53987e+02 -1.55101e+01 -7.26841e+01 
-7.97383e+02 -2.24437e+01 -8.66037e+01 
-7.39302e+02 -2.88765e+01 -9.76398e+01 
-6.80434e+02 -3.41182e+01 -1.05991e+02 
-6.21688e+02 -3.78454e+01 -1.12107e+02 
-5.63537e+02 -3.99641e+01 -1.16455e+02 
-5.06251e+02 -4.05340e+01 -1.19466e+02 
-4.49929e+02 -3.96948e+01 -1.21494e+02 
-3.94570e+02 -3.76200e+01 -1.22816e+02 
-3.40113e+02 -3.44901e+01 -1.23644e+02 
-2.86460e+02 -3.04794e+01 -1.24135e+02 
-2.33498e+02 -2.57507e+01 -1.24404e+02 
-1.81105e+02 -2.04537e+01 -1.24535e+02 
-1.29156e+02 -1.47263e+01 -1.24587e+02 
-7.75250e+01 -8.69632e+00 -1.24600e+02 
-2.60872e+01 -2.48479e+00 -1.24599e+02 
 2.52836e+01  3.79336e+00 -1.24597e+02 
 7.67086e+01  1.00225e+01 -1.24592e+02 
 1.28313e+02  1.60888e+01 -1.24576e+02 
 1.80221e+02  2.18735e+01 -1.24523e+02 
 2.32554e+02  2.72526e+01 -1.24397e+02 
 2.85435e+02  3.20938e+01 -1.24141e+02 
 3.38982e+02  3.62554e+01 -1.23678e+02 
 3.93306e+02  3.95859e+01 -1.22900e+02 
 4.48503e+02  4.19249e+01 -1.21665e+02 
 5.04640e+02  4.31078e+01 -1.19783e+02 
 5.61742e+02  4.29750e+01 -1.17008e+02 
 6.19759e+02  4.13890e+01 -1.13028e+02 
 6.78519e+02  3.82605e+01 -1.07454e+02 
 7.37709e+02  3.35949e+01 -9.98431e+01 
 7.96626e+02  2.75356e+01 -8.96839e+01 
 8.54736e+02  2.04939e+01 -7.66265e+01 
 9.05894e+02  1.30292e+01 -6.01783e+01 
 9.47968e+02  6.51863e+00 -4.18172e+01 
 1.05744e+03  7.31374e-01 -1.75563e+01 
 1.21566e+03  1.25987e+00 -8.07941e+00 
-1.19340e+03 -7.02803e+00  9.89001e-01 
-1.03228e+03  1.13520e+00 -1.67815e+01 
-9.25230e+02 -2.78712e+00 -3.39830e+01 
-8.86155e+02 -5.63116e+00 -5.10029e+01 
-8.38950e+02 -1.03171e+01 -6.68429e+01 
-7.84801e+02 -1.54249e+01 -8.07515e+01 
-7.29241e+02 -2.04672e+01 -9.24259e+01 
-6.72674e+02 -2.48524e+01 -1.01867e+02 
-6.15871e+02 -2.82376e+01 -1.09296e+02 
-5.59271e+02 -3.04411e+01 -1.15015e+02 
-5.03182e+02 -3.14212e+01 -1.19344e+02 
-4.47760e+02 -3.12256e+01 -1.22577e+02 
-3.93065e+02 -2.99542e+01 -1.24962e+02 
-3.39090e+02 -2.77330e+01 -1.26702e+02 
-2.85782e+02 -2.46978e+01 -1.27955e+02 
-2.33063e+02 -2.09850e+01 -1.28842e+02 
-1.80839e+02 -1.67273e+01 -1.29457e+02 
-1.29007e+02 -1.20517e+01 -1.29866e+02 
-7.74595e+01 -7.07948e+00 -1.30115e+02 
-2.60857e+01 -1.92817e+00 -1.30234e+02 
 2.52272e+01  3.28949e+00 -1.30238e+02 
 7.65877e+01  8.45949e+00 -1.30127e+02 
 1.28108e+02  1.34701e+01 -1.29889e+02 
 1.79898e+02  1.82063e+01 -1.29496e+02 
 2.32063e+02  2.25502e+01 -1.28905e+02 
 2.84705e+02  2.63799e+01 -1.28054e+02 
 3.37919e+02  2.95694e+01 -1.26857e+02 
 3.91783e+02  3.19901e+01 -1.25202e+02 
 4.46358e+02  3.35143e+01 -1.22946e+02 
 5.01667e+02  3.40215e+01 -1.19905e+02 
 5.57683e+02  3.34092e+01 -1.15854e+02 
 6.14307e+02  3.16101e+01 -1.10524e+02 
 6.71321e+02  2.86147e+01 -1.03604e+02 
 7.28392e+02  2.45088e+01 -9.47717e+01 
 7.84858e+02  1.94956e+01 -8.36978e+01 
 8.40327e+02  1.39951e+01 -7.02700e+01 
 8.89075e+02  8.45561e+00 -5.42546e+01 
 9.29586e+02  4.05415e+00 -3.73387e+01 
 1.03785e+03 -2.15562e-01 -1.53893e+01 
 1.19745e+03  2.07843e+00 -8.42440e+00 
-1.17759e+03 -7.09851e+00  1.23639e+00 
-1.01580e+03  1.54538e+00 -1.61507e+01 
-9.09123e+02 -1.88097e+00 -3.17279e+01 
-8.70371e+02 -3.52287e+00 -4.76154e+01 
-8.24410e+02 -6.80542e+00 -6.26540e+01 
-7.72078e+02 -1.04977e+01 -7.63295e+01 
-7.18527e+02 -1.43459e+01 -8.82659e+01 
-6.63925e+02 -1.78723e+01 -9.83640e+01 
-6.08893e+02 -2.07712e+01 -1.06700e+02 
-5.53807e+02 -2.28365e+01 -1.13448e+02 
-4.98963e+02 -2.39731e+01 -1.18830e+02 
-4.44540e+02 -2.41668e+01 -1.23071e+02 
-3.90634e+02 -2.34603e+01 -1.26378e+02 
-3.37274e+02 -2.19322e+01 -1.28932e+02 
-2.84444e+02 -1.96807e+01 -1.30881e+02 
-2.32098e+02 -1.68144e+01 -1.32345e+02 
-1.80168e+02 -1.34453e+01 -1.33417e+02 
-1.28573e+02 -9.68553e+00 -1.34166e+02 
-7.72228e+01 -5.64596e+00 -1.34641e+02 
-2.60245e+01 -1.43610e+00 -1.34876e+02 
 2.51203e+01  2.83758e+00 -1.34886e+02 
 7.63058e+01  7.06678e+00 -1.34673e+02 
 1.27630e+02  1.11460e+01 -1.34222e+02 
 1.79187e+02  1.49676e+01 -1.33505e+02 
 2.31065e+02  1.84237e+01 -1.32476e+02 
 2.83346e+02  2.14059e+01 -1.31070e+02 
 3.36102e+02  2.38063e+01 -1.29201e+02 
 3.89385e+02  2.55204e+01 -1.26761e+02 
 4.43223e+02  2.64513e+01 -1.23611e+02 
 4.97609e+02  2.65171e+01 -1.19587e+02 
 5.52482e+02  2.56610e+01 -1.14494e+02 
 6.07715e+02  2.38667e+01 -1.08113e+02 
 6.63077e+02  2.11752e+01 -1.00209e+02 
 7.18253e+02  1.77124e+01 -9.05678e+01 
 7.72661e+02  1.36941e+01 -7.89970e+01 
 8.26067e+02  9.50245e+00 -6.55423e+01 
 8.73122e+02  5.45870e+00 -5.01015e+01 
 9.12751e+02  2.55932e+00 -3.44143e+01 
 1.02022e+03 -7.24469e-01 -1.40923e+01 
 1.18053e+03  2.69510e+00 -8.78334e+00 
-1.16217e+03 -7.15638e+00  1.35913e+00 
-1.00033e+03  1.82663e+00 -1.58147e+01 
-8.94096e+02 -1.29286e+00 -3.03016e+01 
-8.55492e+02 -2.12013e+00 -4.53373e+01 
-8.10396e+02 -4.40432e+00 -5.96967e+01 
-7.59440e+02 -7.02624e+00 -7.30593e+01 
-7.07493e+02 -9.90080e+00 -8.50425e+01 
-6.54548e+02 -1.26535e+01 -9.55075e+01 
-6.01094e+02 -1.50357e+01 -1.04444e+02 
-5.47431e+02 -1.68508e+01 -1.11939e+02 
-4.93821e+02 -1.79836e+01 -1.18132e+02 
-4.40440e+02 -1.83848e+01 -1.23186e+02 
-3.87399e+02 -1.80575e+01 -1.27266e+02 
-3.34752e+02 -1.70428e+01 -1.30522e+02 
-2.82507e+02 -1.54069e+01 -1.33086e+02 
-2.30644e+02 -1.32314e+01 -1.35068e+02 
-1.79117e+02 -1.06073e+01 -1.36555e+02 
-1.27866e+02 -7.63026e+00 -1.37618e+02 
-7.68207e+01 -4.39770e+00 -1.38304e+02 
-2.59030e+01 -1.00852e+00 -1.38647e+02 
 2.49696e+01  2.44013e+00 -1.38664e+02 
 7.58763e+01  5.84860e+00 -1.38355e+02 
 1.26900e+02  9.12041e+00 -1.37708e+02 
 1.78119e+02  1.21581e+01 -1.36692e+02 
 2.29605e+02  1.48660e+01 -1.35263e+02 
 2.81422e+02  1.71504e+01 -1.33357e+02 
 3.33619e+02  1.89220e+01 -1.30894e+02 
 3.86228e+02  2.00988e+01 -1.27770e+02 
 4.39254e+02  2.06111e+01 -1.23864e+02 
 4.92666e+02  2.04082e+01 -1.19031e+02 
 5.46386e+02  1.94671e+01 -1.13112e+02 
 6.00277e+02  1.78050e+01 -1.05938e+02 
 6.54116e+02  1.54904e+01 -9.73404e+01 
 7.07630e+02  1.26619e+01 -8.71909e+01 
 7.60323e+02  9.52037e+00 -7.53945e+01 
 8.12114e+02  6.39175e+00 -6.20915e+01 
 8.57963e+02  3.48005e+00 -4.72298e+01 
 8.97091e+02  1.63784e+00 -3.25239e+01 
 1.00388e+03 -1.00110e+00 -1.33271e+01 
 1.16430e+03  3.13799e+00 -9.09719e+00 
-1.14690e+03 -7.19618e+00  1.40129e+00 
-9.85485e+02  2.02074e+00 -1.56615e+01 
-8.79827e+02 -9.06405e-01 -2.94261e+01 
-8.41310e+02 -1.17830e+00 -4.38331e+01 
-7.96856e+02 -2.75289e+00 -5.76421e+01 
-7.46980e+02 -4.57567e+00 -7.06848e+01 
-6.96337e+02 -6.68032e+00 -8.26020e+01 
-6.44795e+02 -8.77629e+00 -9.32481e+01 
-5.92735e+02 -1.06724e+01 -1.02566e+02 
-5.40383e+02 -1.21970e+01 -1.10585e+02 
-4.87960e+02 -1.32353e+01 -1.17384e+02 
-4.35626e+02 -1.37218e+01 -1.23076e+02 
-3.83492e+02 -1.36358e+01 -1.27782e+02 
-3.31622e+02 -1.29913e+01 -1.31625e+02 
-2.80043e+02 -1.18288e+01 -1.34715e+02 
-2.28751e+02 -1.02069e+01 -1.37147e+02 
-1.77722e+02 -8.19659e+00 -1.39003e+02 
-1.26912e+02 -5.87668e+00 -1.40345e+02 
-7.62665e+01 -3.33045e+00 -1.41221e+02 
-2.57256e+01 -6.44438e-01 -1.41662e+02 
 2.47788e+01  2.09531e+00 -1.41685e+02 
 7.53114e+01  4.79973e+00 -1.41291e+02 
 1.25940e+02  7.38313e+00 -1.40466e+02 
 1.76728e+02  9.75961e+00 -1.39184e+02 
 2.27731e+02  1.18465e+01 -1.37401e+02 
 2.78997e+02  1.35653e+01 -1.35059e+02 
 3.30557e+02  1.48440e+01 -1.32083e+02 
 3.82427e+02  1.56206e+01 -1.28382e+02 
 4.34594e+02  1.58476e+01 -1.23851e+02 
 4.87015e+02  1.54980e+01 -1.18371e+02 
 5.39602e+02  1.45721e+01 -1.11815e+02 
 5.92223e+02  1.31066e+01 -1.04059e+02 
 6.44678e+02  1.11811e+01 -9.49905e+01 
 6.96741e+02  8.92995e+00 -8.45441e+01 
 7.48004e+02  6.52604e+00 -7.26891e+01 
 7.98511e+02  4.23621e+00 -5.96151e+01 
 8.43471e+02  2.16757e+00 -4.52739e+01 
 8.82291e+02  1.06480e+00 -3.13225e+01 
 9.88397e+02 -1.14742e+00 -1.28930e+01 
 1.14843e+03  3.44442e+00 -9.35549e+00 
-1.13165e+03 -7.22064e+00  1.39001e+00 
-9.71044e+02  2.15702e+00 -1.56216e+01 
-8.66087e+02 -6.49186e-01 -2.89188e+01 
-8.27659e+02 -5.41576e-01 -4.28688e+01 
-7.83725e+02 -1.61288e+00 -5.62452e+01 
-7.34733e+02 -2.84481e+00 -6.89954e+01 
-6.85178e+02 -4.35322e+00 -8.07942e+01 
-6.34839e+02 -5.91203e+00 -9.15063e+01 
-5.84011e+02 -7.38085e+00 -1.01053e+02 
-5.32859e+02 -8.61738e+00 -1.09428e+02 
-4.81562e+02 -9.51783e+00 -1.16668e+02 
-4.30254e+02 -1.00134e+01 -1.22845e+02 
-3.79041e+02 -1.00706e+01 -1.28048e+02 
-3.27988e+02 -9.68610e+00 -1.32367e+02 
-2.77132e+02 -8.88119e+00 -1.35894e+02 
-2.26482e+02 -7.69566e+00 -1.38708e+02 
-1.76027e+02 -6.18299e+00 -1.40880e+02 
-1.25739e+02 -4.40615e+00 -1.42465e+02 
-7.55781e+01 -2.43432e+00 -1.43507e+02 
-2.54990e+01 -3.41203e-01 -1.44034e+02 
 2.45522e+01  1.79906e+00 -1.44063e+02 
 7.46261e+01  3.90889e+00 -1.43593e+02 
 1.24777e+02  5.91418e+00 -1.42614e+02 
 1.75054e+02  7.74112e+00 -1.41100e+02 
 2.25499e+02  9.32009e+00 -1.39012e+02 
 2.76144e+02  1.05867e+01 -1.36297e+02 
 3.27009e+02  1.14848e+01 -1.32891e+02 
 3.78095e+02  1.19689e+01 -1.28715e+02 
 4.29380e+02  1.20092e+01 -1.23681e+02 
 4.80812e+02  1.15954e+01 -1.17694e+02 
 5.32306e+02  1.07424e+01 -1.10660e+02 
 5.83740e+02  9.49632e+00 -1.02489e+02 
 6.34943e+02  7.93713e+00 -9.31144e+01 
 6.85736e+02  6.18553e+00 -8.25140e+01 
 7.35791e+02  4.38253e+00 -7.06960e+01 
 7.85249e+02  2.74103e+00 -5.78702e+01 
 8.29516e+02  1.29292e+00 -4.39683e+01 
 8.68114e+02  7.05032e-01 -3.05817e+01 
 9.73459e+02 -1.21965e+00 -1.26676e+01 
 1.13272e+03  3.65150e+00 -9.55974e+00 
-1.11632e+03 -7.22858e+00  1.33997e+00 
-9.56833e+02  2.25165e+00 -1.56533e+01 
-8.52706e+02 -4.76733e-01 -2.86603e+01 
-8.14398e+02 -1.09753e-01 -4.22829e+01 
-7.70922e+02 -8.25087e-01 -5.53269e+01 
-7.22691e+02 -1.62369e+00 -6.78246e+01 
-6.74072e+02 -2.67739e+00 -7.94877e+01 
-6.24782e+02 -3.80810e+00 -9.01978e+01 
-5.75055e+02 -4.91719e+00 -9.98703e+01 
-5.25002e+02 -5.89076e+00 -1.08477e+02 
-4.74763e+02 -6.64042e+00 -1.16029e+02 
-4.24451e+02 -7.10124e+00 -1.22567e+02 
-3.74156e+02 -7.23508e+00 -1.28151e+02 
-3.23942e+02 -7.02840e+00 -1.32848e+02 
-2.73848e+02 -6.48907e+00 -1.36729e+02 
-2.23892e+02 -5.64239e+00 -1.39858e+02 
-1.74072e+02 -4.52720e+00 -1.42294e+02 
-1.24374e+02 -3.19245e+00 -1.44085e+02 
-7.47695e+01 -1.69404e+00 -1.45268e+02 
-2.52257e+01 -9.32462e-02 -1.45869e+02 
 2.42983e+01  1.54773e+00 -1.45902e+02 
 7.38404e+01  3.16291e+00 -1.45368e+02 
 1.23443e+02  4.68978e+00 -1.44257e+02 
 1.73140e+02  6.06640e+00 -1.42546e+02 
 2.22965e+02  7.23549e+00 -1.40201e+02 
 2.72936e+02  8.14563e+00 -1.37176e+02 
 3.23064e+02  8.75389e+00 -1.33417e+02 
 3.73338e+02  9.02865e+00 -1.28858e+02 
 4.23732e+02  8.95285e+00 -1.23428e+02 
 4.74192e+02  8.52770e+00 -1.17056e+02 
 5.24640e+02  7.77620e+00 -1.09670e+02 
 5.74969e+02  6.74664e+00 -1.01214e+02 
 6.25036e+02  5.51310e+00 -9.16517e+01 
 6.74709e+02  4.17888e+00 -8.09904e+01 
 7.23723e+02  2.85392e+00 -6.92590e+01 
 7.72292e+02  1.70554e+00 -5.66696e+01 
 8.15982e+02  7.09911e-01 -4.31241e+01 
 8.54377e+02  4.78283e-01 -3.01516e+01 
 9.58868e+02 -1.24948e+00 -1.25768e+01 
 1.11702e+03  3.78228e+00 -9.71967e+00 
-1.10087e+03 -7.22366e+00  1.26589e+00 
-9.42750e+02  2.31567e+00 -1.57261e+01 
-8.39567e+02 -3.64057e-01 -2.85662e+01 
-8.01427e+02  1.78282e-01 -4.19582e+01 
-7.58386e+02 -2.86824e-01 -5.47510e+01 
-7.10839e+02 -7.70232e-01 -6.70388e+01 
-6.63051e+02 -1.48151e+00 -7.85673e+01 
-6.14699e+02 -2.27754e+00 -8.92378e+01 
-5.65967e+02 -3.09273e+00 -9.89673e+01 
-5.16926e+02 -3.83815e+00 -1.07718e+02 
-4.67684e+02 -4.44163e+00 -1.15482e+02 
-4.18331e+02 -4.84576e+00 -1.22281e+02 
-3.68941e+02 -5.01272e+00 -1.28151e+02 
-3.19573e+02 -4.92390e+00 -1.33140e+02 
-2.70267e+02 -4.57851e+00 -1.37301e+02 
-2.21042e+02 -3.99112e+00 -1.40683e+02 
-1.71906e+02 -3.18887e+00 -1.43334e+02 
-1.22852e+02 -2.20873e+00 -1.45294e+02 
-7.38629e+01 -1.09476e+00 -1.46595e+02 
-2.49162e+01  1.03343e-01 -1.47258e+02 
 2.40180e+01  1.33468e+00 -1.47295e+02 
 7.29664e+01  2.54439e+00 -1.46707e+02 
 1.21960e+02  3.68105e+00 -1.45485e+02 
 1.71024e+02  4.69382e+00 -1.43610e+02 
 2.20179e+02  5.53668e+00 -1.41053e+02 
 2.69435e+02  6.16952e+00 -1.37776e+02 
 3.18795e+02  6.56057e+00 -1.33734e+02 
 3.68242e+02  6.68881e+00 -1.28873e+02 
 4.17748e+02  6.54653e+00 -1.23140e+02 
 4.67261e+02  6.14197e+00 -1.16480e+02 
 5.16712e+02  5.50150e+00 -1.08845e+02 
 5.66009e+02  4.67140e+00 -1.00201e+02 
 6.15039e+02  3.71658e+00 -9.05338e+01 
 6.63708e+02  2.72222e+00 -7.98695e+01 
 7.11804e+02  1.77070e+00 -6.82456e+01 
 7.59593e+02  9.92598e-01 -5.58665e+01 
 8.02767e+02  3.24274e-01 -4.26024e+01 
 8.40945e+02  3.37285e-01 -2.99277e+01 
 9.44477e+02 -1.25232e+00 -1.25711e+01 
 1.10127e+03  3.85824e+00 -9.84032e+00 
-1.08527e+03 -7.20560e+00  1.17287e+00 
-9.28713e+02  2.35741e+00 -1.58231e+01 
-8.26581e+02 -2.90980e-01 -2.85825e+01 
-7.88660e+02  3.67760e-01 -4.18156e+01 
-7.46053e+02  7.66781e-02 -5.44221e+01 
-6.99148e+02 -1.79897e-01 -6.65395e+01 
-6.52121e+02 -6.36553e-01 -7.79442e+01 
-6.04624e+02 -1.17533e+00 -8.85564e+01 
-5.56806e+02 -1.75601e+00 -9.82991e+01 
-5.08707e+02 -2.31053e+00 -1.07131e+02 
-4.60407e+02 -2.78186e+00 -1.15035e+02 
-4.11975e+02 -3.12144e+00 -1.22016e+02 
-3.63473e+02 -3.29458e+00 -1.28095e+02 
-3.14952e+02 -3.28104e+00 -1.33303e+02 
-2.66447e+02 -3.07487e+00 -1.37679e+02 
-2.17980e+02 -2.68310e+00 -1.41260e+02 
-1.69564e+02 -2.12379e+00 -1.44082e+02 
-1.21197e+02 -1.42405e+00 -1.46179e+02 
-7.28717e+01 -6.17725e-01 -1.47574e+02 
-2.45728e+01  2.55840e-01 -1.48286e+02 
 2.37198e+01  1.15603e+00 -1.48326e+02 
 7.20236e+01  2.03824e+00 -1.47693e+02 
 1.20360e+02  2.86119e+00 -1.46381e+02 
 1.68745e+02  3.58411e+00 -1.44373e+02 
 2.17192e+02  4.17089e+00 -1.41646e+02 
 2.65704e+02  4.59106e+00 -1.38169e+02 
 3.14275e+02  4.82190e+00 -1.33904e+02 
 3.62890e+02  4.85041e+00 -1.28811e+02 
 4.11516e+02  4.67527e+00 -1.22850e+02 
 4.60110e+02  4.30856e+00 -1.15982e+02 
 5.08608e+02  3.77695e+00 -1.08176e+02 
 5.56939e+02  3.12226e+00 -9.94153e+01 
 6.05012e+02  2.39908e+00 -8.97000e+01 
 6.52766e+02  1.67566e+00 -7.90669e+01 
 7.00030e+02  1.01120e+00 -6.75543e+01 
 7.47106e+02  5.07585e-01 -5.53546e+01 
 7.89791e+02  7.37802e-02 -4.23078e+01 
 8.27720e+02  2.52253e-01 -2.98426e+01 
 9.30200e+02 -1.23870e+00 -1.26206e+01 
 1.08543e+03  3.89362e+00 -9.93063e+00 
-1.06951e+03 -7.17766e+00  1.06987e+00 
-9.14681e+02  2.38207e+00 -1.59296e+01 
-8.13690e+02 -2.46742e-01 -2.86674e+01 
-7.76041e+02  4.86481e-01 -4.17941e+01 
-7.33880e+02  3.14324e-01 -5.42650e+01 
-6.87596e+02  2.18696e-01 -6.62468e+01 
-6.41286e+02 -5.11948e-02 -7.75424e+01 
-5.94586e+02 -3.95276e-01 -8.80891e+01 
-5.47621e+02 -7.92477e-01 -9.78182e+01 
-5.00407e+02 -1.19156e+00 -1.06688e+02 
-4.53002e+02 -1.54874e+00 -1.14677e+02 
-4.05459e+02 -1.82430e+00 -1.21780e+02 
-3.57826e+02 -1.98797e+00 -1.28007e+02 
-3.10144e+02 -2.02006e+00 -1.33376e+02 
-2.62447e+02 -1.91193e+00 -1.37913e+02 
-2.14757e+02 -1.66551e+00 -1.41645e+02 
-1.67087e+02 -1.29207e+00 -1.44600e+02 
-1.19441e+02 -8.10842e-01 -1.46803e+02 
-7.18165e+01 -2.47057e-01 -1.48273e+02 
-2.42059e+01  3.68855e-01 -1.49024e+02 
 2.34034e+01  1.00536e+00 -1.49065e+02 
 7.10214e+01  1.62698e+00 -1.48396e+02 
 1.18662e+02  2.20145e+00 -1.47012e+02 
 1.66334e+02  2.69685e+00 -1.44898e+02 
 2.14043e+02  3.08558e+00 -1.42037e+02 
 2.61788e+02  3.34515e+00 -1.38403e+02 
 3.09560e+02  3.46002e+00 -1.33968e+02 
 3.57341e+02  3.42311e+00 -1.28702e+02 
 4.05102e+02  3.23719e+00 -1.22575e+02 
 4.52801e+02  2.91598e+00 -1.15562e+02 
 5.00389e+02  2.48454e+00 -1.07644e+02 
 5.47807e+02  1.97909e+00 -9.88171e+01 
 5.94987e+02  1.44409e+00 -8.90913e+01 
 6.41893e+02  9.32873e-01 -7.85075e+01 
 6.88385e+02  4.85899e-01 -6.71009e+01 
 7.34787e+02  1.83178e-01 -5.50497e+01 
 7.76989e+02 -8.44364e-02 -4.21680e+01 
 8.14630e+02  2.03557e-01 -2.98462e+01 
 9.15967e+02 -1.21416e+00 -1.27025e+01 
 1.06946e+03  3.89781e+00 -9.99243e+00 
-1.05357e+03 -7.13938e+00  9.57964e-01 
-9.00615e+02  2.39410e+00 -1.60390e+01 
-8.00847e+02 -2.20954e-01 -2.87961e+01 
-7.63518e+02  5.57127e-01 -4.18548e+01 
-7.21823e+02  4.64152e-01 -5.42292e+01 
-6.76153e+02  4.80484e-01 -6.61048e+01 
-6.30533e+02  3.45311e-01 -7.73071e+01 
-5.84592e+02  1.46123e-01 -8.77881e+01 
-5.38435e+02 -1.10191e-01 -9.74877e+01 
-4.92062e+02 -3.85638e-01 -1.06368e+02 
-4.45515e+02 -6.47547e-01 -1.14403e+02 
-3.98830e+02 -8.64288e-01 -1.21583e+02 
-3.52047e+02 -1.01044e+00 -1.27909e+02 
-3.05197e+02 -1.06802e+00 -1.33391e+02 
-2.58311e+02 -1.02739e+00 -1.38044e+02 
-2.11408e+02 -8.87221e-01 -1.41889e+02 
-1.64503e+02 -6.53838e-01 -1.44943e+02 
-1.17602e+02 -3.40277e-01 -1.47227e+02 
-7.07075e+01  3.52164e-02 -1.48753e+02 
-2.38171e+01  4.49741e-01 -1.49534e+02 
 2.30761e+01  8.79551e-01 -1.49576e+02 
 6.99759e+01  1.29705e+00 -1.48879e+02 
 1.16890e+02  1.67777e+00 -1.47437e+02 
 1.63822e+02  1.99736e+00 -1.45242e+02 
 2.10772e+02  2.23536e+00 -1.42277e+02 
 2.57736e+02  2.37577e+00 -1.38524e+02 
 3.04703e+02  2.40859e+00 -1.33963e+02 
 3.51653e+02  2.33094e+00 -1.28570e+02 
 3.98561e+02  2.14804e+00 -1.22327e+02 
 4.45392e+02  1.87378e+00 -1.15216e+02 
 4.92104e+02  1.53057e+00 -1.07231e+02 
 5.38654e+02  1.14878e+00 -9.83743e+01 
 5.84989e+02  7.63589e-01 -8.86618e+01 
 6.31094e+02  4.15765e-01 -7.81353e+01 
 6.76853e+02  1.31062e-01 -6.68244e+01 
 7.22603e+02 -2.69050e-02 -5.48936e+01 
 7.64313e+02 -1.78579e-01 -4.21352e+01 
 8.01624e+02  1.79023e-01 -2.99078e+01 
 9.01743e+02 -1.18321e+00 -1.28045e+01 
 1.05336e+03  3.87900e+00 -1.00328e+01 
-1.03748e+03 -7.09382e+00  8.43256e-01 
-8.86503e+02  2.39605e+00 -1.61440e+01 
-7.88026e+02 -2.09306e-01 -2.89472e+01 
-7.51063e+02  5.92438e-01 -4.19651e+01 
-7.09858e+02  5.49988e-01 -5.42730e+01 
-6.64804e+02  6.42025e-01 -6.60666e+01 
-6.19859e+02  6.02009e-01 -7.71905e+01 
-5.74650e+02  5.08681e-01 -8.76094e+01 
-5.29270e+02  3.58581e-01 -9.72714e+01 
-4.83705e+02  1.79480e-01 -1.06142e+02 
-4.37985e+02 -4.99324e-03 -1.14196e+02 
-3.92135e+02 -1.70257e-01 -1.21420e+02 
-3.46183e+02 -2.95594e-01 -1.27809e+02 
-3.00157e+02 -3.65288e-01 -1.33366e+02 
-2.54080e+02 -3.69733e-01 -1.38102e+02 
-2.07970e+02 -3.05675e-01 -1.42026e+02 
-1.61842e+02 -1.75946e-01 -1.45153e+02 
-1.15705e+02  1.11391e-02 -1.47495e+02 
-6.95618e+01  2.42930e-01 -1.49064e+02 
-2.34157e+01  5.02710e-01 -1.49866e+02 
 2.27363e+01  7.73238e-01 -1.49907e+02 
 6.88931e+01  1.03358e+00 -1.49187e+02 
 1.15058e+02  1.26585e+00 -1.47702e+02 
 1.61230e+02  1.45200e+00 -1.45444e+02 
 2.07406e+02  1.57744e+00 -1.42402e+02 
 2.53580e+02  1.63132e+00 -1.38562e+02 
 2.99738e+02  1.60782e+00 -1.33909e+02 
 3.45864e+02  1.50698e+00 -1.28428e+02 
 3.91933e+02  1.33526e+00 -1.22107e+02 
 4.37917e+02  1.10579e+00 -1.14936e+02 
 4.83783e+02  8.37925e-01 -1.06915e+02 
 5.29499e+02  5.56444e-01 -9.80532e+01 
 5.75026e+02  2.88453e-01 -8.83683e+01 
 6.20364e+02  6.44363e-02 -7.79007e+01 
 6.65414e+02 -1.01105e-01 -6.66738e+01 
 7.10520e+02 -1.56654e-01 -5.48389e+01 
 7.51724e+02 -2.29056e-01 -4.21712e+01 
 7.88664e+02  1.70007e-01 -3.00022e+01 
 8.87494e+02 -1.14776e+00 -1.29152e+01 
 1.03712e+03  3.84201e+00 -1.00520e+01 
-1.02123e+03 -7.04085e+00  7.25052e-01 
-8.72326e+02  2.39055e+00 -1.62429e+01 
-7.75203e+02 -2.05866e-01 -2.91098e+01 
-7.38646e+02  6.04789e-01 -4.21065e+01 
-6.97954e+02  5.92415e-01 -5.43704e+01 
-6.53524e+02  7.33478e-01 -6.61016e+01 
-6.09248e+02  7.58751e-01 -7.71610e+01 
-5.64756e+02  7.40974e-01 -8.75232e+01 
-5.20131e+02  6.69286e-01 -9.71444e+01 
-4.75350e+02  5.63698e-01 -1.05994e+02 
-4.30434e+02  4.40654e-01 -1.14048e+02 
-3.85397e+02  3.18814e-01 -1.21291e+02 
-3.40263e+02  2.14634e-01 -1.27716e+02 
-2.95050e+02  1.41398e-01 -1.33321e+02 
-2.49779e+02  1.08076e-01 -1.38110e+02 
-2.04466e+02  1.18921e-01 -1.42088e+02 
-1.59123e+02  1.73499e-01 -1.45265e+02 
-1.13761e+02  2.67014e-01 -1.47649e+02 
-6.83859e+01  3.91191e-01 -1.49247e+02 
-2.30019e+01  5.34285e-01 -1.50064e+02 
 2.23900e+01  6.84372e-01 -1.50104e+02 
 6.77855e+01  8.26016e-01 -1.49367e+02 
 1.13184e+02  9.46734e-01 -1.47849e+02 
 1.58582e+02  1.03365e+00 -1.45545e+02 
 2.03974e+02  1.07687e+00 -1.42447e+02 
 2.49352e+02  1.06957e+00 -1.38545e+02 
 2.94702e+02  1.00902e+00 -1.33828e+02 
 3.40009e+02  8.97135e-01 -1.28288e+02 
 3.85253e+02  7.40833e-01 -1.21918e+02 
 4.30409e+02  5.51997e-01 -1.14715e+02 
 4.75453e+02  3.46864e-01 -1.06681e+02 
 5.20361e+02  1.45162e-01 -9.78301e+01 
 5.65107e+02 -3.27845e-02 -8.81803e+01 
 6.09701e+02 -1.64678e-01 -7.77695e+01 
 6.54054e+02 -2.44431e-01 -6.66144e+01 
 6.98516e+02 -2.29339e-01 -5.48550e+01 
 7.39195e+02 -2.49132e-01 -4.22525e+01 
 7.75727e+02  1.71367e-01 -3.01159e+01 
 8.73210e+02 -1.11006e+00 -1.30299e+01 
 1.02075e+03  3.79170e+00 -1.00558e+01 
-1.00483e+03 -6.98056e+00  6.07130e-01 
-8.58088e+02  2.37980e+00 -1.63320e+01 
-7.62367e+02 -2.07950e-01 -2.92729e+01 
-7.26253e+02  6.01103e-01 -4.22615e+01 
-6.86098e+02  6.04242e-01 -5.44983e+01 
-6.42302e+02  7.74808e-01 -6.61827e+01 
-5.98696e+02  8.42990e-01 -7.71894e+01 
-5.54912e+02  8.77485e-01 -8.75013e+01 
-5.11027e+02  8.62244e-01 -9.70814e+01 
-4.67013e+02  8.11491e-01 -1.05903e+02 
-4.22882e+02  7.36071e-01 -1.13945e+02 
-3.78644e+02  6.49798e-01 -1.21191e+02 
-3.34313e+02  5.65431e-01 -1.27632e+02 
-2.89906e+02  4.93904e-01 -1.33262e+02 
-2.45437e+02  4.43237e-01 -1.38083e+02 
-2.00920e+02  4.18070e-01 -1.42095e+02 
-1.56368e+02  4.19540e-01 -1.45305e+02 
-1.11789e+02  4.45419e-01 -1.47716e+02 
-6.71924e+01  4.90775e-01 -1.49333e+02 
-2.25832e+01  5.47783e-01 -1.50159e+02 
 2.20353e+01  6.08765e-01 -1.50198e+02 
 6.66563e+01  6.62724e-01 -1.49447e+02 
 1.11277e+02  7.01530e-01 -1.47906e+02 
 1.55892e+02  7.16445e-01 -1.45569e+02 
 2.00493e+02  7.01271e-01 -1.42432e+02 
 2.45072e+02  6.52236e-01 -1.38488e+02 
 2.89617e+02  5.68821e-01 -1.33730e+02 
 3.34112e+02  4.54104e-01 -1.28154e+02 
 3.78542e+02  3.14922e-01 -1.21757e+02 
 4.22886e+02  1.61682e-01 -1.14540e+02 
 4.67127e+02  7.68128e-03 -1.06510e+02 
 5.11247e+02 -1.31720e-01 -9.76801e+01 
 5.55230e+02 -2.41744e-01 -8.80688e+01 
 5.99093e+02 -3.06483e-01 -7.77107e+01 
 6.42757e+02 -3.25989e-01 -6.66162e+01 
 6.86568e+02 -2.63918e-01 -5.49154e+01 
 7.26703e+02 -2.50341e-01 -4.23590e+01 
 7.62793e+02  1.77991e-01 -3.02361e+01 
 8.58875e+02 -1.07078e+00 -1.31427e+01 
 1.00425e+03  3.73031e+00 -1.00436e+01 
-9.88305e+02 -6.91637e+00  4.88443e-01 
-8.43782e+02  2.36446e+00 -1.64120e+01 
-7.49509e+02 -2.13039e-01 -2.94324e+01 
-7.13869e+02  5.87511e-01 -4.24219e+01 
-6.74272e+02  5.96098e-01 -5.46440e+01 
-6.31124e+02  7.82112e-01 -6.62939e+01 
-5.88192e+02  8.76666e-01 -7.72581e+01 
-5.45112e+02  9.45789e-01 -8.75260e+01 
-5.01958e+02  9.69919e-01 -9.70668e+01 
-4.58699e+02  9.59037e-01 -1.05858e+02 
-4.15341e+02  9.19699e-01 -1.13880e+02 
-3.71888e+02  8.61849e-01 -1.21117e+02 
-3.28351e+02  7.95133e-01 -1.27559e+02 
-2.84740e+02  7.28348e-01 -1.33199e+02 
-2.41068e+02  6.68447e-01 -1.38036e+02 
-1.97347e+02  6.20063e-01 -1.42067e+02 
-1.53587e+02  5.85303e-01 -1.45295e+02 
-1.09797e+02  5.63760e-01 -1.47722e+02 
-6.59856e+01  5.53005e-01 -1.49351e+02 
-2.21596e+01  5.48229e-01 -1.50182e+02 
 2.16765e+01  5.45077e-01 -1.50218e+02 
 6.55142e+01  5.36057e-01 -1.49458e+02 
 1.09349e+02  5.16469e-01 -1.47900e+02 
 1.53174e+02  4.80813e-01 -1.45541e+02 
 1.96982e+02  4.25726e-01 -1.42379e+02 
 2.40762e+02  3.49706e-01 -1.38408e+02 
 2.84504e+02  2.53761e-01 -1.33626e+02 
 3.28195e+02  1.41600e-01 -1.28031e+02 
 3.71820e+02  1.96567e-02 -1.21624e+02 
 4.15366e+02 -1.03180e-01 -1.14408e+02 
 4.58817e+02 -2.16250e-01 -1.06391e+02 
 5.02165e+02 -3.07865e-01 -9.75875e+01 
 5.45398e+02 -3.67682e-01 -8.80150e+01 
 5.88538e+02 -3.84683e-01 -7.77043e+01 
 6.31513e+02 -3.63289e-01 -6.66602e+01 
 6.74666e+02 -2.71723e-01 -5.50043e+01 
 7.14237e+02 -2.38835e-01 -4.24795e+01 
 7.49853e+02  1.87210e-01 -3.03574e+01 
 8.44492e+02 -1.03228e+00 -1.32526e+01 
 9.87637e+02  3.66139e+00 -1.00198e+01 
-9.71654e+02 -6.84641e+00  3.71017e-01 
-8.29409e+02  2.34432e+00 -1.64815e+01 
-7.36622e+02 -2.21832e-01 -2.95839e+01 
-7.01482e+02  5.65328e-01 -4.25798e+01 
-6.62466e+02  5.72611e-01 -5.47959e+01 
-6.19979e+02  7.64177e-01 -6.64208e+01 
-5.77725e+02  8.73146e-01 -7.73510e+01 
-5.35350e+02  9.63819e-01 -8.75811e+01 
-4.92923e+02  1.01436e+00 -9.70852e+01 
-4.50410e+02  1.03169e+00 -1.05845e+02 
-4.07816e+02  1.01914e+00 -1.13842e+02 
-3.65139e+02  9.83624e-01 -1.21063e+02 
-3.22387e+02  9.32228e-01 -1.27497e+02 
-2.79567e+02  8.71886e-01 -1.33136e+02 
-2.36688e+02  8.08478e-01 -1.37976e+02 
-1.93760e+02  7.46395e-01 -1.42015e+02 
-1.50792e+02  6.88289e-01 -1.45251e+02 
-1.07794e+02  6.34996e-01 -1.47686e+02 
-6.47718e+01  5.85913e-01 -1.49320e+02 
-2.17344e+01  5.38505e-01 -1.50153e+02 
 2.13133e+01  4.90953e-01 -1.50187e+02 
 6.43620e+01  4.38474e-01 -1.49419e+02 
 1.07406e+02  3.79007e-01 -1.47850e+02 
 1.50439e+02  3.09526e-01 -1.45478e+02 
 1.93451e+02  2.28794e-01 -1.42300e+02 
 2.36433e+02  1.36943e-01 -1.38314e+02 
 2.79376e+02  3.59861e-02 -1.33521e+02 
 3.22268e+02 -7.01108e-02 -1.27920e+02 
 3.65098e+02 -1.75493e-01 -1.21513e+02 
 4.07855e+02 -2.72720e-01 -1.14307e+02 
 4.50529e+02 -3.53423e-01 -1.06310e+02 
 4.93114e+02 -4.08923e-01 -9.75363e+01 
 5.35604e+02 -4.32347e-01 -8.80012e+01 
 5.78025e+02 -4.16351e-01 -7.77325e+01 
 6.20309e+02 -3.68360e-01 -6.67300e+01 
 6.62793e+02 -2.59848e-01 -5.51080e+01 
 7.01780e+02 -2.17234e-01 -4.26041e+01 
 7.36897e+02  1.99880e-01 -3.04738e+01 
 8.30055e+02 -9.92516e-01 -1.33573e+01 
 9.70913e+02  3.58533e+00 -9.98594e+00 
-9.54900e+02 -6.77366e+00  2.56091e-01 
-8.14978e+02  2.32245e+00 -1.65396e+01 
-7.23707e+02 -2.31296e-01 -2.97239e+01 
-6.89092e+02  5.39077e-01 -4.27296e+01 
-6.50675e+02  5.40316e-01 -5.49463e+01 
-6.08861e+02  7.30456e-01 -6.65537e+01 
-5.67294e+02  8.45185e-01 -7.74570e+01 
-5.25625e+02  9.47701e-01 -8.76548e+01 
-4.83923e+02  1.01478e+00 -9.71257e+01 
-4.42153e+02  1.05120e+00 -1.05854e+02 
-4.00315e+02  1.05793e+00 -1.13825e+02 
-3.58408e+02  1.03951e+00 -1.21025e+02 
-3.16433e+02  1.00100e+00 -1.27444e+02 
-2.74398e+02  9.47730e-01 -1.33074e+02 
-2.32307e+02  8.84591e-01 -1.37910e+02 
-1.90170e+02  8.15597e-01 -1.41947e+02 
-1.47994e+02  7.43645e-01 -1.45185e+02 
-1.05787e+02  6.70386e-01 -1.47621e+02 
-6.35570e+01  5.96504e-01 -1.49256e+02 
-2.13108e+01  5.21135e-01 -1.50088e+02 
 2.09456e+01  4.44347e-01 -1.50119e+02 
 6.32023e+01  3.63400e-01 -1.49347e+02 
 1.05454e+02  2.78212e-01 -1.47771e+02 
 1.47692e+02  1.87601e-01 -1.45391e+02 
 1.89909e+02  9.18736e-02 -1.42205e+02 
 2.32096e+02 -7.70429e-03 -1.38214e+02 
 2.74244e+02 -1.08508e-01 -1.33419e+02 
 3.16343e+02 -2.06567e-01 -1.27820e+02 
 3.58385e+02 -2.96682e-01 -1.21422e+02 
 4.00361e+02 -3.72736e-01 -1.14232e+02 
 4.42264e+02 -4.28289e-01 -1.06259e+02 
 4.84094e+02 -4.57086e-01 -9.75150e+01 
 5.25846e+02 -4.54910e-01 -8.80149e+01 
 5.67549e+02 -4.17126e-01 -7.77827e+01 
 6.09137e+02 -3.53120e-01 -6.68142e+01 
 6.50942e+02 -2.36674e-01 -5.52175e+01 
 6.89329e+02 -1.91004e-01 -4.27266e+01 
 7.23923e+02  2.13021e-01 -3.05821e+01 
 8.15565e+02 -9.52599e-01 -1.34549e+01 
 9.54092e+02  3.50595e+00 -9.94165e+00 
-9.38047e+02 -6.69648e+00  1.41515e-01 
-8.00486e+02  2.29866e+00 -1.65887e+01 
-7.10760e+02 -2.39407e-01 -2.98531e+01 
-6.76689e+02  5.12800e-01 -4.28703e+01 
-6.38888e+02  5.05311e-01 -5.50919e+01 
-5.97760e+02  6.89333e-01 -6.66875e+01 
-5.56887e+02  8.03724e-01 -7.75698e+01 
-5.15928e+02  9.11002e-01 -8.77403e+01 
-4.74951e+02  9.87221e-01 -9.71816e+01 
-4.33921e+02  1.03570e+00 -1.05881e+02 
-3.92837e+02  1.05568e+00 -1.13824e+02 
-3.51693e+02  1.04996e+00 -1.21001e+02 
-3.10492e+02  1.02195e+00 -1.27402e+02 
-2.69236e+02  9.75687e-01 -1.33018e+02 
-2.27931e+02  9.15152e-01 -1.37843e+02 
-1.86581e+02  8.43930e-01 -1.41874e+02 
-1.45195e+02  7.64963e-01 -1.45107e+02 
-1.03780e+02  6.80395e-01 -1.47540e+02 
-6.23409e+01  5.91783e-01 -1.49173e+02 
-2.08869e+01  4.99452e-01 -1.50002e+02 
 2.05768e+01  4.04830e-01 -1.50030e+02 
 6.20405e+01  3.06681e-01 -1.49254e+02 
 1.03498e+02  2.06358e-01 -1.47675e+02 
 1.44943e+02  1.04012e-01 -1.45292e+02 
 1.86366e+02  1.03052e-03 -1.42105e+02 
 2.27760e+02 -1.00574e-01 -1.38115e+02 
 2.69116e+02 -1.97856e-01 -1.33323e+02 
 3.10428e+02 -2.87002e-01 -1.27733e+02 
 3.51687e+02 -3.63483e-01 -1.21349e+02 
 3.92888e+02 -4.22347e-01 -1.14179e+02 
 4.34028e+02 -4.58750e-01 -1.06230e+02 
 4.75106e+02 -4.68343e-01 -9.75161e+01 
 5.16122e+02 -4.48910e-01 -8.80479e+01 
 5.57105e+02 -3.97765e-01 -7.78472e+01 
 5.97992e+02 -3.25484e-01 -6.69063e+01 
 6.39106e+02 -2.07482e-01 -5.53280e+01 
 6.76876e+02 -1.63276e-01 -4.28444e+01 
 7.10928e+02  2.24861e-01 -3.06820e+01 
 8.01030e+02 -9.14300e-01 -1.35464e+01 
 9.37187e+02  3.42131e+00 -9.89030e+00 
-9.21113e+02 -6.61727e+00  3.01628e-02 
-7.85946e+02  2.27304e+00 -1.66276e+01 
-6.97785e+02 -2.48023e-01 -2.99692e+01 
-6.64277e+02  4.85131e-01 -4.29981e+01 
-6.27105e+02  4.67496e-01 -5.52275e+01 
-5.86675e+02  6.42524e-01 -6.68155e+01 
-5.46504e+02  7.52552e-01 -7.76815e+01 
-5.06260e+02  8.59697e-01 -8.78293e+01 
-4.66010e+02  9.39764e-01 -9.72443e+01 
-4.25719e+02  9.95116e-01 -1.05916e+02 
-3.85385e+02  1.02381e+00 -1.13834e+02 
-3.45002e+02  1.02731e+00 -1.20987e+02 
-3.04570e+02  1.00779e+00 -1.27367e+02 
-2.64090e+02  9.68201e-01 -1.32965e+02 
-2.23566e+02  9.11748e-01 -1.37777e+02 
-1.83002e+02  8.41571e-01 -1.41797e+02 
-1.42403e+02  7.60526e-01 -1.45022e+02 
-1.01777e+02  6.71016e-01 -1.47449e+02 
-6.11296e+01  5.75159e-01 -1.49077e+02 
-2.04674e+01  4.74089e-01 -1.49903e+02 
 2.02040e+01  3.70181e-01 -1.49927e+02 
 6.08750e+01  2.63267e-01 -1.49150e+02 
 1.01540e+02  1.55703e-01 -1.47569e+02 
 1.42192e+02  4.85681e-02 -1.45186e+02 
 1.82823e+02 -5.60314e-02 -1.42002e+02 
 2.23427e+02 -1.55633e-01 -1.38017e+02 
 2.63996e+02 -2.47174e-01 -1.33234e+02 
 3.04524e+02 -3.27101e-01 -1.27656e+02 
 3.45005e+02 -3.91526e-01 -1.21289e+02 
 3.85437e+02 -4.36500e-01 -1.14140e+02 
 4.25816e+02 -4.58475e-01 -1.06217e+02 
 4.66146e+02 -4.54579e-01 -9.75306e+01 
 5.06425e+02 -4.24067e-01 -8.80911e+01 
 5.46686e+02 -3.65621e-01 -7.79173e+01 
 5.86865e+02 -2.90437e-01 -6.69986e+01 
 6.27279e+02 -1.75108e-01 -5.54336e+01 
 6.64418e+02 -1.35144e-01 -4.29533e+01 
 6.97910e+02  2.35747e-01 -3.07708e+01 
 7.86447e+02 -8.76373e-01 -1.36305e+01 
 9.20204e+02  3.33405e+00 -9.83103e+00 
-9.04102e+02 -6.53480e+00 -8.06968e-02 
-7.71354e+02  2.24642e+00 -1.66587e+01 
-6.84780e+02 -2.55051e-01 -3.00745e+01 
-6.51848e+02  4.58917e-01 -4.31148e+01 
-6.15320e+02  4.30621e-01 -5.53538e+01 
-5.75597e+02  5.95005e-01 -6.69373e+01 
-5.36137e+02  6.98102e-01 -7.77910e+01 
-4.96613e+02  8.01783e-01 -8.79197e+01 
-4.57092e+02  8.81938e-01 -9.73119e+01 
-4.17541e+02  9.40351e-01 -1.05959e+02 
-3.77956e+02  9.74279e-01 -1.13852e+02 
-3.38332e+02  9.84229e-01 -1.20981e+02 
-2.98666e+02  9.71405e-01 -1.27340e+02 
-2.58958e+02  9.37916e-01 -1.32920e+02 
-2.19212e+02  8.86293e-01 -1.37716e+02 
-1.79430e+02  8.19248e-01 -1.41723e+02 
-1.39617e+02  7.39474e-01 -1.44937e+02 
-9.97791e+01  6.49468e-01 -1.47356e+02 
-5.99207e+01  5.51672e-01 -1.48977e+02 
-2.00490e+01  4.47745e-01 -1.49799e+02 
 1.98311e+01  3.40683e-01 -1.49821e+02 
 5.97107e+01  2.31046e-01 -1.49042e+02 
 9.95846e+01  1.21859e-01 -1.47462e+02 
 1.39446e+02  1.48104e-02 -1.45082e+02 
 1.79287e+02 -8.75504e-02 -1.41902e+02 
 2.19104e+02 -1.82529e-01 -1.37925e+02 
 2.58889e+02 -2.67088e-01 -1.33153e+02 
 2.98637e+02 -3.37987e-01 -1.27591e+02 
 3.38345e+02 -3.91930e-01 -1.21243e+02 
 3.78009e+02 -4.25818e-01 -1.14115e+02 
 4.17631e+02 -4.37135e-01 -1.06216e+02 
 4.57212e+02 -4.24136e-01 -9.75557e+01 
 4.96755e+02 -3.87131e-01 -8.81416e+01 
 5.36290e+02 -3.25732e-01 -7.79906e+01 
 5.75755e+02 -2.51354e-01 -6.70896e+01 
 6.15458e+02 -1.41458e-01 -5.55338e+01 
 6.51954e+02 -1.07383e-01 -4.30540e+01 
 6.84872e+02  2.45503e-01 -3.08506e+01 
 7.71827e+02 -8.39481e-01 -1.37089e+01 
 9.03157e+02  3.24495e+00 -9.76742e+00 
-8.87031e+02 -6.45109e+00 -1.88355e-01 
-7.56725e+02  2.21871e+00 -1.66812e+01 
-6.71751e+02 -2.61848e-01 -3.01674e+01 
-6.39408e+02  4.33109e-01 -4.32180e+01 
-6.03534e+02  3.94210e-01 -5.54675e+01 
-5.64529e+02  5.47216e-01 -6.70490e+01 
-5.25785e+02  6.41941e-01 -7.78933e+01 
-4.86987e+02  7.40076e-01 -8.80064e+01 
-4.48199e+02  8.17814e-01 -9.73787e+01 
-4.09388e+02  8.76627e-01 -1.06004e+02 
-3.70552e+02  9.13258e-01 -1.13873e+02 
-3.31685e+02  9.27539e-01 -1.20980e+02 
-2.92783e+02  9.19952e-01 -1.27317e+02 
-2.53846e+02  8.91933e-01 -1.32878e+02 
-2.14875e+02  8.45451e-01 -1.37657e+02 
-1.75873e+02  7.82823e-01 -1.41650e+02 
-1.36843e+02  7.06533e-01 -1.44852e+02 
-9.77902e+01  6.19062e-01 -1.47262e+02 
-5.87190e+01  5.23007e-01 -1.48876e+02 
-1.96358e+01  4.20337e-01 -1.49693e+02 
 1.94552e+01  3.14423e-01 -1.49712e+02 
 5.85453e+01  2.06295e-01 -1.48933e+02 
 9.76300e+01  9.93902e-02 -1.47355e+02 
 1.36703e+02 -4.23489e-03 -1.44979e+02 
 1.75758e+02 -1.01792e-01 -1.41806e+02 
 2.14790e+02 -1.90510e-01 -1.37839e+02 
 2.53794e+02 -2.67475e-01 -1.33080e+02 
 2.92765e+02 -3.29777e-01 -1.27534e+02 
 3.31702e+02 -3.74656e-01 -1.21205e+02 
 3.70603e+02 -3.99717e-01 -1.14098e+02 
 4.09467e+02 -4.03259e-01 -1.06223e+02 
 4.48302e+02 -3.84382e-01 -9.75853e+01 
 4.87106e+02 -3.44132e-01 -8.81934e+01 
 5.25911e+02 -2.82728e-01 -7.80616e+01 
 5.64655e+02 -2.11517e-01 -6.71748e+01 
 6.03639e+02 -1.08642e-01 -5.56250e+01 
 6.39481e+02 -8.11965e-02 -4.31441e+01 
 6.71812e+02  2.53695e-01 -3.09195e+01 
 7.57167e+02 -8.03081e-01 -1.37805e+01 
 8.86050e+02  3.15390e+00 -9.69760e+00 
-8.69900e+02 -6.36483e+00 -2.95572e-01 
-7.42054e+02  2.19056e+00 -1.66973e+01 
-6.58697e+02 -2.66670e-01 -3.02507e+01 
-6.26952e+02  4.09905e-01 -4.33106e+01 
-5.91742e+02  3.60950e-01 -5.55709e+01 
-5.53462e+02  5.02483e-01 -6.71520e+01 
-5.15443e+02  5.88180e-01 -7.79894e+01 
-4.77374e+02  6.79562e-01 -8.80897e+01 
-4.39322e+02  7.53272e-01 -9.74450e+01 
-4.01254e+02  8.10650e-01 -1.06050e+02 
-3.63169e+02  8.48143e-01 -1.13899e+02 
-3.25057e+02  8.65116e-01 -1.20985e+02 
-2.86918e+02  8.61520e-01 -1.27301e+02 
-2.48750e+02  8.38264e-01 -1.32843e+02 
-2.10552e+02  7.96857e-01 -1.37605e+02 
-1.72327e+02  7.39259e-01 -1.41583e+02 
-1.34077e+02  6.67727e-01 -1.44773e+02 
-9.58075e+01  5.84655e-01 -1.47172e+02 
-5.75213e+01  4.92676e-01 -1.48779e+02 
-1.92242e+01  3.93913e-01 -1.49591e+02 
 1.90797e+01  2.91935e-01 -1.49608e+02 
 5.73828e+01  1.88050e-01 -1.48828e+02 
 9.56808e+01  8.59121e-02 -1.47253e+02 
 1.33968e+02 -1.22250e-02 -1.44882e+02 
 1.72239e+02 -1.03483e-01 -1.41718e+02 
 2.10489e+02 -1.85124e-01 -1.37762e+02 
 2.48715e+02 -2.54413e-01 -1.33016e+02 
 2.86913e+02 -3.08770e-01 -1.27486e+02 
 3.25081e+02 -3.45908e-01 -1.21176e+02 
 3.63218e+02 -3.64010e-01 -1.14090e+02 
 4.01327e+02 -3.62013e-01 -1.06235e+02 
 4.39413e+02 -3.39638e-01 -9.76189e+01 
 4.77476e+02 -2.98425e-01 -8.82464e+01 
 5.15547e+02 -2.38969e-01 -7.81306e+01 
 5.53564e+02 -1.72361e-01 -6.72549e+01 
 5.91822e+02 -7.73147e-02 -5.57089e+01 
 6.27001e+02 -5.66789e-02 -4.32255e+01 
 6.58735e+02  2.60448e-01 -3.09801e+01 
 7.42477e+02 -7.67784e-01 -1.38472e+01 
 8.68895e+02  3.06185e+00 -9.62499e+00 
-8.52726e+02 -6.27799e+00 -3.99805e-01 
-7.27355e+02  2.16168e+00 -1.67064e+01 
-6.45623e+02 -2.71099e-01 -3.03233e+01 
-6.14485e+02  3.87784e-01 -4.33908e+01 
-5.79948e+02  3.29590e-01 -5.56622e+01 
-5.42400e+02  4.60047e-01 -6.72440e+01 
-5.05112e+02  5.36685e-01 -7.80765e+01 
-4.67778e+02  6.20832e-01 -8.81663e+01 
-4.30465e+02  6.89653e-01 -9.75071e+01 
-3.93142e+02  7.44481e-01 -1.06095e+02 
-3.55807e+02  7.81615e-01 -1.13925e+02 
-3.18452e+02  8.00110e-01 -1.20991e+02 
-2.81075e+02  7.99535e-01 -1.27288e+02 
-2.43673e+02  7.80393e-01 -1.32812e+02 
-2.06246e+02  7.43814e-01 -1.37557e+02 
-1.68796e+02  6.91446e-01 -1.41520e+02 
-1.31325e+02  6.25321e-01 -1.44698e+02 
-9.38352e+01  5.47703e-01 -1.47087e+02 
-5.63313e+01  4.61182e-01 -1.48686e+02 
-1.88179e+01  3.67930e-01 -1.49493e+02 
 1.87017e+01  2.71586e-01 -1.49507e+02 
 5.62203e+01  1.73596e-01 -1.48728e+02 
 9.37342e+01  7.77009e-02 -1.47156e+02 
 1.31238e+02 -1.37755e-02 -1.44791e+02 
 1.68728e+02 -9.79661e-02 -1.41635e+02 
 2.06200e+02 -1.72235e-01 -1.37690e+02 
 2.43650e+02 -2.34055e-01 -1.32959e+02 
 2.81075e+02 -2.81164e-01 -1.27445e+02 
 3.18476e+02 -3.11683e-01 -1.21152e+02 
 3.55852e+02 -3.24271e-01 -1.14085e+02 
 3.93205e+02 -3.18353e-01 -1.06250e+02 
 4.30541e+02 -2.94106e-01 -9.76524e+01 
 4.67862e+02 -2.53383e-01 -8.82967e+01 
 5.05195e+02 -1.96993e-01 -7.81942e+01 
 5.42479e+02 -1.35644e-01 -6.73273e+01 
 5.80003e+02 -4.85676e-02 -5.57832e+01 
 6.14510e+02 -3.44156e-02 -4.32968e+01 
 6.45639e+02  2.65622e-01 -3.10310e+01 
 7.27756e+02 -7.32942e-01 -1.39080e+01 
 8.51695e+02  2.96864e+00 -9.54760e+00 
-8.35507e+02 -6.18969e+00 -5.03587e-01 
-7.12624e+02  2.13264e+00 -1.67107e+01 
-6.32527e+02 -2.73644e-01 -3.03880e+01 
-6.02004e+02  3.68555e-01 -4.34620e+01 
-5.68145e+02  3.02185e-01 -5.57442e+01 
-5.31338e+02  4.22282e-01 -6.73276e+01 
-4.94785e+02  4.90238e-01 -7.81567e+01 
-4.58191e+02  5.67134e-01 -8.82380e+01 
-4.21621e+02  6.30707e-01 -9.75664e+01 
-3.85045e+02  6.82348e-01 -1.06139e+02 
-3.48461e+02  7.18316e-01 -1.13952e+02 
-3.11863e+02  7.37468e-01 -1.21000e+02 
-2.75247e+02  7.39101e-01 -1.27279e+02 
-2.38611e+02  7.23409e-01 -1.32786e+02 
-2.01954e+02  6.91217e-01 -1.37515e+02 
-1.65277e+02  6.43905e-01 -1.41464e+02 
-1.28581e+02  5.83289e-01 -1.44629e+02 
-9.18697e+01  5.11485e-01 -1.47008e+02 
-5.51457e+01  4.30996e-01 -1.48600e+02 
-1.84133e+01  3.43972e-01 -1.49402e+02 
 1.83246e+01  2.54036e-01 -1.49414e+02 
 5.50613e+01  1.62685e-01 -1.48636e+02 
 9.17939e+01  7.36518e-02 -1.47067e+02 
 1.28518e+02 -1.07509e-02 -1.44708e+02 
 1.65229e+02 -8.77312e-02 -1.41561e+02 
 2.01924e+02 -1.54794e-01 -1.37627e+02 
 2.38600e+02 -2.09633e-01 -1.32910e+02 
 2.75256e+02 -2.50276e-01 -1.27411e+02 
 3.11891e+02 -2.75197e-01 -1.21135e+02 
 3.48505e+02 -2.83440e-01 -1.14086e+02 
 3.85102e+02 -2.74804e-01 -1.06268e+02 
 4.21687e+02 -2.49795e-01 -9.76868e+01 
 4.58262e+02 -2.10456e-01 -8.83455e+01 
 4.94853e+02 -1.57697e-01 -7.82540e+01 
 5.31400e+02 -1.01776e-01 -6.73939e+01 
 5.68184e+02 -2.24186e-02 -5.58504e+01 
 6.02012e+02 -1.41199e-02 -4.33606e+01 
 6.32529e+02  2.69556e-01 -3.10752e+01 
 7.13013e+02 -6.99053e-01 -1.39650e+01 
 8.34460e+02  2.87500e+00 -9.46857e+00 
-8.18256e+02 -6.09956e+00 -6.05138e-01 
-6.97871e+02  2.10384e+00 -1.67096e+01 
-6.19416e+02 -2.74824e-01 -3.04442e+01 
-5.89512e+02  3.51581e-01 -4.35231e+01 
-5.56340e+02  2.78144e-01 -5.58157e+01 
-5.20277e+02  3.88792e-01 -6.74013e+01 
-4.84465e+02  4.48722e-01 -7.82282e+01 
-4.48614e+02  5.18706e-01 -8.83026e+01 
-4.12790e+02  5.77052e-01 -9.76206e+01 
-3.76964e+02  6.25252e-01 -1.06180e+02 
-3.41134e+02  6.59583e-01 -1.13977e+02 
-3.05293e+02  6.78787e-01 -1.21009e+02 
-2.69438e+02  6.81969e-01 -1.27272e+02 
-2.33566e+02  6.69088e-01 -1.32762e+02 
-1.97677e+02  6.40728e-01 -1.37476e+02 
-1.61771e+02  5.98039e-01 -1.41411e+02 
-1.25850e+02  5.42645e-01 -1.44565e+02 
-8.99141e+01  4.76511e-01 -1.46935e+02 
-5.39674e+01  4.02031e-01 -1.48519e+02 
-1.80135e+01  3.21293e-01 -1.49317e+02 
 1.79454e+01  2.37857e-01 -1.49327e+02 
 5.39031e+01  1.53213e-01 -1.48549e+02 
 8.98569e+01  7.10288e-02 -1.46984e+02 
 1.25803e+02 -6.43945e-03 -1.44631e+02 
 1.61738e+02 -7.65113e-02 -1.41493e+02 
 1.97658e+02 -1.36850e-01 -1.37570e+02 
 2.33563e+02 -1.85363e-01 -1.32866e+02 
 2.69450e+02 -2.20341e-01 -1.27381e+02 
 3.05320e+02 -2.40559e-01 -1.21121e+02 
 3.41174e+02 -2.45371e-01 -1.14088e+02 
 3.77014e+02 -2.34866e-01 -1.06286e+02 
 4.12846e+02 -2.09785e-01 -9.77194e+01 
 4.48672e+02 -1.72273e-01 -8.83903e+01 
 4.84517e+02 -1.23283e-01 -7.83080e+01 
 5.20322e+02 -7.25861e-02 -6.74531e+01 
 5.56361e+02 -4.23270e-04 -5.59092e+01 
 5.89505e+02  2.85755e-03 -4.34160e+01 
 6.19403e+02  2.71393e-01 -3.11119e+01 
 6.98245e+02 -6.65592e-01 -1.40173e+01 
 8.17192e+02  2.78050e+00 -9.38592e+00 
-8.00976e+02 -6.00982e+00 -7.06340e-01 
-6.83095e+02  2.07494e+00 -1.67051e+01 
-6.06290e+02 -2.74281e-01 -3.04944e+01 
-5.77011e+02  3.37541e-01 -4.35771e+01 
-5.44528e+02  2.58294e-01 -5.58796e+01 
-5.09216e+02  3.60580e-01 -6.74678e+01 
-4.74149e+02  4.13373e-01 -7.82935e+01 
-4.39046e+02  4.77062e-01 -8.83624e+01 
-4.03971e+02  5.30512e-01 -9.76715e+01 
-3.68896e+02  5.75325e-01 -1.06219e+02 
-3.33820e+02  6.07832e-01 -1.14003e+02 
-2.98737e+02  6.26709e-01 -1.21020e+02 
-2.63643e+02  6.30927e-01 -1.27268e+02 
-2.28536e+02  6.20268e-01 -1.32743e+02 
-1.93414e+02  5.95125e-01 -1.37443e+02 
-1.58278e+02  5.56458e-01 -1.41365e+02 
-1.23128e+02  5.05724e-01 -1.44507e+02 
-8.79657e+01  4.44750e-01 -1.46868e+02 
-5.27938e+01  3.75816e-01 -1.48445e+02 
-1.76156e+01  3.00935e-01 -1.49238e+02 
 1.75669e+01  2.23581e-01 -1.49247e+02 
 5.27482e+01  1.45208e-01 -1.48470e+02 
 8.79260e+01  6.93970e-02 -1.46908e+02 
 1.23097e+02 -1.67797e-03 -1.44562e+02 
 1.58257e+02 -6.54590e-02 -1.41432e+02 
 1.93406e+02 -1.19767e-01 -1.37520e+02 
 2.28541e+02 -1.62708e-01 -1.32828e+02 
 2.63660e+02 -1.92804e-01 -1.27358e+02 
 2.98766e+02 -2.09081e-01 -1.21112e+02 
 3.33858e+02 -2.11149e-01 -1.14093e+02 
 3.68941e+02 -1.99322e-01 -1.06305e+02 
 4.04019e+02 -1.74510e-01 -9.77515e+01 
 4.39093e+02 -1.38915e-01 -8.84330e+01 
 4.74189e+02 -9.34980e-02 -7.83581e+01 
 5.09249e+02 -4.75579e-02 -6.75071e+01 
 5.44537e+02  1.80978e-02 -5.59621e+01 
 5.76992e+02  1.70677e-02 -4.34655e+01 
 6.06267e+02  2.71069e-01 -3.11435e+01 
 6.83460e+02 -6.33869e-01 -1.40669e+01 
 7.99900e+02  2.68610e+00 -9.30204e+00 
-7.83667e+02 -5.91849e+00 -8.06326e-01 
-6.68300e+02  2.04497e+00 -1.66973e+01 
-5.93149e+02 -2.73965e-01 -3.05391e+01 
-5.64498e+02  3.24197e-01 -4.36242e+01 
-5.32709e+02  2.40496e-01 -5.59363e+01 
-4.98152e+02  3.35683e-01 -6.75271e+01 
-4.63834e+02  3.82481e-01 -7.83524e+01 
-4.29482e+02  4.40804e-01 -8.84168e+01 
-3.95159e+02  4.90034e-01 -9.77184e+01 
-3.60839e+02  5.31865e-01 -1.06256e+02 
-3.26519e+02  5.62697e-01 -1.14028e+02 
-2.92195e+02  5.81163e-01 -1.21031e+02 
-2.57863e+02  5.86141e-01 -1.27265e+02 
-2.23519e+02  5.77279e-01 -1.32726e+02 
-1.89164e+02  5.54815e-01 -1.37412e+02 
-1.54795e+02  5.19564e-01 -1.41322e+02 
-1.20415e+02  4.72842e-01 -1.44454e+02 
-8.60247e+01  4.16358e-01 -1.46805e+02 
-5.16255e+01  3.52291e-01 -1.48377e+02 
-1.72207e+01  2.82585e-01 -1.49165e+02 
 1.71880e+01  2.10625e-01 -1.49172e+02 
 5.15954e+01  1.37827e-01 -1.48397e+02 
 8.59996e+01  6.76788e-02 -1.46839e+02 
 1.20397e+02  2.27429e-03 -1.44498e+02 
 1.54786e+02 -5.59460e-02 -1.41377e+02 
 1.89164e+02 -1.04947e-01 -1.37475e+02 
 2.23530e+02 -1.43009e-01 -1.32795e+02 
 2.57883e+02 -1.68853e-01 -1.27337e+02 
 2.92225e+02 -1.81717e-01 -1.21105e+02 
 3.26556e+02 -1.81418e-01 -1.14100e+02 
 3.60879e+02 -1.68450e-01 -1.06325e+02 
 3.95201e+02 -1.43856e-01 -9.77821e+01 
 4.29521e+02 -1.09865e-01 -8.84726e+01 
 4.63865e+02 -6.74462e-02 -7.84038e+01 
 4.98175e+02 -2.54471e-02 -6.75557e+01 
 5.32709e+02  3.46975e-02 -5.60089e+01 
 5.64469e+02  3.04788e-02 -4.35090e+01 
 5.93117e+02  2.70891e-01 -3.11700e+01 
 6.68658e+02 -6.01693e-01 -1.41139e+01 
 7.82583e+02  2.59081e+00 -9.21723e+00 
-7.66340e+02 -5.82768e+00 -9.04533e-01 
-6.53490e+02  2.01579e+00 -1.66858e+01 
-5.79997e+02 -2.72439e-01 -3.05784e+01 
-5.51978e+02  3.12812e-01 -4.36652e+01 
-5.20888e+02  2.25741e-01 -5.59864e+01 
-4.87088e+02  3.15057e-01 -6.75802e+01 
-4.53524e+02  3.57029e-01 -7.84056e+01 
-4.19926e+02  4.10987e-01 -8.84666e+01 
-3.86358e+02  4.56770e-01 -9.77616e+01 
-3.52794e+02  4.96132e-01 -1.06290e+02 
-3.19232e+02  5.25526e-01 -1.14051e+02 
-2.85668e+02  5.43559e-01 -1.21042e+02 
-2.52097e+02  5.49033e-01 -1.27263e+02 
-2.18517e+02  5.41493e-01 -1.32711e+02 
-1.84927e+02  5.21064e-01 -1.37384e+02 
-1.51325e+02  4.88441e-01 -1.41282e+02 
-1.17713e+02  4.44837e-01 -1.44404e+02 
-8.40922e+01  3.91870e-01 -1.46747e+02 
-5.04632e+01  3.31644e-01 -1.48312e+02 
-1.68293e+01  2.66052e-01 -1.49097e+02 
 1.68082e+01  1.98408e-01 -1.49103e+02 
 5.04442e+01  1.30104e-01 -1.48328e+02 
 8.40773e+01  6.45504e-02 -1.46774e+02 
 1.17704e+02  3.77710e-03 -1.44439e+02 
 1.51323e+02 -4.98726e-02 -1.41326e+02 
 1.84933e+02 -9.44835e-02 -1.37434e+02 
 2.18531e+02 -1.28480e-01 -1.32765e+02 
 2.52118e+02 -1.50750e-01 -1.27320e+02 
 2.85696e+02 -1.60708e-01 -1.21100e+02 
 3.19265e+02 -1.58342e-01 -1.14108e+02 
 3.52829e+02 -1.44297e-01 -1.06344e+02 
 3.86392e+02 -1.19727e-01 -9.78113e+01 
 4.19957e+02 -8.68821e-02 -8.85097e+01 
 4.53545e+02 -4.67528e-02 -7.84459e+01 
 4.87101e+02 -7.77553e-03 -6.75998e+01 
 5.20877e+02  4.79199e-02 -5.60508e+01 
 5.51940e+02  4.16132e-02 -4.35476e+01 
 5.79958e+02  2.69569e-01 -3.11921e+01 
 6.53841e+02 -5.69597e-01 -1.41579e+01 
 7.65246e+02  2.49661e+00 -9.13019e+00 
-7.48990e+02 -5.73559e+00 -1.00308e+00 
-6.38663e+02  1.98690e+00 -1.66729e+01 
-5.66833e+02 -2.68585e-01 -3.06146e+01 
-5.39447e+02  3.05125e-01 -4.37025e+01 
-5.09059e+02  2.16040e-01 -5.60327e+01 
-4.76021e+02  3.00763e-01 -6.76296e+01 
-4.43213e+02  3.39126e-01 -7.84556e+01 
-4.10372e+02  3.89773e-01 -8.85138e+01 
-3.77562e+02  4.32944e-01 -9.78033e+01 
-3.44756e+02  4.70405e-01 -1.06324e+02 
-3.11954e+02  4.98648e-01 -1.14074e+02 
-2.79151e+02  5.16244e-01 -1.21054e+02 
-2.46342e+02  5.21932e-01 -1.27262e+02 
-2.13526e+02  5.15177e-01 -1.32697e+02 
-1.80700e+02  4.96015e-01 -1.37359e+02 
-1.47864e+02  4.65059e-01 -1.41246e+02 
-1.15019e+02  4.23451e-01 -1.44357e+02 
-8.21653e+01  3.72755e-01 -1.46693e+02 
-4.93044e+01  3.15032e-01 -1.48251e+02 
-1.64390e+01  2.52159e-01 -1.49033e+02 
 1.64296e+01  1.87408e-01 -1.49037e+02 
 4.92968e+01  1.22178e-01 -1.48264e+02 
 8.21610e+01  5.98335e-02 -1.46713e+02 
 1.15020e+02  2.37021e-03 -1.44385e+02 
 1.47871e+02 -4.79341e-02 -1.41280e+02 
 1.80712e+02 -8.92510e-02 -1.37398e+02 
 2.13544e+02 -1.20117e-01 -1.32740e+02 
 2.46367e+02 -1.39552e-01 -1.27306e+02 
 2.79180e+02 -1.47116e-01 -1.21099e+02 
 3.11986e+02 -1.42944e-01 -1.14118e+02 
 3.44789e+02 -1.27812e-01 -1.06365e+02 
 3.77593e+02 -1.02980e-01 -9.78408e+01 
 4.10398e+02 -7.07294e-02 -8.85460e+01 
 4.43229e+02 -3.21029e-02 -7.84864e+01 
 4.76028e+02  4.82156e-03 -6.76415e+01 
 5.09043e+02  5.71459e-02 -5.60899e+01 
 5.39405e+02  4.98386e-02 -4.35834e+01 
 5.66790e+02  2.66262e-01 -3.12118e+01 
 6.39013e+02 -5.38880e-01 -1.42007e+01 
 7.47893e+02  2.40102e+00 -9.04289e+00 
-7.31627e+02 -5.64402e+00 -1.09992e+00 
-6.23826e+02  1.95792e+00 -1.66577e+01 
-5.53660e+02 -2.64465e-01 -3.06474e+01 
-5.26911e+02  2.98767e-01 -4.37357e+01 
-4.97226e+02  2.09061e-01 -5.60747e+01 
-4.64953e+02  2.90638e-01 -6.76749e+01 
-4.32904e+02  3.26786e-01 -7.85018e+01 
-4.00824e+02  3.75381e-01 -8.85578e+01 
-3.68774e+02  4.16985e-01 -9.78422e+01 
-3.36729e+02  4.53329e-01 -1.06355e+02 
-3.04689e+02  4.80907e-01 -1.14096e+02 
-2.72647e+02  4.98239e-01 -1.21065e+02 
-2.40601e+02  5.04005e-01 -1.27261e+02 
-2.08548e+02  4.97599e-01 -1.32684e+02 
-1.76486e+02  4.78995e-01 -1.37334e+02 
-1.44415e+02  4.48757e-01 -1.41210e+02 
-1.12335e+02  4.07991e-01 -1.44312e+02 
-8.02467e+01  3.58249e-01 -1.46639e+02 
-4.81517e+01  3.01592e-01 -1.48192e+02 
-1.60524e+01  2.39921e-01 -1.48970e+02 
 1.60499e+01  1.76515e-01 -1.48973e+02 
 4.81505e+01  1.12821e-01 -1.48201e+02 
 8.02483e+01  5.21987e-02 -1.46654e+02 
 1.12340e+02 -3.34624e-03 -1.44332e+02 
 1.44425e+02 -5.15608e-02 -1.41235e+02 
 1.76501e+02 -9.06638e-02 -1.37363e+02 
 2.08568e+02 -1.19266e-01 -1.32716e+02 
 2.40625e+02 -1.36488e-01 -1.27294e+02 
 2.72674e+02 -1.42008e-01 -1.21098e+02 
 3.04717e+02 -1.36089e-01 -1.14128e+02 
 3.36757e+02 -1.19631e-01 -1.06385e+02 
 3.68799e+02 -9.40051e-02 -9.78695e+01 
 4.00844e+02 -6.15503e-02 -8.85807e+01 
 4.32914e+02 -2.34033e-02 -7.85246e+01 
 4.64954e+02  1.26539e-02 -6.76805e+01 
 4.97204e+02  6.28685e-02 -5.61259e+01 
 5.26863e+02  5.57901e-02 -4.36160e+01 
 5.53613e+02  2.61849e-01 -3.12285e+01 
 6.24170e+02 -5.08296e-01 -1.42415e+01 
 7.30522e+02  2.30562e+00 -8.95401e+00 
-7.14246e+02 -5.55158e+00 -1.19741e+00 
-6.08974e+02  1.92939e+00 -1.66422e+01 
-5.40476e+02 -2.58524e-01 -3.06793e+01 
-5.14365e+02  2.95419e-01 -4.37680e+01 
-4.85387e+02  2.06518e-01 -5.61158e+01 
-4.53881e+02  2.86431e-01 -6.77194e+01 
-4.22594e+02  3.21816e-01 -7.85476e+01 
-3.91278e+02  3.69678e-01 -8.86016e+01 
-3.59991e+02  4.10829e-01 -9.78813e+01 
-3.28709e+02  4.46901e-01 -1.06387e+02 
-2.97431e+02  4.74347e-01 -1.14119e+02 
-2.66153e+02  4.91612e-01 -1.21077e+02 
-2.34870e+02  4.97308e-01 -1.27261e+02 
-2.03580e+02  4.90771e-01 -1.32672e+02 
-1.72282e+02  4.71930e-01 -1.37310e+02 
-1.40975e+02  4.41331e-01 -1.41175e+02 
-1.09658e+02  4.00088e-01 -1.44267e+02 
-7.83334e+01  3.49781e-01 -1.46587e+02 
-4.70020e+01  2.92526e-01 -1.48134e+02 
-1.56665e+01  2.30299e-01 -1.48908e+02 
 1.56718e+01  1.66439e-01 -1.48911e+02 
 4.70084e+01  1.02500e-01 -1.48140e+02 
 7.83420e+01  4.18876e-02 -1.46598e+02 
 1.09670e+02 -1.33291e-02 -1.44282e+02 
 1.40990e+02 -6.08723e-02 -1.41193e+02 
 1.72301e+02 -9.89624e-02 -1.37331e+02 
 2.03603e+02 -1.26245e-01 -1.32694e+02 
 2.34896e+02 -1.41907e-01 -1.27284e+02 
 2.66181e+02 -1.45721e-01 -1.21100e+02 
 2.97460e+02 -1.38067e-01 -1.14141e+02 
 3.28736e+02 -1.19969e-01 -1.06407e+02 
 3.60014e+02 -9.29303e-02 -9.78997e+01 
 3.91295e+02 -5.93795e-02 -8.86166e+01 
 4.22602e+02 -2.06038e-02 -7.85634e+01 
 4.53879e+02  1.58347e-02 -6.77196e+01 
 4.85362e+02  6.52361e-02 -5.61617e+01 
 5.14315e+02  5.96250e-02 -4.36482e+01 
 5.40427e+02  2.56318e-01 -3.12450e+01 
 6.09319e+02 -4.78394e-01 -1.42823e+01 
 7.13140e+02  2.21036e+00 -8.86586e+00 
-6.96854e+02 -5.45979e+00 -1.29353e+00 
-5.94113e+02  1.90093e+00 -1.66256e+01 
-5.27284e+02 -2.52127e-01 -3.07098e+01 
-5.01813e+02  2.93664e-01 -4.37987e+01 
-4.73543e+02  2.07007e-01 -5.61554e+01 
-4.42808e+02  2.86833e-01 -6.77626e+01 
-4.12287e+02  3.23036e-01 -7.85923e+01 
-3.81737e+02  3.71634e-01 -8.86446e+01 
-3.51215e+02  4.13596e-01 -9.79197e+01 
-3.20698e+02  4.50381e-01 -1.06418e+02 
-2.90185e+02  4.78351e-01 -1.14141e+02 
-2.59671e+02  4.95844e-01 -1.21088e+02 
-2.29153e+02  5.01391e-01 -1.27260e+02 
-1.98626e+02  4.94269e-01 -1.32659e+02 
-1.68091e+02  4.74386e-01 -1.37285e+02 
-1.37546e+02  4.42299e-01 -1.41138e+02 
-1.06991e+02  3.99171e-01 -1.44221e+02 
-7.64283e+01  3.46667e-01 -1.46532e+02 
-4.58583e+01  2.87010e-01 -1.48073e+02 
-1.52841e+01  2.22317e-01 -1.48844e+02 
 1.52928e+01  1.56050e-01 -1.48846e+02 
 4.58680e+01  8.99312e-02 -1.48078e+02 
 7.64397e+01  2.74834e-02 -1.46539e+02 
 1.07005e+02 -2.91034e-02 -1.44230e+02 
 1.37563e+02 -7.74684e-02 -1.41150e+02 
 1.68111e+02 -1.15782e-01 -1.37298e+02 
 1.98649e+02 -1.42682e-01 -1.32673e+02 
 2.29178e+02 -1.57388e-01 -1.27275e+02 
 2.59697e+02 -1.59745e-01 -1.21102e+02 
 2.90211e+02 -1.50244e-01 -1.14154e+02 
 3.20722e+02 -1.30042e-01 -1.06430e+02 
 3.51234e+02 -1.00799e-01 -9.79307e+01 
 3.81750e+02 -6.50822e-02 -8.86530e+01 
 4.12290e+02 -2.43937e-02 -7.86024e+01 
 4.42802e+02  1.38414e-02 -6.77585e+01 
 4.73515e+02  6.38712e-02 -5.61970e+01 
 5.01760e+02  6.10815e-02 -4.36796e+01 
 5.27233e+02  2.49606e-01 -3.12604e+01 
 5.94455e+02 -4.48591e-01 -1.43221e+01 
 6.95742e+02  2.11485e+00 -8.77647e+00 
-6.79445e+02 -5.36732e+00 -1.39058e+00 
-5.79238e+02  1.87306e+00 -1.66097e+01 
-5.14081e+02 -2.43759e-01 -3.07414e+01 
-4.89251e+02  2.95202e-01 -4.38311e+01 
-4.61693e+02  2.12343e-01 -5.61970e+01 
-4.31730e+02  2.93739e-01 -6.78081e+01 
-4.01978e+02  3.32420e-01 -7.86394e+01 
-3.72196e+02  3.83297e-01 -8.86900e+01 
-3.42443e+02  4.27400e-01 -9.79605e+01 
-3.12694e+02  4.65938e-01 -1.06452e+02 
-2.82948e+02  4.95118e-01 -1.14165e+02 
-2.53200e+02  5.13134e-01 -1.21100e+02 
-2.23446e+02  5.18415e-01 -1.27260e+02 
-1.93683e+02  5.10182e-01 -1.32646e+02 
-1.63910e+02  4.88338e-01 -1.37259e+02 
-1.34126e+02  4.53484e-01 -1.41100e+02 
-1.04332e+02  4.06880e-01 -1.44172e+02 
-7.45288e+01  3.50329e-01 -1.46475e+02 
-4.47179e+01  2.86228e-01 -1.48010e+02 
-1.49024e+01  2.16906e-01 -1.48778e+02 
 1.49159e+01  1.46022e-01 -1.48779e+02 
 4.47321e+01  7.55428e-02 -1.48013e+02 
 7.45445e+01  9.17999e-03 -1.46479e+02 
 1.04350e+02 -5.06833e-02 -1.44177e+02 
 1.34147e+02 -1.01539e-01 -1.41106e+02 
 1.63933e+02 -1.41450e-01 -1.37265e+02 
 1.93708e+02 -1.69000e-01 -1.32653e+02 
 2.23472e+02 -1.83406e-01 -1.27267e+02 
 2.53227e+02 -1.84569e-01 -1.21107e+02 
 2.82974e+02 -1.73084e-01 -1.14170e+02 
 3.12717e+02 -1.50257e-01 -1.06457e+02 
 3.42462e+02 -1.17943e-01 -9.79650e+01 
 3.72209e+02 -7.88985e-02 -8.86928e+01 
 4.01980e+02 -3.49197e-02 -7.86447e+01 
 4.31724e+02  6.61080e-03 -6.78005e+01 
 4.61664e+02  5.87775e-02 -5.62348e+01 
 4.89198e+02  6.02131e-02 -4.37131e+01 
 5.14031e+02  2.41674e-01 -3.12774e+01 
 5.79582e+02 -4.19472e-01 -1.43629e+01 
 6.78333e+02  2.01937e+00 -8.68820e+00 
-6.62025e+02 -5.27563e+00 -1.48669e+00 
-5.64353e+02  1.84540e+00 -1.65939e+01 
-5.00870e+02 -2.34739e-01 -3.07737e+01 
-4.76683e+02  2.98713e-01 -4.38647e+01 
-4.49838e+02  2.21296e-01 -5.62404e+01 
-4.20652e+02  3.06077e-01 -6.78558e+01 
-3.91670e+02  3.49067e-01 -7.86889e+01 
-3.62661e+02  4.03943e-01 -8.87376e+01 
-3.33679e+02  4.51686e-01 -9.80031e+01 
-3.04700e+02  4.93160e-01 -1.06486e+02 
-2.75723e+02  5.24354e-01 -1.14189e+02 
-2.46742e+02  5.43269e-01 -1.21112e+02 
-2.17754e+02  5.48210e-01 -1.27258e+02 
-1.88754e+02  5.38340e-01 -1.32630e+02 
-1.59743e+02  5.13572e-01 -1.37229e+02 
-1.30720e+02  4.74591e-01 -1.41058e+02 
-1.01684e+02  4.22799e-01 -1.44118e+02 
-7.26380e+01  3.60204e-01 -1.46412e+02 
-4.35836e+01  2.89449e-01 -1.47941e+02 
-1.45240e+01  2.13153e-01 -1.48705e+02 
 1.45384e+01  1.35256e-01 -1.48705e+02 
 4.35987e+01  5.80567e-02 -1.47941e+02 
 7.26544e+01 -1.44620e-02 -1.46413e+02 
 1.01702e+02 -7.96441e-02 -1.44120e+02 
 1.30740e+02 -1.34761e-01 -1.41059e+02 
 1.59765e+02 -1.77708e-01 -1.37230e+02 
 1.88778e+02 -2.06960e-01 -1.32631e+02 
 2.17778e+02 -2.21700e-01 -1.27259e+02 
 2.46767e+02 -2.21862e-01 -1.21112e+02 
 2.75747e+02 -2.08147e-01 -1.14188e+02 
 3.04721e+02 -1.82033e-01 -1.06485e+02 
 3.33695e+02 -1.45606e-01 -9.80022e+01 
 3.62671e+02 -1.01883e-01 -8.87357e+01 
 3.91670e+02 -5.30343e-02 -7.86902e+01 
 4.20642e+02 -6.50568e-03 -6.78454e+01 
 4.49807e+02  4.94979e-02 -5.62752e+01 
 4.76628e+02  5.67299e-02 -4.37485e+01 
 5.00819e+02  2.32469e-01 -3.12956e+01 
 5.64696e+02 -3.90428e-01 -1.44040e+01 
 6.60908e+02  1.92361e+00 -8.59920e+00 
-6.44586e+02 -5.18341e+00 -1.58408e+00 
-5.49453e+02  1.81849e+00 -1.65801e+01 
-4.87646e+02 -2.23532e-01 -3.08095e+01 
-4.64103e+02  3.05972e-01 -4.39030e+01 
-4.37975e+02  2.35817e-01 -5.62893e+01 
-4.09568e+02  3.25937e-01 -6.79094e+01 
-3.81362e+02  3.75198e-01 -7.87443e+01 
-3.53128e+02  4.35908e-01 -8.87909e+01 
-3.24920e+02  4.88881e-01 -9.80506e+01 
-2.96714e+02  5.34539e-01 -1.06525e+02 
-2.68508e+02  5.68575e-01 -1.14216e+02 
-2.40296e+02  5.88750e-01 -1.21125e+02 
-2.12074e+02  5.93218e-01 -1.27256e+02 
-1.83839e+02  5.81078e-01 -1.32612e+02 
-1.55589e+02  5.52274e-01 -1.37196e+02 
-1.27324e+02  5.07611e-01 -1.41011e+02 
-9.90450e+01  4.48689e-01 -1.44059e+02 
-7.07539e+01  3.77791e-01 -1.46343e+02 
-4.24531e+01  2.97886e-01 -1.47864e+02 
-1.41464e+01  2.11973e-01 -1.48624e+02 
 1.41634e+01  1.24369e-01 -1.48624e+02 
 4.24707e+01  3.77954e-02 -1.47863e+02 
 7.07726e+01 -4.33968e-02 -1.46341e+02 
 9.90652e+01 -1.16190e-01 -1.44057e+02 
 1.27346e+02 -1.77557e-01 -1.41008e+02 
 1.55612e+02 -2.25151e-01 -1.37193e+02 
 1.83864e+02 -2.57290e-01 -1.32608e+02 
 2.12100e+02 -2.73078e-01 -1.27252e+02 
 2.40322e+02 -2.72468e-01 -1.21120e+02 
 2.68533e+02 -2.56267e-01 -1.14210e+02 
 2.96736e+02 -2.26150e-01 -1.06519e+02 
 3.24937e+02 -1.84485e-01 -9.80451e+01 
 3.53138e+02 -1.34619e-01 -8.87849e+01 
 3.81361e+02 -7.91937e-02 -7.87421e+01 
 4.09559e+02 -2.58325e-02 -6.78966e+01 
 4.37945e+02  3.58325e-02 -5.63213e+01 
 4.64050e+02  5.05413e-02 -4.37887e+01 
 4.87596e+02  2.21862e-01 -3.13176e+01 
 5.49798e+02 -3.62043e-01 -1.44471e+01 
 6.43470e+02  1.82776e+00 -8.51172e+00 
-6.27133e+02 -5.09211e+00 -1.68103e+00 
-5.34540e+02  1.79193e+00 -1.65678e+01 
-4.74412e+02 -2.11373e-01 -3.08486e+01 
-4.51516e+02  3.15811e-01 -4.39460e+01 
-4.26107e+02  2.54903e-01 -5.63438e+01 
-3.98482e+02  3.52547e-01 -6.79691e+01 
-3.71055e+02  4.10277e-01 -7.88058e+01 
-3.43601e+02  4.78881e-01 -8.88498e+01 
-3.16171e+02  5.38872e-01 -9.81029e+01 
-2.88741e+02  5.90124e-01 -1.06567e+02 
-2.61309e+02  6.27952e-01 -1.14244e+02 
-2.33867e+02  6.49820e-01 -1.21138e+02 
-2.06412e+02  6.53698e-01 -1.27252e+02 
-1.78941e+02  6.38623e-01 -1.32591e+02 
-1.51451e+02  6.04587e-01 -1.37157e+02 
-1.23944e+02  5.52556e-01 -1.40956e+02 
-9.64190e+01  4.84393e-01 -1.43990e+02 
-6.88800e+01  4.02730e-01 -1.46263e+02 
-4.13295e+01  3.10953e-01 -1.47776e+02 
-1.37722e+01  2.12539e-01 -1.48532e+02 
 1.37886e+01  1.12287e-01 -1.48532e+02 
 4.13465e+01  1.34499e-02 -1.47774e+02 
 6.88979e+01 -7.91506e-02 -1.46259e+02 
 9.64382e+01 -1.62038e-01 -1.43985e+02 
 1.23964e+02 -2.31793e-01 -1.40950e+02 
 1.51473e+02 -2.85756e-01 -1.37150e+02 
 1.78964e+02 -3.22022e-01 -1.32582e+02 
 2.06436e+02 -3.39581e-01 -1.27243e+02 
 2.33891e+02 -3.38379e-01 -1.21128e+02 
 2.61331e+02 -3.19338e-01 -1.14234e+02 
 2.88760e+02 -2.84357e-01 -1.06557e+02 
 3.16186e+02 -2.36141e-01 -9.80935e+01 
 3.43609e+02 -1.78447e-01 -8.88405e+01 
 3.71053e+02 -1.14494e-01 -7.88009e+01 
 3.98473e+02 -5.22049e-02 -6.79545e+01 
 4.26076e+02  1.72103e-02 -5.63736e+01 
 4.51462e+02  4.13240e-02 -4.38340e+01 
 4.74362e+02  2.09814e-01 -3.13431e+01 
 5.34884e+02 -3.33713e-01 -1.44918e+01 
 6.26013e+02  1.73154e+00 -8.42404e+00 
-6.09658e+02 -5.00081e+00 -1.77961e+00 
-5.19608e+02  1.76630e+00 -1.65589e+01 
-4.61161e+02 -1.96756e-01 -3.08940e+01 
-4.38915e+02  3.30068e-01 -4.39971e+01 
-4.14229e+02  2.80647e-01 -5.64078e+01 
-3.87391e+02  3.88214e-01 -6.80390e+01 
-3.60747e+02  4.56806e-01 -7.88774e+01 
-3.34077e+02  5.35527e-01 -8.89181e+01 
-3.07429e+02  6.04453e-01 -9.81633e+01 
-2.80779e+02  6.62792e-01 -1.06615e+02 
-2.54123e+02  7.05393e-01 -1.14277e+02 
-2.27454e+02  7.29360e-01 -1.21153e+02 
-2.00767e+02  7.32452e-01 -1.27247e+02 
-1.74059e+02  7.13637e-01 -1.32565e+02 
-1.47329e+02  6.72979e-01 -1.37112e+02 
-1.20577e+02  6.11652e-01 -1.40893e+02 
-9.38047e+01  5.31849e-01 -1.43911e+02 
-6.70147e+01  4.36635e-01 -1.46171e+02 
-4.02110e+01  3.29917e-01 -1.47676e+02 
-1.33991e+01  2.15758e-01 -1.48427e+02 
 1.34167e+01  9.95532e-02 -1.48426e+02 
 4.02291e+01 -1.47938e-02 -1.47673e+02 
 6.70336e+01 -1.21875e-01 -1.46166e+02 
 9.38249e+01 -2.17646e-01 -1.43904e+02 
 1.20599e+02 -2.98199e-01 -1.40884e+02 
 1.47352e+02 -3.60475e-01 -1.37102e+02 
 1.74083e+02 -4.02281e-01 -1.32553e+02 
 2.00792e+02 -4.22446e-01 -1.27234e+02 
 2.27478e+02 -4.20891e-01 -1.21139e+02 
 2.54146e+02 -3.98654e-01 -1.14263e+02 
 2.80799e+02 -3.57891e-01 -1.06601e+02 
 3.07445e+02 -3.01707e-01 -9.81504e+01 
 3.34087e+02 -2.34355e-01 -8.89058e+01 
 3.60747e+02 -1.59749e-01 -7.88700e+01 
 3.87384e+02 -8.62472e-02 -6.80228e+01 
 4.14200e+02 -6.79689e-03 -5.64356e+01 
 4.38864e+02  2.88750e-02 -4.38877e+01 
 4.61114e+02  1.96194e-01 -3.13751e+01 
 5.19955e+02 -3.05970e-01 -1.45400e+01 
 6.08537e+02  1.63505e+00 -8.33832e+00 
-5.92161e+02 -4.90926e+00 -1.87874e+00 
-5.04658e+02  1.74178e+00 -1.65533e+01 
-4.47896e+02 -1.79970e-01 -3.09459e+01 
-4.26302e+02  3.48556e-01 -4.40571e+01 
-4.02343e+02  3.13071e-01 -5.64822e+01 
-3.76298e+02  4.33223e-01 -6.81199e+01 
-3.50442e+02  5.15322e-01 -7.89599e+01 
-3.24561e+02  6.06616e-01 -8.89963e+01 
-2.98700e+02  6.86583e-01 -9.82319e+01 
-2.72833e+02  7.53638e-01 -1.06669e+02 
-2.46957e+02  8.02070e-01 -1.14313e+02 
-2.21062e+02  8.28557e-01 -1.21167e+02 
-1.95145e+02  8.30615e-01 -1.27239e+02 
-1.69201e+02  8.07138e-01 -1.32534e+02 
-1.43229e+02  7.58293e-01 -1.37058e+02 
-1.17230e+02  6.85510e-01 -1.40818e+02 
-9.12066e+01  5.91390e-01 -1.43818e+02 
-6.51618e+01  4.79526e-01 -1.46063e+02 
-3.91007e+01  3.54454e-01 -1.47557e+02 
-1.30296e+01  2.20946e-01 -1.48303e+02 
 1.30459e+01  8.51229e-02 -1.48302e+02 
 3.91174e+01 -4.83334e-02 -1.47553e+02 
 6.51793e+01 -1.73301e-01 -1.46056e+02 
 9.12252e+01 -2.85045e-01 -1.43809e+02 
 1.17250e+02 -3.79063e-01 -1.40806e+02 
 1.43250e+02 -4.51802e-01 -1.37045e+02 
 1.69223e+02 -5.00710e-01 -1.32519e+02 
 1.95167e+02 -5.24404e-01 -1.27223e+02 
 2.21084e+02 -5.22755e-01 -1.21150e+02 
 2.46978e+02 -4.96923e-01 -1.14295e+02 
 2.72852e+02 -4.49356e-01 -1.06652e+02 
 2.98714e+02 -3.83625e-01 -9.82161e+01 
 3.24570e+02 -3.04577e-01 -8.89816e+01 
 3.50441e+02 -2.16948e-01 -7.89505e+01 
 3.76290e+02 -1.29682e-01 -6.81026e+01 
 4.02314e+02 -3.76524e-02 -5.65084e+01 
 4.26251e+02  1.19988e-02 -4.39505e+01 
 4.47850e+02  1.80296e-01 -3.14140e+01 
 5.05005e+02 -2.78340e-01 -1.45914e+01 
 5.91036e+02  1.53789e+00 -8.25303e+00 
-5.74636e+02 -4.81887e+00 -1.98007e+00 
-4.89682e+02  1.71836e+00 -1.65531e+01 
-4.34611e+02 -1.60224e-01 -3.10075e+01 
-4.13674e+02  3.72544e-01 -4.41296e+01 
-3.90447e+02  3.53791e-01 -5.65711e+01 
-3.65200e+02  4.89499e-01 -6.82161e+01 
-3.40138e+02  5.88034e-01 -7.90575e+01 
-3.15052e+02  6.94597e-01 -8.90884e+01 
-2.89983e+02  7.87903e-01 -9.83122e+01 
-2.64905e+02  8.65437e-01 -1.06732e+02 
-2.39811e+02  9.20823e-01 -1.14354e+02 
-2.14693e+02  9.50250e-01 -1.21184e+02 
-1.89546e+02  9.50953e-01 -1.27229e+02 
-1.64366e+02  9.21756e-01 -1.32496e+02 
-1.39151e+02  8.62952e-01 -1.36994e+02 
-1.13903e+02  7.76294e-01 -1.40729e+02 
-8.86252e+01  6.64868e-01 -1.43708e+02 
-6.33213e+01  5.32906e-01 -1.45937e+02 
-3.79978e+01  3.85690e-01 -1.47419e+02 
-1.26622e+01  2.28836e-01 -1.48159e+02 
 1.26784e+01  6.93312e-02 -1.48157e+02 
 3.80143e+01 -8.72220e-02 -1.47415e+02 
 6.33385e+01 -2.33847e-01 -1.45929e+02 
 8.86434e+01 -3.64990e-01 -1.43698e+02 
 1.13923e+02 -4.75430e-01 -1.40716e+02 
 1.39172e+02 -5.61023e-01 -1.36978e+02 
 1.64387e+02 -6.18774e-01 -1.32479e+02 
 1.89568e+02 -6.47032e-01 -1.27210e+02 
 2.14715e+02 -6.45592e-01 -1.21164e+02 
 2.39832e+02 -6.15742e-01 -1.14334e+02 
 2.64923e+02 -5.60256e-01 -1.06713e+02 
 2.89998e+02 -4.83244e-01 -9.82939e+01 
 3.15062e+02 -3.90252e-01 -8.90713e+01 
 3.40139e+02 -2.86982e-01 -7.90461e+01 
 3.65194e+02 -1.83133e-01 -6.81977e+01 
 3.90421e+02 -7.57264e-02 -5.65956e+01 
 4.13625e+02 -9.57086e-03 -4.40259e+01 
 4.34567e+02  1.61589e-01 -3.14627e+01 
 4.90032e+02 -2.51909e-01 -1.46482e+01 
 5.73507e+02  1.44034e+00 -8.16991e+00 
-5.57074e+02 -4.72809e+00 -2.08347e+00 
-4.74678e+02  1.69539e+00 -1.65588e+01 
-4.21303e+02 -1.38603e-01 -3.10804e+01 
-4.01027e+02  4.01012e-01 -4.42168e+01 
-3.78538e+02  4.02157e-01 -5.66768e+01 
-3.54096e+02  5.56781e-01 -6.83299e+01 
-3.29837e+02  6.75069e-01 -7.91723e+01 
-3.05552e+02  7.99955e-01 -8.91960e+01 
-2.81281e+02  9.09200e-01 -9.84055e+01 
-2.56996e+02  9.99216e-01 -1.06805e+02 
-2.32690e+02  1.06285e+00 -1.14401e+02 
-2.08352e+02  1.09573e+00 -1.21201e+02 
-1.83976e+02  1.09477e+00 -1.27215e+02 
-1.59559e+02  1.05874e+00 -1.32450e+02 
-1.35100e+02  9.88088e-01 -1.36917e+02 
-1.10600e+02  8.84951e-01 -1.40624e+02 
-8.60636e+01  7.52999e-01 -1.43578e+02 
-6.14957e+01  5.97214e-01 -1.45787e+02 
-3.69041e+01  4.23760e-01 -1.47256e+02 
-1.22981e+01  2.39242e-01 -1.47989e+02 
 1.23139e+01  5.16678e-02 -1.47987e+02 
 3.69203e+01 -1.32285e-01 -1.47251e+02 
 6.15125e+01 -3.04633e-01 -1.45779e+02 
 8.60812e+01 -4.58858e-01 -1.43566e+02 
 1.10619e+02 -5.88893e-01 -1.40609e+02 
 1.35120e+02 -6.89888e-01 -1.36900e+02 
 1.59580e+02 -7.58318e-01 -1.32431e+02 
 1.83998e+02 -7.92203e-01 -1.27194e+02 
 2.08373e+02 -7.91230e-01 -1.21179e+02 
 2.32710e+02 -7.56815e-01 -1.14378e+02 
 2.57015e+02 -6.92099e-01 -1.06783e+02 
 2.81297e+02 -6.01804e-01 -9.83848e+01 
 3.05563e+02 -4.92291e-01 -8.91768e+01 
 3.29839e+02 -3.70378e-01 -7.91590e+01 
 3.54092e+02 -2.46704e-01 -6.83103e+01 
 3.78514e+02 -1.20669e-01 -5.66995e+01 
 4.00980e+02 -3.49109e-02 -4.41156e+01 
 4.21260e+02  1.41494e-01 -3.15226e+01 
 4.75029e+02 -2.25081e-01 -1.47112e+01 
 5.55942e+02  1.34153e+00 -8.08935e+00 
-5.39473e+02 -4.63846e+00 -2.18893e+00 
-4.59639e+02  1.67434e+00 -1.65713e+01 
-4.07968e+02 -1.13729e-01 -3.11666e+01 
-3.88360e+02  4.35559e-01 -4.43213e+01 
-3.66618e+02  4.59924e-01 -5.68024e+01 
-3.42990e+02  6.37115e-01 -6.84647e+01 
-3.19540e+02  7.78748e-01 -7.93075e+01 
-2.96066e+02  9.25241e-01 -8.93221e+01 
-2.72600e+02  1.05320e+00 -9.85142e+01 
-2.49114e+02  1.15780e+00 -1.06889e+02 
-2.25599e+02  1.23099e+00 -1.14454e+02 
-2.02044e+02  1.26777e+00 -1.21220e+02 
-1.78441e+02  1.26472e+00 -1.27196e+02 
-1.54788e+02  1.22052e+00 -1.32394e+02 
-1.31082e+02  1.13584e+00 -1.36825e+02 
-1.07326e+02  1.01327e+00 -1.40498e+02 
-8.35261e+01  8.57166e-01 -1.43424e+02 
-5.96883e+01  6.73389e-01 -1.45611e+02 
-3.58220e+01  4.69128e-01 -1.47064e+02 
-1.19382e+01  2.52137e-01 -1.47789e+02 
 1.19524e+01  3.16097e-02 -1.47787e+02 
 3.58365e+01 -1.84531e-01 -1.47059e+02 
 5.97033e+01 -3.87130e-01 -1.45602e+02 
 8.35419e+01 -5.68549e-01 -1.43412e+02 
 1.07343e+02 -7.21733e-01 -1.40483e+02 
 1.31100e+02 -8.41004e-01 -1.36806e+02 
 1.54806e+02 -9.22209e-01 -1.32373e+02 
 1.78461e+02 -9.62970e-01 -1.27173e+02 
 2.02063e+02 -9.62831e-01 -1.21196e+02 
 2.25618e+02 -9.23334e-01 -1.14430e+02 
 2.49132e+02 -8.48026e-01 -1.06864e+02 
 2.72615e+02 -7.42321e-01 -9.84913e+01 
 2.96076e+02 -6.13512e-01 -8.93009e+01 
 3.19543e+02 -4.69695e-01 -7.92923e+01 
 3.42986e+02 -3.22644e-01 -6.84439e+01 
 3.66595e+02 -1.74400e-01 -5.68233e+01 
 3.88315e+02 -6.56369e-02 -4.42227e+01 
 4.07927e+02  1.18790e-01 -3.15957e+01 
 4.59992e+02 -1.98182e-01 -1.47811e+01 
 5.38334e+02  1.24261e+00 -8.01050e+00 
-5.21817e+02 -4.54840e+00 -2.29857e+00 
-4.44557e+02  1.65512e+00 -1.65930e+01 
-3.94599e+02 -8.41157e-02 -3.12697e+01 
-3.75667e+02  4.78462e-01 -4.44475e+01 
-3.54681e+02  5.29921e-01 -5.69528e+01 
-3.31876e+02  7.33683e-01 -6.86253e+01 
-3.09247e+02  9.02538e-01 -7.94677e+01 
-2.86592e+02  1.07414e+00 -8.94709e+01 
-2.63940e+02  1.22372e+00 -9.86417e+01 
-2.41261e+02  1.34506e+00 -1.06987e+02 
-2.18543e+02  1.42911e+00 -1.14516e+02 
-1.95773e+02  1.47015e+00 -1.21240e+02 
-1.72945e+02  1.46437e+00 -1.27173e+02 
-1.50054e+02  1.41042e+00 -1.32327e+02 
-1.27099e+02  1.30922e+00 -1.36716e+02 
-1.04084e+02  1.16389e+00 -1.40351e+02 
-8.10145e+01  9.79579e-01 -1.43243e+02 
-5.79000e+01  7.63171e-01 -1.45404e+02 
-3.47512e+01  5.23036e-01 -1.46839e+02 
-1.15815e+01  2.68247e-01 -1.47554e+02 
 1.15962e+01  9.36571e-03 -1.47552e+02 
 3.47662e+01 -2.44262e-01 -1.46833e+02 
 5.79153e+01 -4.82128e-01 -1.45395e+02 
 8.10305e+01 -6.95308e-01 -1.43231e+02 
 1.04101e+02 -8.75607e-01 -1.40334e+02 
 1.27116e+02 -1.01639e+00 -1.36696e+02 
 1.50072e+02 -1.11276e+00 -1.32305e+02 
 1.72964e+02 -1.16187e+00 -1.27149e+02 
 1.95792e+02 -1.16309e+00 -1.21215e+02 
 2.18562e+02 -1.11806e+00 -1.14489e+02 
 2.41279e+02 -1.03080e+00 -1.06960e+02 
 2.63956e+02 -9.07467e-01 -9.86166e+01 
 2.86604e+02 -7.56426e-01 -8.94475e+01 
 3.09252e+02 -5.87221e-01 -7.94503e+01 
 3.31876e+02 -4.12964e-01 -6.86029e+01 
 3.54662e+02 -2.38620e-01 -5.69714e+01 
 3.75626e+02 -1.03107e-01 -4.43511e+01 
 3.94561e+02  9.22744e-02 -3.16857e+01 
 4.44914e+02 -1.72280e-01 -1.48603e+01 
 5.20675e+02  1.14140e+00 -7.93502e+00 
-5.04102e+02 -4.45918e+00 -2.41170e+00 
-4.29426e+02  1.63756e+00 -1.66249e+01 
-3.81192e+02 -5.08717e-02 -3.13917e+01 
-3.62947e+02  5.28768e-01 -4.45979e+01 
-3.42729e+02  6.11604e-01 -5.71307e+01 
-3.20760e+02  8.46405e-01 -6.88144e+01 
-2.98963e+02  1.04677e+00 -7.96554e+01 
-2.77138e+02  1.24733e+00 -8.96443e+01 
-2.55310e+02  1.42172e+00 -9.87894e+01 
-2.33445e+02  1.56217e+00 -1.07099e+02 
-2.11529e+02  1.65848e+00 -1.14585e+02 
-1.89549e+02  1.70416e+00 -1.21262e+02 
-1.67497e+02  1.69501e+00 -1.27143e+02 
-1.45367e+02  1.62962e+00 -1.32246e+02 
-1.23160e+02  1.50922e+00 -1.36585e+02 
-1.00881e+02  1.33756e+00 -1.40175e+02 
-7.85355e+01  1.12072e+00 -1.43030e+02 
-5.61362e+01  8.66719e-01 -1.45160e+02 
-3.36959e+01  5.85301e-01 -1.46574e+02 
-1.12305e+01  2.87033e-01 -1.47278e+02 
 1.12441e+01 -1.59645e-02 -1.47277e+02 
 3.37096e+01 -3.12727e-01 -1.46568e+02 
 5.61501e+01 -5.91207e-01 -1.45150e+02 
 7.85497e+01 -8.41015e-01 -1.43017e+02 
 1.00895e+02 -1.05265e+00 -1.40159e+02 
 1.23175e+02 -1.21838e+00 -1.36566e+02 
 1.45383e+02 -1.33246e+00 -1.32224e+02 
 1.67513e+02 -1.39148e+00 -1.27118e+02 
 1.89566e+02 -1.39457e+00 -1.21235e+02 
 2.11545e+02 -1.34351e+00 -1.14557e+02 
 2.33460e+02 -1.24276e+00 -1.07071e+02 
 2.55323e+02 -1.09937e+00 -9.87622e+01 
 2.77149e+02 -9.22858e-01 -8.96187e+01 
 2.98968e+02 -7.24407e-01 -7.96358e+01 
 3.20760e+02 -5.18683e-01 -6.87902e+01 
 3.42711e+02 -3.13885e-01 -5.71469e+01 
 3.62908e+02 -1.47400e-01 -4.45035e+01 
 3.81157e+02  6.23550e-02 -3.17944e+01 
 4.29784e+02 -1.46306e-01 -1.49496e+01 
 5.02951e+02  1.03881e+00 -7.86230e+00 
-4.86308e+02 -4.36948e+00 -2.53088e+00 
-4.14232e+02  1.62243e+00 -1.66697e+01 
-3.67739e+02 -1.21395e-02 -3.15375e+01 
-3.50192e+02  5.88763e-01 -4.47782e+01 
-3.30756e+02  7.07620e-01 -5.73423e+01 
-3.09637e+02  9.78236e-01 -6.90382e+01 
-2.88686e+02  1.21465e+00 -7.98764e+01 
-2.67704e+02  1.44819e+00 -8.98474e+01 
-2.46711e+02  1.65070e+00 -9.89615e+01 
-2.25669e+02  1.81264e+00 -1.07229e+02 
-2.04563e+02  1.92259e+00 -1.14665e+02 
-1.83377e+02  1.97321e+00 -1.21284e+02 
-1.62102e+02  1.95987e+00 -1.27106e+02 
-1.40733e+02  1.88113e+00 -1.32149e+02 
-1.19270e+02  1.73858e+00 -1.36431e+02 
-9.77203e+01  1.53671e+00 -1.39970e+02 
-7.60918e+01  1.28263e+00 -1.42779e+02 
-5.43984e+01  9.85700e-01 -1.44874e+02 
-3.26562e+01  6.57175e-01 -1.46264e+02 
-1.08840e+01  3.09322e-01 -1.46957e+02 
 1.08990e+01 -4.39803e-02 -1.46955e+02 
 3.26711e+01 -3.89947e-01 -1.46259e+02 
 5.44132e+01 -7.14792e-01 -1.44866e+02 
 7.61065e+01 -1.00648e+00 -1.42767e+02 
 9.77349e+01 -1.25402e+00 -1.39954e+02 
 1.19285e+02 -1.44844e+00 -1.36412e+02 
 1.40748e+02 -1.58302e+00 -1.32127e+02 
 1.62117e+02 -1.65371e+00 -1.27081e+02 
 1.83392e+02 -1.65934e+00 -1.21257e+02 
 2.04578e+02 -1.60181e+00 -1.14635e+02 
 2.25684e+02 -1.48608e+00 -1.07199e+02 
 2.46724e+02 -1.32011e+00 -9.89322e+01 
 2.67716e+02 -1.11476e+00 -8.98193e+01 
 2.88692e+02 -8.83007e-01 -7.98540e+01 
 3.09640e+02 -6.41292e-01 -6.90115e+01 
 3.30741e+02 -4.01383e-01 -5.73552e+01 
 3.50157e+02 -1.99347e-01 -4.46851e+01 
 3.67708e+02  2.83711e-02 -3.19262e+01 
 4.14597e+02 -1.20742e-01 -1.50519e+01 
 4.85152e+02  9.34255e-01 -7.79435e+00 
-4.68425e+02 -4.28026e+00 -2.65583e+00 
-3.98969e+02  1.60957e+00 -1.67287e+01 
-3.54233e+02  3.14777e-02 -3.17096e+01 
-3.37400e+02  6.58139e-01 -4.49917e+01 
-3.18762e+02  8.17972e-01 -5.75910e+01 
-2.98511e+02  1.12949e+00 -6.93001e+01 
-2.78423e+02  1.40677e+00 -8.01338e+01 
-2.58299e+02  1.67754e+00 -9.00828e+01 
-2.38153e+02  1.91158e+00 -9.91598e+01 
-2.17944e+02  2.09750e+00 -1.07378e+02 
-1.97655e+02  2.22251e+00 -1.14754e+02 
-1.77267e+02  2.27834e+00 -1.21307e+02 
-1.56771e+02  2.25990e+00 -1.27060e+02 
-1.36161e+02  2.16577e+00 -1.32034e+02 
-1.15439e+02  1.99796e+00 -1.36250e+02 
-9.46121e+01  1.76179e+00 -1.39728e+02 
-7.36913e+01  1.46556e+00 -1.42487e+02 
-5.26930e+01  1.12009e+00 -1.44541e+02 
-3.16366e+01  7.38366e-01 -1.45904e+02 
-1.05448e+01  3.34548e-01 -1.46582e+02 
 1.05597e+01 -7.55192e-02 -1.46580e+02 
 3.16513e+01 -4.77025e-01 -1.45899e+02 
 5.27071e+01 -8.54242e-01 -1.44534e+02 
 7.37048e+01 -1.19328e+00 -1.42476e+02 
 9.46251e+01 -1.48152e+00 -1.39714e+02 
 1.15452e+02 -1.70855e+00 -1.36232e+02 
 1.36173e+02 -1.86658e+00 -1.32012e+02 
 1.56783e+02 -1.95079e+00 -1.27035e+02 
 1.77279e+02 -1.95969e+00 -1.21280e+02 
 1.97667e+02 -1.89524e+00 -1.14724e+02 
 2.17956e+02 -1.76295e+00 -1.07346e+02 
 2.38163e+02 -1.57180e+00 -9.91283e+01 
 2.58308e+02 -1.33406e+00 -9.00520e+01 
 2.78428e+02 -1.06470e+00 -8.01082e+01 
 2.98515e+02 -7.82157e-01 -6.92704e+01 
 3.18750e+02 -5.02123e-01 -5.76000e+01 
 3.37368e+02 -2.59558e-01 -4.48992e+01 
 3.54205e+02 -9.88408e-03 -3.20838e+01 
 3.99337e+02 -9.48929e-02 -1.51687e+01 
 4.67260e+02  8.27178e-01 -7.73025e+00 
-4.50429e+02 -4.19010e+00 -2.78939e+00 
-3.83617e+02  1.59974e+00 -1.68050e+01 
-3.40662e+02  8.17788e-02 -3.19133e+01 
-3.24562e+02  7.39038e-01 -4.52445e+01 
-3.06743e+02  9.45055e-01 -5.78835e+01 
-2.87380e+02  1.30272e+00 -6.96066e+01 
-2.68173e+02  1.62573e+00 -8.04335e+01 
-2.48924e+02  1.93796e+00 -9.03557e+01 
-2.29640e+02  2.20695e+00 -9.93885e+01 
-2.10277e+02  2.41925e+00 -1.07548e+02 
-1.90813e+02  2.56061e+00 -1.14855e+02 
-1.71229e+02  2.62178e+00 -1.21332e+02 
-1.51513e+02  2.59721e+00 -1.27005e+02 
-1.31661e+02  2.48548e+00 -1.31898e+02 
-1.11674e+02  2.28912e+00 -1.36038e+02 
-9.15617e+01  2.01436e+00 -1.39447e+02 
-7.13380e+01  1.67084e+00 -1.42147e+02 
-5.10224e+01  1.27102e+00 -1.44155e+02 
-3.06381e+01  8.29796e-01 -1.45486e+02 
-1.02117e+01  3.63421e-01 -1.46148e+02 
 1.02294e+01 -1.10084e-01 -1.46147e+02 
 3.06551e+01 -5.73674e-01 -1.45482e+02 
 5.10384e+01 -1.00948e+00 -1.44149e+02 
 7.13527e+01 -1.40156e+00 -1.42138e+02 
 9.15749e+01 -1.73547e+00 -1.39435e+02 
 1.11686e+02 -1.99924e+00 -1.36022e+02 
 1.31671e+02 -2.18382e+00 -1.31878e+02 
 1.51523e+02 -2.28358e+00 -1.26980e+02 
 1.71239e+02 -2.29660e+00 -1.21304e+02 
 1.90822e+02 -2.22492e+00 -1.14824e+02 
 2.10286e+02 -2.07460e+00 -1.07515e+02 
 2.29649e+02 -1.85569e+00 -9.93547e+01 
 2.48933e+02 -1.58202e+00 -9.03217e+01 
 2.68178e+02 -1.27071e+00 -8.04040e+01 
 2.87385e+02 -9.42423e-01 -6.95729e+01 
 3.06734e+02 -6.17095e-01 -5.78876e+01 
 3.24535e+02 -3.28771e-01 -4.51516e+01 
 3.40640e+02 -5.30423e-02 -3.22720e+01 
 3.83994e+02 -6.91566e-02 -1.53031e+01 
 4.49259e+02  7.17037e-01 -7.67209e+00 
-4.32303e+02 -4.09974e+00 -2.93186e+00 
-3.68166e+02  1.59274e+00 -1.69005e+01 
-3.27019e+02  1.38085e-01 -3.21521e+01 
-3.11675e+02  8.30900e-01 -4.55407e+01 
-2.94699e+02  1.08841e+00 -5.82239e+01 
-2.76247e+02  1.49750e+00 -6.99616e+01 
-2.57943e+02  1.87112e+00 -8.07790e+01 
-2.39589e+02  2.22902e+00 -9.06687e+01 
-2.21183e+02  2.53629e+00 -9.96495e+01 
-2.02679e+02  2.77731e+00 -1.07741e+02 
-1.84050e+02  2.93626e+00 -1.14967e+02 
-1.65275e+02  3.00285e+00 -1.21356e+02 
-1.46341e+02  2.97106e+00 -1.26936e+02 
-1.27243e+02  2.83951e+00 -1.31738e+02 
-1.07986e+02  2.61127e+00 -1.35791e+02 
-8.85796e+01  2.29364e+00 -1.39122e+02 
-6.90411e+01  1.89769e+00 -1.41754e+02 
-4.93938e+01  1.43773e+00 -1.43710e+02 
-2.96656e+01  9.30749e-01 -1.45004e+02 
-9.88775e+00  3.95276e-01 -1.45648e+02 
 9.90715e+00 -1.48283e-01 -1.45647e+02 
 2.96840e+01 -6.80448e-01 -1.45001e+02 
 4.94105e+01 -1.18100e+00 -1.43705e+02 
 6.90555e+01 -1.63178e+00 -1.41747e+02 
 8.85915e+01 -2.01632e+00 -1.39111e+02 
 1.07996e+02 -2.32093e+00 -1.35777e+02 
 1.27251e+02 -2.53520e+00 -1.31720e+02 
 1.46347e+02 -2.65254e+00 -1.26913e+02 
 1.65279e+02 -2.67056e+00 -1.21329e+02 
 1.84054e+02 -2.59136e+00 -1.14936e+02 
 2.02683e+02 -2.42157e+00 -1.07706e+02 
 2.21188e+02 -2.17238e+00 -9.96132e+01 
 2.39594e+02 -1.85927e+00 -9.06312e+01 
 2.57946e+02 -1.50168e+00 -8.07450e+01 
 2.76251e+02 -1.12266e+00 -6.99231e+01 
 2.94691e+02 -7.46751e-01 -5.82220e+01 
 3.11651e+02 -4.07223e-01 -4.54462e+01 
 3.27003e+02 -1.01119e-01 -3.24942e+01 
 3.68552e+02 -4.26657e-02 -1.54572e+01 
 4.31125e+02  6.03207e-01 -7.61913e+00 
-4.14017e+02 -4.00777e+00 -3.08641e+00 
-3.52594e+02  1.58929e+00 -1.70186e+01 
-3.13291e+02  2.01927e-01 -3.24317e+01 
-2.98728e+02  9.35308e-01 -4.58866e+01 
-2.82624e+02  1.24949e+00 -5.86189e+01 
-2.65110e+02  1.71504e+00 -7.03715e+01 
-2.47735e+02  2.14381e+00 -8.11759e+01 
-2.30298e+02  2.55121e+00 -9.10267e+01 
-2.12790e+02  2.89977e+00 -9.99466e+01 
-1.95158e+02  3.17156e+00 -1.07959e+02 
-1.77375e+02  3.34913e+00 -1.15093e+02 
-1.59414e+02  3.42110e+00 -1.21380e+02 
-1.41264e+02  3.38092e+00 -1.26855e+02 
-1.22919e+02  3.22729e+00 -1.31553e+02 
-1.04385e+02  2.96391e+00 -1.35506e+02 
-8.56733e+01  2.59920e+00 -1.38747e+02 
-6.68062e+01  2.14587e+00 -1.41304e+02 
-4.78111e+01  1.62019e+00 -1.43199e+02 
-2.87207e+01  1.04142e+00 -1.44452e+02 
-9.57220e+00  4.30569e-01 -1.45076e+02 
 9.59610e+00 -1.89385e-01 -1.45075e+02 
 2.87432e+01 -7.96350e-01 -1.44451e+02 
 4.78309e+01 -1.36758e+00 -1.43197e+02 
 6.68225e+01 -1.88251e+00 -1.41299e+02 
 8.56857e+01 -2.32250e+00 -1.38740e+02 
 1.04393e+02 -2.67197e+00 -1.35495e+02 
 1.22925e+02 -2.91902e+00 -1.31537e+02 
 1.41267e+02 -3.05600e+00 -1.26834e+02 
 1.59415e+02 -3.08000e+00 -1.21354e+02 
 1.77374e+02 -2.99313e+00 -1.15061e+02 
 1.95158e+02 -2.80265e+00 -1.07923e+02 
 2.12790e+02 -2.52092e+00 -9.99077e+01 
 2.30299e+02 -2.16516e+00 -9.09853e+01 
 2.47736e+02 -1.75729e+00 -8.11366e+01 
 2.65115e+02 -1.32283e+00 -7.03270e+01 
 2.82619e+02 -8.91295e-01 -5.86095e+01 
 2.98711e+02 -4.95171e-01 -4.57892e+01 
 3.13283e+02 -1.54506e-01 -3.27556e+01 
 3.52995e+02 -1.55893e-02 -1.56345e+01 
 4.12836e+02  4.84892e-01 -7.57336e+00 
-3.95545e+02 -3.91344e+00 -3.25429e+00 
-3.36886e+02  1.58947e+00 -1.71613e+01 
-2.99465e+02  2.72902e-01 -3.27559e+01 
-2.85719e+02  1.05149e+00 -4.62863e+01 
-2.70518e+02  1.42707e+00 -5.90724e+01 
-2.53974e+02  1.95353e+00 -7.08397e+01 
-2.37556e+02  2.44138e+00 -8.16273e+01 
-2.21061e+02  2.90157e+00 -9.14320e+01 
-2.04471e+02  3.29395e+00 -1.00281e+02 
-1.87729e+02  3.59822e+00 -1.08203e+02 
-1.70803e+02  3.79522e+00 -1.15231e+02 
-1.53664e+02  3.87243e+00 -1.21403e+02 
-1.36299e+02  3.82275e+00 -1.26759e+02 
-1.18703e+02  3.64496e+00 -1.31338e+02 
-1.00883e+02  3.34343e+00 -1.35179e+02 
-8.28548e+01  2.92784e+00 -1.38319e+02 
-6.46435e+01  2.41261e+00 -1.40789e+02 
-4.62820e+01  1.81618e+00 -1.42617e+02 
-2.78089e+01  1.16024e+00 -1.43824e+02 
-9.26796e+00  4.68422e-01 -1.44424e+02 
 9.29588e+00 -2.33574e-01 -1.44425e+02 
 2.78348e+01 -9.20887e-01 -1.43825e+02 
 4.63040e+01 -1.56809e+00 -1.42618e+02 
 6.46605e+01 -2.15208e+00 -1.40788e+02 
 8.28662e+01 -2.65186e+00 -1.38315e+02 
 1.00889e+02 -3.04984e+00 -1.35172e+02 
 1.18704e+02 -3.33248e+00 -1.31325e+02 
 1.36296e+02 -3.49102e+00 -1.26740e+02 
 1.53658e+02 -3.52193e+00 -1.21378e+02 
 1.70795e+02 -3.42734e+00 -1.15200e+02 
 1.87721e+02 -3.21513e+00 -1.08166e+02 
 2.04464e+02 -2.89894e+00 -1.00240e+02 
 2.21056e+02 -2.49778e+00 -9.13864e+01 
 2.37553e+02 -2.03612e+00 -8.15820e+01 
 2.53977e+02 -1.54208e+00 -7.07883e+01 
 2.70515e+02 -1.05036e+00 -5.90542e+01 
 2.85706e+02 -5.92575e-01 -4.61845e+01 
 2.99467e+02 -2.13284e-01 -3.30598e+01 
 3.37303e+02  1.30774e-02 -1.58374e+01 
 3.94361e+02  3.61226e-01 -7.53413e+00 
-3.76854e+02 -3.81658e+00 -3.43887e+00 
-3.21018e+02  1.59338e+00 -1.73323e+01 
-2.85530e+02  3.51409e-01 -3.31300e+01 
-2.72636e+02  1.17925e+00 -4.67454e+01 
-2.58378e+02  1.62002e+00 -5.95899e+01 
-2.42840e+02  2.21077e+00 -7.13713e+01 
-2.27412e+02  2.76054e+00 -8.21375e+01 
-2.11886e+02  3.27582e+00 -9.18883e+01 
-1.96237e+02  3.71377e+00 -1.00656e+02 
-1.80403e+02  4.05167e+00 -1.08475e+02 
-1.64346e+02  4.26860e+00 -1.15383e+02 
-1.48036e+02  4.35083e+00 -1.21425e+02 
-1.31458e+02  4.29068e+00 -1.26647e+02 
-1.14608e+02  4.08696e+00 -1.31092e+02 
-9.74929e+01  3.74479e+00 -1.34808e+02 
-8.01339e+01  3.27519e+00 -1.37834e+02 
-6.25606e+01  2.69445e+00 -1.40208e+02 
-4.48117e+01  2.02326e+00 -1.41961e+02 
-2.69329e+01  1.28589e+00 -1.43116e+02 
-8.97502e+00  5.08724e-01 -1.43690e+02 
 9.00920e+00 -2.79725e-01 -1.43692e+02 
 2.69643e+01 -1.05173e+00 -1.43119e+02 
 4.48378e+01 -1.77910e+00 -1.41965e+02 
 6.25796e+01 -2.43605e+00 -1.40211e+02 
 8.01452e+01 -2.99914e+00 -1.37835e+02 
 9.74966e+01 -3.44862e+00 -1.34804e+02 
 1.14605e+02 -3.76922e+00 -1.31083e+02 
 1.31450e+02 -3.95091e+00 -1.26631e+02 
 1.48024e+02 -3.98956e+00 -1.21403e+02 
 1.64331e+02 -3.88731e+00 -1.15353e+02 
 1.80387e+02 -3.65270e+00 -1.08437e+02 
 1.96222e+02 -3.30070e+00 -1.00612e+02 
 2.11874e+02 -2.85217e+00 -9.18380e+01 
 2.27403e+02 -2.33418e+00 -8.20854e+01 
 2.42841e+02 -1.77746e+00 -7.13116e+01 
 2.58377e+02 -1.22205e+00 -5.95611e+01 
 2.72631e+02 -6.98459e-01 -4.66374e+01 
 2.85542e+02 -2.77530e-01 -3.34115e+01 
 3.21457e+02  4.31626e-02 -1.60696e+01 
 3.75672e+02  2.31283e-01 -7.50287e+00 
-3.57904e+02 -3.71487e+00 -3.64267e+00 
-3.04966e+02  1.60022e+00 -1.75335e+01 
-2.71469e+02  4.35694e-01 -3.35575e+01 
-2.59474e+02  1.31533e+00 -4.72671e+01 
-2.46202e+02  1.82353e+00 -6.01739e+01 
-2.31710e+02  2.48027e+00 -7.19682e+01 
-2.17307e+02  3.09322e+00 -8.27078e+01 
-2.02782e+02  3.66454e+00 -9.23964e+01 
-1.88100e+02  4.14876e+00 -1.01072e+02 
-1.73193e+02  4.52079e+00 -1.08775e+02 
-1.58020e+02  4.75787e+00 -1.15549e+02 
-1.42547e+02  4.84497e+00 -1.21446e+02 
-1.26757e+02  4.77372e+00 -1.26516e+02 
-1.10647e+02  4.54299e+00 -1.30814e+02 
-9.42272e+01  4.15864e+00 -1.34388e+02 
-7.75221e+01  3.63312e+00 -1.37288e+02 
-6.05670e+01  2.98468e+00 -1.39555e+02 
-4.34076e+01  2.23644e+00 -1.41224e+02 
-2.60973e+01  1.41527e+00 -1.42323e+02 
-8.69531e+00  5.50376e-01 -1.42869e+02 
 8.73683e+00 -3.26902e-01 -1.42871e+02 
 2.61350e+01 -1.18598e+00 -1.42329e+02 
 4.34382e+01 -1.99585e+00 -1.41233e+02 
 6.05882e+01 -2.72803e+00 -1.39564e+02 
 7.75330e+01 -3.35654e+00 -1.37295e+02 
 9.42281e+01 -3.85936e+00 -1.34390e+02 
 1.10639e+02 -4.21936e+00 -1.30809e+02 
 1.26741e+02 -4.42522e+00 -1.26504e+02 
 1.42526e+02 -4.47211e+00 -1.21425e+02 
 1.57995e+02 -4.36222e+00 -1.15520e+02 
 1.73167e+02 -4.10485e+00 -1.08736e+02 
 1.88074e+02 -3.71635e+00 -1.01025e+02 
 2.02760e+02 -3.21953e+00 -9.23411e+01 
 2.17290e+02 -2.64402e+00 -8.26482e+01 
 2.31707e+02 -2.02302e+00 -7.18989e+01 
 2.46202e+02 -1.40195e+00 -6.01326e+01 
 2.59477e+02 -8.09647e-01 -4.71506e+01 
 2.71496e+02 -3.45129e-01 -3.38135e+01 
 3.05433e+02  7.66963e-02 -1.63340e+01 
 3.56731e+02  9.36874e-02 -7.48003e+00 
-3.38660e+02 -3.60785e+00 -3.86827e+00 
-2.88709e+02  1.61029e+00 -1.77664e+01 
-2.57271e+02  5.24765e-01 -3.40408e+01 
-2.46227e+02  1.45658e+00 -4.78529e+01 
-2.33990e+02  2.03188e+00 -6.08256e+01 
-2.20589e+02  2.75372e+00 -7.26310e+01 
-2.07249e+02  3.42872e+00 -8.33386e+01 
-1.93758e+02  4.05502e+00 -9.29565e+01 
-1.80071e+02  4.58475e+00 -1.01530e+02 
-1.66114e+02  4.99046e+00 -1.09103e+02 
-1.51839e+02  5.24749e+00 -1.15729e+02 
-1.37211e+02  5.33935e+00 -1.21464e+02 
-1.22211e+02  5.25689e+00 -1.26368e+02 
-1.06837e+02  4.99892e+00 -1.30501e+02 
-9.11007e+01  4.57209e+00 -1.33921e+02 
-7.50321e+01  3.99036e+00 -1.36681e+02 
-5.86730e+01  3.27409e+00 -1.38830e+02 
-4.20771e+01  2.44885e+00 -1.40408e+02 
-2.53068e+01  1.54417e+00 -1.41444e+02 
-8.43077e+00  5.91987e-01 -1.41958e+02 
 8.47971e+00 -3.73634e-01 -1.41962e+02 
 2.53507e+01 -1.31937e+00 -1.41453e+02 
 4.21118e+01 -2.21153e+00 -1.40421e+02 
 5.86954e+01 -3.01893e+00 -1.38845e+02 
 7.50412e+01 -3.71303e+00 -1.36694e+02 
 9.10969e+01 -4.26947e+00 -1.33928e+02 
 1.06822e+02 -4.66915e+00 -1.30501e+02 
 1.22187e+02 -4.89933e+00 -1.26360e+02 
 1.37180e+02 -4.95452e+00 -1.21446e+02 
 1.51804e+02 -4.83701e+00 -1.15700e+02 
 1.66076e+02 -4.55698e+00 -1.09064e+02 
 1.80033e+02 -4.13232e+00 -1.01480e+02 
 1.93725e+02 -3.58779e+00 -9.28962e+01 
 2.07223e+02 -2.95558e+00 -8.32711e+01 
 2.20579e+02 -2.27105e+00 -7.25512e+01 
 2.33989e+02 -1.58481e+00 -6.07701e+01 
 2.46237e+02 -9.23156e-01 -4.77261e+01 
 2.57314e+02 -4.15023e-01 -3.42681e+01 
 2.89210e+02  1.14769e-01 -1.66326e+01 
 3.37500e+02 -5.19317e-02 -7.46467e+00 
-3.19073e+02 -3.49229e+00 -4.11977e+00 
-2.72217e+02  1.62258e+00 -1.80324e+01 
-2.42920e+02  6.16874e-01 -3.45810e+01 
-2.32886e+02  1.59826e+00 -4.85026e+01 
-2.21739e+02  2.23683e+00 -6.15437e+01 
-2.09477e+02  3.01918e+00 -7.33579e+01 
-1.97244e+02  3.75173e+00 -8.40281e+01 
-1.84824e+02  4.42920e+00 -9.35674e+01 
-1.72162e+02  5.00166e+00 -1.02027e+02 
-1.59177e+02  5.43938e+00 -1.09459e+02 
-1.45818e+02  5.71567e+00 -1.15922e+02 
-1.32045e+02  5.81235e+00 -1.21481e+02 
-1.17836e+02  5.71925e+00 -1.26203e+02 
-1.03191e+02  5.43506e+00 -1.30155e+02 
-8.81256e+01  4.96723e+00 -1.33405e+02 
-7.26741e+01  4.33136e+00 -1.36014e+02 
-5.68866e+01  3.55000e+00 -1.38035e+02 
-4.08259e+01  2.65121e+00 -1.39513e+02 
-2.45644e+01  1.66712e+00 -1.40481e+02 
-8.18168e+00  6.32159e-01 -1.40962e+02 
 8.24016e+00 -4.17194e-01 -1.40967e+02 
 2.46164e+01 -1.44521e+00 -1.40494e+02 
 4.08660e+01 -2.41576e+00 -1.39531e+02 
 5.69112e+01 -3.29515e+00 -1.38056e+02 
 7.26818e+01 -4.05232e+00 -1.36033e+02 
 8.81171e+01 -4.66047e+00 -1.33419e+02 
 1.03169e+02 -5.09842e+00 -1.30161e+02 
 1.17803e+02 -5.35193e+00 -1.26198e+02 
 1.32003e+02 -5.41483e+00 -1.21465e+02 
 1.45771e+02 -5.28963e+00 -1.15895e+02 
 1.59126e+02 -4.98762e+00 -1.09420e+02 
 1.72110e+02 -4.52846e+00 -1.01975e+02 
 1.84777e+02 -3.93896e+00 -9.35019e+01 
 1.97206e+02 -3.25372e+00 -8.39520e+01 
 2.09460e+02 -2.50980e+00 -7.32664e+01 
 2.21738e+02 -1.76254e+00 -6.14722e+01 
 2.32906e+02 -1.03426e+00 -4.83635e+01 
 2.42985e+02 -4.85546e-01 -3.47757e+01 
 2.72763e+02  1.58037e-01 -1.69675e+01 
 3.17939e+02 -2.08238e-01 -7.45702e+00 
-2.99102e+02 -3.36677e+00 -4.39947e+00 
-2.55472e+02  1.63497e+00 -1.83302e+01 
-2.28407e+02  7.06466e-01 -3.51752e+01 
-2.19450e+02  1.73002e+00 -4.92108e+01 
-2.09452e+02  2.42297e+00 -6.23213e+01 
-1.98381e+02  3.25626e+00 -7.41415e+01 
-1.87300e+02  4.03751e+00 -8.47697e+01 
-1.75988e+02  4.75890e+00 -9.42235e+01 
-1.64383e+02  5.36893e+00 -1.02562e+02 
-1.52397e+02  5.83568e+00 -1.09841e+02 
-1.39972e+02  6.13015e+00 -1.16129e+02 
-1.27063e+02  6.23214e+00 -1.21497e+02 
-1.13649e+02  6.13013e+00 -1.26021e+02 
-9.97263e+01  5.82255e+00 -1.29778e+02 
-8.53168e+01  5.31772e+00 -1.32845e+02 
-7.04610e+01  4.63303e+00 -1.35290e+02 
-5.52181e+01  3.79338e+00 -1.37173e+02 
-3.96616e+01  2.82934e+00 -1.38545e+02 
-2.38754e+01  1.77535e+00 -1.39441e+02 
-7.95095e+00  6.67908e-01 -1.39886e+02 
 8.01771e+00 -4.54691e-01 -1.39892e+02 
 2.39341e+01 -1.55493e+00 -1.39457e+02 
 3.97053e+01 -2.59478e+00 -1.38569e+02 
 5.52425e+01 -3.53840e+00 -1.37201e+02 
 7.04644e+01 -4.35227e+00 -1.35316e+02 
 8.53003e+01 -5.00713e+00 -1.32865e+02 
 9.96930e+01 -5.47952e+00 -1.29789e+02 
 1.13602e+02 -5.75358e+00 -1.26020e+02 
 1.27008e+02 -5.82244e+00 -1.21484e+02 
 1.39910e+02 -5.68907e+00 -1.16103e+02 
 1.52331e+02 -5.36620e+00 -1.09802e+02 
 1.64315e+02 -4.87564e+00 -1.02507e+02 
 1.75925e+02 -4.24646e+00 -9.41530e+01 
 1.87247e+02 -3.51548e+00 -8.46849e+01 
 1.98354e+02 -2.72077e+00 -7.40379e+01 
 2.09449e+02 -1.92152e+00 -6.22322e+01 
 2.19479e+02 -1.13411e+00 -4.90576e+01 
 2.28496e+02 -5.52017e-01 -3.53330e+01 
 2.56071e+02  2.09405e-01 -1.73386e+01 
 2.98005e+02 -3.75515e-01 -7.45522e+00 
-2.78701e+02 -3.22731e+00 -4.71107e+00 
-2.38449e+02  1.64535e+00 -1.86568e+01 
-2.13721e+02  7.88076e-01 -3.58172e+01 
-2.05912e+02  1.83979e+00 -4.99676e+01 
-1.97127e+02  2.57119e+00 -6.31470e+01 
-1.87302e+02  3.43905e+00 -7.49708e+01 
-1.77418e+02  4.25423e+00 -8.55535e+01 
-1.67255e+02  5.00771e+00 -9.49178e+01 
-1.56741e+02  5.64708e+00 -1.03128e+02 
-1.45782e+02  6.13819e+00 -1.10247e+02 
-1.34311e+02  6.44936e+00 -1.16349e+02 
-1.22279e+02  6.55770e+00 -1.21513e+02 
-1.09661e+02  6.44994e+00 -1.25826e+02 
-9.64541e+01  6.12406e+00 -1.29375e+02 
-8.26845e+01  5.58939e+00 -1.32246e+02 
-6.84011e+01  4.86543e+00 -1.34517e+02 
-5.36736e+01  3.97968e+00 -1.36255e+02 
-3.85880e+01  2.96513e+00 -1.37515e+02 
-2.32415e+01  1.85810e+00 -1.38337e+02 
-7.73847e+00  6.96343e-01 -1.38745e+02 
 7.81420e+00 -4.81038e-01 -1.38752e+02 
 2.33074e+01 -1.63580e+00 -1.38357e+02 
 3.86357e+01 -2.72892e+00 -1.37545e+02 
 5.36976e+01 -3.72296e+00 -1.36290e+02 
 6.83996e+01 -4.58222e+00 -1.34550e+02 
 8.26592e+01 -5.27485e+00 -1.32272e+02 
 9.64091e+01 -5.77486e+00 -1.29391e+02 
 1.09601e+02 -6.06448e+00 -1.25829e+02 
 1.22210e+02 -6.13614e+00 -1.21502e+02 
 1.34234e+02 -5.99355e+00 -1.16324e+02 
 1.45700e+02 -5.65150e+00 -1.10208e+02 
 1.56657e+02 -5.13456e+00 -1.03072e+02 
 1.67176e+02 -4.47440e+00 -9.48424e+01 
 1.77350e+02 -3.70989e+00 -8.54600e+01 
 1.87264e+02 -2.87914e+00 -7.48544e+01 
 1.97122e+02 -2.04380e+00 -6.30392e+01 
 2.05953e+02 -1.21149e+00 -4.97989e+01 
 2.13839e+02 -6.09314e-01 -3.59333e+01 
 2.39113e+02  2.70841e-01 -1.77445e+01 
 2.77658e+02 -5.55463e-01 -7.45778e+00 
-2.57831e+02 -3.07133e+00 -5.05584e+00 
-2.21135e+02  1.64914e+00 -1.90047e+01 
-1.98859e+02  8.51111e-01 -3.64928e+01 
-1.92275e+02  1.90800e+00 -5.07541e+01 
-1.84768e+02  2.65256e+00 -6.40000e+01 
-1.76242e+02  3.52976e+00 -7.58255e+01 
-1.67602e+02  4.35667e+00 -8.63626e+01 
-1.58630e+02  5.12483e+00 -9.56371e+01 
-1.49244e+02  5.78167e+00 -1.03718e+02 
-1.39341e+02  6.29069e+00 -1.10674e+02 
-1.28848e+02  6.61674e+00 -1.16583e+02 
-1.17706e+02  6.73339e+00 -1.21534e+02 
-1.05887e+02  6.62488e+00 -1.25624e+02 
-9.33879e+01  6.28862e+00 -1.28953e+02 
-8.02404e+01  5.73532e+00 -1.31618e+02 
-6.65033e+01  4.98715e+00 -1.33708e+02 
-5.22596e+01  4.07458e+00 -1.35297e+02 
-3.76100e+01  3.03291e+00 -1.36444e+02 
-2.26663e+01  1.89963e+00 -1.37189e+02 
-7.54685e+00  7.12450e-01 -1.37560e+02 
 7.62784e+00 -4.90387e-01 -1.37568e+02 
 2.27356e+01 -1.67159e+00 -1.37212e+02 
 3.76579e+01 -2.79255e+00 -1.36478e+02 
 5.22795e+01 -3.81520e+00 -1.35337e+02 
 6.64930e+01 -4.70201e+00 -1.33747e+02 
 8.02022e+01 -5.41835e+00 -1.31650e+02 
 9.33273e+01 -5.93523e+00 -1.28972e+02 
 1.05810e+02 -6.23250e+00 -1.25629e+02 
 1.17619e+02 -6.30174e+00 -1.21524e+02 
 1.28753e+02 -6.14788e+00 -1.16558e+02 
 1.39241e+02 -5.78867e+00 -1.10634e+02 
 1.49141e+02 -5.25245e+00 -1.03660e+02 
 1.58531e+02 -4.57411e+00 -9.55572e+01 
 1.67518e+02 -3.79439e+00 -8.62605e+01 
 1.76192e+02 -2.95022e+00 -7.56966e+01 
 1.84760e+02 -2.10363e+00 -6.38729e+01 
 1.92329e+02 -1.24971e+00 -5.05695e+01 
 1.99010e+02 -6.48862e-01 -3.65625e+01 
 2.21875e+02  3.46189e-01 -1.81796e+01 
 2.56860e+02 -7.48900e-01 -7.46008e+00 
-2.36456e+02 -2.89396e+00 -5.43491e+00 
-2.03521e+02  1.64099e+00 -1.93619e+01 
-1.83822e+02  8.83007e-01 -3.71803e+01 
-1.78541e+02  1.91004e+00 -5.15421e+01 
-1.72373e+02  2.63023e+00 -6.48503e+01 
-1.65198e+02  3.48004e+00 -7.66776e+01 
-1.57848e+02  4.28691e+00 -8.71736e+01 
-1.50108e+02  5.04524e+00 -9.63647e+01 
-1.41888e+02  5.70320e+00 -1.04323e+02 
-1.33076e+02  6.22151e+00 -1.11116e+02 
-1.23586e+02  6.56036e+00 -1.16830e+02 
-1.13351e+02  6.68831e+00 -1.21562e+02 
-1.02335e+02  6.58619e+00 -1.25422e+02 
-9.05348e+01  6.25078e+00 -1.28523e+02 
-7.79892e+01  5.69491e+00 -1.30978e+02 
-6.47698e+01  4.94445e+00 -1.32885e+02 
-5.09762e+01  4.03350e+00 -1.34325e+02 
-3.67263e+01  2.99953e+00 -1.35360e+02 
-2.21483e+01  1.88003e+00 -1.36033e+02 
-7.37550e+00  7.10643e-01 -1.36367e+02 
 7.45837e+00 -4.73767e-01 -1.36376e+02 
 2.22182e+01 -1.63946e+00 -1.36057e+02 
 3.67720e+01 -2.75046e+00 -1.35397e+02 
 5.09900e+01 -3.76949e+00 -1.34368e+02 
 6.47490e+01 -4.65774e+00 -1.32927e+02 
 7.79364e+01 -5.37747e+00 -1.31012e+02 
 9.04570e+01 -5.89582e+00 -1.28545e+02 
 1.02240e+02 -6.18938e+00 -1.25428e+02 
 1.13247e+02 -6.24857e+00 -1.21553e+02 
 1.23474e+02 -6.08013e+00 -1.16806e+02 
 1.32958e+02 -5.70616e+00 -1.11076e+02 
 1.41766e+02 -5.16035e+00 -1.04262e+02 
 1.49991e+02 -4.48184e+00 -9.62801e+01 
 1.57747e+02 -3.71319e+00 -8.70629e+01 
 1.65137e+02 -2.88846e+00 -7.65365e+01 
 1.72364e+02 -2.06730e+00 -6.47039e+01 
 1.78611e+02 -1.22720e+00 -5.13424e+01 
 1.84012e+02 -6.60084e-01 -3.71993e+01 
 2.04351e+02  4.38777e-01 -1.86347e+01 
 2.35583e+02 -9.56883e-01 -7.45697e+00 
-2.14564e+02 -2.69191e+00 -5.84549e+00 
-1.85618e+02  1.61198e+00 -1.97084e+01 
-1.68622e+02  8.64096e-01 -3.78447e+01 
-1.64719e+02  1.81068e+00 -5.22883e+01 
-1.59947e+02  2.45330e+00 -6.56527e+01 
-1.54167e+02  3.22455e+00 -7.74857e+01 
-1.48148e+02  3.96778e+00 -8.79524e+01 
-1.41681e+02  4.68317e+00 -9.70759e+01 
-1.34667e+02  5.32061e+00 -1.04925e+02 
-1.26983e+02  5.83723e+00 -1.11568e+02 
-1.18528e+02  6.18659e+00 -1.17093e+02 
-1.09220e+02  6.33011e+00 -1.21605e+02 
-9.90115e+01  6.24390e+00 -1.25231e+02 
-8.79004e+01  5.92427e+00 -1.28101e+02 
-7.59334e+01  5.38761e+00 -1.30345e+02 
-6.31998e+01  4.66531e+00 -1.32074e+02 
-4.98204e+01  3.79621e+00 -1.33374e+02 
-3.59338e+01  2.81973e+00 -1.34308e+02 
-2.16863e+01  1.77161e+00 -1.34915e+02 
-7.22605e+00  6.82392e-01 -1.35218e+02 
 7.30088e+00 -4.20227e-01 -1.35226e+02 
 2.17478e+01 -1.50995e+00 -1.34938e+02 
 3.59699e+01 -2.55674e+00 -1.34343e+02 
 4.98223e+01 -3.52632e+00 -1.33417e+02 
 6.31638e+01 -4.37932e+00 -1.32117e+02 
 7.58619e+01 -5.07435e+00 -1.30381e+02 
 8.78016e+01 -5.57319e+00 -1.28123e+02 
 9.88958e+01 -5.84755e+00 -1.25236e+02 
 1.09095e+02 -5.88599e+00 -1.21596e+02 
 1.18397e+02 -5.69785e+00 -1.17068e+02 
 1.26845e+02 -5.31166e+00 -1.11527e+02 
 1.34524e+02 -4.76888e+00 -1.04863e+02 
 1.41543e+02 -4.11453e+00 -9.69860e+01 
 1.48031e+02 -3.39297e+00 -8.78329e+01 
 1.54097e+02 -2.63344e+00 -7.73330e+01 
 1.59939e+02 -1.88928e+00 -6.54883e+01 
 1.64809e+02 -1.11407e+00 -5.20764e+01 
 1.68857e+02 -6.27227e-01 -3.78098e+01 
 1.86548e+02  5.54044e-01 -1.90931e+01 
 2.13812e+02 -1.17907e+00 -7.43918e+00 
-1.92161e+02 -2.46038e+00 -6.28152e+00 
-1.67451e+02  1.55127e+00 -2.00149e+01 
-1.53283e+02  7.70522e-01 -3.84358e+01 
-1.50820e+02  1.56640e+00 -5.29328e+01 
-1.47485e+02  2.05859e+00 -6.63461e+01 
-1.43135e+02  2.68202e+00 -7.81944e+01 
-1.38480e+02  3.30310e+00 -8.86546e+01 
-1.33324e+02  3.93156e+00 -9.77394e+01 
-1.27560e+02  4.52016e+00 -1.05509e+02 
-1.21049e+02  5.02105e+00 -1.12024e+02 
-1.13667e+02  5.37828e+00 -1.17373e+02 
-1.05310e+02  5.54284e+00 -1.21672e+02 
-9.59163e+01  5.48427e+00 -1.25065e+02 
-8.54811e+01  5.19910e+00 -1.27708e+02 
-7.40646e+01  4.70993e+00 -1.29750e+02 
-6.17806e+01  4.05662e+00 -1.31315e+02 
-4.87774e+01  3.28455e+00 -1.32496e+02 
-3.52191e+01  2.43479e+00 -1.33349e+02 
-2.12716e+01  1.53871e+00 -1.33907e+02 
-7.09651e+00  6.17339e-01 -1.34186e+02 
 7.15030e+00 -3.14349e-01 -1.34191e+02 
 2.13136e+01 -1.24317e+00 -1.33924e+02 
 3.52377e+01 -2.14992e+00 -1.33376e+02 
 4.87628e+01 -3.00660e+00 -1.32531e+02 
 6.17271e+01 -3.77448e+00 -1.31353e+02 
 7.39734e+01 -4.40750e+00 -1.29782e+02 
 8.53607e+01 -4.85964e+00 -1.27727e+02 
 9.57790e+01 -5.09490e+00 -1.25069e+02 
 1.05165e+02 -5.09856e+00 -1.21661e+02 
 1.13516e+02 -4.88367e+00 -1.17347e+02 
 1.20891e+02 -4.48825e+00 -1.11981e+02 
 1.27397e+02 -3.96504e+00 -1.05442e+02 
 1.33169e+02 -3.36731e+00 -9.76423e+01 
 1.38351e+02 -2.74136e+00 -8.85249e+01 
 1.43062e+02 -2.10904e+00 -7.80306e+01 
 1.47487e+02 -1.51229e+00 -6.61659e+01 
 1.50937e+02 -8.72905e-01 -5.27140e+01 
 1.53568e+02 -5.30966e-01 -3.83459e+01 
 1.68492e+02  6.96951e-01 -1.95299e+01 
 1.91558e+02 -1.41486e+00 -7.39488e+00 
-1.69299e+02 -2.19644e+00 -6.72978e+00 
-1.49080e+02  1.44341e+00 -2.02391e+01 
-1.37846e+02  5.69933e-01 -3.88831e+01 
-1.36865e+02  1.12091e+00 -5.33925e+01 
-1.34986e+02  1.36597e+00 -6.68467e+01 
-1.32080e+02  1.75006e+00 -7.87286e+01 
-1.28812e+02  2.17191e+00 -8.92197e+01 
-1.25002e+02  2.65566e+00 -9.83126e+01 
-1.20535e+02  3.15845e+00 -1.06049e+02 
-1.15250e+02  3.62555e+00 -1.12474e+02 
-1.08989e+02  3.98722e+00 -1.17672e+02 
-1.01616e+02  4.17906e+00 -1.21772e+02 
-9.30440e+01  4.16149e+00 -1.24941e+02 
-8.32673e+01  3.93292e+00 -1.27367e+02 
-7.23660e+01  3.52665e+00 -1.29228e+02 
-6.04888e+01  2.99582e+00 -1.30662e+02 
-4.78221e+01  2.39505e+00 -1.31759e+02 
-3.45607e+01  1.76643e+00 -1.32567e+02 
-2.08913e+01  1.13320e+00 -1.33104e+02 
-6.98598e+00  5.00525e-01 -1.33373e+02 
 6.99503e+00 -1.37122e-01 -1.33373e+02 
 2.08935e+01 -7.87755e-01 -1.33107e+02 
 3.45474e+01 -1.45012e+00 -1.32576e+02 
 4.77826e+01 -2.10742e+00 -1.31776e+02 
 6.04143e+01 -2.72346e+00 -1.30685e+02 
 7.22538e+01 -3.24606e+00 -1.29251e+02 
 8.31245e+01 -3.61748e+00 -1.27381e+02 
 9.28843e+01 -3.78915e+00 -1.24942e+02 
 1.01449e+02 -3.74048e+00 -1.21759e+02 
 1.08817e+02 -3.48970e+00 -1.17645e+02 
 1.15069e+02 -3.08892e+00 -1.12427e+02 
 1.20351e+02 -2.60717e+00 -1.05975e+02 
 1.24831e+02 -2.10907e+00 -9.82047e+01 
 1.28677e+02 -1.64292e+00 -8.90772e+01 
 1.32014e+02 -1.21987e+00 -7.85543e+01 
 1.35009e+02 -8.63888e-01 -6.66547e+01 
 1.37018e+02 -4.55673e-01 -5.31761e+01 
 1.38189e+02 -3.45276e-01 -3.87403e+01 
 1.50235e+02  8.74296e-01 -1.99082e+01 
 1.68869e+02 -1.66115e+00 -7.30660e+00 
-1.46083e+02 -1.89869e+00 -7.16827e+00 
-1.30596e+02  1.26994e+00 -2.03237e+01 
-1.22371e+02  2.24561e-01 -3.90919e+01 
-1.22876e+02  4.08714e-01 -5.35589e+01 
-1.22439e+02  2.81710e-01 -6.70459e+01 
-1.20965e+02  3.07739e-01 -7.89908e+01 
-1.19089e+02  4.29465e-01 -8.95697e+01 
-1.16656e+02  6.92128e-01 -9.87410e+01 
-1.13539e+02  1.05983e+00 -1.06514e+02 
-1.09545e+02  1.46866e+00 -1.12907e+02 
-1.04468e+02  1.82923e+00 -1.17996e+02 
-9.81202e+01  2.05413e+00 -1.21919e+02 
-9.03794e+01  2.09115e+00 -1.24879e+02 
-8.12355e+01  1.94381e+00 -1.27110e+02 
-7.08019e+01  1.66375e+00 -1.28827e+02 
-5.92799e+01  1.32464e+00 -1.30183e+02 
-4.69080e+01  9.93879e-01 -1.31259e+02 
-3.39193e+01  7.13392e-01 -1.32080e+02 
-2.05206e+01  4.92719e-01 -1.32640e+02 
-6.88897e+00  3.12513e-01 -1.32921e+02 
 6.82020e+00  1.36184e-01 -1.32912e+02 
 2.04553e+01 -7.65406e-02 -1.32618e+02 
 3.38553e+01 -3.52515e-01 -1.32055e+02 
 4.68353e+01 -6.93623e-01 -1.31241e+02 
 5.91841e+01 -1.06946e+00 -1.30179e+02 
 7.06727e+01 -1.41993e+00 -1.28833e+02 
 8.10747e+01 -1.66956e+00 -1.27116e+02 
 9.02001e+01 -1.74904e+00 -1.24877e+02 
 9.79329e+01 -1.62741e+00 -1.21906e+02 
 1.04273e+02 -1.33043e+00 -1.17968e+02 
 1.09340e+02 -9.30951e-01 -1.12855e+02 
 1.13334e+02 -5.21111e-01 -1.06427e+02 
 1.16475e+02 -1.80583e-01 -9.86157e+01 
 1.18961e+02  4.10668e-02 -8.94094e+01 
 1.20925e+02  1.47826e-01 -7.88060e+01 
 1.22503e+02  1.42109e-01 -6.68476e+01 
 1.23084e+02  1.94695e-01 -5.33578e+01 
 1.22781e+02 -3.93050e-02 -3.89027e+01 
 1.31867e+02  1.09190e+00 -2.01758e+01 
 1.45844e+02 -1.91347e+00 -7.15139e+00 
-1.22700e+02 -1.56854e+00 -7.56224e+00 
-1.12145e+02  1.00820e+00 -2.01927e+01 
-1.06944e+02 -3.09486e-01 -3.89390e+01 
-1.08890e+02 -6.44163e-01 -5.32925e+01 
-1.09830e+02 -1.29996e+00 -6.68034e+01 
-1.09738e+02 -1.78349e+00 -7.88540e+01 
-1.09236e+02 -2.09381e+00 -8.96006e+01 
-1.08201e+02 -2.15502e+00 -9.89499e+01 
-1.06494e+02 -1.99077e+00 -1.06860e+02 
-1.03875e+02 -1.67580e+00 -1.13307e+02 
-1.00064e+02 -1.32667e+00 -1.18345e+02 
-9.47997e+01 -1.06580e+00 -1.22124e+02 
-8.78983e+01 -9.63020e-01 -1.24898e+02 
-7.93470e+01 -1.00334e+00 -1.26970e+02 
-6.93145e+01 -1.10463e+00 -1.28606e+02 
-5.80830e+01 -1.16235e+00 -1.29969e+02 
-4.59630e+01 -1.09231e+00 -1.31119e+02 
-3.32346e+01 -8.55592e-01 -1.32042e+02 
-2.01222e+01 -4.64360e-01 -1.32692e+02 
-6.79754e+00  2.61623e-02 -1.33017e+02 
 6.60263e+00  5.34910e-01 -1.32995e+02 
 1.99485e+01  9.74937e-01 -1.32631e+02 
 3.30922e+01  1.27728e+00 -1.31964e+02 
 4.58449e+01  1.41008e+00 -1.31046e+02 
 5.79672e+01  1.39181e+00 -1.29919e+02 
 6.91771e+01  1.29211e+00 -1.28583e+02 
 7.91772e+01  1.21262e+00 -1.26964e+02 
 8.77054e+01  1.25718e+00 -1.24895e+02 
 9.45927e+01  1.47438e+00 -1.22115e+02 
 9.98431e+01  1.82713e+00 -1.18317e+02 
 1.03639e+02  2.21181e+00 -1.13246e+02 
 1.06266e+02  2.50459e+00 -1.06753e+02 
 1.08018e+02  2.60755e+00 -9.87969e+01 
 1.09134e+02  2.47251e+00 -8.94154e+01 
 1.09751e+02  2.12523e+00 -7.86589e+01 
 1.09965e+02  1.60498e+00 -6.66066e+01 
 1.09175e+02  1.14471e+00 -5.31244e+01 
 1.07432e+02  4.24851e-01 -3.87155e+01 
 1.13520e+02  1.35611e+00 -2.02621e+01 
 1.22657e+02 -2.16322e+00 -6.89956e+00 
-9.94443e+01 -1.21355e+00 -7.86024e+00 
-9.39341e+01  6.34753e-01 -1.97509e+01 
-9.16853e+01 -1.07513e+00 -3.82726e+01 
-9.49499e+01 -2.10894e+00 -5.24221e+01 
-9.71384e+01 -3.48339e+00 -6.59445e+01 
-9.83254e+01 -4.66698e+00 -7.81557e+01 
-9.91443e+01 -5.58354e+00 -8.91750e+01 
-9.95173e+01 -6.11160e+00 -9.88375e+01 
-9.92883e+01 -6.25119e+00 -1.07026e+02 
-9.81519e+01 -6.08661e+00 -1.13646e+02 
-9.57235e+01 -5.76999e+00 -1.18719e+02 
-9.16214e+01 -5.47792e+00 -1.22399e+02 
-8.55650e+01 -5.30496e+00 -1.25016e+02 
-7.75411e+01 -5.21293e+00 -1.26984e+02 
-6.78138e+01 -5.07029e+00 -1.28636e+02 
-5.67895e+01 -4.72836e+00 -1.30137e+02 
-4.48790e+01 -4.08349e+00 -1.31505e+02 
-3.24171e+01 -3.10612e+00 -1.32660e+02 
-1.96396e+01 -1.84171e+00 -1.33494e+02 
-6.69763e+00 -3.95376e-01 -1.33915e+02 
 6.31117e+00  1.09181e+00 -1.33874e+02 
 1.93003e+01  2.46939e+00 -1.33382e+02 
 3.21552e+01  3.60816e+00 -1.32505e+02 
 4.46960e+01  4.42900e+00 -1.31349e+02 
 5.66556e+01  4.92643e+00 -1.30017e+02 
 6.76837e+01  5.17932e+00 -1.28570e+02 
 7.73796e+01  5.32634e+00 -1.26963e+02 
 8.53701e+01  5.52863e+00 -1.25020e+02 
 9.13958e+01  5.86381e+00 -1.22401e+02 
 9.54700e+01  6.27622e+00 -1.18691e+02 
 9.78791e+01  6.61692e+00 -1.13568e+02 
 9.90400e+01  6.72067e+00 -1.06882e+02 
 9.93509e+01  6.47102e+00 -9.86428e+01 
 9.91032e+01  5.82853e+00 -8.89578e+01 
 9.84348e+01  4.85112e+00 -7.79534e+01 
 9.73861e+01  3.62779e+00 -6.57618e+01 
 9.53425e+01  2.46299e+00 -5.23096e+01 
 9.22618e+01  1.08724e+00 -3.80324e+01 
 9.53879e+01  1.67043e+00 -2.00743e+01 
 9.95816e+01 -2.39785e+00 -6.51253e+00 
-7.67446e+01 -8.47461e-01 -7.99205e+00 
-7.62387e+01  1.29003e-01 -1.88870e+01 
-7.67476e+01 -2.10401e+00 -3.69161e+01 
-8.11176e+01 -4.03665e+00 -5.07480e+01 
-8.43435e+01 -6.34942e+00 -6.42585e+01 
-8.66407e+01 -8.46883e+00 -7.66888e+01 
-8.86788e+01 -1.02240e+01 -8.81064e+01 
-9.04429e+01 -1.14253e+01 -9.82540e+01 
-9.17635e+01 -1.20265e+01 -1.06910e+02 
-9.22505e+01 -1.21106e+01 -1.13876e+02 
-9.13643e+01 -1.18697e+01 -1.19106e+02 
-8.85397e+01 -1.15676e+01 -1.22745e+02 
-8.33264e+01 -1.13335e+01 -1.25246e+02 
-7.57228e+01 -1.10840e+01 -1.27194e+02 
-6.61603e+01 -1.06107e+01 -1.29011e+02 
-5.52370e+01 -9.70652e+00 -1.30848e+02 
-4.34980e+01 -8.25164e+00 -1.32637e+02 
-3.13379e+01 -6.23948e+00 -1.34204e+02 
-1.89905e+01 -3.76557e+00 -1.35354e+02 
-6.56409e+00 -1.00066e+00 -1.35937e+02 
 5.90914e+00  1.83967e+00 -1.35875e+02 
 1.84153e+01  4.52525e+00 -1.35181e+02 
 3.09022e+01  6.84477e+00 -1.33955e+02 
 4.32214e+01  8.64681e+00 -1.32372e+02 
 5.50861e+01  9.88000e+00 -1.30628e+02 
 6.60621e+01  1.06244e+01 -1.28882e+02 
 7.55999e+01  1.10650e+01 -1.27152e+02 
 8.31510e+01  1.14594e+01 -1.25269e+02 
 8.82959e+01  1.19310e+01 -1.22773e+02 
 9.10684e+01  1.23911e+01 -1.19077e+02 
 9.19323e+01  1.26246e+01 -1.13767e+02 
 9.15049e+01  1.24172e+01 -1.06710e+02 
 9.03261e+01  1.16418e+01 -9.80020e+01 
 8.87485e+01  1.02847e+01 -8.78536e+01 
 8.69020e+01  8.45271e+00 -7.64884e+01 
 8.47543e+01  6.30001e+00 -6.41072e+01 
 8.16521e+01  4.20758e+00 -5.07157e+01 
 7.74230e+01  1.98359e+00 -3.66795e+01 
 7.77290e+01  2.03213e+00 -1.94962e+01 
 7.70153e+01 -2.60032e+00 -5.94448e+00 
-5.51924e+01 -4.95087e-01 -7.86524e+00 
-5.94168e+01 -5.19985e-01 -1.74810e+01 
-6.23291e+01 -3.40093e+00 -3.46793e+01 
-6.74814e+01 -6.43080e+00 -4.80505e+01 
-7.14388e+01 -9.91832e+00 -6.14976e+01 
-7.45905e+01 -1.32547e+01 -7.41881e+01 
-7.76694e+01 -1.61598e+01 -8.61313e+01 
-8.07569e+01 -1.83476e+01 -9.69700e+01 
-8.36920e+01 -1.96751e+01 -1.06351e+02 
-8.59859e+01 -2.01870e+01 -1.13909e+02 
-8.68715e+01 -2.01106e+01 -1.19479e+02 
-8.54977e+01 -1.98548e+01 -1.23156e+02 
-8.11101e+01 -1.95905e+01 -1.25591e+02 
-7.37512e+01 -1.91518e+01 -1.27649e+02 
-6.41509e+01 -1.82168e+01 -1.29864e+02 
-5.31977e+01 -1.65127e+01 -1.32322e+02 
-4.16074e+01 -1.39217e+01 -1.34814e+02 
-2.98279e+01 -1.04880e+01 -1.37026e+02 
-1.80669e+01 -6.38104e+00 -1.38659e+02 
-6.36065e+00 -1.85191e+00 -1.39492e+02 
 5.35429e+00  2.80146e+00 -1.39414e+02 
 1.71693e+01  7.25981e+00 -1.38434e+02 
 2.91323e+01  1.12126e+01 -1.36687e+02 
 4.11696e+01  1.44070e+01 -1.34423e+02 
 5.30034e+01  1.66987e+01 -1.31964e+02 
 6.41062e+01  1.81385e+01 -1.29631e+02 
 7.37102e+01  1.89608e+01 -1.27565e+02 
 8.09899e+01  1.95871e+01 -1.25650e+02 
 8.52302e+01  2.02041e+01 -1.23228e+02 
 8.65179e+01  2.06624e+01 -1.19431e+02 
 8.56247e+01  2.06553e+01 -1.13732e+02 
 8.34679e+01  1.99211e+01 -1.06061e+02 
 8.07674e+01  1.83492e+01 -9.66528e+01 
 7.79358e+01  1.59859e+01 -8.58583e+01 
 7.50772e+01  1.30138e+01 -7.40174e+01 
 7.20659e+01  9.66932e+00 -6.14060e+01 
 6.81876e+01  6.40610e+00 -4.81233e+01 
 6.31073e+01  3.13571e+00 -3.44657e+01 
 6.08806e+01  2.42959e+00 -1.83923e+01 
 5.55159e+01 -2.74613e+00 -5.14525e+00 
-3.55469e+01 -1.92027e-01 -7.37675e+00 
-4.38974e+01 -1.29937e+00 -1.54273e+01 
-4.86715e+01 -4.91515e+00 -3.13941e+01 
-5.41731e+01 -9.20145e+00 -4.41259e+01 
-5.84617e+01 -1.40868e+01 -5.74034e+01 
-6.21166e+01 -1.89594e+01 -7.03364e+01 
-6.59617e+01 -2.34361e+01 -8.28921e+01 
-7.02245e+01 -2.70893e+01 -9.46288e+01 
-7.47944e+01 -2.95899e+01 -1.05042e+02 
-7.90961e+01 -3.08830e+01 -1.13530e+02 
-8.20643e+01 -3.11658e+01 -1.19737e+02 
-8.24115e+01 -3.10753e+01 -1.23580e+02 
-7.88003e+01 -3.08407e+01 -1.26030e+02 
-7.14011e+01 -3.01504e+01 -1.28418e+02 
-6.14814e+01 -2.85249e+01 -1.31395e+02 
-5.03539e+01 -2.56461e+01 -1.34880e+02 
-3.89277e+01 -2.14517e+01 -1.38439e+02 
-2.76732e+01 -1.60876e+01 -1.41577e+02 
-1.67302e+01 -9.82918e+00 -1.43880e+02 
-6.02785e+00 -3.01548e+00 -1.45063e+02 
 4.61967e+00  3.98040e+00 -1.44985e+02 
 1.54387e+01  1.07657e+01 -1.43644e+02 
 2.66246e+01  1.69369e+01 -1.41188e+02 
 3.82416e+01  2.20990e+01 -1.37936e+02 
 5.00714e+01  2.59340e+01 -1.34363e+02 
 6.15106e+01  2.84129e+01 -1.31031e+02 
 7.15034e+01  2.97674e+01 -1.28278e+02 
 7.87964e+01  3.06789e+01 -1.26174e+02 
 8.20980e+01  3.14274e+01 -1.23743e+02 
 8.16288e+01  3.17541e+01 -1.19651e+02 
 7.87055e+01  3.12293e+01 -1.13253e+02 
 7.46787e+01  2.95786e+01 -1.04636e+02 
 7.04720e+01  2.67742e+01 -9.42557e+01 
 6.65306e+01  2.29853e+01 -8.26370e+01 
 6.28992e+01  1.85097e+01 -7.02376e+01 
 5.93366e+01  1.36822e+01 -5.73979e+01 
 5.50547e+01  9.01047e+00 -4.43097e+01 
 4.95389e+01  4.52377e+00 -3.12048e+01 
 4.52519e+01  2.83165e+00 -1.66180e+01 
 3.58119e+01 -2.80687e+00 -4.06558e+00 
-1.87320e+01  1.79443e-02 -6.39981e+00 
-3.01671e+01 -2.15206e+00 -1.26511e+01 
-3.60638e+01 -6.49977e+00 -2.69340e+01 
-4.13900e+01 -1.20988e+01 -3.87957e+01 
-4.55316e+01 -1.85356e+01 -5.16945e+01 
-4.92373e+01 -2.52673e+01 -6.47195e+01 
-5.34134e+01 -3.18277e+01 -7.78398e+01 
-5.84779e+01 -3.76437e+01 -9.05965e+01 
-6.45168e+01 -4.21540e+01 -1.02420e+02 
-7.10410e+01 -4.49734e+01 -1.12413e+02 
-7.65951e+01 -4.59840e+01 -1.19814e+02 
-7.91579e+01 -4.63193e+01 -1.24002e+02 
-7.62212e+01 -4.62341e+01 -1.26581e+02 
-6.83321e+01 -4.51107e+01 -1.29686e+02 
-5.77308e+01 -4.23419e+01 -1.33988e+02 
-4.63098e+01 -3.76624e+01 -1.39050e+02 
-3.51455e+01 -3.11748e+01 -1.44104e+02 
-2.46542e+01 -2.32167e+01 -1.48453e+02 
-1.48443e+01 -1.42016e+01 -1.51595e+02 
-5.50323e+00 -4.54675e+00 -1.53220e+02 
 3.68984e+00  5.33763e+00 -1.53174e+02 
 1.31055e+01  1.50476e+01 -1.51440e+02 
 2.31039e+01  2.41156e+01 -1.48137e+02 
 3.39483e+01  3.20129e+01 -1.43603e+02 
 4.56351e+01  3.82192e+01 -1.38385e+02 
 5.76602e+01  4.24129e+01 -1.33357e+02 
 6.85881e+01  4.45551e+01 -1.29275e+02 
 7.64379e+01  4.58727e+01 -1.26759e+02 
 7.87492e+01  4.67233e+01 -1.24203e+02 
 7.61208e+01  4.65938e+01 -1.19474e+02 
 7.08453e+01  4.49791e+01 -1.11896e+02 
 6.48591e+01  4.17074e+01 -1.01906e+02 
 5.92624e+01  3.69611e+01 -9.02799e+01 
 5.44589e+01  3.11399e+01 -7.77298e+01 
 5.03783e+01  2.47054e+01 -6.47930e+01 
 4.66454e+01  1.80987e+01 -5.18305e+01 
 4.24049e+01  1.18349e+01 -3.90964e+01 
 3.69749e+01  6.04867e+00 -2.67637e+01 
 3.13134e+01  3.17800e+00 -1.40490e+01 
 1.88078e+01 -2.75011e+00 -2.67525e+00 
-5.72438e+00  9.41660e-02 -4.88944e+00 
-1.87116e+01 -2.94831e+00 -9.22397e+00 
-2.48271e+01 -7.86909e+00 -2.13801e+01 
-2.94320e+01 -1.46574e+01 -3.20994e+01 
-3.29482e+01 -2.26599e+01 -4.42788e+01 
-3.62211e+01 -3.15054e+01 -5.70431e+01 
-4.01821e+01 -4.07132e+01 -7.04200e+01 
-4.55228e+01 -4.97791e+01 -8.40750e+01 
-5.27246e+01 -5.77188e+01 -9.75771e+01 
-6.15386e+01 -6.33528e+01 -1.09599e+02 
-7.00845e+01 -6.60671e+01 -1.18916e+02 
-7.55228e+01 -6.75809e+01 -1.23865e+02 
-7.29986e+01 -6.76322e+01 -1.27057e+02 
-6.39363e+01 -6.55372e+01 -1.31696e+02 
-5.22634e+01 -6.07120e+01 -1.38231e+02 
-4.05580e+01 -5.31108e+01 -1.45580e+02 
-2.99177e+01 -4.32963e+01 -1.52545e+02 
-2.05582e+01 -3.18860e+01 -1.58293e+02 
-1.22734e+01 -1.94512e+01 -1.62335e+02 
-4.68456e+00 -6.43389e+00 -1.64420e+02 
 2.65152e+00  6.81121e+00 -1.64433e+02 
 1.02193e+01  1.99816e+01 -1.62344e+02 
 1.85162e+01  3.26392e+01 -1.58199e+02 
 2.81036e+01  4.43632e+01 -1.52229e+02 
 3.93974e+01  5.42677e+01 -1.44866e+02 
 5.21476e+01  6.13002e+01 -1.37436e+02 
 6.45022e+01  6.49930e+01 -1.31175e+02 
 7.36642e+01  6.72279e+01 -1.27760e+02 
 7.48223e+01  6.79146e+01 -1.24587e+02 
 6.94485e+01  6.65445e+01 -1.18451e+02 
 6.15205e+01  6.27066e+01 -1.08894e+02 
 5.36614e+01  5.65187e+01 -9.69862e+01 
 4.69985e+01  4.86915e+01 -8.39144e+01 
 4.17472e+01  3.99682e+01 -7.05056e+01 
 3.76468e+01  3.10224e+01 -5.72656e+01 
 3.41743e+01  2.23679e+01 -4.44774e+01 
 3.04442e+01  1.44464e+01 -3.23871e+01 
 2.56839e+01  7.45808e+00 -2.11253e+01 
 1.95519e+01  3.36183e+00 -1.06387e+01 
 5.51651e+00 -2.55060e+00 -9.92887e-01 
 2.51624e+00  2.72469e-02 -2.81749e+00 
-9.98459e+00 -3.45844e+00 -5.26496e+00 
-1.53418e+01 -8.53046e+00 -1.48347e+01 
-1.87206e+01 -1.60596e+01 -2.40092e+01 
-2.11854e+01 -2.53465e+01 -3.48701e+01 
-2.35211e+01 -3.62915e+01 -4.66440e+01 
-2.65631e+01 -4.85842e+01 -5.94670e+01 
-3.11297e+01 -6.20121e+01 -7.33139e+01 
-3.77998e+01 -7.48271e+01 -8.81739e+01 
-4.75795e+01 -8.67056e+01 -1.03015e+02 
-5.98403e+01 -9.42761e+01 -1.17039e+02 
-7.05478e+01 -9.76639e+01 -1.24386e+02 
-6.84857e+01 -9.77507e+01 -1.28733e+02 
-5.74121e+01 -9.35830e+01 -1.36058e+02 
-4.44763e+01 -8.44095e+01 -1.46042e+02 
-3.28057e+01 -7.19942e+01 -1.56278e+02 
-2.32016e+01 -5.73428e+01 -1.65274e+02 
-1.54732e+01 -4.15150e+01 -1.72278e+02 
-9.12859e+00 -2.51235e+01 -1.77021e+02 
-3.63708e+00 -8.48965e+00 -1.79446e+02 
 1.50667e+00  8.25452e+00 -1.79551e+02 
 6.80341e+00  2.50636e+01 -1.77312e+02 
 1.27853e+01  4.17577e+01 -1.72666e+02 
 2.01764e+01  5.82913e+01 -1.65571e+02 
 2.95160e+01  7.31088e+01 -1.56067e+02 
 4.18191e+01  8.61079e+01 -1.45210e+02 
 5.64888e+01  9.41579e+01 -1.33830e+02 
 6.95310e+01  9.76354e+01 -1.27809e+02 
 6.97619e+01  9.76766e+01 -1.23487e+02 
 6.09753e+01  9.35893e+01 -1.14884e+02 
 5.03623e+01  8.48830e+01 -1.02307e+02 
 4.10889e+01  7.35760e+01 -8.81392e+01 
 3.39835e+01  6.09139e+01 -7.38389e+01 
 2.88628e+01  4.81756e+01 -6.01292e+01 
 2.52025e+01  3.61668e+01 -4.72650e+01 
 2.23539e+01  2.53604e+01 -3.53006e+01 
 1.95268e+01  1.60352e+01 -2.43800e+01 
 1.59755e+01  8.30069e+00 -1.46012e+01 
 1.03931e+01  3.21213e+00 -6.53962e+00 
-3.10114e+00 -2.20618e+00  8.69043e-01 
 5.80662e+00 -4.80005e-02 -4.71474e-01 
-4.12385e+00 -3.35649e+00 -1.49763e+00 
-7.78044e+00 -7.76551e+00 -8.42423e+00 
-9.73793e+00 -1.52380e+01 -1.58011e+01 
-1.10525e+01 -2.51628e+01 -2.47472e+01 
-1.23389e+01 -3.78491e+01 -3.46625e+01 
-1.42270e+01 -5.33747e+01 -4.58008e+01 
-1.74295e+01 -7.18809e+01 -5.84856e+01 
-2.27993e+01 -9.19638e+01 -7.32185e+01 
-3.33770e+01 -1.16581e+02 -9.02309e+01 
-4.91377e+01 -1.31784e+02 -1.09704e+02 
-6.55332e+01 -1.42728e+02 -1.18451e+02 
-6.13136e+01 -1.44591e+02 -1.27494e+02 
-4.69280e+01 -1.30645e+02 -1.42622e+02 
-3.30771e+01 -1.13763e+02 -1.58179e+02 
-2.24117e+01 -9.31210e+01 -1.71782e+02 
-1.47628e+01 -7.18304e+01 -1.82334e+02 
-9.30766e+00 -5.07804e+01 -1.89843e+02 
-5.27040e+00 -3.03155e+01 -1.94619e+02 
-2.04462e+00 -1.03313e+01 -1.96960e+02 
 8.40527e-01  9.49113e+00 -1.97038e+02 
 3.80168e+00  2.95560e+01 -1.94864e+02 
 7.30823e+00  5.02357e+01 -1.90268e+02 
 1.20204e+01  7.19749e+01 -1.82908e+02 
 1.87767e+01  9.36979e+01 -1.72342e+02 
 3.06322e+01  1.18706e+02 -1.58392e+02 
 4.75873e+01  1.33403e+02 -1.40921e+02 
 6.51274e+01  1.43304e+02 -1.33143e+02 
 6.20274e+01  1.43940e+02 -1.24055e+02 
 4.87547e+01  1.28933e+02 -1.07876e+02 
 3.60389e+01  1.11519e+02 -9.02431e+01 
 2.65595e+01  9.12301e+01 -7.35101e+01 
 2.01692e+01  7.15297e+01 -5.87292e+01 
 1.60575e+01  5.36499e+01 -4.58417e+01 
 1.34385e+01  3.82604e+01 -3.44946e+01 
 1.16399e+01  2.55488e+01 -2.43669e+01 
 1.00669e+01  1.54800e+01 -1.54156e+01 
 7.99359e+00  7.73498e+00 -7.60164e+00 
 4.02044e+00  2.49031e+00 -2.03382e+00 
-6.40742e+00 -1.71913e+00  2.60709e+00 
 2.59304e+00 -8.63242e-01  2.02019e+00 
-1.61299e+00 -1.69023e+00  1.88134e+00 
-3.41734e+00 -4.49722e+00 -1.36695e+00 
-3.87772e+00 -1.08652e+01 -5.50129e+00 
-3.95783e+00 -2.10037e+01 -1.06232e+01 
-3.88187e+00 -3.55251e+01 -1.64104e+01 
-3.84694e+00 -5.49332e+01 -2.31420e+01 
-3.95342e+00 -7.97580e+01 -3.13437e+01 
-4.40324e+00 -1.10315e+02 -4.20636e+01 
-5.37009e+00 -1.49389e+02 -5.73105e+01 
-3.32507e+00 -1.80043e+02 -8.02157e+01 
-3.31151e+01 -2.59569e+02 -1.14780e+02 
-4.35501e+01 -2.17703e+02 -1.50100e+02 
-3.16320e+01 -1.96532e+02 -1.69403e+02 
-2.04945e+01 -1.57097e+02 -1.87010e+02 
-1.28567e+01 -1.21770e+02 -1.99553e+02 
-8.02219e+00 -8.99720e+01 -2.07996e+02 
-4.99816e+00 -6.17527e+01 -2.13466e+02 
-3.04230e+00 -3.62377e+01 -2.16751e+02 
-1.69156e+00 -1.23730e+01 -2.18351e+02 
-6.66702e-01  1.08893e+01 -2.18504e+02 
 2.09724e-01  3.45866e+01 -2.17226e+02 
 1.06925e+00  5.97813e+01 -2.14296e+02 
 1.98604e+00  8.75529e+01 -2.09186e+02 
 3.15788e+00  1.18762e+02 -2.00901e+02 
 4.76768e+00  1.56723e+02 -1.87473e+02 
 3.29667e+00  1.85010e+02 -1.65812e+02 
 3.36086e+01  2.61415e+02 -1.31936e+02 
 4.45236e+01  2.16170e+02 -9.67540e+01 
 3.30460e+01  1.91850e+02 -7.70404e+01 
 2.23103e+01  1.49978e+02 -5.84610e+01 
 1.50404e+01  1.13423e+02 -4.43538e+01 
 1.05368e+01  8.21178e+01 -3.37077e+01 
 7.79675e+00  5.66349e+01 -2.53384e+01 
 6.05669e+00  3.66395e+01 -1.83918e+01 
 4.81221e+00  2.16161e+01 -1.23123e+01 
 3.70867e+00  1.10295e+01 -6.87561e+00 
 2.46330e+00  4.22673e+00 -1.97919e+00 
 8.22453e-01  9.50445e-01  1.07957e+00 
-4.86114e+00 -1.36098e+00  3.41740e+00 
 2.75048e+00  2.80212e+00  1.66084e+00 
-8.17178e-01  2.72386e+00  2.02835e+00 
-3.38039e-02  6.02683e+00 -3.79418e-01 
 6.59806e-04  2.76877e+00 -2.89157e+00 
-8.34664e-02 -6.37008e+00 -5.48274e+00 
-4.35512e-01 -2.24208e+01 -8.06480e+00 
-1.14449e+00 -4.62112e+01 -1.08162e+01 
-2.33116e+00 -7.91819e+01 -1.40579e+01 
-4.32489e+00 -1.24205e+02 -1.84598e+01 
-7.16900e+00 -1.85841e+02 -2.52504e+01 
-1.47931e+01 -2.72271e+02 -3.66618e+01 
-2.29796e+01 -4.41515e+02 -6.15862e+01 
-5.60857e+01 -4.57244e+02 -1.41099e+02 
-2.36732e+01 -2.87463e+02 -1.92178e+02 
-7.63704e+00 -2.03266e+02 -2.19583e+02 
-6.05715e-01 -1.44353e+02 -2.31863e+02 
 2.03920e+00 -1.00914e+02 -2.37886e+02 
 2.89305e+00 -6.67785e+01 -2.40731e+02 
 3.06458e+00 -3.78930e+01 -2.41994e+02 
 3.03674e+00 -1.17541e+01 -2.42358e+02 
 3.02247e+00  1.35421e+01 -2.42100e+02 
 3.14255e+00  3.97171e+01 -2.41287e+02 
 3.50822e+00  6.86340e+01 -2.39823e+02 
 4.28011e+00  1.02677e+02 -2.37432e+02 
 5.82157e+00  1.45602e+02 -2.33534e+02 
 8.20625e+00  2.02770e+02 -2.26952e+02 
 1.53841e+01  2.83087e+02 -2.15501e+02 
 2.31537e+01  4.45247e+02 -1.90320e+02 
 5.58893e+01  4.53577e+02 -1.10348e+02 
 2.31603e+01  2.76730e+02 -5.86132e+01 
 6.87635e+00  1.86455e+02 -3.03599e+01 
-3.19652e-01  1.23131e+02 -1.70384e+01 
-3.02741e+00  7.76731e+01 -9.77031e+00 
-3.82117e+00  4.47022e+01 -5.46244e+00 
-3.78482e+00  2.10407e+01 -2.50694e+00 
-3.37362e+00  5.13516e+00 -2.18724e-01 
-2.78192e+00 -3.92901e+00  1.65880e+00 
-2.07433e+00 -6.86381e+00  3.09392e+00 
-1.51281e+00 -4.93589e+00  3.56567e+00 
-2.60445e+00 -2.56747e+00  3.41877e+00 </DataArray>
            <DataArray Name="u" NumberOfComponents="2" format="ascii" type="Float64">
 4.71069e-15 -1.43441e-15 
 2.50493e-15 -4.93619e-15 
 9.94363e-15 -2.20970e-15 
 1.74303e-14 -1.08939e-15 
 2.04786e-14  2.68924e-15 
-1.05953e-14 -2.75827e-15 
-9.19792e-15 -5.74870e-15 
 5.76953e-15 -2.01751e-15 
 4.60100e-15  2.30050e-15 
 1.08939e-15 -3.81288e-15 
-8.02951e-15 -1.14707e-15 
 3.20602e-15  9.76532e-16 
 6.90936e-15 -2.59101e-15 
-1.63409e-15        00000 
 2.86768e-16  1.72061e-15 
 3.15503e-15  2.72349e-16 
-2.58925e-15        00000 
-2.72349e-16 -5.44697e-16 
 6.81075e-16  8.60305e-16 
-3.12554e-16  1.93270e-16 
-5.75776e-16  3.74255e-15 
-2.72349e-16  1.08939e-15 
 2.86768e-16 -3.15445e-15 
 2.37059e-15  3.52901e-16 
-1.15078e-15  1.15078e-15 
-3.26818e-15 -5.44697e-16 
 3.44122e-15        00000 
-3.79586e-15 -9.81733e-16 
-6.63848e-15  2.62221e-15 
 2.17879e-15  5.44697e-16 
-3.44122e-15 -2.29415e-15 
 2.16081e-15  5.31946e-16 
 1.07888e-16 -3.19168e-15 
-3.26818e-15  1.63409e-15 
-4.58987e-15 -5.73734e-16 
-4.35758e-15        00000 
 4.60112e-15 -6.90168e-15 
 3.63790e-15 -7.67220e-15 
-1.30094e-14  8.27868e-15 
 6.50468e-15 -4.13934e-15 
-7.56944e+01 -5.36810e+01 
-5.09354e+01 -3.43700e+01 
-4.20178e+01 -2.59513e+01 
-3.70901e+01 -2.10964e+01 
-3.34680e+01 -1.77675e+01 
-3.04263e+01 -1.53015e+01 
-2.77167e+01 -1.33939e+01 
-2.52215e+01 -1.18767e+01 
-2.28760e+01 -1.06476e+01 
-2.06405e+01 -9.63991e+00 
-1.84893e+01 -8.80764e+00 
-1.64042e+01 -8.11803e+00 
-1.43719e+01 -7.54698e+00 
-1.23818e+01 -7.07645e+00 
-1.04259e+01 -6.69277e+00 
-8.49708e+00 -6.38553e+00 
-6.58942e+00 -6.14682e+00 
-4.69764e+00 -5.97079e+00 
-2.81691e+00 -5.85327e+00 
-9.42711e-01 -5.79153e+00 
 9.29390e-01 -5.78416e+00 
 2.80360e+00 -5.83104e+00 
 4.68434e+00 -5.93326e+00 
 6.57612e+00 -6.09324e+00 
 8.48379e+00 -6.31480e+00 
 1.04126e+01 -6.60340e+00 
 1.23686e+01 -6.96649e+00 
 1.43588e+01 -7.41394e+00 
 1.63914e+01 -7.95880e+00 
 1.84769e+01 -8.61843e+00 
 2.06290e+01 -9.41622e+00 
 2.28662e+01 -1.03846e+01 
 2.52152e+01 -1.15698e+01 
 2.77173e+01 -1.30412e+01 
 3.04405e+01 -1.49085e+01 
 3.35095e+01 -1.73557e+01 
 3.71546e+01 -2.06966e+01 
 4.17109e+01 -2.54857e+01 
 4.84952e+01 -3.33054e+01 
 6.37765e+01 -4.72109e+01 
-1.38657e+02 -9.27601e+01 
-1.09338e+02 -7.35806e+01 
-9.15091e+01 -5.89935e+01 
-8.04768e+01 -4.91588e+01 
-7.22712e+01 -4.20920e+01 
-6.54684e+01 -3.67737e+01 
-5.94789e+01 -3.26296e+01 
-5.40138e+01 -2.93205e+01 
-4.89126e+01 -2.66328e+01 
-4.40771e+01 -2.44248e+01 
-3.94434e+01 -2.25984e+01 
-3.49667e+01 -2.10829e+01 
-3.06144e+01 -1.98264e+01 
-2.63614e+01 -1.87901e+01 
-2.21879e+01 -1.79444e+01 
-1.80774e+01 -1.72668e+01 
-1.40159e+01 -1.67403e+01 
-9.99103e+00 -1.63521e+01 
-5.99165e+00 -1.60934e+01 
-2.00733e+00 -1.59583e+01 
 1.97213e+00 -1.59437e+01 
 5.95638e+00 -1.60494e+01 
 9.95560e+00 -1.62779e+01 
 1.39802e+01 -1.66345e+01 
 1.80414e+01 -1.71275e+01 
 2.21515e+01 -1.77689e+01 
 2.63245e+01 -1.85751e+01 
 3.05770e+01 -1.95676e+01 
 3.49290e+01 -2.07749e+01 
 3.94055e+01 -2.22350e+01 
 4.40398e+01 -2.39983e+01 
 4.88770e+01 -2.61341e+01 
 5.39819e+01 -2.87387e+01 
 5.94528e+01 -3.19507e+01 
 6.54459e+01 -3.59739e+01 
 7.22263e+01 -4.11168e+01 
 8.02453e+01 -4.78413e+01 
 9.02604e+01 -5.68270e+01 
 1.04502e+02 -6.93436e+01 
 1.28522e+02 -8.66921e+01 
-1.95793e+02 -1.27508e+02 
-1.65401e+02 -1.09250e+02 
-1.42951e+02 -9.31394e+01 
-1.26458e+02 -8.02761e+01 
-1.13475e+02 -7.02772e+01 
-1.02600e+02 -6.24422e+01 
-9.30419e+01 -5.61934e+01 
-8.43589e+01 -5.11293e+01 
-7.62903e+01 -4.69751e+01 
-6.86727e+01 -4.35382e+01 
-6.13975e+01 -4.06804e+01 
-5.43883e+01 -3.82996e+01 
-4.75893e+01 -3.63198e+01 
-4.09577e+01 -3.46828e+01 
-3.44596e+01 -3.33445e+01 
-2.80672e+01 -3.22708e+01 
-2.17567e+01 -3.14358e+01 
-1.55074e+01 -3.08202e+01 
-9.30065e+00 -3.04103e+01 
-3.11899e+00 -3.01972e+01 
 3.05451e+00 -3.01764e+01 
 9.23592e+00 -3.03475e+01 
 1.54422e+01 -3.07144e+01 
 2.16906e+01 -3.12852e+01 
 2.79999e+01 -3.20730e+01 
 3.43908e+01 -3.30962e+01 
 4.08870e+01 -3.43797e+01 
 4.75163e+01 -3.59563e+01 
 5.43124e+01 -3.78692e+01 
 6.13181e+01 -4.01745e+01 
 6.85887e+01 -4.29460e+01 
 7.61992e+01 -4.62817e+01 
 8.42550e+01 -5.03128e+01 
 9.29098e+01 -5.52170e+01 
 1.02396e+02 -6.12365e+01 
 1.13081e+02 -6.86997e+01 
 1.25538e+02 -7.80344e+01 
 1.40656e+02 -8.97540e+01 
 1.60609e+02 -1.04507e+02 
 1.89106e+02 -1.22377e+02 
-2.49993e+02 -1.60674e+02 
-2.18797e+02 -1.43021e+02 
-1.93252e+02 -1.26628e+02 
-1.72541e+02 -1.12442e+02 
-1.55253e+02 -1.00620e+02 
-1.40407e+02 -9.09135e+01 
-1.27249e+02 -8.29366e+01 
-1.15276e+02 -7.63415e+01 
-1.04161e+02 -7.08554e+01 
-9.36858e+01 -6.62705e+01 
-8.37019e+01 -6.24290e+01 
-7.41015e+01 -5.92103e+01 
-6.48049e+01 -5.65215e+01 
-5.57505e+01 -5.42906e+01 
-4.68893e+01 -5.24618e+01 
-3.81810e+01 -5.09915e+01 
-2.95911e+01 -4.98466e+01 
-2.10897e+01 -4.90021e+01 
-1.26498e+01 -4.84401e+01 
-4.24614e+00 -4.81490e+01 
 4.14563e+00 -4.81231e+01 
 1.25487e+01 -4.83619e+01 
 2.09874e+01 -4.88705e+01 
 2.94869e+01 -4.96596e+01 
 3.80741e+01 -5.07464e+01 
 4.67790e+01 -5.21546e+01 
 5.56355e+01 -5.39165e+01 
 6.46838e+01 -5.60739e+01 
 7.39722e+01 -5.86810e+01 
 8.35612e+01 -6.18069e+01 
 9.35281e+01 -6.55404e+01 
 1.03976e+02 -6.99949e+01 
 1.15043e+02 -7.53157e+01 
 1.26926e+02 -8.16879e+01 
 1.39903e+02 -8.93440e+01 
 1.54384e+02 -9.85675e+01 
 1.70953e+02 -1.09676e+02 
 1.90423e+02 -1.22967e+02 
 2.14465e+02 -1.38655e+02 
 2.45131e+02 -1.56355e+02 
-3.02471e+02 -1.93663e+02 
-2.70291e+02 -1.76453e+02 
-2.42299e+02 -1.60157e+02 
-2.18202e+02 -1.45460e+02 
-1.97196e+02 -1.32641e+02 
-1.78661e+02 -1.21689e+02 
-1.62004e+02 -1.12416e+02 
-1.46751e+02 -1.04582e+02 
-1.32558e+02 -9.79605e+01 
-1.19177e+02 -9.23607e+01 
-1.06430e+02 -8.76258e+01 
-9.41844e+01 -8.36302e+01 
-8.23378e+01 -8.02739e+01 
-7.08110e+01 -7.74768e+01 
-5.95402e+01 -7.51759e+01 
-4.84722e+01 -7.33214e+01 
-3.75616e+01 -7.18745e+01 
-2.67687e+01 -7.08062e+01 
-1.60576e+01 -7.00954e+01 
-5.39480e+00 -6.97284e+01 
 5.25206e+00 -6.96984e+01 
 1.59138e+01 -7.00048e+01 
 2.66228e+01 -7.06538e+01 
 3.74123e+01 -7.16583e+01 
 4.83181e+01 -7.30380e+01 
 5.93795e+01 -7.48213e+01 
 7.06415e+01 -7.70451e+01 
 8.21563e+01 -7.97574e+01 
 9.39863e+01 -8.30190e+01 
 1.06208e+02 -8.69056e+01 
 1.18919e+02 -9.15118e+01 
 1.32243e+02 -9.69537e+01 
 1.46343e+02 -1.03373e+02 
 1.61438e+02 -1.10940e+02 
 1.77823e+02 -1.19850e+02 
 1.95899e+02 -1.30317e+02 
 2.16192e+02 -1.42543e+02 
 2.39345e+02 -1.56654e+02 
 2.66509e+02 -1.72634e+02 
 2.98689e+02 -1.90020e+02 
-3.53772e+02 -2.27279e+02 
-3.20334e+02 -2.10418e+02 
-2.90159e+02 -1.94338e+02 
-2.63176e+02 -1.79509e+02 
-2.38919e+02 -1.66194e+02 
-2.17019e+02 -1.54480e+02 
-1.97042e+02 -1.44306e+02 
-1.78593e+02 -1.35534e+02 
-1.61347e+02 -1.28000e+02 
-1.45054e+02 -1.21548e+02 
-1.29519e+02 -1.16038e+02 
-1.14594e+02 -1.11352e+02 
-1.00159e+02 -1.07391e+02 
-8.61201e+01 -1.04074e+02 
-7.23999e+01 -1.01334e+02 
-5.89331e+01 -9.91191e+01 
-4.56636e+01 -9.73873e+01 
-3.25417e+01 -9.61068e+01 
-1.95226e+01 -9.52546e+01 
-6.56432e+00 -9.48157e+01 
 6.37378e+00 -9.47823e+01 
 1.93304e+01 -9.51541e+01 
 3.23462e+01 -9.59378e+01 
 4.54627e+01 -9.71474e+01 
 5.87246e+01 -9.88049e+01 
 7.21808e+01 -1.00941e+02 
 8.58865e+01 -1.03595e+02 
 9.99053e+01 -1.06817e+02 
 1.14312e+02 -1.10672e+02 
 1.29198e+02 -1.15235e+02 
 1.44674e+02 -1.20598e+02 
 1.60879e+02 -1.26871e+02 
 1.77989e+02 -1.34182e+02 
 1.96228e+02 -1.42672e+02 
 2.15884e+02 -1.52492e+02 
 2.37321e+02 -1.63788e+02 
 2.60973e+02 -1.76667e+02 
 2.87302e+02 -1.91149e+02 
 3.17063e+02 -2.07117e+02 
 3.50696e+02 -2.24166e+02 
-4.04158e+02 -2.62028e+02 
-3.69215e+02 -2.45460e+02 
-3.36945e+02 -2.29624e+02 
-3.07361e+02 -2.14839e+02 
-2.80185e+02 -2.01318e+02 
-2.55201e+02 -1.89174e+02 
-2.32105e+02 -1.78413e+02 
-2.10583e+02 -1.68969e+02 
-1.90353e+02 -1.60738e+02 
-1.71176e+02 -1.53603e+02 
-1.52860e+02 -1.47450e+02 
-1.35244e+02 -1.42175e+02 
-1.18202e+02 -1.37686e+02 
-1.01627e+02 -1.33907e+02 
-8.54295e+01 -1.30773e+02 
-6.95344e+01 -1.28230e+02 
-5.38756e+01 -1.26238e+02 
-3.83941e+01 -1.24762e+02 
-2.30362e+01 -1.23779e+02 
-7.75169e+00 -1.23274e+02 
 7.50835e+00 -1.23238e+02 
 2.27905e+01 -1.23671e+02 
 3.81435e+01 -1.24580e+02 
 5.36172e+01 -1.25979e+02 
 6.92649e+01 -1.27891e+02 
 8.51444e+01 -1.30348e+02 
 1.01321e+02 -1.33389e+02 
 1.17867e+02 -1.37065e+02 
 1.34869e+02 -1.41437e+02 
 1.52427e+02 -1.46579e+02 
 1.70663e+02 -1.52574e+02 
 1.89724e+02 -1.59520e+02 
 2.09787e+02 -1.67524e+02 
 2.31072e+02 -1.76696e+02 
 2.53842e+02 -1.87146e+02 
 2.78411e+02 -1.98961e+02 
 3.05118e+02 -2.12184e+02 
 3.34274e+02 -2.26778e+02 
 3.66367e+02 -2.42599e+02 
 4.01565e+02 -2.59330e+02 
-4.53777e+02 -2.98250e+02 
-4.17129e+02 -2.81938e+02 
-3.82778e+02 -2.66348e+02 
-3.50756e+02 -2.51690e+02 
-3.20882e+02 -2.38127e+02 
-2.93035e+02 -2.25769e+02 
-2.67005e+02 -2.14651e+02 
-2.42546e+02 -2.04754e+02 
-2.19422e+02 -1.96017e+02 
-1.97416e+02 -1.88358e+02 
-1.76346e+02 -1.81692e+02 
-1.56051e+02 -1.75931e+02 
-1.36400e+02 -1.70998e+02 
-1.17277e+02 -1.66823e+02 
-9.85868e+01 -1.63345e+02 
-8.02439e+01 -1.60514e+02 
-6.21740e+01 -1.58289e+02 
-4.43096e+01 -1.56639e+02 
-2.65888e+01 -1.55539e+02 
-8.95358e+00 -1.54974e+02 
 8.65299e+00 -1.54936e+02 
 2.62850e+01 -1.55424e+02 
 4.39991e+01 -1.56446e+02 
 6.18530e+01 -1.58015e+02 
 7.99078e+01 -1.60154e+02 
 9.82297e+01 -1.62894e+02 
 1.16891e+02 -1.66273e+02 
 1.35975e+02 -1.70339e+02 
 1.55574e+02 -1.75149e+02 
 1.75796e+02 -1.80769e+02 
 1.96768e+02 -1.87274e+02 
 2.18638e+02 -1.94744e+02 
 2.41581e+02 -2.03265e+02 
 2.65799e+02 -2.12919e+02 
 2.91528e+02 -2.23780e+02 
 3.19029e+02 -2.35893e+02 
 3.48558e+02 -2.49261e+02 
 3.80313e+02 -2.63821e+02 
 4.14617e+02 -2.79439e+02 
 4.51525e+02 -2.95880e+02 
-5.02700e+02 -3.36169e+02 
-4.64199e+02 -3.20094e+02 
-4.27752e+02 -3.04740e+02 
-3.93383e+02 -2.90248e+02 
-3.60960e+02 -2.76739e+02 
-3.30419e+02 -2.64305e+02 
-3.01611e+02 -2.52994e+02 
-2.74343e+02 -2.42810e+02 
-2.48421e+02 -2.33723e+02 
-2.23656e+02 -2.25682e+02 
-1.99876e+02 -2.18622e+02 
-1.76929e+02 -2.12477e+02 
-1.54680e+02 -2.07183e+02 
-1.33013e+02 -2.02678e+02 
-1.11826e+02 -1.98910e+02 
-9.10257e+01 -1.95833e+02 
-7.05319e+01 -1.93408e+02 
-5.02695e+01 -1.91606e+02 
-3.01694e+01 -1.90404e+02 
-1.01662e+01 -1.89787e+02 
 9.80448e+00 -1.89748e+02 
 2.98036e+01 -1.90284e+02 
 4.98952e+01 -1.91404e+02 
 7.01441e+01 -1.93121e+02 
 9.06186e+01 -1.95457e+02 
 1.11392e+02 -1.98439e+02 
 1.32544e+02 -2.02104e+02 
 1.54163e+02 -2.06495e+02 
 1.76348e+02 -2.11664e+02 
 1.99211e+02 -2.17667e+02 
 2.22880e+02 -2.24567e+02 
 2.47500e+02 -2.32430e+02 
 2.73238e+02 -2.41320e+02 
 3.00279e+02 -2.51297e+02 
 3.28826e+02 -2.62405e+02 
 3.59092e+02 -2.74662e+02 
 3.91271e+02 -2.88049e+02 
 4.25481e+02 -3.02497e+02 
 4.61951e+02 -3.17891e+02 
 5.00698e+02 -3.34067e+02 
-5.50973e+02 -3.75947e+02 
-5.10510e+02 -3.60095e+02 
-4.71945e+02 -3.44969e+02 
-4.35282e+02 -3.30662e+02 
-4.00411e+02 -3.17260e+02 
-3.67300e+02 -3.04840e+02 
-3.35838e+02 -2.93449e+02 
-3.05877e+02 -2.83103e+02 
-2.77252e+02 -2.73791e+02 
-2.49799e+02 -2.65484e+02 
-2.23364e+02 -2.58137e+02 
-1.97801e+02 -2.51700e+02 
-1.72979e+02 -2.46123e+02 
-1.48782e+02 -2.41354e+02 
-1.25102e+02 -2.37349e+02 
-1.01845e+02 -2.34068e+02 
-7.89233e+01 -2.31476e+02 
-5.62558e+01 -2.29546e+02 
-3.37672e+01 -2.28257e+02 
-1.13856e+01 -2.27596e+02 
 1.09597e+01 -2.27555e+02 
 3.33362e+01 -2.28133e+02 
 5.58144e+01 -2.29337e+02 
 7.84656e+01 -2.31180e+02 
 1.01364e+02 -2.33679e+02 
 1.24590e+02 -2.36863e+02 
 1.48227e+02 -2.40763e+02 
 1.72369e+02 -2.45416e+02 
 1.97119e+02 -2.50868e+02 
 2.22590e+02 -2.57167e+02 
 2.48908e+02 -2.64362e+02 
 2.76215e+02 -2.72507e+02 
 3.04664e+02 -2.81647e+02 
 3.34423e+02 -2.91822e+02 
 3.65666e+02 -3.03056e+02 
 3.98567e+02 -3.15351e+02 
 4.33270e+02 -3.28677e+02 
 4.69845e+02 -3.42970e+02 
 5.08468e+02 -3.58138e+02 
 5.49159e+02 -3.74065e+02 
-5.98615e+02 -4.17688e+02 
-5.56112e+02 -4.02053e+02 
-5.15407e+02 -3.87148e+02 
-4.76481e+02 -3.73034e+02 
-4.39233e+02 -3.59772e+02 
-4.03644e+02 -3.47423e+02 
-3.69632e+02 -3.36029e+02 
-3.37074e+02 -3.25612e+02 
-3.05833e+02 -3.16173e+02 
-2.75767e+02 -3.07695e+02 
-2.46734e+02 -3.00150e+02 
-2.18599e+02 -2.93502e+02 
-1.91236e+02 -2.87712e+02 
-1.64530e+02 -2.82740e+02 
-1.38374e+02 -2.78549e+02 
-1.12668e+02 -2.75105e+02 
-8.73217e+01 -2.72377e+02 
-6.22495e+01 -2.70343e+02 
-3.73707e+01 -2.68983e+02 
-1.26079e+01 -2.68286e+02 
 1.21155e+01 -2.68243e+02 
 3.68724e+01 -2.68856e+02 
 6.17390e+01 -2.70129e+02 
 8.67921e+01 -2.72074e+02 
 1.12112e+02 -2.74708e+02 
 1.37781e+02 -2.78054e+02 
 1.63891e+02 -2.82140e+02 
 1.90536e+02 -2.86998e+02 
 2.17821e+02 -2.92666e+02 
 2.45860e+02 -2.99182e+02 
 2.74777e+02 -3.06588e+02 
 3.04703e+02 -3.14920e+02 
 3.35783e+02 -3.24214e+02 
 3.68166e+02 -3.34493e+02 
 4.02002e+02 -3.45767e+02 
 4.37433e+02 -3.58028e+02 
 4.74570e+02 -3.71244e+02 
 5.13453e+02 -3.85358e+02 
 5.54233e+02 -4.00301e+02 
 5.96945e+02 -4.15992e+02 
-6.45638e+02 -4.61470e+02 
-6.01041e+02 -4.46046e+02 
-5.58179e+02 -4.31357e+02 
-5.17012e+02 -4.17440e+02 
-4.77436e+02 -4.04338e+02 
-4.39441e+02 -3.92098e+02 
-4.02960e+02 -3.80756e+02 
-3.67889e+02 -3.70334e+02 
-3.34110e+02 -3.60840e+02 
-3.01499e+02 -3.52267e+02 
-2.69926e+02 -3.44597e+02 
-2.39267e+02 -3.37807e+02 
-2.09401e+02 -3.31866e+02 
-1.80215e+02 -3.26746e+02 
-1.51602e+02 -3.22415e+02 
-1.23463e+02 -3.18845e+02 
-9.57031e+01 -3.16012e+02 
-6.82337e+01 -3.13896e+02 
-4.09697e+01 -3.12480e+02 
-1.38293e+01 -3.11754e+02 
 1.32689e+01 -3.11711e+02 
 4.04026e+01 -3.12351e+02 
 6.76529e+01 -3.13680e+02 
 9.51011e+01 -3.15706e+02 
 1.22831e+02 -3.18445e+02 
 1.50931e+02 -3.21916e+02 
 1.79493e+02 -3.26144e+02 
 2.08615e+02 -3.31154e+02 
 2.38402e+02 -3.36978e+02 
 2.68966e+02 -3.43646e+02 
 3.00426e+02 -3.51190e+02 
 3.32908e+02 -3.59636e+02 
 3.66544e+02 -3.69008e+02 
 4.01468e+02 -3.79320e+02 
 4.37810e+02 -3.90571e+02 
 4.75690e+02 -4.02750e+02 
 5.15195e+02 -4.15824e+02 
 5.56347e+02 -4.29747e+02 
 5.99290e+02 -4.44468e+02 
 6.44079e+02 -4.59933e+02 
-6.92046e+02 -5.07343e+02 
-6.45319e+02 -4.92129e+02 
-6.00291e+02 -4.77652e+02 
-5.56898e+02 -4.63934e+02 
-5.15034e+02 -4.51004e+02 
-4.74689e+02 -4.38898e+02 
-4.35804e+02 -4.27645e+02 
-3.98290e+02 -4.17267e+02 
-3.62043e+02 -4.07773e+02 
-3.26950e+02 -3.99163e+02 
-2.92894e+02 -3.91428e+02 
-2.59758e+02 -3.84552e+02 
-2.27429e+02 -3.78514e+02 
-1.95796e+02 -3.73292e+02 
-1.64754e+02 -3.68862e+02 
-1.34203e+02 -3.65202e+02 
-1.04046e+02 -3.62291e+02 
-7.41927e+01 -3.60113e+02 
-4.45547e+01 -3.58655e+02 
-1.50464e+01 -3.57907e+02 
 1.44175e+01 -3.57864e+02 
 4.39185e+01 -3.58526e+02 
 7.35417e+01 -3.59896e+02 
 1.03372e+02 -3.61985e+02 
 1.33497e+02 -3.64802e+02 
 1.64007e+02 -3.68366e+02 
 1.94997e+02 -3.72696e+02 
 2.26565e+02 -3.77813e+02 
 2.58816e+02 -3.83742e+02 
 2.91859e+02 -3.90506e+02 
 3.25809e+02 -3.98129e+02 
 3.60786e+02 -4.06629e+02 
 3.96911e+02 -4.16022e+02 
 4.34304e+02 -4.26312e+02 
 4.73081e+02 -4.37496e+02 
 5.13344e+02 -4.49559e+02 
 5.55165e+02 -4.62472e+02 
 5.98560e+02 -4.76199e+02 
 6.43672e+02 -4.90701e+02 
 6.90575e+02 -5.05944e+02 
-7.37834e+02 -5.55335e+02 
-6.88957e+02 -5.40331e+02 
-6.41757e+02 -5.26064e+02 
-5.96155e+02 -5.12546e+02 
-5.52033e+02 -4.99796e+02 
-5.09384e+02 -4.87839e+02 
-4.68151e+02 -4.76702e+02 
-4.28254e+02 -4.66402e+02 
-3.89599e+02 -4.56949e+02 
-3.52083e+02 -4.48349e+02 
-3.15598e+02 -4.40595e+02 
-2.80035e+02 -4.33680e+02 
-2.45285e+02 -4.27589e+02 
-2.11241e+02 -4.22305e+02 
-1.77800e+02 -4.17811e+02 
-1.44862e+02 -4.14090e+02 
-1.12330e+02 -4.11127e+02 
-8.01121e+01 -4.08906e+02 
-4.81167e+01 -4.07418e+02 
-1.62559e+01 -4.06654e+02 
 1.55589e+01 -4.06611e+02 
 4.74120e+01 -4.07289e+02 
 7.93918e+01 -4.08691e+02 
 1.11586e+02 -4.10823e+02 
 1.44085e+02 -4.13696e+02 
 1.76981e+02 -4.17323e+02 
 2.10369e+02 -4.21721e+02 
 2.44349e+02 -4.26906e+02 
 2.79024e+02 -4.32896e+02 
 3.14501e+02 -4.39711e+02 
 3.50890e+02 -4.47365e+02 
 3.88304e+02 -4.55872e+02 
 4.26855e+02 -4.65240e+02 
 4.66654e+02 -4.75470e+02 
 5.07804e+02 -4.86555e+02 
 5.50397e+02 -4.98480e+02 
 5.94495e+02 -5.11220e+02 
 6.40110e+02 -5.24746e+02 
 6.87392e+02 -5.39032e+02 
 7.36433e+02 -5.54055e+02 
-7.83001e+02 -6.05466e+02 
-7.31965e+02 -5.90672e+02 
-6.82595e+02 -5.76614e+02 
-6.34797e+02 -5.63297e+02 
-5.88446e+02 -5.50731e+02 
-5.43531e+02 -5.38936e+02 
-4.99998e+02 -5.27933e+02 
-4.57770e+02 -5.17735e+02 
-4.16762e+02 -5.08356e+02 
-3.76876e+02 -4.99799e+02 
-3.38013e+02 -4.92064e+02 
-3.00069e+02 -4.85147e+02 
-2.62940e+02 -4.79038e+02 
-2.26523e+02 -4.73726e+02 
-1.90716e+02 -4.69199e+02 
-1.55421e+02 -4.65443e+02 
-1.20540e+02 -4.62447e+02 
-8.59800e+01 -4.60200e+02 
-5.16484e+01 -4.58693e+02 
-1.74550e+01 -4.57920e+02 
 1.66912e+01 -4.57878e+02 
 5.08768e+01 -4.58566e+02 
 8.51924e+01 -4.59988e+02 
 1.19728e+02 -4.62149e+02 
 1.54576e+02 -4.65058e+02 
 1.89830e+02 -4.68724e+02 
 2.25585e+02 -4.73160e+02 
 2.61941e+02 -4.78379e+02 
 2.98999e+02 -4.84396e+02 
 3.36864e+02 -4.91223e+02 
 3.75642e+02 -4.98871e+02 
 4.15439e+02 -5.07348e+02 
 4.56361e+02 -5.16658e+02 
 4.98510e+02 -5.26798e+02 
 5.41981e+02 -5.37761e+02 
 5.86858e+02 -5.49532e+02 
 6.33199e+02 -5.62091e+02 
 6.81017e+02 -5.75415e+02 
 7.30466e+02 -5.89486e+02 
 7.81656e+02 -6.04292e+02 
-8.27539e+02 -6.57738e+02 
-7.74342e+02 -6.43156e+02 
-7.22809e+02 -6.29307e+02 
-6.72831e+02 -6.16191e+02 
-6.24277e+02 -6.03813e+02 
-5.77131e+02 -5.92187e+02 
-5.31339e+02 -5.81330e+02 
-4.86827e+02 -5.71254e+02 
-4.43514e+02 -5.61969e+02 
-4.01309e+02 -5.53482e+02 
-3.60116e+02 -5.45795e+02 
-3.19837e+02 -5.38905e+02 
-2.80371e+02 -5.32808e+02 
-2.41620e+02 -5.27496e+02 
-2.03482e+02 -5.22960e+02 
-1.65861e+02 -5.19192e+02 
-1.28661e+02 -5.16181e+02 
-9.17856e+01 -5.13921e+02 
-5.51430e+01 -5.12405e+02 
-1.86411e+01 -5.11627e+02 
 1.78127e+01 -5.11586e+02 
 5.43068e+01 -5.12282e+02 
 9.09335e+01 -5.13715e+02 
 1.27785e+02 -5.15892e+02 
 1.64953e+02 -5.18818e+02 
 2.02533e+02 -5.22501e+02 
 2.40621e+02 -5.26951e+02 
 2.79315e+02 -5.32178e+02 
 3.18716e+02 -5.38191e+02 
 3.58924e+02 -5.45001e+02 
 4.00042e+02 -5.52612e+02 
 4.42173e+02 -5.61031e+02 
 4.85415e+02 -5.70257e+02 
 5.29865e+02 -5.80287e+02 
 5.75611e+02 -5.91112e+02 
 6.22733e+02 -6.02718e+02 
 6.71287e+02 -6.15091e+02 
 7.21288e+02 -6.28212e+02 
 7.72896e+02 -6.42070e+02 
 8.26238e+02 -6.56658e+02 
-8.71444e+02 -7.12154e+02 
-8.16092e+02 -6.97785e+02 
-7.62407e+02 -6.84144e+02 
-7.10267e+02 -6.71230e+02 
-6.59535e+02 -6.59041e+02 
-6.10190e+02 -6.47590e+02 
-5.62176e+02 -6.36889e+02 
-5.15423e+02 -6.26947e+02 
-4.69850e+02 -6.17774e+02 
-4.25370e+02 -6.09377e+02 
-3.81892e+02 -6.01759e+02 
-3.39322e+02 -5.94920e+02 
-2.97561e+02 -5.88857e+02 
-2.56514e+02 -5.83567e+02 
-2.16083e+02 -5.79043e+02 
-1.76170e+02 -5.75280e+02 
-1.36681e+02 -5.72271e+02 
-9.75210e+01 -5.70010e+02 
-5.85955e+01 -5.68492e+02 
-1.98124e+01 -5.67714e+02 
 1.89222e+01 -5.67675e+02 
 5.76977e+01 -5.68373e+02 
 9.66077e+01 -5.69811e+02 
 1.35745e+02 -5.71992e+02 
 1.75203e+02 -5.74921e+02 
 2.15077e+02 -5.78604e+02 
 2.55462e+02 -5.83048e+02 
 2.96456e+02 -5.88259e+02 
 3.38158e+02 -5.94246e+02 
 3.80666e+02 -6.01014e+02 
 4.24079e+02 -6.08566e+02 
 4.68496e+02 -6.16904e+02 
 5.14012e+02 -6.26028e+02 
 5.60717e+02 -6.35931e+02 
 6.08698e+02 -6.46606e+02 
 6.58029e+02 -6.58042e+02 
 7.08768e+02 -6.70225e+02 
 7.60932e+02 -6.83142e+02 
 8.14689e+02 -6.96787e+02 
 8.70177e+02 -7.11157e+02 
-9.14706e+02 -7.68699e+02 
-8.57211e+02 -7.54544e+02 
-8.01388e+02 -7.41113e+02 
-7.47107e+02 -7.28401e+02 
-6.94222e+02 -7.16404e+02 
-6.42708e+02 -7.05131e+02 
-5.92509e+02 -6.94591e+02 
-5.43553e+02 -6.84793e+02 
-4.95761e+02 -6.75745e+02 
-4.49050e+02 -6.67452e+02 
-4.03330e+02 -6.59920e+02 
-3.58510e+02 -6.53149e+02 
-3.14496e+02 -6.47139e+02 
-2.71193e+02 -6.41888e+02 
-2.28505e+02 -6.37393e+02 
-1.86336e+02 -6.33650e+02 
-1.44592e+02 -6.30654e+02 
-1.03179e+02 -6.28402e+02 
-6.20013e+01 -6.26890e+02 
-2.09671e+01 -6.26115e+02 
 2.00185e+01 -6.26077e+02 
 6.10453e+01 -6.26775e+02 
 1.02208e+02 -6.28211e+02 
 1.43600e+02 -6.30387e+02 
 1.85315e+02 -6.33307e+02 
 2.27447e+02 -6.36976e+02 
 2.70093e+02 -6.41397e+02 
 3.13349e+02 -6.46576e+02 
 3.57310e+02 -6.52517e+02 
 4.02076e+02 -6.59224e+02 
 4.47740e+02 -6.66699e+02 
 4.94399e+02 -6.74940e+02 
 5.42145e+02 -6.83947e+02 
 5.91065e+02 -6.93712e+02 
 6.41241e+02 -7.04229e+02 
 6.92749e+02 -7.15489e+02 
 7.45645e+02 -7.27480e+02 
 7.99951e+02 -7.40193e+02 
 8.55842e+02 -7.53625e+02 
 9.13465e+02 -7.67777e+02 
-9.57321e+02 -8.27363e+02 
-8.97700e+02 -8.13425e+02 
-8.39758e+02 -8.00204e+02 
-7.83356e+02 -7.87694e+02 
-7.28343e+02 -7.75890e+02 
-6.74690e+02 -7.64798e+02 
-6.22339e+02 -7.54424e+02 
-5.71217e+02 -7.44776e+02 
-5.21246e+02 -7.35861e+02 
-4.72344e+02 -7.27684e+02 
-4.24423e+02 -7.20250e+02 
-3.77395e+02 -7.13561e+02 
-3.31167e+02 -7.07618e+02 
-2.85647e+02 -7.02421e+02 
-2.40739e+02 -6.97968e+02 
-1.96351e+02 -6.94256e+02 
-1.52387e+02 -6.91284e+02 
-1.08754e+02 -6.89048e+02 
-6.53571e+01 -6.87547e+02 
-2.21040e+01 -6.86779e+02 
 2.11006e+01 -6.86742e+02 
 6.43469e+01 -6.87438e+02 
 1.07730e+02 -6.88867e+02 
 1.51343e+02 -6.91030e+02 
 1.95280e+02 -6.93932e+02 
 2.39636e+02 -6.97573e+02 
 2.84505e+02 -7.01958e+02 
 3.29983e+02 -7.07090e+02 
 3.76165e+02 -7.12972e+02 
 4.23146e+02 -7.19603e+02 
 4.71020e+02 -7.26986e+02 
 5.19880e+02 -7.35119e+02 
 5.69814e+02 -7.43998e+02 
 6.20909e+02 -7.53617e+02 
 6.73246e+02 -7.63971e+02 
 7.26899e+02 -7.75051e+02 
 7.81925e+02 -7.86849e+02 
 8.38351e+02 -7.99358e+02 
 8.96358e+02 -8.12577e+02 
 9.56100e+02 -8.26508e+02 
-9.99279e+02 -8.88123e+02 
-9.37552e+02 -8.74403e+02 
-8.77512e+02 -8.61393e+02 
-8.19014e+02 -8.49086e+02 
-7.61900e+02 -8.37476e+02 
-7.06137e+02 -8.26566e+02 
-6.51666e+02 -8.16361e+02 
-5.98413e+02 -8.06869e+02 
-5.46301e+02 -7.98093e+02 
-4.95246e+02 -7.90040e+02 
-4.45165e+02 -7.82714e+02 
-3.95968e+02 -7.76117e+02 
-3.47566e+02 -7.70252e+02 
-2.99867e+02 -7.65119e+02 
-2.52779e+02 -7.60717e+02 
-2.06207e+02 -7.57047e+02 
-1.60059e+02 -7.54106e+02 
-1.14241e+02 -7.51893e+02 
-6.86601e+01 -7.50407e+02 
-2.32220e+01 -7.49647e+02 
 2.21679e+01 -7.49613e+02 
 6.75997e+01 -7.50304e+02 
 1.13168e+02 -7.51721e+02 
 1.58968e+02 -7.53866e+02 
 2.05091e+02 -7.56741e+02 
 2.51633e+02 -7.60346e+02 
 2.98688e+02 -7.64685e+02 
 3.46350e+02 -7.69759e+02 
 3.94712e+02 -7.75568e+02 
 4.43869e+02 -7.82114e+02 
 4.93912e+02 -7.89395e+02 
 5.44932e+02 -7.97409e+02 
 5.97017e+02 -8.06153e+02 
 6.50250e+02 -8.15620e+02 
 7.04712e+02 -8.25807e+02 
 7.60478e+02 -8.36705e+02 
 8.17608e+02 -8.48308e+02 
 8.76130e+02 -8.60612e+02 
 9.36231e+02 -8.73618e+02 
 9.98073e+02 -8.87328e+02 
-1.04058e+03 -9.50961e+02 
-9.76768e+02 -9.37461e+02 
-9.14654e+02 -9.24664e+02 
-8.54084e+02 -9.12560e+02 
-7.94895e+02 -9.01143e+02 
-7.37053e+02 -8.90417e+02 
-6.80494e+02 -8.80384e+02 
-6.25145e+02 -8.71050e+02 
-5.70926e+02 -8.62418e+02 
-5.17757e+02 -8.54495e+02 
-4.65553e+02 -8.47283e+02 
-4.14227e+02 -8.40786e+02 
-3.63689e+02 -8.35007e+02 
-3.13851e+02 -8.29946e+02 
-2.64619e+02 -8.25604e+02 
-2.15901e+02 -8.21982e+02 
-1.67606e+02 -8.19078e+02 
-1.19639e+02 -8.16893e+02 
-7.19085e+01 -8.15426e+02 
-2.43205e+01 -8.14677e+02 
 2.32197e+01 -8.14644e+02 
 7.08020e+01 -8.15329e+02 
 1.18521e+02 -8.16732e+02 
 1.66471e+02 -8.18854e+02 
 2.14745e+02 -8.21695e+02 
 2.63436e+02 -8.25258e+02 
 3.12639e+02 -8.29542e+02 
 3.62445e+02 -8.34548e+02 
 4.12949e+02 -8.40277e+02 
 4.64242e+02 -8.46728e+02 
 5.16415e+02 -8.53900e+02 
 5.69557e+02 -8.61788e+02 
 6.23754e+02 -8.70391e+02 
 6.79090e+02 -8.79703e+02 
 7.35644e+02 -8.89719e+02 
 7.93493e+02 -9.00434e+02 
 8.52698e+02 -9.11842e+02 
 9.13291e+02 -9.23941e+02 
 9.75462e+02 -9.36733e+02 
 1.03938e+03 -9.50221e+02 
-1.08121e+03 -1.01585e+03 
-1.01534e+03 -1.00257e+03 
-9.51178e+02 -9.89984e+02 
-8.88563e+02 -9.78085e+02 
-8.27329e+02 -9.66863e+02 
-7.67436e+02 -9.56321e+02 
-7.08822e+02 -9.46461e+02 
-6.51410e+02 -9.37287e+02 
-5.95121e+02 -9.28803e+02 
-5.39874e+02 -9.21013e+02 
-4.85585e+02 -9.13921e+02 
-4.32167e+02 -9.07529e+02 
-3.79532e+02 -9.01841e+02 
-3.27592e+02 -8.96859e+02 
-2.76254e+02 -8.92583e+02 
-2.25429e+02 -8.89014e+02 
-1.75023e+02 -8.86153e+02 
-1.24944e+02 -8.84000e+02 
-7.51006e+01 -8.82554e+02 
-2.53989e+01 -8.81816e+02 
 2.42556e+01 -8.81785e+02 
 7.39522e+01 -8.82463e+02 
 1.23786e+02 -8.83849e+02 
 1.73850e+02 -8.85943e+02 
 2.24236e+02 -8.88747e+02 
 2.75039e+02 -8.92260e+02 
 3.26351e+02 -8.96483e+02 
 3.78264e+02 -9.01416e+02 
 4.30870e+02 -9.07058e+02 
 4.84261e+02 -9.13408e+02 
 5.38525e+02 -9.20464e+02 
 5.93751e+02 -9.28223e+02 
 6.50024e+02 -9.36681e+02 
 7.07427e+02 -9.45834e+02 
 7.66041e+02 -9.55678e+02 
 8.25942e+02 -9.66208e+02 
 8.87194e+02 -9.77422e+02 
 9.49830e+02 -9.89315e+02 
 1.01405e+03 -1.00189e+03 
 1.08002e+03 -1.01516e+03 
-1.12116e+03 -1.08276e+03 
-1.05327e+03 -1.06970e+03 
-9.87085e+02 -1.05733e+03 
-9.22454e+02 -1.04564e+03 
-8.59202e+02 -1.03461e+03 
-7.97290e+02 -1.02425e+03 
-7.36652e+02 -1.01457e+03 
-6.77211e+02 -1.00555e+03 
-6.18887e+02 -9.97219e+02 
-5.61597e+02 -9.89565e+02 
-5.05260e+02 -9.82596e+02 
-4.49787e+02 -9.76314e+02 
-3.95093e+02 -9.70722e+02 
-3.41089e+02 -9.65822e+02 
-2.87684e+02 -9.61616e+02 
-2.34788e+02 -9.58106e+02 
-1.82309e+02 -9.55290e+02 
-1.30155e+02 -9.53171e+02 
-7.82356e+01 -9.51749e+02 
-2.64570e+01 -9.51024e+02 
 2.52751e+01 -9.50995e+02 
 7.70493e+01 -9.51664e+02 
 1.28960e+02 -9.53031e+02 
 1.81101e+02 -9.55095e+02 
 2.33563e+02 -9.57857e+02 
 2.86440e+02 -9.61317e+02 
 3.39823e+02 -9.65474e+02 
 3.93804e+02 -9.70329e+02 
 4.48475e+02 -9.75879e+02 
 5.03925e+02 -9.82123e+02 
 5.60243e+02 -9.89059e+02 
 6.17516e+02 -9.96684e+02 
 6.75829e+02 -1.00500e+03 
 7.35266e+02 -1.01399e+03 
 7.95906e+02 -1.02366e+03 
 8.57828e+02 -1.03400e+03 
 9.21097e+02 -1.04502e+03 
 9.85749e+02 -1.05671e+03 
 1.05198e+03 -1.06907e+03 
 1.11998e+03 -1.08211e+03 
-1.16045e+03 -1.15166e+03 
-1.09055e+03 -1.13883e+03 
-1.02238e+03 -1.12668e+03 
-9.55756e+02 -1.11519e+03 
-8.90517e+02 -1.10436e+03 
-8.26617e+02 -1.09418e+03 
-7.63987e+02 -1.08467e+03 
-7.02550e+02 -1.07582e+03 
-6.42224e+02 -1.06764e+03 
-5.82928e+02 -1.06012e+03 
-5.24578e+02 -1.05328e+03 
-4.67089e+02 -1.04711e+03 
-4.10373e+02 -1.04162e+03 
-3.54342e+02 -1.03680e+03 
-2.98906e+02 -1.03267e+03 
-2.43977e+02 -1.02922e+03 
-1.89463e+02 -1.02645e+03 
-1.35272e+02 -1.02437e+03 
-8.13130e+01 -1.02297e+03 
-2.74945e+01 -1.02226e+03 
 2.62780e+01 -1.02223e+03 
 8.00927e+01 -1.02289e+03 
 1.34044e+02 -1.02424e+03 
 1.88224e+02 -1.02627e+03 
 2.42724e+02 -1.02899e+03 
 2.97637e+02 -1.03239e+03 
 3.53054e+02 -1.03648e+03 
 4.09066e+02 -1.04125e+03 
 4.65763e+02 -1.04671e+03 
 5.23234e+02 -1.05284e+03 
 5.81569e+02 -1.05966e+03 
 6.40853e+02 -1.06715e+03 
 7.01171e+02 -1.07531e+03 
 7.62607e+02 -1.08414e+03 
 8.25241e+02 -1.09363e+03 
 8.89153e+02 -1.10380e+03 
 9.54408e+02 -1.11462e+03 
 1.02105e+03 -1.12610e+03 
 1.08927e+03 -1.13824e+03 
 1.15926e+03 -1.15106e+03 
-1.19904e+03 -1.22253e+03 
-1.12718e+03 -1.20993e+03 
-1.05704e+03 -1.19799e+03 
-9.88467e+02 -1.18670e+03 
-9.21272e+02 -1.17607e+03 
-8.55414e+02 -1.16608e+03 
-7.90825e+02 -1.15674e+03 
-7.27425e+02 -1.14805e+03 
-6.65133e+02 -1.14002e+03 
-6.03866e+02 -1.13265e+03 
-5.43540e+02 -1.12593e+03 
-4.84069e+02 -1.11987e+03 
-4.25368e+02 -1.11448e+03 
-3.67348e+02 -1.10976e+03 
-3.09920e+02 -1.10570e+03 
-2.52995e+02 -1.10231e+03 
-1.96483e+02 -1.09960e+03 
-1.40292e+02 -1.09755e+03 
-8.43323e+01 -1.09618e+03 
-2.85115e+01 -1.09548e+03 
 2.72639e+01 -1.09546e+03 
 8.30814e+01 -1.09611e+03 
 1.39035e+02 -1.09743e+03 
 1.95216e+02 -1.09943e+03 
 2.51717e+02 -1.10210e+03 
 3.08628e+02 -1.10544e+03 
 3.66041e+02 -1.10946e+03 
 4.24045e+02 -1.11415e+03 
 4.82731e+02 -1.11950e+03 
 5.42188e+02 -1.12553e+03 
 6.02502e+02 -1.13222e+03 
 6.63761e+02 -1.13957e+03 
 7.26049e+02 -1.14758e+03 
 7.89450e+02 -1.15625e+03 
 8.54045e+02 -1.16557e+03 
 9.19914e+02 -1.17555e+03 
 9.87126e+02 -1.18617e+03 
 1.05572e+03 -1.19745e+03 
 1.12590e+03 -1.20938e+03 
 1.19786e+03 -1.22196e+03 
-1.23696e+03 -1.29534e+03 
-1.16316e+03 -1.28296e+03 
-1.09109e+03 -1.27123e+03 
-1.02059e+03 -1.26015e+03 
-9.51468e+02 -1.24971e+03 
-8.83686e+02 -1.23991e+03 
-8.17170e+02 -1.23075e+03 
-7.51841e+02 -1.22223e+03 
-6.87616e+02 -1.21435e+03 
-6.24412e+02 -1.20711e+03 
-5.62145e+02 -1.20052e+03 
-5.00731e+02 -1.19458e+03 
-4.40081e+02 -1.18929e+03 
-3.80109e+02 -1.18465e+03 
-3.20726e+02 -1.18067e+03 
-2.61843e+02 -1.17735e+03 
-2.03370e+02 -1.17469e+03 
-1.45217e+02 -1.17268e+03 
-8.72934e+01 -1.17134e+03 
-2.95079e+01 -1.17065e+03 
 2.82327e+01 -1.17063e+03 
 8.60155e+01 -1.17127e+03 
 1.43934e+02 -1.17257e+03 
 2.02079e+02 -1.17453e+03 
 2.60542e+02 -1.17715e+03 
 3.19414e+02 -1.18044e+03 
 3.78785e+02 -1.18438e+03 
 4.38744e+02 -1.18898e+03 
 4.99382e+02 -1.19424e+03 
 5.60786e+02 -1.20015e+03 
 6.23045e+02 -1.20671e+03 
 6.86243e+02 -1.21393e+03 
 7.50466e+02 -1.22179e+03 
 8.15798e+02 -1.23029e+03 
 8.82321e+02 -1.23944e+03 
 9.50115e+02 -1.24923e+03 
 1.01925e+03 -1.25966e+03 
 1.08977e+03 -1.27073e+03 
 1.16188e+03 -1.28244e+03 
 1.23577e+03 -1.29480e+03 
-1.27418e+03 -1.37004e+03 
-1.19848e+03 -1.35789e+03 
-1.12451e+03 -1.34638e+03 
-1.05212e+03 -1.33550e+03 
-9.81103e+02 -1.32526e+03 
-9.11428e+02 -1.31564e+03 
-8.43019e+02 -1.30665e+03 
-7.75795e+02 -1.29830e+03 
-7.09671e+02 -1.29057e+03 
-6.44566e+02 -1.28347e+03 
-5.80395e+02 -1.27701e+03 
-5.17072e+02 -1.27118e+03 
-4.54511e+02 -1.26600e+03 
-3.92623e+02 -1.26145e+03 
-3.31323e+02 -1.25755e+03 
-2.70519e+02 -1.25429e+03 
-2.10123e+02 -1.25168e+03 
-1.50046e+02 -1.24971e+03 
-9.01962e+01 -1.24840e+03 
-3.04838e+01 -1.24773e+03 
 2.91842e+01 -1.24771e+03 
 8.88943e+01 -1.24833e+03 
 1.48740e+02 -1.24961e+03 
 2.08811e+02 -1.25154e+03 
 2.69199e+02 -1.25411e+03 
 3.29993e+02 -1.25733e+03 
 3.91284e+02 -1.26120e+03 
 4.53162e+02 -1.26571e+03 
 5.15714e+02 -1.27087e+03 
 5.79030e+02 -1.27667e+03 
 6.43196e+02 -1.28310e+03 
 7.08298e+02 -1.29018e+03 
 7.74421e+02 -1.29789e+03 
 8.41650e+02 -1.30623e+03 
 9.10067e+02 -1.31520e+03 
 9.79754e+02 -1.32481e+03 
 1.05078e+03 -1.33504e+03 
 1.12319e+03 -1.34590e+03 
 1.19720e+03 -1.35740e+03 
 1.27299e+03 -1.36953e+03 
-1.31072e+03 -1.44661e+03 
-1.23314e+03 -1.43468e+03 
-1.15731e+03 -1.42339e+03 
-1.08305e+03 -1.41273e+03 
-1.01018e+03 -1.40268e+03 
-9.38646e+02 -1.39325e+03 
-8.68376e+02 -1.38443e+03 
-7.99290e+02 -1.37624e+03 
-7.31303e+02 -1.36866e+03 
-6.64332e+02 -1.36170e+03 
-5.98291e+02 -1.35537e+03 
-5.33096e+02 -1.34966e+03 
-4.68659e+02 -1.34458e+03 
-4.04893e+02 -1.34013e+03 
-3.41712e+02 -1.33630e+03 
-2.79025e+02 -1.33311e+03 
-2.16744e+02 -1.33055e+03 
-1.54779e+02 -1.32862e+03 
-9.30411e+01 -1.32733e+03 
-3.14395e+01 -1.32668e+03 
 3.01182e+01 -1.32666e+03 
 9.17180e+01 -1.32727e+03 
 1.53453e+02 -1.32853e+03 
 2.15412e+02 -1.33042e+03 
 2.77687e+02 -1.33294e+03 
 3.40367e+02 -1.33610e+03 
 4.03541e+02 -1.33989e+03 
 4.67299e+02 -1.34432e+03 
 5.31730e+02 -1.34937e+03 
 5.96920e+02 -1.35505e+03 
 6.62957e+02 -1.36136e+03 
 7.29928e+02 -1.36830e+03 
 7.97917e+02 -1.37586e+03 
 8.67008e+02 -1.38404e+03 
 9.37286e+02 -1.39284e+03 
 1.00883e+03 -1.40225e+03 
 1.08172e+03 -1.41229e+03 
 1.15599e+03 -1.42295e+03 
 1.23186e+03 -1.43422e+03 
 1.30952e+03 -1.44613e+03 
-1.34655e+03 -1.52500e+03 
-1.26714e+03 -1.51331e+03 
-1.18948e+03 -1.50224e+03 
-1.11340e+03 -1.49178e+03 
-1.03870e+03 -1.48193e+03 
-9.65335e+02 -1.47268e+03 
-8.93239e+02 -1.46404e+03 
-8.22326e+02 -1.45601e+03 
-7.52510e+02 -1.44858e+03 
-6.83707e+02 -1.44177e+03 
-6.15833e+02 -1.43556e+03 
-5.48801e+02 -1.42997e+03 
-4.82525e+02 -1.42499e+03 
-4.16918e+02 -1.42063e+03 
-3.51893e+02 -1.41688e+03 
-2.87360e+02 -1.41375e+03 
-2.23231e+02 -1.41125e+03 
-1.59417e+02 -1.40936e+03 
-9.58280e+01 -1.40810e+03 
-3.23750e+01 -1.40746e+03 
 3.10346e+01 -1.40744e+03 
 9.44862e+01 -1.40804e+03 
 1.58072e+02 -1.40927e+03 
 2.21882e+02 -1.41112e+03 
 2.86007e+02 -1.41360e+03 
 3.50534e+02 -1.41669e+03 
 4.15555e+02 -1.42041e+03 
 4.81156e+02 -1.42475e+03 
 5.47428e+02 -1.42970e+03 
 6.14456e+02 -1.43527e+03 
 6.82329e+02 -1.44145e+03 
 7.51132e+02 -1.44825e+03 
 8.20951e+02 -1.45565e+03 
 8.91871e+02 -1.46367e+03 
 9.63976e+02 -1.47230e+03 
 1.03735e+03 -1.48153e+03 
 1.11206e+03 -1.49137e+03 
 1.18816e+03 -1.50182e+03 
 1.26586e+03 -1.51287e+03 
 1.34535e+03 -1.52455e+03 
-1.38170e+03 -1.60520e+03 
-1.30048e+03 -1.59374e+03 
-1.22103e+03 -1.58289e+03 
-1.14314e+03 -1.57263e+03 
-1.06665e+03 -1.56298e+03 
-9.91499e+02 -1.55392e+03 
-9.17611e+02 -1.54545e+03 
-8.44904e+02 -1.53758e+03 
-7.73294e+02 -1.53031e+03 
-7.02695e+02 -1.52363e+03 
-6.33022e+02 -1.51755e+03 
-5.64190e+02 -1.51208e+03 
-4.96112e+02 -1.50720e+03 
-4.28700e+02 -1.50293e+03 
-3.61867e+02 -1.49926e+03 
-2.95525e+02 -1.49620e+03 
-2.29586e+02 -1.49375e+03 
-1.63959e+02 -1.49190e+03 
-9.85575e+01 -1.49066e+03 
-3.32906e+01 -1.49004e+03 
 3.19334e+01 -1.49002e+03 
 9.71993e+01 -1.49061e+03 
 1.62599e+02 -1.49182e+03 
 2.28223e+02 -1.49363e+03 
 2.94159e+02 -1.49606e+03 
 3.60497e+02 -1.49909e+03 
 4.27326e+02 -1.50273e+03 
 4.94734e+02 -1.50697e+03 
 5.62810e+02 -1.51183e+03 
 6.31641e+02 -1.51728e+03 
 7.01313e+02 -1.52334e+03 
 7.71914e+02 -1.52999e+03 
 8.43529e+02 -1.53725e+03 
 9.16242e+02 -1.54511e+03 
 9.90139e+02 -1.55356e+03 
 1.06530e+03 -1.56260e+03 
 1.14181e+03 -1.57225e+03 
 1.21970e+03 -1.58249e+03 
 1.29919e+03 -1.59333e+03 
 1.38048e+03 -1.60477e+03 
-1.41614e+03 -1.68716e+03 
-1.33316e+03 -1.67593e+03 
-1.25194e+03 -1.66529e+03 
-1.17230e+03 -1.65525e+03 
-1.09405e+03 -1.64579e+03 
-1.01714e+03 -1.63691e+03 
-9.41489e+02 -1.62862e+03 
-8.67024e+02 -1.62091e+03 
-7.93654e+02 -1.61379e+03 
-7.21295e+02 -1.60725e+03 
-6.49860e+02 -1.60130e+03 
-5.79263e+02 -1.59594e+03 
-5.09418e+02 -1.59117e+03 
-4.40238e+02 -1.58699e+03 
-3.71635e+02 -1.58340e+03 
-3.03521e+02 -1.58040e+03 
-2.35808e+02 -1.57800e+03 
-1.68407e+02 -1.57620e+03 
-1.01230e+02 -1.57499e+03 
-3.41863e+01 -1.57437e+03 
 3.28144e+01 -1.57436e+03 
 9.98570e+01 -1.57494e+03 
 1.67033e+02 -1.57612e+03 
 2.34432e+02 -1.57790e+03 
 3.02143e+02 -1.58027e+03 
 3.70254e+02 -1.58324e+03 
 4.38855e+02 -1.58680e+03 
 5.08033e+02 -1.59096e+03 
 5.77877e+02 -1.59571e+03 
 6.48473e+02 -1.60105e+03 
 7.19909e+02 -1.60698e+03 
 7.92272e+02 -1.61350e+03 
 8.65647e+02 -1.62061e+03 
 9.40119e+02 -1.62830e+03 
 1.01577e+03 -1.63658e+03 
 1.09270e+03 -1.64544e+03 
 1.17096e+03 -1.65488e+03 
 1.25061e+03 -1.66492e+03 
 1.33186e+03 -1.67554e+03 
 1.41491e+03 -1.68675e+03 
-1.44988e+03 -1.77086e+03 
-1.36517e+03 -1.75985e+03 
-1.28222e+03 -1.74944e+03 
-1.20086e+03 -1.73960e+03 
-1.12088e+03 -1.73033e+03 
-1.04225e+03 -1.72164e+03 
-9.64877e+02 -1.71352e+03 
-8.88688e+02 -1.70598e+03 
-8.13593e+02 -1.69901e+03 
-7.39508e+02 -1.69261e+03 
-6.66347e+02 -1.68679e+03 
-5.94022e+02 -1.68154e+03 
-5.22447e+02 -1.67687e+03 
-4.51534e+02 -1.67278e+03 
-3.81198e+02 -1.66927e+03 
-3.11349e+02 -1.66634e+03 
-2.41899e+02 -1.66399e+03 
-1.72761e+02 -1.66222e+03 
-1.03845e+02 -1.66104e+03 
-3.50625e+01 -1.66044e+03 
 3.36777e+01 -1.66043e+03 
 1.02459e+02 -1.66100e+03 
 1.71375e+02 -1.66215e+03 
 2.40512e+02 -1.66389e+03 
 3.09960e+02 -1.66621e+03 
 3.79808e+02 -1.66912e+03 
 4.50143e+02 -1.67261e+03 
 5.21054e+02 -1.67667e+03 
 5.92629e+02 -1.68132e+03 
 6.64955e+02 -1.68655e+03 
 7.38120e+02 -1.69235e+03 
 8.12208e+02 -1.69873e+03 
 8.87308e+02 -1.70569e+03 
 9.63504e+02 -1.71322e+03 
 1.04088e+03 -1.72132e+03 
 1.11953e+03 -1.73000e+03 
 1.19951e+03 -1.73925e+03 
 1.28089e+03 -1.74908e+03 
 1.36387e+03 -1.75948e+03 
 1.44865e+03 -1.77046e+03 
-1.48292e+03 -1.85624e+03 
-1.39652e+03 -1.84547e+03 
-1.31187e+03 -1.83527e+03 
-1.22882e+03 -1.82564e+03 
-1.14715e+03 -1.81657e+03 
-1.06683e+03 -1.80806e+03 
-9.87771e+02 -1.80012e+03 
-9.09894e+02 -1.79274e+03 
-8.33110e+02 -1.78591e+03 
-7.57336e+02 -1.77965e+03 
-6.82483e+02 -1.77396e+03 
-6.08465e+02 -1.76882e+03 
-5.35196e+02 -1.76426e+03 
-4.62589e+02 -1.76025e+03 
-3.90555e+02 -1.75682e+03 
-3.19008e+02 -1.75395e+03 
-2.47859e+02 -1.75166e+03 
-1.77021e+02 -1.74993e+03 
-1.06403e+02 -1.74878e+03 
-3.59192e+01 -1.74819e+03 
 3.45230e+01 -1.74818e+03 
 1.05007e+02 -1.74874e+03 
 1.75624e+02 -1.74987e+03 
 2.46462e+02 -1.75157e+03 
 3.17610e+02 -1.75384e+03 
 3.89157e+02 -1.75668e+03 
 4.61190e+02 -1.76009e+03 
 5.33798e+02 -1.76407e+03 
 6.07068e+02 -1.76862e+03 
 6.81087e+02 -1.77374e+03 
 7.55943e+02 -1.77941e+03 
 8.31722e+02 -1.78566e+03 
 9.08511e+02 -1.79246e+03 
 9.86396e+02 -1.79983e+03 
 1.06546e+03 -1.80776e+03 
 1.14579e+03 -1.81625e+03 
 1.22747e+03 -1.82531e+03 
 1.31054e+03 -1.83492e+03 
 1.39521e+03 -1.84511e+03 
 1.48168e+03 -1.85585e+03 
-1.51526e+03 -1.94327e+03 
-1.42719e+03 -1.93274e+03 
-1.34089e+03 -1.92276e+03 
-1.25618e+03 -1.91334e+03 
-1.17286e+03 -1.90446e+03 
-1.09088e+03 -1.89614e+03 
-1.01017e+03 -1.88837e+03 
-9.30643e+02 -1.88115e+03 
-8.52207e+02 -1.87448e+03 
-7.74777e+02 -1.86835e+03 
-6.98269e+02 -1.86278e+03 
-6.22595e+02 -1.85776e+03 
-5.47669e+02 -1.85330e+03 
-4.73403e+02 -1.84939e+03 
-3.99709e+02 -1.84603e+03 
-3.26500e+02 -1.84323e+03 
-2.53689e+02 -1.84098e+03 
-1.81187e+02 -1.83929e+03 
-1.08905e+02 -1.83816e+03 
-3.67567e+01 -1.83759e+03 
 3.53504e+01 -1.83758e+03 
 1.07499e+02 -1.83813e+03 
 1.79780e+02 -1.83923e+03 
 2.52282e+02 -1.84090e+03 
 3.25094e+02 -1.84312e+03 
 3.98303e+02 -1.84590e+03 
 4.71997e+02 -1.84924e+03 
 5.46264e+02 -1.85313e+03 
 6.21193e+02 -1.85757e+03 
 6.96869e+02 -1.86257e+03 
 7.73381e+02 -1.86813e+03 
 8.50815e+02 -1.87423e+03 
 9.29258e+02 -1.88089e+03 
 1.00880e+03 -1.88810e+03 
 1.08951e+03 -1.89586e+03 
 1.17150e+03 -1.90416e+03 
 1.25483e+03 -1.91302e+03 
 1.33955e+03 -1.92243e+03 
 1.42588e+03 -1.93239e+03 
 1.51400e+03 -1.94291e+03 
-1.54689e+03 -2.03194e+03 
-1.45720e+03 -2.02163e+03 
-1.36928e+03 -2.01187e+03 
-1.28295e+03 -2.00266e+03 
-1.19801e+03 -1.99399e+03 
-1.11441e+03 -1.98585e+03 
-1.03209e+03 -1.97825e+03 
-9.50938e+02 -1.97119e+03 
-8.70883e+02 -1.96466e+03 
-7.91835e+02 -1.95868e+03 
-7.13708e+02 -1.95323e+03 
-6.36414e+02 -1.94833e+03 
-5.59866e+02 -1.94396e+03 
-4.83977e+02 -1.94014e+03 
-4.08660e+02 -1.93686e+03 
-3.33826e+02 -1.93412e+03 
-2.59389e+02 -1.93193e+03 
-1.85260e+02 -1.93028e+03 
-1.11351e+02 -1.92917e+03 
-3.75751e+01 -1.92862e+03 
 3.61599e+01 -1.92860e+03 
 1.09936e+02 -1.92914e+03 
 1.83845e+02 -1.93022e+03 
 2.57974e+02 -1.93185e+03 
 3.32412e+02 -1.93402e+03 
 4.07246e+02 -1.93674e+03 
 4.82565e+02 -1.94000e+03 
 5.58456e+02 -1.94380e+03 
 6.35006e+02 -1.94815e+03 
 7.12304e+02 -1.95304e+03 
 7.90435e+02 -1.95847e+03 
 8.69488e+02 -1.96443e+03 
 9.49549e+02 -1.97094e+03 
 1.03070e+03 -1.97799e+03 
 1.11304e+03 -1.98557e+03 
 1.19664e+03 -1.99370e+03 
 1.28159e+03 -2.00236e+03 
 1.36793e+03 -2.01156e+03 
 1.45588e+03 -2.02130e+03 
 1.54563e+03 -2.03158e+03 
-1.57782e+03 -2.12219e+03 
-1.48654e+03 -2.11211e+03 
-1.39703e+03 -2.10257e+03 
-1.30912e+03 -2.09357e+03 
-1.22259e+03 -2.08509e+03 
-1.13742e+03 -2.07714e+03 
-1.05351e+03 -2.06971e+03 
-9.70776e+02 -2.06281e+03 
-8.89139e+02 -2.05644e+03 
-8.08509e+02 -2.05059e+03 
-7.28798e+02 -2.04527e+03 
-6.49920e+02 -2.04047e+03 
-5.71787e+02 -2.03621e+03 
-4.94312e+02 -2.03247e+03 
-4.17407e+02 -2.02927e+03 
-3.40986e+02 -2.02659e+03 
-2.64959e+02 -2.02445e+03 
-1.89241e+02 -2.02284e+03 
-1.13742e+02 -2.02176e+03 
-3.83746e+01 -2.02122e+03 
 3.69515e+01 -2.02120e+03 
 1.12319e+02 -2.02173e+03 
 1.87818e+02 -2.02278e+03 
 2.63538e+02 -2.02437e+03 
 3.39565e+02 -2.02650e+03 
 4.15988e+02 -2.02915e+03 
 4.92894e+02 -2.03234e+03 
 5.70372e+02 -2.03606e+03 
 6.48508e+02 -2.04030e+03 
 7.27390e+02 -2.04508e+03 
 8.07105e+02 -2.05038e+03 
 8.87741e+02 -2.05622e+03 
 9.69384e+02 -2.06258e+03 
 1.05212e+03 -2.06946e+03 
 1.13604e+03 -2.07687e+03 
 1.22122e+03 -2.08481e+03 
 1.30775e+03 -2.09328e+03 
 1.39568e+03 -2.10227e+03 
 1.48521e+03 -2.11179e+03 
 1.57654e+03 -2.12184e+03 
-1.60804e+03 -2.21399e+03 
-1.51521e+03 -2.20415e+03 
-1.42415e+03 -2.19483e+03 
-1.33469e+03 -2.18603e+03 
-1.24662e+03 -2.17775e+03 
-1.15989e+03 -2.16998e+03 
-1.07444e+03 -2.16273e+03 
-9.90159e+02 -2.15599e+03 
-9.06976e+02 -2.14976e+03 
-8.24799e+02 -2.14405e+03 
-7.43541e+02 -2.13885e+03 
-6.63115e+02 -2.13417e+03 
-5.83433e+02 -2.13000e+03 
-5.04408e+02 -2.12636e+03 
-4.25953e+02 -2.12322e+03 
-3.47980e+02 -2.12061e+03 
-2.70401e+02 -2.11852e+03 
-1.93129e+02 -2.11695e+03 
-1.16077e+02 -2.11589e+03 
-3.91553e+01 -2.11536e+03 
 3.77251e+01 -2.11535e+03 
 1.14647e+02 -2.11586e+03 
 1.91700e+02 -2.11690e+03 
 2.68973e+02 -2.11845e+03 
 3.46553e+02 -2.12052e+03 
 4.24528e+02 -2.12312e+03 
 5.02986e+02 -2.12623e+03 
 5.82013e+02 -2.12986e+03 
 6.61699e+02 -2.13401e+03 
 7.42129e+02 -2.13867e+03 
 8.23392e+02 -2.14385e+03 
 9.05574e+02 -2.14955e+03 
 9.88763e+02 -2.15576e+03 
 1.07305e+03 -2.16249e+03 
 1.15851e+03 -2.16973e+03 
 1.24524e+03 -2.17748e+03 
 1.33332e+03 -2.18575e+03 
 1.42279e+03 -2.19453e+03 
 1.51387e+03 -2.20383e+03 
 1.60676e+03 -2.21365e+03 
-1.63755e+03 -2.30730e+03 
-1.54321e+03 -2.29769e+03 
-1.45064e+03 -2.28859e+03 
-1.35966e+03 -2.28001e+03 
-1.27008e+03 -2.27192e+03 
-1.18184e+03 -2.26434e+03 
-1.09487e+03 -2.25725e+03 
-1.00909e+03 -2.25067e+03 
-9.24393e+02 -2.24460e+03 
-8.40706e+02 -2.23902e+03 
-7.57937e+02 -2.23395e+03 
-6.75999e+02 -2.22938e+03 
-5.94805e+02 -2.22531e+03 
-5.14267e+02 -2.22175e+03 
-4.34297e+02 -2.21869e+03 
-3.54809e+02 -2.21614e+03 
-2.75714e+02 -2.21410e+03 
-1.96926e+02 -2.21256e+03 
-1.18356e+02 -2.21153e+03 
-3.99173e+01 -2.21102e+03 
 3.84807e+01 -2.21101e+03 
 1.16920e+02 -2.21151e+03 
 1.95491e+02 -2.21251e+03 
 2.74280e+02 -2.21403e+03 
 3.53377e+02 -2.21606e+03 
 4.32867e+02 -2.21859e+03 
 5.12839e+02 -2.22163e+03 
 5.93381e+02 -2.22517e+03 
 6.74579e+02 -2.22922e+03 
 7.56521e+02 -2.23378e+03 
 8.39294e+02 -2.23883e+03 
 9.22987e+02 -2.24440e+03 
 1.00769e+03 -2.25046e+03 
 1.09348e+03 -2.25702e+03 
 1.18045e+03 -2.26409e+03 
 1.26870e+03 -2.27166e+03 
 1.35828e+03 -2.27973e+03 
 1.44927e+03 -2.28831e+03 
 1.54186e+03 -2.29739e+03 
 1.63626e+03 -2.30697e+03 
-1.66636e+03 -2.40210e+03 
-1.57053e+03 -2.39272e+03 
-1.47648e+03 -2.38384e+03 
-1.38403e+03 -2.37546e+03 
-1.29297e+03 -2.36757e+03 
-1.20326e+03 -2.36018e+03 
-1.11482e+03 -2.35327e+03 
-1.02756e+03 -2.34684e+03 
-9.41392e+02 -2.34091e+03 
-8.56231e+02 -2.33547e+03 
-7.71987e+02 -2.33052e+03 
-6.88574e+02 -2.32606e+03 
-6.05904e+02 -2.32209e+03 
-5.23889e+02 -2.31862e+03 
-4.42441e+02 -2.31563e+03 
-3.61474e+02 -2.31315e+03 
-2.80900e+02 -2.31115e+03 
-2.00631e+02 -2.30965e+03 
-1.20581e+02 -2.30865e+03 
-4.06609e+01 -2.30814e+03 
 3.92185e+01 -2.30814e+03 
 1.19139e+02 -2.30862e+03 
 1.99190e+02 -2.30961e+03 
 2.79461e+02 -2.31109e+03 
 3.60037e+02 -2.31306e+03 
 4.41006e+02 -2.31554e+03 
 5.22456e+02 -2.31850e+03 
 6.04475e+02 -2.32196e+03 
 6.87149e+02 -2.32591e+03 
 7.70567e+02 -2.33036e+03 
 8.54815e+02 -2.33529e+03 
 9.39982e+02 -2.34072e+03 
 1.02616e+03 -2.34664e+03 
 1.11342e+03 -2.35304e+03 
 1.20187e+03 -2.35994e+03 
 1.29159e+03 -2.36732e+03 
 1.38265e+03 -2.37520e+03 
 1.47511e+03 -2.38357e+03 
 1.56918e+03 -2.39242e+03 
 1.66506e+03 -2.40178e+03 
-1.69446e+03 -2.49833e+03 
-1.59719e+03 -2.48919e+03 
-1.50169e+03 -2.48053e+03 
-1.40780e+03 -2.47236e+03 
-1.31530e+03 -2.46467e+03 
-1.22415e+03 -2.45745e+03 
-1.13428e+03 -2.45072e+03 
-1.04558e+03 -2.44446e+03 
-9.57972e+02 -2.43867e+03 
-8.71373e+02 -2.43336e+03 
-7.85691e+02 -2.42854e+03 
-7.00839e+02 -2.42419e+03 
-6.16729e+02 -2.42031e+03 
-5.33274e+02 -2.41692e+03 
-4.50385e+02 -2.41401e+03 
-3.67976e+02 -2.41158e+03 
-2.85958e+02 -2.40964e+03 
-2.04246e+02 -2.40818e+03 
-1.22751e+02 -2.40720e+03 
-4.13861e+01 -2.40671e+03 
 3.99383e+01 -2.40670e+03 
 1.21303e+02 -2.40717e+03 
 2.02800e+02 -2.40813e+03 
 2.84514e+02 -2.40958e+03 
 3.66533e+02 -2.41151e+03 
 4.48945e+02 -2.41392e+03 
 5.31837e+02 -2.41681e+03 
 6.15297e+02 -2.42019e+03 
 6.99411e+02 -2.42404e+03 
 7.84267e+02 -2.42838e+03 
 8.69954e+02 -2.43319e+03 
 9.56559e+02 -2.43848e+03 
 1.04417e+03 -2.44425e+03 
 1.13287e+03 -2.45050e+03 
 1.22276e+03 -2.45722e+03 
 1.31391e+03 -2.46443e+03 
 1.40641e+03 -2.47210e+03 
 1.50031e+03 -2.48026e+03 
 1.59582e+03 -2.48890e+03 
 1.69314e+03 -2.49802e+03 
-1.72185e+03 -2.59598e+03 
-1.62317e+03 -2.58707e+03 
-1.52627e+03 -2.57864e+03 
-1.43097e+03 -2.57067e+03 
-1.33707e+03 -2.56318e+03 
-1.24452e+03 -2.55615e+03 
-1.15324e+03 -2.54958e+03 
-1.06314e+03 -2.54348e+03 
-9.74135e+02 -2.53784e+03 
-8.86134e+02 -2.53267e+03 
-7.99051e+02 -2.52796e+03 
-7.12797e+02 -2.52372e+03 
-6.27283e+02 -2.51994e+03 
-5.42424e+02 -2.51664e+03 
-4.58130e+02 -2.51380e+03 
-3.74314e+02 -2.51143e+03 
-2.90890e+02 -2.50953e+03 
-2.07770e+02 -2.50811e+03 
-1.24866e+02 -2.50715e+03 
-4.20930e+01 -2.50667e+03 
 4.06402e+01 -2.50666e+03 
 1.23414e+02 -2.50713e+03 
 2.06319e+02 -2.50806e+03 
 2.89441e+02 -2.50947e+03 
 3.72867e+02 -2.51136e+03 
 4.56686e+02 -2.51371e+03 
 5.40983e+02 -2.51653e+03 
 6.25847e+02 -2.51982e+03 
 7.11364e+02 -2.52358e+03 
 7.97623e+02 -2.52781e+03 
 8.84711e+02 -2.53250e+03 
 9.72717e+02 -2.53766e+03 
 1.06173e+03 -2.54328e+03 
 1.15183e+03 -2.54937e+03 
 1.24312e+03 -2.55592e+03 
 1.33567e+03 -2.56294e+03 
 1.42958e+03 -2.57042e+03 
 1.52488e+03 -2.57837e+03 
 1.62179e+03 -2.58679e+03 
 1.72052e+03 -2.59567e+03 
-1.74852e+03 -2.69500e+03 
-1.64847e+03 -2.68632e+03 
-1.55021e+03 -2.67811e+03 
-1.45354e+03 -2.67036e+03 
-1.35827e+03 -2.66305e+03 
-1.26436e+03 -2.65621e+03 
-1.17171e+03 -2.64981e+03 
-1.08025e+03 -2.64387e+03 
-9.89879e+02 -2.63837e+03 
-9.00514e+02 -2.63334e+03 
-8.12066e+02 -2.62875e+03 
-7.24446e+02 -2.62461e+03 
-6.37566e+02 -2.62094e+03 
-5.51339e+02 -2.61771e+03 
-4.65676e+02 -2.61494e+03 
-3.80491e+02 -2.61264e+03 
-2.95695e+02 -2.61079e+03 
-2.11203e+02 -2.60940e+03 
-1.26928e+02 -2.60847e+03 
-4.27818e+01 -2.60800e+03 
 4.13243e+01 -2.60799e+03 
 1.25471e+02 -2.60844e+03 
 2.09748e+02 -2.60936e+03 
 2.94242e+02 -2.61073e+03 
 3.79039e+02 -2.61256e+03 
 4.64228e+02 -2.61486e+03 
 5.49894e+02 -2.61761e+03 
 6.36126e+02 -2.62082e+03 
 7.23010e+02 -2.62448e+03 
 8.10634e+02 -2.62860e+03 
 8.99088e+02 -2.63317e+03 
 9.88458e+02 -2.63820e+03 
 1.07883e+03 -2.64368e+03 
 1.17030e+03 -2.64961e+03 
 1.26295e+03 -2.65599e+03 
 1.35687e+03 -2.66282e+03 
 1.45214e+03 -2.67011e+03 
 1.54881e+03 -2.67785e+03 
 1.64709e+03 -2.68604e+03 
 1.74719e+03 -2.69469e+03 
-1.77449e+03 -2.79535e+03 
-1.67310e+03 -2.78691e+03 
-1.57351e+03 -2.77892e+03 
-1.47551e+03 -2.77138e+03 
-1.37891e+03 -2.76427e+03 
-1.28367e+03 -2.75761e+03 
-1.18969e+03 -2.75138e+03 
-1.09690e+03 -2.74560e+03 
-1.00521e+03 -2.74025e+03 
-9.14515e+02 -2.73534e+03 
-8.24738e+02 -2.73087e+03 
-7.35789e+02 -2.72685e+03 
-6.47579e+02 -2.72326e+03 
-5.60020e+02 -2.72012e+03 
-4.73025e+02 -2.71743e+03 
-3.86506e+02 -2.71518e+03 
-3.00376e+02 -2.71337e+03 
-2.14548e+02 -2.71202e+03 
-1.28936e+02 -2.71111e+03 
-4.34527e+01 -2.71065e+03 
 4.19907e+01 -2.71064e+03 
 1.27474e+02 -2.71109e+03 
 2.13088e+02 -2.71198e+03 
 2.98918e+02 -2.71332e+03 
 3.85051e+02 -2.71511e+03 
 4.71573e+02 -2.71734e+03 
 5.58572e+02 -2.72002e+03 
 6.46135e+02 -2.72315e+03 
 7.34349e+02 -2.72672e+03 
 8.23303e+02 -2.73073e+03 
 9.13084e+02 -2.73518e+03 
 1.00378e+03 -2.74008e+03 
 1.09548e+03 -2.74541e+03 
 1.18828e+03 -2.75118e+03 
 1.28226e+03 -2.75739e+03 
 1.37750e+03 -2.76404e+03 
 1.47410e+03 -2.77113e+03 
 1.57210e+03 -2.77866e+03 
 1.67172e+03 -2.78664e+03 
 1.77314e+03 -2.79505e+03 
-1.79974e+03 -2.89701e+03 
-1.69706e+03 -2.88880e+03 
-1.59616e+03 -2.88103e+03 
-1.49687e+03 -2.87370e+03 
-1.39898e+03 -2.86679e+03 
-1.30245e+03 -2.86031e+03 
-1.20719e+03 -2.85425e+03 
-1.11311e+03 -2.84862e+03 
-1.02012e+03 -2.84342e+03 
-9.28135e+02 -2.83864e+03 
-8.37068e+02 -2.83430e+03 
-7.46826e+02 -2.83037e+03 
-6.57323e+02 -2.82688e+03 
-5.68469e+02 -2.82382e+03 
-4.80177e+02 -2.82120e+03 
-3.92360e+02 -2.81900e+03 
-3.04931e+02 -2.81724e+03 
-2.17803e+02 -2.81592e+03 
-1.30890e+02 -2.81504e+03 
-4.41057e+01 -2.81459e+03 
 4.26394e+01 -2.81459e+03 
 1.29425e+02 -2.81502e+03 
 2.16339e+02 -2.81589e+03 
 3.03469e+02 -2.81719e+03 
 3.90901e+02 -2.81894e+03 
 4.78721e+02 -2.82111e+03 
 5.67017e+02 -2.82373e+03 
 6.55875e+02 -2.82677e+03 
 7.45382e+02 -2.83025e+03 
 8.35628e+02 -2.83415e+03 
 9.26701e+02 -2.83849e+03 
 1.01869e+03 -2.84325e+03 
 1.11168e+03 -2.84844e+03 
 1.20576e+03 -2.85406e+03 
 1.30103e+03 -2.86010e+03 
 1.39757e+03 -2.86656e+03 
 1.49546e+03 -2.87346e+03 
 1.59475e+03 -2.88078e+03 
 1.69566e+03 -2.88853e+03 
 1.79839e+03 -2.89671e+03 
-1.82429e+03 -2.99993e+03 
-1.72034e+03 -2.99196e+03 
-1.61818e+03 -2.98441e+03 
-1.51763e+03 -2.97729e+03 
-1.41849e+03 -2.97058e+03 
-1.32070e+03 -2.96428e+03 
-1.22419e+03 -2.95839e+03 
-1.12885e+03 -2.95292e+03 
-1.03461e+03 -2.94786e+03 
-9.41378e+02 -2.94321e+03 
-8.49056e+02 -2.93898e+03 
-7.57559e+02 -2.93517e+03 
-6.66799e+02 -2.93177e+03 
-5.76687e+02 -2.92879e+03 
-4.87135e+02 -2.92623e+03 
-3.98056e+02 -2.92409e+03 
-3.09363e+02 -2.92238e+03 
-2.20971e+02 -2.92109e+03 
-1.32792e+02 -2.92023e+03 
-4.47410e+01 -2.91979e+03 
 4.32706e+01 -2.91978e+03 
 1.31322e+02 -2.92020e+03 
 2.19502e+02 -2.92105e+03 
 3.07897e+02 -2.92233e+03 
 3.96593e+02 -2.92402e+03 
 4.85675e+02 -2.92615e+03 
 5.75231e+02 -2.92869e+03 
 6.65347e+02 -2.93166e+03 
 7.56112e+02 -2.93504e+03 
 8.47613e+02 -2.93884e+03 
 9.39939e+02 -2.94306e+03 
 1.03318e+03 -2.94769e+03 
 1.12742e+03 -2.95274e+03 
 1.22276e+03 -2.95820e+03 
 1.31928e+03 -2.96407e+03 
 1.41707e+03 -2.97035e+03 
 1.51622e+03 -2.97705e+03 
 1.61677e+03 -2.98416e+03 
 1.71893e+03 -2.99169e+03 
 1.82292e+03 -2.99964e+03 
-1.84811e+03 -3.10408e+03 
-1.74294e+03 -3.09634e+03 
-1.63956e+03 -3.08902e+03 
-1.53779e+03 -3.08210e+03 
-1.43743e+03 -3.07559e+03 
-1.33843e+03 -3.06947e+03 
-1.24070e+03 -3.06376e+03 
-1.14415e+03 -3.05844e+03 
-1.04869e+03 -3.05352e+03 
-9.54242e+02 -3.04901e+03 
-8.60704e+02 -3.04489e+03 
-7.67989e+02 -3.04118e+03 
-6.76008e+02 -3.03787e+03 
-5.84674e+02 -3.03497e+03 
-4.93898e+02 -3.03247e+03 
-4.03593e+02 -3.03039e+03 
-3.13672e+02 -3.02872e+03 
-2.24050e+02 -3.02747e+03 
-1.34641e+02 -3.02663e+03 
-4.53588e+01 -3.02620e+03 
 4.38844e+01 -3.02620e+03 
 1.33167e+02 -3.02661e+03 
 2.22578e+02 -3.02743e+03 
 3.12202e+02 -3.02867e+03 
 4.02126e+02 -3.03033e+03 
 4.92434e+02 -3.03240e+03 
 5.83214e+02 -3.03487e+03 
 6.74553e+02 -3.03776e+03 
 7.66538e+02 -3.04106e+03 
 8.59257e+02 -3.04475e+03 
 9.52800e+02 -3.04886e+03 
 1.04726e+03 -3.05336e+03 
 1.14271e+03 -3.05826e+03 
 1.23927e+03 -3.06356e+03 
 1.33700e+03 -3.06927e+03 
 1.43601e+03 -3.07537e+03 
 1.53637e+03 -3.08187e+03 
 1.63814e+03 -3.08877e+03 
 1.74153e+03 -3.09607e+03 
 1.84674e+03 -3.10379e+03 
-1.87123e+03 -3.20942e+03 
-1.76486e+03 -3.20192e+03 
-1.66030e+03 -3.19482e+03 
-1.55735e+03 -3.18812e+03 
-1.45581e+03 -3.18180e+03 
-1.35562e+03 -3.17586e+03 
-1.25671e+03 -3.17032e+03 
-1.15899e+03 -3.16515e+03 
-1.06236e+03 -3.16038e+03 
-9.66731e+02 -3.15599e+03 
-8.72013e+02 -3.15199e+03 
-7.78117e+02 -3.14838e+03 
-6.84953e+02 -3.14516e+03 
-5.92433e+02 -3.14233e+03 
-5.00468e+02 -3.13990e+03 
-4.08973e+02 -3.13788e+03 
-3.17860e+02 -3.13625e+03 
-2.27043e+02 -3.13502e+03 
-1.36438e+02 -3.13421e+03 
-4.59592e+01 -3.13379e+03 
 4.44809e+01 -3.13379e+03 
 1.34960e+02 -3.13418e+03 
 2.25567e+02 -3.13499e+03 
 3.16386e+02 -3.13620e+03 
 4.07502e+02 -3.13781e+03 
 4.99001e+02 -3.13983e+03 
 5.90969e+02 -3.14224e+03 
 6.83494e+02 -3.14505e+03 
 7.76662e+02 -3.14826e+03 
 8.70563e+02 -3.15185e+03 
 9.65284e+02 -3.15584e+03 
 1.06092e+03 -3.16022e+03 
 1.15755e+03 -3.16498e+03 
 1.25528e+03 -3.17012e+03 
 1.35419e+03 -3.17566e+03 
 1.45438e+03 -3.18157e+03 
 1.55592e+03 -3.18788e+03 
 1.65886e+03 -3.19457e+03 
 1.76344e+03 -3.20165e+03 
 1.86984e+03 -3.20913e+03 
-1.89362e+03 -3.31593e+03 
-1.78610e+03 -3.30867e+03 
-1.68039e+03 -3.30179e+03 
-1.57629e+03 -3.29529e+03 
-1.47361e+03 -3.28917e+03 
-1.37229e+03 -3.28342e+03 
-1.27224e+03 -3.27804e+03 
-1.17338e+03 -3.27303e+03 
-1.07561e+03 -3.26839e+03 
-9.78845e+02 -3.26413e+03 
-8.82986e+02 -3.26024e+03 
-7.87946e+02 -3.25673e+03 
-6.93635e+02 -3.25360e+03 
-5.99965e+02 -3.25085e+03 
-5.06849e+02 -3.24848e+03 
-4.14198e+02 -3.24651e+03 
-3.21927e+02 -3.24492e+03 
-2.29950e+02 -3.24373e+03 
-1.38184e+02 -3.24293e+03 
-4.65426e+01 -3.24253e+03 
 4.50603e+01 -3.24252e+03 
 1.36702e+02 -3.24291e+03 
 2.28470e+02 -3.24370e+03 
 3.20449e+02 -3.24487e+03 
 4.12723e+02 -3.24645e+03 
 5.05377e+02 -3.24841e+03 
 5.98498e+02 -3.25076e+03 
 6.92172e+02 -3.25349e+03 
 7.86487e+02 -3.25661e+03 
 8.81531e+02 -3.26011e+03 
 9.77395e+02 -3.26398e+03 
 1.07417e+03 -3.26823e+03 
 1.17194e+03 -3.27285e+03 
 1.27080e+03 -3.27785e+03 
 1.37085e+03 -3.28321e+03 
 1.47218e+03 -3.28895e+03 
 1.57486e+03 -3.29506e+03 
 1.67895e+03 -3.30154e+03 
 1.78467e+03 -3.30840e+03 
 1.89223e+03 -3.31564e+03 
-1.91530e+03 -3.42356e+03 
-1.80666e+03 -3.41653e+03 
-1.69984e+03 -3.40988e+03 
-1.59464e+03 -3.40359e+03 
-1.49085e+03 -3.39766e+03 
-1.38843e+03 -3.39209e+03 
-1.28728e+03 -3.38688e+03 
-1.18732e+03 -3.38203e+03 
-1.08845e+03 -3.37753e+03 
-9.90585e+02 -3.37339e+03 
-8.93623e+02 -3.36961e+03 
-7.97477e+02 -3.36620e+03 
-7.02056e+02 -3.36315e+03 
-6.07274e+02 -3.36047e+03 
-5.13040e+02 -3.35817e+03 
-4.19269e+02 -3.35624e+03 
-3.25875e+02 -3.35470e+03 
-2.32773e+02 -3.35353e+03 
-1.39879e+02 -3.35275e+03 
-4.71090e+01 -3.35236e+03 
 4.56230e+01 -3.35236e+03 
 1.38393e+02 -3.35274e+03 
 2.31289e+02 -3.35350e+03 
 3.24393e+02 -3.35465e+03 
 4.17790e+02 -3.35618e+03 
 5.11565e+02 -3.35810e+03 
 6.05802e+02 -3.36038e+03 
 7.00589e+02 -3.36305e+03 
 7.96014e+02 -3.36608e+03 
 8.92165e+02 -3.36948e+03 
 9.89131e+02 -3.37324e+03 
 1.08700e+03 -3.37737e+03 
 1.18588e+03 -3.38185e+03 
 1.28584e+03 -3.38669e+03 
 1.38699e+03 -3.39189e+03 
 1.48941e+03 -3.39744e+03 
 1.59319e+03 -3.40335e+03 
 1.69839e+03 -3.40962e+03 
 1.80522e+03 -3.41626e+03 
 1.91389e+03 -3.42326e+03 
-1.93625e+03 -3.53227e+03 
-1.82653e+03 -3.52548e+03 
-1.71864e+03 -3.51906e+03 
-1.61237e+03 -3.51298e+03 
-1.50752e+03 -3.50725e+03 
-1.40404e+03 -3.50186e+03 
-1.30183e+03 -3.49681e+03 
-1.20082e+03 -3.49211e+03 
-1.10089e+03 -3.48775e+03 
-1.00196e+03 -3.48373e+03 
-9.03928e+02 -3.48006e+03 
-8.06713e+02 -3.47674e+03 
-7.10220e+02 -3.47378e+03 
-6.14360e+02 -3.47117e+03 
-5.19045e+02 -3.46893e+03 
-4.24189e+02 -3.46705e+03 
-3.29706e+02 -3.46555e+03 
-2.35512e+02 -3.46441e+03 
-1.41524e+02 -3.46365e+03 
-4.76588e+01 -3.46327e+03 
 4.61691e+01 -3.46326e+03 
 1.40035e+02 -3.46363e+03 
 2.34025e+02 -3.46438e+03 
 3.28221e+02 -3.46550e+03 
 4.22706e+02 -3.46699e+03 
 5.17566e+02 -3.46886e+03 
 6.12885e+02 -3.47109e+03 
 7.08749e+02 -3.47368e+03 
 8.05246e+02 -3.47663e+03 
 9.02465e+02 -3.47993e+03 
 1.00050e+03 -3.48359e+03 
 1.09943e+03 -3.48759e+03 
 1.19936e+03 -3.49193e+03 
 1.30039e+03 -3.49662e+03 
 1.40259e+03 -3.50165e+03 
 1.50608e+03 -3.50703e+03 
 1.61092e+03 -3.51274e+03 
 1.71719e+03 -3.51880e+03 
 1.82509e+03 -3.52521e+03 
 1.93483e+03 -3.53198e+03 
-1.95648e+03 -3.64204e+03 
-1.84572e+03 -3.63549e+03 
-1.73679e+03 -3.62928e+03 
-1.62949e+03 -3.62342e+03 
-1.52362e+03 -3.61788e+03 
-1.41912e+03 -3.61268e+03 
-1.31590e+03 -3.60780e+03 
-1.21386e+03 -3.60324e+03 
-1.11291e+03 -3.59901e+03 
-1.01296e+03 -3.59512e+03 
-9.13902e+02 -3.59156e+03 
-8.15656e+02 -3.58833e+03 
-7.18128e+02 -3.58545e+03 
-6.21227e+02 -3.58291e+03 
-5.24866e+02 -3.58072e+03 
-4.28959e+02 -3.57889e+03 
-3.33421e+02 -3.57742e+03 
-2.38169e+02 -3.57631e+03 
-1.43120e+02 -3.57557e+03 
-4.81922e+01 -3.57519e+03 
 4.66989e+01 -3.57519e+03 
 1.41627e+02 -3.57555e+03 
 2.36678e+02 -3.57628e+03 
 3.31932e+02 -3.57738e+03 
 4.27473e+02 -3.57883e+03 
 5.23383e+02 -3.58065e+03 
 6.19748e+02 -3.58282e+03 
 7.16653e+02 -3.58535e+03 
 8.14185e+02 -3.58822e+03 
 9.12435e+02 -3.59143e+03 
 1.01149e+03 -3.59497e+03 
 1.11145e+03 -3.59885e+03 
 1.21240e+03 -3.60306e+03 
 1.31444e+03 -3.60760e+03 
 1.41767e+03 -3.61247e+03 
 1.52217e+03 -3.61766e+03 
 1.62804e+03 -3.62318e+03 
 1.73533e+03 -3.62903e+03 
 1.84427e+03 -3.63521e+03 
 1.95505e+03 -3.64174e+03 
-1.97598e+03 -3.75282e+03 
-1.86422e+03 -3.74651e+03 
-1.75429e+03 -3.74054e+03 
-1.64601e+03 -3.73488e+03 
-1.53915e+03 -3.72954e+03 
-1.43367e+03 -3.72451e+03 
-1.32947e+03 -3.71980e+03 
-1.22646e+03 -3.71539e+03 
-1.12453e+03 -3.71130e+03 
-1.02359e+03 -3.70752e+03 
-9.23550e+02 -3.70406e+03 
-8.24311e+02 -3.70093e+03 
-7.25784e+02 -3.69812e+03 
-6.27879e+02 -3.69565e+03 
-5.30507e+02 -3.69352e+03 
-4.33584e+02 -3.69173e+03 
-3.37024e+02 -3.69029e+03 
-2.40746e+02 -3.68921e+03 
-1.44668e+02 -3.68848e+03 
-4.87096e+01 -3.68812e+03 
 4.72129e+01 -3.68811e+03 
 1.43172e+02 -3.68846e+03 
 2.39251e+02 -3.68918e+03 
 3.35531e+02 -3.69025e+03 
 4.32093e+02 -3.69167e+03 
 5.29020e+02 -3.69344e+03 
 6.26395e+02 -3.69556e+03 
 7.24305e+02 -3.69802e+03 
 8.22836e+02 -3.70081e+03 
 9.22079e+02 -3.70393e+03 
 1.02212e+03 -3.70737e+03 
 1.12306e+03 -3.71114e+03 
 1.22500e+03 -3.71521e+03 
 1.32801e+03 -3.71960e+03 
 1.43221e+03 -3.72430e+03 
 1.53770e+03 -3.72931e+03 
 1.64455e+03 -3.73464e+03 
 1.75283e+03 -3.74028e+03 
 1.86276e+03 -3.74624e+03 
 1.97454e+03 -3.75252e+03 
-1.99475e+03 -3.86458e+03 
-1.88202e+03 -3.85851e+03 
-1.77114e+03 -3.85276e+03 
-1.66191e+03 -3.84732e+03 
-1.55411e+03 -3.84218e+03 
-1.44770e+03 -3.83733e+03 
-1.34256e+03 -3.83277e+03 
-1.23861e+03 -3.82851e+03 
-1.13574e+03 -3.82455e+03 
-1.03386e+03 -3.82089e+03 
-9.32874e+02 -3.81753e+03 
-8.32681e+02 -3.81448e+03 
-7.33192e+02 -3.81175e+03 
-6.34318e+02 -3.80934e+03 
-5.35970e+02 -3.80726e+03 
-4.38064e+02 -3.80552e+03 
-3.40516e+02 -3.80411e+03 
-2.43244e+02 -3.80305e+03 
-1.46169e+02 -3.80234e+03 
-4.92114e+01 -3.80199e+03 
 4.77113e+01 -3.80198e+03 
 1.44670e+02 -3.80233e+03 
 2.41746e+02 -3.80302e+03 
 3.39020e+02 -3.80407e+03 
 4.36570e+02 -3.80546e+03 
 5.34479e+02 -3.80719e+03 
 6.32830e+02 -3.80926e+03 
 7.31708e+02 -3.81165e+03 
 8.31201e+02 -3.81437e+03 
 9.31398e+02 -3.81740e+03 
 1.03239e+03 -3.82074e+03 
 1.13427e+03 -3.82439e+03 
 1.23714e+03 -3.82834e+03 
 1.34110e+03 -3.83258e+03 
 1.44623e+03 -3.83711e+03 
 1.55265e+03 -3.84195e+03 
 1.66044e+03 -3.84707e+03 
 1.76966e+03 -3.85250e+03 
 1.88055e+03 -3.85823e+03 
 1.99330e+03 -3.86428e+03 
-2.01278e+03 -3.97729e+03 
-1.89912e+03 -3.97146e+03 
-1.78733e+03 -3.96594e+03 
-1.67719e+03 -3.96071e+03 
-1.56850e+03 -3.95576e+03 
-1.46119e+03 -3.95109e+03 
-1.35516e+03 -3.94670e+03 
-1.25032e+03 -3.94258e+03 
-1.14656e+03 -3.93875e+03 
-1.04378e+03 -3.93520e+03 
-9.41879e+02 -3.93194e+03 
-8.40770e+02 -3.92898e+03 
-7.40357e+02 -3.92632e+03 
-6.40550e+02 -3.92397e+03 
-5.41260e+02 -3.92194e+03 
-4.42405e+02 -3.92023e+03 
-3.43900e+02 -3.91886e+03 
-2.45667e+02 -3.91782e+03 
-1.47625e+02 -3.91712e+03 
-4.96980e+01 -3.91677e+03 
 4.81948e+01 -3.91677e+03 
 1.46122e+02 -3.91711e+03 
 2.44165e+02 -3.91779e+03 
 3.42401e+02 -3.91881e+03 
 4.40907e+02 -3.92018e+03 
 5.39765e+02 -3.92187e+03 
 6.39058e+02 -3.92388e+03 
 7.38869e+02 -3.92622e+03 
 8.39285e+02 -3.92886e+03 
 9.40398e+02 -3.93181e+03 
 1.04230e+03 -3.93505e+03 
 1.14508e+03 -3.93859e+03 
 1.24885e+03 -3.94240e+03 
 1.35369e+03 -3.94650e+03 
 1.45972e+03 -3.95087e+03 
 1.56703e+03 -3.95553e+03 
 1.67572e+03 -3.96046e+03 
 1.78585e+03 -3.96567e+03 
 1.89764e+03 -3.97117e+03 
 2.01132e+03 -3.97698e+03 
-2.03007e+03 -4.09089e+03 
-1.91552e+03 -4.08531e+03 
-1.80285e+03 -4.08002e+03 
-1.69186e+03 -4.07500e+03 
-1.58232e+03 -4.07025e+03 
-1.47416e+03 -4.06576e+03 
-1.36728e+03 -4.06153e+03 
-1.26159e+03 -4.05755e+03 
-1.15697e+03 -4.05385e+03 
-1.05333e+03 -4.05041e+03 
-9.50568e+02 -4.04724e+03 
-8.48583e+02 -4.04436e+03 
-7.47283e+02 -4.04177e+03 
-6.46578e+02 -4.03947e+03 
-5.46382e+02 -4.03749e+03 
-4.46609e+02 -4.03582e+03 
-3.47180e+02 -4.03447e+03 
-2.48015e+02 -4.03346e+03 
-1.49036e+02 -4.03277e+03 
-5.01697e+01 -4.03243e+03 
 4.86637e+01 -4.03242e+03 
 1.47531e+02 -4.03276e+03 
 2.46510e+02 -4.03343e+03 
 3.45677e+02 -4.03443e+03 
 4.45108e+02 -4.03576e+03 
 5.44882e+02 -4.03742e+03 
 6.45081e+02 -4.03939e+03 
 7.45789e+02 -4.04167e+03 
 8.47093e+02 -4.04424e+03 
 9.49082e+02 -4.04711e+03 
 1.05185e+03 -4.05026e+03 
 1.15549e+03 -4.05368e+03 
 1.26011e+03 -4.05737e+03 
 1.36581e+03 -4.06132e+03 
 1.47268e+03 -4.06554e+03 
 1.58084e+03 -4.07001e+03 
 1.69038e+03 -4.07474e+03 
 1.80137e+03 -4.07974e+03 
 1.91403e+03 -4.08502e+03 
 2.02860e+03 -4.09057e+03 
-2.04660e+03 -4.20537e+03 
-1.93121e+03 -4.20003e+03 
-1.81771e+03 -4.19497e+03 
-1.70591e+03 -4.19017e+03 
-1.59556e+03 -4.18561e+03 
-1.48659e+03 -4.18130e+03 
-1.37892e+03 -4.17723e+03 
-1.27242e+03 -4.17340e+03 
-1.16700e+03 -4.16981e+03 
-1.06254e+03 -4.16648e+03 
-9.58949e+02 -4.16340e+03 
-8.56125e+02 -4.16060e+03 
-7.53975e+02 -4.15807e+03 
-6.52409e+02 -4.15583e+03 
-5.51339e+02 -4.15389e+03 
-4.50682e+02 -4.15225e+03 
-3.50359e+02 -4.15093e+03 
-2.50291e+02 -4.14994e+03 
-1.50405e+02 -4.14926e+03 
-5.06273e+01 -4.14893e+03 
 4.91187e+01 -4.14892e+03 
 1.48897e+02 -4.14925e+03 
 2.48784e+02 -4.14991e+03 
 3.48852e+02 -4.15089e+03 
 4.49177e+02 -4.15220e+03 
 5.49835e+02 -4.15382e+03 
 6.50908e+02 -4.15575e+03 
 7.52477e+02 -4.15798e+03 
 8.54630e+02 -4.16049e+03 
 9.57456e+02 -4.16327e+03 
 1.06105e+03 -4.16633e+03 
 1.16551e+03 -4.16964e+03 
 1.27094e+03 -4.17321e+03 
 1.37744e+03 -4.17702e+03 
 1.48511e+03 -4.18107e+03 
 1.59408e+03 -4.18537e+03 
 1.70442e+03 -4.18991e+03 
 1.81622e+03 -4.19469e+03 
 1.92972e+03 -4.19973e+03 
 2.04513e+03 -4.20504e+03 
-2.06238e+03 -4.32066e+03 
-1.94618e+03 -4.31558e+03 
-1.83190e+03 -4.31075e+03 
-1.71933e+03 -4.30617e+03 
-1.60822e+03 -4.30181e+03 
-1.49850e+03 -4.29767e+03 
-1.39008e+03 -4.29375e+03 
-1.28282e+03 -4.29006e+03 
-1.17663e+03 -4.28660e+03 
-1.07140e+03 -4.28337e+03 
-9.67024e+02 -4.28038e+03 
-8.63403e+02 -4.27765e+03 
-7.60440e+02 -4.27519e+03 
-6.58048e+02 -4.27300e+03 
-5.56137e+02 -4.27109e+03 
-4.54628e+02 -4.26949e+03 
-3.53440e+02 -4.26819e+03 
-2.52500e+02 -4.26721e+03 
-1.51733e+02 -4.26655e+03 
-5.10712e+01 -4.26622e+03 
 4.95604e+01 -4.26621e+03 
 1.50223e+02 -4.26654e+03 
 2.50989e+02 -4.26718e+03 
 3.51930e+02 -4.26815e+03 
 4.53119e+02 -4.26944e+03 
 5.54629e+02 -4.27103e+03 
 6.56541e+02 -4.27292e+03 
 7.58936e+02 -4.27509e+03 
 8.61901e+02 -4.27754e+03 
 9.65526e+02 -4.28025e+03 
 1.06991e+03 -4.28322e+03 
 1.17514e+03 -4.28643e+03 
 1.28133e+03 -4.28987e+03 
 1.38859e+03 -4.29354e+03 
 1.49702e+03 -4.29744e+03 
 1.60673e+03 -4.30155e+03 
 1.71784e+03 -4.30589e+03 
 1.83041e+03 -4.31046e+03 
 1.94468e+03 -4.31527e+03 
 2.06089e+03 -4.32033e+03 
-2.07739e+03 -4.43675e+03 
-1.96043e+03 -4.43192e+03 
-1.84542e+03 -4.42733e+03 
-1.73212e+03 -4.42295e+03 
-1.62031e+03 -4.41879e+03 
-1.50989e+03 -4.41483e+03 
-1.40075e+03 -4.41107e+03 
-1.29279e+03 -4.40751e+03 
-1.18588e+03 -4.40417e+03 
-1.07992e+03 -4.40104e+03 
-9.74802e+02 -4.39814e+03 
-8.70422e+02 -4.39548e+03 
-7.66685e+02 -4.39308e+03 
-6.63501e+02 -4.39093e+03 
-5.60783e+02 -4.38907e+03 
-4.58451e+02 -4.38749e+03 
-3.56429e+02 -4.38622e+03 
-2.54642e+02 -4.38525e+03 
-1.53023e+02 -4.38460e+03 
-5.15020e+01 -4.38427e+03 
 4.99894e+01 -4.38427e+03 
 1.51510e+02 -4.38459e+03 
 2.53129e+02 -4.38523e+03 
 3.54916e+02 -4.38618e+03 
 4.56938e+02 -4.38744e+03 
 5.59271e+02 -4.38900e+03 
 6.61989e+02 -4.39085e+03 
 7.65175e+02 -4.39298e+03 
 8.68914e+02 -4.39537e+03 
 9.73296e+02 -4.39801e+03 
 1.07842e+03 -4.40089e+03 
 1.18438e+03 -4.40400e+03 
 1.29129e+03 -4.40732e+03 
 1.39926e+03 -4.41085e+03 
 1.50839e+03 -4.41459e+03 
 1.61881e+03 -4.41853e+03 
 1.73063e+03 -4.42267e+03 
 1.84391e+03 -4.42702e+03 
 1.95892e+03 -4.43159e+03 
 2.07589e+03 -4.43640e+03 
-2.09162e+03 -4.55358e+03 
-1.97394e+03 -4.54900e+03 
-1.85825e+03 -4.54465e+03 
-1.74429e+03 -4.54050e+03 
-1.63182e+03 -4.53653e+03 
-1.52074e+03 -4.53274e+03 
-1.41095e+03 -4.52914e+03 
-1.30233e+03 -4.52572e+03 
-1.19475e+03 -4.52249e+03 
-1.08811e+03 -4.51947e+03 
-9.82289e+02 -4.51665e+03 
-8.77191e+02 -4.51406e+03 
-7.72717e+02 -4.51171e+03 
-6.68776e+02 -4.50961e+03 
-5.65283e+02 -4.50778e+03 
-4.62159e+02 -4.50623e+03 
-3.59329e+02 -4.50498e+03 
-2.56723e+02 -4.50402e+03 
-1.54275e+02 -4.50338e+03 
-5.19205e+01 -4.50306e+03 
 5.04066e+01 -4.50305e+03 
 1.52761e+02 -4.50337e+03 
 2.55208e+02 -4.50400e+03 
 3.57813e+02 -4.50494e+03 
 4.60642e+02 -4.50618e+03 
 5.63766e+02 -4.50772e+03 
 6.67259e+02 -4.50953e+03 
 7.71200e+02 -4.51161e+03 
 8.75675e+02 -4.51395e+03 
 9.80776e+02 -4.51652e+03 
 1.08660e+03 -4.51931e+03 
 1.19324e+03 -4.52232e+03 
 1.30082e+03 -4.52552e+03 
 1.40945e+03 -4.52892e+03 
 1.51924e+03 -4.53250e+03 
 1.63031e+03 -4.53626e+03 
 1.74279e+03 -4.54020e+03 
 1.85674e+03 -4.54434e+03 
 1.97243e+03 -4.54867e+03 
 2.09011e+03 -4.55321e+03 
-2.10505e+03 -4.67110e+03 
-1.98672e+03 -4.66678e+03 
-1.87039e+03 -4.66267e+03 
-1.75582e+03 -4.65874e+03 
-1.64274e+03 -4.65497e+03 
-1.53107e+03 -4.65136e+03 
-1.42068e+03 -4.64791e+03 
-1.31145e+03 -4.64463e+03 
-1.20325e+03 -4.64152e+03 
-1.09597e+03 -4.63859e+03 
-9.89492e+02 -4.63586e+03 
-8.83716e+02 -4.63334e+03 
-7.78542e+02 -4.63104e+03 
-6.73880e+02 -4.62898e+03 
-5.69643e+02 -4.62719e+03 
-4.65756e+02 -4.62566e+03 
-3.62146e+02 -4.62442e+03 
-2.58746e+02 -4.62348e+03 
-1.55493e+02 -4.62285e+03 
-5.23274e+01 -4.62253e+03 
 5.08126e+01 -4.62253e+03 
 1.53977e+02 -4.62284e+03 
 2.57228e+02 -4.62346e+03 
 3.60627e+02 -4.62439e+03 
 4.64235e+02 -4.62561e+03 
 5.68121e+02 -4.62712e+03 
 6.72356e+02 -4.62890e+03 
 7.77019e+02 -4.63094e+03 
 8.82193e+02 -4.63322e+03 
 9.87970e+02 -4.63572e+03 
 1.09445e+03 -4.63843e+03 
 1.20173e+03 -4.64134e+03 
 1.30993e+03 -4.64443e+03 
 1.41917e+03 -4.64768e+03 
 1.52956e+03 -4.65111e+03 
 1.64123e+03 -4.65469e+03 
 1.75431e+03 -4.65843e+03 
 1.86888e+03 -4.66235e+03 
 1.98520e+03 -4.66644e+03 
 2.10354e+03 -4.67072e+03 
-2.11768e+03 -4.78927e+03 
-1.99873e+03 -4.78522e+03 
-1.88183e+03 -4.78135e+03 
-1.76671e+03 -4.77764e+03 
-1.65309e+03 -4.77407e+03 
-1.54087e+03 -4.77064e+03 
-1.42994e+03 -4.76735e+03 
-1.32015e+03 -4.76421e+03 
-1.21138e+03 -4.76121e+03 
-1.10351e+03 -4.75838e+03 
-9.96419e+02 -4.75573e+03 
-8.90006e+02 -4.75328e+03 
-7.84171e+02 -4.75103e+03 
-6.78820e+02 -4.74902e+03 
-5.73872e+02 -4.74726e+03 
-4.69249e+02 -4.74576e+03 
-3.64884e+02 -4.74454e+03 
-2.60713e+02 -4.74361e+03 
-1.56678e+02 -4.74298e+03 
-5.27234e+01 -4.74267e+03 
 5.12082e+01 -4.74266e+03 
 1.55162e+02 -4.74297e+03 
 2.59194e+02 -4.74359e+03 
 3.63362e+02 -4.74450e+03 
 4.67724e+02 -4.74571e+03 
 5.72343e+02 -4.74719e+03 
 6.77290e+02 -4.74894e+03 
 7.82639e+02 -4.75094e+03 
 8.88474e+02 -4.75316e+03 
 9.94887e+02 -4.75560e+03 
 1.10198e+03 -4.75822e+03 
 1.20985e+03 -4.76103e+03 
 1.31862e+03 -4.76400e+03 
 1.42841e+03 -4.76712e+03 
 1.53935e+03 -4.77038e+03 
 1.65157e+03 -4.77378e+03 
 1.76519e+03 -4.77733e+03 
 1.88031e+03 -4.78102e+03 
 1.99722e+03 -4.78486e+03 
 2.11616e+03 -4.78888e+03 
-2.12948e+03 -4.90803e+03 
-2.00999e+03 -4.90425e+03 
-1.89257e+03 -4.90063e+03 
-1.77695e+03 -4.89715e+03 
-1.66284e+03 -4.89378e+03 
-1.55015e+03 -4.89053e+03 
-1.43872e+03 -4.88740e+03 
-1.32843e+03 -4.88440e+03 
-1.21914e+03 -4.88152e+03 
-1.11073e+03 -4.87879e+03 
-1.00308e+03 -4.87623e+03 
-8.96069e+02 -4.87384e+03 
-7.89609e+02 -4.87165e+03 
-6.83605e+02 -4.86968e+03 
-5.77974e+02 -4.86795e+03 
-4.72644e+02 -4.86647e+03 
-3.67549e+02 -4.86527e+03 
-2.62630e+02 -4.86436e+03 
-1.57833e+02 -4.86374e+03 
-5.31093e+01 -4.86343e+03 
 5.15941e+01 -4.86343e+03 
 1.56316e+02 -4.86373e+03 
 2.61109e+02 -4.86434e+03 
 3.66024e+02 -4.86524e+03 
 4.71115e+02 -4.86643e+03 
 5.76440e+02 -4.86788e+03 
 6.82067e+02 -4.86960e+03 
 7.88069e+02 -4.87155e+03 
 8.94527e+02 -4.87372e+03 
 1.00153e+03 -4.87608e+03 
 1.10919e+03 -4.87863e+03 
 1.21760e+03 -4.88133e+03 
 1.32689e+03 -4.88418e+03 
 1.43719e+03 -4.88716e+03 
 1.54862e+03 -4.89026e+03 
 1.66132e+03 -4.89348e+03 
 1.77543e+03 -4.89682e+03 
 1.89105e+03 -4.90028e+03 
 2.00847e+03 -4.90388e+03 
 2.12796e+03 -4.90763e+03 
-2.14044e+03 -5.02733e+03 
-2.02046e+03 -5.02383e+03 
-1.90259e+03 -5.02047e+03 
-1.78654e+03 -5.01721e+03 
-1.67202e+03 -5.01405e+03 
-1.55889e+03 -5.01098e+03 
-1.44704e+03 -5.00802e+03 
-1.33630e+03 -5.00515e+03 
-1.22655e+03 -5.00240e+03 
-1.11765e+03 -4.99978e+03 
-1.00947e+03 -4.99730e+03 
-9.01912e+02 -4.99499e+03 
-7.94866e+02 -4.99286e+03 
-6.88242e+02 -4.99093e+03 
-5.81959e+02 -4.98924e+03 
-4.75948e+02 -4.98779e+03 
-3.70146e+02 -4.98661e+03 
-2.64499e+02 -4.98572e+03 
-1.58961e+02 -4.98511e+03 
-5.34860e+01 -4.98480e+03 
 5.19710e+01 -4.98480e+03 
 1.57443e+02 -4.98509e+03 
 2.62977e+02 -4.98569e+03 
 3.68618e+02 -4.98658e+03 
 4.74413e+02 -4.98774e+03 
 5.80419e+02 -4.98917e+03 
 6.86696e+02 -4.99085e+03 
 7.93316e+02 -4.99276e+03 
 9.00360e+02 -4.99486e+03 
 1.00792e+03 -4.99716e+03 
 1.11609e+03 -4.99961e+03 
 1.22500e+03 -5.00221e+03 
 1.33475e+03 -5.00493e+03 
 1.44549e+03 -5.00776e+03 
 1.55735e+03 -5.01070e+03 
 1.67048e+03 -5.01374e+03 
 1.78502e+03 -5.01687e+03 
 1.90107e+03 -5.02010e+03 
 2.01894e+03 -5.02345e+03 
 2.13892e+03 -5.02691e+03 
-2.15053e+03 -5.14711e+03 
-2.03013e+03 -5.14389e+03 
-1.91189e+03 -5.14078e+03 
-1.79548e+03 -5.13775e+03 
-1.68059e+03 -5.13480e+03 
-1.56711e+03 -5.13193e+03 
-1.45489e+03 -5.12913e+03 
-1.34377e+03 -5.12642e+03 
-1.23360e+03 -5.12380e+03 
-1.12426e+03 -5.12129e+03 
-1.01561e+03 -5.11891e+03 
-9.07542e+02 -5.11668e+03 
-7.99949e+02 -5.11461e+03 
-6.92739e+02 -5.11274e+03 
-5.85833e+02 -5.11109e+03 
-4.79165e+02 -5.10968e+03 
-3.72678e+02 -5.10853e+03 
-2.66324e+02 -5.10765e+03 
-1.60062e+02 -5.10705e+03 
-5.38540e+01 -5.10675e+03 
 5.23393e+01 -5.10675e+03 
 1.58544e+02 -5.10704e+03 
 2.64801e+02 -5.10762e+03 
 3.71147e+02 -5.10849e+03 
 4.77625e+02 -5.10963e+03 
 5.84285e+02 -5.11102e+03 
 6.91184e+02 -5.11266e+03 
 7.98389e+02 -5.11451e+03 
 9.05979e+02 -5.11655e+03 
 1.01404e+03 -5.11876e+03 
 1.12269e+03 -5.12112e+03 
 1.23203e+03 -5.12360e+03 
 1.34220e+03 -5.12619e+03 
 1.45333e+03 -5.12887e+03 
 1.56556e+03 -5.13164e+03 
 1.67905e+03 -5.13448e+03 
 1.79395e+03 -5.13740e+03 
 1.91036e+03 -5.14040e+03 
 2.02862e+03 -5.14349e+03 
 2.14902e+03 -5.14667e+03 
-2.15974e+03 -5.26728e+03 
-2.03900e+03 -5.26435e+03 
-1.92045e+03 -5.26150e+03 
-1.80375e+03 -5.25872e+03 
-1.68858e+03 -5.25599e+03 
-1.57481e+03 -5.25332e+03 
-1.46227e+03 -5.25070e+03 
-1.35082e+03 -5.24815e+03 
-1.24030e+03 -5.24568e+03 
-1.13057e+03 -5.24329e+03 
-1.02150e+03 -5.24102e+03 
-9.12967e+02 -5.23888e+03 
-8.04865e+02 -5.23689e+03 
-6.97101e+02 -5.23508e+03 
-5.89601e+02 -5.23348e+03 
-4.82301e+02 -5.23212e+03 
-3.75150e+02 -5.23100e+03 
-2.68108e+02 -5.23014e+03 
-1.61139e+02 -5.22957e+03 
-5.42142e+01 -5.22927e+03 
 5.26994e+01 -5.22927e+03 
 1.59621e+02 -5.22955e+03 
 2.66582e+02 -5.23012e+03 
 3.73615e+02 -5.23096e+03 
 4.80755e+02 -5.23206e+03 
 5.88045e+02 -5.23341e+03 
 6.95537e+02 -5.23499e+03 
 8.03293e+02 -5.23678e+03 
 9.11391e+02 -5.23875e+03 
 1.01992e+03 -5.24086e+03 
 1.12899e+03 -5.24311e+03 
 1.23872e+03 -5.24547e+03 
 1.34924e+03 -5.24791e+03 
 1.46070e+03 -5.25043e+03 
 1.57324e+03 -5.25302e+03 
 1.68703e+03 -5.25566e+03 
 1.80221e+03 -5.25836e+03 
 1.91893e+03 -5.26112e+03 
 2.03750e+03 -5.26394e+03 
 2.15824e+03 -5.26684e+03 
-2.16805e+03 -5.38778e+03 
-2.04705e+03 -5.38514e+03 
-1.92827e+03 -5.38256e+03 
-1.81136e+03 -5.38002e+03 
-1.69597e+03 -5.37752e+03 
-1.58196e+03 -5.37506e+03 
-1.46918e+03 -5.37264e+03 
-1.35747e+03 -5.37027e+03 
-1.24665e+03 -5.36796e+03 
-1.13659e+03 -5.36572e+03 
-1.02714e+03 -5.36357e+03 
-9.18191e+02 -5.36154e+03 
-8.09618e+02 -5.35964e+03 
-7.01335e+02 -5.35792e+03 
-5.93268e+02 -5.35639e+03 
-4.85358e+02 -5.35508e+03 
-3.77564e+02 -5.35401e+03 
-2.69851e+02 -5.35319e+03 
-1.62193e+02 -5.35264e+03 
-5.45670e+01 -5.35236e+03 
 5.30508e+01 -5.35235e+03 
 1.60672e+02 -5.35262e+03 
 2.68322e+02 -5.35316e+03 
 3.76024e+02 -5.35396e+03 
 4.83806e+02 -5.35502e+03 
 5.91703e+02 -5.35631e+03 
 6.99760e+02 -5.35782e+03 
 8.08034e+02 -5.35953e+03 
 9.16601e+02 -5.36140e+03 
 1.02555e+03 -5.36341e+03 
 1.13499e+03 -5.36553e+03 
 1.24505e+03 -5.36774e+03 
 1.35587e+03 -5.37002e+03 
 1.46759e+03 -5.37236e+03 
 1.58038e+03 -5.37475e+03 
 1.69440e+03 -5.37719e+03 
 1.80982e+03 -5.37966e+03 
 1.92675e+03 -5.38217e+03 
 2.04556e+03 -5.38473e+03 
 2.16656e+03 -5.38733e+03 
-2.17543e+03 -5.50851e+03 
-2.05427e+03 -5.50617e+03 
-1.93535e+03 -5.50386e+03 
-1.81829e+03 -5.50158e+03 
-1.70275e+03 -5.49932e+03 
-1.58858e+03 -5.49709e+03 
-1.47562e+03 -5.49489e+03 
-1.36370e+03 -5.49272e+03 
-1.25264e+03 -5.49060e+03 
-1.14231e+03 -5.48853e+03 
-1.03254e+03 -5.48653e+03 
-9.23216e+02 -5.48463e+03 
-8.14213e+02 -5.48286e+03 
-7.05443e+02 -5.48124e+03 
-5.96834e+02 -5.47980e+03 
-4.88338e+02 -5.47856e+03 
-3.79919e+02 -5.47756e+03 
-2.71553e+02 -5.47679e+03 
-1.63222e+02 -5.47627e+03 
-5.49127e+01 -5.47601e+03 
 5.33927e+01 -5.47600e+03 
 1.61698e+02 -5.47625e+03 
 2.70020e+02 -5.47675e+03 
 3.78374e+02 -5.47750e+03 
 4.86779e+02 -5.47849e+03 
 5.95260e+02 -5.47971e+03 
 7.03856e+02 -5.48113e+03 
 8.12616e+02 -5.48274e+03 
 9.21611e+02 -5.48449e+03 
 1.03093e+03 -5.48636e+03 
 1.14069e+03 -5.48833e+03 
 1.25103e+03 -5.49037e+03 
 1.36208e+03 -5.49247e+03 
 1.47401e+03 -5.49460e+03 
 1.58699e+03 -5.49678e+03 
 1.70118e+03 -5.49898e+03 
 1.81674e+03 -5.50122e+03 
 1.93383e+03 -5.50348e+03 
 2.05279e+03 -5.50576e+03 
 2.17396e+03 -5.50806e+03 
-2.18187e+03 -5.62937e+03 
-2.06065e+03 -5.62733e+03 
-1.94167e+03 -5.62530e+03 
-1.82454e+03 -5.62329e+03 
-1.70891e+03 -5.62128e+03 
-1.59465e+03 -5.61931e+03 
-1.48157e+03 -5.61735e+03 
-1.36950e+03 -5.61542e+03 
-1.25828e+03 -5.61352e+03 
-1.14772e+03 -5.61165e+03 
-1.03769e+03 -5.60984e+03 
-9.28041e+02 -5.60811e+03 
-8.18648e+02 -5.60649e+03 
-7.09423e+02 -5.60500e+03 
-6.00299e+02 -5.60369e+03 
-4.91237e+02 -5.60256e+03 
-3.82212e+02 -5.60165e+03 
-2.73211e+02 -5.60095e+03 
-1.64226e+02 -5.60049e+03 
-5.52510e+01 -5.60024e+03 
 5.37233e+01 -5.60023e+03 
 1.62694e+02 -5.60045e+03 
 2.71670e+02 -5.60090e+03 
 3.80659e+02 -5.60158e+03 
 4.89669e+02 -5.60248e+03 
 5.98715e+02 -5.60359e+03 
 7.07824e+02 -5.60489e+03 
 8.17038e+02 -5.60636e+03 
 9.26421e+02 -5.60796e+03 
 1.03607e+03 -5.60967e+03 
 1.14609e+03 -5.61145e+03 
 1.25664e+03 -5.61328e+03 
 1.36787e+03 -5.61515e+03 
 1.47995e+03 -5.61706e+03 
 1.59305e+03 -5.61899e+03 
 1.70734e+03 -5.62095e+03 
 1.82300e+03 -5.62293e+03 
 1.94016e+03 -5.62493e+03 
 2.05918e+03 -5.62693e+03 
 2.18043e+03 -5.62893e+03 
-2.18735e+03 -5.75024e+03 
-2.06618e+03 -5.74851e+03 
-1.94723e+03 -5.74677e+03 
-1.83010e+03 -5.74503e+03 
-1.71446e+03 -5.74331e+03 
-1.60015e+03 -5.74161e+03 
-1.48702e+03 -5.73993e+03 
-1.37487e+03 -5.73828e+03 
-1.26353e+03 -5.73665e+03 
-1.15283e+03 -5.73504e+03 
-1.04259e+03 -5.73346e+03 
-9.32662e+02 -5.73195e+03 
-8.22921e+02 -5.73052e+03 
-7.13271e+02 -5.72921e+03 
-6.03655e+02 -5.72806e+03 
-4.94046e+02 -5.72709e+03 
-3.84433e+02 -5.72630e+03 
-2.74816e+02 -5.72571e+03 
-1.65199e+02 -5.72531e+03 
-5.55811e+01 -5.72510e+03 
 5.40392e+01 -5.72509e+03 
 1.63654e+02 -5.72527e+03 
 2.73265e+02 -5.72564e+03 
 3.82871e+02 -5.72621e+03 
 4.92469e+02 -5.72698e+03 
 6.02061e+02 -5.72794e+03 
 7.11660e+02 -5.72908e+03 
 8.21296e+02 -5.73037e+03 
 9.31026e+02 -5.73178e+03 
 1.04094e+03 -5.73327e+03 
 1.15118e+03 -5.73482e+03 
 1.26188e+03 -5.73640e+03 
 1.37322e+03 -5.73801e+03 
 1.48538e+03 -5.73964e+03 
 1.59855e+03 -5.74129e+03 
 1.71288e+03 -5.74298e+03 
 1.82857e+03 -5.74468e+03 
 1.94574e+03 -5.74641e+03 
 2.06474e+03 -5.74813e+03 
 2.18595e+03 -5.74982e+03 
-2.19189e+03 -5.87101e+03 
-2.07088e+03 -5.86959e+03 
-1.95203e+03 -5.86813e+03 
-1.83498e+03 -5.86668e+03 
-1.71937e+03 -5.86527e+03 
-1.60508e+03 -5.86388e+03 
-1.49194e+03 -5.86254e+03 
-1.37977e+03 -5.86122e+03 
-1.26839e+03 -5.85992e+03 
-1.15760e+03 -5.85862e+03 
-1.04722e+03 -5.85734e+03 
-9.37069e+02 -5.85610e+03 
-8.27019e+02 -5.85492e+03 
-7.16974e+02 -5.85386e+03 
-6.06887e+02 -5.85293e+03 
-4.96748e+02 -5.85217e+03 
-3.86566e+02 -5.85156e+03 
-2.76356e+02 -5.85111e+03 
-1.66132e+02 -5.85081e+03 
-5.59012e+01 -5.85065e+03 
 5.43356e+01 -5.85063e+03 
 1.64566e+02 -5.85075e+03 
 2.74788e+02 -5.85102e+03 
 3.84991e+02 -5.85144e+03 
 4.95161e+02 -5.85204e+03 
 6.05284e+02 -5.85279e+03 
 7.15353e+02 -5.85371e+03 
 8.25381e+02 -5.85477e+03 
 9.35416e+02 -5.85592e+03 
 1.04555e+03 -5.85714e+03 
 1.15593e+03 -5.85839e+03 
 1.26672e+03 -5.85966e+03 
 1.37811e+03 -5.86094e+03 
 1.49030e+03 -5.86224e+03 
 1.60347e+03 -5.86358e+03 
 1.71780e+03 -5.86495e+03 
 1.83345e+03 -5.86636e+03 
 1.95056e+03 -5.86780e+03 
 2.06946e+03 -5.86924e+03 
 2.19052e+03 -5.87063e+03 
-2.19548e+03 -5.99153e+03 
-2.07475e+03 -5.99041e+03 
-1.95609e+03 -5.98924e+03 
-1.83916e+03 -5.98810e+03 
-1.72363e+03 -5.98701e+03 
-1.60940e+03 -5.98599e+03 
-1.49631e+03 -5.98503e+03 
-1.38418e+03 -5.98411e+03 
-1.27281e+03 -5.98321e+03 
-1.16201e+03 -5.98231e+03 
-1.05155e+03 -5.98141e+03 
-9.41242e+02 -5.98052e+03 
-8.30927e+02 -5.97968e+03 
-7.20511e+02 -5.97894e+03 
-6.09968e+02 -5.97832e+03 
-4.99315e+02 -5.97783e+03 
-3.88584e+02 -5.97747e+03 
-2.77809e+02 -5.97722e+03 
-1.67013e+02 -5.97706e+03 
-5.62077e+01 -5.97697e+03 
 5.46051e+01 -5.97694e+03 
 1.65414e+02 -5.97698e+03 
 2.76215e+02 -5.97710e+03 
 3.86993e+02 -5.97732e+03 
 4.97718e+02 -5.97767e+03 
 6.08359e+02 -5.97815e+03 
 7.18882e+02 -5.97877e+03 
 8.29277e+02 -5.97951e+03 
 9.39573e+02 -5.98033e+03 
 1.04986e+03 -5.98119e+03 
 1.16031e+03 -5.98206e+03 
 1.27112e+03 -5.98294e+03 
 1.38251e+03 -5.98382e+03 
 1.49467e+03 -5.98473e+03 
 1.60780e+03 -5.98569e+03 
 1.72208e+03 -5.98672e+03 
 1.83765e+03 -5.98782e+03 
 1.95465e+03 -5.98896e+03 
 2.07337e+03 -5.99011e+03 
 2.19416e+03 -5.99121e+03 
-2.19817e+03 -6.11167e+03 
-2.07783e+03 -6.11083e+03 
-1.95942e+03 -6.10995e+03 
-1.84264e+03 -6.10913e+03 
-1.72723e+03 -6.10840e+03 
-1.61309e+03 -6.10778e+03 
-1.50008e+03 -6.10727e+03 
-1.38804e+03 -6.10683e+03 
-1.27676e+03 -6.10643e+03 
-1.16602e+03 -6.10602e+03 
-1.05556e+03 -6.10560e+03 
-9.45156e+02 -6.10518e+03 
-8.34615e+02 -6.10478e+03 
-7.23848e+02 -6.10447e+03 
-6.12859e+02 -6.10426e+03 
-5.01704e+02 -6.10416e+03 
-3.90447e+02 -6.10413e+03 
-2.79142e+02 -6.10415e+03 
-1.67820e+02 -6.10417e+03 
-5.64948e+01 -6.10418e+03 
 5.48384e+01 -6.10415e+03 
 1.66173e+02 -6.10408e+03 
 2.77511e+02 -6.10401e+03 
 3.88832e+02 -6.10395e+03 
 5.00097e+02 -6.10395e+03 
 6.11247e+02 -6.10405e+03 
 7.22217e+02 -6.10427e+03 
 8.32957e+02 -6.10459e+03 
 9.43469e+02 -6.10497e+03 
 1.05385e+03 -6.10537e+03 
 1.16430e+03 -6.10576e+03 
 1.27505e+03 -6.10614e+03 
 1.38636e+03 -6.10653e+03 
 1.49845e+03 -6.10698e+03 
 1.61150e+03 -6.10751e+03 
 1.72570e+03 -6.10815e+03 
 1.84117e+03 -6.10890e+03 
 1.95800e+03 -6.10973e+03 
 2.07648e+03 -6.11060e+03 
 2.19690e+03 -6.11142e+03 
-2.20001e+03 -6.23126e+03 
-2.08016e+03 -6.23069e+03 
-1.96204e+03 -6.23010e+03 
-1.84544e+03 -6.22960e+03 
-1.73015e+03 -6.22925e+03 
-1.61610e+03 -6.22908e+03 
-1.50320e+03 -6.22907e+03 
-1.39129e+03 -6.22920e+03 
-1.28017e+03 -6.22941e+03 
-1.16957e+03 -6.22964e+03 
-1.05920e+03 -6.22984e+03 
-9.48770e+02 -6.23001e+03 
-8.38042e+02 -6.23021e+03 
-7.26932e+02 -6.23047e+03 
-6.15498e+02 -6.23082e+03 
-5.03851e+02 -6.23123e+03 
-3.92097e+02 -6.23166e+03 
-2.80310e+02 -6.23203e+03 
-1.68526e+02 -6.23231e+03 
-5.67534e+01 -6.23244e+03 
 5.50237e+01 -6.23240e+03 
 1.66812e+02 -6.23220e+03 
 2.78625e+02 -6.23187e+03 
 3.90446e+02 -6.23144e+03 
 5.02229e+02 -6.23099e+03 
 6.13887e+02 -6.23057e+03 
 7.25307e+02 -6.23023e+03 
 8.36381e+02 -6.22998e+03 
 9.47063e+02 -6.22978e+03 
 1.05746e+03 -6.22958e+03 
 1.16782e+03 -6.22934e+03 
 1.27845e+03 -6.22911e+03 
 1.38962e+03 -6.22891e+03 
 1.50160e+03 -6.22881e+03 
 1.61456e+03 -6.22884e+03 
 1.72866e+03 -6.22905e+03 
 1.84401e+03 -6.22943e+03 
 1.96067e+03 -6.22995e+03 
 2.07885e+03 -6.23055e+03 
 2.19879e+03 -6.23110e+03 
-2.20111e+03 -6.35019e+03 
-2.08181e+03 -6.34986e+03 
-1.96400e+03 -6.34953e+03 
-1.84756e+03 -6.34935e+03 
-1.73237e+03 -6.34938e+03 
-1.61841e+03 -6.34968e+03 
-1.50562e+03 -6.35024e+03 
-1.39386e+03 -6.35102e+03 
-1.28294e+03 -6.35197e+03 
-1.17256e+03 -6.35299e+03 
-1.06239e+03 -6.35401e+03 
-9.52022e+02 -6.35498e+03 
-8.41141e+02 -6.35596e+03 
-7.29683e+02 -6.35700e+03 
-6.17794e+02 -6.35811e+03 
-5.05668e+02 -6.35922e+03 
-3.93457e+02 -6.36023e+03 
-2.81254e+02 -6.36107e+03 
-1.69093e+02 -6.36167e+03 
-5.69702e+01 -6.36196e+03 
 5.51491e+01 -6.36192e+03 
 1.67293e+02 -6.36156e+03 
 2.79493e+02 -6.36090e+03 
 3.91750e+02 -6.36000e+03 
 5.04018e+02 -6.35893e+03 
 6.16185e+02 -6.35780e+03 
 7.28075e+02 -6.35671e+03 
 8.39490e+02 -6.35570e+03 
 9.50293e+02 -6.35472e+03 
 1.06062e+03 -6.35371e+03 
 1.17080e+03 -6.35267e+03 
 1.28123e+03 -6.35166e+03 
 1.39223e+03 -6.35075e+03 
 1.50406e+03 -6.35001e+03 
 1.61692e+03 -6.34950e+03 
 1.73094e+03 -6.34925e+03 
 1.84618e+03 -6.34925e+03 
 1.96267e+03 -6.34946e+03 
 2.08053e+03 -6.34981e+03 
 2.19992e+03 -6.35013e+03 
-2.20159e+03 -6.46835e+03 
-2.08287e+03 -6.46821e+03 
-1.96535e+03 -6.46811e+03 
-1.84905e+03 -6.46821e+03 
-1.73392e+03 -6.46861e+03 
-1.62001e+03 -6.46936e+03 
-1.50728e+03 -6.47049e+03 
-1.39566e+03 -6.47200e+03 
-1.28495e+03 -6.47381e+03 
-1.17488e+03 -6.47584e+03 
-1.06501e+03 -6.47792e+03 
-9.54823e+02 -6.47998e+03 
-8.43814e+02 -6.48205e+03 
-7.31979e+02 -6.48417e+03 
-6.19619e+02 -6.48630e+03 
-5.07035e+02 -6.48831e+03 
-3.94429e+02 -6.49009e+03 
-2.81903e+02 -6.49151e+03 
-1.69478e+02 -6.49249e+03 
-5.71281e+01 -6.49298e+03 
 5.52041e+01 -6.49296e+03 
 1.67574e+02 -6.49241e+03 
 2.80041e+02 -6.49136e+03 
 3.92635e+02 -6.48987e+03 
 5.05327e+02 -6.48802e+03 
 6.17997e+02 -6.48594e+03 
 7.30397e+02 -6.48381e+03 
 8.42188e+02 -6.48173e+03 
 9.53063e+02 -6.47966e+03 
 1.06321e+03 -6.47757e+03 
 1.17312e+03 -6.47549e+03 
 1.28329e+03 -6.47352e+03 
 1.39409e+03 -6.47178e+03 
 1.50580e+03 -6.47034e+03 
 1.61858e+03 -6.46926e+03 
 1.73255e+03 -6.46855e+03 
 1.84772e+03 -6.46819e+03 
 1.96407e+03 -6.46811e+03 
 2.08163e+03 -6.46824e+03 
 2.20042e+03 -6.46838e+03 
-2.20163e+03 -6.58569e+03 
-2.08347e+03 -6.58570e+03 
-1.96619e+03 -6.58577e+03 
-1.84995e+03 -6.58608e+03 
-1.73482e+03 -6.58676e+03 
-1.62089e+03 -6.58789e+03 
-1.50817e+03 -6.58955e+03 
-1.39661e+03 -6.59177e+03 
-1.28608e+03 -6.59454e+03 
-1.17633e+03 -6.59780e+03 
-1.06689e+03 -6.60133e+03 
-9.57026e+02 -6.60492e+03 
-8.45902e+02 -6.60854e+03 
-7.33639e+02 -6.61219e+03 
-6.20795e+02 -6.61570e+03 
-5.07805e+02 -6.61890e+03 
-3.94905e+02 -6.62160e+03 
-2.82183e+02 -6.62370e+03 
-1.69635e+02 -6.62512e+03 
-5.72082e+01 -6.62584e+03 
 5.51842e+01 -6.62583e+03 
 1.67624e+02 -6.62509e+03 
 2.80201e+02 -6.62362e+03 
 3.92981e+02 -6.62145e+03 
 5.05979e+02 -6.61865e+03 
 6.19107e+02 -6.61533e+03 
 7.32073e+02 -6.61174e+03 
 8.44326e+02 -6.60812e+03 
 9.55222e+02 -6.60450e+03 
 1.06508e+03 -6.60090e+03 
 1.17464e+03 -6.59745e+03 
 1.28453e+03 -6.59432e+03 
 1.39516e+03 -6.59165e+03 
 1.50678e+03 -6.58950e+03 
 1.61955e+03 -6.58789e+03 
 1.73351e+03 -6.58678e+03 
 1.84867e+03 -6.58612e+03 
 1.96494e+03 -6.58582e+03 
 2.08225e+03 -6.58578e+03 
 2.20047e+03 -6.58580e+03 
-2.20143e+03 -6.70225e+03 
-2.08373e+03 -6.70233e+03 
-1.96661e+03 -6.70248e+03 
-1.85038e+03 -6.70290e+03 
-1.73518e+03 -6.70371e+03 
-1.62114e+03 -6.70506e+03 
-1.50832e+03 -6.70707e+03 
-1.39669e+03 -6.70989e+03 
-1.28619e+03 -6.71359e+03 
-1.17664e+03 -6.71824e+03 
-1.06769e+03 -6.72374e+03 
-9.58364e+02 -6.72965e+03 
-8.47134e+02 -6.73570e+03 
-7.34389e+02 -6.74158e+03 
-6.21101e+02 -6.74697e+03 
-5.07825e+02 -6.75162e+03 
-3.94790e+02 -6.75537e+03 
-2.82042e+02 -6.75818e+03 
-1.69539e+02 -6.76005e+03 
-5.71968e+01 -6.76098e+03 
 5.50938e+01 -6.76099e+03 
 1.67435e+02 -6.76007e+03 
 2.79939e+02 -6.75819e+03 
 3.92703e+02 -6.75535e+03 
 5.05796e+02 -6.75151e+03 
 6.19208e+02 -6.74671e+03 
 7.32742e+02 -6.74108e+03 
 8.45627e+02 -6.73510e+03 
 9.56509e+02 -6.72906e+03 
 1.06597e+03 -6.72325e+03 
 1.17517e+03 -6.71800e+03 
 1.28484e+03 -6.71352e+03 
 1.39540e+03 -6.70991e+03 
 1.50704e+03 -6.70714e+03 
 1.61987e+03 -6.70514e+03 
 1.73391e+03 -6.70379e+03 
 1.84912e+03 -6.70297e+03 
 1.96538e+03 -6.70256e+03 
 2.08253e+03 -6.70243e+03 
 2.20027e+03 -6.70240e+03 
-2.20122e+03 -6.81819e+03 
-2.08381e+03 -6.81825e+03 
-1.96676e+03 -6.81834e+03 
-1.85047e+03 -6.81863e+03 
-1.73515e+03 -6.81929e+03 
-1.62093e+03 -6.82051e+03 
-1.50787e+03 -6.82252e+03 
-1.39600e+03 -6.82555e+03 
-1.28525e+03 -6.82985e+03 
-1.17555e+03 -6.83572e+03 
-1.06666e+03 -6.84344e+03 
-9.58084e+02 -6.85314e+03 
-8.46895e+02 -6.86346e+03 
-7.33766e+02 -6.87271e+03 
-6.20256e+02 -6.88045e+03 
-5.06961e+02 -6.88662e+03 
-3.94038e+02 -6.89132e+03 
-2.81477e+02 -6.89470e+03 
-1.69196e+02 -6.89688e+03 
-5.70939e+01 -6.89796e+03 
 5.49473e+01 -6.89797e+03 
 1.67033e+02 -6.89693e+03 
 2.79280e+02 -6.89477e+03 
 3.91796e+02 -6.89141e+03 
 5.04673e+02 -6.88670e+03 
 6.17968e+02 -6.88045e+03 
 7.31635e+02 -6.87244e+03 
 8.45329e+02 -6.86259e+03 
 9.56321e+02 -6.85227e+03 
 1.06546e+03 -6.84318e+03 
 1.17449e+03 -6.83574e+03 
 1.28419e+03 -6.82996e+03 
 1.39488e+03 -6.82567e+03 
 1.50670e+03 -6.82264e+03 
 1.61970e+03 -6.82062e+03 
 1.73390e+03 -6.81938e+03 
 1.84921e+03 -6.81870e+03 
 1.96552e+03 -6.81841e+03 
 2.08260e+03 -6.81833e+03 
 2.20004e+03 -6.81833e+03 
-2.20118e+03 -6.93384e+03 
-2.08387e+03 -6.93380e+03 
-1.96684e+03 -6.93358e+03 
-1.85048e+03 -6.93337e+03 
-1.73501e+03 -6.93341e+03 
-1.62057e+03 -6.93397e+03 
-1.50720e+03 -6.93534e+03 
-1.39490e+03 -6.93788e+03 
-1.28362e+03 -6.94199e+03 
-1.17321e+03 -6.94826e+03 
-1.06339e+03 -6.95754e+03 
-9.53686e+02 -6.97122e+03 
-8.44140e+02 -6.99217e+03 
-7.31362e+02 -7.00615e+03 
-6.18224e+02 -7.01600e+03 
-5.05335e+02 -7.02305e+03 
-3.92812e+02 -7.02809e+03 
-2.80626e+02 -7.03156e+03 
-1.68697e+02 -7.03375e+03 
-5.69298e+01 -7.03481e+03 
 5.47782e+01 -7.03481e+03 
 1.66518e+02 -7.03375e+03 
 2.78387e+02 -7.03156e+03 
 3.90471e+02 -7.02808e+03 
 5.02828e+02 -7.02304e+03 
 6.15466e+02 -7.01599e+03 
 7.28272e+02 -7.00615e+03 
 8.40916e+02 -6.99217e+03 
 9.53632e+02 -6.97122e+03 
 1.06320e+03 -6.95753e+03 
 1.17267e+03 -6.94826e+03 
 1.28281e+03 -6.94200e+03 
 1.39391e+03 -6.93788e+03 
 1.50608e+03 -6.93535e+03 
 1.61936e+03 -6.93399e+03 
 1.73375e+03 -6.93344e+03 
 1.84919e+03 -6.93341e+03 
 1.96554e+03 -6.93363e+03 
 2.08260e+03 -6.93387e+03 
 2.19993e+03 -6.93398e+03 </DataArray>
         </PointData>
         <CellData/>
      </Piece>
   </UnstructuredGrid>
</VTKFile>