<?xml version="1.0" encoding="utf-8"?>
<VTKFile byte_order="LittleEndian" type="UnstructuredGrid" version="0.1">
   <UnstructuredGrid>
      <Piece NumberOfCells="16" NumberOfPoints="13">
         <Points>
            <DataArray Name="Points" NumberOfComponents="3" format="ascii" type="Float32">
0.0000 1.0000 0.0000
0.0000 1.5000 0.0000
0.0000 2.0000 0.0000
1.0000 1.0000 0.0000
1.0000 1.5000 0.0000
1.0000 2.0000 0.0000
2.0000 1.0000 0.0000
2.0000 1.5000 0.0000
2.0000 2.0000 0.0000
0.5000 1.2500 0.0000
0.5000 1.7500 0.0000
1.5000 1.2500 0.0000
1.5000 1.7500 0.0000</DataArray>
         </Points>
         <Cells>
            <DataArray Name="connectivity" format="ascii" type="Int32">
 1 0 9
 2 1 10
 4 3 11
 5 4 12
 4 1 9
 5 2 10
 7 4 11
 8 5 12
 3 4 9
 4 5 10
 6 7 11
 7 8 12
 0 3 9
 1 4 10
 3 6 11
 4 7 12</DataArray>
            <DataArray Name="offsets" format="ascii" type="Int32">3 6 9 12 15 18 21 24 27 30 33 36 39 42 45 48 </DataArray>
            <DataArray Name="types" format="ascii" type="UInt8">5 5 5 5 5 5 5 5 5 5 5 5 5 5 5 5 </DataArray>
         </Cells>
         <PointData>
            <DataArray Name="displacement" NumberOfComponents="2" format="ascii" type="Float64">
-8.01140e+04  3.00000e+00 
-3.66161e+03  2.98966e-01 
 7.27909e+04  3.68208e-01 
-8.01147e+04 -1.52905e+05 
-3.66165e+03 -1.52905e+05 
 7.27914e+04 -1.52905e+05 
-8.01151e+04 -3.05812e+05 
-3.66161e+03 -3.05812e+05 
 7.27919e+04 -3.05812e+05 
-4.18880e+04 -7.64522e+04 
 3.45647e+04 -7.64521e+04 
-4.18883e+04 -2.29358e+05 
 3.45651e+04 -2.29358e+05 </DataArray>
            <DataArray Name="strain" NumberOfComponents="3" format="ascii" type="Float64">
-7.66455e-01 -9.01052e+00 -4.77405e+00 
-1.27725e-01 -8.93436e-01 -4.57892e-01 
 4.42395e-01  2.70227e-01  4.00648e-01 
-5.87252e-01 -8.73897e-01 -7.32223e-01 
 3.88912e-02  6.49709e-01  3.60250e-01 
 5.96425e-01 -7.80107e-01 -1.88743e-01 
-2.40470e-01 -2.21902e-01 -4.97144e-01 
 4.12352e-02 -3.32077e-01 -6.28351e-01 
 2.54332e-01  6.04325e-01 -5.84877e-01 
-3.72383e-01 -2.73829e+00 -1.96532e-01 
 2.31960e-01  1.78530e-02  1.27654e+00 
-1.75151e-01 -2.52870e-01 -1.53826e+00 
 2.38257e-01  9.37904e-02 -1.54895e+00 </DataArray>
            <DataArray Name="stress" NumberOfComponents="3" format="ascii" type="Float64">
-6.06299e+00 -1.17448e+01 -1.64514e+00 
-6.66108e-01 -1.19384e+00 -1.57790e-01 
 7.08314e-01  5.89656e-01  1.38063e-01 
-1.23189e+00 -1.42945e+00 -2.52324e-01 
 4.16620e-01  8.37596e-01  1.24142e-01 
 3.07074e-01 -6.41632e-01 -6.50409e-02 
-4.27481e-01 -4.14683e-01 -1.71316e-01 
-1.36227e-01 -3.93514e-01 -2.16530e-01 
 6.61371e-01  9.02586e-01 -2.01549e-01 
-2.01760e+00 -3.64818e+00 -6.77249e-02 
 3.01286e-01  1.53724e-01  4.39894e-01 
-3.63017e-01 -4.16581e-01 -5.30084e-01 
 3.52179e-01  2.52612e-01 -5.33769e-01 </DataArray>
         </PointData>
         <CellData/>
      </Piece>
   </UnstructuredGrid>
</VTKFile>